
units lj                  # Use reduced LJ style units
atom_style atomic         # Uncharged point particles
atom_modify map hash      # Needed for indexing of clusters etc
                          # Used to be able to find where atoms are in relation to each other.

lattice fcc 1.0 spacing 1 1 1
Lattice spacing in x,y,z = 1.5874011 1.5874011 1.5874011
region box block 0 10 0 10 0 10 units lattice
create_box 2 box
Created orthogonal box = (0.0000000 0.0000000 0.0000000) to (15.874011 15.874011 15.874011)
  3 by 4 by 4 MPI processor grid
create_atoms 1 box
Created 4000 atoms
  using lattice units in orthogonal box = (0.0000000 0.0000000 0.0000000) to (15.874011 15.874011 15.874011)
  create_atoms CPU = 0.002 seconds
set type 1 type/fraction 2 0.95 78393
Setting atom values ...
  3802 settings made for type/fraction
mass 1 1.0
mass 2 1.0
pair_style lj/cut  3.5
pair_modify tail  yes
pair_coeff 1  1  1.0  1.0   # Intearaction between 1 and 1 set with epsilon = 1 and sigma = 1
pair_coeff 1  2  1.5  0.8
pair_coeff 2  2  0.5  0.88

write_data data.0
System init for write_data ...
Neighbor list info ...
  update every 1 steps, delay 10 steps, check yes
  max neighbors/atom: 2000, page size: 100000
  master list distance cutoff = 3.8
  ghost atom cutoff = 3.8
  binsize = 1.9, bins = 9 9 9
  1 neighbor lists, perpetual/occasional/extra = 1 0 0
  (1) pair lj/cut, perpetual
      attributes: half, newton on
      pair build: half/bin/atomonly/newton
      stencil: half/bin/3d
      bin: standard
WARNING: Not all mixed pair coeffs generated from mixing. Use write_data with 'pair ij' option to store all pair coeffs. (../write_data.cpp:312)


#############################
#   M E L T   S Y S T E M   #
#############################

velocity all create 2.4 3143649 mom yes dist gaussian # Assign velocities
                                                    # Temperature 2.4, random number seed, zero linear momentum
                                                                                # Gaussian distribution

timestep 0.002   # simulation timestep
thermo 1000       # output thermodynamic data every 1000 steps bf 100

# Define a fix  in this case with index 1 applied to all
# particles in the simulation. This fix is for simulations
# in the anisotropic NPT ensemble. Note that we use the MTK
# correction.
fix 1 all npt temp 2.4 2.4 0.1 iso 5.68 5.68 0.5 mtk yes tchain 5 pchain 5 # Use NPT ensemble
                                                                         # Set temperature and pressure and damping
                                                                         # Numbers of thermostats in chain and in barostat
run 10000          # run for 10000 steps
Per MPI rank memory allocation (min/avg/max) = 3.642 | 3.644 | 3.648 Mbytes
Step Temp E_pair E_mol TotEng Press Volume 
       0          2.4   -2.9371918            0   0.66190816   -2.1469233         4000 
    1000    2.3890604    -1.840418            0    1.7422767     5.844219    4078.8382 
    2000    2.4106103   -1.8051661            0    1.8098454    5.8285582    4110.8479 
    3000    2.3336997   -1.8128281            0    1.6868464    5.7593794    4104.5602 
    4000    2.4103524   -1.8141133            0    1.8005115    5.6471256    4147.8302 
    5000     2.402888   -1.7930684            0    1.8103625    5.4562759    4192.1006 
    6000     2.416531   -1.8087721            0    1.8151183    5.9040342    4098.3894 
    7000    2.3797368   -1.8293615            0    1.7393513    5.5873657    4135.2788 
    8000    2.3422702   -1.8015906            0    1.7109364     5.576802    4144.9716 
    9000    2.3910743    -1.817114            0    1.7686008    5.5683835    4153.9288 
   10000     2.388802   -1.7935991            0    1.7887081     5.790056    4134.1422 
Loop time of 2.42247 on 48 procs for 10000 steps with 4000 atoms

Performance: 713322.105 tau/day, 4128.021 timesteps/s
99.6% CPU use with 48 MPI tasks x no OpenMP threads

MPI task timing breakdown:
Section |  min time  |  avg time  |  max time  |%varavg| %total
---------------------------------------------------------------
Pair    | 1.0695     | 1.1232     | 1.1887     |   2.5 | 46.37
Neigh   | 0.2044     | 0.21135    | 0.22192    |   0.9 |  8.72
Comm    | 0.74699    | 0.82847    | 0.87881    |   3.4 | 34.20
Output  | 0.00024488 | 0.00024906 | 0.00031513 |   0.0 |  0.01
Modify  | 0.20942    | 0.24401    | 0.26973    |   3.8 | 10.07
Other   |            | 0.01517    |            |       |  0.63

Nlocal:        83.3333 ave          94 max          70 min
Histogram: 2 0 3 3 5 15 10 4 5 1
Nghost:        1601.17 ave        1623 max        1576 min
Histogram: 3 5 4 3 7 3 4 11 3 5
Neighs:        9223.98 ave       10509 max        7308 min
Histogram: 1 1 1 4 6 12 9 6 7 1

Total # of neighbors = 442751
Ave neighs/atom = 110.68775
Neighbor list builds = 902
Dangerous builds = 204

# Equilibrate just above the melting temperature to avoid step fn in T

fix 1 all npt temp 1.25 1.25 0.1 iso 5.68 5.68 0.5 mtk yes tchain 5 pchain 5
run 2000
Per MPI rank memory allocation (min/avg/max) = 3.643 | 3.645 | 3.649 Mbytes
Step Temp E_pair E_mol TotEng Press Volume 
   10000     2.388802   -1.7935991            0    1.7887081     5.790056    4134.1422 
   11000     1.248435   -2.7208218            0  -0.84863749    5.9227144    3218.3178 
   12000    1.2464255   -2.7597512            0  -0.89058036    5.7567752    3206.4582 
Loop time of 0.600225 on 48 procs for 2000 steps with 4000 atoms

Performance: 575784.125 tau/day, 3332.084 timesteps/s
99.7% CPU use with 48 MPI tasks x no OpenMP threads

MPI task timing breakdown:
Section |  min time  |  avg time  |  max time  |%varavg| %total
---------------------------------------------------------------
Pair    | 0.2634     | 0.28608    | 0.32009    |   2.4 | 47.66
Neigh   | 0.039156   | 0.041351   | 0.046372   |   0.7 |  6.89
Comm    | 0.1836     | 0.22231    | 0.24611    |   2.9 | 37.04
Output  | 5.5929e-05 | 5.7261e-05 | 7.2576e-05 |   0.0 |  0.01
Modify  | 0.04017    | 0.045692   | 0.050064   |   1.4 |  7.61
Other   |            | 0.004729   |            |       |  0.79

Nlocal:        83.3333 ave          90 max          76 min
Histogram: 3 3 6 2 6 8 9 3 5 3
Nghost:        1901.92 ave        1928 max        1877 min
Histogram: 1 1 7 6 7 13 6 5 0 2
Neighs:        11875.0 ave       13180 max       10720 min
Histogram: 6 4 5 5 3 8 4 6 5 2

Total # of neighbors = 570002
Ave neighs/atom = 142.50050
Neighbor list builds = 144
Dangerous builds = 18

#############################
# L I N E A R  Q U E N C H  #
#############################

# Define solid atoms. This closely follows ten Wolde  Ruiz-Montero and Frenkel  Faraday Discuss  1996  104  93-110
# Compute components of the per-atom q6 vector
compute q6 all orientorder/atom degrees 1 6 components 6 nnn NULL cutoff 1.3 # compute the Q6 parameter.
                                                                             # Use all neighbours within 1.3 unit cell.

# get number of connections
compute coord_number all coord/atom orientorder q6 0.5

# An atom is solid if it has 8 or more connections (of a possible 14)
variable is_solid atom c_coord_number>=8
group solid dynamic all var is_solid    # Must be dynamic to update
dynamic group solid defined

# do clustering
compute cluster solid cluster/atom 1.3 # Create a cluster where all atoms within are solid and max 1.3 units from another member

# define chunks one chunk per cluster
compute clus_chunks solid chunk/atom c_cluster nchunk every compress yes  # Says which atoms are in which chunk

# count the size of each chunk
compute size_chunks solid property/chunk clus_chunks count


# Find the maximum entry in the vector of chunk sizes
variable max_n equal max(c_size_chunks)


# Thermo style which includes this variable
# thermo_style custom step temp pe vol v_max_n

thermo ${N}  # Print the thermo information every 100 steps
thermo 1000  

# Reset the npt fix at a lower temperature (below freezing)
fix 1  all npt temp  ${temp} ${temp}  0.1  iso  5.68  5.68  0.5  mtk yes tchain  5  pchain  5
fix 1  all npt temp  0.45 ${temp}  0.1  iso  5.68  5.68  0.5  mtk yes tchain  5  pchain  5
fix 1  all npt temp  0.45 0.45  0.1  iso  5.68  5.68  0.5  mtk yes tchain  5  pchain  5

dump dmp2 all dcd ${N} traj.dcd
dump dmp2 all dcd 1000 traj.dcd


compute msd all msd com yes
variable twopoint equal c_msd[4]/6/(step*dt+1.0e-6)
fix 9 all vector 10 c_msd[4]
variable fit equal slope(f_9)/6/(10*dt)
thermo_style custom step temp pe c_msd[4] v_twopoint v_fit v_max_n

fix 1 all npt temp 1.25 ${temp} 0.1 iso 5.68 5.68 0.5 mtk yes tchain 5 pchain 5
fix 1 all npt temp 1.25 0.45 0.1 iso 5.68 5.68 0.5 mtk yes tchain 5 pchain 5
run 500000 # 5000000  # Run for this many steps
Neighbor list info ...
  update every 1 steps, delay 10 steps, check yes
  max neighbors/atom: 2000, page size: 100000
  master list distance cutoff = 3.8
  ghost atom cutoff = 3.8
  binsize = 1.9, bins = 8 8 8
  4 neighbor lists, perpetual/occasional/extra = 1 3 0
  (1) pair lj/cut, perpetual
      attributes: half, newton on
      pair build: half/bin/atomonly/newton
      stencil: half/bin/3d
      bin: standard
  (2) compute orientorder/atom, occasional
      attributes: full, newton on
      pair build: full/bin/atomonly
      stencil: full/bin/3d
      bin: standard
  (3) compute coord/atom, occasional
      attributes: full, newton on
      pair build: full/bin/atomonly
      stencil: full/bin/3d
      bin: standard
  (4) compute cluster/atom, occasional
      attributes: full, newton on
      pair build: full/bin/atomonly
      stencil: full/bin/3d
      bin: standard
Per MPI rank memory allocation (min/avg/max) = 9.818 | 9.821 | 9.827 Mbytes
Step Temp PotEng c_msd[4] v_twopoint v_fit v_max_n 
   12000    1.2464255   -2.7597512 1.8834054e-30 1.3079204e-32 8.3333333e+20            2 
   13000     1.250942   -2.7532129    1.0847452 0.0069534946  0.092224378            2 
   14000    1.2539713   -2.7326589    2.1954385  0.013068086  0.093467709            1 
   15000    1.2273879   -2.7456115    3.3692528   0.01871807   0.09301428            1 
   16000    1.2114398   -2.7884206    4.5856744   0.02388372  0.095579712            3 
   17000    1.2651938   -2.7626931    5.7619417  0.028244811  0.096917612            1 
   18000     1.230644   -2.7870177    7.0229079  0.032513461   0.09778464            1 
   19000    1.2592687   -2.7653313    8.2240625  0.036070449  0.099155674            1 
   20000    1.2497605   -2.7509736    9.4309292  0.039295537  0.099711915            3 
   21000    1.2362248   -2.7914422     10.56137  0.041910199  0.099453164            1 
   22000     1.228754   -2.7521736    11.879529  0.044998216  0.099423152       -1e+20 
   23000    1.2124379   -2.7938884    13.082484  0.047400302  0.099750322            3 
   24000    1.2302684   -2.7840816     14.47849  0.050272534   0.10029398            2 
   25000    1.2462147   -2.7697456    15.734206  0.052447352   0.10098989            1 
   26000    1.2610101   -2.7769687    16.886701  0.054124042   0.10139341            1 
   27000    1.2212989   -2.7774725    18.021246   0.05562113   0.10146733            2 
   28000    1.2262002   -2.7989334    19.097258  0.056837075    0.1012892            2 
   29000    1.2488465   -2.8013761    20.244404  0.058173573   0.10105901            1 
   30000    1.2163351   -2.7742685    21.474167  0.059650463    0.1007751            1 
   31000     1.212157   -2.7922638    22.695945  0.061010604   0.10072391            1 
   32000    1.2165924   -2.8066495    23.828493  0.062053367   0.10062726            1 
   33000    1.1874851   -2.7858897    24.844702  0.062739145   0.10039727            1 
   34000    1.2254513   -2.7751985    26.112465   0.06400114   0.10012104            1 
   35000    1.2017677   -2.7973502    27.254848  0.064892494  0.099896408            2 
   36000    1.2153683   -2.8307522    28.450402   0.06585741  0.099769915            1 
   37000    1.1957945   -2.8103644    29.913302  0.067372301  0.099781282            2 
   38000     1.197651   -2.8079058    30.989905  0.067960317  0.099767752            3 
   39000    1.1786094   -2.8134319    32.155066  0.068707405  0.099720377            1 
   40000    1.1935881    -2.791515    33.409162  0.069602421  0.099711855            3 
   41000    1.1852217   -2.7631577    34.394267  0.069907046  0.099612558            3 
   42000    1.2026297   -2.8359559    35.529344  0.070494729  0.099504582            1 
   43000    1.1971677   -2.8316109     36.52631  0.070787422  0.099350388            4 
   44000    1.2015103   -2.7946524    37.673528  0.071351377  0.099135683            1 
   45000    1.2178658   -2.8130525    38.929681  0.072092001  0.098875756            1 
   46000    1.1987511   -2.8223869    39.828386  0.072152873  0.098726922            2 
   47000    1.1934195   -2.8223835    41.189293  0.073030661  0.098579085            2 
   48000    1.1743113   -2.8188323    41.886311  0.072719289  0.098424901            3 
   49000    1.1779415    -2.793244    43.269879  0.073588229  0.098261824            3 
   50000    1.2008382   -2.8153726     44.50592  0.074176532  0.098172659            1 
   51000    1.2064391   -2.8157811    45.713841  0.074695818  0.098060443            1 
   52000    1.1819448   -2.8344603    46.742005  0.074907059  0.097964777            5 
   53000    1.2009971   -2.8053732    47.997393  0.075467598   0.09788226            3 
   54000    1.1822927   -2.8278105    49.363645  0.076178464  0.097811571            2 
   55000    1.1653245   -2.8419387    50.457979  0.076451482  0.097758975            1 
   56000     1.182083   -2.8600521    51.217928  0.076217154  0.097660626            2 
   57000    1.2068092   -2.8496572    52.504889  0.076761533  0.097564011            2 
   58000    1.1654395   -2.8287532    53.776164  0.077264602  0.097525346            4 
   59000     1.176927   -2.8534787    55.121881  0.077855764  0.097461034            1 
   60000    1.1615958   -2.8759932     55.61471  0.077242652  0.097409069            3 
   61000    1.1683528   -2.8411699    57.025408  0.077903562  0.097317555            1 
   62000    1.1773249   -2.8500851    58.328009   0.07839786  0.097233092            4 
   63000    1.1635304   -2.8379183    59.218276  0.078331053  0.097118878            2 
   64000    1.1820532   -2.8403046    60.149782  0.078320029  0.097005391            1 
   65000    1.1661614   -2.8358644    61.448449  0.078780063  0.096920892            4 
   66000    1.1677333   -2.8388735    62.673744  0.079133515  0.096838903            1 
   67000    1.1559559   -2.8510704    63.790933  0.079341956  0.096769182            1 
   68000    1.1472092   -2.8733369     65.07423   0.07974783  0.096694183            1 
   69000    1.1477626   -2.8595382    65.868389  0.079551194  0.096597522            4 
   70000    1.1338163   -2.8542529    66.500575  0.079167351  0.096465389            1 
   71000    1.1846222   -2.8974048    67.348846   0.07904794  0.096280795            1 
   72000    1.1647209    -2.878565    68.603816  0.079402564  0.096127736            1 
   73000    1.1475032   -2.8861599    70.019687  0.079931149  0.095999701            4 
   74000    1.1666809      -2.8455    70.831013  0.079764654  0.095899244            2 
   75000    1.1595178   -2.8745455     72.09724  0.080108044  0.095801893            6 
   76000    1.1584121    -2.856022    73.364473  0.080443501  0.095695934            3 
   77000    1.1476553   -2.8865316     74.19654  0.080299285  0.095576946            4 
   78000    1.1566179   -2.8519338    75.419193   0.08057606  0.095460587            1 
   79000    1.1284545   -2.9036411    75.997312   0.08016594  0.095322657            4 
   80000    1.1628769    -2.892362    77.009908  0.080218653  0.095159955            4 
   81000    1.1307822   -2.8532005    77.902489  0.080146593  0.095002979            2 
   82000    1.1337503   -2.9207977    78.587584   0.07986543  0.094826427            1 
   83000    1.1352242   -2.8804104    79.983612  0.080304831  0.094634557            2 
   84000    1.1156604     -2.85301    80.895782  0.080253752  0.094460057            4 
   85000    1.1523411   -2.8957628    81.513038  0.079914743  0.094269986            2 
   86000     1.108388   -2.8655549      82.7631  0.080196801  0.094074134            1 
   87000     1.137067   -2.8877635    83.570692  0.080048555  0.093896003            1 
   88000    1.1133426   -2.8753265    84.584846  0.080099285  0.093709604            1 
   89000    1.1334364   -2.9234973    85.671621  0.080216874  0.093512063            1 
   90000     1.125316   -2.9055374    86.312546  0.079919023  0.093331361            3 
   91000    1.1524201   -2.9036146    86.673768  0.079371582  0.093131043            3 
   92000      1.13045   -2.9201128    87.473524  0.079233264  0.092910569            4 
   93000    1.1341162   -2.8998973    89.043265  0.079787872  0.092689277            4 
   94000    1.1215678   -2.8830118    89.824158  0.079631345  0.092470644            2 
   95000    1.1252682   -2.9140442    90.937515   0.07976975  0.092256361            4 
   96000    1.1129849   -2.9210371    91.410859  0.079349704  0.092034333            2 
   97000     1.139941   -2.8945494    92.230279  0.079235635  0.091811136            2 
   98000    1.1266142   -2.9166068    93.813501  0.079773385   0.09159872            1 
   99000    1.0841969   -2.9328748    94.189997  0.079284509  0.091398389            2 
  100000     1.123645   -2.9250147    94.821155  0.079017629  0.091203474            2 
  101000    1.1171865   -2.9330294    96.517194  0.079634648  0.090998674            3 
  102000    1.1297893   -2.9548713    97.610009  0.079746739  0.090807686            4 
  103000      1.12142   -2.9121139    98.396291  0.079608649  0.090636829            1 
  104000    1.1012367   -2.9507077      99.1703  0.079463381   0.09047202            3 
  105000    1.0893707   -2.9115847    100.43847  0.079713072  0.090313541            2 
  106000    1.1012897   -2.9642076    101.18699  0.079549523  0.090159074            2 
  107000    1.1177013   -2.9401513    101.81239  0.079293139  0.090002981            2 
  108000    1.1203556   -2.9205794     103.1383  0.079582023  0.089847623            1 
  109000    1.1069753   -2.9055552    104.22158  0.079680108  0.089687885            3 
  110000    1.0943317   -2.9474414    104.25207  0.078978839  0.089512462            1 
  111000    1.1029794    -2.933405    105.22438   0.07899728  0.089338707            2 
  112000    1.0975719   -2.9564904    106.03716  0.078896693  0.089166885            2 
  113000    1.0853841   -2.9400898    107.05136  0.078946432  0.088990115            1 
  114000    1.0848066   -2.9349018    108.50269  0.079314834  0.088823939            1 
  115000    1.0659752   -2.9424777    108.80191  0.078841963  0.088658384            4 
  116000    1.0710304   -2.9291312     110.1926  0.079161351  0.088495028            2 
  117000    1.0872004   -2.9728545    110.83389  0.078941519  0.088340249            1 
  118000    1.0818826   -2.9338653    112.23871  0.079264622  0.088198112            5 
  119000    1.0914773   -2.9441854    113.10094  0.079202341  0.088044695            2 
  120000    1.0619589   -2.9632317    113.56373  0.078863699    0.0878907            2 
  121000    1.0772541   -2.9471981    113.91178   0.07845164  0.087725604            2 
  122000    1.0671812   -2.9500986    115.03484  0.078575711  0.087557643            3 
  123000    1.0661951   -2.9816482    116.12602  0.078676163  0.087393218            3 
  124000    1.0951696    -2.947939    116.81882  0.078507271  0.087232717            2 
  125000    1.0781568   -2.9324961    117.63801  0.078425339  0.087071082            2 
  126000    1.0717491   -2.9628526    118.36973  0.078286855  0.086915501            2 
  127000    1.0584761   -2.9852564     119.1963  0.078212795  0.086759578            3 
  128000    1.0480161   -2.9879861    120.06888  0.078169841  0.086607132            3 
  129000    1.0727082   -2.9755195    121.30389  0.078361688  0.086463329            2 
  130000    1.0709231   -2.9754796     122.0923  0.078264294  0.086326625            2 
  131000    1.0768893   -2.9839503    122.97999  0.078231544  0.086183038            2 
  132000    1.0861701   -2.9700723    124.31838  0.078483828  0.086048219            1 
  133000    1.0240768   -2.9559529    125.82609  0.078838403  0.085927963            5 
  134000    1.0360485   -2.9831591    126.90342  0.078920037   0.08581684            1 
  135000    1.0238713   -2.9889642    126.78766  0.078263986  0.085696923            2 
  136000    1.0650115   -2.9771052    127.85695  0.078343716  0.085565484            2 
  137000    1.0331741   -2.9871431    129.25466  0.078622057  0.085444133            2 
  138000    1.0393842   -2.9771164    130.17676  0.078609156  0.085337252            5 
  139000    1.0633121   -2.9718436    131.27035  0.078699249  0.085229046            4 
  140000    1.0402664   -2.9743829    131.68145  0.078381816  0.085118706            2 
  141000    1.0392315   -2.9910695    132.54989  0.078339179  0.085009098            2 
  142000    1.0200271   -2.9816009    133.33977  0.078251036  0.084896836            4 
  143000    1.0554227   -3.0184295    133.89026  0.078024624  0.084783056            1 
  144000    1.0246975   -3.0100806    135.74612  0.078556781  0.084680871            2 
  145000    1.0371147   -3.0214854    135.66135  0.077966292  0.084572547            3 
  146000     1.026582   -2.9768235    136.89062  0.078133914  0.084463445            1 
  147000    1.0363262   -3.0121485    137.39466  0.077888131   0.08435717            3 
  148000    1.0049935   -2.9994964     138.5454  0.078009798  0.084244968            2 
  149000    1.0322138   -3.0234676    138.77749  0.077616045  0.084127306            2 
  150000    1.0119881   -3.0576046    139.32803  0.077404463  0.084006768            2 
  151000    1.0183529   -3.0130914    141.27373  0.077965636  0.083891782            2 
  152000    1.0382431   -3.0181369    141.09292  0.077353575  0.083785504            5 
  153000    1.0132037   -3.0050199    143.02507  0.077900364   0.08368249            2 
  154000    1.0303484   -3.0003726    143.97343  0.077907698  0.083585839            2 
  155000    1.0270288   -3.0290916     144.6107  0.077747686  0.083493843            2 
  156000    1.0105297   -3.0133565    145.98989  0.077986052  0.083403119            1 
  157000    1.0179462   -3.0443612     146.2584  0.077631845  0.083312226            2 
  158000    1.0364459   -3.0328316    147.08039  0.077574047   0.08321686            2 
  159000    1.0078234   -3.0375782    148.33067  0.077741439  0.083122667            4 
  160000      1.02051    -3.013433    148.51026  0.077349091  0.083026169            1 
  161000    1.0023494   -3.0296352    149.46687  0.077363805  0.082923657            1 
  162000    1.0101512   -3.0251938     150.1136   0.07721893  0.082811852            3 
  163000   0.99794927   -3.0721949    151.50721  0.077457674  0.082713114            1 
  164000    1.0096953   -3.0424932    151.99374  0.077232591  0.082617979            1 
  165000    1.0221713     -3.04974    152.53712  0.077038951  0.082517084            5 
  166000   0.99855208   -3.0288249    153.90247  0.077260274  0.082410945            2 
  167000   0.99899429   -3.0607293    153.90313  0.076797971  0.082310158            3 
  168000    1.0031499   -3.0272794     155.3632   0.07706508  0.082207967            3 
  169000    1.0159935   -3.0326439    155.89584  0.076871718   0.08211385            3 
  170000   0.97971196   -3.0383108     156.8064   0.07686588  0.082014284            3 
  171000   0.98601475   -3.0774376    158.09459  0.077044145  0.081917532            1 
  172000   0.98737285   -3.0514331    158.10242  0.076600008  0.081821371            2 
  173000    1.0089829   -3.0413583    158.32742  0.076265618   0.08172071            2 
  174000   0.99752951   -3.0749933    159.95488  0.076606741  0.081613877            4 
  175000    0.9926591   -3.0678869    160.01702  0.076198581  0.081504952            2 
  176000   0.98823717   -3.0306152    161.41279   0.07642651  0.081398877            3 
  177000   0.97400319   -3.0650941     162.0129  0.076277259  0.081297654            3 
  178000    0.9990172   -3.0826713    163.54089  0.076564085  0.081201078            3 
  179000   0.98733017    -3.067592    164.37698  0.076525594  0.081106127            3 
  180000   0.98487198   -3.0956851    164.37047  0.076097442   0.08100854            3 
  181000   0.97664996   -3.0948373    165.98558  0.076420617  0.080919573            2 
  182000   0.99524185   -3.1094457    166.25304  0.076123188  0.080828806            2 
  183000   0.98254265   -3.0871178    166.81851  0.075964712  0.080736127            2 
  184000   0.98206906   -3.0750321    168.27348  0.076210815  0.080641283            3 
  185000   0.96030794   -3.0656829    168.34727  0.075832102  0.080537163            2 
  186000   0.97280945   -3.0853567    169.34409  0.075871006   0.08043104            2 
  187000   0.96473592   -3.0836005    169.41359  0.075496254    0.0803295            1 
  188000   0.97797906   -3.1008725    170.37487  0.075520776  0.080223538            4 
  189000   0.95561919   -3.1125014    169.90155  0.074912501  0.080108407            2 
  190000   0.95724618    -3.104929    170.97182   0.07498764  0.079990853            2 
  191000   0.96859636   -3.1090826    172.22462  0.075141631  0.079874255            5 
  192000    0.9564426     -3.10828    172.66045   0.07493943  0.079753708            3 
  193000   0.97564257   -3.1019484    173.58422  0.074950008  0.079636697            3 
  194000   0.97468423   -3.1085359    174.19682  0.074826811  0.079526937            2 
  195000   0.98244935   -3.1405082    174.97498  0.074775632  0.079412097            2 
  196000   0.94186318   -3.1001599    175.80535  0.074747173  0.079301139            2 
  197000   0.95505095   -3.0985427    176.29358  0.074574273  0.079186513            4 
  198000   0.93648766   -3.1125595    177.03087  0.074507943  0.079074814            3 
  199000   0.94348134   -3.0932274    177.77175  0.074443779  0.078955385            2 
  200000   0.94329427    -3.132863    178.08648  0.074202699  0.078835656            8 
  201000   0.94184284   -3.1100545    179.10405  0.074255411  0.078719573            2 
  202000   0.97239367    -3.131698    179.74241  0.074151161  0.078600523            2 
  203000   0.94243666   -3.1203203    180.23076  0.073986353  0.078480921            4 
  204000    0.9347085   -3.1024174    181.47936  0.074133723  0.078362381            2 
  205000   0.95832728   -3.1235533    181.60406  0.073822788  0.078246486            3 
  206000    0.9414701   -3.1372773    182.88171  0.073981273  0.078131264            1 
  207000   0.91801421   -3.1425395    182.43948  0.073445844   0.07801374            3 
  208000   0.91978905   -3.1598657    182.96978  0.073305199  0.077889183            2 
  209000   0.92986393   -3.1446706    184.40377  0.073526223  0.077769067            2 
  210000   0.94251825    -3.158607    184.70197  0.073294431   0.07765362            2 
  211000   0.93275375   -3.1185398    185.60092  0.073302099  0.077540975            3 
  212000   0.91995291   -3.1650177    186.03952  0.073128741  0.077425326            2 
  213000   0.92895823   -3.1400399    187.00196  0.073161956  0.077310988            6 
  214000   0.93497684   -3.1637873    187.91127  0.073174171  0.077195893            2 
  215000   0.91856799    -3.147914    187.56332  0.072698959  0.077078725            4 
  216000   0.91756547   -3.1501532    188.82388   0.07284872  0.076963317            3 
  217000   0.91152129   -3.1840036    188.88692  0.072537218  0.076844592            4 
  218000   0.92283249   -3.1458535     190.6179   0.07286617  0.076721138            2 
  219000   0.91043473   -3.1680331    190.75835   0.07258689  0.076603674            4 
  220000   0.94291105   -3.1787308    191.27119  0.072451207   0.07648591            3 
  221000   0.92773075    -3.154218    192.35013  0.072530213  0.076370136            3 
  222000   0.90141472   -3.1523377    192.30158  0.072185278  0.076253185            2 
  223000   0.93187171    -3.188776    193.22026  0.072204881  0.076132358            2 
  224000   0.90981122   -3.1900976    193.52978  0.071997685   0.07601298            3 
  225000   0.89679879   -3.1574429    193.19666   0.07155432  0.075895101            4 
  226000   0.92239471   -3.1619863     194.0699  0.071559697  0.075773819            2 
  227000   0.89468435   -3.1680288    195.21333  0.071664216  0.075652801            4 
  228000   0.90081499   -3.1765011    195.67353  0.071518103  0.075532437            4 
  229000   0.89706319   -3.1670919    196.11065  0.071364867  0.075408525            2 
  230000   0.89628801    -3.170982    195.91339  0.070983112  0.075282158            5 
  231000   0.88758767   -3.1673834    197.09824   0.07110326  0.075155563            3 
  232000   0.90019061   -3.2055817    197.40885  0.070908352  0.075028497            4 
  233000   0.88673241   -3.1855337    198.33965  0.070936928   0.07489879            3 
  234000   0.88972875   -3.2080158    198.51377  0.070695788  0.074772068            4 
  235000   0.89350746    -3.208469    197.84608  0.070158185  0.074639673            5 
  236000    0.9103102   -3.1999256    199.18795  0.070334727  0.074509755            6 
  237000   0.88903714    -3.208083    199.54684  0.070164149  0.074376071            6 
  238000   0.88003186   -3.2108153    199.22351  0.069756132  0.074241513            2 
  239000   0.88777192     -3.18129    201.36342  0.070210397  0.074108131            5 
  240000   0.88998351   -3.2145657    200.17391   0.06950483  0.073970978            4 
  241000   0.89562551    -3.190991    201.55209  0.069692977  0.073834187            3 
  242000   0.87570771   -3.2206305    201.90769  0.069527441  0.073697851            2 
  243000   0.88538189   -3.1789473    202.38137  0.069403763  0.073561457            3 
  244000   0.88037857    -3.201031    203.89828   0.06963739  0.073426504            2 
  245000   0.89169988    -3.181701     204.2801  0.069483027  0.073294886            2 
  246000   0.87644479   -3.2189534    205.19573  0.069510748  0.073165956            5 
  247000   0.87031435   -3.1994295      205.004  0.069164642  0.073034584            4 
  248000    0.8619868   -3.2228857     205.4968  0.069051346  0.072901054            2 
  249000   0.87933142   -3.2172063    206.07952  0.068969049  0.072768858            3 
  250000   0.86089781   -3.2072341    206.46149  0.068820495  0.072634908            2 
  251000    0.8630388   -3.2019384    206.13853  0.068439088  0.072497175            2 
  252000   0.87369276   -3.2177199     207.0083  0.068455125  0.072360462            4 
  253000   0.87159215   -3.2437412    206.73343  0.068094016  0.072223055            6 
  254000   0.88329255   -3.2403862    207.69515  0.068141454  0.072085367            5 
  255000   0.88054314   -3.2541144    208.60787  0.068172507  0.071948501            5 
  256000   0.88088772   -3.2623252    208.06429  0.067729261  0.071810607            2 
  257000   0.85432718   -3.2476371    209.31296  0.067870611  0.071670993            3 
  258000   0.84303566   -3.2267725    209.17137  0.067561811  0.071531773            3 
  259000   0.83137742   -3.2613837    209.03095  0.067255777  0.071391801            3 
  260000   0.86259531   -3.2549362    210.32749  0.067412658  0.071253084            5 
  261000   0.83587682   -3.2897907    209.87394   0.06700956  0.071114816            4 
  262000   0.85071611   -3.2418602    210.94934  0.067095847  0.070976743            3 
  263000   0.85903532   -3.2596596    212.04836  0.067188961  0.070839154            4 
  264000   0.83896875   -3.2527793    212.54026  0.067089727  0.070700547            2 
  265000   0.83792615   -3.2736716    213.35634  0.067093189  0.070567531            3 
  266000   0.83397761   -3.2342318    214.00862  0.067045307  0.070437905            5 
  267000   0.84330256   -3.2660539    214.69775  0.067009285  0.070309233            3 
  268000   0.84414199   -3.2999619    214.91862   0.06682793  0.070181971            4 
  269000   0.82978435   -3.2792448    215.27035  0.066688459  0.070054178            4 
  270000   0.84987339   -3.2594859    215.57149  0.066534411  0.069924294            3 
  271000   0.84811897   -3.2844686     216.6548  0.066622019  0.069793633            2 
  272000   0.82998984   -3.2597362    216.12957  0.066216166  0.069662222            8 
  273000   0.83981867   -3.2629685    216.50272  0.066087522  0.069531096            2 
  274000   0.83771477   -3.2842882    218.23313  0.066372607   0.06940015            5 
  275000   0.82910254    -3.299327    216.95476  0.065743865  0.069265914            4 
  276000   0.81454461   -3.2852946    217.91978  0.065797036  0.069132348            2 
  277000   0.81641554   -3.2653872    219.26857  0.065965275  0.069002736            3 
  278000   0.84285247   -3.3027927    219.05487   0.06566393   0.06887458            5 
  279000   0.84201291   -3.2730861    220.27742  0.065793733  0.068747488            4 
  280000   0.82167405   -3.3084913    220.08999  0.065502973  0.068618391            4 
  281000   0.82514781   -3.3108536    220.58398  0.065416365  0.068491464            5 
  282000   0.81819832     -3.34143    220.82714  0.065256248  0.068364885            3 
  283000   0.83627032    -3.280311    222.58575  0.065543507  0.068239134            2 
  284000   0.80634378   -3.2971932    222.96636  0.065424402  0.068114865            5 
  285000   0.81974815   -3.3149704    223.28841  0.065289009  0.067990793            4 
  286000   0.81955628   -3.3307582    222.91194  0.064951032  0.067869165            9 
  287000   0.81293962   -3.3286269    223.27892  0.064831276  0.067744496            5 
  288000   0.80031648   -3.3259903    223.62502  0.064706313  0.067618429            4 
  289000   0.79774899   -3.3060427    224.31425  0.064681157  0.067490967            3 
  290000    0.7998166   -3.3297652    224.10771  0.064398766  0.067364919            5 
  291000   0.81216852    -3.323409    225.16525  0.064480312  0.067239568            4 
  292000   0.81003303   -3.3069376    224.77871  0.064149176  0.067114199            7 
  293000   0.78492476   -3.3131725    225.47854  0.064129276  0.066990503            3 
  294000   0.79714074   -3.3550291    226.87478  0.064306911  0.066865078            2 
  295000   0.80518005   -3.3099256     228.0901  0.064432233  0.066742493            4 
  296000   0.78601444   -3.3395874    226.99012  0.063904876  0.066619738            9 
  297000   0.80627074    -3.344878    228.12125  0.064007084  0.066496359            7 
  298000   0.79415774   -3.3612549    227.38468   0.06358632  0.066372927            4 
  299000   0.80304538   -3.3391481    228.77469  0.063761061  0.066247302            3 
  300000   0.79837334   -3.3624848     228.5671  0.063490862   0.06612259            4 
  301000   0.77440805    -3.346253    229.02706   0.06340727  0.065998728            7 
  302000   0.79325374   -3.3608082    229.38625  0.063296426  0.065874539            4 
  303000   0.79068548   -3.3438932    230.20424  0.063312497  0.065752169            8 
  304000   0.79173532   -3.3576551    229.96448  0.063038509  0.065628907            3 
  305000   0.78927745   -3.3678803    230.34032  0.062934513   0.06550571            7 
  306000   0.77820864   -3.3515827    230.31547  0.062722078   0.06538287            7 
  307000   0.79506046   -3.3570912    232.29708  0.063055667   0.06525944            6 
  308000   0.76517512   -3.3780765    231.74547  0.062701697  0.065137983            5 
  309000   0.77344905   -3.3650299    231.75898  0.062502423  0.065016015            7 
  310000   0.77482186   -3.3871041    232.82733  0.062587992  0.064894058            5 
  311000   0.77738283   -3.4020629    232.22879  0.062226363   0.06477132            4 
  312000   0.77141501   -3.3507282    232.33494  0.062055272  0.064647537            2 
  313000   0.75842065   -3.3744461    233.14462  0.062072582  0.064524255            2 
  314000   0.76989762    -3.402722    234.31671  0.062185963  0.064401858            6 
  315000   0.77646969   -3.3536789     233.8547  0.061866324  0.064278595            3 
  316000    0.7703138   -3.3884707    233.70613  0.061631364  0.064155154            6 
  317000   0.75721949   -3.3805134    234.76201  0.061714515  0.064032951            3 
  318000   0.74692996   -3.3887824    234.27976  0.061394066  0.063911277            4 
  319000   0.75586509   -3.4106128    234.45395  0.061247113  0.063789237            4 
  320000   0.76143286   -3.3754514    236.04217  0.061469314  0.063667086            5 
  321000   0.76291089   -3.4050615    235.70866  0.061191241  0.063544252            3 
  322000    0.7562137    -3.401799    236.24218  0.061139282  0.063421258            2 
  323000   0.74878362   -3.3911063    236.69908  0.061067874  0.063297688            9 
  324000   0.75792654   -3.4106639     236.7039  0.060880632  0.063172916            3 
  325000   0.72738383   -3.4076007    235.77882  0.060456108  0.063047975            3 
  326000   0.73250169   -3.4401423    236.60708  0.060482383  0.062920702            2 
  327000   0.74327359   -3.4195307    236.88984   0.06036948  0.062793057            3 
  328000   0.74210938   -3.4363663    236.44501   0.06007241  0.062665563            5 
  329000    0.7418322   -3.4290358    236.97163   0.06002321  0.062536956            7 
  330000   0.74883992   -3.4277196    238.20957  0.060153931  0.062410783            6 
  331000   0.73914444    -3.429493    238.20601  0.059971301  0.062284651            5 
  332000   0.72983277   -3.4527358    238.17489  0.059782854  0.062159041            4 
  333000   0.74522565   -3.4353802    238.36201  0.059650154  0.062035046            6 
  334000   0.73389964   -3.4396572    238.50682  0.059507691   0.06191012            4 
  335000   0.74262062   -3.4320955    239.31935  0.059532176  0.061784489            9 
  336000   0.73048247   -3.4267191     239.2609  0.059340502  0.061657907            4 
  337000   0.72428298   -3.4402157     239.1318  0.059132491  0.061530042            5 
  338000   0.73556266   -3.4258784    240.05738  0.059185745   0.06140215            5 
  339000   0.72757306   -3.4412983    239.65801  0.058912983  0.061273628            3 
  340000   0.73583457   -3.4715373    240.24948  0.058884677  0.061147552            5 
  341000   0.72974623   -3.4468113    239.93432  0.058634976   0.06102035            6 
  342000   0.73010592   -3.4477677     240.1802  0.058523441  0.060895146            5 
  343000   0.71827532   -3.4540558    240.68821  0.058476241  0.060768379            3 
  344000   0.71880495   -3.4470891    241.38251  0.058474445  0.060642043            6 
  345000   0.71499069   -3.4754322    241.59121  0.058355364  0.060516549            4 
  346000   0.70982063   -3.4439421    241.02439  0.058050189  0.060389827            6 
  347000   0.71389446   -3.4696173    241.17385  0.057918792  0.060261132            6 
  348000   0.69531918    -3.463057    241.27811  0.057777324  0.060131841            7 
  349000   0.70874309   -3.4824585    240.60564  0.057451203  0.060001188            3 
  350000   0.70714408   -3.4857028    241.58071  0.057519217  0.059869968            4 
  351000   0.73073706   -3.4592178     242.5673  0.057589578  0.059740614            4 
  352000   0.70066119   -3.4835872    242.21013  0.057341414  0.059610367            5 
  353000   0.70595176   -3.4736164    241.67588  0.057052851  0.059479519            3 
  354000   0.68392906   -3.4682757    241.90496  0.056945613  0.059346981            3 
  355000   0.69444476   -3.4786625    242.08934  0.056828484  0.059215897            6 
  356000   0.70830392   -3.4731552    242.03747   0.05665671  0.059084053            5 
  357000   0.70264207   -3.4886402    242.40703  0.056584273  0.058953631            6 
  358000   0.68671225     -3.49307    243.64168  0.056713612  0.058824604            4 
  359000   0.68975683   -3.4915271    243.56329  0.056537439  0.058696018            2 
  360000    0.7016984   -3.5127825    244.26627  0.056543117  0.058568131            5 
  361000   0.69460576   -3.4973658    244.23011  0.056378141  0.058440184            4 
  362000   0.67543356    -3.500065    245.31239  0.056471543  0.058313249           17 
  363000   0.68053429   -3.5056214     244.9688  0.056237097  0.058187542            4 
  364000   0.68057058   -3.5371976    244.53922  0.055984253  0.058060536            5 
  365000   0.68546973   -3.5261669    244.56852  0.055837561  0.057932778            5 
  366000   0.66867908   -3.5254001    245.62186  0.055924831  0.057805675            7 
  367000   0.67916933   -3.5139297    245.26649  0.055691756  0.057678777            6 
  368000   0.68213056   -3.5090928    245.91368  0.055686974  0.057551831            5 
  369000    0.7005835     -3.52544    245.47484  0.055436957  0.057426308            4 
  370000   0.68253864   -3.5089332    245.56386  0.055307176  0.057300368           11 
  371000   0.68424777   -3.5250278     245.9198   0.05523805  0.057173992            5 
  372000   0.67142326   -3.5271347    246.81424  0.055289928  0.057048082            8 
  373000   0.66555496   -3.5227716    246.93266  0.055168155   0.05692331            3 
  374000   0.67341747   -3.5524733    246.28493  0.054876322  0.056798435           15 
  375000   0.66541882    -3.532343      246.531  0.054784666  0.056672687            5 
  376000   0.68434061    -3.534321    246.98553  0.054739702  0.056546709           12 
  377000   0.66722357   -3.5363825    247.65741  0.054743017  0.056422129            5 
  378000   0.66733331   -3.5626025    246.95838  0.054444087  0.056297066            7 
  379000   0.65692441   -3.5608055    247.96125  0.054520944  0.056171982            9 
  380000   0.66039924   -3.5429557    246.94691  0.054155023   0.05604706            7 
  381000   0.67258878   -3.5536678    246.34343  0.053880889  0.055922043            9 
  382000   0.64949898   -3.5431519    248.05072  0.054112286  0.055796785           10 
  383000   0.65834228   -3.5482192    248.70962  0.054114365  0.055672866            8 
  384000   0.65849672   -3.5364854    248.16413  0.053855064  0.055549895            8 
  385000    0.6603329   -3.5604521     248.4849   0.05378461  0.055427067            8 
  386000   0.65524729   -3.5864853    248.27496  0.053599948  0.055304009            5 
  387000   0.64339294   -3.5947912    249.22078  0.053665112  0.055181159            4 
  388000   0.65231547   -3.5892129    249.50031  0.053586837  0.055059202            4 
  389000   0.64628863   -3.5426719     249.8367  0.053521144  0.054938161            6 
  390000   0.64784829   -3.5803656    250.21956  0.053465717  0.054817402            7 
  391000   0.65077656    -3.570563    250.41673  0.053370998  0.054696767            3 
  392000    0.6424775   -3.5870214    249.85075  0.053114529  0.054575808           12 
  393000   0.65034157   -3.5995644     249.9549  0.053001464  0.054454974           20 
  394000   0.64782702   -3.6015052    250.52269  0.052987032  0.054333016            7 
  395000   0.64164541   -3.6084297    250.41112  0.052829349  0.054212654            5 
  396000   0.64468427   -3.6047851    251.07684  0.052836035  0.054092227           12 
  397000   0.63081186   -3.6150476    250.89852  0.052665515  0.053972391            5 
  398000   0.64719888   -3.6006174    251.31744  0.052620905  0.053853343            5 
  399000   0.62627043   -3.6051506    250.91654  0.052405293  0.053734497           14 
  400000   0.62815572   -3.6178778    252.13059  0.052527206  0.053616454            7 
  401000   0.63118083   -3.6214644    252.39954  0.052452108  0.053499123            5 
  402000   0.62969931   -3.6046899    252.23525  0.052287571  0.053381959           13 
  403000   0.60629211   -3.6187038    252.40671  0.052193283   0.05326469            5 
  404000   0.62474148   -3.6437576    253.14969  0.052217346  0.053149046            9 
  405000   0.61980857   -3.6395785    252.56314  0.051967725  0.053033256            9 
  406000   0.62687694   -3.6269502    253.64011  0.052060777  0.052918824            6 
  407000   0.61816589   -3.6352627    253.37148  0.051877862  0.052803953            3 
  408000   0.61797669   -3.6193273     253.2337  0.051722569  0.052689338           10 
  409000   0.63095361   -3.6390223    253.74902  0.051701105  0.052573881           10 
  410000   0.60749681   -3.6199757    253.13236  0.051449666  0.052458662           18 
  411000   0.61065532   -3.6355734    253.95512  0.051491305  0.052343397            5 
  412000   0.59775638   -3.6556002    253.22242  0.051218128  0.052228681           10 
  413000   0.60638861   -3.6380234    253.96748  0.051244448  0.052114302            8 
  414000   0.61196239   -3.6402284    254.02294  0.051131831   0.05200024           17 
  415000   0.60844486   -3.6411583    253.88072  0.050980064  0.051886969            7 
  416000   0.61405561   -3.6344056    254.63377  0.051008367  0.051773603           12 
  417000   0.59403667   -3.6406119    254.08457  0.050776292  0.051660372            6 
  418000   0.60514714   -3.6675702    254.30477  0.050698717  0.051547636            8 
  419000   0.59530324   -3.6664093     254.5086  0.050618257  0.051433805            7 
  420000   0.58513623   -3.6588342    255.23804  0.050642468  0.051320233            5 
  421000   0.58864693   -3.6533683    254.77137  0.050429804  0.051206947            7 
  422000   0.59168193   -3.6617452    254.82904  0.050321689  0.051093461            4 
  423000   0.58477806   -3.6829278    254.43793  0.050125676  0.050979255           32 
  424000   0.59311291   -3.6719155    255.10025  0.050137628  0.050865011            9 
  425000   0.58379976   -3.6709661    254.69146  0.049939503  0.050751192            5 
  426000   0.59043081   -3.6840966    254.37437  0.049760245   0.05063763            7 
  427000   0.58553925   -3.6780011    255.13182  0.049791535  0.050524115            7 
  428000    0.5718477   -3.6846058    254.85131  0.049620582  0.050410661           14 
  429000   0.58084036   -3.6912009    254.77699   0.04949048  0.050297938            6 
  430000   0.58738086   -3.6822395    255.18061  0.049453607   0.05018475            7 
  431000   0.57748963   -3.7045964    254.95638   0.04929551  0.050072185            5 
  432000   0.57253495   -3.6733256    255.89673  0.049362795  0.049959641            9 
  433000   0.56682712   -3.7096303    255.92237  0.049253727   0.04984794            5 
  434000    0.5854357   -3.7093986    256.66608   0.04928304  0.049736967            8 
  435000   0.56285634   -3.7123367    256.03011  0.049047914  0.049626431            9 
  436000   0.57298995   -3.7137707    255.90011  0.048910572  0.049515456           14 
  437000   0.58189659   -3.7215594    256.72455  0.048955863  0.049404613            7 
  438000    0.5585279   -3.7252053    256.46927  0.048795524  0.049294287           12 
  439000    0.5688369    -3.710828    256.84688  0.048756052  0.049184043           13 
  440000   0.57749636    -3.712402    256.94175  0.048663211  0.049074539            5 
  441000   0.56433011   -3.7124467     257.4266  0.048644482  0.048964579            6 
  442000   0.56321712    -3.723431    257.39608  0.048528672   0.04885463            9 
  443000   0.55680205   -3.7339492    257.02136  0.048348637  0.048744928            4 
  444000   0.56145115    -3.724406    256.90901  0.048218659  0.048635449            8 
  445000   0.56069601   -3.7134042    257.35999  0.048194754  0.048525606            8 
  446000   0.55693316   -3.7350012    257.31377  0.048078058  0.048416797           12 
  447000   0.55307525   -3.7524294     257.4544  0.047996718  0.048308171           17 
  448000   0.54238015   -3.7345691    257.68562  0.047932592   0.04820025            8 
  449000   0.53294676    -3.734448     258.7422  0.048021937   0.04809293           12 
  450000   0.54253107   -3.7255129    257.77758  0.047736589  0.047985637           21 
  451000   0.54702476   -3.7558122    257.17349  0.047519122  0.047877901           21 
  452000   0.55575918   -3.7489159    257.62499  0.047497232  0.047769683           13 
  453000   0.54617305   -3.7513399    257.44294  0.047358893  0.047661191           16 
  454000   0.53733978   -3.7668738     257.8566  0.047330507   0.04755253            8 
  455000   0.53754115   -3.7845471    257.38482  0.047140077  0.047443986           18 
  456000   0.54523361   -3.7600003    257.47013   0.04705229  0.047335478           15 
  457000   0.53467857   -3.7610681    256.99975  0.046863558  0.047227319           10 
  458000   0.53815184   -3.7711399    257.32757  0.046820883   0.04711942           16 
  459000   0.53357795   -3.7957437    257.72443  0.046790927  0.047011324           22 
  460000   0.53174573   -3.7937926    257.05795  0.046568469  0.046902982           15 
  461000   0.53233039   -3.7840604    257.45664  0.046539523   0.04679518           13 
  462000   0.54121533   -3.7698994    258.26658  0.046584881  0.046687584           12 
  463000   0.52380635   -3.7864811    257.43441  0.046334487  0.046580334           10 
  464000   0.52576281   -3.7765716    257.98126  0.046332841  0.046472743            7 
  465000   0.52099402   -3.7810203    257.49057  0.046145263  0.046365597            9 
  466000   0.52004802   -3.7886836    257.77061  0.046096318  0.046258638           12 
  467000   0.51470122   -3.7707714    257.55927  0.045959898  0.046151427           19 
  468000   0.51170758   -3.8176708    257.39185  0.045831883  0.046044489           18 
  469000   0.52644893    -3.795094    258.21186  0.045879862    0.0459376            6 
  470000    0.5172983   -3.8019147    257.79156  0.045707724  0.045831328           42 
  471000   0.52028917   -3.8101577    257.41224  0.045543567  0.045724761           11 
  472000   0.53139765   -3.8143019    257.91977  0.045536683  0.045617589           11 
  473000   0.51188584   -3.8200805    257.20099  0.045313776  0.045510484           24 
  474000   0.51714991   -3.8244338    257.44376  0.045260858  0.045403442           27 
  475000   0.51438368   -3.8170536    257.05003  0.045096496    0.0452961           11 
  476000   0.50436398   -3.8088238    257.73037  0.045120864  0.045188786           21 
  477000   0.50403848   -3.8211429    257.88306  0.045052945  0.045082524           14 
  478000   0.50921938    -3.820511    257.67241  0.044921969  0.044976574           15 
  479000   0.52298221   -3.8264621    257.08686  0.044726315  0.044870321           19 
  480000   0.50192784   -3.8339351    257.20697  0.044653988  0.044764055           12 
  481000   0.50176063   -3.8373164    256.70374  0.044473967  0.044657374           20 
  482000    0.5099049   -3.8523109    257.23399  0.044473372  0.044550673           16 
  483000   0.50108095   -3.8661302    256.92887  0.044328653  0.044444029           32 
  484000   0.48464032   -3.8633442    257.14039  0.044273484   0.04433785           63 
  485000   0.49170319   -3.8352541    257.39694  0.044226278  0.044232232           42 
  486000   0.50152474   -3.8446199    257.89831  0.044221247  0.044127405           54 
  487000   0.49347488   -3.8593136    257.49316  0.044061116  0.044022384           33 
  488000   0.48734631   -3.8519961    256.76821   0.04384703  0.043917192           35 
  489000    0.4841991   -3.8618384    257.43009  0.043870158  0.043811737           15 
  490000   0.48960836   -3.8684134     257.6575  0.043819303  0.043706908           14 
  491000   0.48255906   -3.8693188    257.79955  0.043754167  0.043602215           13 
  492000   0.48916763    -3.885851    258.05803  0.043709016  0.043497564            8 
  493000     0.474675   -3.8726645    257.87101  0.043588744  0.043393534           10 
  494000   0.48125634   -3.8637931     257.6914  0.043470209  0.043289765           17 
  495000   0.48553554   -3.8820174    256.84154  0.043239317  0.043185659           26 
  496000   0.47732463   -3.8718278    257.22008  0.043215739  0.043081618           10 
  497000   0.47837776   -3.8819382    257.43698  0.043165155  0.042978167           12 
  498000    0.4747297   -3.8864396    257.62891  0.043110594  0.042874935           21 
  499000   0.47210295   -3.8887044     257.0982  0.042935572  0.042771416           25 
  500000   0.47618571   -3.8895553    257.85894   0.04297649  0.042668272           22 
  501000   0.47575402    -3.890715     257.7536  0.042873187  0.042565241           13 
  502000   0.46449869   -3.9209045    256.87355  0.042641692  0.042462348           13 
  503000   0.46304786   -3.9062517    257.41574  0.042646744  0.042359431           21 
  504000   0.46001421   -3.9141183    257.01924  0.042496567    0.0422565           32 
  505000   0.46811341   -3.9193995     257.3073  0.042459951  0.042153984           22 
  506000   0.45468881   -3.9193284    257.36427   0.04238542  0.042051633           36 
  507000   0.45755288   -3.9307779    256.74836  0.042200585  0.041949489           29 
  508000   0.45568026   -3.9248758    257.36071  0.042217964  0.041847357           44 
  509000   0.45875877   -3.9108979    257.41509  0.042143924  0.041745724           30 
  510000   0.44808858    -3.943818    257.00413  0.041994139  0.041644432           31 
  511000   0.44984678   -3.9363433    257.17122  0.041939208  0.041543256           63 
  512000   0.45360712   -3.9405493    257.23188  0.041867167  0.041441992           73 
Loop time of 1211.42 on 48 procs for 500000 steps with 4000 atoms

Performance: 71321.350 tau/day, 412.739 timesteps/s
99.4% CPU use with 48 MPI tasks x no OpenMP threads

MPI task timing breakdown:
Section |  min time  |  avg time  |  max time  |%varavg| %total
---------------------------------------------------------------
Pair    | 79.59      | 84.899     | 91.042     |  30.6 |  7.01
Neigh   | 8.0744     | 8.5148     | 8.9092     |   6.9 |  0.70
Comm    | 76.946     | 83.818     | 90.614     |  34.9 |  6.92
Output  | 0.85901    | 0.85952    | 0.87148    |   0.2 |  0.07
Modify  | 1019.9     | 1022.6     | 1025.2     |   3.7 | 84.41
Other   |            | 10.72      |            |       |  0.89

Nlocal:        83.3333 ave          90 max          77 min
Histogram: 3 4 2 10 3 9 11 2 1 3
Nghost:        2210.44 ave        2238 max        2186 min
Histogram: 1 4 4 8 13 6 6 2 3 1
Neighs:        14739.4 ave       16365 max       12710 min
Histogram: 2 2 3 4 8 6 11 5 3 4
FullNghs:      29479.6 ave       32116 max       26772 min
Histogram: 1 3 6 6 6 9 10 4 0 3

Total # of neighbors = 1415021
Ave neighs/atom = 353.75525
Neighbor list builds = 27124
Dangerous builds = 0

#clear
#
#next RN
#
#jump SELF
Total wall time: 0:20:14
