
units lj                  # Use reduced LJ style units
atom_style atomic         # Uncharged point particles
atom_modify map hash      # Needed for indexing of clusters etc
                          # Used to be able to find where atoms are in relation to each other.

lattice fcc 1.0 spacing 1 1 1
Lattice spacing in x,y,z = 1.5874011 1.5874011 1.5874011
region box block 0 10 0 10 0 10 units lattice
create_box 2 box
Created orthogonal box = (0.0000000 0.0000000 0.0000000) to (15.874011 15.874011 15.874011)
  3 by 4 by 4 MPI processor grid
create_atoms 1 box
Created 4000 atoms
  using lattice units in orthogonal box = (0.0000000 0.0000000 0.0000000) to (15.874011 15.874011 15.874011)
  create_atoms CPU = 0.005 seconds
set type 1 type/fraction 2 0.86 78393
Setting atom values ...
  3427 settings made for type/fraction
mass 1 1.0
mass 2 1.0
pair_style lj/cut  3.5
pair_modify tail  yes
pair_coeff 1  1  1.0  1.0   # Intearaction between 1 and 1 set with epsilon = 1 and sigma = 1
pair_coeff 1  2  1.5  0.8
pair_coeff 2  2  0.5  0.88

write_data data.0
System init for write_data ...
Neighbor list info ...
  update every 1 steps, delay 10 steps, check yes
  max neighbors/atom: 2000, page size: 100000
  master list distance cutoff = 3.8
  ghost atom cutoff = 3.8
  binsize = 1.9, bins = 9 9 9
  1 neighbor lists, perpetual/occasional/extra = 1 0 0
  (1) pair lj/cut, perpetual
      attributes: half, newton on
      pair build: half/bin/atomonly/newton
      stencil: half/bin/3d
      bin: standard
WARNING: Not all mixed pair coeffs generated from mixing. Use write_data with 'pair ij' option to store all pair coeffs. (../write_data.cpp:312)


#############################
#   M E L T   S Y S T E M   #
#############################

velocity all create 2.4 6229865 mom yes dist gaussian # Assign velocities
                                                    # Temperature 2.4, random number seed, zero linear momentum
                                                                                # Gaussian distribution

timestep 0.002   # simulation timestep
thermo 1000       # output thermodynamic data every 1000 steps bf 100

# Define a fix  in this case with index 1 applied to all
# particles in the simulation. This fix is for simulations
# in the anisotropic NPT ensemble. Note that we use the MTK
# correction.
fix 1 all npt temp 2.4 2.4 0.1 iso 5.68 5.68 0.5 mtk yes tchain 5 pchain 5 # Use NPT ensemble
                                                                         # Set temperature and pressure and damping
                                                                         # Numbers of thermostats in chain and in barostat
run 10000          # run for 10000 steps
Per MPI rank memory allocation (min/avg/max) = 3.642 | 3.644 | 3.648 Mbytes
Step Temp E_pair E_mol TotEng Press Volume 
       0          2.4   -3.3969599            0   0.20214005   -2.8933285         4000 
    1000    2.4443196   -2.5654829            0    1.1000799    5.8422079    3892.8068 
    2000    2.4174001    -2.579761            0    1.0454327    5.7673203    3890.6398 
    3000    2.4291228   -2.5261629            0    1.1166104    5.5641851     3953.608 
    4000    2.3529051   -2.5426789            0   0.98579645    5.5877581    3936.0611 
    5000    2.3862162   -2.6195431            0   0.95888631    5.4819214    3908.9959 
    6000      2.39879   -2.5857899            0    1.0114956    5.9159218    3864.6757 
    7000     2.391236   -2.5758517            0    1.0101055    5.8003379    3900.8545 
    8000    2.3750737   -2.5938473            0   0.96787262    5.6447735    3889.6978 
    9000    2.4292982   -2.5852152            0    1.0578211    5.5746289    3920.0194 
   10000    2.4265877   -2.5476529            0    1.0913187    6.1135817    3861.4908 
Loop time of 2.47712 on 48 procs for 10000 steps with 4000 atoms

Performance: 697583.220 tau/day, 4036.940 timesteps/s
99.7% CPU use with 48 MPI tasks x no OpenMP threads

MPI task timing breakdown:
Section |  min time  |  avg time  |  max time  |%varavg| %total
---------------------------------------------------------------
Pair    | 1.1146     | 1.1729     | 1.2475     |   2.7 | 47.35
Neigh   | 0.2095     | 0.21772    | 0.23266    |   0.9 |  8.79
Comm    | 0.74781    | 0.83627    | 0.89636    |   3.6 | 33.76
Output  | 0.00023704 | 0.00024271 | 0.00031174 |   0.0 |  0.01
Modify  | 0.20347    | 0.23528    | 0.2665     |   3.4 |  9.50
Other   |            | 0.01467    |            |       |  0.59

Nlocal:        83.3333 ave          92 max          75 min
Histogram: 2 6 5 4 11 7 0 7 3 3
Nghost:        1682.90 ave        1712 max        1659 min
Histogram: 2 7 5 9 2 9 8 1 2 3
Neighs:        9874.02 ave       11024 max        8916 min
Histogram: 8 3 5 6 4 8 2 5 3 4

Total # of neighbors = 473953
Ave neighs/atom = 118.48825
Neighbor list builds = 915
Dangerous builds = 253

# Equilibrate just above the melting temperature to avoid step fn in T

fix 1 all npt temp 1.25 1.25 0.1 iso 5.68 5.68 0.5 mtk yes tchain 5 pchain 5
run 2000
Per MPI rank memory allocation (min/avg/max) = 3.643 | 3.645 | 3.649 Mbytes
Step Temp E_pair E_mol TotEng Press Volume 
   10000    2.4265877   -2.5476529            0    1.0913187    6.1135817    3861.4908 
   11000    1.2369563   -3.8032475            0   -1.9482769    5.8732738    3012.2017 
   12000    1.2444036   -3.8326032            0   -1.9664644    5.4638029    3024.6907 
Loop time of 0.614703 on 48 procs for 2000 steps with 4000 atoms

Performance: 562222.948 tau/day, 3253.605 timesteps/s
99.7% CPU use with 48 MPI tasks x no OpenMP threads

MPI task timing breakdown:
Section |  min time  |  avg time  |  max time  |%varavg| %total
---------------------------------------------------------------
Pair    | 0.27319    | 0.29654    | 0.33764    |   2.6 | 48.24
Neigh   | 0.03932    | 0.041981   | 0.048604   |   0.8 |  6.83
Comm    | 0.18377    | 0.2295     | 0.25497    |   3.2 | 37.34
Output  | 4.842e-05  | 4.9446e-05 | 6.5399e-05 |   0.0 |  0.01
Modify  | 0.038955   | 0.042053   | 0.045116   |   0.7 |  6.84
Other   |            | 0.004583   |            |       |  0.75

Nlocal:        83.3333 ave          93 max          76 min
Histogram: 3 6 8 5 5 14 1 2 3 1
Nghost:        1979.79 ave        2004 max        1958 min
Histogram: 3 1 5 8 7 10 9 3 1 1
Neighs:        12618.5 ave       14784 max       10518 min
Histogram: 1 2 5 6 10 10 7 3 3 1

Total # of neighbors = 605689
Ave neighs/atom = 151.42225
Neighbor list builds = 144
Dangerous builds = 12

#############################
# L I N E A R  Q U E N C H  #
#############################

# Define solid atoms. This closely follows ten Wolde  Ruiz-Montero and Frenkel  Faraday Discuss  1996  104  93-110
# Compute components of the per-atom q6 vector
compute q6 all orientorder/atom degrees 1 6 components 6 nnn NULL cutoff 1.3 # compute the Q6 parameter.
                                                                             # Use all neighbours within 1.3 unit cell.

# get number of connections
compute coord_number all coord/atom orientorder q6 0.5

# An atom is solid if it has 8 or more connections (of a possible 14)
variable is_solid atom c_coord_number>=8
group solid dynamic all var is_solid    # Must be dynamic to update
dynamic group solid defined

# do clustering
compute cluster solid cluster/atom 1.3 # Create a cluster where all atoms within are solid and max 1.3 units from another member

# define chunks one chunk per cluster
compute clus_chunks solid chunk/atom c_cluster nchunk every compress yes  # Says which atoms are in which chunk

# count the size of each chunk
compute size_chunks solid property/chunk clus_chunks count


# Find the maximum entry in the vector of chunk sizes
variable max_n equal max(c_size_chunks)


# Thermo style which includes this variable
# thermo_style custom step temp pe vol v_max_n

thermo ${N}  # Print the thermo information every 100 steps
thermo 1000  

# Reset the npt fix at a lower temperature (below freezing)
fix 1  all npt temp  ${temp} ${temp}  0.1  iso  5.68  5.68  0.5  mtk yes tchain  5  pchain  5
fix 1  all npt temp  0.45 ${temp}  0.1  iso  5.68  5.68  0.5  mtk yes tchain  5  pchain  5
fix 1  all npt temp  0.45 0.45  0.1  iso  5.68  5.68  0.5  mtk yes tchain  5  pchain  5

dump dmp2 all dcd ${N} traj.dcd
dump dmp2 all dcd 1000 traj.dcd


compute msd all msd com yes
variable twopoint equal c_msd[4]/6/(step*dt+1.0e-6)
fix 9 all vector 10 c_msd[4]
variable fit equal slope(f_9)/6/(10*dt)
thermo_style custom step temp pe c_msd[4] v_twopoint v_fit v_max_n

fix 1 all npt temp 1.25 ${temp} 0.1 iso 5.68 5.68 0.5 mtk yes tchain 5 pchain 5
fix 1 all npt temp 1.25 0.45 0.1 iso 5.68 5.68 0.5 mtk yes tchain 5 pchain 5
run 2000000 # 5000000  # Run for this many steps
Neighbor list info ...
  update every 1 steps, delay 10 steps, check yes
  max neighbors/atom: 2000, page size: 100000
  master list distance cutoff = 3.8
  ghost atom cutoff = 3.8
  binsize = 1.9, bins = 8 8 8
  4 neighbor lists, perpetual/occasional/extra = 1 3 0
  (1) pair lj/cut, perpetual
      attributes: half, newton on
      pair build: half/bin/atomonly/newton
      stencil: half/bin/3d
      bin: standard
  (2) compute orientorder/atom, occasional
      attributes: full, newton on
      pair build: full/bin/atomonly
      stencil: full/bin/3d
      bin: standard
  (3) compute coord/atom, occasional
      attributes: full, newton on
      pair build: full/bin/atomonly
      stencil: full/bin/3d
      bin: standard
  (4) compute cluster/atom, occasional
      attributes: full, newton on
      pair build: full/bin/atomonly
      stencil: full/bin/3d
      bin: standard
Per MPI rank memory allocation (min/avg/max) = 9.826 | 9.834 | 9.841 Mbytes
Step Temp PotEng c_msd[4] v_twopoint v_fit v_max_n 
   12000    1.2444036   -3.8326032 7.5000951e-31 5.2083991e-33 8.3333333e+20            4 
   13000     1.251654    -3.790289   0.92638952 0.0059383942  0.078232701            2 
   14000    1.2625554   -3.8008947    1.9094159  0.011365571  0.080502768            3 
   15000    1.2479352   -3.7977344    2.8402702  0.015779278   0.08058091            3 
   16000    1.2463004   -3.7813309    3.8188281  0.019889729  0.079876333            1 
   17000    1.2422116   -3.8279701     4.796629  0.023512887  0.080308016            2 
   18000    1.2649261   -3.8513573    5.7713866  0.026719382  0.080271047            2 
   19000    1.2323411   -3.8370959    6.7878328  0.029771196  0.080572576            2 
   20000    1.2358228   -3.7947605    7.8480665  0.032700276   0.08109493            1 
   21000    1.2376465   -3.8226891    8.6672787  0.034393962  0.081045701            1 
   22000     1.254279   -3.8049235    9.5910332   0.03632967  0.080877883            1 
   23000    1.2757701   -3.8154646    10.492655  0.038016865  0.080325904            2 
   24000    1.2769457   -3.8009837     11.45562  0.039776458  0.079958287            1 
   25000    1.2562403   -3.8200677    12.371323  0.041237741  0.079687493            3 
   26000    1.2272347   -3.8621298    13.273565  0.042543478  0.079387297            2 
   27000    1.2369157   -3.8009624    14.297093  0.044126831  0.079272526            2 
   28000    1.2269297   -3.8412404    15.456514   0.04600153  0.079523112            2 
   29000    1.2598128   -3.8025315     16.38724   0.04708977  0.079741385            3 
   30000    1.2242936   -3.8336545    17.268414  0.047967816  0.079830887            2 
   31000    1.2653201   -3.8218999    18.070228   0.04857588  0.079792587            1 
   32000    1.2416957   -3.8545724    19.113786  0.049775484  0.079779302            1 
   33000    1.2452498   -3.8392859    20.204409  0.051021233  0.079818041            1 
   34000    1.2398575   -3.8328554    21.404759  0.052462643  0.080035439            1 
   35000    1.2481291   -3.8590406    22.276998  0.053040472  0.080201787            2 
   36000     1.250122   -3.8454468    23.263095  0.053849756  0.080439566            5 
   37000    1.2531995   -3.8228149    24.347881  0.054837568  0.080573058            1 
   38000    1.2509479   -3.8006264    25.520335  0.055965646     0.080871            2 
   39000    1.2286924   -3.8659417    26.497883  0.056619406  0.081187147            2 
   40000    1.2478484   -3.8536271    27.495251  0.057281772  0.081452041            2 
   41000    1.2575291   -3.8502356    28.311348  0.057543389  0.081609949            1 
   42000     1.259639   -3.8253102    29.208733  0.057953835  0.081629334            3 
   43000    1.2533247   -3.7820583     30.29354   0.05870841  0.081648436            2 
   44000    1.2480418   -3.8085473    31.146033  0.058988698  0.081623315            2 
   45000    1.2449577   -3.8479735    31.737457  0.058773068  0.081502916            2 
   46000    1.2307346   -3.8664008    32.773142  0.059371634  0.081370275            1 
   47000      1.25098   -3.8505138     33.80947  0.059945868  0.081248511            1 
   48000    1.2345014   -3.8398096    34.746714  0.060324156  0.081149725            1 
   49000    1.2296619    -3.835482    35.716867   0.06074297   0.08103665            3 
   50000    1.2298665       -3.837    36.825612   0.06137602  0.080950415            2 
   51000    1.2492602    -3.832898    37.674994  0.061560447   0.08089922            5 
   52000    1.2521074   -3.8510286    38.658634  0.061952938  0.080873159            6 
   53000     1.249514   -3.8399889    39.867065  0.062684064  0.080851579            7 
   54000    1.2388253   -3.8502998    40.446429  0.062417328  0.080833794            3 
   55000    1.2333156   -3.8105114    41.361063  0.062668277  0.080767287            3 
   56000    1.2019984   -3.8552716    42.190802   0.06278393  0.080690403            2 
   57000    1.2055337   -3.8263492    43.244037  0.063222275  0.080631379            2 
   58000    1.2472806   -3.8571077    44.139388  0.063418661  0.080571306            3 
   59000     1.223658   -3.8511702    45.093033  0.063690725  0.080496863            1 
   60000    1.2335304   -3.8914626    45.718471  0.063497876  0.080410777            1 
   61000    1.2276852   -3.8517377    46.521242  0.063553609  0.080282428            2 
   62000    1.2360221   -3.8717724    47.460215  0.063790611  0.080137387            3 
   63000    1.2121633   -3.8377962    48.670848  0.064379428  0.080005294            1 
   64000    1.2079601   -3.8550076    49.410196  0.064336193   0.07988149            4 
   65000    1.2535496   -3.8483311    50.147515  0.064291685  0.079772307            1 
   66000    1.2454013   -3.8624311    51.028423  0.064429827  0.079654763            2 
   67000    1.2090555   -3.8260476    52.200069  0.064925459  0.079529576            1 
   68000    1.2274594   -3.8394407     52.55997  0.064411727  0.079386297            2 
   69000    1.2512795   -3.8306847    53.487108  0.064597956  0.079232913            2 
   70000    1.2514262   -3.8981186     54.15139   0.06446594  0.079071708            2 
   71000    1.2252932   -3.8478222    55.225847  0.064819069  0.078911054            2 
   72000    1.2209218   -3.8283628    55.924266  0.064727159  0.078759973            2 
   73000    1.2291444   -3.8797902    56.708409  0.064735626  0.078612808            2 
   74000    1.2351946   -3.8734499    58.024145  0.065342506   0.07846833            3 
   75000    1.2538068   -3.8425943     58.68812  0.065209022  0.078348883            2 
   76000    1.2169787   -3.8737496    59.627447  0.065380972  0.078226648            4 
   77000    1.2379022   -3.8534831    60.587501  0.065570888  0.078098886            3 
   78000    1.2135017   -3.8702095    61.436941  0.065637757  0.077990358            1 
   79000    1.2502035    -3.842308    62.441029  0.065866064  0.077887252            1 
   80000    1.2292762   -3.8388285    63.461638  0.066105872  0.077787415            2 
   81000    1.2492734   -3.8792592    64.198541  0.066047881  0.077697986            3 
   82000    1.2199031   -3.8443372    64.948746  0.066004823  0.077614704            1 
   83000     1.224573   -3.8608919    65.865618  0.066130138  0.077519882            3 
   84000     1.222615   -3.8913044    66.860656  0.066330015  0.077436251            1 
   85000    1.2296207   -3.8598888    67.768817  0.066440016  0.077352471            1 
   86000    1.2131286   -3.8510921    68.561061  0.066435136  0.077272107            2 
   87000    1.2434088   -3.8399057     69.50193   0.06657273  0.077192102            5 
   88000    1.2222114   -3.8882056    69.935315  0.066226623  0.077124049            2 
   89000    1.2275539   -3.8239163    71.800048  0.067228509  0.077067965            2 
   90000    1.2167575   -3.8384153    72.080154  0.066740883  0.077016551            2 
   91000    1.2009567   -3.8564763    73.534556  0.067339337  0.076969239            2 
   92000    1.2156784   -3.8645004     74.17046  0.067183387  0.076931306            2 
   93000     1.215396   -3.8347599    74.968453  0.067176033  0.076881013            2 
   94000    1.2063509   -3.8261022    75.921165  0.067305997  0.076819035            2 
   95000    1.2082864   -3.8797357    76.264133  0.066898362  0.076758037            1 
   96000    1.2194165   -3.8993148    77.394629  0.067182838  0.076702507            2 
   97000    1.2164265   -3.8509283    78.215773  0.067195681    0.0766516            2 
   98000    1.2056596   -3.8626987    79.697975  0.067770386  0.076619585            1 
   99000    1.2505644   -3.8776943    80.846892  0.068052939  0.076607697            1 
  100000    1.2049484   -3.8792237    81.975276  0.068312729  0.076618251            2 
  101000    1.2317628   -3.8372128    83.054193  0.068526562  0.076623282            3 
  102000    1.2222451   -3.9148574     83.84853  0.068503701   0.07663655            3 
  103000    1.2155283   -3.8655501    85.208081  0.068938576  0.076655888            2 
  104000    1.2307726   -3.8675388    85.884336  0.068817576  0.076680268            2 
  105000    1.1997635   -3.8609737    87.007699  0.069053729  0.076710028            1 
  106000    1.2020575   -3.8790804    87.926482  0.069124592  0.076733683            2 
  107000    1.2172119   -3.8705814    88.508564  0.068931903  0.076747474            1 
  108000    1.2111906   -3.8923427    89.040688  0.068704235   0.07674819            3 
  109000    1.1974497   -3.8864897    90.339169  0.069066643  0.076730699            1 
  110000    1.2109199   -3.8758307    90.854532  0.068829191  0.076715142            2 
  111000    1.2064295   -3.8806169    92.436186  0.069396536  0.076705917            2 
  112000    1.2160189   -3.8717479    92.633956  0.068924074  0.076698638            2 
  113000    1.2051784   -3.8575268    93.720386  0.069115329  0.076695483            2 
  114000    1.2302595   -3.8693181    94.679674  0.069210288  0.076695001            3 
  115000    1.1915987    -3.914737    94.714165  0.068633452  0.076667284            2 
  116000    1.2175019   -3.9032664    95.449123  0.068569772  0.076634548            1 
  117000    1.2121163   -3.8974018    97.074263  0.069141213  0.076609788            1 
  118000    1.1869029   -3.9196467    97.795927   0.06906492  0.076594657            2 
  119000    1.2305366    -3.913674    99.180967  0.069454458  0.076569424            4 
  120000    1.2383989   -3.8995642    99.605984  0.069170822  0.076554031            3 
  121000    1.1996694   -3.8859396    100.56479  0.069259498   0.07653343            2 
  122000    1.2090902   -3.8690858    101.42428   0.06927888  0.076509409            1 
  123000    1.2117302   -3.8863634    102.25696  0.069279784  0.076480971            2 
  124000    1.1899925   -3.8642168    102.97987    0.0692069  0.076452538            2 
  125000    1.2243806   -3.8673362    103.70052  0.069133682  0.076417413            3 
  126000    1.1721426   -3.9027293    104.24665  0.068946197  0.076377549            1 
  127000    1.2124469   -3.9240861     105.1648  0.069005777  0.076326857            1 
  128000    1.2124452   -3.8819163     105.9464  0.068975524  0.076284669            3 
  129000    1.2232568   -3.8808559    107.36918  0.069359937  0.076247779            2 
  130000     1.212654   -3.8865196    107.82214  0.069116757  0.076205871            4 
  131000    1.1992248   -3.8755066    108.69665  0.069145452  0.076179084            3 
  132000    1.2031499    -3.857551    110.66534  0.069864485  0.076148656            2 
  133000    1.1946772   -3.8824467    111.16716  0.069653607  0.076123486            1 
  134000    1.2002095   -3.8637234    111.97991  0.069639245  0.076100042            2 
  135000    1.2029557   -3.8815037    112.96966   0.06973436  0.076082492            3 
  136000    1.2042108   -3.9054421    114.22158  0.069988714  0.076064915            2 
  137000    1.1926971   -3.9315141    114.74832   0.06979825  0.076050911            3 
  138000    1.2158547   -3.8819018    115.51955  0.069758182   0.07604003            1 
  139000    1.1928024   -3.8800276    116.48161    0.0698331  0.076018896            1 
  140000    1.1876489    -3.899474    117.06307  0.069680401  0.075996592            1 
  141000    1.2050865   -3.8806284    117.97121  0.069722935  0.075974161            2 
  142000    1.2288398    -3.863963    119.04249  0.069860613  0.075955591            1 
  143000    1.2087323   -3.8910048    119.54316  0.069663847  0.075925481            4 
  144000    1.1976188   -3.8879449    120.54888  0.069762082  0.075896201            2 
  145000    1.1933167   -3.8978702    121.37794  0.069757434  0.075866212            5 
  146000    1.2048786   -3.9133346    121.70007  0.069463507  0.075828858            1 
  147000    1.2174898   -3.9018924    123.13714  0.069805633  0.075806044            2 
  148000    1.2282603   -3.8910135    124.51766  0.070111292  0.075785577            2 
  149000    1.1971211   -3.9141095    124.94976  0.069882414  0.075762285            2 
  150000    1.2111247   -3.9149192    125.82095  0.069900526  0.075738657            1 
  151000    1.2085252   -3.9091324     126.7011  0.069923344  0.075717301            1 
  152000     1.209975   -3.9079046    127.72523    0.0700248   0.07569323            2 
  153000    1.1890643   -3.8919405    128.08282  0.069761884  0.075666244            3 
  154000      1.21136   -3.8940318    129.05436  0.069834608  0.075639059            2 
  155000    1.2108713   -3.9021632    130.42529  0.070121123  0.075614412            1 
  156000    1.1869148   -3.8966029      131.017  0.069987711  0.075591006            3 
  157000    1.1777391   -3.9234681    131.70418  0.069906675  0.075558506            5 
  158000    1.1666997   -3.9485787    131.86274  0.069547859  0.075523296            1 
  159000    1.1862671   -3.8713076    133.13343   0.06977643  0.075483939            3 
  160000    1.1919755   -3.8661245    133.88422  0.069731366  0.075442765            2 
  161000    1.2093465   -3.8913423    134.56564  0.069650951  0.075396083            2 
  162000    1.2254384    -3.910699    135.74866   0.06982956  0.075359234            2 
  163000    1.1685225   -3.9099256    136.75622  0.069916265  0.075325055            5 
  164000    1.1694167   -3.9597122    137.00545  0.069616592  0.075282271            1 
  165000    1.1548996   -3.9125883    138.08984  0.069742343  0.075249342            2 
  166000    1.1939969   -3.9141688    138.83578  0.069696677  0.075214459            2 
  167000    1.2111523   -3.9099048    140.20273  0.069961439  0.075177876            2 
  168000    1.1805965   -3.9186894    141.04648   0.06996353  0.075141698            1 
  169000    1.1883052   -3.9340309    140.93717  0.069495648  0.075101746            2 
  170000    1.2018212   -3.9084397     142.4126    0.0698101  0.075060771            2 
  171000    1.2087762   -3.9136036    143.11315  0.069743251  0.075019168            2 
  172000    1.2130104   -3.9286347    143.75139  0.069646992  0.074980088            5 
  173000    1.1918497     -3.89408    144.82935  0.069763657  0.074943635            3 
  174000    1.1686974   -3.9328414     145.6117  0.069737403  0.074913767            2 
  175000    1.2047006   -3.8884645    146.69037  0.069852557  0.074882099            3 
  176000    1.1617726   -3.9257047    147.93951  0.070047116  0.074855194            2 
  177000    1.1977491   -3.9293574    148.66269   0.06999185  0.074824038            3 
  178000    1.1937513   -3.9112111    149.16523  0.069833907   0.07479394            3 
  179000    1.1722504   -3.9106756    150.54742  0.070087254  0.074767079            3 
  180000    1.1626191   -3.9000064     150.7456  0.069789628  0.074741772            3 
  181000    1.1988687   -3.9289546    152.29443  0.070117143  0.074712301            4 
  182000    1.1895441   -3.9399367      152.355  0.069759613  0.074688614            2 
  183000     1.197794   -3.8906449     154.0999  0.070172998  0.074665267            3 
  184000    1.1887211   -3.9368351    153.99435  0.069743816  0.074639789            1 
  185000     1.182497   -3.9053116     155.1306   0.06987865  0.074609175            3 
  186000    1.1923586   -3.9374208    155.55191  0.069691718  0.074572839            2 
  187000    1.1675876   -3.9061596     157.2622  0.070081195  0.074539944            1 
  188000    1.1874207   -3.9311311    157.41896  0.069777906  0.074509914            1 
  189000    1.1795131    -3.903168    158.27543  0.069786346    0.0744772            4 
  190000    1.1774065   -3.8950508    159.17064  0.069811682  0.074443844            3 
  191000    1.1567859   -3.9547711    159.77639  0.069710468  0.074415738            2 
  192000    1.1729156   -3.9434206    160.87094  0.069822458  0.074382833            2 
  193000     1.193766   -3.9457417    161.25304  0.069625663  0.074345097            2 
  194000    1.1916249    -3.923036    162.13292  0.069644724  0.074305319            2 
  195000    1.1449066   -3.9241771    162.31333   0.06936467  0.074262379            2 
  196000    1.1739735   -3.9226384    163.10367  0.069346799  0.074214851            2 
  197000    1.1768685   -3.9433355    163.93423   0.06934612  0.074168028            2 
  198000    1.1538008   -3.9686945    164.08918  0.069061104  0.074119505            1 
  199000    1.2013111   -3.9160796    165.20166  0.069179924  0.074070324            3 
  200000    1.1556041   -3.9295774    166.19411  0.069247547  0.074025726            3 
  201000     1.174256   -3.9198149    167.25506  0.069342892  0.073987322            2 
  202000    1.1775148   -3.9282054    168.63905  0.069570564  0.073948407            1 
  203000    1.1646585   -3.9060659    169.92264  0.069754778  0.073909044            1 
  204000    1.1756464   -3.9456589    169.89716  0.069402435  0.073870617            2 
  205000     1.156732   -3.9477545    170.62549  0.069359953  0.073829437            2 
  206000    1.1644133   -3.8946527    171.80783  0.069501548  0.073792125            1 
  207000    1.1879162    -3.930248    172.68885  0.069520469  0.073757207            2 
  208000     1.145971   -3.9052483    174.12261  0.069760661    0.0737198            3 
  209000    1.1615567   -3.9501051     173.1712  0.069047526  0.073680247            2 
  210000     1.129464   -3.9370446    174.41876  0.069213793  0.073635195            2 
  211000    1.1573664   -3.9539736     175.0722  0.069143839  0.073592499            2 
  212000    1.2110576   -3.9145196    175.78784  0.069098995  0.073550526            4 
  213000    1.1455203   -3.9273097    176.49771  0.069052314  0.073505546            4 
  214000    1.1689607   -3.9571128    177.16641  0.068990035  0.073463687            2 
  215000    1.1702296   -3.9585103    177.76364  0.068900635  0.073423088            2 
  216000    1.1807678   -3.9287988    179.54705  0.069269694  0.073380805            1 
  217000    1.1517705   -3.9434609    180.47133  0.069305427  0.073341966            2 
  218000    1.1686814   -3.9227373     182.0401  0.069587193  0.073307856            3 
  219000    1.1348404   -3.9547736    181.82457  0.069187433  0.073279282            3 
  220000    1.1637552   -3.8894019    183.31369  0.069437003   0.07325347            4 
  221000    1.1627678   -3.9670152    184.67238  0.069635134  0.073233401            1 
  222000    1.1764191   -3.9474724    185.88037  0.069774914  0.073213079            2 
  223000    1.1616886   -3.9355142    186.81974  0.069813057  0.073192961            2 
  224000    1.1534524   -3.9268665    188.18708  0.070010076  0.073173966            1 
  225000     1.167065   -3.9590134    188.49521   0.06981304  0.073154608            2 
  226000    1.1500177   -3.9220989    189.87689  0.070013601  0.073136805            5 
  227000     1.159187   -3.9597414    190.16295  0.069810186  0.073114364            3 
  228000    1.1719512   -3.9587137    191.19964  0.069882908  0.073098471            2 
  229000     1.176419   -3.9402341    191.38307  0.069644494  0.073082564            2 
  230000    1.1646323   -3.9579605    191.97584  0.069556464  0.073065778            1 
  231000    1.1418501   -3.9425535    193.65617  0.069861531  0.073048478            2 
  232000    1.1620154   -3.9644952    193.98488  0.069678478  0.073029708            2 
  233000    1.1339576   -3.9384443    195.12605  0.069787572  0.073011058            2 
  234000    1.1719033   -3.9533096    195.11072  0.069483873  0.072987884            1 
  235000    1.1977257   -3.9669585    196.50658  0.069683183  0.072963496            2 
  236000    1.1695934   -3.9445887    197.40229  0.069704199  0.072937964            3 
  237000    1.1686848   -3.9229845    197.34469  0.069389836  0.072910127            2 
  238000    1.1477388   -3.9632083    198.40922  0.069471016  0.072880594            3 
  239000    1.1529508   -3.9532027    198.92809   0.06936126   0.07285212            4 
  240000    1.1322721   -3.9522667    199.85367  0.069393634  0.072824996            3 
  241000    1.1453059   -3.9523123    200.31925  0.069266685  0.072801015            2 
  242000    1.1301786   -3.9578048    201.80958  0.069493656  0.072774925            2 
  243000    1.1796145   -3.9705732    202.43535  0.069422273  0.072750632            1 
  244000    1.1513427   -3.9546251    204.09403  0.069704244  0.072729616            1 
  245000    1.1833729   -3.9806148    204.74269  0.069640369  0.072706615            4 
  246000    1.1672964   -3.9313071    205.47348  0.069604837  0.072681456            3 
  247000    1.1652855   -3.9455526    206.82769  0.069779923  0.072659421            4 
  248000    1.1606301   -3.9433182    206.68396  0.069450254  0.072637087            4 
  249000    1.1393959   -3.9605079    207.30446  0.069379001  0.072612145            1 
  250000    1.1177585   -3.9975919     207.3599  0.069119966  0.072584193            2 
  251000    1.1274665   -3.9614845    209.56052  0.069575205  0.072557108            1 
  252000    1.1638687   -3.9387954    210.09026  0.069474292  0.072531251            1 
  253000    1.1491317     -3.98769    210.40916  0.069304728  0.072504079            1 
  254000    1.1566462   -3.9570393    211.81583  0.069493381  0.072478673            2 
  255000    1.1538647    -3.960735    211.96508  0.069269635  0.072452798            1 
  256000    1.1543596   -3.9705181    212.72118  0.069245176  0.072423583            1 
  257000    1.1299407   -3.9451795    213.11875  0.069104652  0.072393461            3 
  258000    1.1632317   -3.9528423    214.21582  0.069191155  0.072361735            2 
  259000    1.1460865   -3.9373604    215.90962   0.06946899  0.072331907            2 
  260000    1.1659611    -3.956268     215.2365  0.068986058  0.072300726            1 
  261000    1.1607343   -3.9502239    216.89411  0.069250994  0.072269749            2 
  262000    1.1557013   -3.9323106    217.10744  0.069054528  0.072241839            1 
  263000    1.1451511    -3.941882    217.42318  0.068892008  0.072214517            6 
  264000    1.1335928   -3.9798726    218.01704  0.068818509  0.072182235            2 
  265000    1.1087799   -3.9436769    219.01304  0.068872026  0.072152615            3 
  266000    1.1653178   -3.9611665    219.92761  0.068899627  0.072122586            1 
  267000    1.1400006   -3.9630863    221.22839  0.069047564  0.072092296            2 
  268000     1.148015   -3.9384489    223.03516   0.06935173  0.072063848            3 
  269000    1.1647067   -3.9627576    222.17224  0.068826591   0.07203729            2 
  270000    1.1560326   -4.0034812    223.96963  0.069126427  0.072010324            3 
  271000    1.1736443   -3.9501792    224.06637  0.068901098  0.071986205            2 
  272000    1.1413386   -3.9850219    225.82108  0.069185379  0.071962874            2 
  273000    1.1419678   -3.9630026    226.14937  0.069032164  0.071937809            3 
  274000    1.1467146   -3.9771643    226.92924  0.069017408  0.071911984            1 
  275000    1.1298011   -3.9778519     228.1225  0.069128031  0.071886159            2 
  276000    1.1466222   -3.9997689    227.82743  0.068788475  0.071858554            1 
  277000    1.1516588   -3.9983618    228.19496  0.068650711  0.071833412            3 
  278000    1.1094311   -3.9795419    229.98198  0.068939444  0.071807735            3 
  279000    1.1329286   -3.9585482    232.10232  0.069325664  0.071782715            3 
  280000    1.1808795    -3.974461    232.03611  0.069058367  0.071757222            4 
  281000    1.1673845   -3.9897644    232.48065   0.06894444  0.071731565            3 
  282000    1.1633974   -3.9703924    233.06146  0.068871591  0.071705125            2 
  283000    1.1284556   -3.9920961    233.67918  0.068810123   0.07168212            3 
  284000    1.1748388   -4.0034526    234.63241  0.068847538  0.071662836            3 
  285000    1.1454678   -3.9787064    236.28731  0.069089857  0.071642444            1 
  286000    1.1150474   -3.9784209    236.64258  0.068951802  0.071621255            3 
  287000    1.1324383   -3.9510503    238.32257  0.069199352  0.071603546            1 
  288000    1.1524317   -3.9844198    239.04683  0.069168644    0.0715863            1 
  289000    1.1294104   -4.0120403    239.92424  0.069182305  0.071569895            2 
  290000    1.1334175   -3.9735448    241.39799  0.069367238  0.071554012            1 
  291000    1.1482705   -3.9940423    241.18319  0.069067351  0.071538757            4 
  292000    1.1502262   -3.9813306    242.39054  0.069175384  0.071521033            6 
  293000     1.124611   -3.9750434    243.25243  0.069184424  0.071505904            1 
  294000    1.1425706   -3.9901613    244.17075  0.069209397  0.071488469            2 
  295000    1.1474659   -3.9901014    243.92862  0.068906388  0.071472899            2 
  296000    1.1426037   -4.0157997    244.97355   0.06896778  0.071457986            1 
  297000    1.1312562   -4.0182428    246.39164  0.069133458  0.071438788            2 
  298000    1.1235205   -3.9838119    246.53309   0.06894102  0.071419361            3 
  299000    1.1358364   -4.0210104     247.1984  0.068895875  0.071400543            1 
  300000    1.1674453   -3.9842126    249.03458  0.069176272  0.071379467            2 
  301000    1.1218805   -3.9741249    248.92931  0.068917306  0.071360263            4 
  302000    1.1584031   -3.9754521    249.57535  0.068867369  0.071339533            2 
  303000    1.1359389   -3.9726668    250.50371  0.068895411  0.071318521            4 
  304000    1.1342805   -3.9996226    250.05284  0.068545185  0.071295549            1 
  305000    1.1544498   -4.0097403    251.51546   0.06872007  0.071270287            3 
  306000    1.1337958   -4.0078563    253.07896  0.068921285  0.071248362            5 
  307000    1.1354866   -3.9893745    252.69101  0.068591479  0.071225645            2 
  308000    1.1155882   -3.9930452    255.32703   0.06908199  0.071200241            2 
  309000    1.1066479   -3.9853753    254.47221  0.068627889  0.071177737            2 
  310000    1.1582931   -3.9754281    255.64178  0.068720909  0.071155456            2 
  311000    1.1165305   -3.9867355     255.9748  0.068589174  0.071134338            2 
  312000    1.1599059   -3.9965197    257.15975   0.06868583  0.071113393            1 
  313000    1.1419003   -3.9847136      258.676  0.068870074  0.071092498            6 
  314000    1.1339274   -4.0262486    258.16761   0.06851582  0.071073915            3 
  315000    1.1196724   -3.9882078    260.50732   0.06891728  0.071054869            2 
  316000     1.116111   -4.0107239    260.38749  0.068667587  0.071036254            3 
  317000    1.1311392   -3.9615981    262.52255  0.069012238  0.071018135            1 
  318000    1.1192943   -3.9598026    264.08147  0.069203741  0.071001171            2 
  319000    1.1176362    -4.020137     263.8618  0.068929414   0.07098373            2 
  320000    1.1404441   -4.0052988    263.39618  0.068592756  0.070964167            3 
  321000    1.1305443   -4.0038356    264.29757  0.068613077  0.070945135            2 
  322000    1.1255952   -4.0067835     265.5105  0.068713898  0.070925897            1 
  323000     1.117275   -4.0124773    267.22487  0.068943464  0.070907962            2 
  324000    1.1194886   -4.0151827    266.84607  0.068633249  0.070889533            4 
  325000    1.1174684   -4.0287568    268.00727  0.068719812  0.070870521            1 
  326000    1.1241834   -3.9976103    270.46192  0.069136483  0.070853432            3 
  327000    1.1349728   -4.0009376    270.19575  0.068857224  0.070836809            6 
  328000    1.1289791   -3.9640585    270.63679  0.068759348  0.070819299            2 
  329000    1.1225916   -4.0486573    269.46836  0.068254396  0.070799507            2 
  330000    1.0942129    -3.961247      270.929  0.068416413  0.070778487            2 
  331000    1.1371844   -4.0315909    271.82434  0.068435131  0.070755801            3 
  332000    1.1511087   -4.0129279    272.79759  0.068473291  0.070732629            1 
  333000    1.1232567   -4.0122091    272.78053  0.068263397  0.070708437            2 
  334000     1.120036   -3.9860455    273.87336  0.068331678   0.07068523            2 
  335000    1.1284631   -4.0132361    274.39629  0.068257784  0.070662929            1 
  336000    1.1091348   -4.0091688    275.87092  0.068420366  0.070639706            2 
  337000    1.1078542   -4.0226297    275.94925  0.068236709  0.070615892            4 
  338000    1.0980054   -4.0302662    275.67411  0.067966989  0.070590177            1 
  339000    1.1154944   -4.0419476    275.76545  0.067788951  0.070561011            3 
  340000    1.0877004   -4.0112417    277.97108  0.068130167   0.07053058            2 
  341000    1.1430883   -4.0400007    277.61078  0.067842323   0.07050213            3 
  342000    1.1069689   -4.0293238    278.33066  0.067819361  0.070471812            4 
  343000    1.1050079   -4.0245061    280.42662   0.06813086  0.070442333            2 
  344000    1.0991265   -4.0298919    280.05534  0.067842862  0.070411041            3 
  345000    1.1265363   -4.0203706      280.779  0.067821014  0.070379048            5 
  346000    1.1063263   -4.0062931    279.98301  0.067433287  0.070344406            2 
  347000    1.1330229   -4.0124662    281.67476  0.067645235   0.07031195            1 
  348000    1.1145971   -4.0008261    281.90474  0.067505923  0.070278437            1 
  349000    1.1265204   -4.0081216    281.85602  0.067300864  0.070243493            3 
  350000    1.1200594   -4.0111386    283.61551  0.067527503  0.070208162            3 
  351000      1.12025   -4.0411199    284.26373  0.067489014  0.070174746            3 
  352000    1.1116179   -4.0281113    283.66955  0.067156617  0.070139647            3 
  353000     1.129613   -4.0285186    285.56897  0.067414771   0.07010364            2 
  354000    1.1213529   -4.0233195    286.73105  0.067497894  0.070068406            2 
  355000    1.1177603   -4.0394055    285.28402   0.06696808  0.070032099            3 
  356000     1.128293   -4.0119298    288.06258  0.067430378   0.06999512            3 
  357000    1.0863733   -4.0185033    288.50576  0.067344948   0.06995728            2 
  358000    1.1160082   -4.0078228    288.99667  0.067271105  0.069921537            4 
  359000    1.1109728   -3.9969096    288.87684  0.067055906  0.069886125            3 
  360000    1.1267926   -4.0058631    291.64921  0.067511391  0.069851761            2 
  361000    1.1210068   -4.0682484     290.7483  0.067116413  0.069818252            8 
  362000    1.1013328   -4.0474566     290.7729  0.066936671   0.06978218            4 
  363000    1.1082191   -4.0416889    291.20229  0.066850848  0.069747356            3 
  364000    1.1019611     -4.00676    294.03453  0.067315597  0.069714707            2 
  365000    1.0977728   -4.0018431     294.4937  0.067236005  0.069680576            4 
  366000    1.1095433   -4.0365553    296.25368  0.067453023  0.069647095            1 
  367000    1.0917397   -4.0032037    296.14066  0.067243565  0.069614657            1 
  368000    1.0938954   -4.0287816     296.5264  0.067148187   0.06958281            2 
  369000    1.0866869   -4.0426904    296.80404  0.067028915  0.069551231            5 
  370000    1.1195174    -4.014025    297.82777  0.067078325  0.069518425            2 
  371000    1.1314652   -4.0546968     298.8099  0.067118126  0.069485486            5 
  372000    1.0838343   -4.0238687    299.46339  0.067084092  0.069452662            3 
  373000    1.1053073   -4.0103034    300.74976  0.067191636  0.069421153            1 
  374000    1.1019249   -4.0320763    298.83982  0.066586413  0.069388172            2 
  375000    1.1094206   -4.0288213    303.07882  0.067350849  0.069356508            4 
  376000    1.1172049   -4.0328865    302.91783  0.067136044  0.069323122            2 
  377000    1.0988599   -4.0324728    302.30347  0.066822164  0.069292782            2 
  378000    1.0795341   -4.0528476     302.7332  0.066740124  0.069259119            2 
  379000    1.0984596   -4.0352259    305.11741  0.067088261  0.069228366            2 
  380000    1.0989788   -4.0252272    305.53754  0.067003846  0.069197629            1 
  381000    1.0922539   -4.0702482     305.9895  0.066926837  0.069168007            3 
  382000    1.1069868   -4.0362986     307.6768  0.067119721   0.06914129            3 
  383000    1.0961023   -4.0303539    309.15883  0.067266934    0.0691156            1 
  384000    1.1242614   -4.1081163      308.125  0.066867405  0.069088478            4 
  385000    1.1090822   -4.0636935    308.97658  0.066878047  0.069062538            1 
  386000    1.0829775   -4.0586742    308.71579  0.066648486  0.069034114            2 
  387000    1.0802631   -4.0311474    310.76533    0.0669176  0.069006071            1 
  388000    1.0845286   -4.0404296    310.95923  0.066786777  0.068976333            4 
  389000    1.1005706   -4.0602926    311.49105  0.066729017  0.068947978            2 
  390000     1.106552   -4.0573372    312.48912  0.066771179  0.068919298            3 
  391000    1.1169017    -4.055744    311.88495  0.066471644  0.068888811            3 
  392000    1.1066857     -4.05173    313.59448  0.066665492  0.068859046            3 
  393000    1.0928548    -4.033901    314.31518   0.06664868  0.068829065            9 
  394000    1.0877926   -4.0661494    314.83145  0.066588717  0.068797906            1 
  395000    1.1054085   -4.0531598    314.75293  0.066403572  0.068764633            1 
  396000    1.1202353   -4.0369561    315.42657  0.066377645  0.068732649            1 
  397000    1.0902874   -4.0688674    315.80395  0.066289662   0.06870039            4 
  398000    1.0772508   -4.0093735     317.6638  0.066512521  0.068667491            4 
  399000    1.1086614   -4.0462839    318.36291  0.066491836  0.068635262            1 
  400000    1.0805124   -4.0740324    317.09035  0.066060489  0.068603939            4 
  401000    1.0953665   -4.0605609    319.70662  0.066439446  0.068571713            2 
  402000    1.0851063   -4.0628635    319.59583  0.066251208  0.068539492            4 
  403000    1.0867646   -4.0712269    318.22722  0.065803809  0.068506811            3 
  404000    1.1022341   -4.0779608    319.79088  0.065963466  0.068470954            2 
  405000    1.0648417    -4.049244    322.41786  0.066341123  0.068438404            4 
  406000    1.0781142    -4.061455    321.80331  0.066051583  0.068405531            2 
  407000    1.0961981   -4.0447779    322.71077  0.066075097  0.068372777            4 
  408000    1.0866946   -4.0647775    323.37095  0.066047988    0.0683395            3 
  409000    1.0662812   -4.0603016    324.26337  0.066068331  0.068308355            3 
  410000    1.0650782   -4.0321016    324.99603  0.066056104  0.068277434            2 
  411000    1.0959661   -4.0564638    325.19141  0.065934999  0.068244629            2 
  412000    1.0905611   -4.0516959    324.38191  0.065611227  0.068210585            2 
  413000    1.1031971   -4.0458251    326.95315  0.065971177  0.068176393            2 
  414000    1.0766045   -4.0434893    328.15657  0.066054061  0.068142257            2 
  415000     1.076396   -4.0687681    327.21118  0.065705056  0.068107442            3 
  416000     1.060142   -4.0630531    328.35702  0.065776646  0.068073368            5 
  417000    1.0999073     -4.04647    328.75019   0.06569748  0.068036624            2 
  418000    1.0725041   -4.0798025    329.66896  0.065723477  0.068000753            2 
  419000    1.0538303   -4.0624783    330.50084  0.065732069  0.067965272            2 
  420000    1.0844404   -4.0508416    330.99786  0.065674178  0.067929988            4 
  421000    1.0768011   -4.0871662    331.43458  0.065604629  0.067894218            1 
  422000    1.1060343   -4.0847291    331.88098  0.065537319  0.067858563            1 
  423000    1.0858667   -4.0600732    332.01458  0.065408704  0.067823899            3 
  424000    1.0596497   -4.0719861    333.60087  0.065566208  0.067786832            1 
  425000    1.0807667   -4.0746455    334.44141  0.065576746  0.067750521            2 
  426000    1.0769669   -4.0723055    334.72728  0.065478733  0.067715377            2 
  427000    1.0797276    -4.066671    335.04549  0.065387488  0.067680706            4 
  428000     1.069883   -4.0888185    333.76366  0.064985137  0.067644713            3 
  429000    1.0772604   -4.0409879    336.96869  0.065456234  0.067608494            3 
  430000    1.0725501     -4.08324    335.31775   0.06498406  0.067571875            3 
  431000    1.0876306   -4.0628955    337.69753  0.065293413  0.067535216            2 
  432000    1.0721157   -4.0553711    338.91249  0.065376637  0.067498198            3 
  433000    1.0769944   -4.0596222    337.40468  0.064935465  0.067458755            2 
  434000    1.1205722   -4.0595639    338.58326  0.065012147  0.067420447            2 
  435000    1.0928981   -4.0889573    340.29427  0.065190472  0.067383309            2 
  436000    1.0894322    -4.063834    340.88386  0.065153643  0.067347483            2 
  437000    1.0570304   -4.0822634    341.74736  0.065169215  0.067310795            7 
  438000    1.0740613   -4.0574361    342.86912   0.06523385  0.067275607            3 
  439000    1.0865036    -4.070882      342.137   0.06494628  0.067239909            2 
  440000     1.076895   -4.0688075    342.18453  0.064807677  0.067203531            2 
  441000    1.0900874   -4.0650204     342.2478  0.064672676  0.067165683            5 
  442000    1.0819992   -4.0886605    343.60297  0.064781857  0.067128298            4 
  443000    1.0700318   -4.0821679    343.95519  0.064701879  0.067090858            2 
  444000    1.1186939   -4.0708093    345.85463  0.064912655  0.067053495            2 
  445000    1.0793648   -4.0457292    345.69973  0.064737777  0.067015583            3 
  446000    1.0702249   -4.0883192    345.50327  0.064555917  0.066978951            2 
  447000    1.0645186    -4.044648    347.35539  0.064756784  0.066938931            2 
  448000    1.0901937    -4.079747    347.67501   0.06467169  0.066899352            1 
  449000    1.0766513   -4.1038414    345.77683  0.064175358  0.066858503            2 
  450000     1.068606   -4.0970988     346.6169  0.064188315  0.066816347            3 
  451000    1.0853985   -4.0670639    347.32969  0.064177696  0.066774725            2 
  452000    1.0848657    -4.080904     348.8412  0.064314381  0.066733248            2 
  453000    1.0839599   -4.0416292    347.86842  0.063993455   0.06669135            2 
  454000    1.0790691   -4.0798186    349.89871  0.064225167  0.066649725            3 
  455000    1.0545983   -4.0517614    349.52624  0.064015796  0.066607788            1 
  456000    1.0960828   -4.0785696    350.46895  0.064047688  0.066565604            1 
  457000    1.0532782    -4.073698    348.91172   0.06362358  0.066522373            3 
  458000    1.0995822   -4.1203691    350.09639  0.063700216  0.066479715            2 
  459000    1.0774165   -4.1258505    351.06986  0.063738174  0.066436074            2 
  460000    1.0870738   -4.0718463    352.41718  0.063843692  0.066392513            3 
  461000    1.0619882   -4.0469871    353.71255  0.063939362  0.066348953            2 
  462000    1.0690686   -4.1083887    352.10139  0.063510352  0.066304634            2 
  463000     1.070043   -4.0528293    352.88322  0.063513898  0.066258789            3 
  464000    1.0552007   -4.1164462    351.95094  0.063209579  0.066213106            2 
  465000    1.0646427   -4.0971976    355.32507  0.063678328  0.066169788            2 
  466000    1.0622848   -4.0910827    356.51186   0.06375391  0.066127005            3 
  467000    1.0701158   -4.0846207    355.92059  0.063511882  0.066084498            2 
  468000    1.0841589   -4.0667741    356.88522  0.063547938  0.066040938            2 
  469000    1.0722383   -4.0811084    356.38622  0.063323778  0.065997792            2 
  470000      1.07203   -4.1052739    356.62872  0.063232042  0.065954212            1 
  471000    1.0724713   -4.0945578    357.40727   0.06323554  0.065910163            6 
  472000    1.0721728    -4.069291    359.40613  0.063454471  0.065866947            3 
  473000    1.0574306   -4.1034861    360.09887  0.063442366   0.06582455            3 
  474000    1.0842544   -4.1225654    359.00212  0.063115704  0.065780873            2 
  475000    1.0686898   -4.0746634    360.38006  0.063224572  0.065736108           12 
  476000    1.0723649   -4.1132588    358.97308  0.062845427  0.065691102            4 
  477000    1.0759573   -4.0807862    362.19284  0.063276178  0.065647897            3 
  478000    1.0706397   -4.1065295    361.58035  0.063037021  0.065603691            7 
  479000    1.0859953   -4.1248851    360.84344  0.062777216  0.065560138            3 
  480000    1.0801281   -4.1031349    363.07727  0.063034248   0.06551556            2 
  481000    1.0568855   -4.1029044    363.99825  0.063062759  0.065471168            4 
  482000    1.0645205    -4.131195    364.76152  0.063063887  0.065428161            3 
  483000    1.0410995   -4.1087677    365.43916  0.063050234  0.065385532            2 
  484000    1.0579551   -4.1019302    365.63076  0.062952954  0.065344461            3 
  485000    1.0590243   -4.1023253     368.1184  0.063250584  0.065302008            2 
  486000    1.0722078   -4.1013195    368.01014  0.063101876  0.065261243            3 
  487000    1.0631941   -4.0906324    368.08633   0.06298534  0.065220172            2 
  488000    1.0688715   -4.0809207    368.65601  0.062953554  0.065180034            1 
  489000    1.0452353   -4.1277741    369.59162  0.062984258  0.065139227            3 
  490000    1.0698907   -4.1132339    370.26701   0.06297058    0.0650989            2 
  491000    1.0513789   -4.1142811    372.37924  0.063200821  0.065058838            2 
  492000    1.0469113   -4.1208835    371.00917  0.062840306  0.065019102            3 
  493000    1.0446069    -4.125605    372.17102  0.062909233  0.064978489            1 
  494000    1.0362628   -4.1395249    370.46852  0.062494689  0.064938326            2 
  495000    1.0351489   -4.1191994    371.45207  0.062534018  0.064894495            2 
  496000     1.047999   -4.1492177    369.96656  0.062158361  0.064851035            3 
  497000    1.0398841   -4.1088181    372.24006  0.062414497  0.064807502            1 
  498000    1.0423157   -4.1399912     370.9836  0.062078915  0.064764017            1 
  499000    1.0631099   -4.1224751    372.98032  0.062287962  0.064719229            2 
  500000    1.0797852   -4.0948434    373.37594  0.062229324  0.064676129            2 
  501000    1.0695506   -4.1086908    374.32527  0.062263018  0.064631879            2 
  502000    1.0389252   -4.1254782    373.64319  0.062025761  0.064588314            2 
  503000    1.0425687   -4.1291237    375.07585  0.062139803  0.064543657            4 
  504000    1.0866319   -4.1149585    376.49377  0.062250953  0.064500935            1 
  505000    1.0709825   -4.1255037    376.63299  0.062150659  0.064456901            3 
  506000     1.074494   -4.0915732    376.15173  0.061948572  0.064412897            4 
  507000    1.0642754   -4.0996278    377.57573  0.062060442  0.064368827            3 
  508000    1.0606852   -4.1235932      378.045  0.062015256  0.064325193            2 
  509000    1.0649698   -4.0793613    379.60237  0.062148391  0.064281519            2 
  510000    1.0622041   -4.1247843    379.18267  0.061957952  0.064238522            3 
  511000    1.0494321   -4.1566509    379.42211  0.061875751  0.064194848            2 
  512000    1.0284778   -4.1412494    380.07072  0.061860468  0.064150855            4 
  513000    1.0327018   -4.1287662    380.27338  0.061772803  0.064107337            2 
  514000    1.0522784   -4.0903644    382.97939  0.062091341  0.064064721            2 
  515000    1.0543182   -4.1122742    383.81863  0.062106575  0.064023546            2 
  516000    1.0679869   -4.1282069    381.97428  0.061688353  0.063981586            3 
  517000    1.0404206   -4.1451942    382.24423  0.061612545   0.06393899            2 
  518000    1.0691294   -4.1078753    383.59055  0.061710191  0.063896545            5 
  519000    1.0396274   -4.1116621    384.71486  0.061771815  0.063853619            3 
  520000    1.0297139   -4.1413275     384.1775  0.061566907  0.063811965            2 
  521000    1.0498489   -4.1252011    385.68658  0.061690112  0.063770148            4 
  522000    1.0457244    -4.108311    389.15931  0.062126326  0.063729553            5 
  523000    1.0576125   -4.1206571    389.47142  0.062057268  0.063690286            2 
  524000    1.0381927   -4.1080885    388.55448  0.061793016  0.063651178            2 
  525000    1.0172263   -4.1480922    389.92709  0.061893189  0.063612214            2 
  526000    1.0414041   -4.1418609      390.445  0.061857572  0.063573658            1 
  527000    1.0460205   -4.1342597    389.20657  0.061544365  0.063534132            2 
  528000     1.045257    -4.108805    390.76509  0.061673783  0.063494362            2 
  529000    1.0354784   -4.1701003    388.63939  0.061222336  0.063456042            3 
  530000    1.0628053   -4.1264358    392.16575  0.061661281  0.063416116            4 
  531000    1.0238349   -4.0904319    391.95871  0.061512666  0.063378019            4 
  532000    1.0333845   -4.1116534    392.61838  0.061500373  0.063340239            5 
  533000    1.0702814   -4.1487073    392.38865  0.061349069  0.063301263            4 
  534000    1.0310219   -4.1227696    392.84884  0.061305999  0.063261757            2 
  535000    1.0380913    -4.143369    392.40711  0.061122603  0.063221646            3 
  536000    1.0390587   -4.1239089    394.21749  0.061290033  0.063180854            3 
  537000    1.0394622   -4.1556404    394.99113  0.061295954  0.063141033            4 
  538000    1.0283945   -4.1012929    396.23674   0.06137496   0.06310091            2 
  539000    1.0442888   -4.1316889    395.61793   0.06116542  0.063061681            4 
  540000    1.0112248   -4.1126861    396.79656  0.061234037  0.063022645            5 
  541000    1.0592877   -4.1217192     398.0584  0.061315219  0.062983586            1 
  542000    1.0326969   -4.1444391    398.18441  0.061221466   0.06294546            7 
  543000    1.0221627   -4.1400696    398.73781  0.061193648   0.06290828            9 
  544000    1.0356925    -4.157196    399.36584  0.061177364  0.062871681            2 
  545000    1.0512075   -4.1269427    398.80268  0.060979003  0.062834593            2 
  546000    1.0364806   -4.1506142    400.69385   0.06115596  0.062797137            2 
  547000    1.0568822   -4.1540711    401.14408  0.061112749  0.062759101            5 
  548000    1.0310398   -4.1330117    401.76573  0.061095761  0.062721708            2 
  549000    1.0393898   -4.1514011    400.82282  0.060841351  0.062684065            2 
  550000    1.0310943   -4.1670161    402.39662  0.060969185  0.062646732            5 
  551000    1.0443401   -4.1605943    402.45587  0.060867493  0.062608918            1 
  552000    1.0522653   -4.1628753    403.21528  0.060871872  0.062571789            3 
  553000    0.9957841   -4.1344485    406.61431  0.061274007  0.062534274            1 
  554000    1.0282487   -4.1493771    404.83253  0.060895386  0.062496716            2 
  555000    1.0434145   -4.1683057    406.37649  0.061017491  0.062461227            3 
  556000    1.0420056   -4.1581152     405.4954  0.060775689  0.062425797            7 
  557000    1.0443664   -4.1281839    408.03145  0.061045998  0.062390698            3 
  558000    1.0401533   -4.1611151    407.25298  0.060820338  0.062356466            1 
  559000    1.0329312    -4.139477    408.40188  0.060882808  0.062321395            4 
  560000    1.0585755   -4.1581441    409.82481  0.060985834  0.062286328            3 
  561000    1.0322681   -4.1698124    410.01072  0.060904741  0.062251709            4 
  562000    1.0375947    -4.172101    410.20688  0.060825457    0.0622172            2 
  563000     1.023054   -4.1871321    410.80283  0.060805629  0.062182366            3 
  564000    1.0081202   -4.1592279     411.6112  0.060817258  0.062146574            4 
  565000    1.0274267   -4.1616121    411.72107  0.060725822  0.062111551            4 
  566000    1.0042277   -4.1549353    413.93199  0.060944051  0.062077233            4 
  567000     1.026055    -4.162878    413.59155   0.06078653  0.062043403            3 
  568000    1.0392912   -4.1752083     411.9481  0.060438395  0.062008578            4 
  569000   0.99491835    -4.162593    414.66723  0.060730408  0.061974465            5 
  570000    1.0158574   -4.1631819    415.78159  0.060786782  0.061940396            4 
  571000      1.03854   -4.1568167    416.04998  0.060719495  0.061906768            2 
  572000   0.98981725   -4.1913544    414.37104  0.060368741  0.061872245            2 
  573000     1.028757   -4.1774792    415.24013  0.060389781  0.061836928            2 
  574000    1.0271491   -4.1817681    416.08314   0.06040696  0.061802591            3 
  575000    1.0171798     -4.16859    416.15844  0.060312817  0.061768248            8 
  576000    1.0341402   -4.1226293    418.44488  0.060538901  0.061734404            5 
  577000    1.0368068   -4.1856784    416.96152  0.060219746  0.061700947            3 
  578000     1.002063   -4.1907979    418.46459  0.060332265  0.061667385            4 
  579000    1.0287063   -4.1884584     418.9546   0.06029859  0.061634148            2 
  580000    1.0300967   -4.1703352    421.51885  0.060563053  0.061601208            6 
  581000    1.0137662   -4.1717507    422.72221  0.060631413  0.061568926            4 
  582000    1.0157774   -4.1880025    422.60928  0.060511065  0.061536093            1 
  583000    1.0521142   -4.2022801    420.91187  0.060164647  0.061504286            2 
  584000    1.0268726   -4.1741502    424.59553  0.060587261  0.061472643            2 
  585000    1.0189194   -4.2079655    423.98251  0.060396369  0.061441895            2 
  586000    1.0202579     -4.16968    426.51588  0.060653567   0.06141114            1 
  587000    1.0053685   -4.1615829    425.99555   0.06047637  0.061381047            4 
  588000    1.0175087   -4.2011239    426.64919  0.060466155  0.061350344            2 
  589000    1.0395691   -4.1369076    429.04424  0.060702354  0.061320469            2 
  590000    1.0060141   -4.2038519    426.97329  0.060306962  0.061291202            4 
  591000    1.0003755   -4.1722985    430.18403  0.060657647  0.061261465            4 
  592000    1.0286174   -4.1452214    430.33244  0.060576075  0.061232953            2 
  593000    1.0004702   -4.1565361    429.94785  0.060419877  0.061203146            3 
  594000     1.022834   -4.1630719    430.39203  0.060380476  0.061173931            1 
  595000    1.0202523   -4.1985788    430.03257  0.060228651  0.061143215            6 
  596000    1.0384683   -4.1623038    430.39821   0.06017872  0.061111904            1 
  597000    1.0301356   -4.1932224    430.05597  0.060030146  0.061080791            6 
  598000    1.0010663   -4.1642683    430.54575  0.059998015  0.061049542            3 
  599000    1.0339339   -4.2116525    431.29458  0.060002028  0.061018354            4 
  600000    1.0224476   -4.1573128    432.28603  0.060039727  0.060988187            4 
  601000    1.0330128    -4.210632    431.81179   0.05987407  0.060956698            3 
  602000   0.99966526   -4.2047404    430.37137  0.059575217  0.060925223            3 
  603000    1.0218446   -4.1606382    434.15766  0.059999677  0.060893693            6 
  604000    1.0194458   -4.2031841    434.05286  0.059885881  0.060861751            2 
  605000   0.99982361   -4.2011714    434.03492  0.059784424  0.060829124            3 
  606000   0.99285513   -4.1498698    433.64717  0.059632448  0.060797021            2 
  607000   0.99782828   -4.2026456      434.013  0.059584431  0.060765743            2 
  608000    1.0049415   -4.1250785    436.86745  0.059877665  0.060734017            3 
  609000    1.0094985   -4.2010213     435.1479  0.059544047  0.060702625            5 
  610000    1.0258041    -4.232635    434.66472  0.059380426  0.060670561            4 
  611000    1.0225618   -4.1800217    439.64389  0.059962342  0.060639184            2 
  612000    1.0008814   -4.1636058    438.85375  0.059756775  0.060608541            4 
  613000    1.0019965   -4.1944459    438.47202  0.059607399  0.060577193            3 
  614000     1.003164   -4.2246726    438.38306  0.059498244   0.06054581            1 
  615000    1.0100335   -4.1905692    440.99418  0.059755309  0.060515045            3 
  616000    1.0061408   -4.2174798    440.17371  0.059547309   0.06048426            4 
  617000    1.0170561   -4.2051446    439.93054  0.059417955  0.060453514            3 
  618000   0.99021353   -4.1623538    443.09991  0.059749178   0.06042202           11 
  619000    1.0023082   -4.2257561    441.54611  0.059443472  0.060391937            2 
  620000    1.0114687   -4.1825606    442.67818  0.059499756  0.060360505            9 
  621000    1.0189963   -4.1881672    442.35002  0.059359906  0.060330428            2 
  622000    1.0104934   -4.1780902    445.13285  0.059637306  0.060300312            3 
  623000   0.98227986   -4.1897742    447.48359  0.059856017  0.060271289            2 
  624000    1.0156778   -4.2103124    444.67239  0.059384667  0.060242137            2 
  625000    1.0146718   -4.1927112    445.15856  0.059354475  0.060212781            5 
  626000   0.98686937    -4.212155    446.78845   0.05947663  0.060183882            3 
  627000   0.99667624   -4.1667473    447.50916   0.05947756   0.06015481            4 
  628000   0.99674842   -4.1992016    445.58703  0.059127791  0.060125728            4 
  629000    1.0110041    -4.187618    449.73207  0.059582945  0.060095526            1 
  630000   0.97587002   -4.1759325     450.1634  0.059545424  0.060065648            3 
  631000    1.0030512   -4.1853252    448.91797  0.059286578  0.060035012            3 
  632000    1.0043126   -4.2332495    449.47608  0.059266361  0.060004534            1 
  633000    1.0029464   -4.1979603    448.55125  0.059050981  0.059973927            3 
  634000   0.99785088   -4.2052804    449.89035  0.059133852  0.059943393            6 
  635000    1.0154868   -4.2500291     448.8455  0.058903609  0.059911722            2 
  636000   0.97566121   -4.1964778    451.55003   0.05916536  0.059880983            4 
  637000   0.98091723   -4.2167661    453.06136  0.059270194  0.059851354            3 
  638000    1.0045888   -4.1974987    451.84099  0.059017893  0.059821802            5 
  639000   0.97892693     -4.23808    452.50513  0.059012146  0.059791881            3 
  640000    0.9891901   -4.1959327    454.42659  0.059170129  0.059762076            2 
  641000   0.98724385   -4.1913382    455.26278  0.059186529  0.059733159            3 
  642000    1.0051611   -4.2229404    454.91142   0.05904873  0.059704761            3 
  643000    1.0044818    -4.206167      457.234  0.059257906  0.059675883            3 
  644000   0.99638224   -4.2180869    457.48649  0.059198563  0.059647522            2 
  645000    1.0017198   -4.2123383    456.54697  0.058985397  0.059619856            4 
  646000    1.0049873   -4.2389086    457.74559  0.059048708  0.059591185            3 
  647000    1.0128655   -4.2110386    458.75159  0.059087015  0.059562778            3 
  648000    1.0048233    -4.232136    457.60541  0.058848433  0.059534208            3 
  649000   0.99255621    -4.177109     459.3347  0.058979802  0.059505975            2 
  650000   0.98640998   -4.1882699     462.3666   0.05927777  0.059478762            4 
  651000   0.99423794   -4.2118248    459.91751  0.058873209  0.059450892            4 
  652000   0.98657905   -4.2228708     460.9272  0.058911963   0.05942234            3 
  653000   0.98580787   -4.2045294    460.74178  0.058798084   0.05939387            8 
  654000   0.98998029   -4.2323285    460.76723  0.058711421  0.059364309            8 
  655000   0.99247651   -4.1779103    462.33841   0.05882168  0.059336002            2 
  656000   0.98622122    -4.197282    461.94846  0.058682477  0.059307115            2 
  657000    1.0052521   -4.2310884    463.99163  0.058852312   0.05927933            2 
  658000   0.99426158   -4.2277277    463.68586  0.058724146  0.059250742            2 
  659000   0.96888589    -4.217186    465.45777  0.058859101  0.059221867            2 
  660000    1.0039871   -4.2198064    464.99395  0.058711358  0.059193298            2 
  661000   0.97656361    -4.187646    465.04651  0.058629161  0.059165179            6 
  662000       1.0028   -4.2250515    462.69313  0.058244352  0.059136856            3 
  663000   0.96895917    -4.242221    466.40159  0.058622623  0.059109923            4 
  664000   0.95003184    -4.271222     467.2366  0.058639132  0.059082723            2 
  665000   0.98520372   -4.1926966    468.58412  0.058719814  0.059055286            4 
  666000   0.97037785   -4.2108915     468.0837  0.058569031  0.059028497            3 
  667000   0.99534876   -4.2336896     470.6205  0.058798163  0.059002014            5 
  668000    1.0104024   -4.2368096    469.25449  0.058539732  0.058975039            3 
  669000   0.98786596   -4.2255594    470.87782  0.058654437  0.058948388            4 
  670000   0.96112814   -4.1998943     470.7902  0.058555995  0.058921719            3 
  671000   0.96169011   -4.2388976    470.74569  0.058463201  0.058894711            1 
  672000   0.97993111   -4.2508057    471.88997  0.058518101   0.05886816            4 
  673000    1.0013208   -4.1953409    471.95141  0.058438759  0.058841253            1 
  674000   0.98635191   -4.2438551    473.23531  0.058510795  0.058813768            5 
  675000   0.99640728    -4.217648    474.92685  0.058632944  0.058787537            3 
  676000   0.98719333   -4.2661391    470.92302  0.058052641  0.058760939            3 
  677000   0.99270685   -4.2287765    475.19704  0.058492989  0.058734449            4 
  678000   0.96506716   -4.2297267    474.00427  0.058260112  0.058708173            3 
  679000   0.99971784   -4.2478455    475.23846   0.05832578   0.05868175            2 
  680000   0.98515429   -4.2175156     475.5958  0.058283799   0.05865462            1 
  681000   0.98283394   -4.2320715     475.2653   0.05815777  0.058628101            3 
  682000   0.98448853   -4.2512701    477.21505  0.058310734  0.058601839            4 
  683000   0.99401973   -4.2496403    477.83238  0.058300681  0.058575666            2 
  684000   0.97489307   -4.2372119    476.64146  0.058070354  0.058549151            5 
  685000   0.98482896   -4.2332357    478.79306  0.058247331  0.058522462            7 
  686000   0.95787393   -4.2427664    478.44391  0.058120008  0.058496375            5 
  687000   0.96273794   -4.2187972    478.18285  0.058003742  0.058470054            4 
  688000   0.97599367   -4.2721255    480.93435  0.058252708  0.058443632            4 
  689000   0.96727973   -4.2454331    481.47072  0.058233033  0.058417911            1 
  690000   0.97600286   -4.2571911    482.47464  0.058269884  0.058392275            3 
  691000   0.97441774   -4.2583768    480.95123  0.058001836  0.058366442            3 
  692000   0.98279201   -4.2493971    481.60968  0.057997312  0.058340014            4 
  693000   0.98849313   -4.2675807    482.23685  0.057989039  0.058313868            3 
  694000   0.97516007   -4.2418396    483.37847  0.058042563  0.058288057            3 
  695000   0.97686279   -4.2251687    485.08036  0.058163113  0.058263018            2 
  696000   0.98102245   -4.2363357    483.46878  0.057886588    0.0582368            4 
  697000   0.96103971   -4.2649161    486.17353  0.058126916    0.0582112            3 
  698000   0.96900292   -4.2436687    484.47726  0.057841124   0.05818594            3 
  699000   0.98841447   -4.2098095      486.848  0.058041011  0.058160616            1 
  700000   0.98870107   -4.2924949    484.72795  0.057705708  0.058134612            8 
  701000   0.99177431   -4.2230563    487.14585  0.057910824  0.058109144            2 
  702000   0.99215662   -4.2807583    488.17784  0.057950835  0.058083489            3 
  703000   0.97573738   -4.2377051    490.60236  0.058155804  0.058058509            5 
  704000   0.97761586   -4.2708438    490.16642  0.058021594  0.058033151            3 
  705000   0.98270081   -4.2360357    490.43358  0.057970872  0.058008548            7 
  706000   0.97437512   -4.2460215    490.50901  0.057897664  0.057983249            4 
  707000   0.95625518   -4.2698552    489.34074   0.05767807  0.057958308            3 
  708000   0.96980088   -4.2668916    491.40566  0.057839649  0.057933337            5 
  709000   0.95486125   -4.2496618    491.01463   0.05771211   0.05790855            4 
  710000     0.959279   -4.2372198    493.47761  0.057919908  0.057883652            2 
  711000   0.97023426   -4.2354467    493.60639  0.057853538  0.057858919            2 
  712000   0.96564563   -4.2437666    495.42868  0.057985567  0.057834527            3 
  713000   0.97298614     -4.24214    494.02438   0.05774011   0.05781025            3 
  714000   0.97884198   -4.2320668    495.50285  0.057831798  0.057785827            4 
  715000   0.96406299   -4.2554339    497.53034  0.057987219  0.057761443            4 
  716000   0.96741246   -4.2662189    494.13672  0.057511257   0.05773683            3 
  717000   0.98801537   -4.2542406    497.23143  0.057790728  0.057713154            4 
  718000   0.95430568   -4.2696755    496.60286  0.057637287  0.057689139            1 
  719000   0.95770879   -4.2712522    497.31317  0.057639449  0.057664518            3 
  720000   0.95528454   -4.2332985    499.71814  0.057837748  0.057640634            3 
  721000   0.96605849   -4.2506142    498.86494  0.057658915  0.057616121            4 
  722000   0.97449235   -4.2681376    496.86201  0.057347877  0.057591281            3 
  723000   0.97348799   -4.2430174    499.38712  0.057559604  0.057566478            2 
  724000   0.94789812   -4.2533361    500.52875  0.057611504  0.057542593            1 
  725000   0.97070981   -4.2825096     498.9328  0.057348598  0.057518511            2 
  726000   0.94734866   -4.2813552      500.448  0.057443526  0.057494665            3 
  727000   0.96751878   -4.2810079    499.10284  0.057210321  0.057470685            5 
  728000   0.93867324   -4.2799703    500.68592  0.057312948  0.057446722            6 
  729000   0.96699897   -4.2426261    502.93673  0.057491624  0.057422913            4 
  730000   0.98066585   -4.2739862     501.7435  0.057276655  0.057400136            3 
  731000   0.94825558   -4.2681164    504.51829  0.057514625  0.057377003            3 
  732000   0.95114788   -4.2863898    504.79897  0.057468007  0.057353326            2 
  733000   0.96802164   -4.2623025    504.37432  0.057341328  0.057329687            5 
  734000   0.96677025   -4.2929555    505.72117  0.057416118  0.057305882            2 
  735000   0.95232553   -4.2687066    504.99401  0.057255557  0.057282679            4 
  736000   0.98113781   -4.2752586    505.82579  0.057271942  0.057259969            3 
  737000   0.96470602    -4.247937    505.52579  0.057160311  0.057236414            5 
  738000    0.9602352   -4.2714629    506.82272  0.057229304  0.057213387            3 
  739000   0.97284107   -4.2779582    507.41785  0.057218972  0.057190775            2 
  740000   0.97765072   -4.2698333    509.08687  0.057329603  0.057167326            2 
  741000   0.98127069   -4.2632308    509.10926  0.057254753  0.057144753            4 
  742000   0.96308658   -4.2707119    508.81581  0.057144633  0.057121642            3 
  743000   0.96342024   -4.2960211    509.04258  0.057093156  0.057097376            2 
  744000   0.94453323      -4.2825    509.08928  0.057021648  0.057072484            3 
  745000   0.94241934   -4.2645284     508.7505  0.056907215  0.057047674            3 
  746000   0.95291399   -4.2811872    510.65392  0.057043557  0.057023246            3 
  747000   0.95074791   -4.2582205    510.74255   0.05697708   0.05699822            3 
  748000   0.98296956   -4.3085107    510.21272   0.05684188  0.056973054            5 
  749000   0.93622427   -4.2731227    513.18143  0.057096287  0.056948451            4 
  750000   0.96742335   -4.2850763    512.02967  0.056892186   0.05692398            3 
  751000   0.97470634   -4.2912655    511.73187  0.056783385  0.056899463            4 
  752000    0.9633831   -4.2680804     512.9719  0.056845291  0.056874853            4 
  753000   0.95501087   -4.2534153    514.05259  0.056889396  0.056850423            5 
  754000   0.96558414   -4.3097455    512.10628  0.056598837  0.056826137            4 
  755000   0.96784354   -4.2530998     514.8174  0.056823112  0.056801426            4 
  756000   0.95346705   -4.2804202     515.8109  0.056857462  0.056776991            5 
  757000   0.94095446    -4.282869    516.51657  0.056860036  0.056753421            4 
  758000   0.94155591   -4.2627457    515.36265  0.056658163  0.056729534            3 
  759000   0.95041414   -4.2913145     518.1913  0.056894082  0.056706274            4 
  760000   0.92979359   -4.2983086     516.4023  0.056623059  0.056682586            4 
  761000   0.95046063   -4.3072415    516.97479  0.056611344  0.056658826            4 
  762000   0.94155336   -4.2937245    519.51068  0.056814378  0.056634613            4 
  763000   0.95523474   -4.2736465    516.03817  0.056360657  0.056610537            3 
  764000    0.9679966   -4.2734779    518.15055  0.056517294  0.056586304            4 
  765000   0.97447645   -4.2909147    519.96223  0.056640766  0.056561893            3 
  766000    0.9384965   -4.3197628    519.92447  0.056562714  0.056538191            5 
  767000   0.96409037     -4.31117    521.31625  0.056640184  0.056514687            3 
  768000   0.95202192   -4.2527577    523.84059  0.056840342  0.056492031            2 
  769000   0.96776382   -4.3070753    520.08148  0.056359069  0.056468462            3 
  770000   0.95540349   -4.3040948    520.06541  0.056284135  0.056444444            1 
  771000   0.95087243   -4.2973744    522.00876   0.05642118  0.056420211            2 
  772000   0.93685046   -4.2951265    523.11968  0.056468014   0.05639659            7 
  773000   0.95482289   -4.3242815    521.78834  0.056251438  0.056372695            2 
  774000   0.95785945   -4.2797303    524.63795  0.056485567  0.056349271            3 
  775000   0.95463079   -4.3117183    524.27771  0.056373948  0.056325166            3 
  776000   0.94112913   -4.3269186    523.19319  0.056184835  0.056300971            3 
  777000   0.95045332   -4.2700298    526.31129  0.056446943  0.056277699            2 
  778000   0.91890196   -4.3499111    525.96523  0.056337321  0.056254386            4 
  779000    0.9613316   -4.3206991    527.51595  0.056430889  0.056231133            2 
  780000   0.95092138   -4.2893908    528.09099  0.056419978  0.056207937            4 
  781000   0.93636912   -4.3146202     526.6163  0.056190386  0.056184159            5 
  782000   0.96260004   -4.3084826    527.99612  0.056265571  0.056159617            4 
  783000   0.94818432   -4.2728907    529.95578  0.056402275  0.056135675            9 
  784000   0.92870682   -4.3050472    527.29842  0.056047876  0.056112351            2 
  785000   0.93298306   -4.3254611    529.49113  0.056209249  0.056088175            5 
  786000   0.93211877   -4.3105341    528.19482  0.056000298  0.056065094            4 
  787000   0.92397951   -4.3245012    528.60839  0.055972934  0.056041308            3 
  788000    0.9575195   -4.2920933    529.27262  0.055972147  0.056017353            2 
  789000   0.94214199   -4.2914698    531.43832  0.056129945   0.05599337            3 
  790000   0.97382314   -4.3211293    530.72541  0.055983693  0.055969515            3 
  791000    0.9242082   -4.3372085    530.33351  0.055871629   0.05594603            4 
  792000   0.94775773   -4.2822458    532.70047  0.056050133  0.055922354            2 
  793000   0.93570651   -4.3075331    532.54779  0.055963407  0.055898903            4 
  794000   0.94109681   -4.2996194    533.81694  0.056026127   0.05587522            3 
  795000   0.94425513   -4.3128806    533.09781  0.055880273  0.055851736            3 
  796000   0.93011854   -4.3211188    532.90175  0.055789546  0.055828037            4 
  797000   0.93418392   -4.2953064    536.39989  0.056085308  0.055804866            2 
  798000   0.92222685    -4.290468    535.83064   0.05595558  0.055781486            4 
  799000   0.92772346   -4.3460163    534.77086  0.055775017  0.055758153            2 
  800000   0.93916483   -4.3223479    535.07039  0.055736499  0.055734632            6 
  801000    0.9699455   -4.3540155    534.39239  0.055596378  0.055710987            3 
  802000   0.94851254   -4.3289339    535.74755  0.055667867  0.055686755            3 
  803000   0.95143717   -4.3137904    536.96455   0.05572484    0.0556626            7 
  804000   0.92285509    -4.316769    537.11507  0.055671131  0.055638162            4 
  805000   0.93600738   -4.3227364    537.42566  0.055634126  0.055614072            5 
  806000   0.92166475   -4.3413434    538.47336  0.055673425  0.055590573            2 
  807000   0.90755104   -4.3114212    539.09387  0.055668512  0.055566816            2 
  808000   0.94215083   -4.3028343     538.3052  0.055518275  0.055542939            3 
  809000   0.93761739   -4.3255615    538.18759  0.055437535  0.055519386            3 
  810000   0.91476636   -4.3075018    538.15365  0.055365602   0.05549547            1 
  811000    0.9287526   -4.2916896    540.50835  0.055539288  0.055471546            4 
  812000   0.93113748    -4.359719    539.74734   0.05539279  0.055447783            3 
  813000   0.90216165   -4.3119762    541.63438  0.055518079  0.055423894            3 
  814000   0.92518772   -4.3155303    540.63042  0.055347095  0.055400308            3 
  815000   0.95610764   -4.3220784    543.64189  0.055587105  0.055377115            2 
  816000   0.93229491   -4.3167489    542.43727  0.055395963   0.05535376            2 
  817000    0.9254105   -4.3529061      544.428  0.055531211  0.055331046            5 
  818000   0.92718934   -4.3529405     541.9402  0.055209882  0.055307572            5 
  819000   0.93837639   -4.3133404    544.02379  0.055354476  0.055284282            3 
  820000   0.92533854   -4.3243925    547.69815  0.055660381  0.055261795            4 
  821000   0.90937038   -4.3219172     545.5869  0.055378288  0.055239388            4 
  822000   0.93486902   -4.3598616    547.05158  0.055459406  0.055216197            4 
  823000   0.92584721   -4.3167163     547.5281  0.055440269  0.055192933            4 
  824000   0.92637278   -4.3533804    546.50351  0.055269368   0.05516928            2 
  825000   0.92664912   -4.3316787    547.43977  0.055296946  0.055145607            3 
  826000   0.91256818   -4.3306482    547.65613  0.055251829   0.05512165            3 
  827000   0.91190855   -4.3315085    545.89265  0.055007321  0.055097706            4 
  828000   0.92725859   -4.3424082    547.48399  0.055101046  0.055073826            8 
  829000   0.92294848   -4.3600481    547.83551  0.055069915  0.055049768            4 
  830000    0.9519725   -4.3381799    548.64842  0.055085183  0.055025903            4 
  831000   0.92239366   -4.3328011      549.772  0.055131568  0.055002428            3 
  832000   0.92754697   -4.3449496    549.85823  0.055073941  0.054979294            4 
  833000   0.91960478   -4.3327589    550.40864  0.055062889  0.054955837            5 
  834000   0.90240172   -4.3226973    551.86964   0.05514285  0.054932521            3 
  835000   0.91784208   -4.3277534    551.36884   0.05502683  0.054908788            3 
  836000   0.93317218   -4.3600983    549.74371  0.054799014   0.05488492            3 
  837000   0.92842454   -4.3590691    550.39661  0.054798547  0.054861241            3 
  838000   0.91116546   -4.3303195    553.81784  0.055073373  0.054837394            3 
  839000   0.92614229   -4.3670653    553.20812  0.054947171  0.054813546            3 
  840000   0.90375651   -4.3427416    555.07817  0.055067279  0.054790163            3 
  841000   0.92678355    -4.371292    553.72491  0.054867708  0.054766755            5 
  842000   0.92910413    -4.363713    552.26373   0.05465793  0.054742725            5 
  843000   0.90804047   -4.3451062    552.43925  0.054610443  0.054718393            4 
  844000   0.93170677   -4.3552889    555.35808  0.054833934  0.054694982            3 
  845000   0.91755683   -4.3457959    553.69128  0.054604663  0.054671071            3 
  846000   0.90388736   -4.3616891    554.89071  0.054658265  0.054647294            8 
  847000    0.9341819   -4.3456796    555.44407  0.054648177  0.054623386            4 
  848000   0.92406297   -4.3453243    556.82967  0.054719897  0.054599546            2 
  849000   0.88892433   -4.3353341    557.39409  0.054710845  0.054575829            3 
  850000   0.90881631   -4.3531008    557.61953  0.054668582  0.054552269            2 
  851000   0.90024283   -4.3414294    558.88352  0.054728116  0.054528678            1 
  852000   0.92478913   -4.3716655    556.17234  0.054398703  0.054504996            5 
  853000   0.92737299   -4.3564418     558.3048  0.054543259  0.054481143            2 
  854000   0.91969395   -4.3603834    559.23886  0.054570537  0.054456687            2 
  855000   0.90085461   -4.3553384    557.58124   0.05434515  0.054432097            7 
  856000   0.91838501   -4.3567539    558.08388  0.054330596   0.05440797            4 
  857000   0.90211987   -4.3516378    557.41841  0.054202491  0.054383308            5 
  858000   0.92123932   -4.3670629    558.27972  0.054222972  0.054358366            6 
  859000   0.91365488   -4.3764871    560.29121  0.054354988  0.054333832            6 
  860000   0.91004588   -4.3467358    558.22571  0.054091639  0.054309639            2 
  861000   0.89522575   -4.3259764    562.65112  0.054457135  0.054285588            3 
  862000   0.93114332   -4.3511467    559.43128  0.054082684  0.054261735            2 
  863000   0.91885255   -4.3684791    560.40003   0.05411356  0.054237485            7 
  864000   0.87413461   -4.3466749    560.83492  0.054092874  0.054212997            8 
  865000   0.92592914   -4.3614062    561.96018  0.054138745  0.054188438            4 
  866000   0.89059446   -4.3219687    563.13965  0.054189727  0.054163754            3 
  867000   0.90545877    -4.346589     563.1143  0.054124789  0.054140232            3 
  868000   0.90454901   -4.3530193    562.85746  0.054037775  0.054116116            5 
  869000   0.90524211   -4.3539476    565.19899  0.054200133  0.054092197            5 
  870000   0.90100584   -4.3316282    564.70449  0.054090468  0.054068077            2 
  871000   0.92936567   -4.3768099     564.3326  0.053992786  0.054044358            3 
  872000   0.90217675   -4.3923066      563.131  0.053816036  0.054020072            6 
  873000   0.90689728   -4.3637348    565.26648  0.053958236  0.053995662            3 
  874000   0.90419611     -4.39155    564.12379  0.053787547  0.053971464            8 
  875000   0.89594067   -4.3739502    566.31008  0.053934293  0.053947143            5 
  876000   0.89855527   -4.3410821    567.07159  0.053945166  0.053922658            3 
  877000   0.90853715   -4.3961444    566.32064  0.053812299  0.053897595            6 
  878000   0.89962299   -4.3602836    565.41189  0.053664758  0.053873022            4 
  879000   0.91285503   -4.3849065    566.98598  0.053752937  0.053848259            9 
  880000   0.91168983   -4.3523033    568.93977  0.053876872  0.053823702            6 
  881000   0.89587093   -4.3577404    568.58062  0.053781746  0.053798855            8 
  882000   0.91321333   -4.3816683    565.25279  0.053406348  0.053773446           10 
  883000   0.90236982   -4.3880596     567.7021   0.05357702  0.053747291            4 
  884000   0.90855721   -4.3862846    569.01598  0.053640269   0.05372136            4 
  885000   0.91382609   -4.3652711    568.21814  0.053504533  0.053695672            2 
  886000   0.88912459   -4.3646774    570.38628   0.05364807  0.053670049            5 
  887000   0.89700148   -4.3708906    570.24492  0.053574306  0.053644756            3 
  888000   0.90039892    -4.388677    566.64617  0.053176255  0.053619132            4 
  889000   0.90283288   -4.4124238    569.36343   0.05337115  0.053593276            5 
  890000   0.89570587   -4.4212814     570.1102  0.053381105  0.053567324            4 
  891000    0.8932357   -4.4189526    567.61636  0.053087949  0.053541352            8 
  892000   0.90509056   -4.3883295    571.27675  0.053370399  0.053515013            3 
  893000   0.90051798   -4.3810646    570.99269  0.053284126  0.053489214            3 
  894000   0.90486249   -4.3782411    570.96566  0.053222004  0.053462666            3 
  895000   0.88732863   -4.3866706    570.85145  0.053151904  0.053436141            4 
  896000   0.89202394   -4.3842928     570.4683  0.053056948  0.053409578            9 
  897000   0.89296297   -4.3753906    569.93452  0.052948209  0.053382288            2 
  898000   0.89044658    -4.367698    569.71721  0.052869081  0.053355522            4 
  899000   0.89641798   -4.3827197     570.8382  0.052914183  0.053328574            3 
  900000   0.90633524   -4.3883447    572.55814  0.053014643  0.053301717            7 
  901000   0.90250045   -4.4238738    571.66778  0.052873454  0.053274341            5 
  902000   0.87509195   -4.4099243    571.20508  0.052772088  0.053246862            4 
  903000   0.91368918   -4.4139505    570.68009  0.052665198  0.053219025            4 
  904000   0.91627269   -4.3763107    571.92688  0.052721873  0.053191376            4 
  905000   0.88340431    -4.405573    571.97493  0.052668041  0.053163956            8 
  906000    0.8756101   -4.3942699    571.69152  0.052583841  0.053136371            6 
  907000   0.89858116   -4.3799485    573.14466  0.052659377   0.05310893            4 
  908000   0.88477825   -4.4129188     572.0184  0.052498018  0.053081552            4 
  909000   0.87946907   -4.4009571    573.24762  0.052552953  0.053053876            5 
  910000   0.88746568   -4.3738476    574.79158  0.052636591  0.053026354           10 
  911000   0.89208539   -4.3895982    573.07193  0.052421509  0.052998987            8 
  912000   0.89202791   -4.3997965    575.99294  0.052630933  0.052971174            4 
  913000   0.90167019   -4.3979626    575.04595  0.052486852  0.052943978            5 
  914000   0.87978753   -4.3876218    576.28405  0.052542309  0.052916523            5 
  915000   0.88259847   -4.4120035     577.3761  0.052584344  0.052889125            5 
  916000   0.87136267   -4.3741919    578.59889  0.052638182  0.052861614            3 
  917000   0.89241602   -4.4280427    576.39552  0.052380546  0.052833662            6 
  918000   0.88458198   -4.4073181    575.72201  0.052262347    0.0528058            1 
  919000   0.88304252   -4.4186494    577.39648  0.052357316  0.052777798            6 
  920000   0.88993433   -4.4150214    578.53181  0.052403244  0.052749818            5 
  921000   0.87595868    -4.364826    579.08791  0.052396662  0.052722301            4 
  922000   0.88710816   -4.3835156    578.63663  0.052299045  0.052694853            2 
  923000   0.87536016   -4.4001852    577.13238  0.052106571   0.05266747            3 
  924000   0.89301183   -4.4290965    578.22336  0.052148571  0.052640417            6 
  925000   0.86947088   -4.4004508     578.1121  0.052082171  0.052612968            6 
  926000   0.89601295   -4.4423429    579.59182  0.052159091   0.05258532            5 
  927000   0.88744479   -4.3998166    580.79967  0.052211405  0.052557767            4 
  928000    0.8936628   -4.4362827     579.5294  0.052041074   0.05253094            3 
  929000   0.89376179   -4.4188353    580.13938  0.052039773  0.052503613            4 
  930000   0.89446265   -4.4234965    579.57339  0.051933099  0.052476329            3 
  931000   0.88347933   -4.3975539    581.35267  0.052036579  0.052448714            3 
  932000   0.86993978   -4.4401553    580.90168  0.051940422  0.052421044            4 
  933000   0.90259664   -4.4287556    581.92101  0.051975796  0.052393954            6 
  934000   0.88579367   -4.3881069    582.32594  0.051956276  0.052366446            3 
  935000   0.88477444   -4.4071048    582.77654  0.051940868   0.05233861            2 
  936000   0.86512458   -4.3878542    584.06704  0.052000271  0.052311007            2 
  937000   0.88490523   -4.4068522    581.91232  0.051753142  0.052283583            2 
  938000   0.89072043   -4.4020173    583.33028  0.051823941   0.05225637            5 
  939000   0.88965812   -4.3971532    583.46189  0.051780431   0.05222895            4 
  940000     0.873107   -4.4665017    580.77655  0.051487283  0.052201111            3 
  941000   0.87589695   -4.4113839     583.2927  0.051655394  0.052173224            3 
  942000   0.87152253   -4.4353588    584.21651  0.051682281  0.052145283            4 
  943000    0.9047144   -4.4047785    585.62018  0.051751518  0.052117644            4 
  944000    0.8764086   -4.4068339    587.03399  0.051821504   0.05209016            3 
  945000   0.87721854   -4.4034312    585.44006  0.051626107  0.052062729            3 
  946000   0.86646571   -4.4064831    586.46327  0.051661669  0.052035099            5 
  947000   0.86216737    -4.422289    585.38828   0.05151252  0.052007883            5 
  948000   0.87796002   -4.4319788    585.34984  0.051454803  0.051979836            5 
  949000   0.86902323     -4.42823    589.93978  0.051803634  0.051952436            8 
  950000   0.88107267   -4.3999769    589.16123   0.05168081  0.051925205            2 
  951000    0.8935982   -4.4188107    589.52748  0.051658559  0.051898209            5 
  952000   0.87388819   -4.3968499    589.47655  0.051599838  0.051871169            5 
  953000   0.87659158   -4.4060718    588.02882    0.0514191  0.051844753            7 
  954000   0.86194385   -4.4243343     588.8869  0.051440156  0.051818041            3 
  955000   0.90819261    -4.442303    590.34436  0.051513469  0.051791318            3 
  956000   0.88226342   -4.4228409    591.67903  0.051575926  0.051764665            7 
  957000   0.89081953   -4.4333367    590.05351  0.051380487  0.051737791            3 
  958000   0.88291258    -4.431231    592.84938  0.051570058  0.051710843           10 
  959000   0.88837437   -4.4267243    590.31013  0.051295632  0.051683942            4 
  960000   0.88119188    -4.443004    589.18143  0.051144222  0.051656716            4 
  961000   0.85171948   -4.4788032    589.14029  0.051087434  0.051629802            4 
  962000   0.86450735   -4.4573643    593.22408  0.051388088  0.051602316            7 
  963000   0.86579519   -4.4332411    591.94149  0.051223736  0.051575086            2 
  964000   0.85864969   -4.4583791    590.61973  0.051056339  0.051547791            4 
  965000   0.87592407   -4.4508348     592.9648  0.051205941  0.051521119            3 
  966000    0.8704749   -4.4460836    591.68717  0.051042716  0.051493985            6 
  967000    0.8756864   -4.4229508    595.31477  0.051302548  0.051467328            5 
  968000   0.86515987   -4.4344757    595.07266  0.051228707  0.051441014            6 
  969000    0.8467735    -4.404158       595.65   0.05122549   0.05141471            3 
  970000   0.84909713   -4.4542847    596.04381  0.051206513  0.051388487            2 
  971000   0.87519656    -4.472936      594.939   0.05105896  0.051362147            4 
  972000    0.8696798   -4.4296704    596.93035  0.051177156  0.051335725            3 
  973000   0.87383759   -4.4548069    595.80621  0.051028281  0.051309205            4 
  974000   0.85525332   -4.4248787    596.72307  0.051054336  0.051282618            5 
  975000   0.86325752   -4.4217753    598.16962  0.051125609  0.051255471            1 
  976000    0.8577498   -4.4497769    596.46801  0.050927938  0.051229087            3 
  977000   0.86937184   -4.4653772    595.41782  0.050786235  0.051202192            4 
  978000   0.86536843   -4.4381423    597.80682  0.050937868  0.051175396            3 
  979000   0.87068097   -4.4438349     597.3005  0.050842739  0.051148348           10 
  980000   0.84014617   -4.4541219    598.24876  0.050871493  0.051121842            2 
  981000   0.86304109   -4.4706437    597.44164  0.050751074   0.05109503            2 
  982000   0.85216246   -4.4535799    597.30929  0.050688161  0.051067857            2 
  983000   0.84654108   -4.4595185    596.45281  0.050563989  0.051040246            5 
  984000   0.86675033   -4.4254746    600.16226   0.05082675  0.051013062            4 
  985000   0.85584192   -4.4674128    596.93467  0.050502087  0.050986034            4 
  986000   0.86096422   -4.4487104    600.52536  0.050754341  0.050959191            4 
  987000   0.84367502    -4.424346    599.15945  0.050587593  0.050932079            6 
  988000   0.87786646   -4.4696157    597.59136   0.05040413  0.050904754            4 
  989000   0.87876933   -4.4653314    600.41996  0.050591503  0.050877831            5 
  990000   0.88371972   -4.4683576    598.13229  0.050347836  0.050850493            4 
  991000   0.87977844   -4.4325803    601.18337  0.050553596  0.050823243            6 
  992000   0.85836884   -4.4627948     601.3656  0.050517943  0.050795926            8 
  993000   0.86983836   -4.4396946    599.75367  0.050331795  0.050768937            5 
  994000   0.85791625   -4.4644024    600.36892   0.05033274  0.050741897            4 
  995000   0.87567342   -4.4701302    600.98957  0.050334135  0.050714793            2 
  996000   0.86033392   -4.4461899    601.33953  0.050312879  0.050687657            4 
  997000   0.85133267   -4.4579847    601.72301  0.050294468  0.050660562            5 
  998000   0.86816209   -4.4641143    602.73732  0.050328767  0.050633502            6 
  999000    0.8652031   -4.4494982     603.0253   0.05030241  0.050606485            4 
 1000000     0.838405   -4.4726155    602.11743  0.050176452  0.050579475            5 
 1001000   0.86314667   -4.4507521     604.0174  0.050284499   0.05055237            6 
 1002000   0.84424356   -4.4679828    605.16905  0.050330094  0.050525756            3 
 1003000   0.86972853   -4.5105454    603.12167   0.05010981  0.050498612            9 
 1004000   0.85729547    -4.453773    603.68933  0.050107016  0.050471478            4 
 1005000   0.85644502   -4.4415154    605.79071  0.050231402  0.050444708            3 
 1006000   0.86652002   -4.4546407     606.3285  0.050226019  0.050417822            5 
 1007000   0.85139961   -4.4695423    604.05641  0.049988117  0.050390745            3 
 1008000   0.84515551   -4.4416161    605.06348  0.050021783  0.050363782            3 
 1009000   0.84841159   -4.4701699    603.77096  0.049865458  0.050336354            8 
 1010000   0.84409479   -4.4526837    605.09926  0.049925682  0.050308631            4 
 1011000   0.85887531    -4.448234      607.087  0.050040142  0.050281331            5 
 1012000   0.84096417   -4.4637182    607.69359  0.050040645  0.050254329            5 
 1013000   0.83386541   -4.4314706    607.36885  0.049964532   0.05022708            3 
 1014000    0.8366506   -4.4567934    607.58347  0.049932895  0.050199732            3 
 1015000   0.85971076   -4.4906837    608.94241  0.049995272  0.050172622            3 
 1016000   0.81763017   -4.4790732    607.22856  0.049805493  0.050145163            6 
 1017000   0.86269098   -4.4765565    607.38844   0.04976962  0.050117874            5 
 1018000   0.84506964   -4.4719296    606.46484  0.049645124  0.050090757            5 
 1019000   0.84404708   -4.4770977    607.92671  0.049715956  0.050063661            4 
 1020000   0.83033901    -4.457127    608.94391  0.049750319  0.050036632            3 
 1021000   0.86940799   -4.4713481    608.46172  0.049662237   0.05000946            4 
 1022000   0.83899598   -4.4989865    607.49154  0.049534535  0.049982205           13 
 1023000    0.8594103    -4.485453    608.86102  0.049597672  0.049955017            2 
 1024000   0.85109924   -4.4998663    607.86351  0.049468059  0.049927585            5 
 1025000   0.85480712   -4.4720708    610.10724  0.049602215  0.049900566            2 
 1026000   0.85292394   -4.5027163    609.91358   0.04953814  0.049873624            3 
 1027000   0.83599953   -4.4753601    610.81722  0.049563227  0.049846724            4 
 1028000   0.85253235   -4.4825458    611.16454   0.04954317  0.049819495            4 
 1029000   0.84467126   -4.4821342    611.55339  0.049526514   0.04979245            3 
 1030000   0.85624459   -4.4788194    611.53784  0.049477172  0.049765244            5 
 1031000   0.85406712   -4.5114851    608.87553  0.049213994  0.049737796            3 
 1032000   0.84483441   -4.4920921     611.4619  0.049375154   0.04971039            7 
 1033000   0.83736614   -4.5183996    611.25777  0.049310888    0.0496826            6 
 1034000   0.83081843   -4.4829479    613.39043  0.049435077  0.049654976            4 
 1035000   0.83854359   -4.4869733    613.76681  0.049417617  0.049627461            2 
 1036000   0.84433216   -4.4718619    613.34972  0.049336368  0.049600161            3 
 1037000   0.84425544    -4.469831    611.58924  0.049147319  0.049573025            4 
 1038000   0.84364736   -4.5064967    612.85618  0.049201684  0.049545421            6 
 1039000   0.83696143   -4.4829214    612.62817  0.049136042  0.049517772            6 
 1040000   0.82879952   -4.4803705    613.71927  0.049176223  0.049490517            7 
 1041000   0.83438722   -4.5144285    610.50893  0.048871992  0.049462757            6 
 1042000   0.84753459   -4.4842689    611.96427   0.04894148    0.0494354            5 
 1043000   0.85838415   -4.4960097    615.27665  0.049159208  0.049408486            7 
 1044000   0.84393504   -4.4959342     615.4615  0.049126876  0.049381109            3 
 1045000   0.83942059   -4.4736607    617.02695  0.049204701  0.049354057            4 
 1046000   0.82829476   -4.4862723    617.33624  0.049182301  0.049327289            4 
 1047000   0.83653837   -4.4813012    618.11671  0.049197446  0.049300792            5 
 1048000   0.83336349   -4.4996894    616.98695  0.049060667  0.049274054            3 
 1049000   0.83248514   -4.5180808    616.62555  0.048985188  0.049247044            6 
 1050000   0.84002257   -4.4986435    617.90567  0.049040133  0.049220313            5 
 1051000   0.85045493    -4.493202    616.97803   0.04891992  0.049193513            4 
 1052000   0.83316239   -4.5263388    617.74182  0.048933921  0.049166722            3 
 1053000   0.82021828   -4.5137356    616.90459  0.048821192  0.049139898            8 
 1054000   0.82483739   -4.4912617    617.56798  0.048827323  0.049113176            3 
 1055000   0.84574103   -4.5031192    617.81969  0.048800923  0.049086453            5 
 1056000   0.83915707   -4.4974534    618.16399   0.04878188  0.049059755            9 
 1057000   0.83172626   -4.5172714    618.85015  0.048789826  0.049033384            3 
 1058000   0.84842935   -4.5016712    622.69445  0.049046507  0.049007027            6 
 1059000   0.83106221   -4.4876282    622.70899  0.049001337  0.048981068            3 
 1060000   0.82626223   -4.5111867    622.82226  0.048964014   0.04895498            3 
 1061000   0.84367523    -4.510504     621.1785  0.048788761  0.048929016            3 
 1062000   0.82767085   -4.5088799    621.54607  0.048771663  0.048902948            3 
 1063000   0.83269168   -4.5196838    622.76158  0.048821071  0.048876546            5 
 1064000   0.83647594   -4.5021874      622.346  0.048742638  0.048850428            8 
 1065000   0.82861727   -4.5028033    623.26631  0.048768882  0.048824037            6 
 1066000   0.82171037   -4.5149819    621.30637  0.048569916  0.048797785            6 
 1067000   0.83116929   -4.5380594    623.68455  0.048710133  0.048771338            3 
 1068000   0.84004497   -4.5174113    622.17701  0.048546895  0.048744521            3 
 1069000   0.82144455   -4.5093866    624.10267  0.048651596  0.048718213            2 
 1070000   0.83853636   -4.5170787    622.20167  0.048458074   0.04869182            3 
 1071000   0.82037695   -4.4969919    624.64316  0.048602798  0.048665676            4 
 1072000   0.81803268   -4.4948758    622.95862  0.048426509  0.048639335            7 
 1073000   0.82297916   -4.5170253    622.56289  0.048350644  0.048612484            6 
 1074000   0.83498423   -4.5221773    622.74371  0.048319655  0.048585755            6 
 1075000   0.83046347   -4.5030078    623.29839  0.048317704  0.048559174            4 
 1076000   0.84664441   -4.5440039    621.65869   0.04814581    0.0485325            6 
 1077000   0.82728416   -4.5194871    622.51473  0.048167342  0.048505336            4 
 1078000   0.81792331   -4.5138882    623.22594  0.048177639  0.048478485            6 
 1079000   0.82132259   -4.5508289    623.16683  0.048128423  0.048451305            7 
 1080000   0.81113479   -4.5169794    623.85726  0.048137134  0.048424237           15 
 1081000   0.81643128   -4.5154254    622.27782  0.047970847  0.048396838           12 
 1082000   0.82371917   -4.5470723    622.87665  0.047972632  0.048369376           13 
 1083000   0.81289699    -4.520926    624.68945  0.048067825  0.048342066            5 
 1084000   0.82953736   -4.5239105    623.35289  0.047920733  0.048314386            5 
 1085000   0.84186194   -4.5067736    625.66518  0.048054161    0.0482873            5 
 1086000   0.82103075   -4.5181762    625.74768  0.048016243  0.048259942            2 
 1087000   0.83187604   -4.5549914    623.57652  0.047805621  0.048232338            9 
 1088000   0.82700854   -4.5630066     624.7045  0.047848077  0.048204638            5 
 1089000   0.82297315   -4.5341982    627.37317  0.048008354  0.048176815            6 
 1090000   0.82587843   -4.5023385    624.82592  0.047769566  0.048149247            4 
 1091000   0.81609496   -4.5281173    625.59974  0.047784887  0.048121453            7 
 1092000   0.81026284   -4.5436453    624.36624  0.047646996  0.048093697            5 
 1093000   0.81237284   -4.5069136    626.63893   0.04777668   0.04806627            3 
 1094000   0.81391814    -4.539845    627.07549  0.047766262  0.048039209            5 
 1095000   0.81733466    -4.539909    625.91355  0.047634212  0.048012101            5 
 1096000   0.82576945   -4.5082716    628.05336  0.047753449  0.047984907            3 
 1097000    0.8088865   -4.5350481    626.55447  0.047596055  0.047957925            3 
 1098000   0.81335321   -4.5299642    627.70051  0.047639686  0.047930675            7 
 1099000   0.80207784   -4.5454234    628.87782   0.04768561  0.047903581            4 
 1100000    0.8062647   -4.5253911    629.83754  0.047714965  0.047876477            5 
 1101000   0.81002686   -4.5237036    630.19591  0.047698752  0.047849801            6 
 1102000   0.81083573   -4.5289172     628.5924   0.04753421   0.04782262            5 
 1103000   0.82348331   -4.5242277     627.9982  0.047446223  0.047795111            9 
 1104000   0.81935161   -4.5057931     629.8358  0.047541953  0.047767662            4 
 1105000   0.81000878   -4.5403778    627.94555  0.047356376  0.047740223            3 
 1106000    0.8002586   -4.5533058    628.90661  0.047385972  0.047712727            4 
 1107000   0.81536814   -4.5517532    630.85015  0.047489472  0.047685446            7 
 1108000   0.82654631   -4.5339092    629.37497  0.047335663  0.047658455            3 
 1109000     0.827075   -4.5399703     633.0255  0.047567291  0.047631305            5 
 1110000   0.82342191   -4.5281558    630.10521  0.047305196  0.047604489            4 
 1111000   0.80540396   -4.5484173    630.56452  0.047297069  0.047577378            6 
 1112000   0.81403154   -4.5209448    631.31143  0.047310509  0.047550547            2 
 1113000   0.78100923   -4.5431396    631.62605  0.047291558  0.047523714            4 
 1114000   0.80839397   -4.5467718    632.29323  0.047299015  0.047496503            4 
 1115000   0.79566805   -4.5474097    631.13424  0.047169973   0.04746952            5 
 1116000   0.81183552   -4.5543981    631.28801  0.047139188  0.047442758            6 
 1117000   0.80918305   -4.5542376    630.06665  0.047005867  0.047415789            3 
 1118000    0.8343018   -4.5222963    633.89586  0.047249244  0.047388751            7 
 1119000   0.78251823   -4.5281996     631.7777  0.047049277  0.047361957            6 
 1120000   0.80527994   -4.5591959    634.00108    0.0471727  0.047334813            4 
 1121000   0.79080265   -4.5256257    633.53321  0.047095838  0.047307991            7 
 1122000   0.80921324   -4.5607185    635.31306  0.047186056  0.047281204           13 
 1123000   0.80159699   -4.5468216    634.38378   0.04707508  0.047254331            8 
 1124000    0.8228826   -4.5430977    635.85929  0.047142593  0.047227455            4 
 1125000   0.81999342    -4.518674    636.95561  0.047181897   0.04720099            4 
 1126000    0.8008174   -4.5710064     635.5517  0.047036094  0.047174251            5 
 1127000   0.79859233   -4.5661764    634.98118  0.046952172  0.047147211            7 
 1128000   0.79155113   -4.5720787    634.17538  0.046851018  0.047120777            7 
 1129000   0.80547117   -4.5658605    635.58287  0.046913409    0.0470942            7 
 1130000    0.7901129   -4.5624154    637.01718  0.046977668   0.04706738            4 
 1131000   0.80014788   -4.5774196    634.80958  0.046773473  0.047040509            9 
 1132000   0.79631278   -4.5749876    636.52664  0.046858557  0.047014042            6 
 1133000   0.80214519   -4.5393436    637.16025  0.046863802   0.04698762            9 
 1134000   0.80601069   -4.5577208     639.1056  0.046965432  0.046961349            4 
 1135000   0.80197014   -4.5382779    636.68815   0.04674656  0.046935081            4 
 1136000   0.78486252   -4.5451367    640.19295  0.046962511  0.046908628            4 
 1137000   0.79697355    -4.549347    639.59431  0.046877331  0.046882633            5 
 1138000   0.81566947   -4.5495628     638.1078  0.046727285  0.046856436            6 
 1139000   0.78437051   -4.5796866    639.12975  0.046761029  0.046830091            4 
 1140000   0.79459048   -4.5438018    641.41068  0.046886745  0.046803615           12 
 1141000    0.7924418   -4.5320412    641.55632   0.04685629  0.046777741            4 
 1142000   0.80142273   -4.5822297    639.57254    0.0466705  0.046751612            7 
 1143000   0.79021396   -4.5860506    637.85146  0.046504189  0.046725542            4 
 1144000   0.79582605   -4.5910677    637.74181  0.046455552  0.046699144           10 
 1145000   0.79122665   -4.5543866    639.56556  0.046547712   0.04667262            5 
 1146000   0.80715947   -4.5528377    639.03783  0.046468719  0.046646299            6 
 1147000   0.79093244   -4.5635325     640.8377  0.046558973  0.046619954           10 
 1148000     0.798329   -4.5832013    636.31231  0.046189918  0.046593298            8 
 1149000   0.80184089   -4.5613267     640.5619  0.046457927  0.046566645            6 
 1150000    0.8026419   -4.5941754    638.80488  0.046290209  0.046539558            7 
 1151000   0.80062284   -4.5597191    641.67203  0.046457575  0.046512913            5 
 1152000   0.80158617   -4.5894612    637.91841  0.046145718  0.046486109            9 
 1153000   0.80796809   -4.5728105     640.1669  0.046268206  0.046459379           11 
 1154000   0.78377172    -4.593365    639.58543  0.046186123  0.046432785            4 
 1155000    0.7943363   -4.5483444    641.65257  0.046295279   0.04640601            5 
 1156000   0.79837889    -4.583931    640.70659  0.046187038  0.046379461            6 
 1157000   0.79230989   -4.5676091    640.89783  0.046160892  0.046352644            9 
 1158000   0.79439057   -4.5857981    640.79947  0.046113951  0.046326288            3 
 1159000   0.78977743   -4.5805782    641.99625  0.046160213  0.046300002            3 
 1160000   0.79545698   -4.5735037    643.45874  0.046225484  0.046273491            5 
 1161000   0.79540462   -4.5751614    642.85539  0.046142362  0.046247329            3 
 1162000   0.80285604   -4.5565926    643.49551   0.04614856  0.046221013            5 
 1163000   0.80248521   -4.5948828    642.78207  0.046057758  0.046194645            4 
 1164000   0.80256704    -4.607081    642.72195  0.046013885  0.046168245            5 
 1165000   0.78985517   -4.5836141    645.53261  0.046175437  0.046141875            8 
 1166000   0.78314455   -4.5875966    645.66932  0.046145606  0.046115898            4 
 1167000   0.78559647   -4.6235124    641.82833  0.045831786  0.046089421            4 
 1168000    0.7963425   -4.6078318    643.86592  0.045937922  0.046063501            3 
 1169000   0.77824234   -4.5782905    643.92937  0.045903149  0.046037286            4 
 1170000   0.79572967   -4.5647048    645.69801  0.045989887  0.046011159            4 
 1171000   0.79998662   -4.5928553    646.07837  0.045977681   0.04598497            5 
 1172000   0.78278073   -4.5854673    645.31326  0.045884049  0.045959028            4 
 1173000    0.7877278   -4.6069745    646.28518   0.04591398  0.045932984            8 
 1174000   0.79047361    -4.568104    648.50725  0.046032598  0.045907023           10 
 1175000   0.78722339   -4.5978109    647.66409  0.045933623  0.045880787            9 
 1176000   0.77017424   -4.6016421    646.47993  0.045810653  0.045854833            6 
 1177000   0.78079412   -4.5917869    645.92983  0.045732783  0.045829024            3 
 1178000   0.78622048   -4.5858984    648.30017  0.045861642   0.04580327            6 
 1179000   0.79090211   -4.5914655    648.64239  0.045846931  0.045777344            6 
 1180000   0.78106373   -4.5891797    648.64493  0.045808258  0.045751842            3 
 1181000   0.78633015   -4.5597414    648.96822  0.045792282  0.045726072            3 
 1182000   0.78933216   -4.5871608    650.61322  0.045869516  0.045700586            4 
 1183000   0.78329797   -4.6028984    650.50333  0.045823001  0.045675064            6 
 1184000   0.77532802   -4.5997586    648.06514  0.045612693  0.045649479            7 
 1185000   0.78658659   -4.5818066    648.32901  0.045592757  0.045623711            5 
 1186000   0.79530304   -4.5852677    652.56978  0.045852289  0.045598004           11 
 1187000   0.77935236   -4.5870516    650.83373  0.045691781  0.045572525            7 
 1188000   0.79239702   -4.5905744    649.85468  0.045584643  0.045546835            4 
 1189000    0.7856985   -4.6192661    650.14109  0.045566378  0.045520762           11 
 1190000   0.77637613   -4.5903954    652.36768  0.045684011  0.045495146           13 
 1191000   0.79322203    -4.606492    650.51042  0.045515703  0.045469693            4 
 1192000   0.77427633   -4.6000141    651.29607  0.045532443  0.045443779            4 
 1193000   0.75795101   -4.6287883     650.6005   0.04544569  0.045418251           22 
 1194000   0.77691835   -4.5950635    650.87547  0.045426819  0.045392694            3 
 1195000   0.77986098   -4.6160773     651.0039  0.045397761  0.045367053            4 
 1196000   0.77381592   -4.6271519    650.82458  0.045347309  0.045341697            4 
 1197000   0.76731057   -4.5910853    654.36088  0.045555617  0.045316109            4 
 1198000   0.78836031   -4.5842741    652.95169  0.045419567   0.04529069            7 
 1199000   0.76375434   -4.6162426    651.66414  0.045292198  0.045264858            6 
 1200000   0.79231417   -4.6373317     652.2986  0.045298514  0.045239208            9 
 1201000   0.79419587   -4.6165693    651.49529  0.045205058  0.045213422            3 
 1202000   0.76560113   -4.6299174    652.60993  0.045244726  0.045187669            9 
 1203000   0.76792137   -4.6125736     653.6082  0.045276268  0.045162312            5 
 1204000   0.77470215    -4.635691    653.00874  0.045197172  0.045136443            9 
 1205000   0.76080631   -4.6307094    650.94332  0.045016827  0.045110663           11 
 1206000   0.78823014   -4.5987812    654.27292  0.045209571  0.045085017            3 
 1207000    0.7694044   -4.6161311    653.88309  0.045145201  0.045059375            5 
 1208000   0.77375391   -4.6125233    653.79541  0.045101781  0.045033776            4 
 1209000   0.75569889   -4.6171075    654.24564  0.045095509  0.045008265            6 
 1210000   0.77038447   -4.6261219    653.60281  0.045013968  0.044982717           11 
 1211000   0.77430251   -4.5863214    653.48347  0.044968584   0.04495709            3 
 1212000   0.76672966   -4.6196802    656.70958  0.045153299  0.044931422            4 
 1213000   0.75614881   -4.6112617    655.64072  0.045042644  0.044906045            3 
 1214000   0.75155841   -4.6123681    655.84298  0.045019425  0.044880622            2 
 1215000   0.77494971   -4.6554047    652.46404   0.04475062  0.044855123           13 
 1216000   0.76311171   -4.5837111    656.17261  0.044967969  0.044829428            3 
 1217000   0.78236759   -4.6035596    654.26661  0.044800508  0.044804172            8 
 1218000   0.76477404   -4.6262263    657.19778  0.044964271  0.044778698           10 
 1219000    0.7665398   -4.6240626    655.94066  0.044841445  0.044753327            6 
 1220000    0.7713066   -4.6117178    657.32368  0.044899159  0.044728202            8 
 1221000   0.74934983   -4.6292227    654.78375  0.044689036  0.044702917            7 
 1222000   0.77505653   -4.6296133     655.7749  0.044720056  0.044677665           12 
 1223000   0.76699536   -4.6095582    656.59584  0.044739428  0.044652201            4 
 1224000   0.75088052   -4.6506585    657.31356   0.04475174  0.044626763            6 
 1225000   0.77811591    -4.635514    658.98033  0.044828594  0.044601341            6 
 1226000   0.77473425   -4.6128425    657.53241  0.044693611  0.044576194            5 
 1227000   0.75831761   -4.6172396    659.27776  0.044775724  0.044551029            8 
 1228000   0.75736882   -4.6277138    657.19426  0.044597873  0.044525666            5 
 1229000   0.77911134   -4.6471354    657.44651   0.04457869  0.044500129            6 
 1230000   0.74918485   -4.6474448    657.02505  0.044513892  0.044474707            6 
 1231000   0.76335262   -4.6325794    657.77453  0.044528468   0.04444929            6 
 1232000   0.76115461   -4.6097391    657.94842  0.044504087    0.0444242            4 
 1233000   0.78047642   -4.6474892    658.47844  0.044503815   0.04439885            3 
 1234000   0.75045415   -4.6556218    657.93607  0.044431123  0.044373605            3 
 1235000   0.76158361   -4.6498238    659.14545  0.044476751  0.044348146            5 
 1236000   0.78012017   -4.6220301    659.45592  0.044461699  0.044323137            4 
 1237000   0.76504841   -4.6376703    659.71451  0.044443177  0.044297936            9 
 1238000   0.74485792   -4.6477785    658.72337  0.044340561  0.044272757            4 
 1239000   0.75374586   -4.6440672    658.36598  0.044280736  0.044247504            4 
 1240000   0.76640229   -4.6412281    660.27372  0.044373234    0.0442222            6 
 1241000   0.73750618   -4.6559786    660.95493  0.044383221  0.044197288            7 
 1242000   0.74623349   -4.6630396    660.12716  0.044291946  0.044172232            8 
 1243000   0.76845269    -4.634134    661.33036  0.044336978  0.044147204            5 
 1244000   0.76145712   -4.6432956    662.68663  0.044392191   0.04412242            7 
 1245000   0.77138439   -4.6485378    662.11894  0.044318537  0.044097553            9 
 1246000    0.7666264   -4.6317783    661.51634  0.044242666  0.044072607            5 
 1247000   0.75306799   -4.6337724     661.8742  0.044231101  0.044047825            4 
 1248000   0.73346197   -4.6436934    663.09786  0.044277368  0.044023011            2 
 1249000   0.76469674   -4.6557001    662.41443  0.044196319  0.043998321            4 
 1250000   0.75940785   -4.6587585    663.59838  0.044239892  0.043973581            4 
 1251000   0.77123565   -4.6513285     663.7532  0.044214841  0.043949052           16 
 1252000   0.74414696   -4.6717957    661.76071  0.044046905  0.043924506           12 
 1253000   0.75279015   -4.6658924     663.2556  0.044111173  0.043899805           12 
 1254000   0.75644592   -4.6485626    666.39954  0.044284925  0.043875393            6 
 1255000   0.74298339   -4.6778723    664.38976  0.044116186  0.043851023            2 
 1256000   0.73820896   -4.6491125    664.34866  0.044078334  0.043826282            4 
 1257000   0.76578229   -4.6479391    664.82221  0.044074663  0.043801874            6 
 1258000    0.7550016   -4.6419689    665.18091  0.044063388   0.04377734            8 
 1259000   0.76078542   -4.6874244    664.38591  0.043975769  0.043752627            5 
 1260000   0.75234805   -4.6660386    664.65201  0.043958466   0.04372808            6 
 1261000   0.74278808   -4.6468756    666.10795  0.044019822  0.043703661            8 
 1262000   0.75558811   -4.6634084    666.24174  0.043993776    0.0436793            7 
 1263000    0.7409807   -4.6417982    667.16958  0.044020162  0.043655078            7 
 1264000   0.72952587   -4.6620825    665.90181  0.043901754  0.043630822            6 
 1265000   0.74975348   -4.6481555      668.875  0.044062912  0.043606422           10 
 1266000   0.75096777   -4.6604211     666.9758  0.043903094  0.043582169            6 
 1267000   0.73394477   -4.6612717    668.70453  0.043982145  0.043558014            6 
 1268000   0.73750946   -4.6952633    668.00284  0.043901343  0.043533889            4 
 1269000   0.73923943   -4.6591858    668.85177  0.043922496  0.043509731            6 
 1270000   0.73411277   -4.6711991    666.95004  0.043763126  0.043485525            9 
 1271000   0.75303308     -4.67151    667.57322  0.043769553  0.043461266            5 
 1272000   0.74647269   -4.6643306    668.20329  0.043776421  0.043436999            5 
 1273000   0.74004748   -4.6884635    666.85928  0.043654051  0.043412567            5 
 1274000   0.75114043   -4.6382535    670.06484  0.043829464  0.043388304            4 
 1275000   0.74211786   -4.6573617    666.93335  0.043590415  0.043364087            7 
 1276000   0.75097555   -4.6936887    666.62553   0.04353615  0.043339447            8 
 1277000   0.74814633    -4.695589    667.65686  0.043569359  0.043314932            3 
 1278000   0.73427763   -4.6706784    667.03076  0.043494442  0.043290565            3 
 1279000   0.75145134   -4.6823402    667.09484   0.04346461  0.043266115            6 
 1280000    0.7278323   -4.6722352    669.32178  0.043575637  0.043241773            8 
 1281000   0.74591833   -4.6790207    669.15973  0.043531078   0.04321766            3 
 1282000   0.74188753   -4.6897055    669.63019  0.043527703  0.043193596            3 
 1283000   0.74892855   -4.6566897    670.93927  0.043578804  0.043169606            7 
 1284000   0.73063024   -4.6731691    672.07507  0.043618579  0.043145925            7 
 1285000   0.75554808   -4.6658355    672.95339  0.043641595  0.043121857           16 
 1286000   0.74864027   -4.6698747    670.41742  0.043443327  0.043097874            7 
 1287000    0.7202481   -4.6580941    671.58569  0.043485217  0.043073601            5 
 1288000   0.73163349   -4.6936158    671.02432  0.043415135  0.043049311           12 
 1289000   0.72964874   -4.6822779    671.04367  0.043382704   0.04302516            8 
 1290000   0.74027996   -4.6651984    673.61689  0.043515303  0.043001153            6 
 1291000   0.71705438   -4.6942698    671.63286  0.043353528  0.042977153            4 
 1292000   0.71942763   -4.6624561     671.6997  0.043324284  0.042953129            9 
 1293000   0.73932445   -4.6773929    671.94883  0.043306834    0.0429293            9 
 1294000   0.72743031    -4.677705    675.35756  0.043492888  0.042905611            9 
 1295000   0.73388628   -4.6749111    672.25151  0.043259428  0.042881773            3 
 1296000    0.7435507   -4.6934193    673.59248  0.043312274  0.042857839            7 
 1297000   0.73459382   -4.6907731     672.3282  0.043197648  0.042833807           13 
 1298000    0.7634634   -4.7092108    669.87333  0.043006762  0.042809617            5 
 1299000   0.73064163   -4.7093125     671.6801  0.043089562  0.042785402            9 
 1300000   0.74191432   -4.7134396    675.81801  0.043321667  0.042761379            9 
 1301000   0.73259857     -4.69281     672.5381  0.043078279  0.042737333            9 
 1302000   0.73398626   -4.7075748    672.04524  0.043013648  0.042713242            7 
 1303000   0.72052062   -4.6876928    672.67703  0.043021043     0.042689           10 
 1304000   0.73013506   -4.7001634    671.94318  0.042941154  0.042664623           24 
 1305000   0.72735317   -4.6799798    674.63291  0.043080007  0.042640282            7 
 1306000   0.71529515   -4.7026049    674.56583  0.043042741  0.042615943            8 
 1307000   0.72687552   -4.7069214    671.32343  0.042803075  0.042591779            8 
 1308000   0.70932168    -4.721049      673.815  0.042929091  0.042567672            7 
 1309000   0.73561177   -4.6982612    674.76049  0.042956486  0.042543579            5 
 1310000   0.74158177   -4.7133697    674.29156  0.042893865  0.042519445           10 
 1311000    0.7375286   -4.6967345    675.06817  0.042910511  0.042495292           14 
 1312000    0.7342401   -4.7047256    673.92062  0.042804918  0.042471281            8 
 1313000   0.71922866   -4.7005759    675.59798  0.042878775  0.042447211            4 
 1314000   0.72650665    -4.680599    677.05653  0.042938643  0.042423246            5 
 1315000   0.72710124   -4.6729722    675.89436  0.042832342  0.042399352            7 
 1316000   0.73208846   -4.7007931     672.7992  0.042603799  0.042375489            8 
 1317000   0.73140889   -4.7204588     675.1327  0.042719103  0.042351565           11 
 1318000   0.73665577   -4.6824441    675.81629  0.042729912  0.042327496            3 
 1319000    0.7285188   -4.7138345    675.11631  0.042653292  0.042303482            5 
 1320000   0.73221702   -4.6792368    676.78151  0.042726106   0.04227948            6 
 1321000   0.72381591   -4.6992949    675.36411  0.042604347  0.042255401            7 
 1322000   0.73165825   -4.7063373    677.30406  0.042694406  0.042231486            6 
 1323000   0.71449641   -4.7104155    674.31284  0.042473724    0.0422075            5 
 1324000   0.72706206   -4.6969309    675.80923  0.042535828  0.042183373           15 
 1325000    0.7324586   -4.6958767     675.4855  0.042483365  0.042159468            8 
 1326000   0.73331997   -4.7215448    674.56592  0.042393534  0.042135518            5 
 1327000   0.73228384   -4.7077162    675.32465  0.042409234  0.042111352           10 
 1328000   0.72188334   -4.7232561    675.50079  0.042388353  0.042087367           11 
 1329000   0.70576399   -4.7433923    676.31421  0.042407463  0.042063267            6 
 1330000   0.72908824   -4.7151239      678.918  0.042538722  0.042039226            4 
 1331000   0.70914804    -4.693283    677.36031  0.042409235  0.042015379            7 
 1332000   0.73977506   -4.7147402    676.83765  0.042344698  0.041991663            8 
 1333000   0.71532739    -4.715505    677.22215  0.042336968  0.041967725            8 
 1334000   0.74270664   -4.7011499    679.48351  0.042446496  0.041943647            4 
 1335000   0.73140261   -4.7100772     677.7894  0.042308951  0.041919676            9 
 1336000   0.70660978   -4.7343283    678.98042  0.042351573  0.041895723            5 
 1337000   0.71501091   -4.7296003    677.69193  0.042239587  0.041871875            7 
 1338000   0.71116697   -4.7230487    679.93443  0.042347685  0.041847928            4 
 1339000   0.72180134   -4.7159987    678.88409   0.04225069   0.04182426            4 
 1340000   0.71844766   -4.7357781    678.02131  0.042165504  0.041800554            6 
 1341000   0.69383216   -4.7318608    679.19394  0.042206931   0.04177679            4 
 1342000   0.71167819   -4.6968398      679.406  0.042188649  0.041752902            8 
 1343000   0.72403985   -4.7294541    678.99317  0.042131619  0.041729013            6 
 1344000   0.71383638   -4.6997023     677.9659  0.042036576  0.041705112            7 
 1345000   0.72824048   -4.7117216    680.52298  0.042163754  0.041681319            5 
 1346000   0.69371225   -4.7352841    680.95716  0.042159309  0.041657448            9 
 1347000   0.70067116   -4.7238878    680.08616  0.042074125   0.04163361            8 
 1348000    0.6975149   -4.7138788    680.73323  0.042082915  0.041610037            4 
 1349000   0.72420304   -4.7209439     681.2249  0.042082092  0.041586257            8 
 1350000   0.71968662   -4.7307724    678.96318  0.041911308  0.041562617           14 
 1351000     0.705983   -4.7320938    679.61762  0.041920653  0.041538949            7 
 1352000   0.71768048   -4.7476645    681.97273  0.042034809  0.041515018            9 
 1353000    0.7269513   -4.7153074    681.50302   0.04197481  0.041491447           11 
 1354000   0.73737418    -4.716599    683.26784  0.042052427  0.041468078            5 
 1355000   0.71453627   -4.7361047    681.55179  0.041915855  0.041444763           12 
 1356000   0.71813453   -4.7494321    682.25613  0.041928228  0.041421373            4 
 1357000   0.70552091   -4.7275022    681.40264  0.041844918  0.041397657            7 
 1358000   0.71592271   -4.7404642    681.23514  0.041803826  0.041374214            6 
 1359000   0.71968742   -4.7150299    682.81862  0.041870163   0.04135077            7 
 1360000    0.7143373   -4.7381595    683.16588  0.041860654  0.041327552            6 
 1361000   0.71805193    -4.728383    682.58638  0.041794415  0.041304175            3 
 1362000   0.70024436   -4.7299451    682.19521  0.041739795  0.041280872            4 
 1363000   0.71106254   -4.7563789    682.23653  0.041711698  0.041257406            8 
 1364000   0.71397297   -4.7571972    681.12931  0.041613472  0.041234159            8 
 1365000   0.71577167     -4.74258    684.91971   0.04181439  0.041210818            8 
 1366000   0.71706858   -4.7759883     683.0445  0.041669381  0.041187423            7 
 1367000    0.6905101   -4.7375687    683.97772  0.041695789  0.041164074            7 
 1368000   0.71416619   -4.7409454    684.01835  0.041667785  0.041140737           11 
 1369000   0.69216794   -4.7313196    685.26034   0.04171295  0.041117505            5 
 1370000   0.70931802    -4.731748    683.32119  0.041564549  0.041094206            8 
 1371000   0.69581978   -4.7327443    683.11903  0.041521944  0.041070907            9 
 1372000    0.7074188   -4.7509776    686.62187  0.041704438  0.041047806            9 
 1373000   0.70834503   -4.7440191    683.85599   0.04150619  0.041024828            8 
 1374000   0.68768369   -4.7579933    684.06559  0.041488694  0.041001664            5 
 1375000   0.70315082   -4.7681454    684.94442  0.041511783  0.040978188           10 
 1376000   0.69774709    -4.754656    685.89075  0.041538926  0.040954946            7 
 1377000    0.6936186   -4.7444516    685.69591  0.041496969  0.040931697           11 
 1378000   0.69736217   -4.7627376    686.25371  0.041500587  0.040908499           10 
 1379000   0.69121206   -4.7787413    684.54039  0.041366956  0.040885182            9 
 1380000   0.70523511   -4.7646528    685.79341  0.041412645  0.040861901            6 
 1381000   0.68968918    -4.767258    684.59599  0.041310402  0.040838616            6 
 1382000   0.72032411   -4.7501298    684.73072  0.041288635  0.040815219            5 
 1383000   0.70764426   -4.7767278    686.10475  0.041341573  0.040792007            6 
 1384000   0.70804949   -4.7469241    685.74839  0.041290245  0.040768615            6 
 1385000   0.69725836   -4.7991998     687.6002  0.041371853  0.040745449            7 
 1386000   0.69616116   -4.7682278    686.83444  0.041295962  0.040722238            6 
 1387000   0.71508376   -4.7713401    686.37597  0.041238643  0.040699171            8 
 1388000   0.70149503   -4.7547482    688.21551  0.041319375  0.040676122            4 
 1389000   0.69273908   -4.7311276    687.63681  0.041254908  0.040653223           10 
 1390000   0.69128135   -4.7703233    686.53717  0.041159302  0.040630433            7 
 1391000   0.70062848   -4.7417424    689.47333  0.041305615  0.040607692            6 
 1392000   0.70659222   -4.7561629    688.36477  0.041209577  0.040584824            6 
 1393000   0.68942525   -4.7786214    687.76668  0.041144214  0.040561729           12 
 1394000   0.69353133   -4.7777276    686.44258  0.041035544  0.040538791            5 
 1395000   0.69241056   -4.7582912     689.3089  0.041177354   0.04051582            6 
 1396000   0.67307054   -4.7740985    690.12659  0.041196668  0.040492953           10 
 1397000   0.68120032   -4.7576532     687.8133  0.041029188  0.040469924            7 
 1398000   0.69257626   -4.7515355    688.03358   0.04101297  0.040446751            6 
 1399000   0.69176678   -4.7423813    689.81324  0.041089662  0.040423558            5 
 1400000   0.68096436   -4.7823687    689.98096  0.041070295  0.040400618           10 
 1401000   0.69782099   -4.7880434    687.59103  0.040898824  0.040377187            7 
 1402000   0.69903831   -4.7888937    688.43823  0.040920009  0.040353907            6 
 1403000   0.69710873   -4.7450967    689.73943   0.04096813  0.040330842            7 
 1404000   0.69307747   -4.7686336    690.21066   0.04096692  0.040307724           19 
 1405000   0.70667181   -4.7832092    689.46406  0.040893479  0.040284858           12 
 1406000   0.69262152   -4.7852459    689.70355  0.040878589  0.040261972            5 
 1407000   0.69383526   -4.7611822    687.30507  0.040707479  0.040238998            5 
 1408000   0.67934111   -4.7896831    688.62099  0.040756451  0.040215895           11 
 1409000   0.69603616   -4.7931257    687.65338  0.040670297  0.040192637            8 
 1410000   0.68132413   -4.7880209    687.92476  0.040657492  0.040169574            4 
 1411000   0.70550329   -4.7699731    689.49142  0.040721204  0.040146484            3 
 1412000   0.68223311   -4.7482446    690.71187  0.040764393  0.040123571           18 
 1413000   0.68579147   -4.7764031    689.88595  0.040686834  0.040100757            9 
 1414000   0.69108278   -4.7814079    690.68872   0.04070537  0.040078044            9 
 1415000   0.68221181   -4.7727646    690.35159  0.040656749  0.040055248           12 
 1416000   0.70226498   -4.7952763    691.80961  0.040713842  0.040032135           13 
 1417000   0.68741526   -4.7752644    689.67907  0.040559813  0.040009121            9 
 1418000   0.67971733   -4.8069887    691.30033  0.040626488  0.039985993            7 
 1419000   0.68241777   -4.7895372    689.91311  0.040516391  0.039962743            6 
 1420000   0.67480914   -4.7995796     688.7407  0.040419055  0.039939512            6 
 1421000   0.68889183   -4.7803852    692.08022  0.040586454  0.039916276            6 
 1422000   0.67878595   -4.7969762     688.2107  0.040331147  0.039893226            4 
 1423000    0.6950537   -4.8025822     688.9468  0.040345912   0.03986992            8 
 1424000   0.69039435   -4.8126298    686.35105  0.040165675    0.0398467            5 
 1425000   0.71008247   -4.7956971    688.57233  0.040267388  0.039823628            9 
 1426000   0.69741938   -4.8183736    689.20155   0.04027592  0.039800401            5 
 1427000   0.68853722   -4.7923243    690.72037  0.040336392  0.039777237            9 
 1428000   0.68118713   -4.7742009    688.52038  0.040179761  0.039754213           13 
 1429000   0.68086948   -4.8099659     689.5016  0.040208864  0.039731165           12 
 1430000   0.68762569   -4.8016248    689.14728  0.040160098  0.039707781           19 
 1431000   0.68206957   -4.7882214    691.26765  0.040255512  0.039684606            9 
 1432000    0.6812008   -4.7845123    691.58864   0.04024608  0.039661589           12 
 1433000   0.67527587   -4.8016137     689.9674  0.040123715  0.039638585           14 
 1434000   0.68606177   -4.7837663    691.11029  0.040162151  0.039615569            9 
 1435000     0.692021   -4.7916651    689.02159  0.040012868  0.039592236            8 
 1436000   0.68656415   -4.7941968    691.67651  0.040139073  0.039569042            5 
 1437000   0.68644533    -4.775058    693.75448  0.040231645  0.039545898            9 
 1438000   0.68914905   -4.8104995    692.24237  0.040116039  0.039522731           12 
 1439000   0.69224485   -4.8075234    690.64011  0.039995373  0.039499477           13 
 1440000   0.66499859   -4.7984972    691.82355  0.040036085  0.039476149           13 
 1441000   0.68627194   -4.7959853    691.34038   0.03998036  0.039452925           10 
 1442000    0.6862736   -4.8289218    690.41395  0.039899096   0.03942957            6 
 1443000   0.66438188   -4.8119694    690.31193  0.039865554  0.039406184            7 
 1444000   0.67003636   -4.8368777    690.13146  0.039827531  0.039382773            8 
 1445000   0.67492309   -4.8041847    693.42961  0.039990174  0.039359431            8 
 1446000   0.67833133   -4.8248621    691.19612  0.039833801  0.039336144            4 
 1447000   0.67507887   -4.7861073    693.33058  0.039929197   0.03931304            8 
 1448000    0.6766625   -4.8153796    694.89718  0.039991781  0.039289994            7 
 1449000   0.67993486   -4.7965456    693.11131  0.039861474  0.039266934           11 
 1450000   0.68084324   -4.7955349    692.21874  0.039782686  0.039243915            7 
 1451000    0.6640729   -4.8009067    694.07718  0.039862002  0.039220853            7 
 1452000   0.67652438   -4.8088814    693.81645  0.039819585  0.039197999            5 
 1453000    0.6861919   -4.8110294    694.16345  0.039812081  0.039175124            7 
 1454000   0.67442758   -4.8169522    693.54925  0.039749499  0.039152151           12 
 1455000    0.6766425   -4.8332363    693.15227  0.039699443   0.03912922            7 
 1456000   0.66324316    -4.807793    692.85536  0.039655183  0.039106296           10 
 1457000   0.66421599   -4.8104331    694.31089  0.039711216  0.039083494            7 
 1458000   0.65546853   -4.7990046    694.58344  0.039699557  0.039060587            8 
 1459000   0.67064815   -4.8136763    692.57519  0.039557642  0.039037652            9 
 1460000   0.69802966   -4.8373632    691.80162  0.039486394  0.039014419           19 
 1461000   0.68244437   -4.8097959    693.11203  0.039534111  0.038991301            8 
 1462000   0.65383432    -4.823708    695.02446  0.039616078  0.038968326            7 
 1463000    0.6732459   -4.8168925    693.76255  0.039517119  0.038945275            8 
 1464000   0.67251045   -4.8352868    693.69696  0.039486393  0.038922097            5 
 1465000   0.66957116   -4.7951185    693.99868  0.039476603  0.038899083           10 
 1466000   0.66972931   -4.8267573    693.73062  0.039434438  0.038876075           14 
 1467000   0.66660349   -4.8353036    692.99476  0.039365756  0.038853081            7 
 1468000   0.66551627   -4.8368231    694.70197  0.039435852  0.038830101           17 
 1469000   0.66570004   -4.8246875    693.63059   0.03934823  0.038807155            8 
 1470000   0.65437178   -4.8333825    695.17828  0.039409199    0.0387841            9 
 1471000   0.65880937   -4.8232183     694.7359  0.039357348  0.038760961            9 
 1472000    0.6710066   -4.8152013    693.07306  0.039236473  0.038737788            5 
 1473000   0.65770215   -4.8455038    695.52802  0.039348723  0.038714753           21 
 1474000   0.66782753   -4.8237025    693.17117  0.039188782  0.038691752            6 
 1475000   0.67105328   -4.8376394    693.63737  0.039188552  0.038668668            7 
 1476000   0.67797471   -4.8536021    693.99598  0.039182248  0.038645577            9 
 1477000   0.66410357   -4.8403301    694.03166  0.039157733  0.038622366           11 
 1478000   0.67182303   -4.8191834    694.31287  0.039147094   0.03859933           10 
 1479000   0.66664085   -4.8420394    692.55575  0.039021622  0.038576137            5 
 1480000   0.66451513   -4.8283405    694.08833   0.03908155  0.038553069            6 
 1481000   0.64852093   -4.8476855    694.84472  0.039097722  0.038529824            8 
 1482000   0.67171441   -4.8520245    696.44395  0.039161266  0.038506663            7 
 1483000   0.64852917   -4.8439527    694.67777  0.039035613  0.038483684            7 
 1484000   0.66092393   -4.8547935    694.92606  0.039023251  0.038460657           10 
 1485000   0.65028912   -4.8300545    695.21854  0.039013386   0.03843769            6 
 1486000   0.65556215   -4.8442919    697.04755  0.039089701  0.038414809           12 
 1487000   0.64676237   -4.8380502    696.01297  0.039005434  0.038391943           12 
 1488000   0.66508585   -4.8602829    694.70469  0.038905953  0.038369151           12 
 1489000   0.66428465    -4.843415    695.38332  0.038917804  0.038346228            4 
 1490000   0.64779321   -4.8519821    696.99035  0.038981563  0.038323214           11 
 1491000   0.65818399   -4.8658917    696.41729   0.03892339   0.03830023            8 
 1492000   0.66945777   -4.8753874    696.13196  0.038881365  0.038277182           10 
 1493000   0.65726786   -4.8635962    695.12099  0.038798894  0.038254295            7 
 1494000   0.65360849   -4.8535773    694.24255  0.038723926  0.038231423            4 
 1495000   0.65255136   -4.8294033    698.78899  0.038951449   0.03820842            6 
 1496000   0.65233098   -4.8460661    695.57844  0.038746571  0.038185498            8 
 1497000   0.64035716   -4.8452085    696.66239  0.038781028  0.038162572            8 
 1498000   0.66576318    -4.844887    696.25089  0.038732248  0.038139548            6 
 1499000   0.64690316    -4.854004    695.11655  0.038643348  0.038116578           17 
 1500000   0.64603053   -4.8528494    695.94631  0.038663684  0.038093489           16 
 1501000   0.64750251   -4.8449699    697.26712  0.038711255  0.038070648            7 
 1502000   0.65153586   -4.8197417    696.22676  0.038627761   0.03804797            6 
 1503000   0.65387695   -4.8419722    696.65514  0.038625811  0.038025154            5 
 1504000    0.6516469   -4.8658863    696.83892  0.038610313  0.038002331           18 
 1505000   0.65140401   -4.8714696    696.38807  0.038559694    0.0379794           15 
 1506000   0.64023375   -4.8502258    697.62102  0.038602314  0.037956569           26 
 1507000    0.6488041   -4.8653916    698.46744  0.038623504  0.037933899           15 
 1508000   0.65221361   -4.8611564    696.48798  0.038488505  0.037911281           11 
 1509000   0.66604157   -4.8767628    699.07185  0.038605691  0.037888594            8 
 1510000   0.66427008   -4.8593807    696.50766  0.038438613  0.037865908           10 
 1511000   0.64255313   -4.8726083    698.95251   0.03854801  0.037843256            7 
 1512000    0.6466235   -4.8528578    698.70441  0.038508841  0.037820569           11 
 1513000   0.64247416   -4.8544633    698.49912  0.038472082  0.037797981            7 
 1514000   0.64771115   -4.8890106    697.72494  0.038404059  0.037775158            9 
 1515000   0.64511812   -4.8501577    697.03009  0.038340489  0.037752283            5 
 1516000   0.64694061   -4.8582126    698.17567   0.03837817  0.037729369            7 
 1517000   0.66113904   -4.8587184    697.11923  0.038294838  0.037706445            8 
 1518000   0.65474688   -4.8741183    697.90057  0.038312504  0.037683635           13 
 1519000   0.63921784   -4.8744823    698.40223  0.038314803  0.037660842           10 
 1520000   0.65223333   -4.8690377    699.65032  0.038358022  0.037638049           11 
 1521000   0.64333802   -4.8605407    698.47206  0.038268248  0.037615259            9 
 1522000   0.63234739   -4.8792028    698.28923  0.038233094  0.037592445            8 
 1523000   0.64046451    -4.888109    699.57668  0.038278435  0.037569634            8 
 1524000   0.65342519   -4.8707523     697.7264  0.038152144  0.037546853           16 
 1525000   0.63701358   -4.8810252    698.10907  0.038148036  0.037524035           10 
 1526000   0.64806132   -4.8652653    699.31548  0.038188919  0.037501349           11 
 1527000    0.6377012   -4.8771369    698.86751  0.038139462  0.037478795            6 
 1528000   0.63747293   -4.8664494    700.09995  0.038181716  0.037456075           25 
 1529000   0.64726574   -4.8948723    698.68844  0.038079815  0.037433299            9 
 1530000     0.641287   -4.9008005    698.07123  0.038021309  0.037410417            8 
 1531000   0.64933386   -4.8606033     698.4618  0.038017734  0.037387634           10 
 1532000   0.63752697   -4.8626677     700.4709  0.038102203  0.037365051            9 
 1533000    0.6552248   -4.8810077    699.07204  0.038001307  0.037342352           14 
 1534000   0.65903878   -4.8883032    697.25634  0.037877898  0.037319513            7 
 1535000   0.63208938   -4.9024687    697.33951  0.037857737  0.037296724           12 
 1536000   0.64002685   -4.9132916    698.19829  0.037879682  0.037273842            8 
 1537000   0.63931173   -4.8894147    697.61887  0.037823621  0.037251078            8 
 1538000   0.63945355   -4.8831038    699.61467  0.037907167    0.0372283            4 
 1539000   0.65284377    -4.891537    699.60445  0.037881982    0.0372056            9 
 1540000   0.64373736   -4.8944043     697.4119  0.037738739  0.037182997            9 
 1541000     0.624937   -4.8713576    699.73154   0.03783969  0.037160465            5 
 1542000   0.63103077   -4.8518822    699.80673  0.037819214  0.037137924            6 
 1543000   0.64156237   -4.8974878     698.5388  0.037726226  0.037115182            8 
 1544000   0.62862366   -4.8686372    699.60433  0.037759301  0.037092543            6 
 1545000   0.64433693   -4.9018927    700.00818  0.037756644  0.037069938           11 
 1546000   0.63366075   -4.8831177    699.78065  0.037719957  0.037047273            9 
 1547000   0.61759414   -4.8885908     699.1453   0.03766135  0.037024593           15 
 1548000   0.62541358   -4.8792045    698.84151  0.037620667  0.037001934            8 
 1549000   0.63055926   -4.9157242    701.19961  0.037723241  0.036979378            7 
 1550000   0.63503871   -4.8682068    699.76945  0.037622013  0.036956869            7 
 1551000   0.63572323   -4.8853957    699.50202  0.037583388  0.036934474           10 
 1552000   0.63218079   -4.9086318    699.47472  0.037557706  0.036911979           10 
 1553000   0.63706198   -4.9036337    701.75708  0.037655993  0.036889576           11 
 1554000   0.63496944     -4.87454    701.70116  0.037628763  0.036867345           15 
 1555000   0.63437476   -4.8873764    699.74156  0.037499548  0.036844961           16 
 1556000   0.63199035   -4.8952918    700.61658  0.037522311  0.036822477           12 
 1557000   0.62646465   -4.8611275    701.82543  0.037562911  0.036800096            7 
 1558000   0.62576988   -4.9016446    701.00885  0.037495124  0.036777853           13 
 1559000   0.63097614   -4.8894877    701.29245  0.037486233  0.036755621            8 
 1560000   0.63162874   -4.8910494    701.93295  0.037496418  0.036733469            4 
 1561000   0.63752009   -4.9108759     699.4689  0.037340855  0.036711134            9 
 1562000   0.62596656   -4.9206119    702.07948  0.037456225  0.036688729           11 
 1563000   0.62239987   -4.9014453    702.46911  0.037453034  0.036666509           12 
 1564000   0.62700614   -4.9022312    702.20424  0.037414975  0.036644244           10 
 1565000   0.63257435   -4.8970331    703.04871  0.037436033   0.03662205            2 
 1566000   0.62726263   -4.8983674    701.92302  0.037352225  0.036599921           13 
 1567000   0.63606131   -4.8897766    702.64906     0.037367  0.036577795            5 
 1568000   0.63439379    -4.888437    701.34145  0.037273674  0.036555635            7 
 1569000     0.624776   -4.9117311    701.48332  0.037257453  0.036533348            8 
 1570000   0.63467248   -4.9162043    702.39479  0.037282101  0.036511038           15 
 1571000   0.61593249   -4.8816334     702.4594  0.037261797  0.036488752            7 
 1572000   0.63786919   -4.9097301    701.15891  0.037169154  0.036466382            6 
 1573000   0.63739017   -4.9342199    700.23871  0.037096774  0.036443925           14 
 1574000     0.629046   -4.9015814    701.80097  0.037155917   0.03642142            6 
 1575000   0.61770462   -4.8989916    703.54598  0.037224655  0.036399038            6 
 1576000   0.62279955   -4.9203903    701.55871  0.037095955  0.036376688            7 
 1577000   0.62949226   -4.9303576     703.0188  0.037149588  0.036354429            8 
 1578000   0.62985989   -4.9129929    701.08614  0.037023983  0.036332167           24 
 1579000   0.62428072   -4.9066918    702.33235  0.037066305  0.036309913            3 
 1580000   0.62499481   -4.9376866    702.44855  0.037048974   0.03628779           27 
 1581000   0.62342076   -4.9166415    703.37149  0.037074188  0.036265471            6 
 1582000   0.63836825   -4.9125058    701.72463  0.036964003  0.036243053           11 
 1583000     0.615285   -4.9166412    701.58894  0.036933509  0.036220795            9 
 1584000   0.62279435   -4.9111628    703.34704  0.037002685  0.036198488           11 
 1585000   0.62409027     -4.91973    701.70241  0.036892871  0.036176156            7 
 1586000   0.62931225   -4.9001549     702.2627  0.036899049  0.036153779           12 
 1587000   0.61840034   -4.9385929    701.47118  0.036834236    0.0361314            7 
 1588000   0.61129244   -4.9184693    701.65767  0.036820827  0.036109052           12 
 1589000   0.60119248   -4.9180301    701.60899  0.036795101  0.036086726           12 
 1590000   0.62110447   -4.9325086    702.50701  0.036819026  0.036064419           14 
 1591000   0.62800825   -4.9028487    702.79387  0.036810909  0.036042168           11 
 1592000   0.61654319   -4.9384811    701.35912  0.036712684  0.036019978           15 
 1593000   0.61520452   -4.9316117    702.36958  0.036742497  0.035997745           24 
 1594000    0.6151109   -4.9429637    703.11047   0.03675818  0.035975459           26 
 1595000   0.61445971   -4.9248596    703.88522  0.036775612  0.035953185            9 
 1596000   0.61704137   -4.9303826    702.16543  0.036662773  0.035931046            8 
 1597000   0.61781906   -4.9018799    702.46718  0.036655562  0.035908836            8 
 1598000   0.62134247   -4.9190321    701.45227  0.036579697  0.035886742            5 
 1599000   0.60893465   -4.9474982    702.08108  0.036589591  0.035864546           11 
 1600000   0.61888037   -4.9342475     702.9389  0.036611401  0.035842335            6 
 1601000   0.60395318   -4.9639224    702.64719   0.03657335  0.035820057           12 
 1602000   0.61676456   -4.9450406    701.16007  0.036473162   0.03579768           17 
 1603000   0.59861052   -4.9508619    701.83599  0.036485547  0.035775319           26 
 1604000   0.60646856   -4.9421645    703.17916  0.036532583  0.035753054           20 
 1605000   0.60665445   -4.9405654    702.36531  0.036467565  0.035730757           12 
 1606000   0.61590173   -4.9205742    703.48676  0.036503049  0.035708586           22 
 1607000   0.60784542   -4.9352182    702.56193  0.036432376  0.035686511            9 
 1608000   0.60572107   -4.9390039    704.60541   0.03651562  0.035664458            7 
 1609000   0.62314621   -4.9543808    703.01165  0.036410382  0.035642365            5 
 1610000    0.6111551   -4.9612074    703.32231  0.036403846  0.035620304            9 
 1611000   0.60111118    -4.948831    704.20497  0.036426907  0.035598213           11 
 1612000   0.61306306   -4.9349229    703.04622  0.036344408  0.035576118           25 
 1613000   0.60698671    -4.946734    703.83519  0.036362636  0.035553944           31 
 1614000   0.61218684   -4.9403438    702.57419     0.036275   0.03553183            9 
 1615000   0.61233016    -4.946792    702.53905  0.036250725  0.035509704            6 
 1616000   0.61340636   -4.9586078    701.84505  0.036192504  0.035487558           11 
 1617000   0.60318052   -4.9489025    703.62586  0.036261897  0.035465469            5 
 1618000   0.60978555   -4.9672721    702.93615  0.036203963  0.035443348            5 
 1619000   0.61253101   -4.9834254    701.21913  0.036093223  0.035421127            9 
 1620000   0.60184267   -4.9740431    700.66819  0.036042603  0.035398955           19 
 1621000   0.61094257     -4.97631    704.79496  0.036232519  0.035376851           11 
 1622000   0.60431196   -4.9382293    704.48792  0.036194406  0.035354753           13 
 1623000    0.6233327   -4.9307151    703.71155  0.036132242   0.03533269            9 
 1624000   0.60768697   -4.9648902    704.18392  0.036134232  0.035310761            8 
 1625000   0.61453777   -4.9611392     703.1074  0.036056789  0.035288853            8 
 1626000   0.60352523   -4.9730672    703.38155  0.036048665  0.035266904           26 
 1627000   0.60567086   -4.9382776    704.51926  0.036084781  0.035244964            6 
 1628000   0.61365953   -4.9349277    704.72408    0.0360731  0.035223187           11 
 1629000   0.60328011   -4.9576245    704.08669  0.036018349  0.035201237           10 
 1630000   0.61718942   -4.9598726    703.64943  0.035973897   0.03517932           13 
 1631000   0.61593357   -4.9734342    702.78251  0.035907547  0.035157377           11 
 1632000    0.5845778   -4.9594802    703.79149  0.035937065  0.035135413           11 
 1633000   0.58971927   -4.9615365    702.91264   0.03587021  0.035113442           11 
 1634000   0.60822329   -4.9908275    702.63215  0.035833953  0.035091413           14 
 1635000   0.60364646   -4.9844919    702.81318  0.035821263  0.035069322           11 
 1636000   0.60676006   -4.9718202    706.38564  0.035981339  0.035047291            7 
 1637000   0.59296413    -4.951598    704.08453  0.035842218  0.035025421           13 
 1638000    0.5949123   -4.9527467    704.10321  0.035821287  0.035003633           16 
 1639000   0.60042178   -4.9458127    705.14031  0.035852162  0.034981895           20 
 1640000   0.60617161   -4.9861148    704.56284  0.035800957   0.03496008           20 
 1641000   0.60030371    -4.968717    702.17125  0.035657691  0.034938224           16 
 1642000   0.60272191   -4.9831748    704.24729  0.035741336  0.034916319           10 
 1643000    0.6220947   -4.9553806    704.65437   0.03574023  0.034894499            5 
 1644000   0.59667863   -4.9826645    704.94603  0.035733274  0.034872802           13 
 1645000   0.59172417   -4.9781369    705.90484  0.035760124  0.034851072            6 
 1646000   0.59708257   -4.9571521    704.84436  0.035684708  0.034829193           13 
 1647000   0.60287912   -4.9732477    703.45942  0.035592968  0.034807414           12 
 1648000   0.59122856   -4.9842185     703.5707  0.035576997  0.034785519            9 
 1649000   0.60734947   -4.9780164    703.25933  0.035539687  0.034763709           28 
 1650000   0.60193323   -4.9666693    705.12056   0.03561215  0.034741956           16 
 1651000     0.589973    -4.978289    704.62888  0.035565762  0.034720239           11 
 1652000   0.59367663   -4.9860499    702.50675  0.035437185  0.034698371           11 
 1653000   0.59801264   -4.9890579    703.98892  0.035490468  0.034676473           21 
 1654000   0.58274209   -5.0064241    703.35081   0.03543686  0.034654549           16 
 1655000   0.58758667   -4.9819551    703.23024  0.035409378  0.034632705           10 
 1656000   0.59045868   -5.0024123    703.05765   0.03537931  0.034610745           14 
 1657000   0.57968311   -4.9543801    705.41519  0.035476523  0.034588858           11 
 1658000   0.58545279   -4.9835144    705.82519  0.035475733  0.034566992           16 
 1659000   0.60879219   -4.9798707    705.06647  0.035416238  0.034545221            9 
 1660000   0.59172373   -4.9935952    705.04605  0.035393878  0.034523537           18 
 1661000   0.58592934   -4.9807135    705.20435  0.035380511  0.034501873           12 
 1662000    0.5905736   -4.9836773    707.45114  0.035471878  0.034480247           10 
 1663000   0.58949724   -4.9718922    704.16774  0.035286016  0.034458724            7 
 1664000   0.60597512   -4.9859869    705.71875  0.035342486   0.03443704           24 
 1665000   0.58792665   -4.9756514    705.65637  0.035318137  0.034415474           21 
 1666000   0.57575352    -4.983545    705.42433  0.035285331  0.034393913           10 
 1667000   0.60114125    -4.975169    705.29353  0.035257625  0.034372325            9 
 1668000   0.59027833   -5.0016144    703.77558  0.035160651  0.034350697           10 
 1669000   0.59045009   -5.0212613    704.89892  0.035195672  0.034329023           13 
 1670000   0.57152902   -5.0137878    706.83237  0.035271076  0.034307286           12 
 1671000   0.58742985   -4.9867458    704.70068   0.03514366  0.034285527           21 
 1672000   0.57688431   -4.9953786    704.52646  0.035113958  0.034263832           28 
 1673000   0.58271715   -4.9839993    705.50457   0.03514169  0.034242115           12 
 1674000   0.59054684   -5.0081143    705.96095  0.035143416  0.034220462           12 
 1675000    0.5977705   -5.0018352    705.55105  0.035102042  0.034198905           10 
 1676000   0.59319481   -4.9814785    705.48209   0.03507767  0.034177392           16 
 1677000   0.58248981   -5.0146074    705.73913  0.035069526  0.034155787           13 
 1678000   0.58468897   -4.9823488    704.55912  0.034990024  0.034134168           19 
 1679000   0.56444039   -4.9948403    705.94184  0.035037812  0.034112574           10 
 1680000   0.59306828   -5.0199582    704.13904  0.034927532  0.034090843           11 
 1681000   0.59708327   -5.0324384    703.79185  0.034889543   0.03406905           15 
 1682000   0.59429532   -5.0083107    706.44496  0.035000245  0.034047253           11 
 1683000   0.58252312   -5.0130969    704.20244  0.034868412  0.034025616            7 
 1684000   0.56752057   -5.0006873    704.78055  0.034876314  0.034003995           18 
 1685000   0.58222361   -5.0123575    705.22382  0.034877538  0.033982448           29 
 1686000   0.57672921   -5.0165711    705.50146  0.034870574  0.033960862           45 
 1687000   0.58284025   -5.0026957    705.82026  0.034865652  0.033939302           22 
 1688000   0.58297686   -4.9877246    705.92819  0.034850326  0.033917794           19 
 1689000   0.56363577   -5.0120041    704.54619  0.034761505  0.033896278           20 
 1690000   0.58614149   -4.9957172    704.63426  0.034745279   0.03387472           14 
 1691000    0.5676757   -5.0320543    704.36386  0.034711406  0.033853181           18 
 1692000     0.563681   -5.0162002    705.16477  0.034730337  0.033831678           13 
 1693000   0.57583658   -5.0170203    705.74533    0.0347384  0.033810182            9 
 1694000   0.58256681   -4.9959397      703.923  0.034628247  0.033788694           17 
 1695000   0.56692679   -5.0237898    706.29134  0.034724255  0.033767124            9 
 1696000   0.58482024   -5.0129157    707.51625  0.034763967  0.033745673           11 
 1697000   0.58203796   -5.0279667    705.78518  0.034658475  0.033724286            7 
 1698000   0.56560488   -5.0245999     705.4712  0.034622654  0.033702872           23 
 1699000   0.57144243   -5.0088286    707.06823  0.034680608  0.033681574           13 
 1700000   0.57409191   -5.0048673    706.10843  0.034613158  0.033660267           11 
 1701000   0.56276423   -5.0194903    704.66073  0.034521886  0.033639076           12 
 1702000   0.58186355   -5.0134626    705.92977  0.034563737  0.033617873            9 
 1703000   0.56674824   -5.0248926    706.37551  0.034565253  0.033596592           11 
 1704000   0.57119881   -5.0222851    705.91507  0.034522451  0.033575178           13 
 1705000   0.57879079   -5.0311793    707.05203  0.034557773  0.033553812           18 
 1706000   0.56828143   -5.0107696    706.94903  0.034532485  0.033532537           18 
 1707000    0.5799007   -5.0167977    705.51964  0.034442474  0.033511345           17 
 1708000   0.57655886   -5.0228906    706.46281  0.034468326  0.033490186            7 
 1709000   0.57709321   -5.0165976    706.31605  0.034441001  0.033468989           10 
 1710000    0.5768453   -5.0373283     703.5784  0.034287447  0.033447731           22 
 1711000   0.55894686   -5.0327667    705.08071  0.034340576  0.033426377           16 
 1712000   0.56335767   -5.0558207    705.57527   0.03434459  0.033404943           12 
 1713000   0.56729477   -5.0458686    703.86683   0.03424143  0.033383638           10 
 1714000   0.56834248   -5.0181115    705.89793  0.034320203  0.033362319            8 
 1715000   0.56888818   -5.0270257    704.63354  0.034238753  0.033341066           10 
 1716000   0.57256639   -5.0263353    705.42135  0.034257058  0.033319903           10 
 1717000   0.55415577   -5.0364726    706.89158  0.034308464  0.033298698           14 
 1718000   0.57473219   -5.0346397    706.52721  0.034270819  0.033277639           10 
 1719000   0.56706934   -5.0319057    705.70074  0.034210817  0.033256442           17 
 1720000    0.5829904   -5.0636461    706.17883   0.03421409  0.033235208           21 
 1721000   0.57618084   -5.0281397    706.58987  0.034214113  0.033214054           17 
 1722000   0.56473539   -5.0254838    706.82721   0.03420573  0.033192882            7 
 1723000   0.55996423   -5.0246571    706.54126  0.034172048  0.033171796           18 
 1724000    0.5685099   -5.0553045    706.90716  0.034169913  0.033150623            9 
 1725000   0.55600587   -5.0514098    705.81592  0.034097387  0.033129377           10 
 1726000   0.57788805   -5.0460732    706.62523  0.034116707  0.033108155           38 
 1727000   0.55806262   -5.0589901    706.18253   0.03407559  0.033086927           18 
 1728000   0.57305692   -5.0437777    706.50014  0.034071187  0.033065744           12 
 1729000   0.55824253   -5.0500554     706.9309  0.034072243  0.033044664           16 
 1730000   0.55759571   -5.0722503    706.18716  0.034016722  0.033023607           12 
 1731000   0.56352073   -5.0487095    707.30461  0.034050867  0.033002519           16 
 1732000   0.57010425    -5.044643    704.52056  0.033897256  0.032981489           16 
 1733000   0.56342134   -5.0374667    707.12426  0.034002898  0.032960481           13 
 1734000    0.5644867   -5.0439095    707.50756  0.034001709  0.032939526           13 
 1735000   0.56622995     -5.04672    708.45654  0.034027692  0.032918556            6 
 1736000   0.56504059   -5.0490382    708.02148  0.033987206  0.032897635           22 
 1737000   0.56072725   -5.0442363    705.06101   0.03382561  0.032876735           12 
 1738000   0.56296006   -5.0566446    707.14716  0.033906174  0.032855801            7 
 1739000   0.56625888   -5.0697983    706.20557  0.033841555    0.0328349           11 
 1740000   0.54248222   -5.0562683    707.48322  0.033883296  0.032814034           10 
 1741000   0.56365941   -5.0594297    707.61001  0.033869903  0.032793099           28 
 1742000   0.56014642   -5.0654203    706.08989  0.033777741  0.032772201           11 
 1743000   0.56336902   -5.0523885    706.84283   0.03379436  0.032751237            7 
 1744000   0.57799287   -5.0395893    705.89359  0.033729625  0.032730289           20 
 1745000   0.55083816   -5.0686286    706.72689   0.03375009  0.032709461           19 
 1746000      0.55328   -5.0651776    705.84934  0.033688876  0.032688592           32 
 1747000    0.5631406   -5.0630583    707.24148  0.033735999  0.032667677           12 
 1748000   0.55700538   -5.0591381    706.78901  0.033695128  0.032646844            8 
 1749000   0.54763513   -5.0603308    708.12552  0.033739542  0.032625896            9 
 1750000   0.55658681   -5.0363732    707.45484  0.033688326  0.032605048           18 
 1751000   0.56093558    -5.060927    707.32288  0.033662806  0.032584157           14 
 1752000   0.55380827    -5.039054    706.12931   0.03358682  0.032563332           20 
 1753000   0.55175378    -5.056507    708.18186  0.033665234  0.032542519           27 
 1754000   0.55164133   -5.0709864    707.95734  0.033635373  0.032521738           21 
 1755000   0.55452108   -5.0648751    707.41076  0.033590254  0.032500973           16 
 1756000   0.55741688   -5.0708995    708.67914  0.033631318  0.032480138           16 
 1757000   0.54544388   -5.0512179    707.01955  0.033533464  0.032459337           18 
 1758000   0.55281204    -5.072369    706.16337  0.033473804  0.032438539            8 
 1759000   0.55728557   -5.0690654    707.03848  0.033496233  0.032417781           18 
 1760000   0.54877373    -5.076859    706.73553  0.033462856  0.032396952           12 
 1761000   0.55615566   -5.0621098    707.79907  0.033494183  0.032376186           18 
 1762000   0.53324069   -5.0517465    707.38027  0.033455366  0.032355429           10 
 1763000   0.55640482   -5.0704052    706.85756  0.033411683  0.032334654           14 
 1764000   0.54830035   -5.0665294    706.37259  0.033369831  0.032313946           14 
 1765000   0.55326549   -5.0764012    707.26705  0.033393156   0.03229325           15 
 1766000   0.55484641   -5.0862369    707.35343  0.033378323  0.032272507           11 
 1767000   0.54916553   -5.0823111    705.20025  0.033257888  0.032251708           11 
 1768000   0.55027228   -5.0776266    708.40036  0.033389911  0.032230972           26 
 1769000   0.54624392   -5.0963257      705.757  0.033246514  0.032210347            8 
 1770000   0.55153544   -5.0848954    707.59312  0.033314177  0.032189647           18 
 1771000   0.55059558   -5.0770568    708.95863  0.033359619  0.032169014           21 
 1772000   0.54585942   -5.0705209    707.62272  0.033277968  0.032148441           30 
 1773000   0.54061066   -5.0973363    707.68045  0.033261913  0.032127759           16 
 1774000   0.53681908   -5.0885534    707.80974  0.033249236   0.03210707           51 
 1775000   0.54856838   -5.1001241    704.98194  0.033097743  0.032086374           78 
 1776000   0.54179321   -5.0939914    707.41843  0.033193432  0.032065633           68 
 1777000   0.54601257   -5.0929736     706.2241  0.033118744  0.032044992           10 
 1778000   0.53262372   -5.0566447    708.50417  0.033206982  0.032024463           10 
 1779000   0.54688377   -5.0555275    707.11885  0.033123424  0.032003915           15 
 1780000   0.53464683   -5.0714141    708.25416  0.033157966  0.031983455            9 
 1781000   0.53696117    -5.088113    707.72997  0.033114822  0.031962924           11 
 1782000   0.54612583   -5.0702359    707.81375  0.033100157  0.031942488           11 
 1783000   0.54489393   -5.0926185    709.32426   0.03315219   0.03192205           17 
 1784000   0.53501672   -5.0982575    707.29425  0.033038782  0.031901523           10 
 1785000   0.55659237    -5.090585    707.34991  0.033022871  0.031881027           20 
 1786000    0.5512573   -5.0743156    709.09046  0.033085594  0.031860593           23 
 1787000    0.5406154   -5.0989059    707.69244  0.033001886  0.031840202           21 
 1788000   0.53220357   -5.0986908    707.16746  0.032958961  0.031819793           12 
 1789000   0.52948101   -5.0987952     708.2299  0.032990027  0.031799395           20 
 1790000   0.53867708   -5.0968184    707.46692  0.032936077  0.031778967           10 
 1791000   0.54933027   -5.1240944    706.04521  0.032851536  0.031758412           12 
 1792000   0.53424801   -5.1177523    707.53238  0.032902362  0.031737916           22 
 1793000   0.55154741   -5.1359164    705.22268  0.032776663  0.031717344           11 
 1794000   0.52843651   -5.0888169    707.30265   0.03285501  0.031696774           25 
 1795000   0.53532497   -5.0972034    705.98007  0.032775305  0.031676238           38 
 1796000   0.54727014   -5.1082472    708.65453  0.032881149  0.031655804           36 
 1797000   0.52453873   -5.1108946    708.33905  0.032848221  0.031635342           30 
 1798000   0.52564216   -5.0946894    707.58612  0.032795056  0.031614875           30 
 1799000   0.54425707   -5.1081688    707.42136  0.032769194  0.031594495           38 
 1800000   0.54018573   -5.1245717    706.12371  0.032690912  0.031574121           36 
 1801000   0.53645069   -5.1183833    707.68706  0.032745098  0.031553672           20 
 1802000   0.54639776   -5.1000105     707.6018  0.032722984  0.031533346           11 
 1803000   0.54316504   -5.1054481    708.03605  0.032724905  0.031513035           19 
 1804000   0.52703123   -5.1094898    706.03342  0.032614256  0.031492771           15 
 1805000   0.53039555   -5.0889377    707.41662  0.032660047  0.031472537           46 
 1806000   0.53011457   -5.1391148    708.68265  0.032700381  0.031452265           43 
 1807000   0.54852255   -5.1282297     706.6645  0.032589213   0.03143193           46 
 1808000   0.53651615   -5.1275683    709.14416  0.032685479  0.031411632           36 
 1809000   0.53517813   -5.1361429    706.88363  0.032563278  0.031391302           18 
 1810000   0.54377641    -5.109117    706.99094  0.032550228  0.031371049           17 
 1811000   0.53613917   -5.1058656    707.95863  0.032576782  0.031350797           18 
 1812000    0.5277418   -5.1367596     705.5542  0.032448225  0.031330525           37 
 1813000   0.54311375   -5.1132279     706.9237  0.032493275  0.031310276           62 
 1814000   0.52602154   -5.1252502    707.36787  0.032495767   0.03129008           31 
 1815000   0.53741154   -5.1401321    705.82657  0.032407097  0.031269812           21 
 1816000   0.52893303    -5.118469     708.9804  0.032533976  0.031249621           43 
 1817000   0.53726295   -5.1341631    706.70321  0.032411631  0.031229372           14 
 1818000   0.52272308   -5.1290383    707.02064  0.032408353  0.031209133            9 
 1819000   0.52284961    -5.119512    707.45259  0.032410326   0.03118887           19 
 1820000    0.5323001   -5.1224207    707.23765  0.032382676  0.031168717           20 
 1821000   0.52460568    -5.119801    708.43545  0.032419708  0.031148642           16 
 1822000   0.51369597   -5.1266678    708.08228  0.032385761  0.031128498           10 
 1823000   0.52593045   -5.1161791    706.68638  0.032304186  0.031108327           29 
 1824000   0.51861905   -5.1226341     706.7246  0.032288222  0.031088204            7 
 1825000   0.53271991   -5.1369515    706.63306   0.03226635  0.031068046           16 
 1826000   0.52329621   -5.1363228    706.36355   0.03223638  0.031047868           19 
 1827000   0.52842316   -5.1433866    707.60637  0.032275423  0.031027657           33 
 1828000    0.5268097   -5.1408302     706.2742  0.032197037  0.031007496           28 
 1829000     0.515674   -5.1523794    708.27625  0.032270651  0.030987366           15 
 1830000   0.52064116   -5.1418813    706.89218   0.03218999  0.030967218           22 
 1831000   0.51743715     -5.14194    706.34026   0.03214729  0.030947146           16 
 1832000   0.51339731   -5.1339525     708.4275  0.032224686  0.030927047           17 
 1833000   0.51951624   -5.1259144    707.43383  0.032161931  0.030906955           20 
 1834000    0.5242673   -5.1267063    708.29211  0.032183393  0.030886859           32 
 1835000   0.51877812   -5.1449551    705.74037  0.032049971  0.030866758           24 
 1836000   0.50964647   -5.1379651    707.93973  0.032132341  0.030846631           42 
 1837000   0.51307762    -5.122732    707.33354   0.03208735  0.030826543           14 
 1838000   0.51344801   -5.1212924    706.87486  0.032049096  0.030806534           34 
 1839000   0.52766724   -5.1368036    706.36707  0.032008658  0.030786483           16 
 1840000   0.52251446   -5.1411474    708.23489  0.032075856  0.030766485           26 
 1841000   0.51875926   -5.1446683    707.47735  0.032024142  0.030746578           49 
 1842000   0.51012591   -5.1362241     706.5421  0.031964446  0.030726607           20 
 1843000   0.51270223   -5.1386065    707.62726  0.031996169  0.030706623           15 
 1844000   0.51949476   -5.1429533    707.44626  0.031970637  0.030686673           13 
 1845000   0.51796428   -5.1330762    708.15915  0.031985508  0.030666711           18 
 1846000   0.52759029   -5.1222426     706.7788  0.031905868  0.030646684           21 
 1847000   0.51966848   -5.1302382    705.10934  0.031813271  0.030626691           13 
 1848000   0.51057688   -5.1405507    706.85041  0.031874568  0.030606727           14 
 1849000   0.50299707   -5.1492749    706.08529  0.031822845  0.030586761           32 
 1850000   0.51817607   -5.1608026    706.67414  0.031832169  0.030566742           37 
 1851000   0.50820457   -5.1234728    707.68155  0.031860326  0.030546772           25 
 1852000   0.51577521   -5.1912698    706.06853  0.031770542  0.030526741           26 
 1853000   0.50385179   -5.1502836    707.48596  0.031817142  0.030506718          118 
 1854000   0.51702201   -5.1515709    706.29525   0.03174646   0.03048677           84 
 1855000   0.51337775   -5.1473228    705.74233  0.031704507  0.030466781           27 
 1856000   0.50440971   -5.1376438     707.0367  0.031745541  0.030446791           82 
 1857000   0.50877028   -5.1721357    706.97187  0.031725537  0.030426854           89 
 1858000   0.50156279   -5.1633584    705.84775  0.031658044  0.030406967           71 
 1859000   0.51560871   -5.1871866    705.00413  0.031603197  0.030387017           61 
 1860000   0.50692833   -5.1625467    707.73841   0.03170871  0.030367042           30 
 1861000   0.52120891   -5.1736821    704.96699  0.031567571  0.030347097           28 
 1862000   0.52607352   -5.1452271    706.07785  0.031600333  0.030327202           24 
 1863000   0.49067867   -5.1651487    705.22809  0.031545361  0.030307283           39 
 1864000   0.50003839   -5.1699649    708.35681  0.031668312  0.030287345           29 
 1865000   0.50415059   -5.1620992    706.00585  0.031546284  0.030267378           41 
 1866000   0.50911314   -5.1642509    704.82504  0.031476645   0.03024738           62 
 1867000   0.51045565   -5.1822148    707.61959   0.03158452  0.030227384           45 
 1868000    0.5051564    -5.168732    707.46743  0.031560824  0.030207436           53 
 1869000   0.49885843   -5.1565718    703.75209  0.031378281  0.030187427           17 
 1870000   0.50048595   -5.1944638    706.48639  0.031483351  0.030167474           32 
 1871000   0.50940832   -5.1907465    705.41264    0.0314187   0.03014756          109 
 1872000    0.4995814   -5.1830597    705.82173  0.031420127  0.030127568           17 
 1873000   0.50439543   -5.1660873    705.14369  0.031373184  0.030107658           42 
 1874000   0.49496242   -5.1568159     706.0384  0.031396229   0.03008775           37 
 1875000   0.49948027   -5.1598482    705.50246  0.031355665  0.030067915           40 
 1876000   0.51339721   -5.1706631    706.14412  0.031367454   0.03004817           27 
 1877000   0.50405632   -5.1887907    705.64843  0.031328735  0.030028405           59 
 1878000   0.49562891    -5.165651    706.40041  0.031345421  0.030008658           30 
 1879000   0.50326295   -5.1795934     705.4244  0.031285453  0.029988905           45 
 1880000   0.50549159   -5.1878654     706.0296  0.031295638  0.029969084           31 
 1881000   0.49876745   -5.1919722    705.34072  0.031248481  0.029949254           14 
 1882000   0.50143417   -5.1624487    704.97591  0.031215724  0.029929437           29 
 1883000   0.50328241    -5.170465    707.49111  0.031310458  0.029909716           18 
 1884000   0.49365261   -5.1783755    704.52635  0.031162701  0.029889953           25 
 1885000   0.50745885   -5.1924078     707.0419  0.031257378   0.02987021           41 
 1886000   0.51175964   -5.1916028    705.75787   0.03118407  0.029850466           24 
 1887000   0.50291926   -5.2025431     703.9281  0.031086738  0.029830636           42 
 1888000   0.49855742   -5.1917592    704.13277  0.031079307  0.029810804           85 
 1889000   0.51058663   -5.1864046    705.83554  0.031137972  0.029791046           12 
 1890000   0.49711996   -5.1953765    704.70273  0.031071549  0.029771305           68 
 1891000   0.49585825   -5.1927021    704.42342  0.031042809  0.029751554           44 
 1892000   0.50471992   -5.1781159    704.52428  0.031030844  0.029731865           66 
 1893000    0.5056127   -5.1786104    706.26349  0.031091015  0.029712127           46 
 1894000   0.51349887   -5.1954955    705.42015  0.031037493  0.029692437           86 
 1895000    0.5045355   -5.1913001    704.19683  0.030967319  0.029672685           52 
 1896000   0.49446295   -5.1929405    705.66507  0.031015518  0.029652893          120 
 1897000      0.48956   -5.1917228    704.46397  0.030946405  0.029633156           36 
 1898000   0.49189547   -5.2065701    704.15761  0.030916649  0.029613452           96 
 1899000   0.49278177   -5.1906822    705.69264   0.03096773  0.029593706           33 
 1900000   0.48301544   -5.1989272    703.92713  0.030873997   0.02957402          107 
 1901000   0.50522594   -5.2008162    704.91523  0.030901071  0.029554309           52 
 1902000   0.48309126   -5.2020512    703.20516    0.0308099  0.029534558           61 
 1903000   0.49396921   -5.2117517    704.78277  0.030862794  0.029514845           49 
 1904000    0.4972876   -5.2141041    704.79765  0.030847236  0.029495192           29 
 1905000    0.4994666   -5.1970963      704.546  0.030820035  0.029475585           69 
 1906000   0.50092722   -5.1955625    704.22462  0.030789814  0.029455991           32 
 1907000   0.48126704   -5.1888555    705.66753  0.030836721  0.029436399           41 
 1908000   0.49636429    -5.188836    704.92687  0.030788211   0.02941683           46 
 1909000   0.49851029    -5.210817    706.54403  0.030842677  0.029397251           20 
 1910000   0.49491511   -5.1972861    705.84841  0.030796178   0.02937769           59 
 1911000    0.4865393   -5.1972678    703.27268  0.030667743  0.029358116           40 
 1912000   0.49291586     -5.20767    705.08559  0.030730718  0.029338579           87 
 1913000   0.48716164   -5.2174295    704.16234  0.030674435  0.029319067           71 
 1914000   0.48871855   -5.1778255    704.44218  0.030670593  0.029299517           11 
 1915000   0.48979489   -5.2105133    704.47779  0.030656127   0.02927999            9 
 1916000   0.47869097   -5.1938017    704.48502  0.030640441  0.029260394           21 
 1917000   0.49275497   -5.2161983    703.82393   0.03059572  0.029240786           23 
 1918000   0.48471175   -5.2168615    702.63452   0.03052809  0.029221184           34 
 1919000   0.49236552   -5.1997316    703.53725  0.030551383  0.029201639           21 
 1920000   0.48065199   -5.2037184    704.36083  0.030571216  0.029182113           31 
 1921000   0.48283506   -5.2196223    704.48773  0.030560807  0.029162549           25 
 1922000   0.47722188   -5.2230082    702.79666  0.030471586  0.029142957           32 
 1923000   0.49206523   -5.2240592    704.57444   0.03053278  0.029123399           25 
 1924000   0.48402622   -5.2146156    703.44956   0.03046819  0.029103895           26 
 1925000    0.4925573   -5.2187616    702.89897  0.030428527  0.029084395           11 
 1926000   0.48554439   -5.2267121    703.00966  0.030417517  0.029064896           12 
 1927000   0.47863042   -5.2330854    703.15279  0.030407922  0.029045425           53 
 1928000   0.48266321   -5.2206419    704.29483  0.030441512  0.029025976           85 
 1929000     0.483099   -5.2403476    705.48112  0.030476979   0.02900653           49 
 1930000   0.48870728   -5.2339376    703.34268  0.030368855  0.028987068           25 
 1931000   0.48983709   -5.2204803    702.98765  0.030337806  0.028967591           21 
 1932000   0.48089835   -5.2244548    703.20769  0.030331595  0.028948193           26 
 1933000    0.4828585   -5.2124661    703.56924   0.03033149  0.028928826           27 
 1934000   0.49044911   -5.2241326    702.51501  0.030270381  0.028909443           33 
 1935000   0.47912111   -5.2385341    704.14317  0.030324857  0.028890103           36 
 1936000   0.47620445   -5.2349703     702.7499  0.030249221  0.028870706           82 
 1937000   0.48177709   -5.2251949    703.92004  0.030283946  0.028851354           81 
 1938000   0.47668983   -5.2211243    702.92794   0.03022566  0.028832026           42 
 1939000   0.48228658   -5.2200198    704.60943  0.030282337  0.028812682          109 
 1940000   0.48166509   -5.2257751    702.51613   0.03017681  0.028793343           54 
 1941000    0.4799428   -5.2340471    702.98034  0.030181193   0.02877405           35 
 1942000   0.47885241   -5.2276409    703.59207  0.030191901  0.028754776           87 
 1943000   0.47579244   -5.2169902    704.24372  0.030204311  0.028735497           44 
 1944000   0.48067512   -5.2274254    702.54664  0.030116025   0.02871621           41 
 1945000   0.48876217   -5.2529371    702.53847  0.030100191  0.028696942           46 
 1946000   0.47209904   -5.2449577    702.98727  0.030103943  0.028677684           68 
 1947000    0.4886835   -5.2242928    703.56046  0.030113014  0.028658452           59 
 1948000   0.47412629   -5.2357184    704.28082  0.030128372  0.028639198          137 
 1949000   0.47447565   -5.2458191    702.54573  0.030038726  0.028619941          139 
 1950000   0.47243059   -5.2324658     704.1554  0.030092111  0.028600698           70 
 1951000   0.48053255   -5.2548184    703.20824  0.030036231  0.028581494          102 
 1952000   0.47011209   -5.2338592    703.34708  0.030026771  0.028562271           67 
 1953000    0.4675933   -5.2286736    700.99195  0.029910904  0.028543057           72 
 1954000   0.47517928   -5.2471275    702.58214  0.029963414   0.02852383           88 
 1955000   0.46657222   -5.2525858    703.22712   0.02997558  0.028504641          124 
 1956000   0.47103963   -5.2567203     701.6888  0.029894717  0.028485391           81 
 1957000   0.47047879   -5.2623897    703.95506  0.029975944  0.028466133          135 
 1958000   0.47039079   -5.2376821    702.28106  0.029889388  0.028446945          125 
 1959000   0.48509302   -5.2432596    703.55845  0.029928469  0.028427788           93 
 1960000   0.46500693   -5.2385859    701.64649  0.029831909   0.02840864          109 
 1961000   0.46839815   -5.2605086    702.24189  0.029841998  0.028389458           64 
 1962000   0.45758164    -5.249231    701.24254  0.029784342  0.028370268           58 
 1963000   0.46566118   -5.2423312    702.18157  0.029809033  0.028351168           59 
 1964000   0.46266271    -5.268887    701.84623  0.029779626   0.02833198           51 
 1965000   0.46427146   -5.2596165    702.07048  0.029773981  0.028312852          101 
 1966000   0.46100828   -5.2543958    701.42544  0.029731495  0.028293723          162 
 1967000   0.45850508    -5.244903    702.60218  0.029766234  0.028274603           53 
 1968000   0.46613034   -5.2586592    702.68005  0.029754406  0.028255538           22 
 1969000   0.47120784   -5.2493348    703.21921  0.029762113  0.028236444           61 
 1970000   0.46256446   -5.2681896    702.12499  0.029700719  0.028217382           94 
 1971000   0.46973677   -5.2687903    702.77113  0.029712969  0.028198335          103 
 1972000   0.46562528   -5.2660853    701.89111  0.029660713  0.028179239          114 
 1973000   0.45525095   -5.2647961    702.14597  0.029656444  0.028160154          135 
 1974000   0.45197049   -5.2745797    702.64135  0.029662333  0.028141139          106 
 1975000    0.4562321   -5.2769262    702.43268   0.02963851  0.028122125          177 
 1976000   0.46313558   -5.2663827    702.63201  0.029631917  0.028103154          129 
 1977000   0.46344545   -5.2540599    702.57153  0.029614379  0.028084176          103 
 1978000   0.46974641   -5.2436885    703.65577  0.029645086  0.028065225          127 
 1979000   0.46313792   -5.2639356    702.25022   0.02957092  0.028046308          145 
 1980000   0.45389659   -5.2727113    701.92115  0.029542136  0.028027396          134 
 1981000   0.46344851   -5.2658983    703.02574  0.029573689  0.028008553          194 
 1982000   0.46735876   -5.2726719    702.93331  0.029554882  0.027989683          119 
 1983000   0.46660882   -5.2694538    702.94409  0.029540431  0.027970853           95 
 1984000    0.4513618   -5.2510967    700.98162  0.029443112  0.027952015          196 
 1985000   0.46260262   -5.2756615    702.98772  0.029512499  0.027933212          189 
 1986000   0.45104119   -5.2679465    702.24108  0.029466309  0.027914427          142 
 1987000   0.45892564   -5.2717208    703.17868  0.029490802  0.027895677          227 
 1988000   0.46430304   -5.2598922    702.48771  0.029447003   0.02787695          165 
 1989000    0.4539417    -5.271582     702.8444  0.029447143  0.027858262          161 
 1990000    0.4579097   -5.2555685    703.87577  0.029475535  0.027839556          187 
 1991000   0.45348548   -5.2642703    701.74958  0.029371739  0.027820863          117 
 1992000   0.45528823   -5.2649951    701.50914  0.029346935  0.027802158          216 
 1993000   0.45467689   -5.2612309    702.47463   0.02937258  0.027783427          166 
 1994000   0.45737456   -5.2884904    703.07804  0.029383068  0.027764685          152 
 1995000   0.46289378   -5.3003457    700.44904  0.029258523  0.027745925          199 
 1996000   0.45625526   -5.2719991    702.12762  0.029313945  0.027727222          226 
 1997000   0.46369702   -5.2878295    701.83326  0.029286983  0.027708525          160 
 1998000    0.4520922   -5.2850168    700.52953  0.029217949  0.027689843          169 
 1999000   0.45598938   -5.2884062    703.50461  0.029327356  0.027671151          239 
 2000000   0.44977271   -5.2857987    702.32315  0.029263465   0.02765249          292 
 2001000   0.46497775   -5.2898282     700.7756  0.029184391  0.027633842          238 
 2002000   0.46243972   -5.2880971     702.5055  0.029241821  0.027615238          298 
 2003000   0.45295235   -5.2741502    701.87543  0.029201008  0.027596632          220 
 2004000   0.45085272   -5.2859693    701.11285  0.029154726  0.027578054          306 
 2005000   0.45100094   -5.2742976    702.44553  0.029195575  0.027559447          306 
 2006000   0.44361572   -5.2903517    701.75587  0.029152371  0.027540844          375 
 2007000   0.45221889   -5.3042401     702.5043  0.029168921  0.027522232          382 
 2008000   0.44973682   -5.2807327    701.60403  0.029117033  0.027503609          372 
 2009000   0.44696152   -5.3068808    700.77618    0.0290682  0.027485005          308 
 2010000   0.45706848   -5.2748677     702.7786  0.029136758   0.02746642          312 
 2011000   0.44398078   -5.3061834    701.03254  0.029049915  0.027447838          334 
 2012000   0.45003759   -5.2997444    700.98122  0.029033351  0.027429242          280 
Loop time of 5012.38 on 48 procs for 2000000 steps with 4000 atoms

Performance: 68949.264 tau/day, 399.012 timesteps/s
99.4% CPU use with 48 MPI tasks x no OpenMP threads

MPI task timing breakdown:
Section |  min time  |  avg time  |  max time  |%varavg| %total
---------------------------------------------------------------
Pair    | 342.4      | 360.99     | 383.05     |  54.9 |  7.20
Neigh   | 33.757     | 35.182     | 36.639     |  11.9 |  0.70
Comm    | 318.92     | 342.25     | 366.14     |  66.8 |  6.83
Output  | 4.2327     | 4.2346     | 4.2688     |   0.2 |  0.08
Modify  | 4213.5     | 4223.5     | 4233.8     |   7.6 | 84.26
Other   |            | 46.19      |            |       |  0.92

Nlocal:        83.3333 ave          91 max          76 min
Histogram: 4 1 4 3 13 8 6 3 3 3
Nghost:        2304.31 ave        2332 max        2279 min
Histogram: 2 3 4 9 6 8 12 2 1 1
Neighs:        15595.2 ave       17423 max       13871 min
Histogram: 2 5 3 9 6 9 7 3 0 4
FullNghs:      31192.8 ave       34460 max       28164 min
Histogram: 4 1 4 7 8 12 4 4 3 1

Total # of neighbors = 1497255
Ave neighs/atom = 374.31375
Neighbor list builds = 107878
Dangerous builds = 0

#clear
#
#next RN
#
#jump SELF
Total wall time: 1:23:35
