
units lj                  # Use reduced LJ style units
atom_style atomic         # Uncharged point particles
atom_modify map hash      # Needed for indexing of clusters etc
                          # Used to be able to find where atoms are in relation to each other.

lattice fcc 1.0 spacing 1 1 1
Lattice spacing in x,y,z = 1.5874011 1.5874011 1.5874011
region box block 0 10 0 10 0 10 units lattice
create_box 2 box
Created orthogonal box = (0.0000000 0.0000000 0.0000000) to (15.874011 15.874011 15.874011)
  3 by 4 by 4 MPI processor grid
create_atoms 1 box
Created 4000 atoms
  using lattice units in orthogonal box = (0.0000000 0.0000000 0.0000000) to (15.874011 15.874011 15.874011)
  create_atoms CPU = 0.002 seconds
set type 1 type/fraction 2 0.44 78393
Setting atom values ...
  1760 settings made for type/fraction
mass 1 1.0
mass 2 1.0
pair_style lj/cut  3.5
pair_modify tail  yes
pair_coeff 1  1  1.0  1.0   # Intearaction between 1 and 1 set with epsilon = 1 and sigma = 1
pair_coeff 1  2  1.5  0.8
pair_coeff 2  2  0.5  0.88

write_data data.0
System init for write_data ...
Neighbor list info ...
  update every 1 steps, delay 10 steps, check yes
  max neighbors/atom: 2000, page size: 100000
  master list distance cutoff = 3.8
  ghost atom cutoff = 3.8
  binsize = 1.9, bins = 9 9 9
  1 neighbor lists, perpetual/occasional/extra = 1 0 0
  (1) pair lj/cut, perpetual
      attributes: half, newton on
      pair build: half/bin/atomonly/newton
      stencil: half/bin/3d
      bin: standard
WARNING: Not all mixed pair coeffs generated from mixing. Use write_data with 'pair ij' option to store all pair coeffs. (../write_data.cpp:312)


#############################
#   M E L T   S Y S T E M   #
#############################

velocity all create 2.4 6229865 mom yes dist gaussian # Assign velocities
                                                    # Temperature 2.4, random number seed, zero linear momentum
                                                                                # Gaussian distribution

timestep 0.002   # simulation timestep
thermo 1000       # output thermodynamic data every 1000 steps bf 100

# Define a fix  in this case with index 1 applied to all
# particles in the simulation. This fix is for simulations
# in the anisotropic NPT ensemble. Note that we use the MTK
# correction.
fix 1 all npt temp 2.4 2.4 0.1 iso 5.68 5.68 0.5 mtk yes tchain 5 pchain 5 # Use NPT ensemble
                                                                         # Set temperature and pressure and damping
                                                                         # Numbers of thermostats in chain and in barostat
run 10000          # run for 10000 steps
Per MPI rank memory allocation (min/avg/max) = 3.642 | 3.644 | 3.648 Mbytes
Step Temp E_pair E_mol TotEng Press Volume 
       0          2.4   -5.6445478            0   -2.0454478   -4.2010474         4000 
    1000    2.3465613   -5.0242118            0   -1.5052498     5.342141    3815.8115 
    2000    2.3817948    -4.993416            0   -1.4216169    5.6115837     3815.751 
    3000    2.3893785   -5.0492935            0   -1.4661218    5.6843688    3794.1898 
    4000    2.3434938   -5.0841522            0   -1.5697903    5.5155509     3778.507 
    5000     2.412937   -4.9709883            0   -1.3524875    5.5332055    3833.7399 
    6000    2.3618122   -5.0168846            0   -1.4750521     5.758388    3784.1849 
    7000    2.3272333   -4.9758599            0   -1.4858826    5.3579288    3831.5328 
    8000    2.4083977   -5.0292323            0   -1.4175389    5.7827662    3786.8167 
    9000    2.3962095   -4.9760172            0   -1.3826015    5.2703838     3843.201 
   10000    2.3693528   -5.1045408            0      -1.5514    5.3553548    3787.9145 
Loop time of 2.56319 on 48 procs for 10000 steps with 4000 atoms

Performance: 674160.358 tau/day, 3901.391 timesteps/s
99.6% CPU use with 48 MPI tasks x no OpenMP threads

MPI task timing breakdown:
Section |  min time  |  avg time  |  max time  |%varavg| %total
---------------------------------------------------------------
Pair    | 1.1308     | 1.2166     | 1.2943     |   3.0 | 47.46
Neigh   | 0.21571    | 0.22201    | 0.23274    |   0.8 |  8.66
Comm    | 0.7892     | 0.86586    | 0.96429    |   4.1 | 33.78
Output  | 0.00025429 | 0.00025956 | 0.00032795 |   0.0 |  0.01
Modify  | 0.21416    | 0.24302    | 0.26445    |   2.7 |  9.48
Other   |            | 0.01544    |            |       |  0.60

Nlocal:        83.3333 ave          92 max          72 min
Histogram: 1 0 1 3 8 15 7 6 5 2
Nghost:        1700.33 ave        1722 max        1668 min
Histogram: 2 2 3 4 4 6 8 8 5 6
Neighs:        10078.6 ave       11343 max        8492 min
Histogram: 1 0 4 5 8 12 7 6 2 3

Total # of neighbors = 483772
Ave neighs/atom = 120.94300
Neighbor list builds = 911
Dangerous builds = 244

# Equilibrate just above the melting temperature to avoid step fn in T

fix 1 all npt temp 1.25 1.25 0.1 iso 5.68 5.68 0.5 mtk yes tchain 5 pchain 5
run 2000
Per MPI rank memory allocation (min/avg/max) = 3.644 | 3.645 | 3.649 Mbytes
Step Temp E_pair E_mol TotEng Press Volume 
   10000    2.3693528   -5.1045408            0      -1.5514    5.3553548    3787.9145 
   11000    1.2269547   -7.0197135            0   -5.1797415    5.9474573    2996.9522 
   12000    1.2720429   -7.0915813            0    -5.183994     6.316296    2967.9484 
Loop time of 0.628874 on 48 procs for 2000 steps with 4000 atoms

Performance: 549553.690 tau/day, 3180.288 timesteps/s
99.6% CPU use with 48 MPI tasks x no OpenMP threads

MPI task timing breakdown:
Section |  min time  |  avg time  |  max time  |%varavg| %total
---------------------------------------------------------------
Pair    | 0.28333    | 0.30487    | 0.34823    |   2.4 | 48.48
Neigh   | 0.040098   | 0.042444   | 0.049204   |   0.7 |  6.75
Comm    | 0.18376    | 0.23239    | 0.25708    |   3.2 | 36.95
Output  | 5.3307e-05 | 5.4656e-05 | 7.5103e-05 |   0.0 |  0.01
Modify  | 0.03974    | 0.044207   | 0.047954   |   1.1 |  7.03
Other   |            | 0.004906   |            |       |  0.78

Nlocal:        83.3333 ave          94 max          76 min
Histogram: 4 8 6 4 7 8 5 5 0 1
Nghost:        2006.62 ave        2020 max        1991 min
Histogram: 2 2 3 5 9 5 9 10 2 1
Neighs:        12876.0 ave       14619 max       11420 min
Histogram: 3 5 9 5 6 4 5 6 4 1

Total # of neighbors = 618049
Ave neighs/atom = 154.51225
Neighbor list builds = 142
Dangerous builds = 5

#############################
# L I N E A R  Q U E N C H  #
#############################

# Define solid atoms. This closely follows ten Wolde  Ruiz-Montero and Frenkel  Faraday Discuss  1996  104  93-110
# Compute components of the per-atom q6 vector
compute q6 all orientorder/atom degrees 1 6 components 6 nnn NULL cutoff 1.3 # compute the Q6 parameter.
                                                                             # Use all neighbours within 1.3 unit cell.

# get number of connections
compute coord_number all coord/atom orientorder q6 0.5

# An atom is solid if it has 8 or more connections (of a possible 14)
variable is_solid atom c_coord_number>=8
group solid dynamic all var is_solid    # Must be dynamic to update
dynamic group solid defined

# do clustering
compute cluster solid cluster/atom 1.3 # Create a cluster where all atoms within are solid and max 1.3 units from another member

# define chunks one chunk per cluster
compute clus_chunks solid chunk/atom c_cluster nchunk every compress yes  # Says which atoms are in which chunk

# count the size of each chunk
compute size_chunks solid property/chunk clus_chunks count


# Find the maximum entry in the vector of chunk sizes
variable max_n equal max(c_size_chunks)


# Thermo style which includes this variable
# thermo_style custom step temp pe vol v_max_n

thermo ${N}  # Print the thermo information every 100 steps
thermo 1000  

# Reset the npt fix at a lower temperature (below freezing)
fix 1  all npt temp  ${temp} ${temp}  0.1  iso  5.68  5.68  0.5  mtk yes tchain  5  pchain  5
fix 1  all npt temp  0.45 ${temp}  0.1  iso  5.68  5.68  0.5  mtk yes tchain  5  pchain  5
fix 1  all npt temp  0.45 0.45  0.1  iso  5.68  5.68  0.5  mtk yes tchain  5  pchain  5

dump dmp2 all dcd ${N} traj.dcd
dump dmp2 all dcd 1000 traj.dcd


compute msd all msd com yes
variable twopoint equal c_msd[4]/6/(step*dt+1.0e-6)
fix 9 all vector 10 c_msd[4]
variable fit equal slope(f_9)/6/(10*dt)
thermo_style custom step temp pe c_msd[4] v_twopoint v_fit v_max_n

fix 1 all npt temp 1.25 ${temp} 0.1 iso 5.68 5.68 0.5 mtk yes tchain 5 pchain 5
fix 1 all npt temp 1.25 0.45 0.1 iso 5.68 5.68 0.5 mtk yes tchain 5 pchain 5
run 5000000 # 5000000  # Run for this many steps
Neighbor list info ...
  update every 1 steps, delay 10 steps, check yes
  max neighbors/atom: 2000, page size: 100000
  master list distance cutoff = 3.8
  ghost atom cutoff = 3.8
  binsize = 1.9, bins = 8 8 8
  4 neighbor lists, perpetual/occasional/extra = 1 3 0
  (1) pair lj/cut, perpetual
      attributes: half, newton on
      pair build: half/bin/atomonly/newton
      stencil: half/bin/3d
      bin: standard
  (2) compute orientorder/atom, occasional
      attributes: full, newton on
      pair build: full/bin/atomonly
      stencil: full/bin/3d
      bin: standard
  (3) compute coord/atom, occasional
      attributes: full, newton on
      pair build: full/bin/atomonly
      stencil: full/bin/3d
      bin: standard
  (4) compute cluster/atom, occasional
      attributes: full, newton on
      pair build: full/bin/atomonly
      stencil: full/bin/3d
      bin: standard
Per MPI rank memory allocation (min/avg/max) = 9.833 | 9.836 | 9.840 Mbytes
Step Temp PotEng c_msd[4] v_twopoint v_fit v_max_n 
   12000    1.2720429   -7.0915813 9.8489284e-31 6.8395333e-33 8.3333333e+20            2 
   13000    1.2310912   -7.1433831   0.46866543 0.0030042655  0.038316775            2 
   14000    1.2428806   -7.1440448   0.91859466 0.0054678251  0.036918151            2 
   15000    1.2469756   -7.1489971    1.3055899 0.0072532772  0.036212515            2 
   16000    1.2588935   -7.0999549    1.6971617 0.0088393837  0.035135646            1 
   17000     1.257843   -7.1426601    2.1462728  0.010520945  0.034582331            1 
   18000    1.2682625   -7.0745881    2.5567305  0.011836715  0.034553932            4 
   19000    1.2614102   -7.1459645    2.9876571  0.013103759   0.03465009            1 
   20000    1.2377831   -7.1838393    3.3866141  0.014110892  0.034751291            2 
   21000    1.2596748   -7.1341929    3.8641604   0.01533397  0.034760597            5 
   22000    1.2095777   -7.1000697    4.3453271  0.016459572  0.035113401            1 
   23000    1.2444988   -7.1351237    4.7651248  0.017264945  0.035466893            2 
   24000     1.268142   -7.1829298    5.2020679  0.018062736  0.035697883            2 
   25000    1.2628131   -7.1224228    5.6973376  0.018991125  0.035842346            1 
   26000    1.2473338    -7.132124    6.0832964  0.019497744   0.03601638            2 
   27000    1.2484548   -7.1762416    6.4158935   0.01980214    0.0359895            1 
   28000    1.2411269   -7.1428967    6.6977317  0.019933725  0.035723521            1 
   29000    1.2498998   -7.1334199    7.2257553  0.020763664  0.035480887            3 
   30000    1.2339049   -7.1686045    7.5505148  0.020973652  0.035312507            1 
   31000    1.2498474   -7.1152773    8.0384034  0.021608611  0.035221572            1 
   32000    1.2639838   -7.1520084    8.4479978  0.021999994  0.035188793            3 
   33000    1.2716624   -7.1437947    8.8763118  0.022414929  0.035160356            2 
   34000     1.263689   -7.1923758    9.2030468  0.022556487   0.03504311            5 
   35000    1.2530262   -7.1530433    9.6205638  0.022906104  0.034912775            1 
   36000    1.2313529   -7.1746813    9.9011158  0.022919249  0.034773673            3 
   37000    1.2539157   -7.0949499    10.386486  0.023392987  0.034670385            1 
   38000    1.2807954   -7.1113605    10.788163  0.023658251  0.034579726            1 
   39000    1.2763103   -7.1052474    11.185295  0.023900203  0.034487625            1 
   40000     1.250679   -7.1330809    11.541545  0.024044884  0.034404181            3 
   41000    1.2464328   -7.1435296    11.921339  0.024230363  0.034291326            1 
   42000    1.2231878   -7.1414235    12.278931  0.024362958  0.034180802            1 
   43000    1.2743191   -7.1380695    12.722261  0.024655544  0.034119121            1 
   44000    1.2635746   -7.1170031    13.216336  0.025030938  0.034058805            2 
   45000    1.2539001   -7.1339513    13.537956  0.025070288  0.034002231            1 
   46000    1.2355512   -7.1716452    13.862004  0.025112325  0.033934075            1 
   47000    1.2358605   -7.1301935    14.311528  0.025375049  0.033868711            2 
   48000    1.2513309   -7.1320376     14.75052  0.025608542   0.03382509            2 
   49000     1.235348   -7.1396913    15.283226   0.02599188  0.033823606            1 
   50000    1.2581383   -7.1739554    15.773973  0.026289954  0.033865636            2 
   51000    1.2584458   -7.1603834    16.230316  0.026520124  0.033904177            1 
   52000    1.2418872   -7.1426804    16.570508    0.0265553  0.033942732            1 
   53000    1.2268388   -7.1492456    16.942241  0.026638743   0.03395798            2 
   54000    1.2524886   -7.1879889    17.328026  0.026740781  0.033968548            1 
   55000    1.2284255   -7.1511242    17.896003  0.027115155  0.034004749            2 
   56000    1.2329622   -7.1521789    18.352488  0.027310249  0.034044469            3 
   57000    1.2412385   -7.1272466    18.776883  0.027451583  0.034080673            1 
   58000    1.2362153   -7.1162026    19.071323  0.027401325  0.034123228            4 
   59000    1.2417822   -7.1688852    19.331887  0.027304925  0.034127857            1 
   60000    1.2714532   -7.1874133    19.660362  0.027306058  0.034109895            2 
   61000    1.2725001   -7.1186368    20.198238  0.027593221  0.034093561            1 
   62000    1.2319052   -7.2013782    20.508531   0.02756523  0.034086052            3 
   63000    1.2716679    -7.155242    20.904898  0.027651981  0.034061012            1 
   64000    1.2205595   -7.1939743    21.259925  0.027682193  0.034038771       -1e+20 
   65000    1.2680444   -7.1549177    21.593601  0.027684103  0.034011362            1 
   66000    1.2588764   -7.1868877    21.949348  0.027713823   0.03397849            1 
   67000    1.2503961   -7.1798265    22.296708  0.027732224  0.033933563            1 
   68000    1.2582588   -7.1602234    22.685945  0.027801403  0.033897083            2 
   69000    1.2731067   -7.1455697     23.20363  0.028023707  0.033858049            3 
   70000    1.2571887   -7.1629151    23.578817   0.02807002  0.033833174            1 
   71000    1.2195456   -7.1980177    24.095187  0.028280735   0.03381213            2 
   72000    1.2133382   -7.2023233    24.324617  0.028153492  0.033797634            2 
   73000    1.2425879   -7.1751392    24.817163  0.028330094  0.033780501            3 
   74000    1.2609746   -7.1591556    25.300787  0.028491877  0.033765263            2 
   75000    1.2301094   -7.1916316    25.640921  0.028489912  0.033753719            4 
   76000    1.2358581   -7.1516455    26.113796  0.028633548  0.033741319            2 
   77000    1.2170905   -7.1240433    26.536427  0.028719077  0.033729991            2 
   78000     1.231032   -7.0933058    26.959522  0.028802908  0.033724628            3 
   79000    1.2559205   -7.1457513    27.194234  0.028685901  0.033711699            1 
   80000    1.2264405   -7.1760508    27.526042   0.02867296  0.033696516            3 
   81000    1.2223855   -7.1829684    27.725164  0.028523831  0.033668421            1 
   82000    1.2461032   -7.1269714    28.153034  0.028610807  0.033632508            3 
   83000    1.2158914   -7.1982597    28.451244  0.028565506   0.03359053            2 
   84000    1.2725246    -7.106156     28.87781  0.028648621  0.033550734            2 
   85000    1.2366491   -7.2006112    29.346514  0.028771092  0.033519637            3 
   86000    1.2188301   -7.1583746    29.827495  0.028902611  0.033490087            1 
   87000    1.2442009   -7.1133314    30.132872  0.028862904  0.033459864            1 
   88000    1.2314751   -7.1775327    30.455598  0.028840528  0.033429205            1 
   89000    1.2220155   -7.1401051    30.773538  0.028814174  0.033392994            1 
   90000    1.2262463   -7.2182689    31.101161  0.028797371  0.033355042            2 
   91000    1.2412351   -7.1491863      31.5172  0.028861905  0.033316375            1 
   92000    1.2145869   -7.1950461    31.826324  0.028828192  0.033279634            1 
   93000    1.2083035   -7.1328471    32.396403  0.029029035  0.033242769            1 
   94000    1.2483852   -7.2127909    32.512699  0.028823314  0.033210634            2 
   95000    1.2417941   -7.1537096    33.021787   0.02896648  0.033180218            1 
   96000    1.2229316     -7.14982    33.422662  0.029012727  0.033147803            5 
   97000    1.2480389   -7.1863326    33.461529  0.028747018  0.033110307            2 
   98000    1.2284154   -7.1577667    34.097946  0.028994852  0.033073545            1 
   99000    1.2296542   -7.1353112    34.496002  0.029037039  0.033041676            1 
  100000    1.2320324   -7.1690372    34.876256  0.029063547   0.03301065            3 
  101000    1.2186746   -7.1157322    35.240722  0.029076503  0.032982895            3 
  102000    1.2406313   -7.1880297    35.366609  0.028894288   0.03294885            1 
  103000    1.2263025   -7.1843998    35.828935  0.028987811  0.032904738            2 
  104000    1.2121764   -7.2173438    36.261661  0.029055818  0.032869222            1 
  105000    1.2492042   -7.1963457    36.572668  0.029025927  0.032836606            2 
  106000    1.2342888   -7.1215811    37.128957  0.029189431  0.032807876            1 
  107000    1.2211761   -7.1756502     37.45642  0.029171667  0.032779178            1 
  108000    1.2507015    -7.152529    37.913594  0.029254317  0.032747731            1 
  109000    1.2502003   -7.1315016    38.180221  0.029189771  0.032720125            2 
  110000    1.2228712   -7.1636788    38.648668  0.029279294  0.032699603            3 
  111000    1.2319962   -7.2503832    38.829808  0.029151508  0.032677398            1 
  112000     1.230929    -7.179727    39.254965  0.029207563  0.032651734            1 
  113000    1.2342828   -7.1778973    39.863358  0.029397757  0.032632771            4 
  114000     1.241749   -7.1580259    40.521248  0.029620796  0.032621592            3 
  115000    1.2286222   -7.1612314    40.729949  0.029514456  0.032612748            1 
  116000    1.2228833   -7.1759141    40.911426  0.029390392  0.032600083            2 
  117000    1.2268391   -7.1487056    41.381146   0.02947375  0.032584817            4 
  118000     1.234747   -7.2075385    41.589078  0.029370818  0.032566438            2 
  119000    1.2097272   -7.2049335    41.741346  0.029230635  0.032546478            2 
  120000    1.2305343   -7.1762015    42.341541  0.029403848  0.032523936            2 
  121000    1.2399821   -7.1862442    42.525085  0.029287248  0.032498409            1 
  122000    1.2251476   -7.1923784    42.747684  0.029199237  0.032467832            3 
  123000    1.2276993   -7.1856897    43.337474  0.029361432  0.032441092            2 
  124000    1.2241707   -7.1792404    43.821456  0.029449903  0.032420913            2 
  125000    1.2409943   -7.1830572     44.17002   0.02944668  0.032406152            1 
  126000    1.2245413   -7.1731944    44.955413  0.029732416  0.032396396            1 
  127000    1.2364579    -7.120248    45.414241   0.02979937  0.032391578            2 
  128000    1.2364324   -7.1973726     45.63559  0.029710671  0.032387285            1 
  129000    1.2657981   -7.1343708    45.950584  0.029683839   0.03237982            2 
  130000    1.2033284   -7.1989481    46.398044  0.029742336  0.032373116            1 
  131000    1.2054865   -7.1894831    46.659179  0.029681411  0.032364526            5 
  132000    1.2718055   -7.2080514    47.110132  0.029741245  0.032358568            3 
  133000    1.2076942   -7.2270472    47.609775  0.029830686  0.032353094            3 
  134000     1.220387   -7.1986839    48.091292   0.02990752  0.032351816            1 
  135000    1.2342636   -7.1917984    48.497922  0.029936989  0.032350963            1 
  136000    1.2056604   -7.2146864     48.74157  0.029866158  0.032348036            1 
  137000    1.2253179   -7.1795094    49.175437  0.029912066  0.032345949            1 
  138000    1.2365807   -7.1809217    49.765967  0.030051912  0.032345556            1 
  139000    1.2286406   -7.1981214    49.945999  0.029943644  0.032342221            4 
  140000    1.2248257   -7.2116465    50.450035  0.030029782  0.032341834            2 
  141000    1.2147755   -7.1687068    51.104133  0.030203388  0.032342604            2 
  142000    1.2133063   -7.2174901    51.162589  0.030024993  0.032345447            1 
  143000    1.2588635   -7.1918215    51.547946  0.030039596  0.032344949            1 
  144000    1.2235159   -7.2444361    51.724757  0.029933309  0.032340334            2 
  145000    1.2065886   -7.1881172    52.473431  0.030157144  0.032341176            1 
  146000    1.2182228   -7.1932572    52.830709  0.030154514  0.032341786            1 
  147000    1.1983762   -7.2341903    52.926309  0.030003576  0.032340361            1 
  148000      1.23632   -7.1822182    53.361552  0.030045919  0.032335379            1 
  149000    1.2377331   -7.1508734     53.67424   0.03001915   0.03232859            3 
  150000    1.2299106   -7.1508397    54.215176  0.030119542  0.032321736            1 
  151000    1.2142489   -7.2053796    54.152507   0.02988549  0.032316364            1 
  152000    1.1905652   -7.1300472     55.12388  0.030221425  0.032313137            3 
  153000    1.2189155   -7.1756896    55.217637  0.030074965  0.032311688            2 
  154000    1.2201283   -7.1560835    55.798253   0.03019386  0.032309087            2 
  155000    1.1966871   -7.1952031    56.068373  0.030144286  0.032305143            2 
  156000    1.2553391    -7.174113    56.195716  0.030019079  0.032299218            1 
  157000    1.2088036   -7.1981815    56.771881  0.030133695  0.032295251            1 
  158000    1.2221591   -7.2010041    56.947303  0.030035497   0.03228698            1 
  159000    1.2507689   -7.1559986    57.664518  0.030222493  0.032283727            2 
  160000    1.2316868    -7.167028    57.845887  0.030128066  0.032283081            1 
  161000    1.2115977   -7.1952379    58.392208   0.03022371  0.032281316            1 
  162000    1.2439905   -7.2191465    58.675592  0.030182918  0.032280494            2 
  163000    1.2213819   -7.2182022    58.907646  0.030116384  0.032278722            2 
  164000    1.2406349   -7.2343889     59.42894  0.030197632  0.032273176            2 
  165000    1.2184725   -7.1924184    59.708914  0.030156017  0.032269902            1 
  166000     1.236489   -7.2021579    60.408473  0.030325538  0.032267526            3 
  167000    1.2042177   -7.2345564    60.539155  0.030209159  0.032266368            2 
  168000    1.1761929   -7.1751423    61.325933  0.030419609   0.03226614            2 
  169000    1.2092956   -7.1515792    61.769064  0.030458118  0.032266882            1 
  170000    1.2088336   -7.1825976    62.346323  0.030561923  0.032268173            4 
  171000    1.2369497   -7.2040325    62.508772  0.030462364   0.03227005            5 
  172000    1.2295213   -7.2235281    62.884355  0.030467226  0.032274305            1 
  173000    1.1980794   -7.2081321    63.197742  0.030442072  0.032276822            2 
  174000    1.2194852   -7.1745504    63.938108  0.030621699  0.032280286            2 
  175000    1.2224817   -7.1674042    64.044523  0.030497392  0.032283955            2 
  176000    1.2236318    -7.228152    64.096651  0.030348793  0.032283241            2 
  177000    1.2469972   -7.1839336    64.286338  0.030266637  0.032279961            2 
  178000    1.2275228   -7.2125235    64.751195   0.03031423  0.032274202            2 
  179000    1.2365352   -7.2219569    65.324793  0.030411915  0.032272669            4 
  180000    1.2252553   -7.2245281    65.769534  0.030448858  0.032272099            1 
  181000    1.2484945   -7.2406517    65.961226  0.030368888  0.032271063            1 
  182000    1.2510179   -7.2307514    66.490052  0.030444163  0.032270846            1 
  183000    1.2335892   -7.1705943    67.017737  0.030518095  0.032270738            2 
  184000    1.2235692   -7.1930064    67.264764  0.030464114  0.032269573            6 
  185000    1.2107274   -7.1393403      67.8316  0.030554775  0.032269926            2 
  186000    1.2258424    -7.136903    68.270602  0.030587187  0.032270237            1 
  187000    1.2278202   -7.2273665    68.159951  0.030374309  0.032268163            2 
  188000    1.2225822   -7.2322692    68.534512  0.030378773  0.032262945            2 
  189000    1.2231784   -7.1731076     69.04496  0.030443104  0.032258038            1 
  190000    1.2281274   -7.1931276    69.170043  0.030337738  0.032249547            5 
  191000    1.2110928   -7.2192439     69.43831  0.030295947   0.03223986            1 
  192000    1.2225466    -7.190456    70.052993  0.030404945  0.032230764            2 
  193000    1.2386998   -7.1988442    70.103028   0.03026901  0.032224147            1 
  194000    1.1928891   -7.1965655    70.615053  0.030332926  0.032216026            2 
  195000    1.2018679   -7.1892605     71.13902   0.03040129  0.032206045            1 
  196000    1.2112329   -7.2125734     71.22217  0.030281535  0.032196159            1 
  197000    1.2225089   -7.2068918    71.781555  0.030364448  0.032188064            2 
  198000     1.208097   -7.2039552    72.172918  0.030375807  0.032181565       -1e+20 
  199000    1.2247423   -7.2359499    72.428085  0.030330019  0.032172928            1 
  200000    1.2300362   -7.1793339    72.735059  0.030306275  0.032162076            2 
  201000    1.2197181   -7.2070988    73.057726  0.030289273  0.032151872            2 
  202000    1.2669327   -7.2147977    72.943763  0.030092311  0.032142345            3 
  203000    1.2174488    -7.240483    73.628283  0.030225075  0.032130086            1 
  204000    1.2293174   -7.2543245    74.128816  0.030281379  0.032121544            2 
  205000    1.2199075   -7.1786466    74.870898  0.030435324  0.032114089            2 
  206000    1.2188056   -7.1927512    75.010289  0.030343968  0.032106535            2 
  207000    1.2382756   -7.2267817    75.167687  0.030260743  0.032097109            3 
  208000    1.2284556   -7.2547531    75.607017  0.030291273  0.032087128            1 
  209000     1.222321   -7.1891264    76.271426  0.030411254  0.032077678            3 
  210000    1.1951915   -7.2025414    76.478851   0.03034875   0.03207059            1 
  211000    1.2216715    -7.144332     76.75661  0.030314617  0.032063621            1 
  212000    1.2105952   -7.2636785    76.901218  0.030228466  0.032056105            2 
  213000    1.2412466   -7.1925221    77.942747  0.030494032  0.032049964            1 
  214000    1.2231216   -7.2192048    78.036674  0.030388113  0.032044537            1 
  215000    1.2031923   -7.2152231    78.695992  0.030502323  0.032039305            2 
  216000    1.2160091   -7.1931549    79.065793  0.030503778  0.032034857            3 
  217000    1.2133127   -7.2022768    79.313144  0.030458197  0.032030655            4 
  218000    1.2231063   -7.2253607    79.829472  0.030515853  0.032026289            1 
  219000    1.1979636   -7.1839704     80.35371  0.030575993   0.03202622            2 
  220000    1.2270177   -7.1768319    80.937042   0.03065797  0.032027489            1 
  221000    1.2122925   -7.1901017    81.540249    0.0307467  0.032028598            1 
  222000     1.231839   -7.1856189    81.714551   0.03067363  0.032030171            1 
  223000    1.2141666   -7.1972718    82.383259  0.030785971  0.032030286            1 
  224000    1.2189102   -7.2018059     82.44319  0.030670829  0.032029728            2 
  225000    1.1928794   -7.1850333    83.134537  0.030790569  0.032030183            5 
  226000    1.2387329   -7.2345085    82.873585  0.030558106   0.03202967            1 
  227000     1.186218   -7.2444407    83.267024  0.030567924    0.0320295            1 
  228000    1.1945742   -7.2030435    83.622102  0.030563634  0.032027645            3 
  229000    1.2010006   -7.2168307    84.053513  0.030587159  0.032024637            2 
  230000    1.2165334   -7.2299091    84.463873  0.030602853  0.032022023            2 
  231000    1.2214983   -7.2367422    84.497159  0.030482381  0.032019389            2 
  232000    1.1899555   -7.2413384    84.698082  0.030423161   0.03201534            1 
  233000    1.2372381   -7.2086055    85.275517  0.030499112  0.032008323            1 
  234000    1.2183856   -7.2159318    85.550348  0.030466648  0.032003052            4 
  235000    1.2576829   -7.2576187    86.055199  0.030516028   0.03199757            4 
  236000    1.2049538   -7.2246964    86.226919  0.030447358  0.031991844            1 
  237000    1.2202442   -7.2213777     86.45194   0.03039801  0.031984321            1 
  238000    1.1961549   -7.1854416    87.152773  0.030515677  0.031975626            1 
  239000    1.2033411   -7.2356146    86.960082   0.03032081  0.031966714            3 
  240000    1.2377203   -7.2340305    87.821657  0.030493631  0.031958514            1 
  241000     1.238273   -7.2067557    88.274828  0.030523799  0.031952361            2 
  242000    1.1969152   -7.2418309    88.154038  0.030356074   0.03194443            1 
  243000    1.2215352   -7.2418686    88.796304  0.030451407  0.031937122            2 
  244000    1.2461867   -7.2466786    88.837591  0.030340707  0.031930139            2 
  245000    1.2355237   -7.2343198    89.599121  0.030475892  0.031921703            2 
  246000    1.2008678   -7.2160344    89.546936  0.030334328  0.031913199            1 
  247000    1.1910012   -7.2223114    90.597361  0.030565911  0.031905121            2 
  248000    1.2297991   -7.2255719    90.742283  0.030491359  0.031897624            1 
  249000    1.2069274   -7.2605724    90.691614  0.030351946  0.031889976            2 
  250000    1.2179861    -7.188004     91.83008  0.030610027  0.031883617            1 
  251000    1.2006029   -7.2054587    92.190149  0.030607619  0.031877625            1 
  252000    1.1953037    -7.242103    92.214447  0.030494195  0.031872492            2 
  253000    1.2520012   -7.2416703    92.409628  0.030437954  0.031867161            2 
  254000    1.2192023   -7.2457362    92.712702  0.030417553  0.031860099            2 
  255000    1.2198719   -7.2400675    92.970198  0.030382418  0.031851783            2 
  256000    1.2088313   -7.2107275    93.531891  0.030446579  0.031843806            2 
  257000    1.1937086   -7.1771328    93.772694  0.030406191  0.031837053            3 
  258000    1.1940667    -7.239027    93.999775  0.030361684  0.031828302       -1e+20 
  259000    1.2374117   -7.2137001    93.943725  0.030226424  0.031819663            2 
  260000    1.2022387   -7.2258916    94.384105  0.030251316  0.031809879            1 
  261000    1.2334807   -7.2148983    95.081292  0.030358011   0.03180077            1 
  262000    1.2103156   -7.2291074    95.322762  0.030318945  0.031793044            1 
  263000    1.2287156   -7.2407238    95.869461  0.030376889   0.03178474            2 
  264000    1.2055522   -7.2189402    96.302975  0.030398666  0.031776067            3 
  265000     1.181145   -7.2073396    96.327914  0.030291797  0.031767132            2 
  266000    1.2164305   -7.2096584    96.920459  0.030363552  0.031758031            2 
  267000     1.210464    -7.219882    96.940237  0.030256004  0.031746783            4 
  268000    1.2259845    -7.187638    97.315465  0.030259784  0.031733565            1 
  269000     1.220949   -7.2278575    97.104333  0.030081888  0.031721792            2 
  270000    1.1917927   -7.2304898    97.972778  0.030238512  0.031709511            1 
  271000    1.2205826   -7.2180713    98.335137  0.030238357  0.031698606            1 
  272000    1.2073897   -7.2279968    98.756107   0.03025616  0.031688583            1 
  273000    1.2085238   -7.2542743    99.244918  0.030294541   0.03167965            1 
  274000    1.2062553    -7.213471    99.724617  0.030329871  0.031670873            3 
  275000    1.2305676   -7.2738713    100.02891  0.030311792  0.031662337            2 
  276000    1.2156797   -7.2266418    100.30574   0.03028555  0.031654112            2 
  277000    1.2123079   -7.2708598    100.51429  0.030238957  0.031643982            2 
  278000    1.2051007   -7.2291878    100.85902  0.030233519  0.031635169            1 
  279000    1.2286635   -7.2585976    101.34857  0.030271376  0.031626675            3 
  280000    1.2460509   -7.2445317    102.24248  0.030429309  0.031618309            1 
  281000    1.2075215   -7.2225046    102.51156  0.030400819  0.031610846            1 
  282000    1.2060552   -7.3003175    102.46305  0.030278678  0.031602627            1 
  283000    1.2329469    -7.235946    103.14894  0.030373657  0.031596165            3 
  284000    1.2262057   -7.2903616    102.89356  0.030191772  0.031588598            2 
  285000    1.1894028   -7.2784052    103.60414  0.030293607  0.031580861            1 
  286000    1.2375528   -7.2786345    103.92325  0.030280667  0.031574142            1 
  287000     1.204459   -7.2318599    104.34225  0.030296819  0.031567356            2 
  288000    1.2236329   -7.2605629    104.55359  0.030252773  0.031560242            2 
  289000    1.1847138   -7.2153655    105.64851  0.030463815   0.03155382            5 
  290000    1.1968966   -7.2183804     106.1915    0.0305148  0.031548783            1 
  291000    1.1906704   -7.2357071    105.84758  0.030311448  0.031542737            3 
  292000    1.1843815   -7.2257965    106.45926  0.030382208  0.031535394            1 
  293000    1.2223615   -7.2255931    106.53109  0.030298945  0.031527349            2 
  294000    1.1878393   -7.2645012    106.53751  0.030197706  0.031517998            1 
  295000    1.2003053   -7.2354601    106.77027  0.030161092   0.03150882            1 
  296000    1.2373943   -7.2604928    106.80253   0.03006828  0.031498773            2 
  297000    1.1958677    -7.210575    107.38012  0.030129101  0.031487959            2 
  298000    1.2139414   -7.2380195    108.15778  0.030245464  0.031478226            1 
  299000    1.1879124   -7.2443737      108.563  0.030257246   0.03146991            1 
  300000    1.1964127   -7.2663366    108.45301  0.030125836  0.031459692            2 
  301000    1.1968338   -7.2252957     109.0214  0.030183112  0.031450064            2 
  302000      1.22216   -7.2424936     109.2082  0.030134714   0.03143971            2 
  303000    1.2022035   -7.2590649    109.64643  0.030155783  0.031429774            1 
  304000    1.2156041   -7.2545315    110.06725  0.030171944  0.031420961            1 
  305000    1.2095602   -7.2351962    110.21925   0.03011455   0.03141155            3 
  306000    1.2078293    -7.254951    110.71649  0.030151551    0.0314007            1 
  307000    1.1953751   -7.2576803    111.13265    0.0301663  0.031390388            1 
  308000    1.1937857   -7.1893565    111.53426  0.030177018  0.031381113            2 
  309000    1.1974539    -7.215522    111.52215  0.030076092  0.031372346            1 
  310000    1.1964474   -7.2570714    112.72701  0.030302961  0.031363749            1 
  311000    1.2203054   -7.2450946      112.936  0.030261522  0.031355455            2 
  312000    1.2105947   -7.2806621    112.54128  0.030059102  0.031346815            2 
  313000    1.1974363   -7.2931621    112.98422  0.030080996  0.031337816            2 
  314000    1.2049777   -7.2549074    113.42343  0.030101759  0.031329347            2 
  315000     1.215441   -7.2430512    113.84215  0.030116972  0.031320847            1 
  316000    1.1770878   -7.2407354     114.4797  0.030189794  0.031313346            1 
  317000     1.192842     -7.25003    115.03799  0.030241322  0.031305692            1 
  318000    1.1853021   -7.2326128    115.14829  0.030175127  0.031298863            1 
  319000    1.2192107   -7.2728399    115.21184  0.030097138   0.03129143            2 
  320000    1.1793459   -7.2585542    115.88248   0.03017773  0.031283599            1 
  321000    1.2010332   -7.2038764      116.636  0.030279335  0.031276938            2 
  322000    1.1772874   -7.3036436    116.80374  0.030228712  0.031269967            4 
  323000    1.2098552   -7.2495446    117.73079  0.030374301  0.031263482            1 
  324000    1.1980241   -7.2387826    117.85546  0.030312619  0.031259105            2 
  325000    1.2217549   -7.2299234     118.7273  0.030442896  0.031255719            1 
  326000    1.2116493   -7.2929344     118.8233  0.030374054  0.031251411            1 
  327000    1.2078355    -7.291671    119.13503  0.030360608  0.031248098            3 
  328000    1.2063129   -7.2704648    119.49584  0.030359716  0.031244894            2 
  329000     1.195703   -7.2783214    120.13405   0.03042909  0.031242696            1 
  330000    1.1851135   -7.2935514    120.81962  0.030510005  0.031241152            1 
  331000    1.1832999   -7.2663757    121.27544  0.030532587  0.031240628            1 
  332000    1.2104264     -7.27156    121.46445  0.030488064  0.031239048            3 
  333000    1.2097076   -7.2507894    122.15621  0.030569622  0.031238804            1 
  334000    1.1723725   -7.2631607    122.45574   0.03055283  0.031238615            1 
  335000    1.1857713   -7.3011023    122.83865  0.030556877  0.031238185            2 
  336000    1.1662722   -7.2698363    123.14653  0.030542294  0.031238107            2 
  337000    1.1886407   -7.2500835    123.41431   0.03051788  0.031237529            1 
  338000    1.1915054   -7.2583056    123.24672  0.030386273  0.031235682            3 
  339000    1.1969357   -7.2441626    123.78082  0.030427929  0.031233866            1 
  340000     1.219217   -7.2696515    123.65801  0.030308335  0.031230355            2 
  341000    1.2054202   -7.2687318    124.73674  0.030483074   0.03122723            1 
  342000    1.1873425   -7.2633454    124.82059  0.030414373  0.031225392            1 
  343000    1.2057422   -7.2865643    124.99301  0.030367593  0.031221769            1 
  344000    1.2219256   -7.2488794    125.40315  0.030378669  0.031218147            2 
  345000    1.1725279   -7.2932793    125.57007  0.030330936   0.03121449            1 
  346000    1.1857612   -7.2366306    125.93195  0.030330432   0.03121059            1 
  347000    1.2242031    -7.295417    126.72393   0.03043322  0.031207082            1 
  348000    1.1904918    -7.245506    127.40392  0.030508603  0.031204594            3 
  349000    1.2036248   -7.2806195    127.34457  0.030407013   0.03120299            4 
  350000    1.1914818   -7.2866397    127.45545  0.030346535  0.031200371            2 
  351000    1.1719294   -7.2765578    127.59728   0.03029375  0.031197286            1 
  352000    1.2108035   -7.2967746    128.18188  0.030346089  0.031193646            1 
  353000    1.2133849   -7.2637317    128.85618  0.030419306  0.031190572            1 
  354000    1.2057682   -7.2517358    128.85139  0.030332247  0.031186542            3 
  355000    1.2043313   -7.2850525    128.79907  0.030234524  0.031181268            3 
  356000    1.1905357   -7.2768103    128.97159  0.030189979   0.03117489            1 
  357000    1.1871241   -7.2532479    129.24304  0.030168776  0.031168878            1 
  358000    1.2166873   -7.2653858    130.02581  0.030266716  0.031162914            2 
  359000    1.1799193   -7.2842976    129.89421  0.030151859    0.0311562            1 
  360000    1.1765939   -7.2713565    130.03847  0.030101498  0.031148716            3 
  361000    1.2020046   -7.2698771     131.1582  0.030276594  0.031142286            1 
  362000    1.1691012   -7.2378241    131.31278   0.03022854  0.031136475            2 
  363000    1.1770385    -7.292958    131.32429  0.030147908  0.031130322            3 
  364000    1.1889458   -7.2867394    131.76907  0.030166912   0.03112389            1 
  365000    1.1963002   -7.2923956    132.23954  0.030191677  0.031117177            2 
  366000    1.1917801   -7.2770072    132.79197  0.030234965  0.031110908            1 
  367000    1.2005555   -7.2341888     132.9879  0.030197071   0.03110413            5 
  368000    1.1775129   -7.2547581     133.1005  0.030140512  0.031097082            3 
  369000    1.1898519   -7.2504386    133.41627  0.030130143  0.031089522            3 
  370000    1.2015204   -7.3284356    133.11716  0.029981342  0.031081493            2 
  371000    1.1975007    -7.301636    133.80242  0.030054452  0.031073356            4 
  372000    1.1872455   -7.2869664    134.23526  0.030070623  0.031065096            1 
  373000    1.1730925   -7.2890301    134.84343  0.030125879  0.031056878            3 
  374000    1.2005464   -7.2747926    134.99812  0.030079794   0.03104922            2 
  375000    1.1693959    -7.268843    135.36412  0.030080915   0.03104207            1 
  376000    1.1718353   -7.2560595    136.36268  0.030222226  0.031036143            1 
  377000    1.1828697   -7.2471904    137.07217  0.030298887  0.031030529            1 
  378000    1.1854166   -7.2479384    137.20541  0.030248106  0.031025337            2 
  379000    1.2024865   -7.2881736    136.98751  0.030120384  0.031020157            3 
  380000    1.1847774   -7.2942863    137.24709  0.030098045  0.031013851            1 
  381000    1.1717274   -7.2747904    137.90502  0.030162954  0.031007222            3 
  382000    1.2084996   -7.2696885    137.98126  0.030100624  0.031000911            1 
  383000    1.1814436   -7.3355564    137.85785  0.029995181  0.030993752            2 
  384000    1.2002823   -7.3003059    138.47985   0.03005205  0.030986639            1 
  385000    1.1994012   -7.3025837    138.66484  0.030014035  0.030979427            2 
  386000    1.1936446     -7.28079     139.2752  0.030068048  0.030972994            1 
  387000    1.1558265   -7.2488242     139.5593  0.030051528  0.030965591            2 
  388000    1.1700784   -7.2573986    140.02735  0.030074602  0.030958454            1 
  389000    1.1848166   -7.2195385    140.35021  0.030066455  0.030951243            3 
  390000    1.1876007   -7.3010687    140.75434  0.030075715  0.030944277            4 
  391000    1.2028669   -7.2526149    140.92822  0.030035853  0.030937214            2 
  392000    1.2011476   -7.2475135    141.53653  0.030088547  0.030929984            2 
  393000    1.2162745   -7.2792721     141.9101    0.0300912  0.030923584            1 
  394000    1.1922897   -7.2565522    142.05987  0.030046503  0.030917617            2 
  395000     1.186014   -7.2880886     141.8806  0.029932616  0.030911147            4 
  396000    1.1913029   -7.2597429    142.78315  0.030046958  0.030905188            2 
  397000    1.1919621   -7.2967426    142.85871  0.029987135  0.030898377            4 
  398000    1.1918075    -7.301389    143.56776  0.030060252   0.03089155            2 
  399000    1.1672932   -7.2575572    144.05992  0.030087703  0.030884994            2 
  400000    1.1881052   -7.3100627     144.3841  0.030080021  0.030877938            1 
  401000    1.1944719   -7.2884384    144.52804  0.030034921  0.030872458            2 
  402000    1.2157618   -7.2592368    145.11334  0.030081538  0.030867042            2 
  403000     1.178665   -7.2459495    145.79849  0.030148572  0.030861806            1 
  404000    1.1556364   -7.2534186    146.33312  0.030184225  0.030856665            2 
  405000    1.1646669    -7.284073    146.58212  0.030160931  0.030851877            2 
  406000    1.1818337   -7.2722055    147.20189  0.030213853  0.030847176            1 
  407000    1.2092215   -7.2760652    146.84318   0.03006617  0.030842151            1 
  408000    1.1767978    -7.311248    146.80914  0.029985526  0.030836808            2 
  409000    1.1580296   -7.3046339    146.99061  0.029949188  0.030830325            2 
  410000    1.1709888    -7.316244    147.78616  0.030037838  0.030824369            3 
  411000    1.2107344   -7.2581913    148.18584  0.030045791   0.03081868            1 
  412000    1.1857282   -7.3161794    148.77905   0.03009285  0.030813659            2 
  413000    1.1860253   -7.3472955    148.75139  0.030014404  0.030808639            3 
  414000     1.196989   -7.2809218    149.52774  0.030098177   0.03080406            2 
  415000    1.1644115   -7.2767691    149.96829  0.030114114  0.030800428            3 
  416000    1.1857543   -7.2844274    150.30433   0.03010904  0.030797101            3 
  417000    1.2003302   -7.2721275     151.2703  0.030229876  0.030793977            2 
  418000     1.154886   -7.3127084    151.32424   0.03016831  0.030791445            2 
  419000    1.1656977   -7.3171313    152.04685  0.030240026  0.030788811            2 
  420000    1.1833922   -7.2782441    153.07387    0.0303718  0.030787403            3 
  421000    1.1839103   -7.2929761     152.9578  0.030276683  0.030785362            2 
  422000    1.1892285   -7.3009802    153.39443  0.030291158  0.030783381            1 
  423000    1.1880667   -7.2899931    153.87135  0.030313504  0.030781638            1 
  424000    1.1989277   -7.2854922    154.07035  0.030281121  0.030779745            2 
  425000    1.2063548   -7.2919051    154.47871  0.030289942  0.030778323            3 
  426000     1.178117    -7.225054    155.08496  0.030337434  0.030777993            2 
  427000    1.1808472   -7.2582875    154.90328   0.03023093  0.030776858            1 
  428000    1.1872739   -7.3153514    154.99309  0.030177782  0.030775192            2 
  429000    1.2094331   -7.3097236    155.95452  0.030294195   0.03077312            1 
  430000     1.177778   -7.3440391     156.8597  0.030399167  0.030771958            2 
  431000    1.1875073   -7.2836839    156.89249  0.030334975  0.030770528            2 
  432000     1.172337   -7.3434366     156.2423  0.030139332  0.030769111            6 
  433000    1.1870532   -7.2697827    157.68635  0.030347642  0.030767446            2 
  434000    1.2091603   -7.2709933    157.54311  0.030250212  0.030765551            1 
  435000    1.2133907    -7.277849    158.08024  0.030283571  0.030763446            2 
  436000    1.1834687   -7.2915029      158.478  0.030290138   0.03076073            2 
  437000    1.1966394   -7.3063533    158.39039  0.030204117   0.03075766            4 
  438000    1.1917516   -7.2874741    158.94023  0.030239769  0.030755121            1 
  439000    1.1818196   -7.3600902    158.65845  0.030117397  0.030751984            3 
  440000    1.1707522   -7.3003231    158.98678  0.030111132  0.030749002            3 
  441000    1.1844947   -7.2853737    159.77939  0.030192628  0.030746254            2 
  442000     1.176587   -7.3195319    160.09115  0.030183097  0.030743471            2 
  443000    1.1566258   -7.2758176    161.16106  0.030316226  0.030741342            3 
  444000    1.1875318   -7.3129933     161.4221   0.03029694  0.030740058            4 
  445000    1.1850479   -7.3029253    161.26911  0.030200207  0.030737824            1 
  446000    1.1641278   -7.2747735    162.32199  0.030329221  0.030736237            1 
  447000    1.1997119   -7.2694481    162.14835     0.030229  0.030734312            1 
  448000    1.1594725   -7.2885036    162.12087  0.030156412  0.030731932            1 
  449000    1.1793963    -7.298991    162.55426  0.030169684  0.030728708            1 
  450000    1.1938315   -7.2931574    163.36574  0.030252914  0.030725929            6 
  451000    1.1481797   -7.2841844    163.58596  0.030226526  0.030723222            2 
  452000     1.170738   -7.2807291    163.73471  0.030187078  0.030720315            1 
  453000    1.1992055   -7.2773008    164.93643  0.030341507  0.030718398            2 
  454000    1.1686604   -7.3496474    164.45001  0.030185391  0.030716883            2 
  455000    1.1539586   -7.3046934    164.99332  0.030218557  0.030714861            2 
  456000    1.1755281   -7.2848152    165.43893  0.030233723  0.030712119            2 
  457000    1.1883171   -7.3216958    166.13611  0.030294696  0.030709692            3 
  458000     1.158572   -7.3104407    166.01802  0.030207064  0.030707339            1 
  459000    1.1838129   -7.3401473    165.88151  0.030116468  0.030704418            2 
  460000    1.1576579   -7.2642602    167.14196   0.03027934  0.030702037            2 
  461000    1.1584965   -7.2616747     167.5703  0.030291089  0.030699978            1 
  462000    1.1412608    -7.306923      167.915  0.030287698  0.030697835            3 
  463000    1.1415751    -7.271401    168.17679  0.030269401  0.030695781            3 
  464000       1.1741   -7.3172148    168.25498  0.030218207  0.030693598            3 
  465000    1.2065638   -7.3427639    167.98944  0.030105634  0.030691164            1 
  466000    1.1663891   -7.2812878    168.66094  0.030161112  0.030688661            2 
  467000    1.1641126   -7.3190396    169.03371  0.030163046  0.030686019            2 
  468000    1.1712052   -7.2932938    170.07728  0.030284416  0.030683851            2 
  469000    1.1646498   -7.3388296    170.29632  0.030258764  0.030682364            2 
  470000    1.1713349   -7.3071859    170.07193  0.030154597  0.030680553            1 
  471000    1.2125239   -7.3396702    170.66658  0.030195786  0.030678446            5 
  472000    1.1921945   -7.3193392    171.33057  0.030249041  0.030676235            1 
  473000    1.1847573   -7.2896038    171.43932   0.03020425  0.030674022            2 
  474000    1.1893152   -7.3600898    171.63085  0.030174201  0.030671074            4 
  475000    1.1735534   -7.3166658    172.03645  0.030181834  0.030668508            1 
  476000    1.1683089   -7.2834054    172.59413   0.03021606  0.030665659            2 
  477000    1.1622248   -7.2738957    172.60798  0.030155133  0.030662533            1 
  478000    1.1711017   -7.3354236    172.59454  0.030089704  0.030658951            1 
  479000    1.1934591   -7.2903458     173.5277  0.030189232  0.030655786            2 
  480000    1.1644801   -7.3256635    174.24892  0.030251549  0.030653098            1 
  481000     1.172981   -7.3049564    173.68242  0.030090509  0.030650427            3 
  482000    1.1655449    -7.315906    174.41413  0.030154587  0.030647227            2 
  483000    1.1926862   -7.3239426    174.75211  0.030150468  0.030644023            2 
  484000    1.1622834   -7.3142349     174.6482  0.030070283  0.030640292            4 
  485000    1.1806224   -7.3526704    174.76747  0.030028775  0.030636992            2 
  486000    1.1636203    -7.306551    175.44877  0.030083808  0.030633075            1 
  487000    1.1991544   -7.2679786    175.58184  0.030044805  0.030629315            3 
  488000    1.1823245   -7.3248736    176.11213  0.030073792  0.030625801            1 
  489000    1.1643786   -7.3381904    176.71367  0.030114803  0.030622988            1 
  490000    1.1889816   -7.3251556    177.46029  0.030180321  0.030619866            1 
  491000    1.1891782   -7.3291446    177.54473  0.030133186  0.030617178            2 
  492000    1.1743565   -7.3003749     178.3731  0.030212245  0.030614736            1 
  493000    1.1954509   -7.3086298     178.3716   0.03015071  0.030611851            1 
  494000    1.1910583   -7.3362273     178.6652  0.030139205  0.030609379            1 
  495000    1.1619243    -7.327463    178.37374  0.030029249  0.030606833            1 
  496000    1.1797683   -7.3241262    179.08208  0.030087716  0.030603825            6 
  497000    1.1682261   -7.3060762    180.02691  0.030185599  0.030601366            3 
  498000    1.1655734   -7.3358801    179.83148  0.030092282  0.030598365            3 
  499000    1.1472792   -7.3918408    180.13541  0.030082733   0.03059591            2 
  500000    1.1630444   -7.3182695    180.65086  0.030108477  0.030592761            3 
  501000    1.1743719   -7.3312512    181.05292  0.030115256  0.030590295            1 
  502000    1.1621807   -7.3745519    181.62653  0.030150486  0.030587999            2 
  503000    1.1553695   -7.3089383    181.20924  0.030021411  0.030584539            2 
  504000    1.1558441   -7.3534526    181.67226  0.030038403  0.030582041            3 
  505000    1.1439749   -7.2687065    182.17976  0.030062667  0.030578598            3 
  506000    1.1931818   -7.3518034    182.16499  0.030000822  0.030574723            2 
  507000    1.1771038    -7.371514    182.15104  0.029939356  0.030570417            2 
  508000     1.167588   -7.3218221    182.82176  0.029990446   0.03056637            1 
  509000     1.181944   -7.3724402    182.49636  0.029878252  0.030561821            1 
  510000    1.1631911   -7.3425784    182.84787  0.029877103   0.03055752            2 
  511000    1.1496634   -7.3532728    183.45974  0.029918417  0.030553247            3 
  512000    1.1782476    -7.303075    184.29288  0.029995586  0.030548428            2 
  513000    1.1674707   -7.3109862    184.83919  0.030025859  0.030544038            2 
  514000    1.1579627   -7.3120941    185.06053  0.030003328  0.030540124            1 
  515000    1.1583969   -7.3269826    185.87378  0.030076663   0.03053627            2 
  516000     1.200158   -7.3373025    185.36633  0.029936422  0.030532667            2 
  517000    1.1702666   -7.3446355    186.05479  0.029989489  0.030529181            1 
  518000    1.1817163   -7.3058141    186.62442  0.030023234  0.030525259            2 
  519000    1.1573505   -7.3213361    186.29744  0.029912884  0.030521106            2 
  520000      1.16433   -7.3213805    187.29458  0.030015157  0.030517183            2 
  521000    1.1869228   -7.3274249    186.56243   0.02984044  0.030513072            5 
  522000    1.1650584   -7.3225704    187.67841  0.029961432  0.030508958            2 
  523000    1.1614664   -7.3323979    187.88164  0.029936526  0.030505108            2 
  524000    1.1814777   -7.2990922    188.68313  0.030006858  0.030500787            1 
  525000    1.1594256    -7.351314    188.06868  0.029852171  0.030495843            2 
  526000    1.1665485   -7.3636717    187.70721  0.029738151  0.030490975            1 
  527000    1.1812836    -7.345262    189.04999  0.029894053  0.030486384            3 
  528000     1.117955   -7.3447659    189.06882  0.029840408  0.030481474            2 
  529000    1.1860887   -7.3337668    189.54721  0.029859358  0.030476451            2 
  530000    1.1840194   -7.3116253     190.1272  0.029894213  0.030471925            3 
  531000    1.1926401   -7.3662969    190.75414  0.029936306  0.030466789            2 
  532000    1.1381649   -7.2966279    190.26741  0.029803793  0.030462286            2 
  533000    1.1533056   -7.3085085    191.49538  0.029939866  0.030457493            2 
  534000    1.1427641    -7.320357    190.67848  0.029756318  0.030452521            1 
  535000    1.1663584    -7.329317     192.1587  0.029931262  0.030447225            2 
  536000    1.1494443   -7.3336547    191.90503  0.029835982  0.030442096            3 
  537000    1.1684738   -7.3458471    191.47345  0.029713447  0.030436667            1 
  538000    1.1480531   -7.3680606    192.77251  0.029859435  0.030430728            2 
  539000    1.1805947   -7.3408698    193.23902  0.029876163  0.030425314            2 
  540000    1.1616728   -7.3385954    192.57779  0.029718795  0.030419722            4 
  541000    1.1858457   -7.3300823    192.78764  0.029696185  0.030413663            1 
  542000    1.1528917   -7.4050728    192.27988  0.029563327  0.030407132            1 
  543000    1.1566823   -7.3927149    193.63613  0.029717025  0.030400894            1 
  544000    1.1882646   -7.3197295     194.3343  0.029769348  0.030395061            2 
  545000    1.1698098   -7.3443721    194.92636  0.029805253  0.030389979            3 
  546000    1.1567687   -7.3313821    194.59352  0.029699866  0.030384233            1 
  547000    1.1532919   -7.3492034     194.3864  0.029614016  0.030378827            3 
  548000     1.155471   -7.3237434    194.80359  0.029623417  0.030372897            1 
  549000    1.1461741   -7.3142957    195.46193  0.029669388  0.030366698            1 
  550000    1.1691553   -7.3492626    196.52649  0.029776741  0.030360888            2 
  551000         1.14   -7.3144718    196.77624  0.029760471  0.030355108            1 
  552000    1.1884975   -7.3846468    195.93929  0.029580207  0.030349101            4 
  553000    1.1789754   -7.3379894    196.90271  0.029671898  0.030342919            3 
  554000    1.1622191   -7.3670215    196.69085  0.029586469  0.030336398            3 
  555000    1.1532724   -7.2979284    197.40044  0.029639706  0.030330262            2 
  556000    1.1658466    -7.344399     197.4156  0.029588669   0.03032425            2 
  557000    1.1628653   -7.3352858    198.28555  0.029665702  0.030318162            2 
  558000     1.179279   -7.3822885    197.80905  0.029541376  0.030311961            2 
  559000    1.1268646   -7.3435813    198.94845  0.029658385  0.030305898            3 
  560000    1.1803653   -7.3381947    199.01795  0.029615766  0.030300337            2 
  561000    1.1723836   -7.3866569     198.5871  0.029498975  0.030293857            2 
  562000    1.1835882    -7.399266     198.7955  0.029477387  0.030286705            2 
  563000     1.186738   -7.3254619    199.79439  0.029572882  0.030279699            1 
  564000    1.1494087   -7.3474634    199.35886  0.029456096  0.030272739            1 
  565000    1.1627431   -7.3321424    200.19568  0.029527387   0.03026502            2 
  566000    1.1606079   -7.3379768    200.23633  0.029481204  0.030257252            1 
  567000    1.1630309   -7.3922823    200.31818  0.029441238  0.030249451            3 
  568000    1.1565505   -7.3434666    200.60034  0.029430802  0.030240976            2 
  569000     1.183773   -7.4173258     199.5264  0.029221793  0.030232626            2 
  570000    1.1619425   -7.3507764    201.46089  0.029453347  0.030223802            2 
  571000     1.162473   -7.3257828    201.20625  0.029364601  0.030215262            2 
  572000    1.1643795   -7.3360185    200.95598  0.029276803  0.030206468            1 
  573000    1.1621465   -7.3309159    201.52847  0.029308968  0.030197626            3 
  574000    1.1601163   -7.3401812    201.59533  0.029267615  0.030189273            2 
  575000    1.1490128    -7.362937    202.46027  0.029342068  0.030180916            2 
  576000    1.1689789   -7.3696318    202.46956   0.02929247  0.030172146            2 
  577000    1.1619649   -7.4068646    202.33092   0.02922168  0.030163208            3 
  578000    1.1483508   -7.3587404    203.11251  0.029283811   0.03015456            5 
  579000    1.1535848   -7.3472032    203.68924  0.029316241  0.030146005            1 
  580000    1.1827339   -7.3370723    203.80284  0.029282018  0.030138015            3 
  581000     1.152928   -7.3515202    203.85757  0.029239468  0.030129938            4 
  582000    1.1600576   -7.3838915    204.63999  0.029301259  0.030122149            3 
  583000    1.1719606   -7.3727452    204.64303  0.029251434  0.030114491            3 
  584000    1.1593596   -7.3131393    205.39848  0.029309144  0.030106872            2 
  585000    1.1454284   -7.3429428    205.71778  0.029304526  0.030099018            3 
  586000    1.1725448   -7.3777238    205.62954  0.029241971  0.030091281            1 
  587000    1.1608369   -7.4135418    205.63255  0.029192582  0.030082797            1 
  588000    1.1820785   -7.3674985    205.74009  0.029158176   0.03007406            3 
  589000    1.1580468   -7.3592842    206.86665  0.029268061  0.030065482            2 
  590000    1.1625113   -7.3679667    206.60931  0.029182106  0.030056832            1 
  591000    1.1184077   -7.3562713    207.81155  0.029302248  0.030048108            1 
  592000    1.1363018   -7.3528436    207.25171  0.029173946  0.030040025            2 
  593000    1.1490922    -7.375186    208.49245  0.029299108  0.030032643            2 
  594000    1.1485591   -7.4006151     208.3667  0.029232141  0.030025228            4 
  595000    1.1575429   -7.3744123    208.52738  0.029205515  0.030017486            2 
  596000    1.1412503   -7.3517462    208.64666   0.02917319  0.030009528            4 
  597000    1.2108825   -7.3963002    208.68363  0.029129484  0.030001426            1 
  598000    1.1561518   -7.3297754    208.74459  0.029089269  0.029993291            2 
  599000    1.1680219   -7.3524173    209.91523  0.029203566  0.029984948            1 
  600000    1.1513339   -7.3764321    210.05085   0.02917373  0.029976948            1 
  601000      1.15767   -7.3409793    210.87664  0.029239689  0.029968983            1 
  602000    1.1736025   -7.3560934    210.80746  0.029181542  0.029961416            2 
  603000    1.1515279   -7.3761071    211.05066  0.029166758  0.029953816            3 
  604000    1.1511113   -7.3646725    211.02163  0.029114463  0.029945345            2 
  605000    1.1725057   -7.3707084    211.24145  0.029096618  0.029936927            1 
  606000    1.1582648   -7.4007274    210.45401   0.02894032  0.029927986            2 
  607000    1.1560207   -7.3584596    211.49485  0.029035537  0.029918932            2 
  608000    1.1424124    -7.379505    211.92012  0.029046068  0.029909942            2 
  609000     1.155769    -7.371762    211.87695  0.028992467  0.029900951            3 
  610000    1.1653969   -7.3718159    211.84875  0.028941086  0.029891934            2 
  611000    1.1625618   -7.3201376    213.50145  0.029119128  0.029883014            2 
  612000    1.1399249   -7.3606139    213.67723  0.029095483  0.029874273            3 
  613000    1.1548393     -7.38769    212.83242  0.028933173  0.029865394            3 
  614000    1.1678731   -7.3811303    213.69514  0.029003141   0.02985618            3 
  615000    1.1651106   -7.3760419    213.68805   0.02895502  0.029847072            2 
  616000    1.1735156   -7.3642193    213.28346  0.028853282  0.029837915            2 
  617000    1.1354765   -7.3598148    214.06844  0.028912539  0.029828479            2 
  618000    1.1454389   -7.3548688    214.92189  0.028980838  0.029819202            2 
  619000    1.1485477   -7.3700688    214.90833  0.028932193  0.029809983            4 
  620000    1.1448656   -7.3777662    214.87986  0.028881702  0.029800819            6 
  621000    1.1725823   -7.3657689    215.50392  0.028918937  0.029791925            1 
  622000    1.1632983   -7.3866512    216.06841  0.028948072  0.029782494            1 
  623000    1.1560242     -7.40316    215.96027  0.028887142  0.029773256            1 
  624000    1.1283843   -7.3352655    217.15353  0.029000204  0.029764155            1 
  625000    1.1202711   -7.3443741    216.54249  0.028872332  0.029755163            2 
  626000    1.1404913   -7.3997682     216.9644  0.028882375  0.029746176            2 
  627000    1.1568472   -7.3524156    216.88848  0.028826221  0.029736943            3 
  628000    1.1399492   -7.4023187    216.55153  0.028735606  0.029727506            2 
  629000    1.1587489   -7.3632945    217.62249  0.028831809  0.029717918            3 
  630000    1.1226324   -7.3814545    217.95944  0.028830614  0.029708451            3 
  631000    1.1534808    -7.386107    218.64462  0.028875411  0.029699044            2 
  632000    1.1599785   -7.4072779    218.89336  0.028862522  0.029689739            3 
  633000    1.1407027   -7.3711387    219.16865  0.028853166  0.029681031            2 
  634000    1.1332577   -7.4101559    219.25926  0.028819566  0.029671908            4 
  635000    1.1554608   -7.3653672    219.95877   0.02886598  0.029662594            2 
  636000    1.1218924   -7.4218872    218.78389  0.028666652  0.029653235            1 
  637000    1.1735442   -7.4003212    219.45996  0.028710094  0.029644036            3 
  638000    1.1401306   -7.3678768    220.55883  0.028808624  0.029634256            3 
  639000    1.1720773   -7.4383223    219.95636  0.028684971  0.029624657            2 
  640000     1.140406   -7.3456945    220.21197  0.028673433   0.02961475            1 
  641000     1.143596   -7.4010124    220.78617   0.02870335  0.029605096            1 
  642000    1.1472122   -7.4269342    220.75107  0.028654085  0.029595539            1 
  643000    1.1446863   -7.3359713    221.60658  0.028720397  0.029585963            3 
  644000      1.14034   -7.3454932    222.06748  0.028735439  0.029576974            1 
  645000    1.1465219   -7.3728886    222.61494   0.02876162   0.02956777            6 
  646000    1.1145181   -7.3728758    223.49685  0.028830863  0.029559468            4 
  647000     1.155953   -7.3463546    224.52875  0.028919211  0.029551254            1 
  648000    1.1216133   -7.4076241    224.02426  0.028809704  0.029543435            2 
  649000    1.1352366   -7.3758289    224.27407   0.02879739  0.029535267            1 
  650000    1.1709591   -7.3792221    224.70622   0.02880849  0.029526994            2 
  651000    1.1838641   -7.3857973    224.49562  0.028737278  0.029518538            1 
  652000    1.1302322   -7.3596707    226.03645   0.02889014  0.029510529            2 
  653000    1.1512003   -7.3889153    225.66945  0.028799062   0.02950223            4 
  654000    1.1427121    -7.443278    225.03669  0.028674399  0.029493737            2 
  655000    1.1476659   -7.4001405    225.54776  0.028695643  0.029485242            2 
  656000     1.138871   -7.3842764    226.71986  0.028800795  0.029476511            2 
  657000    1.1448891   -7.4325278    225.35432  0.028583754  0.029467642            2 
  658000    1.1295891   -7.4242126    225.89292  0.028608526  0.029458773            2 
  659000    1.1370124     -7.37984    226.32704   0.02862001  0.029449937            4 
  660000    1.1291829   -7.4301925    227.05544  0.028668616  0.029441246            2 
  661000    1.1406413   -7.4137894    226.63144   0.02857179  0.029432575            1 
  662000    1.1409776   -7.3854714    227.94987  0.028694595  0.029424215            3 
  663000    1.1375075   -7.3476692    227.56932  0.028603484  0.029415601            2 
  664000    1.1394061   -7.3939988    228.18573  0.028637768  0.029407003            2 
  665000    1.1308106   -7.3620665    229.14784  0.028715268  0.029398327            2 
  666000    1.1274337    -7.382594    228.36707  0.028574458  0.029389759            2 
  667000    1.1471543   -7.4285154    228.93792  0.028602938  0.029380993            2 
  668000    1.1298485   -7.3510456    229.62164  0.028645414  0.029372377            2 
  669000    1.1479339   -7.3952666    229.95109  0.028643634  0.029364135            3 
  670000    1.1154821   -7.4128272    230.12943  0.028623063  0.029355576            2 
  671000    1.1377625   -7.4039253    230.31151  0.028603019  0.029347202            2 
  672000    1.1325971    -7.377659    231.04825  0.028651817  0.029338775            2 
  673000    1.1695974   -7.4136061    230.61315  0.028555367  0.029330437            3 
  674000    1.1387385   -7.3557541    231.07735  0.028570395  0.029321934            1 
  675000    1.1432527   -7.3870381    232.01075  0.028643302  0.029313431            2 
  676000    1.1487089   -7.3816358    232.74936  0.028691982  0.029305321            1 
  677000    1.1412173   -7.3615448    232.84939  0.028661914  0.029297243            2 
  678000    1.1334341   -7.4527155    232.44754  0.028570248  0.029288948            2 
  679000    1.1526402   -7.3742636    233.38389  0.028643089  0.029280883            2 
  680000    1.1527108   -7.3786838    233.48516  0.028613378  0.029272764            2 
  681000    1.1386374   -7.3816832    233.36465  0.028556614  0.029264586            1 
  682000    1.1508055   -7.3913554     234.1278  0.028607991  0.029256289            2 
  683000    1.1295871   -7.4122256    233.50739  0.028490409  0.029248073            3 
  684000    1.1281321   -7.4066007    234.20267  0.028533464  0.029239621            3 
  685000    1.1359665   -7.4273644     234.6555  0.028546898  0.029231443            1 
  686000    1.1446996   -7.3897454    234.51357  0.028488043  0.029223199            2 
  687000    1.1215003   -7.4377942    234.69127  0.028468131  0.029214774            1 
  688000    1.1441055   -7.3845706    235.63026  0.028540487  0.029206663            1 
  689000    1.1306273    -7.346506    236.83784  0.028645118  0.029198618            1 
  690000    1.1359869     -7.38451    236.49007  0.028561603  0.029190356            2 
  691000    1.1487983   -7.3897124    236.46499  0.028517245  0.029181852            3 
  692000    1.1438644   -7.4396664    236.18818    0.0284427  0.029173512            1 
  693000    1.1384588   -7.4367258    236.73115   0.02846695  0.029165168            2 
  694000    1.1600837   -7.4410797     236.3791  0.028383658   0.02915644            2 
  695000    1.1195907   -7.4036526    238.78071  0.028630781  0.029148325            1 
  696000    1.1316178   -7.3907787    237.64499  0.028453663  0.029140479            2 
  697000    1.1298136   -7.3940434    237.96294  0.028450853  0.029132189            1 
  698000    1.1418339   -7.4243545    237.60864  0.028367793  0.029123688            2 
  699000     1.150324   -7.3923879    238.64214  0.028450422  0.029115024            1 
  700000    1.1373515   -7.4148709    238.67379  0.028413546  0.029106639            3 
  701000    1.1253163    -7.422609    238.55034  0.028358338  0.029098244            2 
  702000    1.1535374   -7.3966634    238.61354  0.028325444  0.029089855            1 
  703000    1.1381404   -7.4227559    239.48041   0.02838791  0.029081454            1 
  704000    1.1180796   -7.3378299    240.61932  0.028482401  0.029073562            3 
  705000    1.1353235   -7.3933484    240.60176  0.028439925  0.029065369            2 
  706000    1.1029546   -7.4002444    240.35689  0.028370737  0.029056984            2 
  707000    1.1475069   -7.3804095    241.67711  0.028486222  0.029048779            2 
  708000    1.1371503    -7.389237    242.00851  0.028484994  0.029041073            2 
  709000    1.1316504   -7.3825776    242.43396  0.028494824  0.029033836            2 
  710000    1.1170345   -7.3916296    242.71491  0.028487666  0.029026583            1 
  711000    1.1225779   -7.4123572    242.67813  0.028443287  0.029019321            2 
  712000    1.1274639   -7.4156502    242.61458  0.028395902  0.029012072            3 
  713000      1.14441   -7.3907569    243.84925   0.02850038  0.029004934            2 
  714000    1.1397095   -7.4209961     243.5055  0.028420343  0.028997478            3 
  715000     1.155958   -7.4363062    244.16578   0.02845755  0.028990131            1 
  716000    1.1222555   -7.4093959    243.82129   0.02837771  0.028982367            2 
  717000    1.1308942   -7.3968397    244.62242  0.028431243  0.028974931            2 
  718000    1.1320656   -7.4467773    245.04957  0.028441222  0.028967141            4 
  719000    1.1481073   -7.3866933    245.50706   0.02845469  0.028959802            1 
  720000    1.1496109   -7.4033157    245.98592  0.028470593  0.028952563            2 
  721000    1.1321048   -7.4337164    245.75302  0.028404186  0.028945025            2 
  722000    1.1370639   -7.4380256    245.31828  0.028314668  0.028937298            1 
  723000    1.1315811   -7.4415919    245.95669  0.028349088  0.028929683            2 
  724000    1.1137779   -7.4275235    246.75086  0.028401342  0.028922069            1 
  725000     1.143585   -7.4023472    246.90175  0.028379512   0.02891458            1 
  726000    1.1340058   -7.4116704    247.53492  0.028413099  0.028906963            2 
  727000     1.150872   -7.4313394    247.35818  0.028353757  0.028899607            1 
  728000    1.1047913   -7.4191081    247.99775  0.028388021  0.028892126            4 
  729000    1.1590239   -7.3857482    247.87479  0.028335023    0.0288849            1 
  730000    1.1177326   -7.4568715    246.84262  0.028178382  0.028877398            2 
  731000    1.1272122   -7.4012415    248.53594  0.028332871  0.028869708            1 
  732000    1.1410158   -7.4493017    248.69451  0.028312216  0.028862101            1 
  733000    1.1275394   -7.4056221    249.76815  0.028395652  0.028854355            3 
  734000    1.1394583   -7.3962434    249.44257  0.028320002  0.028846758            2 
  735000    1.1293617   -7.3868326    249.85252   0.02832795  0.028839393            1 
  736000    1.1169317   -7.4346129    249.72321   0.02827482  0.028831639            1 
  737000    1.1625802   -7.4072512    250.10978  0.028280165  0.028824052            3 
  738000    1.1281162   -7.4381384     250.4651  0.028281967  0.028816683            2 
  739000    1.1168184   -7.3762949    251.09063  0.028314235  0.028809144            1 
  740000    1.1291311   -7.4019112    251.69752  0.028344316  0.028801914            6 
  741000      1.15309   -7.4006014    251.32175  0.028263804  0.028794665            2 
  742000    1.1375355   -7.4699444    251.46814  0.028242154  0.028787722            2 
  743000    1.1588188   -7.4343973    251.61623  0.028220753  0.028780512            3 
  744000    1.1545694   -7.4142673    252.74893  0.028309692  0.028773194            3 
  745000     1.115679   -7.4089076    253.21592  0.028323928  0.028766318            1 
  746000    1.1273697   -7.4184903    253.81829  0.028353249  0.028759421            1 
  747000    1.1363103   -7.4166933    253.93474  0.028328284  0.028752747            1 
  748000    1.1228615   -7.4417244     253.3272  0.028222727  0.028745804            3 
  749000     1.143793   -7.4174358    254.09921  0.028270941  0.028738894            2 
  750000    1.1514998   -7.4504461    253.96976  0.028218862   0.02873237            1 
  751000    1.0958165   -7.4326707    255.24236  0.028322499   0.02872571            4 
  752000    1.1146738   -7.4296098    255.39159  0.028301373  0.028719554            2 
  753000    1.1264929   -7.3800437    255.90323   0.02832041  0.028712787            1 
  754000    1.1244427   -7.3959975    256.22667  0.028318597  0.028706255            2 
  755000    1.1406369   -7.4303965    256.07284  0.028264111  0.028699962            2 
  756000    1.0960207   -7.3838621    257.36627  0.028369298  0.028693776            3 
  757000    1.1158636   -7.4252429    256.05432  0.028187397  0.028687133            1 
  758000    1.1231727   -7.4436978    256.89076  0.028242168  0.028680531            3 
  759000    1.1278923    -7.476664    256.58375  0.028171251  0.028673842            2 
  760000    1.1250773   -7.4662674    257.06185  0.028186607  0.028666725            2 
  761000    1.1362666   -7.4031744    258.68474  0.028327282   0.02865955            4 
  762000    1.1502474   -7.4105613    258.65528  0.028286885  0.028652992            2 
  763000    1.1129027   -7.4676187    257.67926  0.028143213  0.028646014            4 
  764000    1.1195357   -7.4134594     258.1024   0.02815253  0.028639248            1 
  765000    1.1252922   -7.3919026    259.87371  0.028308683  0.028632618            2 
  766000    1.1577886   -7.4050325    258.40583  0.028112036  0.028626084            4 
  767000     1.129396   -7.4084965    259.89017  0.028236654  0.028619471            1 
  768000    1.0966584   -7.4218827    259.45794  0.028152988  0.028612778            2 
  769000     1.120652   -7.4460617     259.4479   0.02811529  0.028606179            2 
  770000    1.1399911   -7.4010395    259.72551  0.028108822  0.028599265            2 
  771000    1.1324704   -7.4529815    260.46989   0.02815282  0.028592041            1 
  772000     1.123876   -7.4115384    260.13378  0.028080071  0.028584577            1 
  773000    1.1259176   -7.4194895    260.68599  0.028103277  0.028577519            3 
  774000    1.1391484    -7.437155     261.2556  0.028128294  0.028570314            1 
  775000    1.1324034   -7.3871359     260.9428  0.028058366   0.02856269            2 
  776000    1.1129705   -7.4216131    260.58037  0.027983287  0.028554765            1 
  777000    1.1137818   -7.4116337    261.10545  0.028003587  0.028546737            1 
  778000    1.1305688   -7.5018381    259.96698  0.027845649  0.028538557            4 
  779000    1.1235006   -7.4024184    261.81557  0.028007656  0.028530369            1 
  780000     1.130005   -7.4350876    261.15076  0.027900722  0.028522562            2 
  781000    1.1248594   -7.4561367    261.55093  0.027907696  0.028514622            3 
  782000    1.1296364   -7.4532103     261.9052  0.027909762  0.028506429            2 
  783000    1.1129733   -7.4205364    261.96687   0.02788068  0.028498503            2 
  784000    1.1335903   -7.4069619    263.74592  0.028034218  0.028490786            1 
  785000    1.1321707   -7.4349987    263.25804  0.027946713    0.0284831            2 
  786000    1.1101901     -7.40346    263.28284  0.027913787  0.028475133            1 
  787000    1.1189655     -7.44597    264.04624  0.027959153  0.028467553            2 
  788000    1.1211159   -7.4580665    263.82858  0.027900653  0.028459734            2 
  789000    1.1056342   -7.3913287    264.68163   0.02795539  0.028451996            1 
  790000    1.1342464    -7.424831    264.47456  0.027898161  0.028443944            2 
  791000    1.1379782   -7.4358637    263.73291  0.027784757  0.028435583            1 
  792000    1.1104606   -7.4462148    264.23524  0.027802529  0.028427281            2 
  793000    1.1367915   -7.4252989    265.21771  0.027870714  0.028419215            2 
  794000    1.1108718    -7.440197    264.82286  0.027794171  0.028411266            1 
  795000    1.1062613   -7.4086327    266.08018  0.027891004  0.028403515            2 
  796000     1.126936    -7.414497    266.27003  0.027875841  0.028395634            2 
  797000    1.1235601   -7.4713153    265.62436  0.027773355  0.028387553            3 
  798000    1.1080645   -7.4603701    266.52918  0.027833039  0.028379743            5 
  799000    1.1303416   -7.4623435    266.47043  0.027792077  0.028371995            4 
  800000    1.1264373   -7.4214261    267.91388  0.027907696  0.028363966            2 
  801000    1.1111164    -7.436622    266.57624  0.027733692  0.028356209            1 
  802000    1.1327211   -7.4350843    268.00168  0.027847224  0.028348201            2 
  803000    1.1309936   -7.4745384    266.98619  0.027707159  0.028339977            2 
  804000    1.1240052   -7.4434439    267.87488  0.027764809  0.028331858            3 
  805000    1.1374079   -7.4873653    267.51336  0.027692894  0.028323749            2 
  806000    1.1291323   -7.4330805    268.08137  0.027717263  0.028315796            2 
  807000    1.1183346   -7.4399688    268.61399  0.027737918  0.028307895            5 
  808000    1.1314151   -7.4375753    270.25219  0.027872544  0.028300184            2 
  809000    1.1158082    -7.472968    268.83697  0.027692312  0.028292249            2 
  810000    1.1362933   -7.4409584    269.56867  0.027733403   0.02828462            1 
  811000    1.1311492   -7.4518162    269.52206  0.027694416  0.028276647            1 
  812000    1.1258157   -7.4580037     268.9193   0.02759845  0.028268634            2 
  813000    1.1326585   -7.4507284    270.05826  0.027681249   0.02826076            2 
  814000    1.1226011   -7.4740123    271.14654  0.027758655  0.028252926            1 
  815000    1.1095568   -7.4323842     271.5795  0.027768865  0.028244883            2 
  816000    1.1356926   -7.4717864    270.98671  0.027674296  0.028236723            1 
  817000    1.1090146   -7.4185643     271.8086  0.027724256  0.028228625            3 
  818000    1.1349269   -7.4150015    271.69314    0.0276786  0.028220757            2 
  819000    1.1211707   -7.4592886    271.60041  0.027635369  0.028212515            1 
  820000    1.0901757   -7.4553834     272.5544  0.027698618   0.02820423            2 
  821000    1.1057522   -7.4442696    272.47578  0.027656901  0.028196147            9 
  822000     1.091608   -7.4200768    272.73852  0.027649891  0.028188249            2 
  823000    1.1127256   -7.4448779    272.38619  0.027580618   0.02818034            1 
  824000    1.1338691   -7.4304487    273.56666  0.027666531  0.028172332            1 
  825000    1.1169432   -7.4720786    273.71106  0.027647582  0.028164162            2 
  826000    1.1021515   -7.4618505    274.36957  0.027680546  0.028156257            2 
  827000    1.1109524   -7.4778916    274.43494  0.027653662  0.028148513            2 
  828000    1.1168116   -7.4665604    275.26046  0.027703347  0.028140883            1 
  829000    1.0934105   -7.4416655    274.24476  0.027567828  0.028133216            3 
  830000    1.1160822   -7.4399178    275.33895  0.027644473  0.028125519            1 
  831000    1.1151411    -7.384816    276.33566  0.027711157  0.028118162            2 
  832000    1.1381066   -7.4910274    275.12903  0.027556994  0.028110445            3 
  833000    1.1192249    -7.468391    275.70836  0.027581869  0.028102665            2 
  834000    1.1180401   -7.4509517    276.01466  0.027579402  0.028094827            2 
  835000    1.1183616   -7.4786222    276.34765  0.027579605  0.028086981            2 
  836000     1.096846   -7.4337255    276.84714  0.027596405  0.028079286            5 
  837000    1.1052411   -7.4920469    276.18883  0.027497892  0.028071368            1 
  838000    1.1678516   -7.4917357    276.07143  0.027453404  0.028063344            4 
  839000    1.1278773   -7.4895632    276.82837  0.027495865  0.028055234            2 
  840000    1.1076868   -7.4738393    276.92885    0.0274731  0.028047307            4 
  841000    1.1234301   -7.4610571    278.60342  0.027606364  0.028039605            1 
  842000    1.1066987   -7.4551703    277.67735  0.027481923  0.028031565            2 
  843000     1.121469   -7.4374936    278.90059  0.027570244   0.02802402            1 
  844000    1.0998372    -7.515644    277.31372  0.027380896  0.028016036            3 
  845000     1.147974   -7.4543052    277.96106  0.027412334  0.028007809            3 
  846000     1.109522   -7.4542034    279.54898  0.027536345  0.027999687            2 
  847000    1.0834436   -7.4859784    278.87939  0.027437956  0.027991803            5 
  848000    1.1004008   -7.4703874     279.2205  0.027439121  0.027983896            1 
  849000    1.0969483   -7.4586875    280.21924  0.027504833  0.027976309            3 
  850000    1.1344819   -7.5076402    279.79194  0.027430582  0.027968413            1 
  851000    1.1097941   -7.4569081    280.23581  0.027441815  0.027960272            2 
  852000    1.0912875   -7.4681727    280.84054  0.027468754  0.027952188            1 
  853000    1.1015497   -7.4804993    279.69084  0.027324232   0.02794402            2 
  854000    1.0918834   -7.4940652    280.03037  0.027325367   0.02793545            3 
  855000    1.1369963   -7.5144767    280.76299  0.027364814  0.027927105            1 
  856000    1.1113604   -7.4414519    281.97648  0.027450981  0.027919064            2 
  857000    1.1213109    -7.455685    281.30183  0.027353348    0.0279111            1 
  858000    1.1254255   -7.4854066    282.05748   0.02739486   0.02790314            1 
  859000    1.0867129   -7.5172188    281.52975  0.027311772  0.027894701            1 
  860000    1.1277483   -7.4917003    281.31233  0.027258947  0.027886305            1 
  861000    1.1169565    -7.473192     282.7557  0.027366986  0.027878109            2 
  862000    1.0879103   -7.4245426    283.57383   0.02741433  0.027870185            1 
  863000    1.1167618   -7.4614319    283.90119  0.027414174  0.027862353            3 
  864000    1.1199448   -7.4739366    283.53031  0.027346673  0.027854482            2 
  865000     1.113251   -7.4475833    284.25518  0.027384892  0.027846599            2 
  866000    1.1003319   -7.4697499    284.05645  0.027334147  0.027838943            1 
  867000    1.1138746   -7.4941111    285.07462  0.027400483  0.027831568            2 
  868000    1.1173409   -7.4613084    285.04498   0.02736607  0.027824041            1 
  869000    1.1164065   -7.4614993     285.7997  0.027406952  0.027816539            2 
  870000     1.109304   -7.4680527    285.15708  0.027313896   0.02780894            2 
  871000    1.1163608   -7.4512703    286.47183  0.027408327  0.027801187            2 
  872000    1.1087721   -7.4677306    285.36911  0.027271513  0.027793613            1 
  873000    1.0847326   -7.5001651    286.82755  0.027379491  0.027786143            6 
  874000     1.093618   -7.5029324    285.58168  0.027229374  0.027778413            1 
  875000    1.1045416   -7.4523008    287.14975  0.027347596   0.02777072            4 
  876000    1.0961272   -7.4626817    287.08918  0.027310615  0.027763043            2 
  877000    1.1148662   -7.4991467    286.15469  0.027190677  0.027755359            3 
  878000     1.131954   -7.4945411    287.71678   0.02730797    0.0277475            3 
  879000    1.0771106   -7.5102735    286.86782  0.027196418  0.027739829            1 
  880000    1.1137344   -7.5050224     288.1212  0.027284205  0.027731848            2 
  881000    1.1224015   -7.4384634     288.7048  0.027308437  0.027724258            6 
  882000    1.1285907   -7.4492687    288.50339  0.027258446  0.027716736            1 
  883000    1.1206002   -7.4467075    290.07789  0.027376169  0.027709462            2 
  884000    1.1032783   -7.4759962    288.70763  0.027216029    0.0277016            2 
  885000    1.1337791    -7.460174    289.10083    0.0272223  0.027694056            2 
  886000    1.1106104    -7.487772    289.68105  0.027246148  0.027686581            2 
  887000    1.1116882   -7.4815455    290.17352  0.027261698  0.027679127            3 
  888000    1.1029802   -7.4932763    291.12362   0.02732016  0.027671834            2 
  889000    1.0897058   -7.5184958    289.94828  0.027179253  0.027664591            3 
  890000    1.1140717   -7.4997251     290.8746  0.027235449  0.027657131            3 
  891000    1.1203163   -7.4602163    291.91072  0.027301788  0.027649866            1 
  892000    1.1084541   -7.4732666    291.37572  0.027221199  0.027642538            2 
  893000    1.1073542   -7.5029921    291.24745  0.027178747  0.027635264            2 
  894000     1.111313   -7.4513861    292.94593  0.027306668   0.02762804            2 
  895000     1.111442   -7.4536572    292.35962  0.027221566  0.027620663            2 
  896000    1.1177407   -7.4664902    293.46505  0.027293996   0.02761345            3 
  897000    1.1146573   -7.4538326    293.75936   0.02729091  0.027606442            1 
  898000    1.1187235   -7.4640785    293.05472   0.02719513  0.027599162            2 
  899000    1.1151799   -7.5058994    292.90933  0.027151402  0.027591601            2 
  900000    1.1129851   -7.5158093    293.61206  0.027186302  0.027584339            1 
  901000    1.1036501   -7.5084473    294.08404  0.027199782  0.027577448            2 
  902000    1.0857633   -7.4569969     295.2524  0.027277569  0.027570333            3 
  903000    1.0889838   -7.5151847    294.72018  0.027198245   0.02756312            2 
  904000    1.1090726   -7.4625854    294.55704  0.027153119  0.027555794            2 
  905000    1.1134157   -7.4677244    295.46993  0.027207176  0.027548507            1 
  906000    1.0883199   -7.5436923    293.92679  0.027035209   0.02754102            3 
  907000    1.1047699    -7.460115    295.97945  0.027193996  0.027533815            1 
  908000    1.1110746   -7.4574482    296.97236  0.027255173   0.02752674            3 
  909000    1.1183423   -7.4723112     297.0659  0.027233765  0.027519694            1 
  910000    1.1235908   -7.4526976    297.59903  0.027252659  0.027512838            1 
  911000    1.1022508   -7.4726626    296.83444  0.027152803   0.02750593            2 
  912000    1.1119246   -7.4843196    296.98255  0.027136563  0.027498647            2 
  913000     1.095844   -7.5012393     296.8369  0.027093547  0.027491231            2 
  914000    1.1196136   -7.5037371    296.60663   0.02704291  0.027483785            2 
  915000    1.0945402   -7.4575481    297.36211  0.027082159  0.027476514            1 
  916000     1.104884   -7.5001572    298.26778  0.027134987   0.02746923            2 
  917000    1.1082119   -7.4918174    298.67351  0.027142267  0.027461844            2 
  918000    1.0853405   -7.4349332    299.54512  0.027191823  0.027454845            2 
  919000    1.1022388   -7.5107569     298.4407  0.027062087  0.027447869            1 
  920000     1.102518    -7.510439    298.64595  0.027051264  0.027440612            2 
  921000    1.0862943    -7.541416    298.80116  0.027035935  0.027433152            2 
  922000    1.0914781   -7.5042764    299.41101  0.027061733  0.027425759            1 
  923000    1.1102892   -7.4595833    300.15559  0.027099638  0.027418314            1 
  924000    1.0998973   -7.4978403    298.41347  0.026913192  0.027410899            2 
  925000     1.099844   -7.4971994     298.9125  0.026929054  0.027403569            2 
  926000    1.0890559   -7.4753166    299.89071  0.026988005  0.027396223            2 
  927000    1.1078266   -7.5233069    300.42993  0.027007365  0.027388787            1 
  928000    1.1143727   -7.5533663    299.53777  0.026898148  0.027381137            1 
  929000    1.0909816   -7.4959825    301.16662  0.027015305  0.027373622            1 
  930000    1.1000225     -7.49968    299.57489  0.026843628  0.027366037            3 
  931000    1.1146825   -7.5282063    300.53455  0.026900694  0.027358588            2 
  932000    1.0994407   -7.4878496     301.7788  0.026983083  0.027351223            2 
  933000    1.1120223   -7.4811265    301.84878  0.026960413  0.027344137            1 
  934000    1.0969887   -7.4996123    302.27881  0.026969916  0.027336747            1 
  935000    1.0816988   -7.4785073    302.34908  0.026947334  0.027329604            1 
  936000    1.1132122   -7.4868684    303.08015  0.026983631  0.027322317            2 
  937000    1.0890996     -7.51012    302.88284  0.026937286  0.027315014            1 
  938000    1.1051102   -7.4877438    303.91163  0.026999968  0.027307575            3 
  939000    1.1007408   -7.5241948    302.26049   0.02682468  0.027300047            1 
  940000    1.0980446   -7.4781902    304.31148  0.026977968  0.027292771            1 
  941000    1.1048314   -7.4616202    303.65255  0.026890945  0.027285511            9 
  942000    1.1051129   -7.5070304    303.78748  0.026874335  0.027278097            5 
  943000    1.0927524   -7.4800893    305.14934  0.026966184  0.027270799            2 
  944000    1.0959667   -7.4700496      305.215  0.026943414  0.027263643            2 
  945000    1.1130449   -7.5246334    304.83534  0.026881423  0.027256261            2 
  946000    1.1105396   -7.4896828    305.34557  0.026897954   0.02724901            2 
  947000    1.0961697   -7.5383143     305.1042  0.026848311  0.027241847            2 
  948000    1.0863835   -7.5179017    305.88813  0.026888901  0.027234625            2 
  949000    1.1085251   -7.5011501    305.38275  0.026816188  0.027227015            2 
  950000    1.0892794   -7.4744889    306.38487  0.026875866  0.027219789            2 
  951000    1.1046368   -7.4764799    306.29733  0.026839934  0.027212538            2 
  952000    1.1012569   -7.5116325    305.89672  0.026776674  0.027205163            2 
  953000    1.1111988   -7.5446438    306.36409  0.026789445  0.027197643            5 
  954000    1.1179961   -7.5127629    307.65196  0.026873861   0.02719032            2 
  955000    1.1072741   -7.5351697     306.2874  0.026726649  0.027182911            2 
  956000    1.1122928   -7.4995666    307.05655  0.026765739  0.027175548            2 
  957000    1.1145022   -7.5362442    306.10347  0.026654778  0.027168159            4 
  958000    1.0754181    -7.487494    307.96219  0.026788638  0.027160776            2 
  959000    1.1055261   -7.5303188    308.18149  0.026779761  0.027153248            1 
  960000      1.09334   -7.5338555    307.89728  0.026727194  0.027145713            1 
  961000      1.10134   -7.5351082     308.2584  0.026730697  0.027138089            4 
  962000    1.0866056   -7.5185448    307.49464   0.02663675  0.027130636            2 
  963000    1.1419093    -7.528374    308.58838  0.026703737  0.027123139            2 
  964000    1.1158401   -7.5140769    310.08016  0.026804993  0.027115636            1 
  965000    1.1245131   -7.5203686    309.85879    0.0267581  0.027108354            1 
  966000    1.1054306   -7.5245974    309.47991  0.026697715  0.027101013            3 
  967000    1.0635067   -7.4583182    310.18405  0.026730786  0.027093522            3 
  968000    1.0815632   -7.5136626    309.56305  0.026649712  0.027086265            3 
  969000    1.0953645   -7.5431049    309.92482  0.026653321  0.027078963            3 
  970000    1.1011183   -7.5257805    309.95333  0.026628293  0.027071393            2 
  971000    1.0845117   -7.4812874    310.19838    0.0266219  0.027064046            2 
  972000    1.0854233    -7.507501    311.83891   0.02673516   0.02705683            4 
  973000    1.1019844   -7.5185833    311.30309  0.026661793  0.027049527            1 
  974000    1.1033908   -7.5361687    311.63665  0.026662958  0.027042276            3 
  975000    1.1139228   -7.5007646    312.30441  0.026692684  0.027035061            1 
  976000    1.1015492   -7.5284958    312.34194   0.02666854  0.027027874            2 
  977000    1.0949349   -7.5130713    311.94409  0.026607309  0.027020833            1 
  978000     1.106728   -7.4961325    313.65564   0.02672594  0.027013782            1 
  979000    1.0852158   -7.5325394    313.48359  0.026683996  0.027006869            1 
  980000    1.0755635   -7.4964786    313.47411  0.026655961  0.026999965            1 
  981000    1.1271854   -7.4822063    314.39308  0.026706853  0.026993149            2 
  982000    1.0846805     -7.52933    313.63921  0.026615683  0.026986138            2 
  983000    1.0887031   -7.5082806    314.72927  0.026681016  0.026979092            1 
  984000    1.1322064   -7.4854388    315.82419  0.026746628   0.02697231            1 
  985000    1.1108266   -7.5236275    315.42088  0.026685353   0.02696563            3 
  986000    1.0934084   -7.5573617    314.89104  0.026613509  0.026958522            3 
  987000    1.0946328   -7.5504932    315.70048  0.026654887  0.026951436            3 
  988000     1.106314    -7.560709    315.12258  0.026579165  0.026944578            2 
  989000     1.101297    -7.492815    316.60807  0.026677458   0.02693771            2 
  990000    1.0672894   -7.5198026     316.3303  0.026627129  0.026930876            2 
  991000    1.1010443   -7.5316578    315.65331  0.026543332   0.02692404            1 
  992000     1.075523   -7.4671727      317.578  0.026678259  0.026917062            2 
  993000    1.1202482   -7.5099393     317.1259  0.026613453  0.026910197            3 
  994000    1.1159029   -7.5227235    317.16873  0.026590269  0.026903391            2 
  995000    1.1160859   -7.4810949    318.04505  0.026636939  0.026896424            2 
  996000    1.0669552   -7.5198157    316.41257  0.026473608  0.026889488            1 
  997000    1.0934372   -7.5324029    317.94534  0.026575171  0.026882384            2 
  998000    1.0965443   -7.4914849    318.42129  0.026588284  0.026875438            1 
  999000    1.0821668   -7.5341263    318.88362  0.026600235  0.026868513            3 
 1000000    1.0850556   -7.5591036    318.62451  0.026552043  0.026861586            1 
 1001000     1.101666   -7.5242016     318.5881  0.026522486  0.026854514            2 
 1002000    1.0745286   -7.5388454    319.23742  0.026550018  0.026847682            1 
 1003000    1.1061773   -7.5150842     320.2863  0.026610693  0.026840877            3 
 1004000    1.0886305   -7.5153012    320.06789   0.02656606  0.026834169            3 
 1005000    1.0765872   -7.5304669    321.22253  0.026635368  0.026827307            6 
 1006000    1.0709215    -7.500801    321.18262  0.026605585  0.026820628            1 
 1007000    1.0825456     -7.50048    321.86559  0.026635683  0.026814019            2 
 1008000    1.0806361   -7.5061514    321.57611  0.026585326  0.026807725            2 
 1009000    1.0774299   -7.5244699    322.41275  0.026628076  0.026801499            1 
 1010000    1.0912849   -7.5264564    322.34459  0.026596088  0.026795181            2 
 1011000    1.0961377   -7.5432395    322.27969  0.026564432  0.026788832            4 
 1012000    1.0941989   -7.5116454    322.64997  0.026568673  0.026782566            3 
 1013000    1.0939517   -7.5257517    322.98192  0.026569753  0.026776306            3 
 1014000    1.0875114   -7.5435426    323.49347  0.026585591  0.026770016            4 
 1015000    1.1003258   -7.5217392    324.30131  0.026625723    0.0267637            1 
 1016000     1.082511   -7.5464089    323.62289  0.026543872  0.026757426            1 
 1017000    1.1115656   -7.5371282    324.46072  0.026586424  0.026751111            1 
 1018000    1.0894909   -7.5235064    324.52284  0.026565393  0.026744803            3 
 1019000    1.1138659    -7.532048    323.92922  0.026490777  0.026738567            2 
 1020000    1.1072664   -7.5213758    326.54358  0.026678397  0.026732293            4 
 1021000    1.0856886   -7.5178541    326.09507   0.02661566  0.026726269            4 
 1022000    1.0937985   -7.5177557    326.07486   0.02658797  0.026720399            2 
 1023000    1.0784788   -7.5632625    325.94354  0.026551282  0.026714372            2 
 1024000    1.0585846   -7.5236444    326.93335  0.026605904  0.026708409            1 
 1025000    1.0864057   -7.5533145    327.05879  0.026590146  0.026702402            1 
 1026000       1.0936   -7.5562233    326.18977  0.026493646  0.026696206            1 
 1027000    1.1008618   -7.4986531    327.33028  0.026560393  0.026690171            3 
 1028000    1.0689742   -7.5195943    327.96939  0.026586364  0.026684135            1 
 1029000    1.0967328   -7.5536156    327.39906  0.026514339  0.026678084            2 
 1030000    1.0736505   -7.5756949    327.18987  0.026471672  0.026672004            4 
 1031000    1.0944907   -7.5502189    327.54264   0.02647451  0.026665757            3 
 1032000    1.0713057   -7.5475799    327.44017  0.026440582  0.026659542            1 
 1033000    1.0805981   -7.5224848    327.55348  0.026424127  0.026653308            4 
 1034000    1.1176342   -7.5267016    329.29077  0.026538585  0.026647248            2 
 1035000    1.0716671   -7.5309898    329.21507  0.026506849  0.026641232            2 
 1036000    1.0819754   -7.5514585    329.88952  0.026535515  0.026634991            3 
 1037000    1.0732016   -7.5780383    328.72571  0.026416402  0.026628746            3 
 1038000    1.0918862    -7.503628    330.67455  0.026547411   0.02662267            1 
 1039000    1.0859433   -7.4805267    331.15474  0.026560374  0.026616856            1 
 1040000    1.0705595   -7.5539464    330.30558  0.026466793  0.026611068            2 
 1041000    1.0913519   -7.5482377    330.05961  0.026421679  0.026605227            2 
 1042000    1.0732514   -7.5465552      330.101  0.026399632  0.026599226            1 
 1043000    1.0616671   -7.5316337    330.51026   0.02640702  0.026592867            3 
 1044000    1.0786398   -7.5588918    330.11627  0.026350277  0.026586628            1 
 1045000    1.0727328   -7.5493038    331.26599  0.026416746  0.026580244            1 
 1046000    1.0997896   -7.5874959    331.36461  0.026399348  0.026573917            2 
 1047000    1.0588705   -7.5382263    331.84767  0.026412581  0.026567441            2 
 1048000    1.0963508   -7.5133491    332.09902  0.026407365  0.026561006            2 
 1049000    1.0803594   -7.5791669    331.44962  0.026330602   0.02655454            2 
 1050000    1.0812376   -7.5618657    331.50124  0.026309622  0.026548085            1 
 1051000    1.0586507   -7.5400429     331.7242  0.026302268  0.026541616            6 
 1052000    1.0643359   -7.5068905    332.15741  0.026311582  0.026535315            1 
 1053000    1.0855022   -7.5103832    333.00994  0.026354063  0.026528864            4 
 1054000    1.1124678   -7.5687479    332.66839  0.026302055  0.026522316            1 
 1055000    1.0872682   -7.5512045    332.78968  0.026286704  0.026515452            1 
 1056000    1.1081887   -7.5211746    332.98265   0.02627704  0.026508521            2 
 1057000    1.0824492   -7.5581208    332.60814  0.026222654   0.02650179            2 
 1058000    1.0722132    -7.573478    332.67453  0.026203098   0.02649495            3 
 1059000    1.0610179   -7.5336831    333.67686  0.026257228  0.026488155            4 
 1060000    1.1029097    -7.519303    334.04602   0.02626148  0.026481426            3 
 1061000    1.0691043   -7.5254219     334.5995  0.026280199  0.026474695            1 
 1062000    1.0860898   -7.5901068     333.3466  0.026157141  0.026467954            2 
 1063000    1.0991174   -7.5166883    333.30297  0.026129113  0.026460887            5 
 1064000    1.0766397   -7.5477357    333.76727   0.02614092  0.026454049            4 
 1065000      1.10894   -7.5456671    333.64484  0.026106795  0.026447131            2 
 1066000    1.0886973   -7.5567954    334.62158   0.02615866  0.026440206            2 
 1067000    1.0663421   -7.5150244     334.8687  0.026153445  0.026433187            1 
 1068000    1.0757283   -7.5618855    334.72777  0.026117959  0.026426121            2 
 1069000     1.054525   -7.5600925    335.11494  0.026123709  0.026418851            1 
 1070000    1.0927616   -7.5283439    335.01639  0.026091619  0.026411689            4 
 1071000    1.0716717   -7.5242148     335.2587  0.026086111  0.026404623            1 
 1072000    1.0840098    -7.557956    335.55878  0.026085104  0.026397626            1 
 1073000    1.1019777   -7.5158979     335.7621  0.026076584  0.026390552            1 
 1074000    1.0976364   -7.5039368    337.30954  0.026172373  0.026383536            2 
 1075000    1.0828316   -7.5401132    336.13615  0.026057066   0.02637651            3 
 1076000    1.0729569   -7.5284342    336.28774  0.026044589  0.026369617            2 
 1077000    1.1130213   -7.5525588    337.29752  0.026098539   0.02636289            2 
 1078000    1.0889027    -7.532544    336.89748  0.026043404  0.026355875            4 
 1079000    1.0977717   -7.5399551      337.803  0.026089203  0.026348908            2 
 1080000    1.0681308   -7.5320214    338.22951  0.026097956  0.026341929            4 
 1081000    1.0906582   -7.5595076    337.68901  0.026032147   0.02633498            2 
 1082000     1.072679   -7.5524383    338.10688  0.026040271  0.026327949            2 
 1083000     1.056312   -7.5394032    338.13779  0.026018605  0.026321003            3 
 1084000    1.1027971    -7.540799     337.1854  0.025921387   0.02631402            1 
 1085000    1.0680236   -7.5433945    340.19665  0.026128775  0.026306935            1 
 1086000    1.0699767   -7.5791834    338.11666  0.025945109  0.026299967            2 
 1087000    1.0854869   -7.5810272    338.87398  0.025979299  0.026292935            7 
 1088000    1.0866381   -7.5139581    340.19447  0.026056562  0.026285905            2 
 1089000    1.0775753   -7.5886841    340.61153  0.026064549  0.026278939            1 
 1090000    1.0799932   -7.5671286    339.36798  0.025945564  0.026271806            1 
 1091000    1.0782913   -7.5864036    339.33066  0.025918932  0.026264678            3 
 1092000    1.0858352   -7.5723486    340.14151  0.025957075  0.026257518            3 
 1093000    1.0897193    -7.555358    341.55487  0.026041085  0.026250384            2 
 1094000    1.0655965   -7.5462148    340.95847  0.025971852  0.026243377            2 
 1095000    1.0619684   -7.5925649     340.7858  0.025934992   0.02623643            1 
 1096000    1.1063953   -7.5320394    341.61476  0.025974358  0.026229323            1 
 1097000    1.1075719   -7.5701019    340.23339  0.025845745  0.026222244            3 
 1098000    1.0567916   -7.5801798     341.9759  0.025954455   0.02621523            2 
 1099000    1.0796491   -7.5580049    341.23379  0.025874567  0.026208281            6 
 1100000    1.0552444   -7.5710677    342.28611  0.025930766   0.02620129            3 
 1101000    1.0833162   -7.5750803    342.14771  0.025896739  0.026194415            3 
 1102000    1.0672306   -7.5247617    343.60578  0.025983499   0.02618752            2 
 1103000    1.0594042    -7.528813    342.44634  0.025872343  0.026180613            2 
 1104000    1.0925653   -7.5813075    342.22066  0.025831874  0.026173415            2 
 1105000     1.062622   -7.6179874    342.86194  0.025856858  0.026166056            4 
 1106000      1.06964   -7.5636817    344.07676  0.025925012  0.026158959            1 
 1107000    1.0655176   -7.5791473    343.71416  0.025874297  0.026152029            2 
 1108000    1.0776014   -7.5844685    343.94559  0.025868351  0.026145063            3 
 1109000    1.0689284   -7.5678464    344.80959  0.025909948   0.02613815            2 
 1110000    1.0843043   -7.5470434    344.19632  0.025840564  0.026131225            1 
 1111000    1.0639109   -7.5735839    343.81609  0.025788786  0.026124164            1 
 1112000    1.0542944    -7.538786    344.90199  0.025846972  0.026116993            6 
 1113000    1.0825462   -7.5766964    344.62479  0.025802994  0.026109837            2 
 1114000    1.0518243   -7.5749276    345.03239  0.025810322  0.026102771            2 
 1115000    1.0528403   -7.5919275    345.22387  0.025801485  0.026095582            2 
 1116000    1.0863982   -7.5869709    344.99537  0.025761303  0.026088361            4 
 1117000    1.0749659   -7.5800589     344.6528  0.025712683  0.026081068            2 
 1118000    1.0666609   -7.5959766    344.64847  0.025689361  0.026073727            2 
 1119000    1.0755156   -7.6035115    345.19154  0.025706847  0.026066254            5 
 1120000    1.0900489   -7.5643666    345.68438  0.025720564  0.026058761            1 
 1121000    1.0569555    -7.566188    346.35889  0.025747762  0.026051441            2 
 1122000    1.1065142   -7.5668633    346.21323  0.025713995  0.026044158            2 
 1123000    1.0816956   -7.5784849    347.15453  0.025760948  0.026037097            3 
 1124000    1.0626327   -7.6019513    346.39977  0.025682071  0.026029813            2 
 1125000    1.0620812   -7.5989207     345.7613  0.025611948  0.026022461            4 
 1126000    1.0665379   -7.5930639    346.95183  0.025677311  0.026015182            2 
 1127000    1.0837254   -7.5565856    346.97761  0.025656434  0.026008017            5 
 1128000    1.0832599   -7.5848785    347.91664  0.025703061  0.026000859            2 
 1129000    1.0622526   -7.5426155    347.00659  0.025613123  0.025993464            3 
 1130000    1.0601531   -7.5907585    347.38268  0.025618192  0.025986163            1 
 1131000    1.0515489   -7.5255809    348.03795  0.025643822   0.02597883            3 
 1132000    1.0992329   -7.5503204    348.40906  0.025648488   0.02597173            4 
 1133000    1.0662668   -7.5789244    348.83178  0.025656942  0.025964279            4 
 1134000    1.0775805   -7.5575483    349.01874  0.025648055  0.025956973            3 
 1135000    1.0504386   -7.5912882    348.13733  0.025560744  0.025949605            2 
 1136000    1.0746178   -7.5661088    349.47837  0.025636618  0.025942362            2 
 1137000    1.0453638   -7.5779312    349.00513  0.025579385  0.025935092            1 
 1138000    1.0742559    -7.586867    349.57253  0.025598457  0.025927673            2 
 1139000    1.0465621   -7.5888664    350.08814  0.025613707  0.025920415            2 
 1140000    1.0749202   -7.5709203    351.19857   0.02567241  0.025913281            3 
 1141000    1.0646655   -7.6052163    349.86076  0.025552203   0.02590621            4 
 1142000    1.0891093   -7.5954983    351.47485   0.02564761  0.025898969            2 
 1143000    1.0574976   -7.6039762    350.85031  0.025579638  0.025891711            2 
 1144000    1.0484557   -7.5751086    352.36816  0.025667844  0.025884617            1 
 1145000    1.0758564    -7.537838    352.52407  0.025656774  0.025877602            5 
 1146000    1.0463974   -7.5537137    352.90366  0.025661988  0.025870443            3 
 1147000     1.064178   -7.5961538    352.80265  0.025632276  0.025863335            4 
 1148000    1.0656081   -7.5222514    353.46789  0.025658239  0.025856432            3 
 1149000    1.0483377   -7.5305258    353.80251  0.025660176  0.025849625            2 
 1150000      1.08938   -7.5746292    352.29882    0.0255289  0.025842571            2 
 1151000    1.0698656   -7.6203255    351.96322  0.025482423  0.025835464            3 
 1152000    1.0496067   -7.6110858    352.87611  0.025526339  0.025828219            2 
 1153000    1.0581226   -7.6072695    353.08836   0.02551954  0.025821008            2 
 1154000    1.0586951   -7.6028091    353.34754  0.025516142  0.025813797            2 
 1155000    1.0837084    -7.603867    353.62115  0.025513792  0.025806525            3 
 1156000    1.0772678   -7.5961333    353.38463  0.025474671  0.025799139            3 
 1157000    1.0476907   -7.6014609    353.71569  0.025476497  0.025791869            4 
 1158000    1.0519149   -7.5867381    354.47595  0.025509208  0.025784554            2 
 1159000    1.0629548   -7.5930804    354.82484  0.025512283  0.025777395            3 
 1160000    1.0858716   -7.6108187    355.65183    0.0255497  0.025770293            2 
 1161000    1.0638639    -7.583067    355.01507  0.025481989  0.025763358            3 
 1162000    1.0664355   -7.6192908    355.39392  0.025487229   0.02575637            3 
 1163000    1.0529804   -7.5691641    356.66212  0.025556185  0.025749348            2 
 1164000    1.0675464   -7.5741268    356.12303  0.025495635  0.025742343            2 
 1165000    1.0582414   -7.5771307    355.83475  0.025453129  0.025735411            3 
 1166000    1.0580142   -7.5862044    356.70621  0.025493583  0.025728722            3 
 1167000    1.0537218   -7.6101105    357.57452  0.025533742  0.025721988            4 
 1168000    1.0732863   -7.5950807    357.39863  0.025499332  0.025715026            3 
 1169000    1.0628695   -7.5923594    357.12426   0.02545796  0.025708205            6 
 1170000    1.0940627   -7.5442926    357.81781  0.025485599  0.025701434            3 
 1171000    1.0525353   -7.6119517    357.19138  0.025419256  0.025694646            2 
 1172000     1.072755   -7.6045424    358.98658  0.025525212  0.025687738            4 
 1173000    1.0491707   -7.5989805    358.69492  0.025482731  0.025680884            2 
 1174000    1.0803941   -7.5539134    359.04608  0.025485951  0.025674154            3 
 1175000    1.0636493   -7.5705806    358.75851  0.025443866  0.025667294            2 
 1176000    1.0616114   -7.5865807    359.27081  0.025458532  0.025660507            6 
 1177000    1.0504294   -7.5856982    360.71581  0.025539211  0.025653799            1 
 1178000    1.0614484   -7.6028307    358.75442  0.025378779  0.025647149            5 
 1179000    1.0702617   -7.5898851    359.26145  0.025393091  0.025640223            2 
 1180000    1.0676484   -7.6170172    360.01569  0.025424837  0.025633347            1 
 1181000    1.0661259   -7.6135703    358.66197  0.025307788    0.0256265            3 
 1182000    1.0909408   -7.5793129    360.43865  0.025411636  0.025619516            1 
 1183000    1.0680667   -7.6176008    359.77876  0.025343671  0.025612687            2 
 1184000    1.0704689   -7.6060313    361.91211  0.025472417   0.02560591            3 
 1185000    1.0781932   -7.6411616    359.37677  0.025272628  0.025599141            2 
 1186000    1.0703527   -7.5558407    361.80895  0.025422214  0.025592354            1 
 1187000    1.0645317   -7.5886024    361.70357  0.025393398  0.025585701            1 
 1188000    1.0801368   -7.5933865    362.34737  0.025417184  0.025579035            1 
 1189000    1.0827525   -7.6058477    361.71318  0.025351358  0.025572298            4 
 1190000    1.0456342   -7.6015193     362.6089   0.02539278  0.025565602            2 
 1191000    1.0675299   -7.5940613    362.41387  0.025357814  0.025558991            2 
 1192000    1.0412387   -7.6264025    363.17189  0.025389534  0.025552348            2 
 1193000    1.0593158   -7.6544003    362.57534  0.025326582   0.02554583            2 
 1194000    1.0525368   -7.6111752     363.4743  0.025368111  0.025539229            1 
 1195000    1.0525392    -7.615086    363.68746  0.025361747  0.025532642            3 
 1196000    1.0813774   -7.5998215     365.4435  0.025462897  0.025526145            7 
 1197000    1.0626154   -7.5850949    364.35491  0.025365839  0.025519607            2 
 1198000    1.0542804   -7.6552948    363.44507  0.025281377  0.025512957            4 
 1199000    1.0432607   -7.5867955    364.19322  0.025312289    0.0255063            2 
 1200000    1.0664616   -7.5681275    364.87276  0.025338386  0.025499836            3 
 1201000    1.0955016   -7.6119721    365.14232  0.025335992  0.025493344            2 
 1202000    1.0540268   -7.6228355     364.3641  0.025260961  0.025486691            1 
 1203000    1.0672508   -7.6296452     365.4979  0.025318502  0.025479933            2 
 1204000    1.0587585   -7.5660203    367.24947  0.025418706    0.0254734            2 
 1205000     1.086872   -7.6522426    364.81042  0.025228937  0.025466937            2 
 1206000    1.0427336   -7.6174492    367.07263  0.025364333  0.025460566            2 
 1207000    1.0652158   -7.6167557    366.94131  0.025334252  0.025454197            1 
 1208000    1.0468682   -7.5941499     366.5274  0.025284727  0.025447687            1 
 1209000     1.035461   -7.6402587    366.73735  0.025278285  0.025441136            2 
 1210000    1.0509753   -7.6056447    366.48842  0.025240249  0.025434538            2 
 1211000    1.0771104   -7.6029457    367.24466  0.025271446   0.02542795            3 
 1212000    1.0401286   -7.6031711    368.32742  0.025325043  0.025421362            2 
 1213000    1.0415502    -7.561876    368.43913  0.025311839  0.025414914            1 
 1214000    1.0593296   -7.6180724     367.0499  0.025195627   0.02540846            2 
 1215000    1.0750722   -7.6209798    368.70927  0.025288702  0.025402039            1 
 1216000    1.0386872   -7.5668831    370.23333   0.02537235    0.0253957            1 
 1217000    1.0737485   -7.5778828    369.53062  0.025303384  0.025389449            2 
 1218000    1.0588138   -7.6062726     369.3777  0.025272147  0.025382999            2 
 1219000    1.0706212   -7.5689701    369.86437  0.025284685  0.025376583            3 
 1220000    1.0606017    -7.593763     370.5947  0.025313845  0.025370503            1 
 1221000    1.0438384   -7.5716526    370.81004   0.02530781  0.025364219            2 
 1222000    1.0724958   -7.6280183    369.05126  0.025167162  0.025357764            1 
 1223000    1.0501562   -7.6463215    369.94261  0.025207319  0.025351187            8 
 1224000    1.0594958   -7.6263044    370.42869  0.025219818  0.025344708            2 
 1225000    1.0736103   -7.6234356    370.85036  0.025227916  0.025338086            1 
 1226000    1.0336896   -7.6208527    370.46908  0.025181422  0.025331336            1 
 1227000    1.0809941    -7.566563    371.24739  0.025213759  0.025324796            6 
 1228000    1.0396933   -7.5918392    370.58038  0.025147963  0.025318132            2 
 1229000    1.0508649   -7.6014253    370.62901  0.025130798  0.025311379            3 
 1230000    1.0449293   -7.6039301    370.55165  0.025105125  0.025304589            5 
 1231000    1.0702172   -7.6183553    371.40478  0.025142484  0.025297655            2 
 1232000    1.0546254   -7.5854526     370.9745  0.025092972  0.025290788            7 
 1233000     1.053903   -7.6273791    371.46001  0.025105435   0.02528399            2 
 1234000    1.0677315    -7.608703    370.55647  0.025024073  0.025277236            1 
 1235000    1.0435813   -7.6251399      371.577  0.025072672  0.025270364            2 
 1236000     1.026191   -7.6054246    370.37486  0.024971336  0.025263465            6 
 1237000    1.0683378    -7.602594    372.41387  0.025088512  0.025256614            1 
 1238000     1.055118   -7.6195682     372.2471   0.02505702  0.025249831            2 
 1239000    1.0709997   -7.6234526    373.23664  0.025103352  0.025243133            3 
 1240000    1.0467176   -7.6032534    373.98764  0.025133578  0.025236537            2 
 1241000    1.0473053   -7.5940172    373.92104  0.025108853  0.025229884            1 
 1242000    1.0359784   -7.6614443    372.26349  0.024977421  0.025222938            1 
 1243000    1.0399199   -7.6401862    374.06751  0.025078272  0.025216154            1 
 1244000    1.0476476   -7.6190823    374.20587  0.025067382  0.025209511            2 
 1245000    1.0468944   -7.6269973    374.82329  0.025088574  0.025202933            4 
 1246000     1.057685   -7.6664426     372.4392  0.024908989  0.025196166            2 
 1247000     1.054279   -7.6634943    373.52031  0.024961261  0.025189462            2 
 1248000    1.0543468   -7.6086434    375.09106  0.025046145  0.025182754            3 
 1249000    1.0663381   -7.6966407    373.81056  0.024940656  0.025176026            2 
 1250000    1.0527014    -7.631304    375.57652  0.025038435  0.025169367            2 
 1251000     1.039892   -7.6215539    376.44603  0.025076341  0.025162997            2 
 1252000    1.0587292   -7.6035078    377.17978   0.02510515   0.02515669            4 
 1253000    1.0541907   -7.6534614    376.33311  0.025028805  0.025150319            1 
 1254000    1.0665336   -7.5854587    377.37419   0.02507803  0.025143817            3 
 1255000    1.0479816   -7.6809473    375.53966  0.024936233  0.025137349            2 
 1256000    1.0538601   -7.6850286    376.49577  0.024979815  0.025130788            5 
 1257000    1.0493844   -7.6203704    376.96991  0.024991376  0.025124262            5 
 1258000    1.0482613   -7.6225298     376.4345  0.024936043   0.02511773            2 
 1259000    1.0526086   -7.6676317    376.46673   0.02491837  0.025111141            2 
 1260000    1.0610869   -7.6462828    377.25746   0.02495089  0.025104514            2 
 1261000    1.0475564   -7.6211409    377.50583  0.024947517  0.025097988            4 
 1262000     1.050542   -7.6334224    377.49209  0.024926842  0.025091349            3 
 1263000     1.060937   -7.6637944     377.9418  0.024936778  0.025084789            2 
 1264000    1.0549449   -7.6396096    377.34415  0.024877647  0.025078294            2 
 1265000    1.0543437   -7.5934601    378.65834  0.024944554  0.025071968            2 
 1266000     1.046261   -7.6231019    378.69141  0.024927028  0.025065506            2 
 1267000    1.0454681   -7.6247246    379.74768  0.024976827  0.025059004            1 
 1268000    1.0483236   -7.6374533    379.55768  0.024944642  0.025052397            2 
 1269000    1.0655165   -7.6456418    378.82746  0.024877033  0.025045784            2 
 1270000    1.0522534   -7.6387998    380.08132  0.024939719  0.025039234            7 
 1271000    1.0278806   -7.6436327    379.46653  0.024879788  0.025032805            2 
 1272000    1.0601255   -7.6286609    379.57353  0.024867239   0.02502634            2 
 1273000    1.0484196   -7.6588046    379.24069  0.024825916  0.025019734            4 
 1274000    1.0663125   -7.6430726    379.54299  0.024826203  0.025013168            3 
 1275000    1.0507656   -7.6376281    380.41384   0.02486365  0.025006662            2 
 1276000    1.0527679   -7.6209968    382.26784  0.024965245  0.025000226            2 
 1277000    1.0551886   -7.6009765    382.57797  0.024965934  0.024993894            2 
 1278000     1.023271   -7.5806609    382.02842  0.024910564  0.024987508            2 
 1279000    1.0425338   -7.6375679    379.70308  0.024739581  0.024981125            1 
 1280000    1.0406884   -7.6442465    381.58581  0.024842826   0.02497454            2 
 1281000    1.0453625   -7.6642748    381.90339  0.024844093  0.024968192            2 
 1282000    1.0539442   -7.6415839    382.78958  0.024882318  0.024961715            3 
 1283000    1.0500766   -7.6469723    382.18107    0.0248234  0.024955205            1 
 1284000    1.0345392   -7.6296226    382.91854   0.02485193  0.024948758            2 
 1285000    1.0759389   -7.6408422    381.87482  0.024764904  0.024942332            2 
 1286000     1.058125   -7.6896768    381.65364  0.024731314  0.024935723            3 
 1287000    1.0474146   -7.6515712    382.70803  0.024780369  0.024929259            3 
 1288000    1.0519245   -7.6592377    382.75418  0.024764116  0.024922733            2 
 1289000    1.0525343   -7.6734002    384.22218   0.02483981  0.024916111            1 
 1290000    1.0333965   -7.6926338    382.72078  0.024723565  0.024909543            3 
 1291000    1.0443356   -7.6661855    383.07546  0.024727309  0.024902989            4 
 1292000    1.0564675   -7.6531804    383.71427  0.024749373  0.024896417            2 
 1293000    1.0298385   -7.6417319    384.32082  0.024769324  0.024889871            5 
 1294000    1.0506828   -7.6069929    384.34593  0.024751799    0.0248833            2 
 1295000    1.0611444   -7.6404845    385.02155  0.024776161   0.02487676            3 
 1296000    1.0493388   -7.6482705    384.76853  0.024740775  0.024870245            1 
 1297000    1.0570285    -7.648277    384.76606  0.024721541  0.024863729            3 
 1298000    1.0277746   -7.6352717    386.84502  0.024835967  0.024857252            2 
 1299000    1.0441807   -7.6128676    386.10014  0.024769062   0.02485092            2 
 1300000    1.0559513   -7.6673069    385.48682  0.024710694  0.024844437            1 
 1301000    1.0412295   -7.6085463    386.06948  0.024729021  0.024837888            3 
 1302000    1.0407072   -7.6291016     386.4581  0.024734901  0.024831583            3 
 1303000    1.0668173   -7.6632261    385.65534  0.024664578  0.024825071            1 
 1304000    1.0263234   -7.6452044    386.59684  0.024705831   0.02481854            3 
 1305000    1.0156664   -7.6080264    386.90912   0.02470684  0.024811901            2 
 1306000    1.0612676    -7.692621    386.59774  0.024668054  0.024805376            5 
 1307000    1.0322542   -7.6708003    386.70361   0.02465593  0.024798652            4 
 1308000    1.0359382   -7.6726451    386.44384   0.02462053  0.024792027            4 
 1309000    1.0539983   -7.6386453    387.41177  0.024663342  0.024785358            2 
 1310000    1.0237629    -7.650102    387.34599   0.02464033  0.024778746            1 
 1311000     1.035666     -7.60862    388.24607  0.024678748  0.024772325            1 
 1312000    1.0343485   -7.6325966    388.39821  0.024669602  0.024766004            4 
 1313000    1.0366959   -7.6321224    388.15772   0.02463555  0.024759648            2 
 1314000    1.0440982   -7.6188555    389.27495  0.024687655  0.024753238            1 
 1315000    1.0211656   -7.6179745    389.01642  0.024652498   0.02474666            3 
 1316000      1.05388   -7.6504142    389.60663  0.024671139  0.024740234            3 
 1317000    1.0390517   -7.6413874    389.28186  0.024631857  0.024733985            1 
 1318000    1.0414379   -7.6318746    390.40028  0.024683882  0.024727756            1 
 1319000    1.0576939   -7.6589177    389.43241  0.024604019  0.024721557            3 
 1320000    1.0264846   -7.6307848    391.72306  0.024729991  0.024715311            2 
 1321000    1.0339473   -7.6745987    390.88155  0.024658185  0.024709042            1 
 1322000    1.0245973   -7.6902938    391.12239  0.024654714  0.024702764            1 
 1323000    1.0353253   -7.6764351    390.61742  0.024604272  0.024696662            1 
 1324000    1.0584919   -7.6346866    391.95958  0.024670165  0.024690619            4 
 1325000    1.0396616   -7.6679494     392.3552  0.024676428  0.024684565            2 
 1326000    1.0456315   -7.6159507    391.90084  0.024629263   0.02467834            2 
 1327000    1.0335909   -7.6782927    390.56981  0.024527117  0.024672071            4 
 1328000     1.030543   -7.6464042    391.75892  0.024583265  0.024665824            2 
 1329000    1.0294115   -7.6158894    392.71672  0.024624825  0.024659629            1 
 1330000    1.0509765    -7.593971    392.44174  0.024589081  0.024653439            1 
 1331000    1.0382487   -7.6160562    392.44842  0.024571025  0.024647434            2 
 1332000     1.035254   -7.6508623     394.0747  0.024654323  0.024641473            2 
 1333000    1.0496542   -7.6583548     394.8941  0.024687053  0.024635411            2 
 1334000    1.0404586   -7.6472539    392.74845  0.024534511  0.024629357            1 
 1335000    1.0195394   -7.6651732    394.55146   0.02462868  0.024623272            2 
 1336000    1.0535416   -7.6456775    394.07827   0.02458073  0.024617348            2 
 1337000    1.0450264   -7.6671545    393.99323  0.024557045   0.02461137            1 
 1338000    1.0461223   -7.6680596    392.92899  0.024472408  0.024605127            1 
 1339000    1.0449239    -7.677244    393.66701  0.024500063  0.024599006            2 
 1340000    1.0515421    -7.653518    394.87287  0.024556771  0.024592726            2 
 1341000    1.0353776   -7.6391314    395.30143   0.02456509   0.02458671            2 
 1342000    1.0536179   -7.6266938    397.26188  0.024668522  0.024580878            1 
 1343000    1.0565021   -7.6536029    396.80291  0.024621674  0.024574964            6 
 1344000    1.0282169   -7.6250499    396.84723  0.024606103  0.024568928            2 
 1345000    1.0646164    -7.684978     395.6627  0.024514417  0.024562952            2 
 1346000    1.0415821   -7.6918399    396.51307  0.024548853  0.024556855            2 
 1347000      1.01791   -7.6703122    396.57077  0.024534198  0.024550688            2 
 1348000    1.0353142   -7.6535559    396.68535  0.024523081  0.024544765            2 
 1349000    1.0517428   -7.6630158    396.98734  0.024523557  0.024538834            4 
 1350000    1.0357546   -7.7140787     395.9145  0.024439167   0.02453281            3 
 1351000    1.0253424   -7.6710364     396.5874  0.024462583  0.024526729            2 
 1352000    1.0106856   -7.6627725    397.82251  0.024520618  0.024520637            4 
 1353000    1.0100849   -7.6419855    398.33409  0.024534004  0.024514661            3 
 1354000    1.0417532   -7.6665875    397.37947  0.024457131  0.024508604            3 
 1355000    1.0369944   -7.6459228    398.26734  0.024493687  0.024502572            2 
 1356000    1.0199173   -7.6770266    397.45291  0.024425572  0.024496371            3 
 1357000    1.0557161   -7.7111229    396.37638  0.024341463  0.024490018            2 
 1358000     1.035819    -7.674616    397.50282  0.024392662  0.024483525            2 
 1359000    1.0271622    -7.684245    397.99222  0.024404723  0.024477342            1 
 1360000    1.0401788   -7.6922718    397.93321  0.024383162  0.024471069            1 
 1361000    1.0494444   -7.6662715      399.185  0.024441893  0.024464862            2 
 1362000    1.0198001   -7.6912668    398.63639  0.024390381  0.024458604            4 
 1363000    1.0243193   -7.6717786    398.34742  0.024354819  0.024452492            1 
 1364000    1.0080253   -7.6447392     399.7628  0.024423436  0.024446315            3 
 1365000    1.0203387   -7.6807076    399.58058  0.024394419  0.024440032            2 
 1366000    1.0352876    -7.637914    399.03806  0.024343464  0.024433773            2 
 1367000    1.0379123   -7.6682031    400.98773   0.02444451  0.024427664            3 
 1368000    1.0222357   -7.6749335    399.92708   0.02436203  0.024421618            2 
 1369000    1.0305294   -7.6912507    401.32404   0.02442927  0.024415472            3 
 1370000    1.0205755   -7.7409579    399.33868  0.024290674  0.024409257            6 
 1371000    1.0218647   -7.6837837    400.87487  0.024366331  0.024402967            3 
 1372000    1.0336414   -7.7088377    399.56918  0.024269265  0.024396787            3 
 1373000    1.0335422   -7.6691118    401.88491  0.024392141  0.024390708            3 
 1374000     1.024512   -7.6564027    401.72924  0.024364947  0.024384684            1 
 1375000    1.0366048   -7.7082966    401.28488  0.024320295   0.02437848            2 
 1376000    1.0104248   -7.6942722    399.65325  0.024203807  0.024372244            2 
 1377000    1.0324122   -7.6866045     401.6137  0.024304872  0.024366124            2 
 1378000    1.0194343   -7.6666214    401.67736  0.024291084  0.024359944            3 
 1379000    1.0263297    -7.689591    402.41695  0.024318162  0.024353833            2 
 1380000    1.0473893   -7.7215796    402.10384  0.024281633  0.024347591            5 
 1381000    1.0712674   -7.6908326    402.34381  0.024278531  0.024341329            1 
 1382000    1.0249005   -7.6638676    403.48458   0.02432975  0.024335302            1 
 1383000    1.0317169   -7.7209239     401.4985  0.024192486  0.024329061            3 
 1384000    1.0376937   -7.7124528    403.93518  0.024321723  0.024322762            3 
 1385000    1.0550929   -7.7195897    402.50305  0.024217993  0.024316603            2 
 1386000    1.0394982   -7.6968073    403.15247  0.024239566  0.024310454            2 
 1387000    1.0256515   -7.6650605    404.65377  0.024312291  0.024304447            2 
 1388000    1.0378981   -7.7021766    403.39701  0.024219321  0.024298414            2 
 1389000    1.0410814    -7.683155    405.36415  0.024319903  0.024292336            3 
 1390000    1.0246729   -7.6502426    405.55997  0.024314147  0.024286422            2 
 1391000    1.0239413   -7.6787114    404.78434    0.0242502   0.02428043            2 
 1392000    1.0169771   -7.6755074    405.23829  0.024259955  0.024274405            3 
 1393000     1.044569     -7.68169    404.04773  0.024171316  0.024268291            3 
 1394000    1.0264526   -7.7098383     405.0865  0.024216075  0.024262107            2 
 1395000    1.0161887   -7.6825087    404.83802  0.024183872  0.024255906            2 
 1396000    1.0295931   -7.7077492    404.66666  0.024156319  0.024249601            2 
 1397000    1.0224167   -7.7232638    405.59261  0.024194262   0.02424325            3 
 1398000    1.0107112   -7.6706648    406.61477  0.024237886   0.02423704            4 
 1399000    1.0393669   -7.7019394     405.0715  0.024128634  0.024230743            2 
 1400000    1.0106835   -7.7047874    405.99964  0.024166645  0.024224467            1 
 1401000    1.0326921   -7.6916068    406.44197  0.024175706  0.024218275            2 
 1402000    1.0159119   -7.6513225    408.19962  0.024262935  0.024212148            4 
 1403000    1.0250749   -7.7034154    405.67773   0.02409585  0.024205936            1 
 1404000    1.0374437   -7.7046014     406.5201  0.024128686   0.02419967            1 
 1405000    1.0192438   -7.6993503    407.38011  0.024162521  0.024193436            3 
 1406000    1.0354942   -7.7192456    405.92709  0.024059216  0.024187191            3 
 1407000    1.0151428      -7.6636     407.7248   0.02414859  0.024181035            1 
 1408000    1.0349278   -7.6910474    408.13619  0.024155788  0.024174862            4 
 1409000    1.0360002   -7.6861537    407.46589     0.024099  0.024168709            2 
 1410000    1.0407039    -7.710989    407.80384  0.024101882  0.024162615            1 
 1411000    1.0364221    -7.692551     407.0498  0.024040267  0.024156413            2 
 1412000    1.0171238   -7.6680756    408.39446  0.024102601  0.024150164            1 
 1413000    1.0294721   -7.7039172    407.86412  0.024054265  0.024143827            3 
 1414000    1.0334605   -7.7045684    408.62481  0.024082085  0.024137528            2 
 1415000    1.0181639   -7.7062921    408.38821  0.024051131  0.024131233            2 
 1416000    1.0512262   -7.6831368    407.28867  0.023969437   0.02412487            2 
 1417000    1.0306364   -7.6827548    407.85985  0.023986112  0.024118527            2 
 1418000    0.9854658   -7.7470028    408.40471  0.024001217  0.024111964            2 
 1419000    1.0038619   -7.7126744    408.42181  0.023985307  0.024105403            4 
 1420000    1.0154767   -7.7052417     409.0192  0.024003474  0.024098892            4 
 1421000   0.99817054   -7.6879225    408.10662  0.023933065  0.024092406            3 
 1422000   0.99716572   -7.7188663    409.23636   0.02398244  0.024086043            1 
 1423000   0.99618269   -7.7475573    408.86537  0.023943861  0.024079589            1 
 1424000    1.0078137    -7.722795    408.59121  0.023911002  0.024073199            2 
 1425000    1.0218795   -7.6731174    410.14022  0.023984808   0.02406688            2 
 1426000    1.0173455    -7.670198    410.16045  0.023969171  0.024060497            2 
 1427000    1.0381451   -7.7096457    409.40073  0.023908008  0.024054066            1 
 1428000    1.0377676   -7.7131368    409.81672  0.023915541  0.024047619            2 
 1429000    1.0201227    -7.701578    410.71153  0.023950988  0.024041196            2 
 1430000     1.041925   -7.6830992    410.45545  0.023919315  0.024034766            2 
 1431000    1.0262874   -7.6858305    410.26056  0.023891251  0.024028377            1 
 1432000    1.0273535   -7.6845199    410.22769  0.023872654  0.024021944            3 
 1433000    1.0379799    -7.652828     412.2232   0.02397204  0.024015597            2 
 1434000    1.0154127   -7.6921399     410.9831  0.023883257  0.024009208            2 
 1435000    1.0184928   -7.7281198    410.81078  0.023856607  0.024002707            1 
 1436000    1.0147678   -7.7216287    411.82408  0.023898797   0.02399611            6 
 1437000    1.0322717   -7.7183079    411.85981  0.023884239  0.023989637            4 
 1438000    1.0246328   -7.7480705    411.52414  0.023848177  0.023983155            3 
 1439000    1.0100756   -7.6938415    411.71233  0.023842502  0.023976721            2 
 1440000    1.0359692    -7.702448    411.80293  0.023831188  0.023970196            2 
 1441000    1.0185786    -7.751091    411.30062  0.023785602  0.023963574            1 
 1442000    1.0285845   -7.7354546    411.69973  0.023792171  0.023956875            1 
 1443000    1.0293585   -7.6923877    412.12659  0.023800334  0.023950281            2 
 1444000    1.0154398   -7.6756845     414.3762  0.023913677  0.023943781            2 
 1445000    1.0355816   -7.6817217    413.46149  0.023844377  0.023937327            3 
 1446000    1.0247511   -7.6805988    413.38751  0.023823623  0.023930907            2 
 1447000    1.0265775   -7.7314338    412.26356   0.02374243  0.023924502            3 
 1448000    1.0123672   -7.7127777    413.60719   0.02380336  0.023917985            3 
 1449000    1.0246707   -7.7241017    414.69549  0.023849522  0.023911469            4 
 1450000    1.0179411   -7.7617743    412.81021  0.023724725  0.023904985            2 
 1451000     1.019801    -7.719144    414.11023  0.023783036   0.02389845            4 
 1452000    1.0340037   -7.7172303     413.8524  0.023751859  0.023892137            4 
 1453000    1.0425908   -7.7574237    413.12864  0.023694003  0.023885739            6 
 1454000    1.0111106   -7.7170198      414.081   0.02373229  0.023879251            7 
 1455000    1.0057896   -7.7175802    415.32752  0.023787373  0.023872907            3 
 1456000    1.0027584   -7.6939427    416.92821   0.02386265  0.023866643            1 
 1457000    1.0149347   -7.7014776    417.00937  0.023850913  0.023860369            8 
 1458000     1.014999   -7.7263864    415.53947  0.023750541  0.023854141            2 
 1459000     1.026496   -7.7104987    415.86146  0.023752654  0.023847827            2 
 1460000    1.0207268   -7.6967383    416.82069  0.023791135  0.023841457            2 
 1461000    1.0049281   -7.7290179    416.46624  0.023754634  0.023835089            4 
 1462000    1.0399292   -7.7302299    415.47954  0.023682144  0.023828639            4 
 1463000    1.0133702   -7.7354451     414.9284  0.023634564  0.023822251            1 
 1464000    1.0276848   -7.7045094    417.06016  0.023739763   0.02381578            4 
 1465000   0.99992177   -7.7058679    416.97601  0.023718772  0.023809261            1 
 1466000    1.0247203   -7.7151016    415.70092  0.023630112  0.023802818            2 
 1467000    1.0187049   -7.7475259    416.27918  0.023646852  0.023796284            2 
 1468000    1.0026076   -7.7495115    416.48749  0.023642568  0.023789731            5 
 1469000    1.0363683   -7.7247719     417.6424   0.02369199   0.02378321            2 
 1470000    1.0223618   -7.7113137    417.68781  0.023678447  0.023776689            2 
 1471000    1.0233304   -7.7202068    417.93597  0.023676409  0.023770334            2 
 1472000    1.0300588   -7.7406925    417.02978  0.023609023  0.023763909            2 
 1473000    1.0233939   -7.7305042     417.0467  0.023593952  0.023757466            4 
 1474000    1.0102128   -7.7247885    417.57759   0.02360796  0.023751067            2 
 1475000    1.0213963   -7.7437603    417.25402  0.023573673  0.023744706            3 
 1476000    1.0189281   -7.7474679    417.35087   0.02356317  0.023738311            1 
 1477000    1.0060369   -7.6988596    418.19071  0.023594601  0.023731935            5 
 1478000   0.99937308   -7.7282235    419.27975   0.02364004   0.02372561            3 
 1479000    1.0276635   -7.7102364    419.17081  0.023617918  0.023719225            1 
 1480000    1.0199722   -7.7343103    419.09493  0.023597688  0.023712807            2 
 1481000   0.99721951    -7.726834    419.95421  0.023630104  0.023706276            3 
 1482000    1.0273227   -7.7351714    420.26831  0.023631821  0.023699871            3 
 1483000    1.0320111    -7.685015    420.98669  0.023656254  0.023693601            3 
 1484000    1.0238376   -7.7430841    419.98296  0.023583949  0.023687261            6 
 1485000    1.0202945   -7.7108808    420.20847  0.023580722  0.023680915            2 
 1486000    1.0184317   -7.7682578    420.63999  0.023589053  0.023674461            4 
 1487000    1.0154162   -7.7265071    419.60944  0.023515436  0.023667951            2 
 1488000    1.0150614   -7.7538046    420.14078  0.023529389  0.023661486            4 
 1489000   0.99085191   -7.7277258    420.34405  0.023524963  0.023655069            1 
 1490000    1.0190443   -7.7422927    419.91954  0.023485433  0.023648538            3 
 1491000    1.0116456   -7.7482326    421.04709  0.023532701  0.023642048            2 
 1492000    1.0092956   -7.7232783     420.6884  0.023496895  0.023635572            1 
 1493000     1.005527    -7.721854     421.6569  0.023535214  0.023629112            4 
 1494000    1.0243491   -7.7387702    421.91501  0.023533858  0.023622599            2 
 1495000    1.0026824   -7.7004759    421.71677  0.023507066  0.023616123            4 
 1496000    1.0146764   -7.7273942    422.41525  0.023530261  0.023609622            3 
 1497000   0.99926808   -7.7442611    420.46932  0.023406219     0.023603            1 
 1498000    0.9985424   -7.7011645    421.76002  0.023462396  0.023596424            1 
 1499000     1.009346   -7.7320781    422.22849  0.023472787  0.023589843            1 
 1500000    1.0307902   -7.7773835    420.97059  0.023387255  0.023583179            2 
 1501000   0.99233867   -7.7394371    421.45645  0.023398648  0.023576566            3 
 1502000    1.0294362   -7.7839319      421.079  0.023362128  0.023569796            2 
 1503000    1.0291926   -7.7401251    422.57744  0.023429665  0.023563134            3 
 1504000    1.0193562   -7.7426545    423.48569  0.023464411   0.02355652            1 
 1505000    1.0192125   -7.7378263    423.56105  0.023452993  0.023549961            5 
 1506000    1.0279571    -7.692732    423.46222  0.023431951  0.023543529            3 
 1507000    1.0085255   -7.7361906    423.39674  0.023412782  0.023537096            2 
 1508000    1.0143703   -7.7515516    423.28895  0.023391299  0.023530437            3 
 1509000    1.0165387   -7.6985944    423.29269  0.023376005  0.023523862            2 
 1510000   0.99786988   -7.7412089    423.57087  0.023375876  0.023517245            2 
 1511000    1.0217278   -7.7399036    423.43181  0.023352736  0.023510631            2 
 1512000    1.0171108   -7.7722083     422.5286  0.023287511  0.023503963            3 
 1513000   0.99837681   -7.7263115    423.61469  0.023331939  0.023497255            5 
 1514000   0.99615506   -7.7273077      424.497  0.023365093  0.023490614            1 
 1515000    1.0111599   -7.7906886    423.16304  0.023276295  0.023483931            4 
 1516000    0.9876579   -7.7721659    424.78036  0.023349844  0.023477216            5 
 1517000    1.0078658   -7.7047866    423.86018  0.023283903  0.023470615            3 
 1518000   0.99883351   -7.7163574    424.17662  0.023285937   0.02346414            2 
 1519000    1.0055863   -7.7307803    425.26579  0.023330359  0.023457648            3 
 1520000   0.99260054   -7.7665336    425.17771  0.023310182  0.023451147            1 
 1521000    1.0036762   -7.7649541    425.13119  0.023292307  0.023444591            4 
 1522000    1.0099194   -7.7787469     425.5263  0.023298637  0.023438072            8 
 1523000    1.0333246   -7.7509488    425.87956  0.023302668  0.023431387            2 
 1524000    1.0159391   -7.7236754     426.2166  0.023305807  0.023424808            2 
 1525000    0.9957065   -7.7483034    426.25938  0.023292863  0.023418198            2 
 1526000    0.9945762   -7.7623864    426.16066  0.023272208  0.023411507            2 
 1527000   0.98576885   -7.7228388    426.29336  0.023264209  0.023404868            2 
 1528000   0.98926663   -7.7951619    425.45821  0.023203436   0.02339819            3 
 1529000    0.9957372   -7.7845471    426.17624  0.023227395  0.023391508            3 
 1530000    1.0032529   -7.7960141    425.53054  0.023177045  0.023384774            4 
 1531000    1.0114097   -7.8008549    426.29947   0.02320376  0.023378014            7 
 1532000    1.0020938   -7.7317742    426.78691  0.023215128  0.023371265            3 
 1533000    1.0035313   -7.7940181    425.47024  0.023128411  0.023364527            4 
 1534000   0.99026903   -7.7798359    426.63935  0.023176844  0.023357721            1 
 1535000    1.0023604   -7.7888333    426.08759  0.023131791  0.023350945            2 
 1536000    1.0304091   -7.7765829    426.85937  0.023158603  0.023344141            3 
 1537000    1.0203977   -7.7162852    429.36701  0.023279495  0.023337451            2 
 1538000    1.0212089   -7.6893787    428.61203  0.023223452  0.023330929            2 
 1539000    1.0135349   -7.7377068    428.09215  0.023180212   0.02332435            2 
 1540000   0.98361473   -7.7167066    428.79051   0.02320295  0.023317774            5 
 1541000    1.0165531    -7.744034      429.002   0.02319933  0.023311253            1 
 1542000    1.0065017   -7.7582553    428.16925   0.02313928    0.0233046            2 
 1543000    1.0070357   -7.7355607    428.66154  0.023150871   0.02329789            2 
 1544000    1.0112442   -7.7316152    428.95048  0.023151472  0.023291287            3 
 1545000   0.99973983   -7.7631341    427.20319  0.023042243  0.023284553            4 
 1546000   0.99734536   -7.7637496    428.40753  0.023092256  0.023277807            2 
 1547000    1.0004415    -7.735207    429.58472  0.023140741  0.023271032            2 
 1548000    1.0230616   -7.7611446    429.52329  0.023122485   0.02326432            1 
 1549000   0.98158792   -7.7059417    429.28234  0.023094595  0.023257585            2 
 1550000    1.0164923   -7.7193045    428.79964  0.023053744  0.023250784            1 
 1551000    1.0113524    -7.719619    429.99645  0.023103183  0.023244054            3 
 1552000    1.0177075   -7.7687881    428.64169  0.023015555  0.023237286            3 
 1553000    1.0008395   -7.8089143    427.64932  0.022947484  0.023230551            4 
 1554000   0.99414127   -7.7723689    429.61446  0.023038099  0.023223703            5 
 1555000    1.0073535   -7.7820801    430.10441   0.02304954  0.023216908            5 
 1556000   0.98365356   -7.7318254    430.83023  0.023073598  0.023210129            4 
 1557000    1.0235532   -7.7383463     430.6364  0.023048405  0.023203397            1 
 1558000    1.0140624   -7.7389545    430.78371  0.023041491  0.023196649            3 
 1559000    1.0043242   -7.7709387    430.19937  0.022995476  0.023189898            1 
 1560000   0.99113288   -7.7489495    430.90859  0.023018621  0.023183146            2 
 1561000   0.98903152   -7.7890476    429.67537   0.02293804  0.023176416            2 
 1562000   0.98294581   -7.7743957    431.02875  0.022995559  0.023169619            7 
 1563000    1.0246148   -7.7163065    430.94829  0.022976556  0.023162853            1 
 1564000   0.98460109   -7.7301901    432.46355  0.023042602  0.023156177            7 
 1565000    1.0247899    -7.743693    432.17187  0.023012347  0.023149507            2 
 1566000   0.98234379   -7.7515646    432.72145  0.023026897  0.023142903            3 
 1567000    1.0029603   -7.7738168    433.12692  0.023033765  0.023136265            3 
 1568000    0.9993841   -7.7303162    432.96517  0.023010479  0.023129579            1 
 1569000   0.99528884    -7.812912    431.26836  0.022905692  0.023122793            6 
 1570000    1.0091371   -7.7359573    433.89841  0.023030701  0.023116103            3 
 1571000    1.0103616   -7.7880328     433.1251  0.022975021  0.023109499            1 
 1572000   0.99904311   -7.7805333    434.20222  0.023017505  0.023102851            5 
 1573000    1.0237533   -7.7574178    433.56321  0.022969019  0.023096088            1 
 1574000    1.0067812   -7.7400151    434.06043  0.022980751  0.023089422            2 
 1575000   0.98744014   -7.7533548    433.69301   0.02294672  0.023082708            4 
 1576000   0.96774086   -7.7824483    432.68546  0.022878884  0.023075945            3 
 1577000   0.98743809   -7.7370333    433.36838  0.022900464  0.023069255            5 
 1578000    1.0070227   -7.7798137    434.07121  0.022923068  0.023062545            6 
 1579000    1.0046051   -7.7527181    435.36595  0.022976882  0.023055868            1 
 1580000   0.99224642   -7.7528958    434.03292  0.022892031  0.023049335            3 
 1581000    1.0022507   -7.7648599     433.9151  0.022871342  0.023042781            4 
 1582000     0.977598   -7.7996539     434.7732  0.022902086  0.023036154            2 
 1583000   0.98094332   -7.7952877    434.40177  0.022868065  0.023029558            3 
 1584000    1.0126672   -7.7760047    434.97706  0.022883894  0.023022881            1 
 1585000   0.98641328   -7.7956764    435.65196   0.02290494  0.023016301            5 
 1586000   0.99603359   -7.7880351    434.95194  0.022853717  0.023009735            2 
 1587000   0.98556484   -7.7760487    436.08901  0.022899024  0.023003245            2 
 1588000    1.0020589   -7.7503209    436.67463  0.022915335  0.022996901            3 
 1589000   0.96486376   -7.7484705    437.49659  0.022944021  0.022990495            4 
 1590000   0.97820347   -7.7726094    436.49624  0.022877161  0.022984011            4 
 1591000    1.0045369   -7.7719819    436.77407  0.022877335  0.022977478            4 
 1592000   0.99938507   -7.7268038    438.64851  0.022961082  0.022971032            1 
 1593000   0.99358823   -7.7419943    436.91695  0.022856086    0.0229646            1 
 1594000    1.0162973   -7.7566894    438.06366  0.022901697  0.022958191            3 
 1595000    0.9949307   -7.7854455    437.67305   0.02286693  0.022951675            4 
 1596000    0.9943019     -7.80396    437.87529  0.022863163  0.022945245            2 
 1597000   0.97581766   -7.8273992      437.981  0.022854362  0.022938725            4 
 1598000     1.001802   -7.7830184    437.56895  0.022818573  0.022932207            2 
 1599000   0.98679304   -7.7976463    438.86854  0.022872032  0.022925822            3 
 1600000   0.97231749    -7.760593    439.83353  0.022907996  0.022919407            2 
 1601000    1.0029205   -7.7526465    440.50505  0.022928641   0.02291306            2 
 1602000    1.0113624   -7.7550769    440.37391  0.022907507  0.022906835            3 
 1603000    1.0008174     -7.76406    439.74508  0.022860526   0.02290055            3 
 1604000    1.0034103   -7.7437212    438.76243  0.022795222  0.022894195            2 
 1605000   0.99785375   -7.7859254    439.16758  0.022802055  0.022887911            4 
 1606000    1.0050779   -7.8011175    439.33416  0.022796501   0.02288153            1 
 1607000    1.0206508   -7.7379388    439.91335  0.022812349  0.022875221            5 
 1608000   0.99544329   -7.8167013    439.01706  0.022751713   0.02286871            1 
 1609000    1.0034698   -7.7866771    439.55858  0.022765619  0.022862118            5 
 1610000   0.98426602   -7.7476698    441.20186  0.022836535  0.022855742            2 
 1611000   0.99785945   -7.7636141    439.35521  0.022726837  0.022849326            2 
 1612000   0.99966694   -7.7695487    439.72745  0.022731981  0.022842859            3 
 1613000   0.98622331     -7.77517    440.28936  0.022746919  0.022836517            5 
 1614000   0.98161536   -7.7515568    439.65502  0.022700073  0.022830065            9 
 1615000   0.98062853   -7.7809035    440.85327  0.022747847  0.022823694            6 
 1616000   0.99719912   -7.7772318    440.61766   0.02272162  0.022817344            3 
 1617000    1.0006445   -7.8004209    441.65853  0.022761211  0.022810964            4 
 1618000    0.9825705   -7.7574627    442.27823   0.02277906  0.022804551            2 
 1619000   0.97355753   -7.7803534    441.11106  0.022704914  0.022798115            2 
 1620000   0.98141806   -7.7571105    441.67746  0.022720034  0.022791665            2 
 1621000    1.0073491   -7.8257145    441.87301  0.022716071  0.022785181            2 
 1622000    0.9813209   -7.8214552    441.76159  0.022696342  0.022778762            1 
 1623000   0.98200516   -7.7828351    442.50457  0.022720506   0.02277227            1 
 1624000   0.99500804   -7.7930991    441.36066  0.022647817   0.02276573            2 
 1625000   0.99308081   -7.7948662    443.44064  0.022740546  0.022759277            2 
 1626000    1.0017762   -7.7767349    442.98523   0.02270322  0.022752865            3 
 1627000   0.98523195   -7.7885398    442.15389  0.022646686  0.022746515            3 
 1628000   0.99396068   -7.7970467    442.10899  0.022630476  0.022740111            3 
 1629000   0.99128698   -7.8174142    442.16967  0.022619688  0.022733785            2 
 1630000   0.98972436   -7.8140762    443.59152  0.022678503  0.022727367            2 
 1631000   0.98915457   -7.7998079     443.4912  0.022659473  0.022720951            3 
 1632000   0.98937858   -7.7837651    444.79132  0.022711975  0.022714524            5 
 1633000    1.0009567   -7.7711487    444.45534  0.022680922  0.022708124            3 
 1634000   0.97892962   -7.7920439    443.68481  0.022627744  0.022701792            1 
 1635000   0.99413738   -7.7745747    443.87236  0.022623464  0.022695436            2 
 1636000    1.0027083   -7.7733477      445.612  0.022698248  0.022689106            2 
 1637000   0.99527699   -7.8111246    442.67241  0.022534739  0.022682767            3 
 1638000   0.98674175   -7.7832676    444.41325  0.022609547   0.02267636            4 
 1639000   0.99471179   -7.7924584    444.21969  0.022585911  0.022670038            2 
 1640000   0.98516171   -7.7996373    445.54707  0.022639587  0.022663695            4 
 1641000   0.97977631   -7.8030601     444.2903  0.022561969  0.022657263            1 
 1642000   0.98710823   -7.7986015    444.42228  0.022554927  0.022650794            5 
 1643000    0.9851183    -7.789386    445.02313  0.022571674  0.022644305            1 
 1644000   0.96621134   -7.7837912    445.58872  0.022586614  0.022637855            4 
 1645000    1.0071576   -7.8214852    443.77108  0.022480805  0.022631431            1 
 1646000   0.97514917   -7.7997232    444.14375  0.022486014  0.022624901            2 
 1647000   0.98010026   -7.8234065    444.88791  0.022510014  0.022618338            5 
 1648000   0.98690185   -7.7636182    446.28246  0.022566872  0.022611802            2 
 1649000   0.98922375   -7.7934851    445.12928   0.02249491  0.022605303            2 
 1650000   0.98013561   -7.7940447    445.60438  0.022505272   0.02259882            2 
 1651000   0.98210597    -7.794755    446.08055  0.022515675  0.022592264            1 
 1652000   0.97909915   -7.8040765    446.59709  0.022528102  0.022585792            2 
 1653000   0.99348668   -7.7949921    446.31812  0.022500409  0.022579203            2 
 1654000   0.99835114   -7.8206878    445.92687  0.022467093  0.022572627            3 
 1655000    1.0036751   -7.8067382     446.7921  0.022497085  0.022566092            2 
 1656000   0.98854096   -7.8097743    445.89863  0.022438538  0.022559527            3 
 1657000   0.97678214   -7.8123742    446.15244  0.022437761  0.022552987            4 
 1658000   0.98759511   -7.8178207    445.53119  0.022393003  0.022546437            1 
 1659000    1.0074129   -7.7986791    445.83523  0.022394778  0.022539867            4 
 1660000   0.99381564   -7.7526894    448.58755  0.022519455  0.022533422            5 
 1661000    1.0082905   -7.7655728    447.80274  0.022466523  0.022526974            2 
 1662000    1.0121178   -7.7994193    447.10876  0.022418209   0.02252048            3 
 1663000   0.98398352   -7.8344054    446.10168  0.022354263  0.022513896            2 
 1664000   0.98573429   -7.7738781    447.32229  0.022401958  0.022507213            5 
 1665000   0.98889106   -7.7868679    447.18954  0.022381859   0.02250056           11 
 1666000   0.99731406   -7.8173082    447.03464  0.022360676   0.02249394            1 
 1667000    0.9706475    -7.820245    445.47748   0.02226942  0.022487219            3 
 1668000     1.000111   -7.8255816    447.16775  0.022340515  0.022480473            3 
 1669000   0.98009131   -7.8399955    447.56021  0.022346725  0.022473743            2 
 1670000   0.98972656   -7.8570415     446.4464  0.022277764  0.022467012            3 
 1671000   0.99248461   -7.8146152    447.37634  0.022310809  0.022460275            1 
 1672000   0.98032098     -7.80985    447.03194    0.0222803   0.02245361            2 
 1673000   0.98304276   -7.8005943    448.13973  0.022322162  0.022446955            3 
 1674000   0.99197535   -7.7755245     449.6115  0.022382094   0.02244033            1 
 1675000   0.98707962     -7.82234    448.05054  0.022291071  0.022433713            5 
 1676000   0.98895199   -7.7815415    449.05114  0.022327523  0.022427204            2 
 1677000   0.98317743   -7.7786643    449.85485  0.022354147  0.022420789            7 
 1678000   0.98422632    -7.796824    450.15583  0.022355772  0.022414348            5 
 1679000   0.97288687   -7.8269679    448.95687   0.02228295  0.022407811           10 
 1680000   0.99439621   -7.8114907    450.00935  0.022321893  0.022401225            1 
 1681000   0.99235074   -7.7884034    449.78842  0.022297661  0.022394649            2 
 1682000   0.98231378   -7.7833525    449.60653  0.022275393  0.022388099            3 
 1683000   0.96033582   -7.7812587    450.82967  0.022322721   0.02238153            3 
 1684000   0.96795589   -7.7874241    450.80831  0.022308408  0.022375018            5 
 1685000   0.97468118   -7.8016269    449.57741  0.022234293  0.022368538            5 
 1686000   0.99348954   -7.8219956    449.53894  0.022219204  0.022362049            2 
 1687000    0.9732771   -7.7788329    451.17886  0.022287041  0.022355529            3 
 1688000   0.97102783   -7.7972681    450.79918  0.022255094  0.022349153            5 
 1689000    0.9730132   -7.8086026     451.1306  0.022258269  0.022342731            4 
 1690000   0.97033853   -7.8025147    451.69206  0.022272784  0.022336207            3 
 1691000   0.95860522   -7.8381901    451.19987  0.022235358   0.02232975            5 
 1692000   0.98900289    -7.786973    452.31753  0.022277262  0.022323276            1 
 1693000   0.97518948   -7.7861818    452.16794   0.02225674  0.022316911            5 
 1694000   0.96704528   -7.7577771     452.8269  0.022276018  0.022310528            1 
 1695000   0.96919838   -7.8774825    450.97667  0.022171911  0.022304125            4 
 1696000   0.97181437   -7.8080153    452.62212  0.022239688  0.022297642            4 
 1697000   0.97535688   -7.7940748    453.05036  0.022247611  0.022291204            3 
 1698000   0.97571041    -7.816433    452.27019   0.02219622  0.022284771            2 
 1699000    1.0148282   -7.7945808    453.56239  0.022246537   0.02227836            3 
 1700000   0.99179327   -7.7750532    453.26531  0.022218888  0.022272028            2 
 1701000   0.99015905   -7.8366523    452.85185   0.02218557   0.02226558            4 
 1702000   0.97526655    -7.792989     453.6867  0.022213411  0.022259152            2 
 1703000   0.99661938   -7.8127283    452.84981  0.022159415  0.022252655            7 
 1704000   0.99420323   -7.8167454    453.24648   0.02216581  0.022246192            2 
 1705000   0.97766248   -7.8354289    452.52552  0.022117572   0.02223968            2 
 1706000   0.97876931    -7.814542    452.86849   0.02212136  0.022233211            3 
 1707000   0.98467214   -7.7998674    454.01637  0.022164439  0.022226747            4 
 1708000   0.96192386   -7.8108892    454.63518  0.022181654  0.022220305            2 
 1709000   0.95390823   -7.8327575    452.84522  0.022081393  0.022213812            2 
 1710000   0.97502171   -7.8163499    454.22926  0.022135929  0.022207397            2 
 1711000   0.96464247   -7.8414062    454.41245  0.022131914  0.022201026            3 
 1712000   0.95995426   -7.8344871    454.10916  0.022104223  0.022194653            3 
 1713000    0.9772985   -7.7748855    456.11294  0.022188798  0.022188359            2 
 1714000   0.96512549   -7.7918193    455.78849  0.022160078  0.022182137            6 
 1715000   0.97205288   -7.8115818    455.88191  0.022151696  0.022175915            5 
 1716000   0.97574909   -7.8141566      455.976  0.022143357  0.022169606            2 
 1717000   0.98885257   -7.8640057    454.22136    0.0220453  0.022163279            3 
 1718000   0.95030004   -7.8592651    456.05404  0.022121364  0.022156921            1 
 1719000   0.99911535   -7.8246843    457.12665  0.022160493  0.022150675            2 
 1720000    0.9689736   -7.8282547    456.49566  0.022117038  0.022144477            2 
 1721000   0.96866242   -7.7659789    458.52611  0.022202504  0.022138336            5 
 1722000   0.95882185   -7.8334156    455.88938   0.02206201  0.022132112            3 
 1723000   0.96736893   -7.8327202    456.28255  0.022068221  0.022125764            2 
 1724000   0.95416156    -7.820532    456.94138  0.022087267  0.022119514            4 
 1725000   0.99700743   -7.8297498      457.373  0.022095314  0.022113269            3 
 1726000   0.97615714   -7.8356905     456.8333  0.022056455  0.022106995            4 
 1727000   0.99835074   -7.7985873    458.15327  0.022107376  0.022100703            1 
 1728000   0.96534629   -7.8073707    457.53674  0.022064851  0.022094384            3 
 1729000    0.9674442    -7.828048    458.01719  0.022075245  0.022088143            4 
 1730000   0.98841702   -7.8292231    458.15934  0.022069332  0.022081902            2 
 1731000   0.97439519    -7.813776    458.82835   0.02208879  0.022075663            5 
 1732000     0.963869    -7.811378    458.40715  0.022055771  0.022069527            1 
 1733000   0.97731979   -7.8129691    457.34896   0.02199216  0.022063316            1 
 1734000   0.96936789   -7.7882558    459.52978  0.022084284  0.022057043            3 
 1735000   0.98103052   -7.8111943    458.47942  0.022021106  0.022050757            4 
 1736000   0.98528019    -7.812466    459.44195  0.022054625  0.022044454            6 
 1737000   0.99763821   -7.7989666    459.25902  0.022033152  0.022038357            1 
 1738000   0.96537136   -7.8231564    459.41261  0.022027839  0.022032185            5 
 1739000   0.96403225    -7.873021    459.04352  0.021997485  0.022025949            2 
 1740000    0.9796174   -7.8819263    458.56361  0.021961859  0.022019708            2 
 1741000    0.9994173   -7.8797996    458.85639  0.021963258  0.022013431            5 
 1742000   0.95899752   -7.8518964    460.33797  0.022021526    0.0220073            3 
 1743000   0.96845946   -7.8371752     460.1439  0.021999613  0.022001165            1 
 1744000   0.97978635   -7.8162175    459.62206  0.021962063  0.021994996            7 
 1745000   0.97866032   -7.8278311    459.52317  0.021944755  0.021988864            1 
 1746000   0.96895575    -7.862212     460.2616   0.02196743  0.021982704            2 
 1747000   0.96994972   -7.8508587    460.59774   0.02197089  0.021976509            2 
 1748000   0.96975223   -7.8754025    461.01499  0.021978213  0.021970317            1 
 1749000   0.96963062   -7.8661555    461.38553  0.021983301  0.021964133            2 
 1750000   0.96584024   -7.8554376    460.61638  0.021934113  0.021957941            2 
 1751000   0.96643331   -7.8704655    461.05954  0.021942678  0.021951731            2 
 1752000   0.97171517   -7.8058214    463.74206  0.022057747  0.021945686            2 
 1753000   0.97581097    -7.835791    460.76482  0.021903633  0.021939603            1 
 1754000   0.97495441   -7.8371054    462.69722  0.021982954  0.021933452            3 
 1755000   0.96649934   -7.8758223    460.39041  0.021860893  0.021927304            4 
 1756000   0.96091376   -7.8548378    461.32893  0.021892982  0.021921186            3 
 1757000   0.95600332   -7.8355733    462.71764  0.021946388  0.021915003            8 
 1758000   0.97778253   -7.8413533    462.70611  0.021933358  0.021908887            1 
 1759000   0.97389193   -7.7983484    462.96849  0.021933319   0.02190282            2 
 1760000   0.97802353   -7.8586938    463.88641  0.021964318  0.021896742            2 
 1761000   0.98263237   -7.8148099    463.40687  0.021929153  0.021890595            3 
 1762000   0.98181638   -7.8177458    463.70886   0.02193099  0.021884503            4 
 1763000    1.0037764   -7.8596622    464.23935  0.021943626  0.021878473            1 
 1764000   0.96417481   -7.7963277    463.54671  0.021898465  0.021872264            1 
 1765000   0.98031597   -7.8202217    463.17663  0.021868585  0.021866095            2 
 1766000   0.98496341   -7.7844546    462.74165  0.021835676  0.021859899           10 
 1767000   0.97103222   -7.8600089    461.43277  0.021761591  0.021853638            2 
 1768000   0.96730204   -7.8457462    462.95389  0.021820979   0.02184737            4 
 1769000   0.96399778    -7.853814    463.19264  0.021819891  0.021841174            6 
 1770000   0.98805238   -7.8622838    462.50962  0.021775406  0.021834845            2 
 1771000   0.97151239   -7.8689154    463.35102  0.021802702  0.021828448            2 
 1772000   0.97525011   -7.8424398    463.60352  0.021802272  0.021822186            2 
 1773000   0.95861245   -7.8819649      462.451  0.021735806  0.021815865            2 
 1774000   0.97148053   -7.8511722    462.95728  0.021747336  0.021809534            1 
 1775000    0.9607893   -7.8575412    463.20361  0.021746649  0.021803207            3 
 1776000   0.96488329   -7.8407779    463.89304  0.021766753  0.021796972            4 
 1777000   0.98068179   -7.8299359    465.29728  0.021820356  0.021790762            2 
 1778000   0.96866311   -7.8138969    466.02764  0.021842315  0.021784551            3 
 1779000   0.97819015   -7.8754537    464.00083  0.021735096  0.021778294            2 
 1780000   0.97344297   -7.8530469    466.11204  0.021821725  0.021771987            2 
 1781000    0.9688276   -7.8634137    464.17649  0.021718907  0.021765757            4 
 1782000   0.95473137   -7.8766518    464.63728  0.021728268  0.021759477            2 
 1783000   0.96394253   -7.8995313    463.13042  0.021645654  0.021753201            2 
 1784000   0.96067507   -7.8831279    466.08706   0.02177163  0.021746914            3 
 1785000   0.95266987   -7.8759052    466.34428  0.021771441  0.021740665            2 
 1786000   0.97524343   -7.8960515    464.70036  0.021682548  0.021734468            2 
 1787000   0.96212052   -7.8508946    466.64448  0.021761074  0.021728247            5 
 1788000   0.97905435   -7.9200738    464.96258  0.021670515  0.021722003            2 
 1789000   0.96642802   -7.8965962    464.64171  0.021643456  0.021715749            5 
 1790000   0.94938352   -7.9047414    465.89599  0.021689758  0.021709489            3 
 1791000   0.96409122   -7.9007515    465.60598  0.021664153  0.021703265            6 
 1792000   0.95985981   -7.8594183    465.16005  0.021631327  0.021697052            2 
 1793000   0.96878942   -7.8550412    466.24198  0.021669547  0.021690876            2 
 1794000   0.95560885   -7.8477533    465.87639  0.021640486  0.021684679            2 
 1795000    0.9554685   -7.8959739     466.1441  0.021640859  0.021678451            2 
 1796000   0.94690257   -7.8634468    466.42447  0.021641818  0.021672171            2 
 1797000   0.94888336   -7.8752912    467.01851  0.021657323  0.021665892            4 
 1798000   0.96956599   -7.8875795    467.42334  0.021664041  0.021659574            6 
 1799000     0.952966   -7.8472654    468.20318  0.021688122  0.021653341            4 
 1800000    0.9535612   -7.8862141     466.1686   0.02158188  0.021647096            5 
 1801000   0.96512311   -7.8487805    467.25628  0.021620224   0.02164083            2 
 1802000   0.97072121   -7.8658732    467.74563  0.021630856   0.02163463            1 
 1803000   0.98028564   -7.8763666    466.02922  0.021539528  0.021628318            3 
 1804000   0.94655241   -7.8714961    468.36964  0.021635701  0.021621981            2 
 1805000   0.95559511   -7.8732895    467.95326   0.02160449   0.02161563            3 
 1806000   0.94751001   -7.8819801    468.08516  0.021598614  0.021609345            5 
 1807000   0.97103259   -7.8835075    468.00164   0.02158281  0.021603028            2 
 1808000   0.94863399    -7.812745    469.84141  0.021655669  0.021596776            2 
 1809000   0.97013819     -7.84354    468.57373  0.021585302  0.021590457            3 
 1810000   0.97074651   -7.8524147    467.64157  0.021530459   0.02158409            4 
 1811000   0.94565714   -7.8360873    467.26413  0.021501202  0.021577773            7 
 1812000   0.95074683   -7.8155439    469.22497  0.021579515  0.021571361            2 
 1813000   0.98456993   -7.8659973    467.48655  0.021487707  0.021564984            6 
 1814000   0.95355127   -7.8934635     468.3915  0.021517434  0.021558661            2 
 1815000   0.97811814   -7.8391603    468.38651  0.021505349  0.021552316            2 
 1816000   0.96197938   -7.8940679    467.90396  0.021471364  0.021546013            3 
 1817000   0.96820476   -7.8902791    467.37816  0.021435432  0.021539648            4 
 1818000   0.95537463    -7.866835    469.04094   0.02149986  0.021533159            5 
 1819000   0.95642127   -7.8955522    467.52526  0.021418603  0.021526724            3 
 1820000   0.95487221   -7.8470911    469.40127  0.021492732  0.021520349            3 
 1821000   0.96645317   -7.8567045    469.00015  0.021462573  0.021513971            2 
 1822000   0.98333972   -7.8537442    468.66332  0.021435388    0.0215075            3 
 1823000     0.957493   -7.8530547    470.43833  0.021504769   0.02150107            1 
 1824000   0.97655827   -7.8188784    471.07489  0.021522062   0.02149467            3 
 1825000   0.96231554   -7.8480865    469.48555  0.021437697  0.021488307            5 
 1826000   0.95966502   -7.8347026     468.8137  0.021395295  0.021481919            5 
 1827000   0.97127182   -7.8506849    469.38782  0.021409771  0.021475542            4 
 1828000   0.95070125   -7.8795895     469.1543  0.021387413  0.021469125            3 
 1829000   0.95801405   -7.8811817    469.31019  0.021382823  0.021462643            2 
 1830000   0.95974166   -7.8496689    469.74962  0.021391149  0.021456142            2 
 1831000   0.96488016   -7.8644954     469.7058  0.021377471  0.021449673            1 
 1832000   0.96140447   -7.8723899    469.56918  0.021359588  0.021443157            7 
 1833000   0.96021715   -7.8785022    469.47702  0.021343745  0.021436556            1 
 1834000   0.93131203    -7.888031    468.17367  0.021272886  0.021429922            3 
 1835000   0.94252769    -7.909068    468.04143  0.021255287  0.021423262            3 
 1836000   0.93997355   -7.9084655    468.46132  0.021262769  0.021416573            4 
 1837000   0.94260404     -7.90079     467.5922  0.021211768  0.021409901            1 
 1838000   0.94336544    -7.867527    469.76807  0.021298879  0.021403172            3 
 1839000   0.95573034   -7.8688651    470.19685  0.021306727  0.021396469            6 
 1840000   0.96940051   -7.8830297    469.27333  0.021253321  0.021389841            1 
 1841000   0.95902498   -7.8762377    469.14552  0.021235991  0.021383196            3 
 1842000   0.97582421   -7.8532357    468.97528  0.021216761  0.021376531            2 
 1843000   0.96827627   -7.8368889    470.94556  0.021294337  0.021369947            2 
 1844000   0.94539354   -7.9108498    468.80696  0.021186143   0.02136325            4 
 1845000   0.95654065   -7.9129988    468.59681  0.021165167  0.021356471            2 
 1846000   0.95764306   -7.8728762    468.38272  0.021144038  0.021349678            3 
 1847000   0.94760021   -7.8709644    470.71668  0.021237894   0.02134297            2 
 1848000   0.94755648   -7.8719709    470.16755  0.021201639  0.021336324            1 
 1849000   0.96716556   -7.8500645    470.32324  0.021197189  0.021329675            3 
 1850000   0.93183545   -7.8870836    468.60548  0.021108355   0.02132289            1 
 1851000   0.96799825   -7.8970974    469.71744  0.021147013   0.02131601            1 
 1852000    0.9558737   -7.8953287    469.56089   0.02112855  0.021309244            4 
 1853000   0.93662328   -7.8832092    471.60474  0.021209064  0.021302486            2 
 1854000   0.95625205   -7.8793338    470.10543  0.021130233  0.021295791            2 
 1855000   0.96909646   -7.8962284    469.51317  0.021092236  0.021289036            2 
 1856000     0.950667   -7.8626933    470.65454  0.021132118  0.021282272            3 
 1857000   0.96921611   -7.9221664    468.55668  0.021026597  0.021275524            2 
 1858000   0.94532174   -7.9246667    469.11322  0.021040241  0.021268609            3 
 1859000   0.94462442   -7.8705176    471.14742   0.02112011  0.021261755            2 
 1860000   0.95065194   -7.8968284    470.34376  0.021072749  0.021254942            7 
 1861000   0.97034283   -7.8686294    472.43452  0.021155048  0.021248204            3 
 1862000   0.92653383   -7.8684059    472.13464  0.021130265  0.021241574            8 
 1863000    0.9503825   -7.9185352    470.89894  0.021063649   0.02123485            2 
 1864000   0.94359166   -7.8927353    470.60952   0.02103941  0.021228178            3 
 1865000   0.96579633   -7.8786004    472.00192  0.021090345  0.021221482            3 
 1866000   0.96300847   -7.8682722    472.20675   0.02108819  0.021214882            1 
 1867000   0.94479743   -7.9009972    472.82572  0.021104522  0.021208322            2 
 1868000   0.96308336   -7.8673966    472.91999   0.02109743   0.02120174            3 
 1869000   0.95950202   -7.9203915    471.65695  0.021029827  0.021195155            2 
 1870000   0.97278812    -7.872198    474.13078  0.021128822  0.021188603            2 
 1871000   0.93078173   -7.8894424     473.3397  0.021082296  0.021182102            5 
 1872000   0.94399416   -7.8905862    472.69083  0.021042149  0.021175482            4 
 1873000   0.93351502   -7.8778927    472.49997  0.021022423  0.021168926            2 
 1874000    0.9706551   -7.8842053    473.99355  0.021077621  0.021162375            2 
 1875000   0.95010315   -7.8698859    474.67458  0.021096648  0.021155805            1 
 1876000   0.95864854   -7.9142217    474.18249  0.021063543  0.021149228            4 
 1877000   0.95225989    -7.877315     474.0997  0.021048646  0.021142717            1 
 1878000   0.94385521    -7.894981    473.46025  0.021009063  0.021136214            4 
 1879000   0.94846471   -7.8897008    474.51476   0.02104465  0.021129655            2 
 1880000   0.94468489   -7.9074611    473.31625   0.02098033  0.021123001            3 
 1881000   0.93966326   -7.9061396    473.33305   0.02096992  0.021116333            2 
 1882000   0.93691626   -7.9059166    473.73513  0.020976582  0.021109666            1 
 1883000    0.9682192   -7.9123156     473.6796  0.020962985   0.02110297            4 
 1884000   0.93781475   -7.8986702    474.54861  0.020990296  0.021096316            2 
 1885000   0.97272219   -7.9112288      473.797  0.020945933  0.021089755            1 
 1886000   0.96028006   -7.8705041     474.4336  0.020962955  0.021083099            4 
 1887000   0.97942748   -7.9132961    473.90582  0.020928538  0.021076501            3 
 1888000   0.96085535   -7.8973768     475.3312  0.020980367  0.021069938            2 
 1889000   0.95387816   -7.8632265    475.63045  0.020982462  0.021063374            5 
 1890000   0.96677641   -7.9173859    474.97639  0.020942521  0.021056755            3 
 1891000   0.93318976   -7.8839851    476.15035  0.020983181  0.021050226            4 
 1892000    0.9596072   -7.8730528    475.64589  0.020949872  0.021043706            8 
 1893000   0.97155193   -7.9055029    475.27632  0.020922536  0.021037142            4 
 1894000   0.96217978   -7.9254995    475.50465  0.020921535  0.021030612           12 
 1895000   0.93519773   -7.9246804    476.49269  0.020953944  0.021024117            3 
 1896000   0.97241478   -7.8745396    476.59277  0.020947291  0.021017574            2 
 1897000   0.94893056   -7.8720563    477.98794  0.020997537  0.021011099            1 
 1898000   0.96189636   -7.8857713     477.0784   0.02094654  0.021004583            3 
 1899000    0.9576463   -7.9114955    477.38921  0.020949149  0.020998024            6 
 1900000   0.91830846   -7.9074765    476.12044  0.020882476  0.020991468            1 
 1901000   0.92756764   -7.8881362    477.26403  0.020921622  0.020984927            3 
 1902000   0.93879137   -7.8967179    478.62543   0.02097027  0.020978468            3 
 1903000   0.95933875   -7.8970935    477.01755   0.02088884  0.020972005            2 
 1904000   0.97396341   -7.9092968    476.83737  0.020869983  0.020965476            3 
 1905000   0.94355253   -7.9217326      476.816  0.020858093   0.02095893            2 
 1906000   0.96711215   -7.9030892    478.44651  0.020918438  0.020952406            3 
 1907000   0.94179381   -7.9262566    476.62393  0.020827824  0.020945829            3 
 1908000   0.97376805   -7.9372509    477.23503  0.020843598  0.020939186            2 
 1909000   0.95606729   -7.9636064    476.84007  0.020815439  0.020932524            2 
 1910000   0.94711766   -7.9334314    477.00032  0.020811532  0.020925836            5 
 1911000    0.9243055   -7.9321443    477.31332  0.020814291  0.020919188            3 
 1912000   0.94799743   -7.9238681    477.78907   0.02082414  0.020912574            3 
 1913000   0.94209843   -7.9054364    477.24538  0.020789571  0.020906039            3 
 1914000   0.95860079   -7.8987114    478.24483  0.020822224  0.020899468            4 
 1915000   0.93173443   -7.8817203    479.50426  0.020866156  0.020892992            2 
 1916000   0.93870011    -7.912151    478.63283  0.020817364  0.020886487            2 
 1917000    0.9359395   -7.8945056    478.35647  0.020794491  0.020879919            2 
 1918000   0.92591808   -7.9314649    478.84381  0.020804823  0.020873347            3 
 1919000   0.93843268   -7.9086329    477.88837  0.020752491  0.020866736           10 
 1920000    0.9546538     -7.90008     478.0251  0.020747617  0.020860099            6 
 1921000   0.97151478   -7.9134643    477.34297  0.020707226  0.020853486            3 
 1922000    0.9285409   -7.9312891    478.73134  0.020756649  0.020846909            2 
 1923000   0.95870496   -7.9136134    477.94192  0.020711645  0.020840322            5 
 1924000   0.95762387    -7.916519    478.49314  0.020724755  0.020833651            2 
 1925000   0.94975133   -7.9386562    477.52296   0.02067199  0.020826953            5 
 1926000   0.94338762   -7.9523563    478.09754  0.020686117  0.020820243            2 
 1927000   0.95299704    -7.909952    478.76754  0.020704357  0.020813532            4 
 1928000   0.94955094   -7.9084975    479.01524  0.020704324   0.02080686            1 
 1929000   0.94358753   -7.9377091    477.16114  0.020613493  0.020800148            3 
 1930000   0.94677462   -7.9453185    478.23013  0.020648969  0.020793457            3 
 1931000   0.94610566   -7.9304759    478.29964  0.020641276    0.0207868            3 
 1932000   0.94094121   -7.8781004     479.3841  0.020677368  0.020780108            2 
 1933000   0.93236106   -7.9412394    478.89519  0.020645594  0.020773547            3 
 1934000   0.95104914   -7.8885732    480.70079  0.020712719  0.020766917            2 
 1935000   0.93856071    -7.940821     479.5308  0.020651628  0.020760297            3 
 1936000   0.95014381   -7.9400176    480.04354  0.020663031  0.020753643            2 
 1937000   0.94779739   -7.9159145    480.62449  0.020677357  0.020747107            6 
 1938000   0.93615765   -7.9018136    480.20621  0.020648702  0.020740613            3 
 1939000    0.9528559   -7.8618686    479.39628  0.020603244  0.020734053            1 
 1940000   0.92809223   -7.9149708    479.84098  0.020611726  0.020727509            2 
 1941000   0.93132966   -7.8877074    479.80696  0.020599646  0.020720929            1 
 1942000   0.94254336   -7.9172553    480.17775   0.02060495  0.020714304            2 
 1943000   0.93832344   -7.8968259    480.90102  0.020625365  0.020707649            1 
 1944000   0.94649799   -7.9274146    479.77351  0.020566423  0.020701034            3 
 1945000   0.92926138   -7.9607273     480.1157   0.02057051   0.02069437            5 
 1946000   0.92977504   -7.9061701    479.75522  0.020544502  0.020687695            2 
 1947000   0.95297784   -7.9125464     481.3242  0.020601104   0.02068104            2 
 1948000   0.92255552    -7.945742    479.08803  0.020494868  0.020674346            3 
 1949000   0.94087669   -7.8986382    481.60472  0.020591958  0.020667684            3 
 1950000   0.93641935   -7.9152023     481.0769  0.020558842  0.020661014            1 
 1951000   0.95046874   -7.9465129    479.92337  0.020499033  0.020654375            3 
 1952000   0.93226035   -7.9164152    480.42453  0.020509927  0.020647735            2 
 1953000   0.93816871   -7.9125897     481.5533  0.020547589  0.020641058            3 
 1954000   0.94781088   -7.9295044    481.27429  0.020525174  0.020634417            2 
 1955000    0.9292904   -7.9206728    480.86369  0.020497173  0.020627819            3 
 1956000   0.94023262   -7.9235815     480.7181  0.020480492   0.02062119            2 
 1957000   0.92217357   -7.9601167    481.75557  0.020514204  0.020614601            1 
 1958000   0.96505964   -7.9151647     481.8905   0.02050947  0.020607939            3 
 1959000   0.93203756   -7.9172661    482.53633  0.020526473  0.020601274            4 
 1960000   0.94829274   -7.9329359    481.12897  0.020456164  0.020594646            2 
 1961000   0.94677873   -7.9709503    481.35923  0.020455517  0.020587952            2 
 1962000   0.92951664    -7.868592     482.6381   0.02049941  0.020581378            1 
 1963000   0.92836121    -7.914026    481.81685  0.020454103  0.020574806            2 
 1964000   0.94210272   -7.9087243    481.76056    0.0204413  0.020568189            2 
 1965000   0.94859308   -7.9276783    481.90153  0.020436876  0.020561517            2 
 1966000   0.93695625   -7.9185791    482.63864  0.020457725  0.020554887            2 
 1967000   0.94480005   -7.9359113    482.88176  0.020457624  0.020548298            5 
 1968000   0.92916714   -7.9160814    483.40217  0.020469266  0.020541753            1 
 1969000   0.92905766   -7.9287506    483.92737  0.020481098  0.020535151            3 
 1970000   0.93369765    -7.929091    482.07228  0.020392229  0.020528556            2 
 1971000   0.90073385   -7.8990639     483.4857  0.020441641  0.020521924            4 
 1972000   0.92892045   -7.9309568    483.79188  0.020444214  0.020515344            4 
 1973000     0.948385   -7.9186264    482.43034  0.020376345  0.020508676            3 
 1974000   0.91993145   -7.9432313    483.11979  0.020395128  0.020502021            2 
 1975000   0.92910432   -7.9526038    484.56019  0.020445578  0.020495444            1 
 1976000   0.94460186   -7.8913451    483.79275  0.020402866  0.020488885            2 
 1977000   0.93762542   -7.9413084     482.6609  0.020344837   0.02048228            2 
 1978000   0.93430951    -7.923561    483.40421  0.020365867  0.020475694            2 
 1979000   0.92441487   -7.9479078    484.15407  0.020387151  0.020469093            2 
 1980000   0.91610687    -7.942654    483.11059  0.020332937   0.02046254            2 
 1981000   0.92204516   -7.9478205    484.20655  0.020368776  0.020455929            3 
 1982000    0.9377674   -7.9222462    484.82754  0.020384609  0.020449371            4 
 1983000    0.9195902   -7.9313901    483.81101  0.020331611    0.0204428            3 
 1984000   0.92437255   -7.9563797    483.36933  0.020302811  0.020436201            2 
 1985000   0.91511468   -7.9224595    485.51885  0.020382823  0.020429624            1 
 1986000   0.92686143   -7.9618674    483.75223  0.020298432  0.020423018            3 
 1987000   0.92615613   -7.9308527    483.82542  0.020291286  0.020416398            4 
 1988000    0.9198818   -7.9692385    483.64163  0.020273375  0.020409739            4 
 1989000   0.94491203    -7.926939    484.32288  0.020291725  0.020403117            3 
 1990000   0.93397761   -7.9829633    483.42265   0.02024383  0.020396454            2 
 1991000   0.92962568   -7.9919805    484.37576  0.020273554  0.020389872            2 
 1992000   0.93707739   -7.9141434    485.45552  0.020308548  0.020383241            3 
 1993000   0.92889076   -7.9559398    484.92599  0.020276216  0.020376602            5 
 1994000   0.91657137   -7.9652062    484.94525  0.020266853  0.020369969            3 
 1995000   0.91398963   -7.9459385    485.25411  0.020269595  0.020363395            3 
 1996000   0.93774398   -7.9194087    485.51479  0.020270323  0.020356861            3 
 1997000    0.9156359   -7.9340389     485.4146  0.020255992  0.020350303            1 
 1998000   0.93076827   -7.9135004    486.25564  0.020280932  0.020343737            4 
 1999000   0.92795854   -7.9446397    485.29085  0.020230567  0.020337189            2 
 2000000     0.925375   -7.9323411    486.06951  0.020252896  0.020330644            5 
 2001000   0.92336961   -7.9141956    485.85174  0.020233706  0.020324115            6 
 2002000   0.93039284    -7.977129    484.65742  0.020173885  0.020317536            2 
 2003000   0.94609479   -7.9671586    484.91306  0.020174449   0.02031095            7 
 2004000   0.92436475   -7.9113154     486.5513  0.020232506   0.02030442            2 
 2005000   0.92133264   -7.9548263    486.54471  0.020222141  0.020297827            4 
 2006000   0.92183083   -7.9570456    487.12144  0.020236019  0.020291262            4 
 2007000   0.93917325   -7.9574899    485.84846   0.02017308  0.020284747            3 
 2008000   0.92077009   -7.9568293    486.36246  0.020184365  0.020278201            3 
 2009000   0.92282965   -7.9471831    487.06288  0.020203372  0.020271683            4 
 2010000   0.93116693   -7.9329857     487.3107  0.020203595   0.02026514            2 
 2011000   0.93608256   -7.9676575     486.9577   0.02017892  0.020258634            2 
 2012000   0.92409357   -7.9492176    487.54452  0.020193196   0.02025218            3 
 2013000   0.93578991   -7.9392446    488.72522  0.020232043  0.020245713            2 
 2014000   0.92215774   -7.9016803     487.9168  0.020188547  0.020239285            3 
 2015000   0.93998483   -7.9957428    487.55955  0.020163753  0.020232812            3 
 2016000   0.93173706   -7.9178406    487.52726  0.020152417   0.02022632            2 
 2017000   0.93421963   -7.9549257    487.33245  0.020134377  0.020219845            5 
 2018000   0.92888396   -7.9367251    487.26304  0.020121533  0.020213336            4 
 2019000     0.919918   -7.8864634    489.48143   0.02020313  0.020206897            5 
 2020000   0.94020972    -7.915926    489.13198  0.020178712  0.020200449            3 
 2021000    0.9324295   -7.9646362    488.07951   0.02012533  0.020193963            2 
 2022000   0.93237931   -7.9316543     488.5955  0.020136643  0.020187459            1 
 2023000   0.92188476   -7.9692289    487.32644  0.020074412  0.020180895            2 
 2024000   0.93316077   -7.9461928    486.73648  0.020040204  0.020174309            3 
 2025000   0.93186267   -7.9608286    487.63831   0.02006742  0.020167723            2 
 2026000   0.93432313   -7.9462243     487.1245  0.020036381  0.020161153            7 
 2027000   0.92373624   -7.9711375    488.99584   0.02010343  0.020154601            5 
 2028000   0.91381243   -7.9743134    488.13758   0.02005825   0.02014802            2 
 2029000   0.94356875    -7.975224    489.37126  0.020099033  0.020141436            6 
 2030000   0.93168894   -7.9726963    489.50371   0.02009457  0.020134896            1 
 2031000    0.9061519   -7.9937252    486.58711  0.019965005   0.02012838            3 
 2032000   0.91646546   -7.9609267    488.91012  0.020050448    0.0201219            3 
 2033000   0.92678615   -7.9608714    488.42924  0.020020874  0.020115434            2 
 2034000   0.93629572   -7.9616181    489.44698  0.020052728  0.020108976            3 
 2035000   0.92020799   -7.9737714    490.26742  0.020076471  0.020102524            3 
 2036000   0.96787503   -7.9599094    489.24436  0.020024736  0.020096113            5 
 2037000   0.92656314   -8.0027495    489.00177  0.020004982  0.020089652            2 
 2038000   0.93643784   -7.9479649    490.83011  0.020069926  0.020083186            3 
 2039000   0.92407907   -7.9629738    489.81331  0.020018527  0.020076785           12 
 2040000   0.90672436   -7.9458515    489.64069  0.020001662  0.020070337            3 
 2041000   0.92932564   -7.9438614    490.39022  0.020022465  0.020063904            5 
 2042000   0.92214546   -7.9961266    489.77982   0.01998775  0.020057389            5 
 2043000   0.92023236   -7.9938253    489.61718  0.019971332  0.020050932            2 
 2044000    0.9299187   -7.9812627    489.56837  0.019959572  0.020044497            5 
 2045000   0.92357714   -7.9694553    490.82007  0.020000818  0.020038047            2 
 2046000   0.91784447   -8.0089221    489.14189   0.01992269  0.020031563            4 
 2047000   0.94038811   -7.9705521    490.87522  0.019983521  0.020025087            4 
 2048000    0.9242606   -7.9714787    490.54792  0.019960446   0.02001867            4 
 2049000   0.94204951   -7.9310263    492.89031   0.02004597  0.020012311            3 
 2050000   0.90016582   -7.9576937    492.79421  0.020032285  0.020005982            3 
 2051000   0.92691202   -7.9357361    492.73445   0.02002009  0.019999611            3 
 2052000   0.93208009   -7.9573225    491.63034  0.019965495   0.01999322            2 
 2053000   0.94178368   -7.9697506    492.36116  0.019985434  0.019986815            1 
 2054000   0.93984903   -7.9634938    491.96482  0.019959624  0.019980433            2 
 2055000   0.92744735   -7.9594608    492.34751   0.01996543  0.019974062            2 
 2056000   0.92237708   -8.0097114    491.17086  0.019908028  0.019967661            3 
 2057000   0.91915329    -7.964596    491.96467  0.019930508  0.019961267            1 
 2058000     0.914066   -7.9706631    492.56914    0.0199453  0.019954842            4 
 2059000   0.94399128    -7.963071    493.56573  0.019975948  0.019948455            2 
 2060000   0.90801449   -7.9542843    492.67288  0.019930133  0.019942089            2 
 2061000   0.93378742   -7.9898695    491.69593  0.019880961  0.019935698            3 
 2062000    0.9031304   -8.0224554    492.71763   0.01991261  0.019929279            1 
 2063000   0.92489005   -7.9866474    492.87817  0.019909443  0.019922945            3 
 2064000   0.93165647   -7.9689621    493.05012  0.019906739  0.019916617            1 
 2065000   0.93230455   -7.9650169    492.50913  0.019875268  0.019910264            1 
 2066000    0.9105493   -7.9896359    493.47604  0.019904648  0.019903895            2 
 2067000    0.9144224   -7.9690255    493.95075  0.019914157  0.019897533            3 
 2068000   0.91076302   -7.9864832    493.42991  0.019883539  0.019891167            3 
 2069000   0.93774297   -7.9684998     492.9218  0.019853464  0.019884808            3 
 2070000   0.92951377   -7.9832933    494.13033  0.019892525   0.01987849            4 
 2071000   0.91664284   -7.9504135    493.51803  0.019858282  0.019872072            2 
 2072000   0.91418119   -7.9405271    493.59995  0.019851993  0.019865722            6 
 2073000   0.94891183   -7.9752685    492.76918   0.01980902  0.019859418            5 
 2074000   0.90683816   -7.9717303     495.1769  0.019896211  0.019853121            2 
 2075000   0.90577595   -7.9945745    493.15358  0.019805365  0.019846806            3 
 2076000   0.93793879   -7.9439301    494.55773  0.019852189  0.019840456            3 
 2077000   0.92909024   -7.9885575    494.96882  0.019859125  0.019834198            2 
 2078000   0.93131365   -7.9739747    495.10546  0.019855047  0.019827886            3 
 2079000   0.92593614   -7.9823478    495.01956  0.019842054  0.019821551            5 
 2080000   0.93378583   -7.9880281    493.64243  0.019777341  0.019815208            3 
 2081000   0.91388035   -8.0211557    493.11566  0.019746743  0.019808866            2 
 2082000   0.92390444   -7.9826544    495.58391  0.019836051   0.01980254            3 
 2083000   0.91128913   -7.9856491     494.0186  0.019763906   0.01979626            3 
 2084000   0.92444839   -7.9622082    495.85248  0.019827754  0.019789973            3 
 2085000   0.94289114   -7.9705343    494.18065  0.019751425   0.01978371            1 
 2086000   0.92356293   -7.9721898    496.38804  0.019830139  0.019777445            2 
 2087000   0.91852561   -7.9470233    495.84228  0.019798845  0.019771211            1 
 2088000   0.91250652    -7.990045    495.58057  0.019778918  0.019764934            3 
 2089000   0.90701426   -7.9742602    497.01939  0.019826847   0.01975869            1 
 2090000   0.92677519   -7.9322141    497.52253  0.019837421  0.019752469            1 
 2091000   0.92058994   -8.0077402    494.89496  0.019723217  0.019746242            3 
 2092000   0.90179715   -7.9662561    497.70498  0.019825724  0.019739993            3 
 2093000   0.90580024   -8.0131958    496.24503  0.019758123  0.019733713            5 
 2094000   0.92474845   -7.9619019    497.82852  0.019811705  0.019727496            4 
 2095000   0.88788745   -7.9887468    495.01119  0.019690183  0.019721265            3 
 2096000   0.92422582   -7.9844233    495.81739  0.019712841  0.019715077            3 
 2097000    0.9060631   -7.9674976    497.23808  0.019759898  0.019708949            1 
 2098000   0.89442385   -7.9457251    497.47585  0.019759924  0.019702866            3 
 2099000   0.90236004   -7.9776612    497.78217  0.019762672  0.019696703            2 
 2100000   0.93581117   -8.0115968    497.23975  0.019731736  0.019690477            4 
 2101000   0.92227894   -7.9960691    496.82097  0.019705734  0.019684275            2 
 2102000   0.91323598   -7.9631088    498.50467  0.019763109  0.019678083            3 
 2103000   0.90904362   -7.9644961    497.92328  0.019730673  0.019671908            3 
 2104000   0.90458977   -7.9652188    497.33917  0.019698161  0.019665733            3 
 2105000   0.93573374   -8.0322487    497.55879  0.019697498  0.019659477            2 
 2106000   0.90763285   -8.0245511    498.29086  0.019717112  0.019653261            4 
 2107000   0.90327002   -7.9915366    496.61391   0.01964143  0.019647063            6 
 2108000   0.90194338   -7.9753252    498.87343  0.019721436  0.019640825            1 
 2109000   0.93215723   -7.9668617    499.23225  0.019726262  0.019634648            3 
 2110000    0.9525885   -7.9769081    498.76217  0.019698348    0.0196285            4 
 2111000    0.9194651   -7.9758367    497.34478  0.019633064  0.019622321            4 
 2112000   0.91660721   -8.0369148    497.08537  0.019613533  0.019616123           11 
 2113000   0.90198416   -8.0018089    498.74776  0.019669812  0.019609937            8 
 2114000   0.90702149   -7.9811998     498.9061  0.019666749  0.019603772            3 
 2115000   0.90089322   -7.9767918    499.03064  0.019662358  0.019597605            2 
 2116000   0.90214656   -8.0107207    498.73653  0.019641483  0.019591392            4 
 2117000   0.91821223   -8.0190805    499.35872  0.019656697  0.019585178            2 
 2118000   0.91251007   -8.0198239    498.89912  0.019629333  0.019578973            5 
 2119000    0.9162464   -8.0162413    498.20627  0.019592822  0.019572795            3 
 2120000   0.91068789   -7.9918685    500.06353  0.019656585  0.019566588            2 
 2121000   0.91914113   -8.0139678    498.00948  0.019566615  0.019560421            3 
 2122000   0.91082108   -7.9879762    498.87954  0.019591562  0.019554179            6 
 2123000      0.90989   -7.9906325    498.83367  0.019580534  0.019547959            4 
 2124000   0.87992074    -8.033459    499.32406  0.019590555  0.019541759            3 
 2125000   0.92760416   -8.0089354    500.80171  0.019639283  0.019535523            6 
 2126000    0.9204139    -8.034883    498.65282  0.019545814  0.019529311            1 
 2127000   0.92521057    -8.023361    499.62521  0.019574722  0.019523035            7 
 2128000   0.90803495   -8.0286976    500.63218  0.019604957  0.019516756            4 
 2129000    0.9124104   -7.9859654    501.15814  0.019616335  0.019510541            3 
 2130000   0.91103527   -7.9918382    500.09778  0.019565641  0.019504338            2 
 2131000   0.90680843   -8.0064565    498.26701  0.019484867  0.019498057            5 
 2132000   0.87952097   -7.9940224    498.10538   0.01946941   0.01949179            4 
 2133000   0.89739562    -8.016202    499.57404  0.019517661  0.019485518            2 
 2134000   0.90653831    -8.053677    497.80239  0.019439331  0.019479276            6 
 2135000   0.90563599   -8.0221876     500.2901  0.019527326  0.019473043            2 
 2136000   0.87985732   -8.0035034    499.74216  0.019496807  0.019466843            4 
 2137000   0.90206397   -7.9862185    500.59955  0.019521118   0.01946067            1 
 2138000   0.91063269   -8.0249961    499.93575  0.019486114  0.019454466            4 
 2139000   0.88725775   -7.9965761    500.18317  0.019486644  0.019448257            9 
 2140000   0.90062693   -8.0239533    499.36417  0.019445645  0.019442044            3 
 2141000   0.90778418   -8.0145614    499.91204  0.019457887   0.01943582            7 
 2142000    0.9069195   -8.0249188    499.45442     0.019431  0.019429573            5 
 2143000   0.90765414   -7.9859465    500.50799  0.019462902  0.019423309            6 
 2144000   0.93246232   -8.0012618    501.19786  0.019480638  0.019417055            3 
 2145000   0.90899124   -8.0369004    499.56295   0.01940804  0.019410801            4 
 2146000   0.89759201   -7.9824655    500.85206  0.019449055  0.019404567            6 
 2147000   0.91076184   -8.0470382    501.00413  0.019445898   0.01939835            3 
 2148000   0.90758099   -8.0092909    501.14894  0.019442463  0.019392134            3 
 2149000   0.88204294   -8.0384246    501.26075  0.019437752  0.019385884            3 
 2150000    0.8802968   -8.0108676     500.9989  0.019418562  0.019379707            4 
 2151000   0.91380603    -7.996107    502.47402  0.019466683  0.019373555            2 
 2152000   0.90002923   -8.0077165     502.6021  0.019462597  0.019367382            2 
 2153000   0.89740685   -8.0248656    501.39376  0.019406787  0.019361176            8 
 2154000   0.88864166   -8.0342382    501.26122   0.01939265  0.019354999            3 
 2155000   0.91548149   -8.0073857    502.23304  0.019421231  0.019348867            2 
 2156000   0.91015122   -8.0418104    501.79506  0.019395294  0.019342721            2 
 2157000   0.91628316   -8.0137774    502.86129  0.019427496  0.019336597            2 
 2158000   0.89617509   -8.0163584    501.15076  0.019352439  0.019330467            2 
 2159000   0.92025103   -8.0316583    503.00286  0.019414963  0.019324293            3 
 2160000   0.92136623   -8.0078597    502.34328  0.019380528  0.019318138            2 
 2161000   0.91574628   -8.0525989    501.31068   0.01933174   0.01931199            3 
 2162000   0.92656693   -8.0194179    502.00994  0.019349751  0.019305783            4 
 2163000       0.9118   -8.0495918    501.99638  0.019340283  0.019299596            3 
 2164000   0.90228416   -8.0556186    502.15003  0.019337263  0.019293372            4 
 2165000   0.88600841   -8.0282553    501.49343  0.019303057  0.019287178            2 
 2166000   0.90097739     -8.03116    502.08417  0.019316873  0.019280978            2 
 2167000   0.91159086   -8.0320096    504.33345  0.019394457   0.01927482            4 
 2168000   0.91019532   -7.9758659    503.82337  0.019365905  0.019268662            3 
 2169000   0.90211949   -8.0402073    502.77359  0.019316643  0.019262475            2 
 2170000    0.9103444   -8.0599083    501.43125  0.019256192  0.019256164            6 
 2171000   0.89226078    -8.019391    503.24803  0.019317059  0.019249934            3 
 2172000   0.91045985   -8.0033967    503.19047  0.019305957  0.019243757            2 
 2173000   0.89233948   -8.0344372    503.53795  0.019310398  0.019237541            3 
 2174000   0.91034793   -8.0401995    502.31872  0.019254781  0.019231384            3 
 2175000   0.90914697   -8.0490985    502.91153  0.019268641   0.01922524            3 
 2176000   0.91307604   -8.0328812      503.944  0.019299326  0.019219096            4 
 2177000   0.89836863   -8.0473415    503.57014   0.01927615  0.019212946            2 
 2178000   0.90577672   -8.0379345     502.6145  0.019230736  0.019206787            6 
 2179000   0.91343841   -8.0153245    503.62213  0.019260445  0.019200638            6 
 2180000   0.89916957   -8.0151109    503.16981   0.01923432  0.019194508            4 
 2181000   0.89650631   -8.0379121    504.52516  0.019277287  0.019188337            3 
 2182000   0.90695315   -8.0138804    503.33081  0.019222839  0.019182179            2 
 2183000   0.90490877   -8.0211395    504.31136  0.019251464  0.019176104            2 
 2184000   0.91771498   -8.0534426    503.77308  0.019222111  0.019169922            2 
 2185000   0.88997414   -8.0477594    503.50377  0.019203042  0.019163746            4 
 2186000   0.88340753   -8.0638891    503.76121  0.019204072  0.019157592            9 
 2187000   0.91703714   -8.0534679    503.13873  0.019171572   0.01915142            7 
 2188000   0.91475475   -8.0441931    504.15084  0.019201357  0.019145286            2 
 2189000   0.90616663   -8.0345984     504.9178  0.019221783  0.019139164            3 
 2190000   0.91114595   -8.0792985    503.54244  0.019160671  0.019132986            6 
 2191000   0.90361808   -8.0691779    504.41616  0.019185157  0.019126808            3 
 2192000   0.89243356   -8.0388852    505.25046  0.019208123  0.019120674            3 
 2193000   0.90662122   -8.0639147    504.15695  0.019157811  0.019114547            1 
 2194000   0.88418184   -8.0017737    505.27414  0.019191512  0.019108432            3 
 2195000   0.89884511    -8.006644    504.99938  0.019172338  0.019102302            5 
 2196000   0.90471809   -8.0470794     503.7623  0.019116663  0.019096146           10 
 2197000   0.92358595   -8.0106523    504.42652  0.019133156   0.01908996            2 
 2198000   0.89441206    -8.028222    504.62618  0.019132021  0.019083833            2 
 2199000   0.91717171   -8.0248067    505.72178  0.019164839  0.019077662            2 
 2200000   0.89988821   -8.0195445    505.11206  0.019133033  0.019071541            3 
 2201000   0.91016994   -8.0299995    505.21281  0.019128154  0.019065418            2 
 2202000   0.90624845   -8.0240393    504.70511  0.019100254  0.019059197            2 
 2203000   0.90228185   -8.0204013    504.77784  0.019094335  0.019053027            3 
 2204000   0.88449895   -8.0455453    506.26746  0.019141994  0.019046856            2 
 2205000   0.89547941   -8.0035384    505.80444  0.019115814  0.019040687            1 
 2206000   0.91879206   -8.0181989     505.5916  0.019099108  0.019034575            7 
 2207000   0.90424222   -8.0443075    504.53104  0.019050409  0.019028407            3 
 2208000   0.88443181   -8.0394751    506.07097  0.019099901  0.019022234            2 
 2209000   0.90141219   -8.0278554    505.60946  0.019073844  0.019016085            1 
 2210000   0.92130544   -8.0179948    505.61482  0.019065416  0.019009947            2 
 2211000   0.87612424    -8.044461    505.19794   0.01904108  0.019003811            1 
 2212000   0.88810695   -8.0482354    506.55097  0.019083445  0.018997651            2 
 2213000   0.89968728   -8.0252277    505.22305  0.019024817  0.018991582            1 
 2214000   0.89612301   -8.0383895    505.63204  0.019031618  0.018985478           11 
 2215000   0.88866024    -8.036977    506.76321  0.019065583  0.018979392            2 
 2216000   0.88427222    -8.029969    506.40619  0.019043554  0.018973313            7 
 2217000   0.88369963   -8.0542048    505.65544  0.019006745   0.01896721            2 
 2218000   0.90171966   -8.0073453    507.24526  0.019057907  0.018961122            5 
 2219000   0.90289791   -8.0592671     506.2377   0.01901148  0.018955015            3 
 2220000   0.90708357   -8.0564763    507.05397  0.019033557  0.018948837            4 
 2221000   0.90326029   -8.0500278    506.75635  0.019013821  0.018942694            7 
 2222000   0.87810399   -8.0507636    506.01212  0.018977352  0.018936587            2 
 2223000   0.90719721   -8.0457019     505.8386  0.018962311  0.018930487            2 
 2224000   0.89363482   -8.0704432     506.8199  0.018990554  0.018924322            2 
 2225000   0.90459525   -8.0715714    507.23585  0.018997597   0.01891819            3 
 2226000   0.89330325   -8.0658885    506.62335  0.018966133  0.018912065            2 
 2227000   0.89833107   -8.0416483    508.41122  0.019024518   0.01890594            6 
 2228000   0.89477327   -8.0414379    507.37445  0.018977201  0.018899862            2 
 2229000   0.89571121   -8.0245678    509.12304   0.01903406  0.018893807            1 
 2230000   0.90843444   -8.0142187    508.64551   0.01900768   0.01888776            3 
 2231000   0.88437629   -8.0173034    507.50903   0.01895671  0.018881757            4 
 2232000   0.89764876   -8.0120169    508.17463  0.018973067  0.018875747            1 
 2233000   0.90309822   -8.0567601    507.53841  0.018940827  0.018869628            2 
 2234000   0.88981929   -8.0523546     508.0113  0.018949989  0.018863518            2 
 2235000   0.91871893   -8.0636543    507.80045  0.018933648  0.018857478            3 
 2236000   0.88757159   -8.0668295    508.47076  0.018950162    0.0188514            3 
 2237000   0.89243479    -8.061803     508.0655  0.018926594  0.018845362            3 
 2238000   0.90330932   -8.0407806    509.26927   0.01896296  0.018839306            3 
 2239000    0.8973643   -8.0397676    507.75301  0.018898057  0.018833286            3 
 2240000   0.86751904    -8.026773    508.16824  0.018905068  0.018827263            3 
 2241000   0.88666463   -8.0602252    506.92634  0.018850451   0.01882126            3 
 2242000   0.89288911   -8.0372678     508.7787  0.018910894  0.018815286            4 
 2243000   0.89308909   -8.0388386    509.01657  0.018911301  0.018809288            4 
 2244000   0.90875091   -8.0615933    508.84699  0.018896576  0.018803227            2 
 2245000   0.89031536   -8.0734626    509.65963  0.018918323  0.018797222            4 
 2246000    0.8913735   -8.0459068    508.75418  0.018876305   0.01879118            1 
 2247000   0.88834724   -8.0439533    508.85089  0.018871491  0.018785178            3 
 2248000   0.88365036   -8.0600834    509.14002  0.018873814  0.018779125            3 
 2249000   0.89436342   -8.0508297    508.70872  0.018849441  0.018773028            9 
 2250000   0.88052993   -8.0743783    510.26448  0.018898684  0.018766944            2 
 2251000   0.86526152   -8.0669569    509.86802  0.018875612   0.01876088            2 
 2252000   0.90255874   -8.0659626    510.13914  0.018877263   0.01875486            3 
 2253000   0.89408953   -8.0643023     508.7842  0.018818768  0.018748864            2 
 2254000   0.90115366   -8.0798274    509.41802  0.018833852  0.018742805            3 
 2255000   0.89245467   -8.0702481    508.77993  0.018801919  0.018736779            3 
 2256000   0.88116513   -8.0862174    509.27923  0.018812028  0.018730718            1 
 2257000   0.88183155   -8.0553137    509.98982   0.01882993  0.018724639            3 
 2258000   0.89103157   -8.0615222    510.70749  0.018848077  0.018718582            6 
 2259000   0.90664389   -8.0539813    510.31677   0.01882532  0.018712523            2 
 2260000    0.9006004   -8.0356195    509.33113  0.018780646  0.018706458            1 
 2261000   0.89088012      -8.0422     509.0624  0.018762435  0.018700383            2 
 2262000   0.90628389   -8.0546677    509.84534  0.018782985   0.01869433            1 
 2263000   0.86470626   -8.0753236    509.63401  0.018766903  0.018688265            7 
 2264000   0.87799532   -8.0962032     509.2585  0.018744792  0.018682187            5 
 2265000   0.90112431    -8.058765    510.22636  0.018772125  0.018676123            3 
 2266000   0.91754866   -8.0528053    509.42513  0.018734375  0.018670065            3 
 2267000    0.8761819   -8.0359954    510.85638  0.018778723  0.018663994            3 
 2268000   0.88635381   -8.0240925    510.53486  0.018758629  0.018657939            7 
 2269000   0.89314571   -8.0603958    510.62503  0.018753674  0.018651891            2 
 2270000   0.88943693    -8.049609    511.32126  0.018770972  0.018645829            3 
 2271000   0.89868089   -8.0493312    510.58281  0.018735609  0.018639786            2 
 2272000   0.87279192    -8.071114    510.90017  0.018739003   0.01863373            4 
 2273000   0.90021187   -8.0591457     510.7347  0.018724692  0.018627715            3 
 2274000   0.89014914   -8.0404796    511.33349  0.018738401  0.018621735            4 
 2275000   0.87795981   -8.0872122    511.57272  0.018738927  0.018615755            2 
 2276000   0.88446076   -8.0712631    511.87809  0.018741875  0.018609746            2 
 2277000   0.86998376   -8.0555929    511.18414  0.018708247  0.018603728            7 
 2278000   0.87762357    -8.100774    511.56872  0.018714103  0.018597684            2 
 2279000    0.8819802    -8.106359     511.7643  0.018713043  0.018591622            1 
 2280000   0.90184209   -8.0759142    510.60839  0.018662587  0.018585581            2 
 2281000   0.90541528   -8.0835746    511.99795  0.018705171  0.018579561            3 
 2282000     0.878174   -8.0666483    512.00141  0.018697101  0.018573516            6 
 2283000   0.88289945   -8.0940524    511.56882  0.018673121  0.018567495            3 
 2284000   0.89383259   -8.0950797    512.15079  0.018686179  0.018561523            5 
 2285000   0.89973749   -8.0934384    512.48639   0.01869024  0.018555526            2 
 2286000    0.8885144   -8.1154695    511.90623  0.018660915  0.018549557            5 
 2287000     0.887538   -8.0757428    512.23057  0.018664574  0.018543627            4 
 2288000   0.87606131   -8.0786278    513.04705  0.018686154  0.018537615            8 
 2289000   0.89222927   -8.1134336    511.67603  0.018628077  0.018531588            2 
 2290000   0.90510681   -8.0788109    513.63596  0.018691265  0.018525594            2 
 2291000   0.89594204   -8.0794184    512.85424  0.018654672  0.018519664            4 
 2292000   0.87553765   -8.0998877    511.71753  0.018605204   0.01851373            2 
 2293000   0.90672738   -8.0310618    513.70238  0.018669225  0.018507792            5 
 2294000   0.90780038   -8.0836599    512.54245   0.01861895  0.018501863            5 
 2295000   0.86278823   -8.0556634    514.31309   0.01867513   0.01849594            3 
 2296000   0.88621355   -8.0351603    513.21207  0.018627035  0.018490046            3 
 2297000    0.9052189   -8.0921449    512.37366  0.018588509  0.018484128            3 
 2298000    0.8755984   -8.0376467    514.70669  0.018665024  0.018478242            5 
 2299000   0.86837333   -8.0782073    512.48111  0.018576233   0.01847236            9 
 2300000   0.88811341   -8.0471647    514.78162  0.018651508  0.018466463            3 
 2301000   0.90217197   -8.0905321      514.065  0.018617449  0.018460572            2 
 2302000   0.87907114   -8.0837221    514.37942  0.018620744  0.018454662            3 
 2303000   0.89516258   -8.0839947    511.92388  0.018523805  0.018448746            4 
 2304000   0.88635758   -8.0975756    515.10783  0.018630926   0.01844284            2 
 2305000   0.88231878   -8.0945594    514.09711  0.018586302  0.018436913            3 
 2306000   0.87721858   -8.1107576     513.2062  0.018546047  0.018430937            2 
 2307000    0.8962968   -8.1056504    513.64226  0.018553759  0.018424977            4 
 2308000   0.89398339   -8.1301873    512.84265  0.018516849   0.01841899            3 
 2309000   0.88130694   -8.0973664    513.73658  0.018541092  0.018413017            5 
 2310000   0.89423309   -8.0733119    513.95266  0.018540861  0.018407056            3 
 2311000   0.88493105   -8.0389085    515.18162  0.018577153  0.018401125            6 
 2312000   0.89030034   -8.0713452      514.326  0.018538279  0.018395215            3 
 2313000   0.87321307   -8.0864634    514.30217  0.018529405  0.018389308            2 
 2314000    0.9056496   -8.0593008    514.91217  0.018543365  0.018383432            3 
 2315000   0.88545036   -8.0732759    514.39056  0.018516579  0.018377469            3 
 2316000    0.8781509    -8.081201    513.44481  0.018474554  0.018371439            3 
 2317000   0.88428853   -8.0818912     513.9627  0.018485207  0.018365449            3 
 2318000   0.88839088   -8.0800527    513.13479  0.018447469  0.018359501            3 
 2319000   0.87318037   -8.0905091    513.23674  0.018443177  0.018353563            1 
 2320000   0.87628994   -8.0962387     514.2645  0.018472144  0.018347602            4 
 2321000   0.88668689   -8.0823703    515.32054  0.018502102  0.018341656            8 
 2322000   0.87574305   -8.0862459    514.56039  0.018466853   0.01833572            5 
 2323000   0.89362672   -8.0752333    514.31492  0.018450098  0.018329767            6 
 2324000   0.88690615   -8.0865488    514.72943  0.018457022  0.018323852            4 
 2325000   0.90165711   -8.0816408    514.12178  0.018427304  0.018317927            8 
 2326000   0.89499373   -8.0623735    514.73226  0.018441253  0.018311979            6 
 2327000   0.88065714   -8.1114429    514.83096  0.018436863  0.018306012            6 
 2328000   0.87547807   -8.1023806    515.54928  0.018454656  0.018300028            5 
 2329000   0.89914816   -8.0734105      514.772  0.018418921  0.018294067            2 
 2330000   0.88839111   -8.0845344    514.60392  0.018405004  0.018288079            1 
 2331000   0.90067318   -8.1457065    514.54552  0.018395021  0.018282111            3 
 2332000   0.89377939   -8.1020897    516.17848  0.018445486  0.018276141            4 
 2333000   0.89012487   -8.0747551    514.49029  0.018377279  0.018270173            3 
 2334000   0.87926589    -8.093478    514.35028  0.018364406  0.018264202            2 
 2335000   0.87505579   -8.1283074     515.9816  0.018414761  0.018258233            5 
 2336000   0.88604189   -8.1106964    514.28101  0.018346212  0.018252245            2 
 2337000   0.87191355   -8.1269755    513.89863  0.018324727  0.018246252            4 
 2338000   0.87972862   -8.1143403    515.24157  0.018364755   0.01824023            4 
 2339000   0.86223632   -8.0841873     516.0906  0.018387153  0.018234274            2 
 2340000   0.86846533   -8.1230626    513.72505  0.018295051  0.018228284            4 
 2341000   0.87121693   -8.1000413    514.97995  0.018331908  0.018222282            4 
 2342000    0.8728072    -8.110073    514.87583  0.018320375  0.018216283            4 
 2343000   0.88040256   -8.1060655    514.95794  0.018315477  0.018210245            2 
 2344000   0.88711515    -8.161359    514.20423  0.018280867  0.018204201            2 
 2345000   0.87439662   -8.1084911     515.1712  0.018307434  0.018198157            2 
 2346000   0.85816938   -8.1350139    514.94485   0.01829159  0.018192108            7 
 2347000   0.87657421   -8.1230978    515.28813  0.018295985  0.018186064            4 
 2348000   0.89945915   -8.1301155    516.29961  0.018324092  0.018180111            2 
 2349000    0.8929841   -8.0940823    516.01682  0.018306259  0.018174087            1 
 2350000    0.8832766   -8.1047971    515.43525  0.018277846  0.018168117            2 
 2351000   0.88649763   -8.1196655    516.47642  0.018306976  0.018162153            3 
 2352000   0.87453139   -8.1078274     515.7681  0.018274096  0.018156214            4 
 2353000   0.88210815   -8.1077411    515.31995  0.018250459  0.018150254            2 
 2354000   0.88125562   -8.1259201    516.42808  0.018281934  0.018144274            3 
 2355000   0.87426384    -8.108426    516.60611  0.018280471  0.018138321            5 
 2356000   0.88927736   -8.0820263    515.59245  0.018236858  0.018132386            2 
 2357000   0.86245443   -8.1344146    516.55299  0.018263081  0.018126418            3 
 2358000   0.86844502   -8.1187345    515.78886  0.018228331  0.018120425            3 
 2359000   0.85875597   -8.1202256    516.45237  0.018244043  0.018114432            2 
 2360000   0.86831314   -8.1089902    517.21012  0.018263069  0.018108489            3 
 2361000   0.86118347   -8.1180188    517.65789  0.018271138  0.018102514            3 
 2362000   0.85007907   -8.1041421    514.97772  0.018168844  0.018096555            4 
 2363000   0.88019979   -8.0896622    518.52906  0.018286397  0.018090615            5 
 2364000   0.88139713   -8.1243106    515.60031   0.01817542  0.018084663            2 
 2365000   0.87482103   -8.1159485    516.14243  0.018186837  0.018078682            2 
 2366000   0.88520055   -8.0904505    515.81813  0.018167728  0.018072692            2 
 2367000   0.87562629   -8.0914429    517.35634  0.018214207  0.018066736            2 
 2368000   0.86762084   -8.1144016     516.7776  0.018186149  0.018060766            4 
 2369000   0.86317879   -8.1268845     516.5775  0.018171433  0.018054803            2 
 2370000   0.87155477   -8.1197898    516.81028  0.018171951  0.018048901            5 
 2371000   0.88123999   -8.1268477    517.43313  0.018186178  0.018042951            4 
 2372000   0.86836988   -8.1315339    517.57959  0.018183656  0.018037002            7 
 2373000   0.89388497   -8.1113685    517.43671  0.018170976  0.018031077            1 
 2374000   0.86851245   -8.0997439    518.05806  0.018185133  0.018025139           13 
 2375000   0.86488379   -8.0999336    516.67371  0.018128902  0.018019202            8 
 2376000    0.8715498   -8.1173862    516.79097  0.018125385  0.018013254            2 
 2377000   0.87460283   -8.1216984    517.44885  0.018140823  0.018007332            3 
 2378000   0.87619215   -8.0784833     518.6198  0.018174229  0.018001425            4 
 2379000   0.88837597   -8.0935366    518.92443   0.01817726  0.017995568            6 
 2380000   0.87637022   -8.1131457    517.98706  0.018136802  0.017989697           17 
 2381000   0.87673023   -8.1243345    516.55888  0.018079199  0.017983743           12 
 2382000   0.84792884   -8.1270692    517.61874  0.018108688   0.01797783           11 
 2383000   0.87824708   -8.0895341    519.50223  0.018166955  0.017971953            7 
 2384000   0.86760553   -8.0966621    518.11264   0.01811076  0.017966085            1 
 2385000   0.86568053   -8.1195582    519.34777  0.018146323  0.017960219            4 
 2386000   0.89500051   -8.1351547    517.57987  0.018076972  0.017954342            5 
 2387000   0.86043888   -8.1455536    518.48389   0.01810096  0.017948451            7 
 2388000   0.85700591   -8.0834299    519.39933  0.018125326  0.017942606            3 
 2389000   0.87349483   -8.1117338    519.72423  0.018129072  0.017936756            3 
 2390000   0.87154138   -8.1147561    518.69844   0.01808572  0.017930872            5 
 2391000   0.87552773   -8.1204896    518.94542  0.018086764  0.017925006            1 
 2392000   0.85759394   -8.1325975    519.01189  0.018081518  0.017919125            1 
 2393000   0.86124414   -8.1477588    519.14136   0.01807847  0.017913236            2 
 2394000   0.88288658   -8.1299924    520.19435  0.018107573  0.017907379            2 
 2395000   0.87167392   -8.0993195    519.79249   0.01808603  0.017901548            3 
 2396000    0.8640212    -8.105901    518.39608  0.018029914  0.017895695            5 
 2397000   0.86068268   -8.1370405     518.4615  0.018024666  0.017889788            8 
 2398000   0.88187431   -8.1632761    517.52237  0.017984514  0.017883869            6 
 2399000     0.865796   -8.1274861      518.543  0.018012471  0.017877969            4 
 2400000   0.88172517   -8.0897101    519.51539  0.018038729  0.017872092            5 
 2401000   0.85500693   -8.1401068    519.27382  0.018022832  0.017866234            5 
 2402000   0.86302194   -8.1370341    519.63198  0.018027754  0.017860386            4 
 2403000   0.85958889   -8.1334384    519.44696  0.018013835   0.01785452            8 
 2404000   0.87947053   -8.1091391    521.14905  0.018065344  0.017848699            2 
 2405000   0.87132839   -8.1484978    519.50316  0.018000802  0.017842906            5 
 2406000   0.87265311   -8.1490538    520.15279  0.018015821  0.017837116            2 
 2407000   0.86104333   -8.1262465    519.77992  0.017995427  0.017831318            4 
 2408000   0.87710917   -8.1363911    520.08747  0.017998597   0.01782549            2 
 2409000   0.85855295   -8.1414216    519.69853  0.017977672   0.01781967            2 
 2410000   0.85882582   -8.1207792    521.62133  0.018036699  0.017813884            4 
 2411000   0.85530892   -8.1540286     520.8541  0.018002699  0.017808101            7 
 2412000   0.85585161   -8.1376648    520.71666  0.017990487  0.017802302            3 
 2413000   0.87682869   -8.1288284    522.43202  0.018042272  0.017796502            4 
 2414000   0.86796081   -8.1302912    521.61841  0.018006711   0.01779072            8 
 2415000   0.86082484   -8.1677976    519.28867  0.017918864  0.017784949            5 
 2416000   0.86706414   -8.1367832    521.12439  0.017974765  0.017779142            4 
 2417000   0.86185313   -8.1043661    521.05559  0.017964956  0.017773335            2 
 2418000   0.87667961   -8.1483905    520.27903  0.017930763  0.017767565            8 
 2419000    0.8660208    -8.094266    520.89406  0.017944538    0.0177618            3 
 2420000   0.87079259   -8.1302826    521.49619  0.017957858  0.017756045            4 
 2421000   0.84489511   -8.0974677    522.14233  0.017972681  0.017750326            3 
 2422000   0.85375232   -8.1231785    521.12094  0.017930118  0.017744635            4 
 2423000   0.87425301   -8.1280557     521.2973  0.017928783  0.017738892            8 
 2424000   0.86296687   -8.1351478    522.07542  0.017948137   0.01773317            3 
 2425000   0.84134815   -8.1393738    522.88268  0.017968477   0.01772746            5 
 2426000   0.86098382   -8.0905266    523.39732  0.017978748  0.017721734            4 
 2427000   0.87929884   -8.1068143    523.28743  0.017967567   0.01771604            2 
 2428000   0.86638223    -8.117129    522.54188  0.017934579  0.017710316            6 
 2429000    0.8561276   -8.1236082    522.15273  0.017913844  0.017704602            6 
 2430000   0.86276119   -8.1135069    523.50168  0.017952732  0.017698902            5 
 2431000   0.88071475   -8.0975792    522.91926  0.017925382  0.017693222            4 
 2432000   0.84889544   -8.1266865    523.04505  0.017922322  0.017687495            2 
 2433000   0.85986967    -8.121447    522.56604  0.017898549  0.017681735            2 
 2434000    0.8451043   -8.1389856    521.56969  0.017857083  0.017675961            6 
 2435000    0.8465584   -8.1211988    523.52403  0.017916634  0.017670178            4 
 2436000   0.85823546   -8.1351253    522.27224  0.017866456  0.017664396            2 
 2437000   0.88601304   -8.1306366    523.11283  0.017887869  0.017658662            3 
 2438000   0.85997296   -8.1387038    521.57436  0.017827945    0.0176529            2 
 2439000   0.86265112   -8.1549377    522.23775  0.017843302  0.017647181            5 
 2440000   0.86006426   -8.1396438    522.99504  0.017861853  0.017641445            1 
 2441000   0.87459586   -8.1554831    522.25026  0.017829109  0.017635703            5 
 2442000   0.86464516   -8.1231938    523.26212  0.017856338  0.017629988            4 
 2443000   0.85931391   -8.1216836    522.84744  0.017834883  0.017624251            6 
 2444000   0.87536238   -8.1110517     521.6177  0.017785655  0.017618541            3 
 2445000   0.85735866   -8.1219915     521.5141   0.01777485  0.017612797            2 
 2446000   0.86563479   -8.1697547    521.96734  0.017783025  0.017606996            6 
 2447000   0.85822049   -8.1542884    523.62887  0.017832341  0.017601192            2 
 2448000   0.87858529    -8.161666    522.76721  0.017795725  0.017595393            1 
 2449000   0.84630014   -8.1573044    523.62126  0.017817519  0.017589614            6 
 2450000   0.85210161   -8.1693065    521.94653  0.017753283  0.017583822            3 
 2451000   0.84666836   -8.1546936    523.75805  0.017807631  0.017578015            3 
 2452000   0.85919115   -8.1122511    523.05273  0.017776398  0.017572198            8 
 2453000   0.85268862   -8.1376755    522.81416  0.017761046  0.017566412            9 
 2454000    0.8495761   -8.0951419    523.45965  0.017775729  0.017560625            8 
 2455000   0.84752586   -8.1295166    523.28172  0.017762448   0.01755482            7 
 2456000   0.84600078   -8.1294503     521.6703  0.017700539  0.017549007            2 
 2457000   0.86888974   -8.1259226    523.02282  0.017739208  0.017543181            3 
 2458000   0.84794001   -8.1800941    521.51215  0.017680775  0.017537339            3 
 2459000   0.86540029   -8.1705671    522.06895  0.017692455  0.017531511            2 
 2460000   0.86358979   -8.1725902    523.41684  0.017730923  0.017525656            3 
 2461000   0.83262678   -8.1616996    523.37588  0.017722331  0.017519825            6 
 2462000    0.8557805   -8.1604258    522.78327  0.017695074  0.017514016            1 
 2463000   0.85665356   -8.1866117    520.49229  0.017610376  0.017508162            2 
 2464000    0.8649559     -8.15402    522.85063   0.01768299  0.017502294            1 
 2465000   0.86000001   -8.1873956    522.56256  0.017666077  0.017496486            4 
 2466000   0.85093908   -8.1632425    523.43905  0.017688533  0.017490631            4 
 2467000   0.85231576   -8.1629544    522.36181  0.017644974  0.017484804            4 
 2468000   0.84543708   -8.1553055    523.25099  0.017667848  0.017478987            5 
 2469000   0.86559098   -8.1512272    523.42718  0.017666639  0.017473183            3 
 2470000   0.85374821   -8.1567933    523.58167  0.017664699   0.01746737            7 
 2471000   0.86316898   -8.1664551    522.55901  0.017623061  0.017461546            4 
 2472000   0.85303492   -8.1970213    521.78276  0.017589764  0.017455713            2 
 2473000   0.86587554   -8.1672917    522.67759  0.017612805  0.017449869            6 
 2474000   0.85633145   -8.1432459    523.12317  0.017620694  0.017444061            2 
 2475000   0.84486938   -8.1536107    523.31248  0.017619949  0.017438284            2 
 2476000   0.85612471   -8.1455489    522.57766  0.017588101  0.017432501            7 
 2477000   0.84806807   -8.1527073    524.25332  0.017637375  0.017426714            2 
 2478000   0.84994069   -8.1365961     523.8094  0.017615328  0.017420918            5 
 2479000   0.86604367   -8.1599959    523.85111  0.017609625   0.01741514            4 
 2480000   0.84807352    -8.137937    523.58887  0.017593712  0.017409331            2 
 2481000   0.83890605   -8.1262034    523.46253  0.017582377  0.017403508            4 
 2482000   0.87109333   -8.1943679    523.81946  0.017587277  0.017397666            6 
 2483000   0.85519605   -8.1389731    523.86939   0.01758187   0.01739182            2 
 2484000   0.84976139   -8.1499384    524.04173  0.017580573  0.017385949            3 
 2485000   0.85614449   -8.1920319    522.56724  0.017524052  0.017380056            3 
 2486000   0.86111523   -8.1847598     522.1111  0.017501713  0.017374179            3 
 2487000   0.83028247   -8.1439742    523.56412  0.017543363  0.017368319            4 
 2488000    0.8704694   -8.1689958     523.8152  0.017544721  0.017362437            4 
 2489000   0.82852354    -8.131659    523.84232  0.017538581  0.017356578            2 
 2490000   0.84928441   -8.1470802    522.84699  0.017498226  0.017350756            4 
 2491000   0.85159833   -8.2109556     521.5392  0.017447451  0.017344899           10 
 2492000   0.86527057   -8.1988749    523.49038  0.017505698  0.017339024            3 
 2493000   0.84890953   -8.1769819    522.42744  0.017463145  0.017333164            3 
 2494000     0.833211   -8.1974645    524.26161  0.017517429  0.017327296            5 
 2495000   0.84216323   -8.1867634    524.26815  0.017510626  0.017321421           15 
 2496000   0.84421112   -8.1754778    523.18234  0.017467359  0.017315565            6 
 2497000   0.84338745   -8.1530897    523.79734  0.017480888   0.01730972           10 
 2498000   0.86261207   -8.1735265    524.29492   0.01749049  0.017303883            2 
 2499000   0.85440029   -8.1901512    523.74037  0.017464998  0.017298029            2 
 2500000   0.84721601   -8.1412776    525.06379  0.017502126  0.017292188            5 
 2501000   0.86171973   -8.1298781    524.68098  0.017482373   0.01728641            2 
 2502000   0.83318204   -8.1461562    524.66073  0.017474711  0.017280596            2 
 2503000   0.84544046   -8.1581462    523.24892  0.017420726  0.017274802            3 
 2504000    0.8467229     -8.15336     524.7114   0.01746244  0.017269006            4 
 2505000   0.87135188   -8.1732696    524.36708  0.017444015  0.017263172            5 
 2506000   0.84883695   -8.1786211    523.71213  0.017415274  0.017257335            3 
 2507000   0.84679968   -8.1866224    524.07008  0.017420226  0.017251503            5 
 2508000    0.8560421   -8.1550523    523.62422  0.017398466  0.017245691            3 
 2509000   0.85679825   -8.1903549    523.86848  0.017399644  0.017239854            4 
 2510000    0.8405402   -8.1698954    523.06289  0.017365966  0.017234026            6 
 2511000   0.85951938     -8.16747    523.91094  0.017387194  0.017228227            3 
 2512000   0.83671913   -8.1967335    524.47146  0.017398868  0.017222378            8 
 2513000   0.85318017   -8.2091708    523.73179  0.017367416  0.017216511            8 
 2514000    0.8599278   -8.2353599    522.74822  0.017327904   0.01721065            3 
 2515000   0.85298559   -8.1738973    524.02035  0.017363166  0.017204782            4 
 2516000   0.84246309   -8.2018195    524.10349  0.017359019  0.017198946            4 
 2517000   0.85083966   -8.1698723    523.48394   0.01733161  0.017193119            3 
 2518000   0.84354345   -8.1868441    524.35718  0.017353627  0.017187256            2 
 2519000   0.85333287   -8.1858607    523.99985  0.017334916  0.017181408            3 
 2520000   0.85724769   -8.1847392    524.02711  0.017328939  0.017175558            4 
 2521000   0.85157734    -8.200127     523.6359  0.017309133  0.017169718            4 
 2522000   0.85145298   -8.1783072    523.50625  0.017297986  0.017163848            5 
 2523000   0.85365445   -8.1860005    523.73097  0.017298552  0.017158018            2 
 2524000   0.85415467   -8.1419721     525.2982  0.017343443   0.01715218            5 
 2525000   0.85061176    -8.168146    523.55877  0.017279167  0.017146352            2 
 2526000   0.83625181   -8.1937918    523.90085  0.017283612  0.017140486            2 
 2527000   0.84012287   -8.2024943    523.87079  0.017275781   0.01713458            7 
 2528000   0.83360299   -8.1888468    524.00739   0.01727345  0.017128728            7 
 2529000    0.8225891   -8.1902913    524.73652  0.017290646  0.017122876            4 
 2530000   0.85580337   -8.1608155    524.85279  0.017287641  0.017117052            2 
 2531000   0.85025107    -8.160063     526.3809  0.017331124  0.017111261            7 
 2532000   0.84384796   -8.1892193    523.72271  0.017236793  0.017105435            6 
 2533000   0.84660714   -8.2095264    523.94829  0.017237409  0.017099579            3 
 2534000    0.8716173   -8.1981985    524.19919  0.017238858  0.017093729            3 
 2535000    0.8583325   -8.1837267    524.44686  0.017240199  0.017087864            5 
 2536000   0.83017422   -8.1907021    525.03584  0.017252755  0.017082037            2 
 2537000   0.82459559   -8.1810809    526.45069  0.017292429  0.017076227            3 
 2538000   0.83130552   -8.1892486    525.17218  0.017243636  0.017070383            1 
 2539000   0.86086937    -8.186517    525.12296  0.017235229  0.017064548            3 
 2540000   0.84683068    -8.199031    525.30262  0.017234338  0.017058716            2 
 2541000   0.83935381   -8.1985826    524.84004  0.017212385  0.017052878            2 
 2542000   0.83476872    -8.207997    524.98974  0.017210521  0.017047048            3 
 2543000   0.85388217   -8.1614756    524.77177  0.017196611  0.017041266            3 
 2544000   0.85582435   -8.1730606    526.02632  0.017230946  0.017035485            7 
 2545000   0.83810427   -8.1541354    526.10614  0.017226789  0.017029716            2 
 2546000   0.85938663   -8.1641095    525.11376  0.017187541  0.017023936            4 
 2547000   0.84591509   -8.1836911    525.26202  0.017185644  0.017018152           14 
 2548000   0.83819785   -8.1327712    525.94492  0.017201233  0.017012368            2 
 2549000   0.86744924   -8.1931518     526.3446  0.017207552  0.017006579            5 
 2550000   0.84205713   -8.1954406    526.42807  0.017203532  0.017000768            3 
 2551000   0.85142232   -8.2009285    525.84018  0.017177583  0.016994993            3 
 2552000    0.8442716    -8.153411    527.47741  0.017224315  0.016989222            6 
 2553000   0.84810373   -8.1402589    525.94954  0.017167696  0.016983476            9 
 2554000   0.85627935   -8.1882263    525.51964  0.017146947  0.016977751            2 
 2555000   0.83774703   -8.1364028    526.21203  0.017162819  0.016972005            1 
 2556000   0.83013644   -8.1989124    526.27935  0.017158299  0.016966253            1 
 2557000   0.84415419   -8.1554426    526.80037  0.017168569  0.016960497            7 
 2558000   0.84484473   -8.2120256    524.44484   0.01708512  0.016954699            5 
 2559000      0.84282   -8.2282361    525.88598  0.017125374  0.016948869            3 
 2560000   0.85541018   -8.2044991    525.47423  0.017105281   0.01694305            7 
 2561000   0.83701188    -8.206506    525.47212  0.017098533  0.016937262            2 
 2562000   0.85188159   -8.2007353    526.52311  0.017126044  0.016931489            2 
 2563000   0.83800854   -8.1705849    527.06405  0.017136951   0.01692569            3 
 2564000   0.84697068   -8.1937649     526.0405     0.017097  0.016919901            3 
 2565000   0.82315018   -8.2122597     526.3821  0.017101433  0.016914125            3 
 2566000    0.8434277   -8.2007761    526.08657   0.01708517  0.016908328            1 
 2567000   0.85869802   -8.1511004    526.41558  0.017089196  0.016902571            2 
 2568000   0.84436272   -8.1899436     526.9466  0.017099773  0.016896824            4 
 2569000   0.85213943   -8.2054885    526.66623  0.017084022   0.01689106            4 
 2570000   0.82215023   -8.1964009    526.55287  0.017073699  0.016885273            3 
 2571000   0.85172497   -8.2035473    526.47284  0.017064464  0.016879542            2 
 2572000   0.84592974     -8.18597    527.64863  0.017095925  0.016873799            2 
 2573000    0.8396967   -8.1893217    525.98877  0.017035522  0.016868035            3 
 2574000   0.83551931   -8.1765205    526.89871  0.017058363  0.016862298            4 
 2575000   0.82729276   -8.2172711    527.12775   0.01705915  0.016856545            2 
 2576000   0.84628282   -8.2349742    526.38315   0.01702844  0.016850763            4 
 2577000   0.83562074   -8.2421977     527.7452  0.017065878     0.016845            2 
 2578000   0.83607046   -8.2102549    527.71484  0.017058276  0.016839222            2 
 2579000   0.86302759   -8.2147518     528.3237  0.017071336  0.016833421            1 
 2580000    0.8392708   -8.1985045    527.64626  0.017042838  0.016827655            2 
 2581000   0.84075656    -8.252947    526.53519  0.017000361  0.016821891            3 
 2582000   0.83877838   -8.1880979    527.85699  0.017036438  0.016816121            2 
 2583000   0.81131586   -8.1879889    527.54409  0.017019748  0.016810382            1 
 2584000   0.83427321   -8.2210619     525.9284  0.016961055  0.016804602            4 
 2585000   0.83606309   -8.1935596    527.40567  0.017002117  0.016798848            5 
 2586000   0.85849219   -8.2089915    526.50217  0.016966427  0.016793069            3 
 2587000   0.82270189    -8.244466    527.30022  0.016985576   0.01678733            4 
 2588000   0.83778369   -8.2424248    525.80344  0.016930817  0.016781521            7 
 2589000   0.84387915   -8.2163628    526.76255  0.016955148  0.016775715            3 
 2590000   0.82973837   -8.2365424    526.24654  0.016931999  0.016769909            3 
 2591000   0.84174128   -8.2547739    527.32779   0.01696024  0.016764121            1 
 2592000   0.84032848    -8.265573    525.18074  0.016884669  0.016758319            2 
 2593000   0.84233308   -8.2358607    527.20857  0.016943327  0.016752508            6 
 2594000   0.83972484   -8.2262665    526.23373  0.016905478  0.016746692            4 
 2595000   0.82087265   -8.2357531    527.86857  0.016951463  0.016740897            2 
 2596000   0.83041665   -8.2412347    526.72715  0.016908293  0.016735129            4 
 2597000   0.84928368   -8.2489909    526.36583  0.016890188  0.016729325            4 
 2598000   0.83776037   -8.2088288     527.1169  0.016907779  0.016723544            4 
 2599000   0.83284556   -8.1684412    528.14022  0.016934084   0.01671782            2 
 2600000    0.8374812   -8.2097993    527.27025  0.016899688   0.01671208            3 
 2601000    0.8317214   -8.1747837    528.21891  0.016923584  0.016706326           11 
 2602000   0.83291028   -8.2218978    526.90688   0.01687506  0.016700579            6 
 2603000   0.82784388   -8.1853945    529.19877  0.016941951  0.016694818            8 
 2604000   0.82964185    -8.205327    527.96785  0.016896053  0.016689088            1 
 2605000   0.83147073   -8.2307682    526.76461  0.016851075  0.016683275            4 
 2606000   0.84499787   -8.2103589    527.48086  0.016867513  0.016677463            3 
 2607000   0.82777964   -8.2108522    527.03973  0.016846942  0.016671685            3 
 2608000   0.83691338   -8.2190181     527.3308  0.016849783  0.016665921            3 
 2609000   0.82571052   -8.1983629    527.14903  0.016837519  0.016660148            5 
 2610000   0.83434017    -8.212682    528.63601  0.016878545  0.016654403            5 
 2611000   0.83442966   -8.2315025    527.22749  0.016827125  0.016648648            2 
 2612000   0.82336412   -8.2337815    527.73483  0.016836869  0.016642882            2 
 2613000   0.84455888   -8.2221676    528.33627  0.016849607  0.016637106            2 
 2614000   0.83731338   -8.2280716    528.73219  0.016855783  0.016631376            5 
 2615000   0.82930417   -8.2061023    527.22694  0.016801368  0.016625645            3 
 2616000   0.83202955   -8.2302787    527.33587  0.016798416  0.016619893            3 
 2617000   0.82413005   -8.2140962    529.37518  0.016856935  0.016614164            4 
 2618000   0.82905697   -8.2640634    527.92037  0.016804188  0.016608411            3 
 2619000   0.83813931   -8.2333279    527.51871  0.016784991  0.016602649            1 
 2620000   0.83789699   -8.2339782    528.29235  0.016803192  0.016596905            3 
 2621000   0.84450727   -8.2156405    529.00583  0.016819466  0.016591186            2 
 2622000   0.82761419   -8.1909085    529.66425  0.016833977  0.016585494            2 
 2623000    0.8333252   -8.2152953    528.35299    0.0167859  0.016579809            5 
 2624000     0.829147   -8.2310123     529.0494   0.01680162  0.016574083            9 
 2625000   0.83476156   -8.2195437    528.57935  0.016780297  0.016568345            4 
 2626000   0.84753375   -8.2014771    528.18588   0.01676142  0.016562625            3 
 2627000   0.82760412   -8.2099667     528.4904    0.0167647  0.016556911            5 
 2628000   0.83092582   -8.2217338    528.98998  0.016774162  0.016551195            7 
 2629000   0.82984188   -8.2223014    528.99626  0.016767981  0.016545472            7 
 2630000   0.82776095   -8.1990747    530.07588  0.016795814  0.016539735            4 
 2631000   0.81849368    -8.234124    527.59999  0.016711009  0.016534004            3 
 2632000      0.84221   -8.2409797     526.4912  0.016669554  0.016528253            4 
 2633000   0.85026349   -8.2459431     527.3324  0.016689847  0.016522506            3 
 2634000   0.83214252   -8.2453435    528.93075  0.016734079  0.016516739            2 
 2635000   0.84018852    -8.279199    527.36195  0.016678114  0.016510932            2 
 2636000   0.82846626   -8.2401016     528.2401  0.016699548   0.01650515            8 
 2637000   0.81313961   -8.2652327     527.7482   0.01667767  0.016499375            2 
 2638000   0.84369426   -8.2742402    527.81074  0.016673324   0.01649356           10 
 2639000   0.82426148   -8.2512857    527.89078  0.016669533  0.016487773            2 
 2640000    0.8205489   -8.2239703    527.56482   0.01665293  0.016482016            4 
 2641000   0.83117123   -8.2358688    529.11467  0.016695528  0.016476268            2 
 2642000   0.82102825   -8.2181922    528.93907   0.01668367  0.016470533            6 
 2643000    0.8244698    -8.252877    527.78143  0.016640857  0.016464763            5 
 2644000   0.82809109   -8.2320833    526.89079  0.016606492  0.016458992            5 
 2645000    0.8434444   -8.2378048     528.4459  0.016649209  0.016453238            4 
 2646000   0.83109158   -8.2592528    527.10212  0.016600596  0.016447457            4 
 2647000   0.80673458   -8.2550968    527.71767  0.016613703  0.016441661            3 
 2648000   0.84366802   -8.2514912    527.68845   0.01660651  0.016435863            4 
 2649000   0.83474962   -8.2112304    528.85027   0.01663679  0.016430094            3 
 2650000   0.83863345   -8.2183451    530.12857   0.01667071  0.016424351            3 
 2651000   0.83088676   -8.2734502    528.83156   0.01662365  0.016418636            4 
 2652000    0.8260207   -8.2481949    528.50204  0.016607027  0.016412911            5 
 2653000   0.82822798   -8.2566012    529.41768  0.016629529  0.016407172            8 
 2654000   0.84849492   -8.2637189    529.05783  0.016611964  0.016401453            2 
 2655000   0.82828222   -8.2355872    528.77951  0.016596971  0.016395729            2 
 2656000   0.82273155   -8.2485115    530.20592  0.016635477   0.01639002            5 
 2657000   0.83092027   -8.2440604    528.36953   0.01657162  0.016384307            6 
 2658000   0.80336517   -8.2680932    528.41498   0.01656681  0.016378581            6 
 2659000   0.83108668    -8.240008    530.55028    0.0166275  0.016372889            2 
 2660000   0.81626336   -8.2387452    529.30407  0.016582208  0.016367202            4 
 2661000   0.81902911   -8.2534175    528.18713  0.016540997  0.016361502            5 
 2662000   0.83557657   -8.2601704    529.31222  0.016570004  0.016355803            4 
 2663000   0.83045203   -8.2455857    528.98713  0.016553609  0.016350115            3 
 2664000   0.82639875   -8.2345902    529.34155  0.016558482  0.016344401            1 
 2665000   0.82888012    -8.255623    529.07748  0.016544011  0.016338677            3 
 2666000    0.8240618   -8.2100855    531.02389  0.016598646  0.016332985            3 
 2667000   0.82418737   -8.2491835    528.58862   0.01651633  0.016327257            4 
 2668000   0.83138155   -8.2466572    530.97775  0.016584762  0.016321562            7 
 2669000   0.83173167   -8.2343397    530.52226  0.016564327  0.016315896            4 
 2670000   0.82842893   -8.2170806    530.02192  0.016542507  0.016310233            5 
 2671000   0.81800301   -8.2248695    530.28595  0.016544551  0.016304558            3 
 2672000   0.82206143   -8.2274122    530.08519  0.016532098  0.016298881            5 
 2673000   0.79965491   -8.2475537    529.49975  0.016507662  0.016293193            2 
 2674000   0.82232231   -8.2455288    529.89269  0.016513734  0.016287477            5 
 2675000    0.8243796   -8.2440809     528.4284  0.016461944  0.016281766            4 
 2676000   0.81017848   -8.2874809    528.67666  0.016463523   0.01627603            1 
 2677000   0.82214209   -8.2469293    529.07744  0.016469849  0.016270286            6 
 2678000   0.84059216   -8.2768278    529.94066  0.016490561  0.016264555            3 
 2679000   0.82765985   -8.2482478    530.13439  0.016490432  0.016258824            4 
 2680000   0.83392054   -8.2858299    529.06867   0.01645114  0.016253092            2 
 2681000   0.80925594   -8.2510759    530.23599  0.016481288  0.016247373            9 
 2682000    0.8420993   -8.2814112    528.39543  0.016417954  0.016241647            2 
 2683000    0.8279396   -8.2847878    529.35864  0.016441752  0.016235906            3 
 2684000   0.84621834   -8.2754313    530.58241  0.016473622  0.016230178            2 
 2685000   0.84890323    -8.275019    529.05181  0.016419982  0.016224461            5 
 2686000   0.81728822   -8.2545702    531.14619  0.016478847  0.016218769            8 
 2687000   0.83302035   -8.2523759    532.08765  0.016501912   0.01621308            4 
 2688000   0.81264373   -8.2677905    530.21605   0.01643775  0.016207395            2 
 2689000   0.81224641   -8.2574472    531.43684  0.016469469  0.016201733            1 
 2690000   0.80599221   -8.2989919    529.82346  0.016413366  0.016196066            2 
 2691000     0.824151   -8.2381471     531.0508  0.016445274  0.016190392            3 
 2692000   0.82542915   -8.2624304    530.25067  0.016414397  0.016184754            2 
 2693000   0.83696303   -8.2246801    531.02664  0.016432313  0.016179137            4 
 2694000   0.83744003   -8.2573893    531.45808   0.01643956  0.016173499            3 
 2695000   0.81320192   -8.2544726    529.97329  0.016387548  0.016167862            4 
 2696000   0.82591086   -8.2727725    530.45847  0.016396466  0.016162218            2 
 2697000   0.81537103   -8.2529642    531.75796  0.016430539  0.016156637            4 
 2698000   0.81608339   -8.2434774    532.04801  0.016433408  0.016151038            3 
 2699000   0.81488089   -8.2480474    532.90045  0.016453639  0.016145455            3 
 2700000   0.82905095   -8.2542446    530.33555  0.016368381  0.016139892            3 
 2701000   0.80941273   -8.2434491    531.99659  0.016413569  0.016134298            3 
 2702000    0.8148207   -8.2627429    530.49713  0.016361249  0.016128698            3 
 2703000   0.82973813   -8.2272275     531.4066  0.016383235  0.016123084            6 
 2704000   0.82422523    -8.291723    530.47655  0.016348513  0.016117465            3 
 2705000   0.80541937   -8.2370537    533.25625  0.016428104   0.01611185            2 
 2706000     0.837848    -8.295506    530.86596  0.016348422  0.016106213           10 
 2707000   0.80364214    -8.287454    531.16258  0.016351514  0.016100585           10 
 2708000   0.82795546   -8.2835259    530.52202  0.016325764  0.016094938            4 
 2709000   0.82527748   -8.2576008    532.04858  0.016366697  0.016089313            6 
 2710000   0.83047154    -8.272146    530.46136   0.01631185  0.016083642            6 
 2711000   0.81731669   -8.2844487    529.54145  0.016277556  0.016077992            5 
 2712000   0.79272888   -8.2879275      530.004  0.016285767  0.016072334            5 
 2713000   0.81951301   -8.2833788    531.41413  0.016323078  0.016066698            5 
 2714000   0.81854135   -8.2784713    531.36966  0.016315698  0.016061027            5 
 2715000   0.80344092   -8.2805033     530.4671  0.016281986  0.016055381            4 
 2716000   0.81777308   -8.2878281    530.99951  0.016292327  0.016049728            4 
 2717000   0.82331668   -8.2949133    531.36519  0.016297546  0.016044071            6 
 2718000   0.82796334   -8.2820744    530.09401  0.016252576  0.016038453            5 
 2719000   0.82810876   -8.2849648    530.82239  0.016268922  0.016032809            3 
 2720000   0.82517147   -8.3089658    530.66859  0.016258229  0.016027167            4 
 2721000   0.79581648   -8.2681469    531.50657  0.016277918  0.016021581            9 
 2722000   0.81859013   -8.2697771     530.8873  0.016252979  0.016015979            7 
 2723000   0.81050402   -8.2928902    531.13704  0.016254653  0.016010347           10 
 2724000   0.82754501   -8.3044448    531.34291  0.016254984  0.016004741            5 
 2725000   0.82672621    -8.281724    532.09308   0.01627196  0.015999129            2 
 2726000   0.82305749   -8.2772331    532.07802   0.01626553  0.015993565            9 
 2727000   0.82090089   -8.2471966    532.62329  0.016276228  0.015988017            4 
 2728000   0.80318851   -8.2491686    533.93448  0.016310315  0.015982487            4 
 2729000   0.83264746    -8.297379    533.01531   0.01627627  0.015976944            5 
 2730000   0.81595737   -8.2492542    533.40703  0.016282266  0.015971423            2 
 2731000   0.82123989   -8.2494825    533.43084   0.01627703  0.015965916            3 
 2732000   0.81815212   -8.2593478    531.94857  0.016225859  0.015960389            4 
 2733000   0.80108083   -8.2753136      532.823  0.016246585  0.015954849            3 
 2734000    0.8183536   -8.2686732    532.31928  0.016225289  0.015949348            3 
 2735000   0.81103006   -8.2353674    534.81068  0.016295267  0.015943862            2 
 2736000   0.83023885    -8.276117    533.59529  0.016252293  0.015938361            4 
 2737000   0.83665264   -8.2596946    534.21814  0.016265319  0.015932875            2 
 2738000   0.82245406   -8.2872625    532.56024  0.016208919  0.015927358           11 
 2739000   0.82325493   -8.2822431    533.10894  0.016219695  0.015921842            4 
 2740000   0.82478991   -8.2968426    532.56502  0.016197233  0.015916323            2 
 2741000   0.80948102   -8.2661307     534.0915  0.016237733  0.015910798            4 
 2742000   0.81219904   -8.2831309    533.60071  0.016216895  0.015905269            1 
 2743000   0.80363748    -8.305181    532.87581   0.01618896  0.015899721            4 
 2744000   0.81604787   -8.3001438    532.96546  0.016185783  0.015894175            4 
 2745000   0.81429425   -8.2788313    532.72385  0.016172552  0.015888643            7 
 2746000    0.8311629   -8.2631983    534.49779  0.016220496  0.015883149            5 
 2747000   0.81808362   -8.2782006    533.18767  0.016174848  0.015877681            2 
 2748000   0.81275016   -8.2575289    535.20334  0.016230087  0.015872194            2 
 2749000   0.81629886   -8.2798637    533.59264  0.016175356  0.015866725            3 
 2750000   0.80460394   -8.2710243    534.30123  0.016190946  0.015861225            3 
 2751000   0.79982462   -8.2941263    531.98706   0.01611496  0.015855707            6 
 2752000   0.80455387   -8.3129156    533.42675    0.0161527  0.015850161            3 
 2753000   0.82597894   -8.2796056    534.65114  0.016183894  0.015844647            1 
 2754000   0.79944713    -8.257714    534.27645   0.01616668  0.015839159            3 
 2755000   0.81171646   -8.2789156    534.02176  0.016153108  0.015833645            2 
 2756000   0.80882919   -8.2905625    533.42135  0.016129092  0.015828145            3 
 2757000   0.81039509   -8.2779097    533.07535  0.016112784  0.015822627            3 
 2758000    0.8065596   -8.2839191    533.54477  0.016121125  0.015817124            9 
 2759000   0.80032692   -8.2780308    534.50921  0.016144412  0.015811647            4 
 2760000   0.81844471   -8.3042176    533.58547  0.016110672  0.015806157            2 
 2761000   0.79034306   -8.2715968    534.17686  0.016122687  0.015800656            5 
 2762000   0.79479383   -8.2933589    533.04048  0.016082563  0.015795177            4 
 2763000   0.80539135   -8.2972189    533.88523  0.016102221  0.015789687            5 
 2764000   0.80843606   -8.2647711    533.81448  0.016094262  0.015784191            3 
 2765000   0.79567689   -8.3078655    533.93851  0.016092179  0.015778679           20 
 2766000   0.80483359   -8.3127958     533.4846  0.016072686  0.015773167            4 
 2767000   0.79777107   -8.2941978    534.18039  0.016087833  0.015767671            6 
 2768000   0.81524932   -8.3130944    532.22053  0.016023017  0.015762167            7 
 2769000    0.7872698   -8.2898025    533.62641  0.016059541  0.015756669            7 
 2770000   0.79439239   -8.3039759    533.98373  0.016064492  0.015751172            5 
 2771000   0.81050161   -8.2883425    534.01987  0.016059782  0.015745691            2 
 2772000   0.81338879   -8.3053611    534.22368  0.016060115  0.015740204            3 
 2773000   0.81886146   -8.3081857    534.28614  0.016056201  0.015734722            4 
 2774000   0.83184953   -8.3221218     532.5554   0.01599842  0.015729232            6 
 2775000   0.81154669   -8.3068807    533.53654  0.016022118   0.01572376            5 
 2776000   0.80025876   -8.3251043    534.50968   0.01604556  0.015718284            6 
 2777000   0.82677345    -8.283038     534.9977  0.016054426  0.015712852            4 
 2778000   0.79919689   -8.3102243    533.22213  0.015995384  0.015707394            5 
 2779000   0.80327485   -8.3019098    535.12311  0.016046633  0.015701912            3 
 2780000   0.79988918   -8.3181738    534.66569  0.016027149  0.015696458            5 
 2781000   0.79132095   -8.3205964    533.29618  0.015980348  0.015690989            4 
 2782000   0.82232072   -8.2868072    534.11989  0.015999278  0.015685511           10 
 2783000   0.80320012   -8.3089437    534.58762  0.016007535  0.015680065            7 
 2784000   0.80692928   -8.3148439    535.31613  0.016023591  0.015674618            2 
 2785000    0.8121967    -8.293687    535.04336  0.016009676  0.015669209            3 
 2786000   0.81942537   -8.3134104     534.7676  0.015995681  0.015663769            5 
 2787000   0.80127304   -8.3288428    533.75082  0.015959539  0.015658311            3 
 2788000   0.79961972    -8.308306    534.50963  0.015976495  0.015652861            5 
 2789000   0.80453766    -8.361164    533.06045  0.015927466  0.015647408            2 
 2790000   0.80110399   -8.2999013    534.79818  0.015973661  0.015641932            9 
 2791000   0.79642679   -8.3243631    535.23582  0.015981005  0.015636495            3 
 2792000   0.79756896   -8.2949958    534.06478  0.015940329  0.015631052            3 
 2793000   0.79847071   -8.3139827    533.83378  0.015927729  0.015625602            3 
 2794000   0.79902018   -8.2948157    535.56891   0.01597378  0.015620139            6 
 2795000   0.81265337   -8.2838352     536.1488  0.015985355  0.015614706            3 
 2796000   0.78434054   -8.2957219    534.99734  0.015945319  0.015609284            4 
 2797000    0.7917403   -8.2838444    533.58727  0.015897607  0.015603854            1 
 2798000   0.79956259   -8.3020933    534.96309  0.015932901  0.015598439            3 
 2799000   0.79183506   -8.2811429    534.39585  0.015910321  0.015592998            2 
 2800000   0.81387789   -8.3107599    534.05393  0.015894462  0.015587535            2 
 2801000   0.79814845   -8.3229737    534.20766  0.015893361  0.015582077            4 
 2802000   0.81899078   -8.3146803    534.23122   0.01588839  0.015576616            9 
 2803000   0.82839139   -8.3244664     533.7471  0.015868329  0.015571175            6 
 2804000   0.80184453   -8.3084073    534.72855  0.015891837  0.015565713            2 
 2805000   0.79931617   -8.3102361    533.37662  0.015846008  0.015560235            5 
 2806000   0.81056077   -8.3145629    533.70227  0.015850032   0.01555475            3 
 2807000   0.81202733   -8.3145908    534.52341  0.015868763  0.015549275            5 
 2808000   0.80557894   -8.3249226    534.35387   0.01585808  0.015543818            4 
 2809000   0.81601311   -8.3307129    534.04838  0.015843372  0.015538353            7 
 2810000   0.80111933   -8.3300483    533.42159  0.015819146  0.015532894            6 
 2811000    0.8113959   -8.3305888    532.80251  0.015795165  0.015527434            7 
 2812000   0.80744555   -8.3288108    533.64197  0.015814425  0.015521992            3 
 2813000   0.81161214   -8.3235457    534.74656  0.015841526  0.015516543            3 
 2814000   0.79097222   -8.3239758    534.79049  0.015837198  0.015511086            4 
 2815000   0.81498991   -8.2841829    535.21032     0.015844   0.01550566            6 
 2816000   0.80078057   -8.3120905    534.44693  0.015815783  0.015500254            3 
 2817000    0.8077824   -8.3051236    536.18517   0.01586159  0.015494823            2 
 2818000   0.79770268   -8.3090794    536.15177  0.015854973  0.015489399            4 
 2819000   0.78379848   -8.3099543    535.27242  0.015823354   0.01548399            4 
 2820000   0.80477976   -8.2731155    535.70608  0.015830558  0.015478589            3 
 2821000   0.81200421   -8.3092511    535.82102  0.015828341  0.015473207            3 
 2822000   0.78836291    -8.322686     535.5792  0.015815592  0.015467818            4 
 2823000   0.79520096   -8.2969158    536.02227  0.015823069   0.01546244            3 
 2824000   0.81926536   -8.3012042    535.44944  0.015800562  0.015457061            6 
 2825000   0.79525274   -8.2970035    537.50998  0.015855751  0.015451673            3 
 2826000   0.78473274   -8.3270611    535.88224  0.015802142  0.015446314            9 
 2827000   0.81173617   -8.3412714     535.3142  0.015779808  0.015440904            5 
 2828000   0.78490883   -8.3131921    535.58734  0.015782277  0.015435506           10 
 2829000   0.80758895   -8.3146837    535.48738  0.015773753  0.015430096            7 
 2830000   0.80279425   -8.3285917    534.25788  0.015731975  0.015424697            5 
 2831000   0.79209636   -8.3592434    534.67804  0.015738786  0.015419289            6 
 2832000   0.78910439   -8.3510375     534.8242   0.01573753  0.015413853            6 
 2833000   0.80189569   -8.3037935     535.4673  0.015750891  0.015408412            4 
 2834000   0.79800489   -8.3327671     534.4604  0.015715726  0.015402997            3 
 2835000   0.80330832   -8.3307454    535.17434  0.015731168  0.015397579            4 
 2836000   0.79485801    -8.349822    535.70432  0.015741194  0.015392145            3 
 2837000   0.80374377   -8.3462433    535.99304  0.015744126  0.015386732            3 
 2838000    0.8073565   -8.2966015    536.95431  0.015766805  0.015381324            5 
 2839000   0.80968299   -8.3105692    535.83618  0.015728431  0.015375912            3 
 2840000   0.79066688   -8.3267609    534.55851  0.015685402  0.015370514            3 
 2841000   0.80963716    -8.288622      535.731  0.015714273  0.015365107            2 
 2842000   0.78744423   -8.3357678    534.77775  0.015680793  0.015359708            1 
 2843000   0.79304653   -8.2817399    537.05685  0.015742081  0.015354327            3 
 2844000    0.7804178   -8.3330456    535.72654  0.015697566  0.015348933            4 
 2845000   0.80243124   -8.2900262    535.21659  0.015677112  0.015343551            4 
 2846000     0.787741   -8.3561939    535.19332  0.015670922  0.015338188            3 
 2847000   0.80915464   -8.3235162    535.34617  0.015669891  0.015332789            4 
 2848000   0.78703676   -8.3285184    535.98275  0.015683016  0.015327398            2 
 2849000   0.80470214   -8.3552343    534.66844  0.015639067  0.015322011           10 
 2850000   0.80308604   -8.3270317    535.79155   0.01566642  0.015316619            5 
 2851000   0.80856135   -8.3200811    535.98627  0.015666616  0.015311222            2 
 2852000   0.80433067   -8.3451908    535.63426  0.015650838  0.015305838            2 
 2853000   0.79927883   -8.3138843    536.34055  0.015665982  0.015300473            3 
 2854000   0.82374687   -8.3089285     535.7158  0.015642251  0.015295089            7 
 2855000   0.78482886   -8.3412286    536.18367  0.015650428  0.015289697            2 
 2856000   0.80651548   -8.3284552    535.99354  0.015639401   0.01528431            1 
 2857000   0.79245991   -8.3343471    536.73228  0.015655474  0.015278922            2 
 2858000   0.79718595   -8.3415276    535.15012  0.015603864  0.015273528            4 
 2859000    0.8134657   -8.3224089    536.16245  0.015627913  0.015268132            5 
 2860000   0.79670211   -8.3278434    535.83759  0.015612983  0.015262736            2 
 2861000   0.79286383   -8.3480303    535.67621  0.015602826   0.01525735            2 
 2862000   0.77041121   -8.3097761    535.79942  0.015600962  0.015251974            6 
 2863000   0.78412083   -8.3330331    535.85149  0.015597028  0.015246622            5 
 2864000   0.80358412   -8.3090496    536.44914  0.015608972  0.015241287            4 
 2865000   0.80083428   -8.3230189    536.63822  0.015609023  0.015235953            8 
 2866000   0.80592273    -8.317696    537.28039  0.015622249  0.015230621           15 
 2867000   0.78278733   -8.2965398    536.62645  0.015597792  0.015225296            4 
 2868000   0.79021979   -8.3417491    535.69789  0.015565373  0.015219959            4 
 2869000   0.79612255   -8.3165291     536.8405  0.015593137  0.015214603            3 
 2870000   0.80477156   -8.3098989    536.34464  0.015573305  0.015209245            5 
 2871000   0.79503652   -8.3410366    535.67613  0.015548477   0.01520389            4 
 2872000   0.78142534   -8.3865897    534.89876  0.015520507   0.01519851            3 
 2873000   0.79836616   -8.3556171    536.39448  0.015558489  0.015193123            5 
 2874000   0.80376081   -8.3756492     536.4453  0.015554549  0.015187748            4 
 2875000   0.79458643   -8.3393662    536.41678  0.015548312  0.015182357           12 
 2876000   0.80184663   -8.3796377    535.06056  0.015503609   0.01517696            6 
 2877000   0.80091593   -8.3634229    536.01281  0.015525803  0.015171573            4 
 2878000   0.77177606   -8.3468164     535.8214  0.015514866  0.015166192            6 
 2879000   0.79473367   -8.3773785     534.9445  0.015484095    0.0151608            6 
 2880000   0.79235043   -8.3789156    535.56978  0.015496811  0.015155434           25 
 2881000    0.7935696   -8.3690444    535.58576  0.015491894  0.015150053           27 
 2882000    0.7855379   -8.3589328    535.39264  0.015480935  0.015144665           22 
 2883000   0.78184586   -8.3423522    536.30794  0.015502022  0.015139285           16 
 2884000   0.80679071   -8.3092425    537.45669   0.01552984  0.015133932            6 
 2885000   0.78714874   -8.3432008     537.2403  0.015518206  0.015128592            5 
 2886000   0.77405567   -8.3425533     536.2391   0.01548392  0.015123247            1 
 2887000   0.77791285   -8.3557017    535.12719  0.015446461  0.015117908            6 
 2888000   0.78852988   -8.3517599    537.20415  0.015501043  0.015112572            2 
 2889000   0.77095675   -8.3210455    536.39954  0.015472469  0.015107236            3 
 2890000   0.78919452   -8.3765096    535.52525  0.015441905  0.015101872            4 
 2891000   0.80015406   -8.3488184    536.89728  0.015476112  0.015096505           11 
 2892000   0.79238562   -8.3573028     537.2281  0.015480293  0.015091147           11 
 2893000    0.7926914   -8.3756016    535.28793  0.015419056  0.015085783            4 
 2894000   0.78834099   -8.3636665    535.92612  0.015432104  0.015080442            3 
 2895000   0.77255438   -8.3545469    537.11434  0.015460977  0.015075103            9 
 2896000   0.79675366   -8.3679611    535.40682  0.015406504  0.015069762            6 
 2897000   0.81128313   -8.3611245    535.56002  0.015405593  0.015064418            4 
 2898000    0.7827108   -8.3828134    535.85787  0.015408841  0.015059083            3 
 2899000   0.77650088   -8.3941424    535.80791   0.01540209  0.015053722            8 
 2900000   0.77830881   -8.3755484    536.44552  0.015415101  0.015048371            6 
 2901000   0.77562904   -8.3779336    535.64698  0.015386849  0.015043035            9 
 2902000   0.77568049   -8.3799672    536.23771   0.01539851   0.01503769            4 
 2903000   0.77306687   -8.3814891    537.36126  0.015425458  0.015032347            3 
 2904000   0.77601112   -8.3806248    535.63584  0.015370633  0.015027004            9 
 2905000   0.78992353   -8.3745803    536.60394  0.015393114   0.01502165            3 
 2906000   0.78322629   -8.3553392    536.92855  0.015397125  0.015016315            5 
 2907000   0.77811802   -8.3706581    536.41976  0.015377243   0.01501099            3 
 2908000   0.80355839   -8.3771917    536.97264  0.015387799  0.015005665            4 
 2909000   0.78644738   -8.3623526    536.34843  0.015364628  0.015000337           14 
 2910000   0.78601982   -8.3585162    538.35829  0.015416904   0.01499504           13 
 2911000   0.78291174   -8.3557951    538.13773  0.015405294   0.01498974            6 
 2912000   0.79373243   -8.3705403    536.98802  0.015367102  0.014984442            2 
 2913000   0.78395676   -8.3714922    535.39265  0.015316188   0.01497913            3 
 2914000   0.78664186   -8.3643943    536.31658  0.015337354  0.014973814            2 
 2915000   0.80141302   -8.3647061    535.61386  0.015312003  0.014968512            3 
 2916000    0.7854857   -8.3730793    536.15658  0.015322262  0.014963205            4 
 2917000   0.80442076    -8.385133     536.8047  0.015335524  0.014957899           10 
 2918000   0.77175411   -8.3731131    536.62709  0.015325197  0.014952587            3 
 2919000   0.79244518   -8.3347683    537.36967  0.015341146  0.014947292            4 
 2920000   0.79469761   -8.3768582    537.04268  0.015326561  0.014942024            3 
 2921000   0.78906716   -8.3241206    537.66296   0.01533901  0.014936772            2 
 2922000   0.79694064   -8.3525695     538.6299  0.015361337  0.014931519            3 
 2923000   0.79011073   -8.3899847    537.10739  0.015312675  0.014926261            3 
 2924000   0.77881758   -8.3266755    538.31616  0.015341888  0.014921011            5 
 2925000   0.77742068   -8.3563262     537.3672  0.015309607  0.014915766            3 
 2926000   0.78692866   -8.3761699    538.15574  0.015326832  0.014910495            8 
 2927000   0.76582846   -8.3548204    537.04029  0.015289839  0.014905241           17 
 2928000   0.77740591   -8.3826083    536.51235  0.015269591  0.014899976            2 
 2929000   0.79471011   -8.3703252    538.22163  0.015313009  0.014894713            6 
 2930000   0.78247986   -8.3896431    538.11478  0.015304744  0.014889442            5 
 2931000   0.77643486   -8.3633442    538.55835  0.015312133  0.014884177            3 
 2932000   0.78902443   -8.3428164    536.80027  0.015256943   0.01487892            2 
 2933000    0.7946092   -8.3629297    537.28991  0.015265653  0.014873661            4 
 2934000   0.77938216   -8.3588073    536.78568  0.015246128  0.014868378            4 
 2935000   0.80126985    -8.371392    537.08053  0.015249305  0.014863106            1 
 2936000   0.77346162   -8.3842927    537.94295   0.01526859  0.014857847            5 
 2937000   0.79857665   -8.4025905    537.61378  0.015254051  0.014852549            5 
 2938000   0.79060537   -8.3893205    538.07696  0.015261997  0.014847279            6 
 2939000   0.78033323   -8.3878337    536.92971  0.015224274  0.014842008            9 
 2940000    0.7836478   -8.4143251    538.54261  0.015264813   0.01483674            7 
 2941000   0.77286733   -8.3913815    537.23402  0.015222544   0.01483146            5 
 2942000   0.77893438   -8.4100303    537.65005  0.015229154  0.014826206            4 
 2943000   0.76993201   -8.4258067    537.03477  0.015206557  0.014820922            6 
 2944000   0.78226682   -8.3786715    537.72237  0.015220855  0.014815653            4 
 2945000   0.77520347   -8.4163571      536.389  0.015177957  0.014810374            3 
 2946000   0.76839348   -8.3983542    537.31232  0.015198923  0.014805115            3 
 2947000   0.76465343    -8.394859    537.58944  0.015201602  0.014799852            5 
 2948000   0.78903386   -8.4156445    537.73601  0.015200588  0.014794596            4 
 2949000   0.79300695   -8.4056367    537.48652  0.015188384  0.014789342            5 
 2950000   0.77892558   -8.3826096    538.46971  0.015211009  0.014784081            3 
 2951000   0.78055158   -8.3723368    538.02026  0.015193162  0.014778845            9 
 2952000   0.78290361   -8.3803369    538.02937  0.015188273  0.014773625            8 
 2953000   0.77940842   -8.4007676    536.71258   0.01514597  0.014768394            4 
 2954000   0.78700591   -8.3710467    538.81379  0.015200118  0.014763163            2 
 2955000   0.79207523   -8.3987736    537.79551  0.015166258  0.014757947            7 
 2956000   0.80000997    -8.389308    537.87085  0.015163251   0.01475273            2 
 2957000   0.78044747   -8.4263681    536.87307  0.015130004  0.014747515            4 
 2958000    0.7866164    -8.377821    538.97391  0.015184074  0.014742313            3 
 2959000    0.7929496   -8.3924945    537.43208  0.015135521  0.014737114            6 
 2960000   0.76327486   -8.3754377    538.16144  0.015150941  0.014731913            2 
 2961000   0.76330262   -8.3811826    537.97883  0.015140685    0.0147267            2 
 2962000   0.77737312   -8.3798749    538.49448  0.015150081  0.014721493            3 
 2963000   0.76737216   -8.4037636    537.99303  0.015130865  0.014716302            6 
 2964000   0.77171841   -8.3779351    539.12427  0.015157565  0.014711125            2 
 2965000   0.77991047   -8.3664734    538.76501  0.015142355  0.014705943           10 
 2966000   0.77842701   -8.3859571     538.9646  0.015142858   0.01470076            8 
 2967000   0.79282591    -8.381561    538.43711  0.015122939  0.014695582            2 
 2968000   0.75565768   -8.3753575    539.07406  0.015135727  0.014690418            6 
 2969000   0.78849571   -8.3591194    539.31822  0.015137482  0.014685256            6 
 2970000   0.76593768   -8.3738477    539.75805  0.015144726  0.014680088            3 
 2971000   0.78340445   -8.4039443    538.27708  0.015098089  0.014674917            4 
 2972000   0.76156098   -8.3727374    538.25322   0.01509234  0.014669738            6 
 2973000   0.75554587   -8.3685107    539.47405  0.015121484  0.014664573            4 
 2974000   0.76500017   -8.3907408    538.29847  0.015083459  0.014659411            8 
 2975000   0.77962866   -8.3977736    537.85938  0.015066089  0.014654229            2 
 2976000    0.7519237    -8.399166    538.58047  0.015081218  0.014649049           11 
 2977000    0.7709736   -8.3432737    539.15869  0.015092338  0.014643906            4 
 2978000   0.79154623    -8.420783    537.94654  0.015053351   0.01463875            7 
 2979000    0.7698536   -8.3609772    539.68515  0.015096933  0.014633597           12 
 2980000    0.7813097   -8.3733134    539.57936  0.015088908  0.014628464            9 
 2981000   0.77020479   -8.3918338    539.50652   0.01508181  0.014623304            9 
 2982000   0.77864652   -8.3864727     539.8288  0.015085759  0.014618142           15 
 2983000   0.78846192   -8.4023403    538.91995  0.015055312   0.01461296           13 
 2984000   0.78017914   -8.3839167    539.51976  0.015067018  0.014607782           12 
 2985000   0.75853492   -8.3662977    538.41622  0.015031162  0.014602604           11 
 2986000   0.77016088   -8.4205018    537.41814  0.014998274  0.014597414            9 
 2987000   0.77077797   -8.4154612    539.74305  0.015058114  0.014592212           20 
 2988000   0.77980591   -8.3995612    539.05448  0.015033871  0.014587026           12 
 2989000   0.78672077    -8.395212    539.68766  0.015046494   0.01458185           17 
 2990000   0.76167715    -8.401111    537.87723  0.014991004   0.01457667           16 
 2991000   0.78045347   -8.4081069    538.21852  0.014995501  0.014571491           10 
 2992000   0.78197307   -8.4317107    539.39432  0.015023238  0.014566321            3 
 2993000    0.7688476   -8.3886342    539.02283  0.015007875  0.014561156            5 
 2994000   0.78342108   -8.3900323    539.20731  0.015007997     0.014556           10 
 2995000   0.76106154   -8.3962339    539.29044  0.015005299  0.014550829            8 
 2996000   0.78761268   -8.4107305    538.75587  0.014985421  0.014545656            5 
 2997000   0.76735413   -8.4260463    537.64412  0.014949508  0.014540467           23 
 2998000    0.7871117   -8.4285015    537.06312  0.014928372  0.014535272            8 
 2999000   0.77104065    -8.439706    537.70243  0.014941159  0.014530068            6 
 3000000   0.76368836    -8.440562    537.31829  0.014925508  0.014524859           10 
 3001000   0.77708824   -8.4381358    538.32587  0.014948513  0.014519667           17 
 3002000   0.77282762   -8.4455645    536.27014  0.014886468  0.014514475            7 
 3003000   0.77527494   -8.4344309    537.88229  0.014926248  0.014509323            6 
 3004000    0.7781607    -8.436834    537.86185  0.014920713  0.014504135            3 
 3005000   0.78462699    -8.441874    537.78466  0.014913607  0.014498958            4 
 3006000    0.7680282   -8.4413441    538.06143  0.014916318  0.014493784            9 
 3007000   0.76475405   -8.4301386     539.7658  0.014958591  0.014488604            5 
 3008000   0.76178549   -8.4293598     538.4953   0.01491842  0.014483448            3 
 3009000    0.7754969   -8.4361312    539.00491  0.014927576  0.014478285            4 
 3010000   0.75752203   -8.4489227    537.26835  0.014874539  0.014473111            4 
 3011000   0.79316432   -8.4327583    536.32111  0.014843383  0.014467941            4 
 3012000   0.77479818   -8.4621341    537.19263  0.014862567  0.014462761            7 
 3013000   0.77431965   -8.4402741    537.89445  0.014877045  0.014457591            6 
 3014000   0.77302831   -8.4419207    537.54472   0.01486244  0.014452424            4 
 3015000   0.78919969   -8.4298897    538.31856  0.014878899  0.014447261            7 
 3016000   0.77135998    -8.422717    539.02164  0.014893392  0.014442126           13 
 3017000   0.76366369   -8.4308357    538.64957  0.014878178  0.014436994           16 
 3018000   0.75657593   -8.4320778    538.81543  0.014877828  0.014431861           13 
 3019000   0.77513101   -8.3986433    539.19385  0.014883346  0.014426743           18 
 3020000   0.77052721   -8.4112462    539.17148    0.0148778  0.014421624            9 
 3021000   0.77549527   -8.4086706     538.6571  0.014858686    0.0144165            8 
 3022000   0.75838302   -8.4247025    538.98349   0.01486277  0.014411374           12 
 3023000   0.77771902   -8.4094041    539.04988  0.014859684  0.014406276            8 
 3024000   0.77033688    -8.431076    538.83475  0.014848841  0.014401178           12 
 3025000    0.7527016   -8.4430796    539.23415  0.014854935  0.014396075           18 
 3026000   0.76658162   -8.4192191     539.4913  0.014857108  0.014390977           20 
 3027000   0.75831639   -8.4261487    539.79604  0.014860589  0.014385876           17 
 3028000   0.76426256   -8.4211071    538.45343  0.014818732   0.01438076           17 
 3029000   0.77249871   -8.4247935    540.99422  0.014883741  0.014375661           11 
 3030000   0.74988708   -8.4205001    539.01697  0.014824449  0.014370554            4 
 3031000    0.7721303   -8.4364407    540.16258  0.014851055  0.014365445            4 
 3032000   0.76048896   -8.4552103    539.34043  0.014823561  0.014360318            9 
 3033000   0.75987469   -8.4207216    539.32073  0.014818132  0.014355205            7 
 3034000   0.78250559   -8.4226738    540.72608  0.014851848  0.014350102           17 
 3035000   0.77315986   -8.4027913     540.6459  0.014844753  0.014345009            8 
 3036000   0.76801862   -8.3874244    540.37266  0.014832363  0.014339915            9 
 3037000   0.76714457   -8.4334942    539.69125  0.014808782  0.014334833            4 
 3038000   0.76694658   -8.3803267    539.59534  0.014801277  0.014329765            7 
 3039000   0.77710172   -8.4188831    538.72339  0.014772496  0.014324693            4 
 3040000   0.76683158   -8.4400817    539.17647  0.014780057  0.014319607            5 
 3041000   0.76162999   -8.4209045    539.16141  0.014774784  0.014314517            6 
 3042000   0.77696959   -8.4134171     539.7743  0.014786717  0.014309431            2 
 3043000   0.76113615   -8.4126624    540.06613  0.014789849   0.01430434            2 
 3044000   0.76212368    -8.413918    539.09462  0.014758394  0.014299236            3 
 3045000   0.74659477    -8.466379    538.83952  0.014746566  0.014294126            4 
 3046000   0.77027543   -8.4456313    539.26889  0.014753471  0.014289022            8 
 3047000   0.75522222   -8.4217492    540.80517  0.014790646  0.014283934            6 
 3048000   0.76186406   -8.4212244    539.61467  0.014753245  0.014278855            3 
 3049000   0.76867199   -8.4299607    539.07539  0.014733666  0.014273779            2 
 3050000   0.74457989   -8.4658884    539.75239  0.014747333  0.014268683            2 
 3051000   0.76794698   -8.4418244    539.99442   0.01474911   0.01426359            3 
 3052000   0.78267018   -8.4349192    539.95994  0.014743336  0.014258512            5 
 3053000   0.77092418   -8.4393838    538.59364  0.014701213  0.014253429            8 
 3054000   0.75495398   -8.4350403    539.65873  0.014725462  0.014248335            5 
 3055000   0.76704164   -8.4551231    539.16706   0.01470723  0.014243251            6 
 3056000   0.73734771   -8.4069034    540.44186   0.01473718  0.014238187            5 
 3057000   0.76859372   -8.4380858    540.25564  0.014727283   0.01423311            5 
 3058000   0.79063917   -8.4448496    538.77759  0.014682189  0.014228027            2 
 3059000    0.7626271   -8.4208793    539.30596  0.014691783  0.014222962            2 
 3060000   0.75613368   -8.4308243     539.6996  0.014697702   0.01421789            2 
 3061000   0.75353763   -8.4272706    539.44192  0.014685885  0.014212818            6 
 3062000   0.75282009   -8.4068551    540.65195   0.01471402  0.014207748            6 
 3063000   0.75899808   -8.4236386    540.55889  0.014706684  0.014202682            9 
 3064000   0.75558905   -8.4361694    539.29361  0.014667472  0.014197623           10 
 3065000   0.77903195   -8.4492388    538.83178   0.01465013  0.014192548            3 
 3066000   0.77194326   -8.4409957    538.15559  0.014626973  0.014187454            6 
 3067000   0.74771801   -8.4141322    540.11703  0.014675498  0.014182372            4 
 3068000   0.77719387   -8.4113369    540.13081  0.014671089  0.014177312            6 
 3069000   0.75363628   -8.4402425    539.68308  0.014654151   0.01417226            6 
 3070000   0.75971386    -8.415523    540.09383  0.014660527  0.014167207           20 
 3071000   0.77305943   -8.4135641    541.11092  0.014683353  0.014162169            5 
 3072000   0.74511333   -8.4361079    540.71145  0.014667737  0.014157153            4 
 3073000   0.76887297   -8.4051298    540.22222  0.014649697  0.014152151            8 
 3074000   0.75543056   -8.4292108    539.46438  0.014624387  0.014147138            5 
 3075000   0.74488592   -8.4238981    540.23387  0.014640484  0.014142123            5 
 3076000   0.75669016   -8.4335344    539.02651  0.014603015  0.014137106            4 
 3077000    0.7611046   -8.4488362    539.12519  0.014600942  0.014132065            6 
 3078000   0.76307605   -8.4346528     539.5242  0.014607001  0.014127014            4 
 3079000   0.78075655    -8.417182    539.71218  0.014607345  0.014121966            3 
 3080000    0.7653898   -8.4298707    540.68521  0.014628929  0.014116908            4 
 3081000   0.77617499   -8.4268381     540.1646    0.0146101  0.014111872            2 
 3082000   0.76287277   -8.4393436    539.70617  0.014592964  0.014106832            4 
 3083000   0.74192656   -8.4392849    541.22621  0.014629317  0.014101787            3 
 3084000   0.77199065   -8.4280809    539.44959  0.014576567  0.014096751            4 
 3085000   0.74582152   -8.4253359    539.29798  0.014567747  0.014091711            3 
 3086000   0.74356968   -8.4396059    540.11134   0.01458499  0.014086668            3 
 3087000   0.75703944   -8.4446411    540.16139  0.014581616  0.014081646            5 
 3088000   0.74360254   -8.4330646    539.92642  0.014570553  0.014076626            5 
 3089000   0.75444565   -8.4213654    539.57105  0.014556249  0.014071606            4 
 3090000   0.74629251   -8.4325818     540.7287  0.014582759  0.014066575            3 
 3091000   0.75093841   -8.4423142    540.68734  0.014576926  0.014061553            7 
 3092000   0.76099806   -8.4364412     540.8729  0.014577213  0.014056529            3 
 3093000   0.76135237   -8.4451887    540.50555  0.014562602  0.014051519            3 
 3094000   0.75756127   -8.4574025    540.05641  0.014545799  0.014046499            5 
 3095000   0.75087906   -8.4196114    540.86514  0.014562874  0.014041478            4 
 3096000   0.74342789   -8.4492697    539.83812  0.014530527  0.014036467            7 
 3097000   0.76573468   -8.4225839    541.37724  0.014567249  0.014031458            6 
 3098000   0.75821528   -8.4483459    540.39983  0.014536255  0.014026447            6 
 3099000   0.76750754   -8.4424286    540.62747  0.014537686  0.014021431            8 
 3100000   0.77132805   -8.4107235    540.05028  0.014517481   0.01401643            5 
 3101000   0.76407223   -8.4416967    540.77156  0.014532182  0.014011436            5 
 3102000   0.74602449   -8.4216531     542.0226  0.014561106  0.014006447            7 
 3103000    0.7607235   -8.3999984    540.82447  0.014524236  0.014001455            6 
 3104000   0.74650932   -8.4511912    540.45295  0.014509583  0.013996444            3 
 3105000   0.75842815   -8.4334094    540.10167  0.014495482  0.013991445            4 
 3106000   0.76521601   -8.4134124    539.05966  0.014462858  0.013986457            2 
 3107000   0.77240974   -8.4676646    539.89904  0.014480717  0.013981475            2 
 3108000   0.74892452   -8.4516001    539.12517  0.014455308  0.013976502            4 
 3109000   0.74074675   -8.4136466    540.89265  0.014498034  0.013971532            6 
 3110000   0.76001176    -8.428532      539.519  0.014456565  0.013966539            4 
 3111000   0.75996038   -8.4249393     540.9173  0.014489374  0.013961537            7 
 3112000   0.76286286   -8.4472766     540.0896  0.014462554  0.013956545            3 
 3113000   0.75494387   -8.4336629    539.46388  0.014441157  0.013951551            3 
 3114000   0.74821392   -8.4538515    539.74612  0.014444073  0.013946552            9 
 3115000   0.75657357   -8.4674198    539.95536  0.014445034  0.013941554            5 
 3116000   0.74552085   -8.4556378    540.52731  0.014455694  0.013936565            5 
 3117000   0.76306213   -8.4997786    539.89578  0.014434172  0.013931567            2 
 3118000   0.75013319   -8.4715358    540.67802   0.01445045  0.013926552            5 
 3119000   0.75197768   -8.4529945    539.77405  0.014421664  0.013921534            4 
 3120000   0.76374133    -8.474459    539.99128  0.014422844  0.013916528            3 
 3121000   0.76593534   -8.4731159     538.5359  0.014379363  0.013911513            4 
 3122000   0.76326561   -8.4698161    538.78515   0.01438141  0.013906488            3 
 3123000   0.73846028   -8.5030386    539.01125  0.014382838  0.013901471            4 
 3124000   0.75360148   -8.4606348    538.83779  0.014373607  0.013896463            8 
 3125000   0.77190546   -8.4645767     540.0736  0.014401963  0.013891431            7 
 3126000   0.75506389   -8.4889134     538.1572  0.014346268  0.013886399            6 
 3127000   0.75771211   -8.4737882    538.37843  0.014347576  0.013881369            6 
 3128000   0.75665565   -8.4755484     539.2034  0.014364967  0.013876343            4 
 3129000   0.75375647   -8.4924548     538.3834  0.014338537  0.013871318           20 
 3130000   0.73428617   -8.4738074    539.50852  0.014363912  0.013866309           11 
 3131000    0.7565828   -8.4750555    539.64587   0.01436298  0.013861295            8 
 3132000   0.74043911    -8.470107    540.65881  0.014385345  0.013856295           13 
 3133000    0.7616983   -8.4683161    539.59266  0.014352396   0.01385128           15 
 3134000   0.75331408   -8.4883884     540.8919  0.014382363   0.01384628            9 
 3135000   0.74595144   -8.4785588    540.95622  0.014379485  0.013841274            6 
 3136000   0.73502876   -8.4775688    540.08496  0.014351747  0.013836278            3 
 3137000   0.75802136   -8.5152498    539.03981  0.014319408  0.013831269            4 
 3138000   0.74038961   -8.4748899    539.39567  0.014324296  0.013826262            2 
 3139000   0.74562758   -8.4736721    539.92442  0.014333769   0.01382127            9 
 3140000   0.76297303   -8.4595123    539.64597  0.014321814  0.013816273            3 
 3141000   0.75118787   -8.4710356    539.56331  0.014315062  0.013811284            4 
 3142000   0.75537977   -8.4886804    538.14803  0.014272969  0.013806298            3 
 3143000   0.73356473   -8.4493642    540.12827  0.014320932  0.013801318            3 
 3144000   0.73484526   -8.4861971    539.03884  0.014287501  0.013796351            6 
 3145000   0.76275558   -8.4532914    541.47835  0.014347598  0.013791385            6 
 3146000   0.72443937   -8.4427028    541.51199  0.014343929  0.013786437           10 
 3147000   0.74745898   -8.4845846    539.94136   0.01429778   0.01378147            4 
 3148000   0.75119361    -8.458251    539.71817   0.01428733   0.01377652            9 
 3149000   0.75370432   -8.4739563    540.53801  0.014304488  0.013771561            3 
 3150000   0.75771261   -8.4736173    540.44663   0.01429753  0.013766602            9 
 3151000   0.75067987   -8.4939871    540.97074  0.014306853   0.01376164            8 
 3152000   0.75798018   -8.4580864    540.61227  0.014292837  0.013756668            4 
 3153000    0.7344821   -8.5068043    540.18631  0.014277046  0.013751696            4 
 3154000   0.74894556   -8.4846834    539.98869  0.014267298   0.01374672            6 
 3155000   0.72702733   -8.5100719      539.133  0.014240174  0.013741736            4 
 3156000    0.7681155   -8.4918029    540.11752  0.014261658  0.013736772            6 
 3157000   0.74110107   -8.4943878    539.87001  0.014250607  0.013731805            3 
 3158000   0.73950568   -8.4755854    541.02456  0.014276561  0.013726844            4 
 3159000    0.7445374   -8.4704676     540.0162  0.014245441  0.013721888            2 
 3160000   0.72291801   -8.4907388       540.12  0.014243671  0.013716935            2 
 3161000   0.72305249    -8.481786    539.80138  0.014230765  0.013711969            3 
 3162000   0.75060563   -8.4968068    540.38661  0.014241688  0.013707007            4 
 3163000   0.74049221   -8.5263442    539.91382  0.014224729  0.013702043            2 
 3164000   0.74600917    -8.501378    539.41741  0.014207159  0.013697071            5 
 3165000   0.73748991   -8.4898018     539.8707  0.014214605  0.013692096            2 
 3166000   0.73462238   -8.5250512    540.03785  0.014214515  0.013687132            3 
 3167000   0.74106871   -8.5105096    539.99904  0.014209005  0.013682163            3 
 3168000   0.76014408   -8.4860768    539.42593  0.014189445  0.013677214            2 
 3169000   0.75325534   -8.4952357    539.09256  0.014176201  0.013672267            5 
 3170000   0.76542693   -8.4949275    539.77736  0.014189731  0.013667317            1 
 3171000   0.76274779   -8.4900414    540.69238  0.014209303  0.013662369            3 
 3172000   0.75551284    -8.469094    540.66247  0.014204037  0.013657441            4 
 3173000   0.73557098   -8.4835744    540.06358  0.014183832   0.01365251            6 
 3174000    0.7436165   -8.4971618    539.86073  0.014174037  0.013647593            2 
 3175000   0.74576214   -8.5041409    538.93967  0.014145398  0.013642663            4 
 3176000   0.73326625   -8.4850979    541.00099   0.01419503  0.013637751            2 
 3177000   0.73274645   -8.4811082    540.45413  0.014176218  0.013632837            2 
 3178000   0.76073998   -8.4861038    541.27443  0.014193267  0.013627926            4 
 3179000   0.73500089   -8.4788565    541.00432  0.014181722  0.013622993            3 
 3180000   0.73161181   -8.4881783      540.517  0.014164492  0.013618081            4 
 3181000   0.73814075   -8.4978421    540.02328  0.014147105  0.013613139            3 
 3182000   0.75167145   -8.4882805    539.81729  0.014137264  0.013608206            2 
 3183000   0.73615346   -8.4948719     539.6093  0.014127377  0.013603292            3 
 3184000   0.74570517   -8.4830163     540.7322  0.014152329  0.013598382            2 
 3185000      0.72822   -8.4948749    539.27072  0.014109647  0.013593473            2 
 3186000   0.74940083   -8.4939588    539.85964  0.014120623  0.013588563            3 
 3187000   0.74679862   -8.4801348    539.98117   0.01411937  0.013583648            4 
 3188000   0.74313646   -8.5127052    538.06897  0.014064956  0.013578722            3 
 3189000   0.73630758   -8.5128258       540.61  0.014126947  0.013573798            5 
 3190000   0.72810853   -8.5087586    540.01827   0.01410706  0.013568879            4 
 3191000   0.74415168   -8.4858072    540.75122  0.014121781  0.013563967           10 
 3192000   0.73792013   -8.5168211    538.24189  0.014051846  0.013559049            2 
 3193000   0.74759749   -8.4987751     539.7925  0.014087914   0.01355413           13 
 3194000   0.74563785   -8.5008041    540.34338  0.014097876   0.01354923            5 
 3195000   0.72865502   -8.5103044    540.03904  0.014085525  0.013544322            5 
 3196000   0.73284941   -8.5171618     539.7755  0.014074247  0.013539413            6 
 3197000   0.74960607   -8.4927467     540.6416   0.01409242  0.013534515            3 
 3198000   0.74728515   -8.5019661    539.88342  0.014068257  0.013529606            1 
 3199000   0.73727954   -8.5018024    540.37285  0.014076609  0.013524701            3 
 3200000   0.74058461   -8.5008091    539.40902   0.01404711    0.0135198            2 
 3201000    0.7443541   -8.5105805    540.08414  0.014060297  0.013514903            8 
 3202000   0.73232752   -8.5104999    538.90005   0.01402509  0.013509995            6 
 3203000   0.74681007   -8.5176777    539.10475  0.014026037  0.013505063            4 
 3204000   0.72171004   -8.5007216    541.07438  0.014072888  0.013500161            5 
 3205000   0.74032506      -8.5314    541.08705  0.014068826  0.013495257            1 
 3206000   0.73556866   -8.5252301    539.71709  0.014028828  0.013490357            7 
 3207000   0.72996365   -8.5033354    540.08908   0.01403412  0.013485461            2 
 3208000   0.74361634   -8.4998855    539.69277  0.014019451  0.013480567            2 
 3209000   0.73089591   -8.5351488    539.53924  0.014011095  0.013475667            3 
 3210000   0.74818047   -8.5188091    538.74013  0.013985985  0.013470778            3 
 3211000   0.73490761   -8.5129327    539.44776  0.013999994  0.013465874            3 
 3212000   0.73997574   -8.5290553    539.33543  0.013992721   0.01346096           10 
 3213000   0.73106726   -8.5062432    540.03941  0.014006624  0.013456065            5 
 3214000   0.73580971    -8.532651     539.8617  0.013997659  0.013451167            4 
 3215000   0.74309555   -8.5140528    539.88282  0.013993852  0.013446271            5 
 3216000   0.72838225   -8.5298336    539.73385  0.013985641  0.013441382            9 
 3217000   0.73083599   -8.5154797    539.21433  0.013967836  0.013436496            5 
 3218000   0.74378078   -8.4999447    540.02968  0.013984609  0.013431607            6 
 3219000    0.7390988   -8.5060653    539.86955   0.01397612  0.013426728            7 
 3220000   0.73408906   -8.5004172     541.8797  0.014023802  0.013421868            4 
 3221000   0.75921846   -8.5112408    539.86519  0.013967329  0.013416994            6 
 3222000   0.74703481   -8.5310183    540.92491  0.013990402  0.013412122            5 
 3223000   0.74521752   -8.5097489    539.69252  0.013954197  0.013407248            8 
 3224000   0.74329525   -8.4961106    540.56115  0.013972321  0.013402383            5 
 3225000    0.7210726   -8.5242628    540.22033  0.013959182  0.013397509            4 
 3226000   0.75018174   -8.5237529    540.20179  0.013954376   0.01339264            6 
 3227000   0.73166454   -8.5373315    539.86419  0.013941333  0.013387764            6 
 3228000   0.73966625   -8.5243592    539.17467  0.013919214  0.013382881            6 
 3229000   0.73122377    -8.526018    539.46623  0.013922428  0.013378002            6 
 3230000   0.73137253   -8.5233196    539.94793  0.013930545  0.013373126            5 
 3231000   0.73715026   -8.5501375    540.33347  0.013936177  0.013368238            3 
 3232000   0.72995871   -8.5261826    540.20375  0.013928521  0.013363342            4 
 3233000   0.72964623   -8.5250048    540.49111   0.01393162  0.013358455            5 
 3234000   0.74956028   -8.5391575    540.41734  0.013925411  0.013353566            3 
 3235000   0.73212722   -8.5491406    538.76626  0.013878575  0.013348672            3 
 3236000   0.72610395    -8.528128    539.82735  0.013901611  0.013343787            2 
 3237000   0.73386499   -8.5083603    540.39107  0.013911829  0.013338884            5 
 3238000   0.73202064   -8.5670592    539.54126  0.013885661  0.013333999            6 
 3239000    0.7333472   -8.5149463    540.35965   0.01390243  0.013329118           10 
 3240000   0.73942397   -8.5494437    540.08803  0.013891153  0.013324239           11 
 3241000   0.73466272   -8.5218814    539.39855  0.013869139  0.013319372            3 
 3242000   0.72232908   -8.4880976    539.67155  0.013871878  0.013314505            4 
 3243000   0.72715031   -8.5108791    539.21095  0.013855765  0.013309651            3 
 3244000   0.75351065   -8.5282819    540.14973   0.01387561  0.013304797            3 
 3245000   0.73875056   -8.5417073    539.54095    0.0138557  0.013299931            6 
 3246000   0.73192747   -8.5675241    538.36477  0.013821236  0.013295054            3 
 3247000   0.73125305   -8.5401406    539.81159  0.013854111  0.013290174            6 
 3248000   0.73300574   -8.5285922    539.88277  0.013851672  0.013285317            2 
 3249000   0.73842405   -8.5431521      540.176   0.01385493  0.013280441           11 
 3250000   0.71445081   -8.5296626    540.00411  0.013846259  0.013275585            5 
 3251000   0.74877428   -8.5611088    538.26248  0.013797357  0.013270722            6 
 3252000   0.73705234   -8.5483678    538.75548  0.013805747   0.01326586            4 
 3253000   0.72920598    -8.547276      539.061   0.01380933  0.013260999            5 
 3254000    0.7414374   -8.5155273    541.30967  0.013862673  0.013256133            5 
 3255000   0.73937892   -8.5476193    539.58011  0.013814135  0.013251291            4 
 3256000   0.74242309   -8.5324344    539.17149  0.013799434  0.013246448            4 
 3257000   0.72655719    -8.532755    540.27864  0.013823525  0.013241603            6 
 3258000   0.70931523   -8.5214102    539.76639  0.013806179  0.013236749            5 
 3259000   0.73124012   -8.5436487    540.18743  0.013812709   0.01323191            4 
 3260000   0.73560182   -8.5360222    539.72134  0.013796558  0.013227067            3 
 3261000   0.72418228   -8.5456277    538.64948  0.013764936  0.013222227            4 
 3262000   0.71604415   -8.5390081    539.72823  0.013788275  0.013217391            2 
 3263000   0.71932637   -8.5305524     539.6269  0.013781461  0.013212561            1 
 3264000   0.72162434   -8.5204287    540.18841  0.013791575  0.013207745            4 
 3265000   0.72398668   -8.5326332     540.6694  0.013799627  0.013202921            9 
 3266000   0.73906969   -8.5141539    540.30297  0.013786053  0.013198105            2 
 3267000    0.7232956   -8.5432715    539.81289  0.013769332  0.013193291            2 
 3268000   0.74698568   -8.5458071    539.10259  0.013747006  0.013188457            3 
 3269000   0.73552206   -8.5502914     539.8488  0.013761823  0.013183635            8 
 3270000   0.71539915   -8.5564817     539.2684  0.013742824  0.013178821            4 
 3271000   0.73656281   -8.5199995    539.70143  0.013749654  0.013174008           11 
 3272000   0.73365402   -8.5140236    540.14626  0.013756781  0.013169193            4 
 3273000   0.72321312   -8.5329825    539.82984  0.013744522   0.01316438            8 
 3274000    0.7219136   -8.5394818    539.27011  0.013726077  0.013159559            4 
 3275000   0.72515756   -8.5271888    540.45462  0.013752026  0.013154757            4 
 3276000   0.73199659   -8.5327194    540.24162   0.01374241  0.013149962            2 
 3277000   0.73806536   -8.5290301    540.95668    0.0137564  0.013145169            6 
 3278000   0.71195697   -8.5334994    539.12171  0.013705555  0.013140361            5 
 3279000   0.72267297   -8.5351889    540.33923  0.013732317  0.013135549            6 
 3280000   0.70666341   -8.5449755    540.46573  0.013731345  0.013130747            4 
 3281000   0.71303022    -8.525251    538.81652  0.013685272  0.013125941            6 
 3282000   0.71588771   -8.5393942    540.01024  0.013711412  0.013121135            4 
 3283000   0.72753606   -8.5411288    539.78327  0.013701474  0.013116334            5 
 3284000   0.72481682   -8.5245801    539.85418  0.013699101  0.013111538            5 
 3285000   0.72622377   -8.5204362    540.46417  0.013710405   0.01310676            2 
 3286000   0.71075235   -8.5413287    541.23931   0.01372589  0.013101983            5 
 3287000   0.73265054   -8.5555304    540.59544  0.013705391  0.013097199            4 
 3288000   0.72846761   -8.5397923    540.68767   0.01370356  0.013092405            2 
 3289000    0.7306023   -8.5530585    539.26145  0.013663258  0.013087619            2 
 3290000   0.72914194   -8.5434212    540.41435  0.013688307  0.013082834            4 
 3291000   0.71867466   -8.5496494    541.04339  0.013700076  0.013078064            6 
 3292000   0.72743803   -8.5389926    541.21817  0.013700339  0.013073306            5 
 3293000   0.73469863   -8.5487749    539.72565  0.013658408  0.013068553            5 
 3294000   0.72954538   -8.5547587    539.94809  0.013659889  0.013063788           13 
 3295000   0.72525498   -8.5410241    539.57658  0.013646348  0.013059015            6 
 3296000   0.73341183   -8.5390916    540.96275  0.013677254  0.013054262            6 
 3297000   0.71046714   -8.5084736    540.63461  0.013664812  0.013049512            6 
 3298000   0.72735277   -8.5119894    540.67444  0.013661675  0.013044749            5 
 3299000   0.73653036   -8.5127502    541.09857  0.013668247  0.013039989            9 
 3300000   0.73555908   -8.5358389    539.28499  0.013618308  0.013035231            8 
 3301000   0.72643861   -8.5120423    541.56225  0.013671672   0.01303048            2 
 3302000   0.72248262   -8.5184489    539.46688   0.01361465  0.013025743            3 
 3303000   0.71907278   -8.5495319    539.52254  0.013611932  0.013020998            3 
 3304000   0.72733899   -8.5276138    539.70028  0.013612295  0.013016246            3 
 3305000    0.7154833   -8.5233035    540.05731  0.013617179  0.013011499            3 
 3306000    0.7211481   -8.5178238    541.99907  0.013662005  0.013006746            6 
 3307000   0.71853483   -8.5231819    539.95639    0.0136064     0.013002            4 
 3308000   0.69626977   -8.5578125    539.68768  0.013595518  0.012997243            3 
 3309000   0.69285588   -8.5314121     540.2794  0.013606311  0.012992482            5 
 3310000   0.71542016   -8.5108874    539.96171  0.013594202  0.012987739            4 
 3311000   0.71085331   -8.5583022    539.39818  0.013575913  0.012982986            4 
 3312000    0.7243056   -8.5444991    540.99682  0.013612038  0.012978231            6 
 3313000   0.73402757      -8.5352    540.30335  0.013590486  0.012973486            3 
 3314000   0.71662841   -8.5701197    539.84038  0.013574743  0.012968743            5 
 3315000   0.70655858   -8.5651631    539.45978  0.013561081  0.012963992            5 
 3316000   0.74233616   -8.5370682    538.67766  0.013537336  0.012959246            4 
 3317000   0.71330763   -8.5175207    539.84564  0.013562598  0.012954505            5 
 3318000   0.70817849   -8.5385759    540.63726  0.013578392  0.012949769            3 
 3319000   0.71627394   -8.5250689    540.75443  0.013577243  0.012945026           10 
 3320000   0.71594211   -8.5713845    540.65608  0.013570685   0.01294028            9 
 3321000   0.70462417   -8.5631695    539.16113  0.013529086  0.012935528            9 
 3322000   0.72151436   -8.5532158     540.7109   0.01356389  0.012930773            4 
 3323000    0.7264476   -8.5468768    538.86891  0.013513615  0.012926017            7 
 3324000   0.72079096   -8.5542622    539.82707  0.013533571  0.012921261            6 
 3325000   0.71454227   -8.5800865    538.65949  0.013500238  0.012916521            5 
 3326000    0.7275231   -8.5415977    539.20817  0.013509926  0.012911785            8 
 3327000   0.71921643   -8.5519112    539.55839  0.013514637  0.012907053            5 
 3328000   0.73756962   -8.5386835    540.04221  0.013522692  0.012902332            4 
 3329000   0.72652638     -8.50637     541.0354  0.013543492  0.012897612            3 
 3330000    0.7286765    -8.551319    540.32209  0.013521574   0.01289288            5 
 3331000   0.71653206   -8.5469706    539.32455  0.013492559  0.012888151            3 
 3332000   0.72215113   -8.5695355    540.67652  0.013522322   0.01288344            7 
 3333000   0.72409406   -8.5496392    540.04918   0.01350258  0.012878728            3 
 3334000   0.72414558   -8.5645933    539.20524  0.013477435     0.012874            2 
 3335000   0.71544147   -8.5312865    540.54722  0.013506927  0.012869276            5 
 3336000   0.72967777   -8.5523375    539.68869  0.013481432  0.012864556            5 
 3337000   0.72165393   -8.5455757    540.94111  0.013508668  0.012859836            4 
 3338000   0.70999616   -8.5302118    539.24296  0.013462227   0.01285512            2 
 3339000   0.72269873   -8.5517645    539.12754  0.013455314  0.012850393            6 
 3340000   0.71540432   -8.5646221    539.36734  0.013457269  0.012845666            5 
 3341000   0.71658229   -8.5535237    539.85362   0.01346537  0.012840943            4 
 3342000   0.72440652   -8.5722666    538.86457  0.013436679  0.012836225            3 
 3343000    0.7096599   -8.5451238    539.02909  0.013436761  0.012831493            5 
 3344000   0.72136962   -8.5391727    540.44726  0.013468084  0.012826768            9 
 3345000   0.70704046    -8.556693    538.86916  0.013424742  0.012822049           11 
 3346000   0.71479188    -8.546918    540.18433  0.013453485  0.012817334           16 
 3347000   0.70679272    -8.569457    540.00236  0.013444935  0.012812617           24 
 3348000   0.71581345   -8.5728191    539.37061  0.013425194  0.012807881           17 
 3349000    0.7000916   -8.5556585    539.19681  0.013416861  0.012803161           11 
 3350000   0.73669987   -8.5512871    537.74031  0.013376625  0.012798445           12 
 3351000   0.71088873   -8.5721002    538.01884  0.013379559  0.012793709            5 
 3352000   0.72940024   -8.5908405    537.93296  0.013373433  0.012788977           10 
 3353000   0.71494286   -8.5601491    539.20876  0.013401152  0.012784262            5 
 3354000   0.71425792   -8.5782579    539.43789   0.01340285  0.012779533            7 
 3355000   0.72358862   -8.5820425    539.82559  0.013408485   0.01277481            9 
 3356000   0.71687282   -8.5766035    537.51317  0.013347069  0.012770096            3 
 3357000   0.71721603     -8.57265    539.08625  0.013382143  0.012765382            6 
 3358000   0.73343647    -8.584826    539.08135  0.013378036  0.012760657            3 
 3359000   0.72982483   -8.5884604    538.11728  0.013350136  0.012755923            5 
 3360000   0.70367519   -8.5909356    538.54618    0.0133568  0.012751191            5 
 3361000   0.71544864   -8.5968825    538.75966  0.013358119  0.012746464            5 
 3362000   0.70995091   -8.5571698     539.1128  0.013362899  0.012741735            4 
 3363000   0.71609644   -8.5775217    539.42279  0.013366607  0.012737017            3 
 3364000   0.71360748   -8.5688979    538.29574  0.013334714  0.012732297            2 
 3365000   0.71235173    -8.560779     538.6713  0.013340052  0.012727582            5 
 3366000   0.72042405    -8.578718    538.51178   0.01333214  0.012722858           12 
 3367000   0.71019657   -8.5893493    538.70015  0.013332842  0.012718141            6 
 3368000   0.70330269   -8.5842761    538.98308  0.013335884  0.012713419           11 
 3369000   0.69678599   -8.5748506      539.214  0.013337637  0.012708705            8 
 3370000   0.70967711   -8.5940192    539.58678  0.013342898  0.012703981            5 
 3371000   0.71158455   -8.5909799    538.28529  0.013306766  0.012699253            8 
 3372000   0.72537953   -8.5664057    538.45782  0.013307083  0.012694531            3 
 3373000   0.71571219   -8.5876637    538.16523   0.01329591  0.012689815            6 
 3374000   0.71647959    -8.582559    539.56638  0.013326575  0.012685107            6 
 3375000   0.70904887   -8.5789057    538.76307  0.013302792  0.012680409            5 
 3376000   0.72526452   -8.5870223     538.6368  0.013295735   0.01267571           10 
 3377000    0.7167553   -8.5797986    540.29021  0.013332598  0.012671009            8 
 3378000   0.70263517    -8.579793    539.89535   0.01331891  0.012666322           10 
 3379000   0.70474409   -8.5718467    540.55197  0.013331162  0.012661646            9 
 3380000   0.71331629   -8.5618898    539.29876   0.01329632  0.012656976            7 
 3381000   0.71437431   -8.6049385    539.91907  0.013307677  0.012652308            7 
 3382000   0.72118276   -8.5808008    539.30086  0.013288509  0.012647632            4 
 3383000   0.69609725   -8.5671194    540.20788  0.013306924  0.012642955            6 
 3384000   0.71750995   -8.5802199    538.53861  0.013261884  0.012638285            7 
 3385000   0.72266272    -8.586522    539.31171  0.013276999  0.012633626            5 
 3386000   0.71483367   -8.6118842    540.13967  0.013293455  0.012628958            3 
 3387000   0.70084737   -8.6067641    538.70409  0.013254209  0.012624287            3 
 3388000   0.69191301   -8.5881191    539.15456  0.013261377   0.01261961            7 
 3389000   0.70799102    -8.582258    539.27438  0.013260411   0.01261494            7 
 3390000   0.70127225   -8.5873628    538.78376  0.013244438  0.012610276            5 
 3391000    0.7212341   -8.5959101    538.19713  0.013226116   0.01260562            9 
 3392000   0.71323551    -8.610394    539.06632  0.013243571  0.012600972            8 
 3393000   0.70436881   -8.5976132    539.03657  0.013238937  0.012596318            9 
 3394000   0.71846815    -8.582646    538.94434  0.013232772  0.012591665            7 
 3395000   0.72657244   -8.5874093    538.77941  0.013224826  0.012587016            8 
 3396000   0.70925595   -8.5841957    540.17396  0.013255152  0.012582371            7 
 3397000   0.71403808   -8.5875509    538.71472  0.013215453  0.012577744           15 
 3398000   0.71735394   -8.5615608    539.41039  0.013228624  0.012573116            8 
 3399000   0.70786107   -8.5503727    540.02869  0.013239891  0.012568496            3 
 3400000   0.70690955   -8.5819608    539.63426   0.01322633  0.012563886            7 
 3401000   0.70204971   -8.6000282    538.95428   0.01320578  0.012559258           11 
 3402000   0.68916989   -8.5924278    539.52992  0.013215998  0.012554624           22 
 3403000   0.69220106   -8.6029469    539.70562  0.013216417  0.012549993           14 
 3404000   0.69346816   -8.5790438    539.65983  0.013211414   0.01254538            5 
 3405000   0.69196709   -8.5849095    539.44537  0.013202285  0.012540761            9 
 3406000   0.70916906   -8.5942519    540.07909  0.013213914  0.012536144            5 
 3407000   0.69435922   -8.5572731    540.05619  0.013209475   0.01253153            8 
 3408000   0.71750735   -8.5862782    539.42645  0.013190201  0.012526914            3 
 3409000   0.69091236   -8.5998861    539.77618  0.013194881  0.012522299           11 
 3410000   0.71893678   -8.5761747    540.01296  0.013196798  0.012517686            6 
 3411000    0.7027536   -8.5825972    539.48141  0.013179943  0.012513084            7 
 3412000    0.6989942   -8.5887667    539.03879  0.013165269  0.012508488            3 
 3413000   0.72934096   -8.5665921    539.81737  0.013180422  0.012503894            6 
 3414000   0.70128849   -8.5534454    539.48586   0.01316847  0.012499304            7 
 3415000   0.71117288   -8.5924891    539.00274  0.013152824  0.012494706            4 
 3416000   0.69020482   -8.5914171    541.01303  0.013198015  0.012490101            2 
 3417000   0.70932464   -8.5854412    540.49417  0.013181499  0.012485502            4 
 3418000   0.69569955   -8.5695357    540.19696  0.013170396  0.012480908            5 
 3419000    0.7025804   -8.6137706    538.80971  0.013132731   0.01247631            4 
 3420000    0.7176231   -8.6140353    539.54941  0.013146915  0.012471704            4 
 3421000    0.7181891   -8.5703365     541.0949   0.01318072  0.012467106            3 
 3422000    0.7190629   -8.6108889    538.94985  0.013124631  0.012462514            4 
 3423000   0.70081565   -8.5924836    540.52459  0.013159134  0.012457917            4 
 3424000   0.70622672   -8.6041109    539.13018  0.013121354  0.012453323            2 
 3425000   0.71803774   -8.5974686    538.42864  0.013100453   0.01244873            5 
 3426000   0.71519699   -8.6046969    540.10475  0.013137399   0.01244414            4 
 3427000   0.70008599   -8.5815547    539.69765  0.013123666  0.012439559            4 
 3428000   0.70102335   -8.6062034    538.30193  0.013085908  0.012434976           11 
 3429000   0.71198312   -8.5774449    540.10305  0.013125864  0.012430392            4 
 3430000   0.69480957   -8.5675191     540.1049  0.013122082  0.012425816            6 
 3431000   0.71238629   -8.6011749    539.95048  0.013114507  0.012421234            5 
 3432000   0.71313173   -8.6048879    539.65583  0.013103531  0.012416655            3 
 3433000   0.70421086   -8.5958217    539.78553  0.013102863  0.012412075            3 
 3434000   0.70948563   -8.6140863    538.53159  0.013068617  0.012407493            3 
 3435000   0.68797911   -8.5791725    538.64214  0.013067495  0.012402901            5 
 3436000   0.70705584   -8.6151591    538.52332   0.01306081  0.012398327            2 
 3437000    0.6965319   -8.6028731    539.85203  0.013089226  0.012393757            7 
 3438000   0.68906598    -8.585152    539.81181  0.013084444  0.012389173            5 
 3439000   0.69122912   -8.6264034    540.33743  0.013093376  0.012384592            5 
 3440000   0.68481358   -8.6156371     538.5071   0.01304523  0.012380017            6 
 3441000   0.70121256   -8.6001391    538.88036  0.013050479  0.012375445            7 
 3442000   0.71524712   -8.6126188    539.50412  0.013061789   0.01237087            6 
 3443000   0.69437803   -8.6089555    539.31436  0.013053402  0.012366288            5 
 3444000   0.70239845   -8.6236132    540.29633  0.013073372  0.012361709            3 
 3445000   0.69060507   -8.6144413    539.48551  0.013049964  0.012357131            7 
 3446000   0.70441151   -8.6205893    537.66437  0.013002137   0.01235255            9 
 3447000   0.71452981   -8.6088617    538.90484  0.013028354  0.012347967            8 
 3448000   0.71310105   -8.6293228    538.82511  0.013022649  0.012343386            5 
 3449000   0.70821261   -8.6249696    539.72065  0.013040511  0.012338818           14 
 3450000   0.71454076   -8.6199057    538.72012  0.013012563  0.012334242           16 
 3451000   0.70545542    -8.621375    538.19013  0.012995995  0.012329669            5 
 3452000   0.70002163   -8.6182167    538.18285  0.012992054  0.012325099           10 
 3453000   0.70378517   -8.6138127    538.30283  0.012991187  0.012320526            4 
 3454000   0.70356844   -8.6459731    539.04172  0.013005253  0.012315964            5 
 3455000   0.69416448   -8.6393975    539.34753  0.013008865  0.012311404            2 
 3456000   0.68408409   -8.6185194    539.25631  0.013002901  0.012306847            5 
 3457000   0.70335441   -8.6242629    537.78548  0.012963684  0.012302293            8 
 3458000   0.69772131   -8.6120133    538.67923  0.012981474  0.012297746           11 
 3459000   0.68721361   -8.6272211    538.70145  0.012978256  0.012293195            9 
 3460000   0.71149059   -8.5984279    539.05674  0.012983062  0.012288653            7 
 3461000    0.7050206   -8.6068924     539.4065  0.012987732  0.012284107           10 
 3462000   0.69894775   -8.6022097    540.59108  0.013012495  0.012279566            3 
 3463000   0.69397178   -8.6286875    539.74738  0.012988434  0.012275026            3 
 3464000   0.69792335   -8.6197242    538.99128  0.012966495  0.012270491            5 
 3465000   0.70052867   -8.6481049    537.74625   0.01293281  0.012265936            9 
 3466000   0.69633709   -8.6339074    538.54837  0.012948364  0.012261399            6 
 3467000   0.69186276   -8.6229014    539.45294  0.012966372  0.012256859            4 
 3468000   0.70520081   -8.6419034    539.15488  0.012955471  0.012252331            3 
 3469000   0.70577168   -8.6321164    538.94721  0.012946748  0.012247802            5 
 3470000   0.70168547   -8.6233545    539.52959  0.012957003  0.012243286           14 
 3471000   0.70492759   -8.6030362    539.50159  0.012952597  0.012238765            4 
 3472000   0.69978166   -8.6348866    538.22945  0.012918334  0.012234242            6 
 3473000   0.69995021   -8.5968358    540.48198  0.012968663  0.012229718            7 
 3474000    0.7062281   -8.6229217     538.8057  0.012924719  0.012225204            3 
 3475000   0.69119674   -8.6375953    538.70381  0.012918557  0.012220684            4 
 3476000   0.68145602   -8.6178856    539.87154  0.012942835  0.012216158            3 
 3477000   0.69502378   -8.6179266    539.87698  0.012939243  0.012211643            9 
 3478000   0.69463261   -8.6240165    539.55169  0.012927729  0.012207137            5 
 3479000    0.6963984    -8.621069    540.05814  0.012936144  0.012202621            4 
 3480000   0.69093009   -8.6342683    538.54541  0.012896202   0.01219811            8 
 3481000    0.6984857   -8.6221752    539.53814  0.012916263  0.012193589           12 
 3482000    0.6754047    -8.623913      539.086  0.012901733  0.012189078            9 
 3483000   0.69891791   -8.6355592    539.29434  0.012903013  0.012184575            6 
 3484000   0.69315713   -8.6281395     539.4894  0.012903975  0.012180064            9 
 3485000   0.68361184   -8.6330038    539.69338   0.01290515   0.01217556           10 
 3486000    0.6947412   -8.6259377    539.67721  0.012901062  0.012171056           13 
 3487000   0.68836273   -8.6523621    537.31286  0.012840858  0.012166559            6 
 3488000   0.70156026   -8.6133941    538.69313  0.012870153  0.012162068            4 
 3489000    0.6938446   -8.6377121    539.71111  0.012890778  0.012157574            7 
 3490000   0.68975064    -8.641502       539.53   0.01288276  0.012153082            5 
 3491000    0.6948707   -8.6441094     538.5496  0.012855667  0.012148587            7 
 3492000   0.70433059   -8.6517695     538.2843  0.012845654  0.012144094            6 
 3493000   0.68826529   -8.6446571    539.68141  0.012875308  0.012139614            7 
 3494000   0.69496866   -8.6235868    540.31822  0.012886811  0.012135128            7 
 3495000    0.6912282   -8.6213112    539.89168  0.012872954  0.012130643           11 
 3496000   0.68831692   -8.6235894    540.14133  0.012875222  0.012126154            5 
 3497000   0.70222769   -8.6129627    539.66528  0.012860196  0.012121673            6 
 3498000   0.67624831   -8.6271467    539.05479  0.012841976  0.012117198            7 
 3499000    0.6973626   -8.6137655    538.99677  0.012836924  0.012112719            4 
 3500000    0.7039051   -8.6515086    539.05376  0.012834613  0.012108247            5 
 3501000   0.71022914   -8.6405701    539.37614  0.012838621  0.012103771            5 
 3502000   0.68127766   -8.6581386    539.52367  0.012838465  0.012099294            4 
 3503000   0.69263141   -8.6193182    539.68906  0.012838735  0.012094827            5 
 3504000   0.68280992   -8.6247237    539.18854  0.012823167  0.012090369            6 
 3505000   0.69507903   -8.6314637    537.60693  0.012781905  0.012085898            8 
 3506000   0.70053841   -8.6447749    539.30774  0.012818685   0.01208143            8 
 3507000   0.67999313   -8.6180053    540.81281  0.012850794   0.01207697            8 
 3508000   0.68951381   -8.6430634    540.21824  0.012833006  0.012072513            8 
 3509000   0.68402922   -8.6331225    539.02147  0.012800928  0.012068061            4 
 3510000   0.69490882   -8.6243322    539.73791   0.01281429  0.012063612            2 
 3511000   0.69879923   -8.6421501    539.78739  0.012811815  0.012059149           14 
 3512000   0.69016776   -8.6340839    539.17022  0.012793523  0.012054693           24 
 3513000   0.69239838   -8.6377282    539.25299  0.012791844  0.012050238           14 
 3514000   0.69150977   -8.6358586    539.30177  0.012789361  0.012045775           12 
 3515000   0.68204723   -8.6307946    539.49471  0.012790297  0.012041321           17 
 3516000   0.70808778   -8.6196428     539.2304  0.012780394   0.01203687           17 
 3517000   0.69249158    -8.648098     539.4548  0.012782077  0.012032413           12 
 3518000   0.70052664   -8.6458475    540.11857  0.012794167  0.012027967           15 
 3519000    0.6729805   -8.6250271    539.80149  0.012783023  0.012023519           13 
 3520000   0.69409773   -8.6454971    539.13121  0.012763523  0.012019064            5 
 3521000   0.68986773   -8.6233747    538.62366  0.012747886  0.012014612           14 
 3522000   0.66736223   -8.6666886    537.88313  0.012726745  0.012010153            8 
 3523000   0.68537447   -8.6471978    538.92501  0.012747777  0.012005696           12 
 3524000   0.68985423   -8.6479335    538.71911   0.01273929  0.012001247           13 
 3525000    0.6928748   -8.6342391    538.39424  0.012727996  0.011996804            3 
 3526000   0.68432306   -8.6652308    538.10626   0.01271758  0.011992354            7 
 3527000   0.68473212   -8.6589684    537.43856  0.012698199  0.011987913            3 
 3528000   0.68427604    -8.654982    538.70317   0.01272447  0.011983461            2 
 3529000   0.69617888   -8.6452841    539.03478  0.012728695   0.01197902            6 
 3530000    0.6961485   -8.6654283    539.16341  0.012728126  0.011974585            5 
 3531000   0.70111605   -8.6557778    539.15023   0.01272421  0.011970146            8 
 3532000   0.67735866   -8.6331838    538.68872  0.012709719  0.011965709            7 
 3533000   0.67424479   -8.6700599    538.42857  0.012699985  0.011961271            4 
 3534000   0.69551808   -8.6526198    538.98932  0.012709614  0.011956846           13 
 3535000   0.69081097   -8.6521927    538.94384  0.012704947  0.011952417            6 
 3536000   0.68340781   -8.6564169      539.187  0.012707084  0.011947987            6 
 3537000   0.68053434   -8.6320851    538.90861  0.012696933  0.011943563            6 
 3538000   0.70246739    -8.637677    539.45951   0.01270632  0.011939145           11 
 3539000   0.68284899   -8.6527346    539.05274  0.012693151  0.011934723            6 
 3540000    0.6878562   -8.6630619    538.67706  0.012680722  0.011930307            7 
 3541000   0.68497211    -8.664995    538.98385  0.012684361  0.011925887            5 
 3542000   0.67726858    -8.669806    539.17315  0.012685233  0.011921471            7 
 3543000   0.67744461   -8.6399514    539.63528  0.012692522  0.011917052            4 
 3544000   0.68116275   -8.6474974    538.87505  0.012671065  0.011912641           10 
 3545000   0.66915726   -8.6325529    538.67917  0.012662886  0.011908229            5 
 3546000   0.67813773   -8.6485922     539.5345  0.012679416  0.011903825            5 
 3547000   0.68171733    -8.650049    539.17551  0.012667407  0.011899418            8 
 3548000   0.67996423   -8.6454161    539.60252  0.012673866  0.011895018            6 
 3549000   0.68824212     -8.63975    538.41534  0.012642419  0.011890615           10 
 3550000   0.69560215   -8.6566306    538.20332  0.012633881  0.011886211           11 
 3551000   0.68767973   -8.6447256    538.47786  0.012636766  0.011881807            6 
 3552000   0.67627819   -8.6618634     538.1812  0.012626248  0.011877399           13 
 3553000   0.68680067   -8.6590052    538.79285   0.01263704  0.011872995           14 
 3554000   0.68479163   -8.6924948    537.70889  0.012608068  0.011868591           20 
 3555000   0.71406149   -8.6746209     539.1583  0.012638498  0.011864184           21 
 3556000   0.69245674   -8.6876327     539.0406  0.012632185  0.011859776           12 
 3557000   0.68571577   -8.6663922    538.50553  0.012616098  0.011855369           12 
 3558000   0.71054976   -8.6650712    538.78396  0.012619073  0.011850957           11 
 3559000    0.6869261   -8.6722118    539.01517  0.012620941  0.011846555           14 
 3560000   0.69749973   -8.6596941    538.71475  0.012610364  0.011842155            6 
 3561000   0.69991686   -8.6952884    538.10859  0.012592638  0.011837763           17 
 3562000   0.68714876   -8.6840292    538.52327  0.012598804  0.011833365           12 
 3563000   0.67121421   -8.6830323    538.34266  0.012591044   0.01182897           17 
 3564000   0.66318802   -8.6791067    538.28303  0.012586116  0.011824569            6 
 3565000   0.68731618   -8.6832773    537.89958  0.012573623  0.011820172           16 
 3566000   0.68465664   -8.6778199    537.99858   0.01257241  0.011815778            8 
 3567000   0.68025759   -8.6767323    537.61776  0.012559989  0.011811398            6 
 3568000   0.68476942   -8.6898177    538.30105  0.012572427   0.01180702            6 
 3569000   0.67729268   -8.6717723    538.13354  0.012564993  0.011802629            8 
 3570000   0.68885902   -8.6921422    537.60013  0.012549023  0.011798238           11 
 3571000   0.68971538   -8.6699764    537.81884  0.012550612  0.011793859           13 
 3572000   0.68732596   -8.6732058    538.52647  0.012563607   0.01178948            9 
 3573000   0.67434363   -8.6643365    538.64632  0.012562887  0.011785102            9 
 3574000   0.66984305   -8.6405791    537.35202  0.012529193  0.011780725            7 
 3575000   0.68043984   -8.6711929    538.36569  0.012549317  0.011776351            8 
 3576000   0.68366453   -8.6964888    537.58961  0.012527722  0.011771972            5 
 3577000   0.67362245   -8.6810126    538.13156  0.012536846  0.011767591            9 
 3578000   0.67549572   -8.6932426    538.22458  0.012535508  0.011763211            5 
 3579000     0.691292   -8.6480166    539.00523  0.012550182  0.011758843           14 
 3580000   0.66413124   -8.6844806    538.24077  0.012528882   0.01175448            8 
 3581000    0.6791538   -8.6896019    537.50079  0.012508163  0.011750113           12 
 3582000   0.68293819   -8.6904366    537.24737  0.012498775  0.011745746           10 
 3583000   0.69691956   -8.6861219    538.30807  0.012519957  0.011741381            5 
 3584000   0.66952383   -8.6848963    539.23394  0.012537992   0.01173702            6 
 3585000   0.67683278   -8.7181097    539.42273  0.012538883  0.011732661           13 
 3586000    0.6756061   -8.6806516    538.39032  0.012511394  0.011728303            6 
 3587000   0.67546121   -8.6639747    537.92895  0.012497188  0.011723945           12 
 3588000    0.6953815   -8.6872919    538.11837  0.012498104  0.011719587            7 
 3589000   0.66883245   -8.6933302    538.12364  0.012494744  0.011715232           16 
 3590000   0.67021623   -8.6712986     538.4048   0.01249779  0.011710881           17 
 3591000   0.68828718    -8.666812    539.10206  0.012510491  0.011706528            5 
 3592000   0.68254016   -8.6959728    538.53966   0.01249396  0.011702182           21 
 3593000    0.6861688   -8.6787695    537.03226  0.012455521  0.011697834           10 
 3594000   0.68678713   -8.7106755    538.26659  0.012480676  0.011693489           21 
 3595000   0.67904208    -8.669387    538.50935  0.012482832  0.011689146           19 
 3596000   0.66474886   -8.6907545    538.46138  0.012478248  0.011684807           15 
 3597000    0.6751471   -8.6854371    538.24059  0.012469664  0.011680461            7 
 3598000   0.68992897   -8.6875944    537.71573  0.012454042  0.011676125            9 
 3599000   0.67502828   -8.6522667    538.77315  0.012475066  0.011671793            9 
 3600000   0.69406808   -8.6891062    538.06945  0.012455311  0.011667471            6 
 3601000   0.67510544   -8.6744311    538.85177  0.012469957  0.011663156           16 
 3602000   0.66826528   -8.6914547     538.0254  0.012447376  0.011658837           11 
 3603000   0.67590977   -8.6812485    539.97977  0.012489124   0.01165452           18 
 3604000   0.66817781   -8.6735636    538.48598  0.012451119    0.0116502            7 
 3605000   0.69005105   -8.6912096     539.2091  0.012464381  0.011645881           13 
 3606000   0.67603455   -8.6662614     539.9721  0.012478557  0.011641572            6 
 3607000   0.67203916   -8.6685713    538.58058  0.012442948  0.011637255           16 
 3608000   0.67691783    -8.677189    538.76927  0.012443858  0.011632943           13 
 3609000   0.67261458   -8.6860733    539.03705  0.012446593  0.011628636           12 
 3610000   0.66760373   -8.6753985    539.35874  0.012450571  0.011624317            5 
 3611000   0.66541868    -8.695936    538.63825  0.012430496  0.011620005            9 
 3612000   0.67526297   -8.6874275    538.47369  0.012423258  0.011615693            8 
 3613000   0.67872517   -8.6773914    537.80883  0.012404484   0.01161138           10 
 3614000   0.66268346   -8.6765247    538.99151  0.012428323  0.011607072           12 
 3615000   0.65270812   -8.6888406    538.33726  0.012409803  0.011602765           11 
 3616000   0.66344851   -8.7050138    538.67866  0.012414239  0.011598457            4 
 3617000   0.67145175   -8.6807618    538.24543  0.012400826  0.011594163            7 
 3618000   0.67376344   -8.6740795    538.75907  0.012409229   0.01158986           15 
 3619000   0.67076952   -8.6965086    537.55805  0.012378144  0.011585564           14 
 3620000   0.68134065   -8.6659109    538.41486  0.012394449   0.01158127            6 
 3621000    0.6784694   -8.6966603    538.50696  0.012393146  0.011576977           22 
 3622000   0.66656056   -8.6774263    538.59793  0.012391817  0.011572691           11 
 3623000   0.66188708   -8.7046598    537.64468  0.012366471  0.011568405           14 
 3624000   0.66767092   -8.6791759    538.46671  0.012381961  0.011564112           24 
 3625000   0.67171167   -8.7053452    537.71003   0.01236115  0.011559828            5 
 3626000   0.66431421    -8.701673    538.52527  0.012376477  0.011555543           14 
 3627000   0.67236306   -8.6958106    537.28305  0.012344524  0.011551253           18 
 3628000    0.6878752   -8.7118254    537.49857  0.012346071  0.011546968           18 
 3629000   0.67488789    -8.710141    537.55558  0.012343979  0.011542684           10 
 3630000   0.66930616   -8.6875812    538.58208  0.012364143  0.011538402            8 
 3631000   0.68193712   -8.6758418    538.64143    0.0123621  0.011534134           10 
 3632000   0.67558242   -8.6945847    538.30617  0.012351004  0.011529857           21 
 3633000   0.65364204   -8.7035079    538.02267  0.012341102   0.01152558            8 
 3634000   0.67080118   -8.7068029    537.44231  0.012324397   0.01152131           15 
 3635000   0.67905045   -8.7004671    538.04557  0.012334837  0.011517029            6 
 3636000   0.66567529   -8.6862168    538.70826  0.012346632   0.01151276           20 
 3637000   0.66371935   -8.6829882    538.83224  0.012346078  0.011508491            5 
 3638000   0.67837731   -8.6932883    536.96858  0.012299995  0.011504223            4 
 3639000   0.66695431   -8.7090714    538.22977  0.012325496  0.011499951           11 
 3640000   0.69373065   -8.7042868    538.56083  0.012329689  0.011495682           20 
 3641000   0.67243031   -8.6934177    538.98919  0.012336107  0.011491419            9 
 3642000   0.66920697   -8.7009625    538.75252  0.012327305  0.011487161           11 
 3643000   0.65679523   -8.6929761    537.77165  0.012301483  0.011482903           14 
 3644000   0.66105988   -8.6689228    538.60384  0.012317139  0.011478658           22 
 3645000    0.6785265   -8.6800926    539.11388   0.01232542   0.01147442           15 
 3646000   0.67052279   -8.6967061    538.23653  0.012301987  0.011470174           23 
 3647000   0.66887922   -8.6822308    538.86683  0.012313016  0.011465922           28 
 3648000   0.67356213   -8.7016699    538.39786  0.012298928  0.011461678           17 
 3649000   0.66531132   -8.7136377    537.56629  0.012276566  0.011457432           10 
 3650000    0.6688346   -8.6889955    537.69818  0.012276214  0.011453179           32 
 3651000   0.66894781   -8.6953185    538.80053  0.012298013  0.011448938           29 
 3652000   0.66554761   -8.7075039    538.40772  0.012285682  0.011444702           34 
 3653000   0.65109432   -8.7145904    537.42804   0.01225997   0.01144046           36 
 3654000   0.67593451   -8.6974915      538.628  0.012283981  0.011436217           28 
 3655000   0.66227254    -8.683843    538.71182  0.012282531  0.011431982           41 
 3656000   0.66285503    -8.719408    538.65142  0.012277795   0.01142774           27 
 3657000   0.66145769   -8.7182498    537.81649  0.012255412  0.011423509           25 
 3658000   0.67258914   -8.6924252    538.78502  0.012274126  0.011419271           21 
 3659000   0.65925469   -8.6672304    539.34573  0.012283541  0.011415049           32 
 3660000   0.67143352   -8.7053814    538.23953  0.012254998  0.011410819           30 
 3661000   0.67276133   -8.6984487    538.13261  0.012249217  0.011406592           44 
 3662000   0.65754596   -8.7010039    538.67917   0.01225831  0.011402362           14 
 3663000    0.6667004    -8.719096    538.46922  0.012250187   0.01139814           15 
 3664000   0.66163271   -8.6881293     537.5838  0.012226706  0.011393922           22 
 3665000    0.6651361   -8.7030119     537.8314  0.012228999  0.011389711           27 
 3666000   0.66711066   -8.6928757    538.17936  0.012233573  0.011385498           32 
 3667000   0.67082573   -8.6870277     539.2748  0.012255131  0.011381298           38 
 3668000   0.67321759   -8.7202242    538.40983  0.012232139  0.011377092           31 
 3669000   0.66448236   -8.6903689     538.2391  0.012224927  0.011372894           21 
 3670000   0.66546313   -8.7072667     537.8998  0.012213892  0.011368696           24 
 3671000   0.66998349   -8.7345754    538.21656  0.012217755  0.011364499           23 
 3672000    0.6608085     -8.70024    539.38114  0.012240857  0.011360294            7 
 3673000   0.66414262   -8.6908571    538.96541  0.012228093  0.011356091           15 
 3674000   0.65228998   -8.6898545    537.95466  0.012201839   0.01135188           17 
 3675000   0.67704426   -8.6890985    538.88682  0.012219656  0.011347674            5 
 3676000   0.66548958   -8.7125424    537.93369  0.012194725  0.011343477           15 
 3677000   0.66678922   -8.7047197    538.92819  0.012213947  0.011339271            4 
 3678000   0.65861599   -8.7161161    537.57557  0.012179979  0.011335063           24 
 3679000   0.66776626   -8.7366778    537.66868  0.012178778  0.011330859            9 
 3680000   0.66464515   -8.7225251      537.596  0.012173822   0.01132666           18 
 3681000   0.66095847   -8.7322269    537.84938  0.012176252  0.011322466           11 
 3682000   0.67777126   -8.7313622    538.16634  0.012180118  0.011318278           20 
 3683000   0.66531841   -8.7084116    538.13813  0.012176173  0.011314085            7 
 3684000   0.66327486   -8.7412864    537.69773  0.012162906  0.011309891           17 
 3685000    0.6618875   -8.7205633    539.00684  0.012189209    0.0113057           10 
 3686000   0.66359486   -8.7312449    538.37172  0.012171544  0.011301509           14 
 3687000   0.67293982   -8.7380649     537.0656  0.012138722  0.011297324            6 
 3688000   0.66209482   -8.7260156     537.6122  0.012147781  0.011293147           24 
 3689000   0.67127038   -8.7296006    538.08127  0.012155084  0.011288967           20 
 3690000   0.64332948   -8.7227797    538.40014  0.012158991  0.011284789           24 
 3691000    0.6551745   -8.7233239    539.65108   0.01218394   0.01128062           20 
 3692000   0.65782581   -8.7130382    538.59577   0.01215682  0.011276451           18 
 3693000   0.66388566   -8.7196009    538.10687  0.012142496  0.011272282           17 
 3694000   0.66536485   -8.6838928    538.16043  0.012140418  0.011268115           13 
 3695000   0.66396287   -8.6801302     538.9483  0.012154901  0.011263952            6 
 3696000   0.65505823   -8.7100464    538.96521  0.012151993  0.011259799           14 
 3697000    0.6640492   -8.7279017    538.30899  0.012133915  0.011255637           13 
 3698000   0.65332433   -8.7442849    538.55761  0.012136236  0.011251482            8 
 3699000   0.68041489   -8.7212223    539.27686  0.012149159  0.011247325            6 
 3700000   0.65913565    -8.722492    537.94311  0.012115836  0.011243163           14 
 3701000   0.67147647   -8.7200738    537.74939    0.0121082   0.01123901           18 
 3702000   0.65603745   -8.7180363    537.53523  0.012100109  0.011234855           19 
 3703000    0.6555857   -8.7317094    538.34435   0.01211505  0.011230701           20 
 3704000   0.66043172   -8.7263742    536.92583  0.012079865  0.011226547           13 
 3705000   0.66304687   -8.7090779     539.0813  0.012125086  0.011222389            7 
 3706000   0.67581754   -8.7338658     537.6289  0.012089155  0.011218234            2 
 3707000   0.65163851   -8.7246253    538.30231  0.012101032  0.011214079           29 
 3708000   0.65832685   -8.7132769    538.52996  0.012102885  0.011209921           26 
 3709000   0.64759117   -8.7255913    537.48084   0.01207605   0.01120577           15 
 3710000   0.66544661    -8.718754    537.85592   0.01208122  0.011201625           14 
 3711000   0.67586018   -8.7208779    537.74059  0.012075375  0.011197477           24 
 3712000   0.65193633   -8.7299833    536.70773  0.012048934  0.011193337           23 
 3713000   0.64662968   -8.7260257    537.79883  0.012070178  0.011189189           19 
 3714000   0.65579255   -8.7196242    537.42577  0.012058557   0.01118504           15 
 3715000   0.65744404   -8.7145618    537.68551  0.012061137  0.011180893           15 
 3716000   0.66748482   -8.7359376    536.69134  0.012035597  0.011176753           14 
 3717000   0.65092535   -8.7328031    537.53089  0.012051181  0.011172609           18 
 3718000   0.66752032   -8.7137218    538.05777  0.012059749  0.011168464            7 
 3719000   0.66151698   -8.7263329    538.04336  0.012056183  0.011164324           18 
 3720000   0.65509375   -8.7532804    537.02944  0.012030229  0.011160181           14 
 3721000   0.65648802   -8.7445236    537.98186  0.012048326  0.011156044           20 
 3722000   0.65197536   -8.7412263    537.26388  0.012029014   0.01115191           18 
 3723000   0.65181815   -8.7351751    537.68696  0.012035253  0.011147776           20 
 3724000   0.66575398   -8.7288916     537.3871  0.012025311  0.011143642           16 
 3725000    0.6603671   -8.7261539    537.90102   0.01203358   0.01113951            7 
 3726000   0.65549288   -8.7305366    538.18074  0.012036606  0.011135369           10 
 3727000   0.65441152   -8.7256953    537.21922  0.012011878  0.011131235            5 
 3728000   0.66556451    -8.725844    538.40574  0.012035178  0.011127102           14 
 3729000   0.65574617   -8.7453773    538.69385  0.012038389  0.011122975           18 
 3730000   0.66038876   -8.7314233    536.86014  0.011994194  0.011118848           15 
 3731000   0.65144856    -8.712969    537.16813  0.011997859  0.011114725           13 
 3732000   0.64025035   -8.7247314    537.39873  0.011999793  0.011110599            9 
 3733000   0.65146398   -8.7391156    537.77758  0.012005036  0.011106478           21 
 3734000   0.66104814   -8.7483882    537.17227  0.011988312  0.011102356            7 
 3735000   0.64388927   -8.7155816    538.67147  0.012018551  0.011098245            9 
 3736000   0.65402969   -8.7387488    537.80098  0.011995918  0.011094128           14 
 3737000   0.66526213   -8.7326887    536.99019  0.011974627  0.011090013           16 
 3738000   0.66149956   -8.7159123    538.12213  0.011996659  0.011085904            5 
 3739000   0.65245799   -8.7188461    537.77213   0.01198565  0.011081798            8 
 3740000   0.65464374    -8.723022    538.56466  0.012000104  0.011077685           10 
 3741000   0.65970326    -8.766529     537.1657  0.011965733  0.011073578            4 
 3742000   0.66187017     -8.73793    538.14064  0.011984247  0.011069462           14 
 3743000   0.65602617   -8.7419489    537.88753   0.01197541  0.011065354           14 
 3744000    0.6460971   -8.7449651    537.11063   0.01195492  0.011061248            6 
 3745000    0.6565726   -8.7243444    537.03154  0.011949968  0.011057146           11 
 3746000   0.66238596    -8.724012    538.27429  0.011974424  0.011053048            9 
 3747000   0.65649881   -8.7481828    537.16456  0.011946548  0.011048952           14 
 3748000   0.63873203   -8.7427869     538.5908  0.011975071  0.011044857            5 
 3749000   0.63832599   -8.7278779    538.17221  0.011962572  0.011040762            6 
 3750000   0.65974053   -8.7348335    537.85435  0.011952319  0.011036659            5 
 3751000     0.648534   -8.7326187    537.73014  0.011946373  0.011032563            5 
 3752000   0.65690192   -8.7225667    537.28498  0.011933302  0.011028473            8 
 3753000   0.64986049   -8.7336526    538.33346  0.011953403  0.011024387           11 
 3754000    0.6420319     -8.73946    536.31782  0.011905475  0.011020301            4 
 3755000   0.65997062    -8.731484    538.03845  0.011940489  0.011016218           10 
 3756000   0.66172345   -8.7302293    537.45721  0.011924414  0.011012136            6 
 3757000   0.65356003   -8.7398107    537.30429  0.011917849  0.011008064            6 
 3758000   0.65811614   -8.7251909    536.85971  0.011904819  0.011003993           15 
 3759000   0.62887446   -8.7351303    537.58755  0.011917787  0.010999917            7 
 3760000   0.63292443   -8.7490457    536.94744  0.011900431  0.010995848           11 
 3761000   0.65174741   -8.7285203    537.00367  0.011898513  0.010991771            7 
 3762000   0.65169359   -8.7555868    537.13097   0.01189817    0.0109877           13 
 3763000   0.66751848   -8.7488556    537.57406   0.01190482  0.010983626            5 
 3764000   0.65324703   -8.7448632    537.53942   0.01190089   0.01097955           18 
 3765000    0.6550374   -8.7567836    535.95605  0.011862684  0.010975474            9 
 3766000    0.6482478   -8.7380984    536.38636  0.011869056  0.010971399            7 
 3767000     0.631975   -8.7465157    537.22288   0.01188441  0.010967332            6 
 3768000   0.64973615   -8.7532162    536.42299  0.011863566  0.010963257           11 
 3769000   0.64556469   -8.7524958    536.73903  0.011867406   0.01095919           12 
 3770000   0.64805068   -8.7560348    537.42278  0.011879372  0.010955124            3 
 3771000   0.65435109   -8.7578674    537.27291   0.01187291  0.010951063            5 
 3772000   0.64661567   -8.7643922    536.62295  0.011855403  0.010946996            7 
 3773000   0.66097154   -8.7544024    538.00745   0.01188284  0.010942937           10 
 3774000   0.64258259   -8.7568944    537.61426  0.011871009  0.010938881           12 
 3775000    0.6672756   -8.7517733    537.54777  0.011866397  0.010934824           12 
 3776000   0.65020181   -8.7469793    536.99701  0.011851099  0.010930774           18 
 3777000   0.64765765   -8.7480353     536.6864  0.011841108  0.010926728           12 
 3778000   0.64473781   -8.7551662    536.82738  0.011841084  0.010922679            6 
 3779000   0.63967921   -8.7326761    537.44617  0.011851596  0.010918627           15 
 3780000   0.64721028   -8.7673644    537.67703   0.01185355  0.010914583            9 
 3781000   0.63004032   -8.7634886    537.52134  0.011846984   0.01091053           12 
 3782000   0.65785437   -8.7634242    537.97187  0.011853778  0.010906483            3 
 3783000   0.66339284   -8.7756068    536.67231  0.011822018   0.01090244            4 
 3784000   0.63079786   -8.7498257    537.20726  0.011830674  0.010898399            6 
 3785000     0.664228   -8.7629697    536.27397  0.011807001  0.010894349           16 
 3786000   0.65029693   -8.7619704    537.20378  0.011824348  0.010890308           10 
 3787000   0.65405651   -8.7532566    536.66102  0.011809282  0.010886265           11 
 3788000   0.64190744   -8.7571524    537.27331  0.011819635  0.010882233           11 
 3789000   0.62113696   -8.7716869    536.63849  0.011802553  0.010878193           16 
 3790000   0.63388902   -8.7488492    537.88328  0.011826809  0.010874152           16 
 3791000   0.65412368      -8.7382     536.7496  0.011798769  0.010870119            7 
 3792000   0.64458903   -8.7503548    537.02215  0.011801647  0.010866087           13 
 3793000   0.66057473   -8.7591618    537.61006  0.011811452  0.010862057           20 
 3794000   0.63701124   -8.7631231    536.13862   0.01177602  0.010858025            8 
 3795000   0.63969494    -8.777123    536.96204  0.011790998  0.010853991           16 
 3796000    0.6490682   -8.7486222    537.39496  0.011797396  0.010849954           10 
 3797000    0.6452165   -8.7635706    537.59636  0.011798709  0.010845922            6 
 3798000   0.64650129   -8.7704675     538.0122  0.011804726  0.010841894           16 
 3799000   0.63405306   -8.7664773    537.10426  0.011781703  0.010837869           10 
 3800000   0.63201399   -8.7724739    537.11907  0.011778927  0.010833848            8 
 3801000   0.65060553     -8.74715    538.10177  0.011797373  0.010829829            9 
 3802000   0.64592572   -8.7700748    537.17775  0.011774017  0.010825816           10 
 3803000   0.62882165   -8.7633275     536.1953  0.011749393  0.010821804            6 
 3804000   0.63081997   -8.7443399    536.97504  0.011763386  0.010817789            8 
 3805000   0.64430283   -8.7390162    537.23319  0.011765948  0.010813781           12 
 3806000   0.64344639   -8.7675229    536.99729  0.011757692  0.010809779           11 
 3807000   0.64870522   -8.7879953    536.28247  0.011738956  0.010805777           10 
 3808000   0.63903587   -8.7535424     537.6065  0.011764848  0.010801766           14 
 3809000   0.66149219   -8.7683279    536.59871  0.011739711  0.010797764            7 
 3810000   0.63890842   -8.7691732    536.55243  0.011735617  0.010793764           10 
 3811000   0.64374818    -8.755409    537.57747  0.011754952  0.010789765            9 
 3812000   0.64629918   -8.7535604    537.99814  0.011761065  0.010785771            6 
 3813000   0.65946853   -8.7750112    538.28325  0.011764211   0.01078178            6 
 3814000   0.64622418   -8.7855862    537.81477  0.011750891  0.010777787           17 
 3815000   0.64259986    -8.764406    536.97404  0.011729446  0.010773793            2 
 3816000   0.62688226   -8.7749282    537.50295  0.011737923    0.0107698           27 
 3817000    0.6395593   -8.7483656    536.46101    0.0117121  0.010765815            9 
 3818000   0.64597163   -8.7768831    537.16548  0.011724408  0.010761823           18 
 3819000     0.640218   -8.7666494    536.90843  0.011715729  0.010757833            8 
 3820000   0.64399172   -8.7504491    537.85169  0.011733239   0.01075384            7 
 3821000   0.63564475   -8.7838618    537.42644  0.011720894  0.010749859            9 
 3822000   0.64378006   -8.7834125    536.94943  0.011707427   0.01074587            4 
 3823000   0.64875626   -8.7841219    536.34561  0.011691203  0.010741882           13 
 3824000   0.64413673   -8.7889394    536.38105  0.011688918  0.010737899            6 
 3825000   0.64235324   -8.7795952     536.9853  0.011699026  0.010733917           11 
 3826000    0.6331016   -8.7702314    535.75605  0.011669194  0.010729932           23 
 3827000   0.64119121   -8.7845132    535.16703  0.011653319  0.010725952            5 
 3828000   0.63637607   -8.7641046    536.72138  0.011684112  0.010721982            6 
 3829000   0.62457644   -8.7497856    537.68317  0.011701993  0.010718006            7 
 3830000   0.64328412   -8.7558262    537.08348  0.011685889  0.010714028           12 
 3831000   0.64339274   -8.7726768    536.09209  0.011661274  0.010710057            9 
 3832000   0.63280126    -8.771559    536.80265  0.011673683  0.010706082            9 
 3833000   0.63712613   -8.7716698    536.90687  0.011672904  0.010702111           18 
 3834000   0.63127275   -8.7803981    536.45046  0.011659939  0.010698144            6 
 3835000   0.63567442   -8.7557849    536.42877  0.011656427  0.010694178            9 
 3836000   0.64655996   -8.7755724    535.97035   0.01164343  0.010690217            4 
 3837000    0.6431268   -8.7604365    536.89257  0.011660424  0.010686256           12 
 3838000   0.63739091   -8.7594543    535.79969  0.011633657  0.010682295           20 
 3839000   0.63002929   -8.7704551    536.88837  0.011654258  0.010678336           14 
 3840000   0.63489761   -8.7683999    536.01658  0.011632304  0.010674389           11 
 3841000   0.64500329   -8.7819493    534.64314  0.011599478  0.010670434           11 
 3842000   0.63873918   -8.7557373    536.99523  0.011647476  0.010666473            8 
 3843000   0.64213079    -8.773849    537.02777  0.011645151  0.010662522           10 
 3844000   0.64554793   -8.7886647    535.65703  0.011612405  0.010658574            7 
 3845000   0.63115429   -8.7778192    535.56997  0.011607498  0.010654623            7 
 3846000   0.65016752   -8.7742636    537.29094  0.011641769   0.01065067           17 
 3847000   0.63273436   -8.7590771    536.38131  0.011619039  0.010646715            5 
 3848000   0.64216298    -8.790516    536.26942  0.011613596  0.010642765            5 
 3849000   0.61825591   -8.7751659    535.76186   0.01159959  0.010638816            3 
 3850000   0.63416203    -8.779319    536.72936  0.011617519  0.010634868           10 
 3851000   0.64002971   -8.7615272    536.73475  0.011614618   0.01063093            5 
 3852000   0.62727989   -8.8032795    536.06948  0.011597211  0.010626988            5 
 3853000   0.63960995   -8.7735468    535.97624  0.011592184  0.010623046            3 
 3854000   0.64559849   -8.7732585    535.75159  0.011584319  0.010619103            7 
 3855000   0.64272616   -8.7882531    537.16867  0.011611947  0.010615169            6 
 3856000   0.62327996   -8.7737534    536.16253  0.011587192  0.010611233            3 
 3857000   0.63616109   -8.7937826    535.83736  0.011577162  0.010607298            4 
 3858000   0.64089661   -8.7667208    536.39139  0.011586128  0.010603368            9 
 3859000   0.64482717   -8.7652864     537.1924  0.011600423  0.010599434            2 
 3860000   0.63025987   -8.8063454    536.34212  0.011579061    0.0105955            4 
 3861000   0.65693187     -8.78405    536.20434  0.011573089  0.010591568            7 
 3862000   0.62840425   -8.8032863    537.01049  0.011587487  0.010587635            3 
 3863000   0.61954162    -8.790174    534.87379  0.011538394  0.010583708            8 
 3864000   0.64278158   -8.7744468     535.7152  0.011553554  0.010579778           12 
 3865000   0.63335052   -8.7550753    535.93634  0.011555333  0.010575851            9 
 3866000   0.63288037   -8.7879098    536.14555  0.011556853  0.010571931            7 
 3867000   0.63579595   -8.7985062    535.50009  0.011539955  0.010568011            8 
 3868000   0.62559653   -8.7716179    535.96456  0.011546979  0.010564089            7 
 3869000   0.64210881   -8.7865425    536.12024  0.011547347  0.010560169           11 
 3870000   0.63349036   -8.7945683    535.99888   0.01154175   0.01055625            8 
 3871000   0.63064194   -8.7866392    536.79218  0.011555846  0.010552341           11 
 3872000   0.62833517   -8.7839189     536.6293  0.011549356  0.010548427            4 
 3873000   0.64991006   -8.7906725      535.494  0.011521947  0.010544516            3 
 3874000   0.65996016   -8.7924733    536.42185  0.011538932  0.010540606            9 
 3875000   0.63991856   -8.7896634    536.77906  0.011543636  0.010536696            7 
 3876000   0.63915691   -8.7915626    536.43834  0.011533332  0.010532785            8 
 3877000   0.62539919    -8.804725     536.3732  0.011528957  0.010528882            2 
 3878000   0.62852274   -8.7838181    536.95794   0.01153855  0.010524973            5 
 3879000   0.63039799   -8.7884167    535.81888  0.011511104  0.010521068            6 
 3880000   0.62290879   -8.7749486    536.17969  0.011515887  0.010517162            4 
 3881000   0.64118262   -8.7920076     536.0029  0.011509123  0.010513256            5 
 3882000   0.61986581   -8.7896574     535.6966  0.011499583  0.010509348            6 
 3883000   0.62130491   -8.7674577    537.06994  0.011526095  0.010505446           14 
 3884000   0.62867759   -8.7913855    536.34385  0.011507549  0.010501545            4 
 3885000   0.63086369   -8.7934686    535.41158   0.01148459  0.010497652           10 
 3886000   0.62726892   -8.7828236    535.76699  0.011489256  0.010493756            5 
 3887000    0.6439556   -8.7770566    535.45223  0.011479552  0.010489866            9 
 3888000   0.62951225   -8.7866439     535.5071  0.011477776  0.010485978           21 
 3889000   0.63953893   -8.7926588    535.49502  0.011474565  0.010482087           13 
 3890000   0.64269683   -8.7853395    536.27729  0.011488374  0.010478197            4 
 3891000   0.62484072   -8.7903038    536.23471  0.011484509  0.010474316            7 
 3892000   0.63132094   -8.7858757    535.35268  0.011462673  0.010470431            7 
 3893000    0.6196249   -8.8078882    535.57729  0.011464537  0.010466548            3 
 3894000   0.61890035   -8.7789078    536.93252  0.011490595  0.010462666            8 
 3895000   0.62659422   -8.7600991    536.51644  0.011478743  0.010458785           11 
 3896000   0.61045692   -8.8021652    536.55146  0.011476546  0.010454912            4 
 3897000   0.62154682   -8.8132987    535.48219  0.011450735   0.01045103           10 
 3898000   0.63570056    -8.787833    536.85786  0.011477207  0.010447152            5 
 3899000   0.64053693   -8.7948962    535.96328  0.011455144  0.010443283            9 
 3900000   0.63686955   -8.8043503    535.55033  0.011443383  0.010439406           11 
 3901000   0.61217272   -8.7742923    535.74726  0.011444656  0.010435538           13 
 3902000   0.62644511   -8.8002165    536.00866  0.011447306  0.010431666           10 
 3903000   0.61967526   -8.7916481    536.40757   0.01145289  0.010427795           15 
 3904000    0.6335343    -8.804245    535.27168   0.01142571  0.010423926            7 
 3905000    0.6368429   -8.8005204    536.44251   0.01144777  0.010420055            5 
 3906000   0.63865879   -8.8047001    534.72089  0.011408109  0.010416191           10 
 3907000   0.62435804   -8.7877341    536.28923  0.011438641  0.010412331           10 
 3908000   0.64477848   -8.7959059    535.93212  0.011428099  0.010408476           10 
 3909000   0.62300256    -8.783297    535.24209  0.011410465  0.010404618            4 
 3910000   0.63295286   -8.8118455    535.89903  0.011421548  0.010400764           20 
 3911000   0.61120259   -8.7989337     534.9733  0.011398903  0.010396917            9 
 3912000   0.63538652   -8.7929902    536.21498  0.011422439  0.010393064            7 
 3913000   0.62933896   -8.8046182    536.31019  0.011421548  0.010389208            7 
 3914000   0.63465443   -8.7849815    536.43617  0.011421312  0.010385352           10 
 3915000    0.6213629   -8.7962447    536.25716  0.011414584  0.010381503            8 
 3916000   0.63139585   -8.8014986    535.88211  0.011403688  0.010377656            3 
 3917000    0.6145293   -8.7836319    535.83876  0.011399854  0.010373816           11 
 3918000   0.62223804   -8.8038738    536.09377  0.011402369  0.010369979           17 
 3919000   0.63072949   -8.8084536    536.30596  0.011403971  0.010366143            8 
 3920000   0.62279888   -8.8245128    534.96212  0.011372494  0.010362304            3 
 3921000   0.62621169   -8.7940268    536.02199  0.011392119  0.010358466            4 
 3922000   0.62923322   -8.8053009    536.06195  0.011390064   0.01035463            5 
 3923000   0.62582837   -8.8061942    535.51804  0.011375606  0.010350794           13 
 3924000    0.6270893   -8.8166934    535.67745  0.011376093   0.01034696           10 
 3925000   0.64683871   -8.8245721    535.18381  0.011362714  0.010343129            5 
 3926000   0.63180435   -8.7998691     535.3363  0.011363056  0.010339295            4 
 3927000   0.62274609   -8.7999255    535.68575  0.011367578  0.010335463            5 
 3928000   0.61552646   -8.8171659    535.92638  0.011369789  0.010331634            3 
 3929000   0.61772334   -8.8134352    536.03729  0.011369248  0.010327808            6 
 3930000   0.61509383   -8.7929106    536.12366  0.011368186   0.01032398           13 
 3931000   0.63492971   -8.8089739    535.54798   0.01135309  0.010320156            5 
 3932000   0.62386567   -8.8114408    535.32672  0.011345514  0.010316329            4 
 3933000   0.63018301   -8.8248502    535.29154  0.011341884  0.010312506            7 
 3934000   0.61579298   -8.7947135    535.37555   0.01134078   0.01030869            8 
 3935000   0.61758719    -8.810593    535.49562  0.011340441  0.010304875            3 
 3936000   0.60998494   -8.7994855    535.94576   0.01134709  0.010301058            2 
 3937000    0.6065158   -8.8043144    536.33446  0.011352436  0.010297246            5 
 3938000   0.62419439   -8.7859836    535.52111  0.011332341  0.010293437           17 
 3939000    0.6169094    -8.805164    535.25748  0.011323887   0.01028963            8 
 3940000   0.62955559   -8.8126725    534.94191  0.011314338  0.010285824            6 
 3941000   0.61576963   -8.8122168    535.40915  0.011321347   0.01028202            7 
 3942000   0.61452661   -8.7999539    536.58626  0.011343359  0.010278216           10 
 3943000   0.61130029   -8.7916525    537.38113  0.011357281  0.010274409           14 
 3944000   0.62133949   -8.8070324    535.81307   0.01132127  0.010270607            5 
 3945000   0.62891721   -8.8068888    535.89704  0.011320174  0.010266808           10 
 3946000   0.63324565   -8.8040158    535.39141  0.011306627  0.010263011           10 
 3947000   0.61744047   -8.8282018    535.58521  0.011307854  0.010259219            6 
 3948000   0.62332355   -8.8080188    535.63648  0.011306072  0.010255427            5 
 3949000   0.62335353   -8.8232049     535.1771  0.011293515  0.010251633            9 
 3950000    0.6098982   -8.7890879    536.92729   0.01132758  0.010247843            9 
 3951000   0.61964669   -8.7913073    535.24515  0.011289234  0.010244053            4 
 3952000   0.61764204   -8.8088038    535.33528  0.011288278  0.010240261           10 
 3953000   0.60133237   -8.8042792    534.78873    0.0112739  0.010236469            3 
 3954000   0.63846885   -8.8315515    535.22687  0.011280283   0.01023268            6 
 3955000   0.62534884   -8.8189346    535.42625  0.011281632  0.010228891            9 
 3956000   0.62934839   -8.8282162    535.86528  0.011288028    0.0102251            2 
 3957000   0.61423066   -8.8003121    535.94704  0.011286897  0.010221315            4 
 3958000   0.62449586   -8.8226022    534.67013  0.011257161  0.010217536            6 
 3959000   0.62772551   -8.8084654    536.18366  0.011286176  0.010213758            9 
 3960000   0.60344814   -8.8363025    535.23346   0.01126333  0.010209981            5 
 3961000   0.62545946   -8.8086399    535.95008  0.011275563  0.010206202            6 
 3962000   0.60839378    -8.811391    535.52773  0.011263834  0.010202431            5 
 3963000   0.61792116   -8.8101251    536.69909  0.011285623  0.010198657            2 
 3964000   0.62997663    -8.823638    535.18105  0.011250863  0.010194889            5 
 3965000   0.62357768   -8.8121872    534.89433  0.011241999   0.01019112            5 
 3966000   0.62550745   -8.8205324    534.56719  0.011232291  0.010187353            5 
 3967000    0.6220549   -8.8279451    535.51009  0.011249267  0.010183591            9 
 3968000   0.63005058   -8.8215793    534.87319  0.011233056   0.01017983            4 
 3969000   0.62959438   -8.8185102    535.66613  0.011246874  0.010176062            9 
 3970000    0.6140238   -8.8074258    535.83609  0.011247609  0.010172296            4 
 3971000   0.61802554   -8.8348917    535.30047  0.011233536   0.01016854            4 
 3972000   0.60399288   -8.8043899    536.21148  0.011249821  0.010164782            7 
 3973000   0.61254474    -8.825039    534.94202  0.011220363  0.010161029           15 
 3974000   0.62043319   -8.8270125      534.782  0.011214184  0.010157267            8 
 3975000   0.62018549    -8.832219    534.86121  0.011213023  0.010153512            9 
 3976000   0.61133296   -8.8197129    535.10117  0.011215232  0.010149757            7 
 3977000   0.59370719   -8.8169619    535.84699   0.01122804  0.010146004           13 
 3978000   0.61237431    -8.817401    535.13447  0.011210291   0.01014225           18 
 3979000   0.61446241   -8.8306438    534.61683  0.011196633  0.010138496            6 
 3980000   0.60258751   -8.8362467    535.37671   0.01120973  0.010134752           11 
 3981000   0.61100696   -8.8119875    535.34525  0.011206256  0.010131012            5 
 3982000   0.61772727    -8.826874    535.16477  0.011199664  0.010127268            6 
 3983000    0.6112517   -8.8152234    534.15887  0.011175807  0.010123524            4 
 3984000   0.61140285   -8.8143612    535.22716  0.011195347  0.010119786           21 
 3985000   0.62305572   -8.8079231    534.67854  0.011181065  0.010116048           11 
 3986000   0.61172531   -8.8301832    534.92227  0.011183356  0.010112312           11 
 3987000   0.61379686   -8.8328692    535.11087  0.011184493  0.010108578            9 
 3988000   0.63579956   -8.8209861    535.98487  0.011199951  0.010104848            5 
 3989000   0.61206453     -8.81527    535.39649  0.011184852  0.010101117           20 
 3990000    0.6073193   -8.8309233    534.75627  0.011168677  0.010097389           12 
 3991000   0.61272324   -8.8337305    535.54463   0.01118234  0.010093662           21 
 3992000   0.60878147   -8.8257039    535.66674  0.011182088  0.010089936            3 
 3993000    0.6009844   -8.8446109    536.48161  0.011196294  0.010086212            6 
 3994000   0.60618668   -8.8442141    534.41285  0.011150326  0.010082485            5 
 3995000   0.61795515    -8.829559    535.67932  0.011173953  0.010078759            8 
 3996000   0.60756057   -8.8160499    534.82737   0.01115339  0.010075037           11 
 3997000     0.612134   -8.8432043    535.41128  0.011162774  0.010071317           17 
 3998000   0.61476447   -8.8328475    534.75879  0.011146381  0.010067597            8 
 3999000   0.60776748   -8.8268614    534.24364  0.011132859  0.010063887           13 
 4000000   0.60972288   -8.8220923    534.82705   0.01114223  0.010060177            6 
 4001000   0.60712896    -8.836501     535.0326  0.011143727  0.010056462            9 
 4002000   0.62247835   -8.8271252     535.4867  0.011150398  0.010052751           11 
 4003000   0.61025026   -8.8252728     536.0363  0.011159054  0.010049045            5 
 4004000   0.61090963   -8.8083891    534.96315  0.011133932  0.010045339            6 
 4005000   0.61720318   -8.8400972    534.75945  0.011126913  0.010041633            8 
 4006000   0.60608175   -8.8247454    536.03394  0.011150648   0.01003793           17 
 4007000   0.60996193   -8.8156995    534.78452  0.011121881  0.010034235           15 
 4008000   0.61262212    -8.836837    535.01039  0.011123802   0.01003054            5 
 4009000   0.60275734   -8.8292121    536.05993  0.011142844  0.010026847            7 
 4010000   0.61943674   -8.8262021    535.37471  0.011125825  0.010023152            4 
 4011000   0.60432205   -8.8245156    534.86852  0.011112535  0.010019454           16 
 4012000   0.61412761   -8.8333853    535.17433  0.011116117  0.010015761           10 
 4013000    0.6084335   -8.8222522    533.86352  0.011086127  0.010012069           25 
 4014000   0.60974874   -8.8336111    535.64362  0.011120321  0.010008381           11 
 4015000   0.61179077   -8.8470393    534.82831  0.011100629  0.010004685           11 
 4016000   0.60797921   -8.8268877    535.21925  0.011105977  0.010000993            9 
 4017000   0.61624053   -8.8238441    534.24853  0.011083075 0.0099973009           15 
 4018000   0.59827911   -8.8257093    534.94864  0.011094837 0.0099936161           22 
 4019000   0.62341805    -8.840927    535.29131  0.011099181 0.0099899292           23 
 4020000   0.61491486   -8.8251948    535.01264  0.011090643 0.0099862468           12 
 4021000   0.60005615   -8.8409251    535.20971  0.011091969 0.0099825631            6 
 4022000    0.6120505   -8.8366453     536.0301   0.01110621 0.0099788862           15 
 4023000   0.60196122    -8.837064    536.63386  0.011115955 0.0099752077           17 
 4024000   0.61730578   -8.8467938    535.08626  0.011081143 0.0099715323           14 
 4025000   0.60105481   -8.8433727    533.78268  0.011051401 0.0099678601           23 
 4026000   0.59760352   -8.8306839    535.52448  0.011084709 0.0099641906           11 
 4027000   0.60572902   -8.8175972    534.27628  0.011056127 0.0099605144            4 
 4028000   0.59910174   -8.8288583     535.1593  0.011071651 0.0099568454           22 
 4029000   0.59109493   -8.8455403    535.11912  0.011068071 0.0099531778           12 
 4030000   0.58644666   -8.8311639    535.94993  0.011082505 0.0099495081            6 
 4031000   0.60157959    -8.843915    534.65253  0.011052934 0.0099458467           13 
 4032000   0.61045613   -8.8251026    535.16056  0.011060693  0.009942179           27 
 4033000   0.59803602   -8.8193252    535.60091  0.011067049 0.0099385145           17 
 4034000   0.61321167   -8.8306784     535.0381  0.011052679 0.0099348548            4 
 4035000   0.59399731   -8.8364515    535.34615  0.011056302 0.0099311953           11 
 4036000   0.59638855   -8.8252283    534.38187  0.011033653 0.0099275395           14 
 4037000    0.5980053   -8.8576471    535.23452   0.01104852 0.0099238858            4 
 4038000   0.60821475   -8.8289068     534.3459  0.011027445 0.0099202328           11 
 4039000   0.60872605   -8.8313181    534.83857   0.01103488 0.0099165855            5 
 4040000   0.60940175   -8.8206038    535.32878   0.01104226  0.009912941            6 
 4041000    0.5978495   -8.8382438    534.30315  0.011018377 0.0099092906           13 
 4042000    0.6006697   -8.8409453     535.0254  0.011030542 0.0099056411           15 
 4043000   0.62005537   -8.8652389    534.40263  0.011014977  0.009901996            5 
 4044000   0.59254114   -8.8439261    534.91964  0.011022907 0.0098983522           11 
 4045000    0.6087092   -8.8399818    535.01234  0.011022092  0.009894709            8 
 4046000   0.59793177   -8.8609289     534.9036  0.011017128 0.0098910679            5 
 4047000   0.60095455   -8.8483321     535.1786  0.011020068 0.0098874233           15 
 4048000   0.59683124   -8.8576829    534.51326  0.011003649 0.0098837798           13 
 4049000    0.6028877   -8.8658149    534.85473  0.011007959 0.0098801394            4 
 4050000   0.60754573   -8.8516082    535.16006  0.011011524 0.0098765017           13 
 4051000   0.61793796   -8.8554598    534.94147  0.011004309 0.0098728667            8 
 4052000   0.62222102   -8.8530548     533.4788  0.010971512 0.0098692289            9 
 4053000   0.60995846   -8.8508408     534.9898  0.010999872 0.0098655919           14 
 4054000   0.60307159    -8.833519    535.16545   0.01100077 0.0098619564           11 
 4055000   0.61335455   -8.8321534    534.19633  0.010978141 0.0098583212            8 
 4056000   0.61637136   -8.8376854    535.55263    0.0110033 0.0098546857           13 
 4057000   0.61561853   -8.8494905    533.86848  0.010965995 0.0098510567            3 
 4058000   0.60862316   -8.8350333    534.96502   0.01098581 0.0098474296            5 
 4059000    0.5917011   -8.8489873    534.67399  0.010977129 0.0098437984            4 
 4060000   0.59517673   -8.8229674    534.28119  0.010966363 0.0098401746            9 
 4061000   0.59490321   -8.8508023    533.70604   0.01095186 0.0098365494           22 
 4062000   0.60315926   -8.8701268    534.53978  0.010966268 0.0098329241            6 
 4063000   0.60530485   -8.8349477    535.02829  0.010973589  0.009829302            3 
 4064000   0.60399979     -8.85555     535.1319  0.010973013 0.0098256832           15 
 4065000   0.59910307    -8.832465    534.83852  0.010964299 0.0098220656            7 
 4066000   0.60751348   -8.8406993       534.11  0.010946672 0.0098184481           14 
 4067000   0.61436802   -8.8683563     534.3552  0.010949004  0.009814836           10 
 4068000   0.60842096   -8.8354065    534.28323  0.010944838 0.0098112259            7 
 4069000   0.59813284   -8.8544437    534.93862  0.010955571 0.0098076112            5 
 4070000   0.58988484   -8.8695313    534.80506  0.010950145 0.0098040021           21 
 4071000   0.59741459     -8.84919    534.72494  0.010945815 0.0098003928            6 
 4072000   0.59875433   -8.8489017    535.01063  0.010948973 0.0097967837           12 
 4073000    0.6015822   -8.8525889    534.53315  0.010936516  0.009793175            7 
 4074000    0.5967359   -8.8622424    534.17191  0.010926442 0.0097895685           17 
 4075000   0.60468813   -8.8561042     535.8641  0.010958366 0.0097859669           12 
 4076000   0.60107971   -8.8481356    533.92665  0.010916067  0.009782365           21 
 4077000   0.59462552   -8.8297569    534.39882   0.01092304 0.0097787595            7 
 4078000   0.58966322   -8.8428745    534.75044  0.010927547 0.0097751608           19 
 4079000   0.59422286   -8.8584088    534.33288  0.010916337 0.0097715623            8 
 4080000   0.59803462    -8.838713    534.41298  0.010915298 0.0097679654            3 
 4081000   0.61038169   -8.8405683    534.56057  0.010915637 0.0097643728            4 
 4082000   0.62720092   -8.8542752    534.63261  0.010914433 0.0097607853            7 
 4083000   0.59325828   -8.8529879    534.91774   0.01091758 0.0097571928            5 
 4084000   0.61166828   -8.8564919    535.55344  0.010927878 0.0097536034           17 
 4085000   0.59389603   -8.8463644    533.94709  0.010892433 0.0097500191           23 
 4086000   0.59415871   -8.8509048    533.93129  0.010889445  0.009746431           13 
 4087000   0.58131238   -8.8572175    534.43708  0.010897094 0.0097428457            8 
 4088000    0.5906617   -8.8645343    534.90961  0.010904061 0.0097392623           12 
 4089000   0.59632616    -8.848673    534.91613  0.010901527  0.009735675            9 
 4090000   0.58998378   -8.8353607    535.77337  0.010916328 0.0097320949            5 
 4091000   0.58851205   -8.8465694    534.67929  0.010891373 0.0097285177           11 
 4092000   0.61432261   -8.8407495    534.52523  0.010885574 0.0097249393           16 
 4093000   0.59763062   -8.8574023    534.95055  0.010891574 0.0097213621            5 
 4094000   0.62490261   -8.8512073    534.65947  0.010882989 0.0097177848            6 
 4095000   0.60583822   -8.8589798    534.34905  0.010874014 0.0097142108           13 
 4096000   0.60069689   -8.8568662    533.81002  0.010860393 0.0097106395            8 
 4097000   0.59154945   -8.8554805     534.6766  0.010875368 0.0097070633            8 
 4098000   0.61009166   -8.8740851    533.82229  0.010855342 0.0097034938            7 
 4099000   0.59095812   -8.8634176    534.73905  0.010871331 0.0096999299           17 
 4100000   0.58331466   -8.8778999    534.60748  0.010866006 0.0096963653           12 
 4101000   0.59213435   -8.8669489    534.93433  0.010869998 0.0096928014           14 
 4102000   0.59978303   -8.8439836    534.63793  0.010861326 0.0096892436            6 
 4103000   0.59889763    -8.852749    534.53516  0.010856592 0.0096856807            4 
 4104000   0.59596139   -8.8331307    535.43433  0.010872204 0.0096821211           12 
 4105000   0.59393887   -8.8639469    533.94015  0.010839223 0.0096785701            8 
 4106000   0.59177363   -8.8490008    534.57629  0.010849494 0.0096750184            9 
 4107000    0.5916426   -8.8545485    534.66317  0.010848616 0.0096714644            9 
 4108000   0.60110914   -8.8616397    533.51571  0.010822698 0.0096679109            7 
 4109000   0.59940799   -8.8356152     534.0546  0.010830993 0.0096643596            5 
 4110000   0.60186306   -8.8574018    535.03396  0.010848215 0.0096608092            6 
 4111000   0.58630282   -8.8795547    534.15875  0.010827835 0.0096572575           15 
 4112000   0.60545813   -8.8594774    534.70267  0.010836225 0.0096537047           13 
 4113000   0.59665989   -8.8763502    534.37025  0.010826855 0.0096501602            6 
 4114000    0.5984707   -8.8627726    534.11015  0.010818955 0.0096466122            6 
 4115000   0.59257287   -8.8662557    533.96746  0.010813436 0.0096430694            4 
 4116000   0.59972068   -8.8492471    533.88772  0.010809194 0.0096395276            4 
 4117000   0.59033979   -8.8669098    534.57099  0.010820399 0.0096359894            4 
 4118000   0.59403591   -8.8464404     534.8818  0.010824061 0.0096324542            8 
 4119000   0.59270752   -8.8635704    534.38843  0.010811452 0.0096289202            5 
 4120000   0.56936348   -8.8646159    533.53472   0.01079156 0.0096253841            8 
 4121000   0.59752522   -8.8463866    533.94362   0.01079721 0.0096218519            9 
 4122000   0.60286008   -8.8614619     534.6562  0.010808996 0.0096183216           14 
 4123000   0.59049254    -8.871762    534.36774  0.010800544 0.0096147973           14 
 4124000   0.59222459   -8.8663468    533.38374  0.010778042 0.0096112724            8 
 4125000   0.59185712   -8.8555307    534.26091   0.01079315 0.0096077492            8 
 4126000   0.58647177   -8.8616572    534.18355  0.010788971 0.0096042179            9 
 4127000   0.58877172   -8.8846156    533.37789  0.010770089 0.0096006872            7 
 4128000   0.59640153   -8.8402339    534.78914  0.010795969 0.0095971624            5 
 4129000   0.59717184   -8.8577662    534.83443  0.010794269 0.0095936426            6 
 4130000   0.59020641   -8.8542056    533.68625  0.010768488 0.0095901211           12 
 4131000   0.59728398   -8.8730859    533.09317  0.010753917 0.0095866018            8 
 4132000     0.597296   -8.8774497    534.17282  0.010773088  0.009583086            6 
 4133000    0.5861525   -8.8708117    533.38689  0.010754635  0.009579571            7 
 4134000   0.59547432   -8.8859709    533.88217  0.010762018 0.0095760574            4 
 4135000   0.58962327   -8.8726762    534.04028  0.010762601 0.0095725495            4 
 4136000   0.59835851   -8.8658434    533.80922  0.010755344 0.0095690406            9 
 4137000   0.58356668   -8.8622637    533.91563  0.010754887 0.0095655311            6 
 4138000   0.58833935   -8.8738289    533.65435  0.010747027 0.0095620247           11 
 4139000   0.59262961   -8.8751118    534.42755  0.010759997 0.0095585209            7 
 4140000   0.59112012   -8.8531036    533.97423  0.010748274 0.0095550154           13 
 4141000   0.59609256   -8.8423043    535.13697  0.010769077 0.0095515142            8 
 4142000   0.59405501   -8.8521378    534.05005  0.010744609 0.0095480148            6 
 4143000   0.58820147   -8.8467249    533.66607  0.010734292 0.0095445197            8 
 4144000   0.57899254   -8.8580084    534.25421  0.010743529  0.009541022           14 
 4145000   0.59405238   -8.8574624    533.77485    0.0107313 0.0095375266            7 
 4146000   0.59918839   -8.8489209    533.59005  0.010724997 0.0095340297           17 
 4147000   0.59257327   -8.8630887    534.57447  0.010742193 0.0095305377            4 
 4148000   0.59000537   -8.8690807    533.31157  0.010714231 0.0095270457            6 
 4149000   0.58680697   -8.8592962    534.01599  0.010725797 0.0095235555            6 
 4150000   0.59012779   -8.8572802    534.09841  0.010724868 0.0095200654            4 
 4151000   0.59397301   -8.8616189    533.73847  0.010715058 0.0095165798            6 
 4152000   0.60712606   -8.8691916     534.1329  0.010720394 0.0095130947            4 
 4153000   0.57720988    -8.867756    534.70532  0.010729299 0.0095096143            8 
 4154000   0.59790818   -8.8523696    534.80864  0.010728788 0.0095061355            5 
 4155000   0.58848786   -8.8586383    534.08651  0.010711723 0.0095026523            7 
 4156000   0.58121801   -8.8794649    534.04645  0.010708342 0.0094991718            7 
 4157000   0.59088888   -8.8570721    534.06898  0.010706218 0.0094956912            5 
 4158000   0.58739413   -8.8758415    533.18807  0.010685988 0.0094922104            8 
 4159000   0.58353428   -8.8726867    533.76184  0.010694915 0.0094887336            5 
 4160000   0.58054897   -8.8850711    534.04543  0.010698025 0.0094852617            5 
 4161000   0.58479467   -8.8744207    532.73333  0.010669177 0.0094817863           10 
 4162000   0.58922704   -8.8731581    533.90749  0.010690123 0.0094783181            7 
 4163000   0.59915372   -8.8686114    534.35564  0.010696526 0.0094748509            7 
 4164000   0.57892718   -8.8753101    533.10954  0.010669019 0.0094713793            6 
 4165000   0.58802696   -8.8852244    534.94229  0.010703127  0.009467909            3 
 4166000   0.58560212    -8.886884    533.50657  0.010671839 0.0094644394            8 
 4167000    0.5974221   -8.8793583    533.77526  0.010674651 0.0094609794            5 
 4168000    0.5855657   -8.8724402    533.66774   0.01066994 0.0094575217            6 
 4169000    0.6006347   -8.8816979    534.26494  0.010679318  0.009454058            4 
 4170000   0.58906102   -8.8657097    534.28748  0.010677208  0.009450597            3 
 4171000   0.58008925   -8.8823417    533.61907  0.010661294 0.0094471395            4 
 4172000   0.58645799   -8.8706442    534.25695  0.010671479 0.0094436842            5 
 4173000    0.5791991   -8.8650265    534.25423  0.010668868 0.0094402252            4 
 4174000   0.59387063   -8.8614335    533.89524  0.010659145  0.009436769            5 
 4175000    0.5864197   -8.8736477    534.06625  0.010660005 0.0094333172            5 
 4176000   0.58708961   -8.8673914    533.58588  0.010647866 0.0094298647            6 
 4177000   0.58720898   -8.8814213    534.27821  0.010659129 0.0094264125            6 
 4178000   0.58078541   -8.8923678    533.26143  0.010636298 0.0094229589            9 
 4179000   0.58794886   -8.8922263    534.18813  0.010652232 0.0094195104            6 
 4180000   0.58458858   -8.8884942    533.98958  0.010645725 0.0094160547           11 
 4181000    0.5861147   -8.8790395     533.3732  0.010630894 0.0094126029            7 
 4182000   0.57627324   -8.8663854     532.8521  0.010617968 0.0094091496            5 
 4183000   0.58292101   -8.8845941    532.87117  0.010615809 0.0094056981            6 
 4184000   0.56849418   -8.8992968    532.77169  0.010611291 0.0094022524            7 
 4185000   0.59172089    -8.892332    532.88044  0.010610921 0.0093988057            8 
 4186000   0.58871425   -8.8876721    534.10056  0.010632676 0.0093953574            6 
 4187000   0.58502464    -8.876961    534.11395  0.010630403 0.0093919123            7 
 4188000    0.5784986   -8.8768426    534.11884  0.010627962 0.0093884706            6 
 4189000   0.57571326   -8.8609161    534.48181  0.010632645 0.0093850276            6 
 4190000   0.57183764   -8.8802879    533.38666  0.010608327 0.0093815942            6 
 4191000   0.57945805   -8.8837238    533.64434  0.010610919 0.0093781606           12 
 4192000   0.57650952   -8.8875123    533.53571  0.010606228 0.0093747267            4 
 4193000   0.57905683    -8.901617    533.98915  0.010612711 0.0093712875            8 
 4194000   0.58754176   -8.8779234    533.30827  0.010596651  0.009367859            5 
 4195000   0.57867888   -8.8799237    533.83372  0.010604563 0.0093644298            6 
 4196000   0.56532686   -8.8868332    533.05567  0.010586584 0.0093610005            5 
 4197000   0.57483606   -8.9074652    532.25611  0.010568186 0.0093575705           10 
 4198000   0.57809254   -8.8891532    533.50399   0.01059044 0.0093541452            8 
 4199000   0.57684643   -8.8690844    532.89045  0.010575741  0.009350722            6 
 4200000   0.58815749   -8.8906616    533.39363  0.010583207 0.0093473003            9 
 4201000   0.57025256   -8.8926112    533.21479   0.01057714 0.0093438783           10 
 4202000   0.58410487   -8.9106829    533.24301  0.010575183 0.0093404555            5 
 4203000     0.569232   -8.9018396    533.67395  0.010581211 0.0093370366            7 
 4204000   0.57260967   -8.8768769     532.8066  0.010561501 0.0093336195            6 
 4205000   0.58330535   -8.8755258    532.05334  0.010544061 0.0093302043            5 
 4206000   0.58101662   -8.8755875    534.12205  0.010582542 0.0093267949            4 
 4207000   0.57388961   -8.8970735    532.22929  0.010542534 0.0093233828            5 
 4208000   0.57968347   -8.8940379    532.67541  0.010548864 0.0093199689            4 
 4209000   0.57238258   -8.9094235    532.82152   0.01054925 0.0093165623            7 
 4210000   0.57353062   -8.9069251     533.0285  0.010550841 0.0093131538            3 
 4211000   0.57118876   -8.8832496     533.6978  0.010561581  0.009309748            4 
 4212000   0.57886729   -8.9044188    533.04617  0.010546181 0.0093063461           10 
 4213000   0.55962437   -8.8817206    533.33875  0.010549465 0.0093029439            6 
 4214000   0.56745743   -8.8991686    533.74203  0.010554937  0.009299542            6 
 4215000   0.58269413   -8.9079586    532.62792  0.010530406 0.0092961414            5 
 4216000   0.57568164   -8.9012832    533.42802  0.010543723 0.0092927408            7 
 4217000   0.58458767   -8.8709255    532.98008  0.010532371 0.0092893461            8 
 4218000    0.5798394   -8.8953588    533.19276  0.010534075 0.0092859484            9 
 4219000    0.5746556    -8.895029    533.12664  0.010530273 0.0092825529            5 
 4220000   0.58811416   -8.8835277    532.79673  0.010521262 0.0092791588            6 
 4221000   0.57347116   -8.8931496    533.10613  0.010524878 0.0092757643            7 
 4222000   0.57962966   -8.9058046    533.05129  0.010521303 0.0092723706            5 
 4223000   0.57406469   -8.8847429    532.32472  0.010504474 0.0092689841            7 
 4224000   0.58092124   -8.9002787    531.92386  0.010494079 0.0092655935            9 
 4225000   0.57661117   -8.9013923    532.79243  0.010508726 0.0092622012            7 
 4226000   0.58050342   -8.9070215    532.78736   0.01050614 0.0092588174            5 
 4227000   0.58125841   -8.9080902    533.35592  0.010514863 0.0092554288            8 
 4228000   0.57796476   -8.8964533    533.12817  0.010507887  0.009252046            6 
 4229000   0.57900694   -8.8832594     532.5535  0.010494079 0.0092486618           11 
 4230000   0.57534014   -8.8968029    532.86711  0.010497776  0.009245281            9 
 4231000   0.56346457   -8.9000078    533.87837  0.010515213 0.0092419069            6 
 4232000   0.57690377   -8.8906554    532.49474  0.010485483 0.0092385324            6 
 4233000   0.57993518   -8.8924451    532.42787  0.010481689 0.0092351605            6 
 4234000   0.57583796   -8.8921918    532.89075  0.010488324 0.0092317873            8 
 4235000   0.57215356    -8.901341    533.45875  0.010497024 0.0092284118            6 
 4236000   0.56342881   -8.9070238    533.19211    0.0104893 0.0092250371            9 
 4237000   0.57518364   -8.8938154     533.1548  0.010486091 0.0092216648           11 
 4238000   0.56829664   -8.9076257    532.94206  0.010479433 0.0092182873            8 
 4239000   0.57766677     -8.92017    533.86478  0.010495101 0.0092149187           10 
 4240000   0.57840491   -8.8970084    533.55396  0.010486517 0.0092115509            7 
 4241000   0.57331615   -8.9025909    533.66919  0.010486308  0.009208183            8 
 4242000   0.57043165   -8.9079731    533.22123  0.010475036 0.0092048208            8 
 4243000   0.57131903   -8.9037884    533.47504  0.010477552  0.009201458            8 
 4244000   0.57196143   -8.8937159    532.09952  0.010448074 0.0091980972            8 
 4245000    0.5680228   -8.9157461    532.73119  0.010458013 0.0091947378            6 
 4246000   0.57855912    -8.911114    532.64753  0.010453908 0.0091913776            7 
 4247000   0.57253654    -8.913588    532.65979  0.010451687 0.0091880207            6 
 4248000   0.57295178   -8.9127317    532.67322   0.01044949 0.0091846645            8 
 4249000   0.57689922   -8.9170066    532.96625  0.010452778 0.0091813137            6 
 4250000   0.57721964   -8.9075327    532.42747  0.010439754 0.0091779659            5 
 4251000   0.56071012   -8.9168855    533.30764  0.010454553 0.0091746195            6 
 4252000   0.56897029   -8.9086508    533.16249  0.010449249 0.0091712702            6 
 4253000   0.56945835   -8.9034008    532.84033   0.01044048 0.0091679252            6 
 4254000   0.56935787   -8.9175598    532.54521  0.010432244 0.0091645824            4 
 4255000   0.57453612   -8.9126545     532.5625  0.010430131  0.009161238            4 
 4256000   0.56309507   -8.9159326    533.07128  0.010437643 0.0091578963            3 
 4257000   0.56783454   -8.9111385     532.2838  0.010419775 0.0091545551            6 
 4258000   0.57842464   -8.9278599    532.88754  0.010429144 0.0091512168            6 
 4259000   0.57638575   -8.9044532    532.25161  0.010414252  0.009147878            6 
 4260000   0.56451864   -8.9096792    532.99178  0.010426287 0.0091445421            8 
 4261000   0.57361767   -8.9063553    533.41914  0.010432198 0.0091412074           10 
 4262000   0.57601992   -8.9179383    532.62531  0.010414229 0.0091378775            8 
 4263000   0.55851604   -8.9150579    532.91015  0.010417354 0.0091345483            3 
 4264000   0.56894175   -8.9156837    532.69858  0.010410776 0.0091312241            8 
 4265000    0.5552817   -8.9240802    533.59731  0.010425895 0.0091278955            5 
 4266000   0.55508155   -8.9310412    532.69548  0.010405834 0.0091245684            7 
 4267000    0.5674303   -8.9375694    532.84533  0.010406322 0.0091212414            7 
 4268000   0.56512681   -8.9074504    533.40357  0.010414784  0.009117921            7 
 4269000   0.58500864   -8.8862522    533.02469  0.010404948  0.009114598            8 
 4270000   0.56185473   -8.9121138    531.82438  0.010379086 0.0091112819            8 
 4271000   0.57235044   -8.9073516    533.21738  0.010403836  0.009107964            7 
 4272000   0.57046396   -8.9171629    532.60809  0.010389515 0.0091046445            5 
 4273000   0.57600232   -8.9045011    533.08552  0.010396394 0.0091013307            5 
 4274000   0.56230848   -8.9218683    532.70044  0.010386454 0.0090980169            5 
 4275000   0.57101365   -8.9150279    532.93858  0.010388666 0.0090947029            6 
 4276000   0.56044414   -8.9216471    532.11586  0.010370203 0.0090913917            6 
 4277000   0.56539234     -8.92425    532.52058  0.010375664 0.0090880781            6 
 4278000   0.57086521     -8.90209    532.91193  0.010380862 0.0090847686            7 
 4279000   0.57433216    -8.922067    532.10572  0.010362735 0.0090814604            6 
 4280000   0.58313013   -8.9189592    532.93282  0.010376418 0.0090781536            5 
 4281000   0.56887468   -8.9310084    531.82429  0.010352416 0.0090748461            7 
 4282000    0.5766702   -8.9061514    532.11865  0.010355726 0.0090715402           13 
 4283000    0.5643252   -8.9193116    532.49722  0.010360674 0.0090682339            8 
 4284000   0.56258759   -8.9016148    532.35251  0.010355441 0.0090649276            6 
 4285000   0.55915023   -8.9205488    532.97931  0.010365214 0.0090616238           18 
 4286000   0.55785533   -8.9148302    532.68329   0.01035704 0.0090583267            7 
 4287000   0.55925616   -8.9140746    532.53157  0.010351675 0.0090550298            6 
 4288000    0.5623338   -8.9331399    532.98678  0.010358108 0.0090517335            8 
 4289000   0.56914108   -8.9242277     532.0767   0.01033801 0.0090484399            4 
 4290000   0.56902381   -8.9394929    532.74633  0.010348608   0.00904515            5 
 4291000   0.57309943   -8.9155523    532.59751  0.010343306 0.0090418596           13 
 4292000   0.56027405   -8.9201065    532.14025  0.010332018 0.0090385689            6 
 4293000   0.57563021    -8.924919    532.75073  0.010341461 0.0090352794            6 
 4294000   0.55698429   -8.9238294    533.22155   0.01034819 0.0090319909            7 
 4295000   0.55924554     -8.92592    532.77121  0.010337043 0.0090287025            6 
 4296000   0.55520831   -8.9197748    532.07442  0.010321121   0.00902542            9 
 4297000   0.55702652   -8.9299027    532.90919  0.010334908 0.0090221334            9 
 4298000   0.56517725   -8.9188048    531.83742  0.010311723 0.0090188505            9 
 4299000   0.55844783   -8.8980049    532.42431  0.010320701 0.0090155649           11 
 4300000   0.56519692   -8.9425512    532.20216  0.010313995 0.0090122845            9 
 4301000   0.55601709   -8.9064362    533.02084   0.01032746 0.0090090045           12 
 4302000   0.56516384    -8.929792    532.45243  0.010314048 0.0090057291            6 
 4303000   0.55957733   -8.9292869    531.63418  0.010295805  0.009002452            5 
 4304000    0.5554997   -8.9382493     532.3675  0.010307611 0.0089991757            7 
 4305000   0.56171834   -8.9154135    531.40301  0.010286547 0.0089959032            5 
 4306000   0.56142215   -8.9192757     531.9397  0.010294544 0.0089926316            4 
 4307000   0.55839896   -8.9363106    531.63719  0.010286301 0.0089893608            3 
 4308000   0.56469808   -8.9284359    532.32462  0.010297211 0.0089860905            5 
 4309000    0.5647068    -8.934649    531.27215  0.010274467 0.0089828254           11 
 4310000   0.55253062   -8.9574033    532.79235  0.010301476 0.0089795578           15 
 4311000   0.56235425   -8.9246516    532.53384   0.01029409 0.0089762941           13 
 4312000   0.56175987   -8.9219452    532.97677  0.010300262 0.0089730337            6 
 4313000   0.55579001   -8.9203352    531.40035  0.010267415 0.0089697717            6 
 4314000   0.55338035   -8.9349566     532.3863  0.010284081 0.0089665114            9 
 4315000   0.57081423    -8.931247    531.76621  0.010269722 0.0089632542            5 
 4316000   0.56689927   -8.9270578     531.9307  0.010270519 0.0089599959            8 
 4317000   0.56515645   -8.9345799    531.88486  0.010267255 0.0089567354           12 
 4318000   0.57352003   -8.9319035     532.0394  0.010267859 0.0089534811            5 
 4319000   0.56817432   -8.9213006     532.4645  0.010273684 0.0089502291            7 
 4320000   0.55523025   -8.9285228    532.58655   0.01027366 0.0089469792           12 
 4321000   0.55883679   -8.9272962    532.62251  0.010271976  0.008943726            5 
 4322000   0.55022839   -8.9224027     532.5164  0.010267554 0.0089404763            7 
 4323000   0.54757958   -8.9305073    531.84155   0.01025217 0.0089372286            9 
 4324000   0.54988132   -8.9222594    532.47652  0.010262036 0.0089339842            5 
 4325000    0.5556018   -8.9485663     532.5842  0.010261738 0.0089307404            6 
 4326000   0.56210069   -8.9245976    531.39883  0.010236532 0.0089274978           22 
 4327000   0.55419326   -8.9416257    533.29706  0.010270724 0.0089242561           12 
 4328000   0.56162658   -8.9405438     531.9468  0.010242352 0.0089210184            7 
 4329000   0.56967442   -8.9316461    532.46012  0.010249868 0.0089177785            8 
 4330000   0.56270767    -8.951839     532.8926  0.010255824  0.008914541           11 
 4331000   0.56489886   -8.9286917    532.12371  0.010238661 0.0089113064            5 
 4332000   0.56553764   -8.9448688    533.04028   0.01025393  0.008908069           12 
 4333000   0.55554487   -8.9346503    532.62871  0.010243648 0.0089048353            5 
 4334000    0.5635727   -8.9396191    531.54273  0.010220403 0.0089016053            4 
 4335000    0.5461494   -8.9375515    531.75586  0.010222143 0.0088983758            9 
 4336000   0.56896428   -8.9258676    531.59414  0.010216677 0.0088951462            8 
 4337000   0.56832695   -8.9361294    532.38801  0.010229575  0.008891918            9 
 4338000    0.5573915   -8.9427263    532.47211  0.010228833 0.0088886923           11 
 4339000   0.54710569   -8.9437119    531.55943  0.010208946 0.0088854702           10 
 4340000   0.55354444    -8.954442     531.9875  0.010214814 0.0088822468            7 
 4341000   0.55345533   -8.9468582    531.36948  0.010200597 0.0088790277            5 
 4342000   0.56300538    -8.945724     532.0579   0.01021146 0.0088758077           12 
 4343000   0.55734474   -8.9398186    532.07087  0.010209357 0.0088725903            6 
 4344000   0.55816455   -8.9303595    532.15209  0.010208565 0.0088693752            4 
 4345000   0.54925383   -8.9338945    532.33402  0.010209705 0.0088661579            5 
 4346000    0.5707668   -8.9505373    531.26127  0.010186786 0.0088629436            6 
 4347000   0.55493406   -8.9470017     531.6492   0.01019188 0.0088597319           12 
 4348000   0.57012273   -8.9344419    532.01752  0.010196595 0.0088565213           10 
 4349000   0.55943749   -8.9361008    531.25386  0.010179617 0.0088533146            7 
 4350000   0.55487199   -8.9259184    532.15981  0.010194632 0.0088501076            5 
 4351000   0.56397992   -8.9322217    532.31636  0.010195288 0.0088469003            5 
 4352000   0.54764929   -8.9461291    531.95273  0.010185982 0.0088436908            7 
 4353000   0.55622935   -8.9432016    532.31181  0.010190516 0.0088404874            7 
 4354000   0.57264923   -8.9556907    532.51206  0.010192008 0.0088372874           12 
 4355000   0.54651769   -8.9404227    531.99072  0.010179692 0.0088340875            6 
 4356000    0.5505172   -8.9352092      532.052  0.010178528 0.0088308889            9 
 4357000   0.55804118   -8.9420798    531.89495  0.010173188 0.0088276898            4 
 4358000   0.55326196   -8.9569658    531.24517  0.010158428 0.0088244945           12 
 4359000   0.55565524   -8.9486256    531.54122  0.010161758 0.0088212975            5 
 4360000   0.53952253   -8.9359914    531.68159   0.01016211 0.0088181041            6 
 4361000   0.55082565   -8.9357979    531.28564  0.010152214 0.0088149099            3 
 4362000   0.54773653   -8.9467065    531.02322  0.010144873 0.0088117221            5 
 4363000   0.55939308   -8.9488485    531.46424  0.010150971 0.0088085334            9 
 4364000   0.55469468   -8.9389811    532.08629  0.010160523 0.0088053454            6 
 4365000   0.55155613   -8.9420846     532.0981  0.010158421 0.0088021593            5 
 4366000   0.55771189     -8.94132    532.06801   0.01015552 0.0087989744            7 
 4367000   0.55692227   -8.9475677    531.70711  0.010146308 0.0087957909           14 
 4368000   0.56386006   -8.9448718    532.12519  0.010151961 0.0087926065            4 
 4369000   0.55045302   -8.9357297    531.14859   0.01013101  0.008789425            4 
 4370000   0.54862698   -8.9495207    532.50967  0.010154647 0.0087862457            5 
 4371000   0.54613643   -8.9470288    532.32357  0.010148775 0.0087830655            4 
 4372000   0.56318488   -8.9400712    532.43163  0.010148514 0.0087798876            3 
 4373000   0.55466926   -8.9448016    531.93619  0.010136752 0.0087767104            6 
 4374000   0.55555166   -8.9518392    530.84637  0.010113671  0.008773539            6 
 4375000   0.55840647   -8.9391581    531.85686  0.010130607 0.0087703669            4 
 4376000   0.55266816    -8.940956    531.87769  0.010128689  0.008767194            6 
 4377000   0.56445953   -8.9405759    532.07626  0.010130155 0.0087640257            7 
 4378000   0.55000042   -8.9524779    531.47209  0.010116341 0.0087608597           10 
 4379000   0.54772558   -8.9351252     531.7806  0.010119902 0.0087576918            7 
 4380000   0.54941919   -8.9468509    531.59994  0.010114154 0.0087545256           10 
 4381000   0.53958599   -8.9520187    531.75663  0.010114826 0.0087513623            7 
 4382000   0.55628044   -8.9503078    532.06014   0.01011829 0.0087481991            7 
 4383000   0.54489475     -8.94767    530.25806  0.010081718 0.0087450381            4 
 4384000   0.54734523   -8.9481078    531.85457  0.010109766 0.0087418792            5 
 4385000   0.55748811   -8.9628764    530.65718  0.010084705 0.0087387191            6 
 4386000   0.55413455   -8.9599107     531.5347  0.010099079 0.0087355624            8 
 4387000   0.54981519   -8.9547488    531.42097  0.010094616 0.0087324023           12 
 4388000   0.53464349   -8.9639827    531.92448  0.010101878 0.0087292471            6 
 4389000    0.5558517   -8.9409517     531.6033  0.010093478 0.0087260956           10 
 4390000   0.55261782   -8.9630397    531.94812  0.010097724  0.008722946            5 
 4391000   0.54618808   -8.9372057    531.98511  0.010096127 0.0087197973           12 
 4392000   0.55404916   -8.9540476    531.18814  0.010078706 0.0087166481            5 
 4393000   0.54780476   -8.9477524    532.88149  0.010108534 0.0087135012            8 
 4394000   0.55673479   -8.9632363    531.80034  0.010085729 0.0087103557            6 
 4395000   0.54590575   -8.9639532    531.70582  0.010081642 0.0087072129            5 
 4396000   0.55413861   -8.9554536    531.76335   0.01008044 0.0087040684            5 
 4397000   0.54283692    -8.968807    531.90773  0.010080883 0.0087009296            5 
 4398000   0.54536793   -8.9427054    531.48788  0.010070636 0.0086977891            7 
 4399000   0.55282542   -8.9701122    530.95533  0.010058258 0.0086946483            7 
 4400000   0.55544784   -8.9614913    530.58764  0.010049008 0.0086915111            7 
 4401000   0.54725699   -8.9551101     532.0146  0.010073745 0.0086883737            9 
 4402000    0.5600446   -8.9426869    532.19044  0.010074785 0.0086852381            8 
 4403000   0.55338156   -8.9553636    530.84092  0.010046955 0.0086821049           12 
 4404000   0.54589735   -8.9448784    530.81112   0.01004411 0.0086789737            6 
 4405000   0.55270985    -8.971743    530.54763  0.010036845 0.0086758402            6 
 4406000   0.54277264   -8.9588497    531.20332  0.010046968 0.0086727103            5 
 4407000   0.55412948   -8.9447436    531.16398  0.010043945 0.0086695795            7 
 4408000   0.54526935   -8.9469915    531.79831  0.010053658 0.0086664527            4 
 4409000   0.55368049   -8.9632299    531.54637  0.010046616  0.008663331            5 
 4410000    0.5535335   -8.9665579    531.46777  0.010042853 0.0086602106            7 
 4411000    0.5390974   -8.9635118    531.87924   0.01004835 0.0086570885            3 
 4412000   0.54785682    -8.962993    530.98242  0.010029133 0.0086539687            7 
 4413000   0.54031968   -8.9494429    531.31425  0.010033126 0.0086508516            9 
 4414000   0.54217719   -8.9520858    531.30552  0.010030689 0.0086477375            6 
 4415000   0.53849924   -8.9666955    531.32286  0.010028744 0.0086446258            7 
 4416000   0.54999697   -8.9585451    531.15359  0.010023279 0.0086415112            9 
 4417000   0.53648875   -8.9533356    530.92566  0.010016709 0.0086383953            8 
 4418000   0.54565606   -8.9479842    532.42715  0.010042763 0.0086352826           14 
 4419000   0.56007968   -8.9628941    532.10488  0.010034414  0.008632173            7 
 4420000    0.5370349   -8.9467577    532.06356  0.010031364 0.0086290622            6 
 4421000   0.54127432   -8.9633694    530.71271  0.010003632 0.0086259539            7 
 4422000   0.54116666   -8.9688688    530.91796  0.010005238 0.0086228462            6 
 4423000   0.54319374   -8.9661267    531.65785  0.010016916 0.0086197388           11 
 4424000    0.5409764   -8.9563478    531.72537  0.010015924 0.0086166326            7 
 4425000   0.54973802   -8.9592008    531.20716  0.010003901 0.0086135286            9 
 4426000   0.53887764   -8.9508618    530.82451 0.0099944365 0.0086104259           10 
 4427000   0.54612627   -8.9533959    531.76124  0.010009812 0.0086073225           15 
 4428000   0.54091657   -8.9549505    532.02197  0.010012458 0.0086042214           10 
 4429000   0.54085098    -8.961436    531.55014   0.01000132 0.0086011237           11 
 4430000   0.54413229   -8.9704025    531.04706 0.0099895986 0.0085980264            9 
 4431000    0.5482928   -8.9624786    530.51613 0.0099773589 0.0085949289           18 
 4432000   0.54344065   -8.9715508    531.12886 0.0099866287 0.0085918349           14 
 4433000   0.52843536   -8.9665984     531.7137 0.0099953699  0.008588741           11 
 4434000   0.53326751   -8.9680587    531.32565 0.0099858226 0.0085856492           12 
 4435000   0.53884173    -8.967872    531.77302 0.0099919771 0.0085825616           10 
 4436000   0.51910638   -8.9482531     531.2844 0.0099805455 0.0085794742            8 
 4437000   0.53895742   -8.9585407    530.75867 0.0099684222 0.0085763889            3 
 4438000   0.54066694   -8.9555757    531.77959  0.009985346 0.0085733038            9 
 4439000   0.54751926   -8.9887371    532.46909 0.0099960405 0.0085702233            7 
 4440000     0.543959   -8.9653159    531.06503 0.0099674367 0.0085671403            9 
 4441000   0.53830202   -8.9602745    531.26367 0.0099689198  0.008564058            4 
 4442000   0.54211267   -8.9701039    531.80673 0.0099768635 0.0085609798            4 
 4443000   0.53454216   -8.9750502    532.03922 0.0099789785 0.0085579031            6 
 4444000   0.54198719   -8.9657382    531.06189 0.0099584062 0.0085548289            9 
 4445000   0.54856376   -8.9609361    531.10199 0.0099569178  0.008551749           15 
 4446000   0.53163317   -8.9768753    530.79731 0.0099489674 0.0085486753           10 
 4447000   0.53853331   -8.9780436    531.56112 0.0099610435 0.0085456015            4 
 4448000   0.54203838   -8.9697034    530.24075 0.0099340669  0.008542529            8 
 4449000   0.52746809   -8.9491606    531.75709 0.0099602363  0.008539458           14 
 4450000   0.53939957   -8.9426756    531.37634 0.0099508678 0.0085363897            7 
 4451000   0.53120503   -8.9651874    531.25454 0.0099463517 0.0085333228           12 
 4452000   0.54676375    -8.972239    531.29761 0.0099449237 0.0085302611           12 
 4453000   0.53992249   -8.9560201    531.63688 0.0099490396 0.0085271958           13 
 4454000   0.53829688    -8.958269    530.78495 0.0099308664 0.0085241355            9 
 4455000   0.53768301   -8.9734156    530.67963 0.0099266672  0.008521075            8 
 4456000   0.53587277   -8.9739984    530.93421 0.0099292005 0.0085180156           13 
 4457000   0.53467232   -8.9524389    532.05915  0.009948006 0.0085149592            7 
 4458000   0.53610419    -8.942462    531.18074 0.0099293544 0.0085119042            8 
 4459000   0.53595731   -8.9757792    531.43566 0.0099318917 0.0085088508           12 
 4460000   0.53955759   -8.9684732    531.21515 0.0099255447 0.0085057948            5 
 4461000   0.54176502   -8.9628736    531.45341 0.0099277705 0.0085027413           15 
 4462000   0.54067991   -8.9768174    531.54667 0.0099272873 0.0084996861           11 
 4463000   0.53651775   -8.9802507     530.1273 0.0098985604 0.0084966342           23 
 4464000   0.53444299    -8.959816    531.25017 0.0099173045 0.0084935823           11 
 4465000   0.54137207   -8.9673924    530.23981 0.0098962265 0.0084905312            4 
 4466000    0.5393238   -8.9718291    531.29053 0.0099136164 0.0084874835            3 
 4467000   0.53480781   -8.9672597    530.19267 0.0098909162 0.0084844386            7 
 4468000   0.53767683   -8.9731941     530.6395 0.0098970364 0.0084813951           17 
 4469000   0.52702142   -8.9803281    531.04921 0.0099024616 0.0084783514            6 
 4470000   0.53421725    -8.969234    531.06611 0.0099005614  0.008475309            7 
 4471000   0.54553538   -8.9702532    531.09155 0.0098988211 0.0084722699           17 
 4472000   0.54013961    -8.963803    530.41454 0.0098839919 0.0084692305            9 
 4473000    0.5341135   -8.9897203    530.84351  0.009889774 0.0084661939            6 
 4474000   0.52147673   -8.9640409    531.39892 0.0098979087 0.0084631591           11 
 4475000   0.54375209   -8.9769408     530.1919 0.0098732197 0.0084601252           11 
 4476000   0.53275486   -8.9859062    531.20769 0.0098899257 0.0084570903            5 
 4477000   0.53512093   -8.9752467    531.20332 0.0098876354 0.0084540575           12 
 4478000   0.50949363   -8.9672479    531.25598 0.0098864073 0.0084510276            5 
 4479000   0.54454584   -8.9778992     531.6014 0.0098906267     0.008448            8 
 4480000   0.53350771   -8.9663966    530.97595 0.0098767848 0.0084449782            9 
 4481000    0.5395292   -8.9693747    531.36168 0.0098817541 0.0084419532            7 
 4482000   0.54440785   -8.9844443    530.19499 0.0098578573 0.0084389275            6 
 4483000   0.53576327   -8.9896142    530.70041 0.0098650533 0.0084359029           19 
 4484000   0.53126932   -8.9755263    530.81111 0.0098649106 0.0084328832           13 
 4485000   0.53958595   -8.9783918    530.78409 0.0098622091  0.008429861            8 
 4486000   0.52388468   -8.9736224    530.72511  0.009858915  0.008426842           13 
 4487000   0.52456029   -8.9760751    531.60912 0.0098731356 0.0084238253           12 
 4488000   0.52725466   -8.9658677     530.6737 0.0098535669 0.0084208067            7 
 4489000   0.52356192   -8.9673572    530.78099 0.0098533637 0.0084177894            5 
 4490000   0.54135155    -8.991804    531.32521 0.0098612697 0.0084147742            3 
 4491000   0.53490745   -8.9672363    530.73481 0.0098481186 0.0084117626            5 
 4492000   0.53096701   -8.9559795    531.78793 0.0098654633  0.008408753            7 
 4493000   0.52448828   -8.9875023    531.35447  0.009855228 0.0084057438            6 
 4494000   0.54075348   -8.9940226    531.85948 0.0098623994 0.0084027344            7 
 4495000   0.54609309   -8.9927825    530.90957 0.0098425949 0.0083997229            7 
 4496000   0.53673853   -8.9590514    531.80402 0.0098569844 0.0083967166            6 
 4497000   0.54263257   -8.9766973    531.22003 0.0098439706 0.0083937107            7 
 4498000   0.52554081   -8.9602249    531.50308  0.009847026 0.0083907083            8 
 4499000   0.53206835   -8.9748092    531.28881 0.0098408685  0.008387704            4 
 4500000    0.5401467   -8.9770256     531.0537 0.0098343278 0.0083846999            8 
 4501000   0.53988901    -8.989425    531.65866 0.0098433433 0.0083817009            5 
 4502000   0.54172116   -8.9891414    531.17271 0.0098321618 0.0083787031            5 
 4503000   0.52772055   -8.9961061    530.82583  0.009823559 0.0083757038            7 
 4504000   0.52062556   -8.9824424    530.39686  0.009813441 0.0083727025            6 
 4505000   0.53381376   -8.9946099    531.11845 0.0098246106 0.0083697065           10 
 4506000   0.53680681    -8.953184    530.79047 0.0098163647 0.0083667131            9 
 4507000   0.52928151   -8.9896941    530.70324 0.0098125738 0.0083637211           13 
 4508000   0.52064055   -8.9778384    530.63482 0.0098091323 0.0083607284            3 
 4509000   0.52236302   -8.9869527    530.94319 0.0098126559 0.0083577397            7 
 4510000   0.52853695   -8.9837027    531.01322 0.0098117742 0.0083547505            7 
 4511000   0.52560832   -8.9698117    530.27361  0.009795936 0.0083517635            6 
 4512000   0.53209685   -8.9925458    531.18185 0.0098105395 0.0083487765            5 
 4513000   0.53676923   -8.9961172    531.44909 0.0098133004 0.0083457919            6 
 4514000   0.52684311   -8.9943268     530.5224 0.0097940187 0.0083428088            6 
 4515000   0.53495283   -8.9843293    530.22701 0.0097863973 0.0083398247            7 
 4516000   0.53075489    -8.979615    530.02771 0.0097805527 0.0083368471            8 
 4517000   0.52430169    -8.966798    530.15926 0.0097808143 0.0083338671           14 
 4518000    0.5244593   -8.9937273    530.83866 0.0097911809 0.0083308882            8 
 4519000   0.53288076     -8.98915     529.9171 0.0097720199 0.0083279108            8 
 4520000    0.5302242   -8.9875349    530.41272 0.0097789955  0.008324936            9 
 4521000   0.54680165   -8.9891707    530.29627 0.0097746861 0.0083219618            4 
 4522000    0.5311115   -8.9807601    530.77333  0.009781316 0.0083189898            6 
 4523000   0.52020111   -8.9827943    531.78499 0.0097977926 0.0083160179            6 
 4524000   0.52264772   -9.0038219    530.78699 0.0097772434 0.0083130503            6 
 4525000   0.52337326     -8.98301    531.00004 0.0097790063 0.0083100818            8 
 4526000   0.52209148   -8.9938033    531.08883 0.0097784805 0.0083071164            4 
 4527000   0.54039358    -8.982598     530.3194 0.0097621566 0.0083041529            4 
 4528000   0.53201285   -8.9832568    529.74036  0.009749344 0.0083011893            5 
 4529000    0.5385445   -8.9633558    530.68289 0.0097645339 0.0082982279            9 
 4530000   0.52770214    -8.981558    531.08178 0.0097697163 0.0082952653           11 
 4531000   0.51470461   -8.9809502    529.97334 0.0097471739 0.0082923051            8 
 4532000   0.52620407   -8.9991952    531.23889 0.0097682939  0.008289347            7 
 4533000   0.54099777   -8.9829683    530.65276 0.0097553637 0.0082863902           10 
 4534000   0.51745269   -8.9986349    530.71125  0.009754287 0.0082834335           10 
 4535000   0.51875518   -8.9985034    530.20244 0.0097427865  0.008280475            4 
 4536000   0.52642623   -8.9948574     530.9269  0.009753948 0.0082775179           17 
 4537000    0.5254014   -8.9911536    530.27814 0.0097398821  0.008274565            9 
 4538000   0.52776329    -8.992138    530.70306 0.0097455387 0.0082716126            5 
 4539000   0.53121744   -8.9993489    530.12066 0.0097326992 0.0082686649            5 
 4540000   0.51863281   -8.9852975    530.49716 0.0097374662 0.0082657171            4 
 4541000   0.53017093   -8.9886048    531.08729 0.0097461515 0.0082627716            7 
 4542000   0.52723301   -8.9769691    529.98383 0.0097237603 0.0082598281            9 
 4543000   0.52395865   -8.9715516    531.18137 0.0097435866 0.0082568864            9 
 4544000   0.52845808   -8.9921214    530.60305 0.0097308365 0.0082539417            6 
 4545000   0.51426459   -8.9721314     531.1594 0.0097388962 0.0082510027            7 
 4546000   0.51151322   -8.9798198    531.54379 0.0097438002 0.0082480645            7 
 4547000   0.52254531   -8.9735543    530.61036 0.0097245503 0.0082451232           11 
 4548000   0.51700198   -8.9864023    530.42237 0.0097189675 0.0082421844            8 
 4549000   0.51879518    -9.002288    530.91382 0.0097258339 0.0082392454            5 
 4550000   0.52345849   -8.9807665    530.63597 0.0097186074  0.008236307            5 
 4551000   0.53157098    -8.986613    530.27175 0.0097098028 0.0082333727            4 
 4552000   0.53137467   -8.9790386    531.07286 0.0097223357  0.008230442           15 
 4553000   0.52975867   -8.9873108    530.84466 0.0097160236 0.0082275116            7 
 4554000   0.52534229   -8.9980456    531.36378 0.0097233894 0.0082245827            9 
 4555000   0.50904556   -9.0024065    530.17447 0.0096994964 0.0082216539            7 
 4556000   0.53027445   -8.9805769    531.59494  0.009723349 0.0082187257           10 
 4557000   0.51869773   -9.0104806    530.82649 0.0097071628 0.0082158008            5 
 4558000   0.53813027   -8.9678141     530.5211 0.0096994496 0.0082128766            7 
 4559000   0.51724967   -9.0014446    530.36428 0.0096944556 0.0082099532            9 
 4560000   0.52978797   -8.9803859    530.22524 0.0096897887 0.0082070336            7 
 4561000   0.52096483   -9.0014557    530.69349 0.0096962196 0.0082041122            4 
 4562000   0.51891331   -9.0008445    530.87851 0.0096974739  0.008201194            5 
 4563000   0.52436309    -8.993267    530.77114 0.0096933877  0.008198276            8 
 4564000   0.50900342   -8.9947276    531.24924 0.0096999935  0.008195358            7 
 4565000   0.52084954   -8.9939178    529.56218 0.0096670715 0.0081924459            8 
 4566000   0.52959888   -8.9912579    530.19037 0.0096764193 0.0081895316           10 
 4567000   0.52083004   -9.0069236    530.19725 0.0096744261 0.0081866181            9 
 4568000   0.51399444   -8.9957881     530.4113 0.0096762131 0.0081837061            9 
 4569000    0.5192855   -8.9888727    530.33302 0.0096726677 0.0081807926            7 
 4570000   0.52174763   -9.0061522    530.69041 0.0096770681 0.0081778842            9 
 4571000   0.52553945   -9.0047019    530.24393 0.0096668112 0.0081749763            5 
 4572000   0.51925669   -9.0015553    529.55837 0.0096522012  0.008172069            5 
 4573000   0.53105826   -8.9864217    529.93981 0.0096570416 0.0081691645            7 
 4574000   0.50876566   -9.0138891    530.66132 0.0096680754 0.0081662594            9 
 4575000   0.52172837   -9.0094768    530.51766 0.0096633454  0.008163355           10 
 4576000   0.52052475   -8.9980772    530.09324 0.0096535045 0.0081604515           10 
 4577000   0.51859341   -8.9985266    529.66951 0.0096436805 0.0081575534            7 
 4578000   0.51497513   -9.0186805    530.99393 0.0096656824  0.008154653           11 
 4579000   0.52253603   -8.9863958    530.25145 0.0096500592 0.0081517576            8 
 4580000   0.52545943   -8.9889785    529.80798 0.0096398832 0.0081488609            8 
 4581000   0.51746227   -9.0142211    530.16936 0.0096443528 0.0081459678           11 
 4582000   0.53450755   -9.0069357    529.29236 0.0096262979 0.0081430741            7 
 4583000   0.51019284   -9.0111011     529.9641 0.0096364117 0.0081401804            8 
 4584000   0.51657122   -8.9914639    530.29027  0.009640239 0.0081372906           11 
 4585000   0.51313256   -8.9962329    530.18866 0.0096362898 0.0081344005            6 
 4586000   0.51767426   -8.9839339    530.81672 0.0096456011 0.0081315129            6 
 4587000    0.5200118   -9.0029843    530.94487 0.0096458264 0.0081286269            9 
 4588000    0.5094673   -9.0056192    530.07972   0.00962801 0.0081257432            8 
 4589000   0.50905265    -9.000277     529.9296 0.0096231859 0.0081228564            6 
 4590000   0.52271082   -9.0003365    530.53832 0.0096321408 0.0081199773            8 
 4591000   0.51183903   -8.9993596    529.84883 0.0096175276 0.0081170956            7 
 4592000   0.51667455   -8.9951099     530.0178 0.0096184995 0.0081142164            5 
 4593000   0.51549986   -8.9896901    530.09433 0.0096177939 0.0081113361           12 
 4594000   0.52327821   -9.0104813    530.80739 0.0096286349 0.0081084572            6 
 4595000   0.50286497   -8.9899259    529.79689 0.0096082135 0.0081055786            7 
 4596000   0.52469557    -9.000107    530.27387 0.0096147714  0.008102704            8 
 4597000   0.53189661   -9.0140987    530.77491 0.0096217625  0.008099828            6 
 4598000   0.50223397   -8.9950092    530.50212  0.009614726 0.0080969556            8 
 4599000   0.51230402     -9.01531    530.65003 0.0096153156 0.0080940845            9 
 4600000   0.51131902   -9.0015166    530.41454 0.0096089591 0.0080912138           15 
 4601000   0.52071216   -9.0125401    529.62202 0.0095925165 0.0080883448            6 
 4602000   0.51784022   -9.0052874    529.88843 0.0095952561 0.0080854769           13 
 4603000   0.51741812   -9.0000113    529.97446 0.0095947291 0.0080826107            8 
 4604000   0.51796835   -9.0050378    529.80344 0.0095895497 0.0080797469            7 
 4605000   0.51969073   -9.0153382    529.95516 0.0095902129 0.0080768854            8 
 4606000   0.51973265   -9.0019869      530.815 0.0096036872 0.0080740255           12 
 4607000    0.5214161   -9.0000339    529.43462 0.0095766337 0.0080711674            7 
 4608000   0.52028398   -8.9936523    529.53802 0.0095764255 0.0080683094            9 
 4609000   0.51481798   -9.0216969    530.05028 0.0095836096 0.0080654508            7 
 4610000   0.51822022   -9.0182475    529.88144 0.0095784787 0.0080625943            6 
 4611000   0.50678949   -9.0132128    530.33164 0.0095845377 0.0080597378           10 
 4612000   0.50260715   -9.0093871    530.04627 0.0095773032 0.0080568843           10 
 4613000   0.50006251   -9.0045907    529.96702 0.0095737955 0.0080540305           11 
 4614000   0.51718174    -9.000429    531.27078 0.0095952677 0.0080511795            8 
 4615000   0.50716923   -9.0173651    530.43799 0.0095781507 0.0080483307           11 
 4616000    0.5109632   -9.0178252    529.76899 0.0095639983 0.0080454815           10 
 4617000   0.50196188   -9.0027023    529.59542 0.0095587939 0.0080426359           10 
 4618000   0.52164715    -9.001594    530.37596 0.0095708092 0.0080397893           11 
 4619000   0.52233666   -9.0090585     530.5416 0.0095717255 0.0080369456           11 
 4620000   0.51150655    -9.004563    530.14843 0.0095625619 0.0080341021            8 
 4621000   0.50836328   -9.0210131    530.40175 0.0095650608 0.0080312586            6 
 4622000   0.50490639   -9.0128892    529.52136 0.0095471182 0.0080284176            6 
 4623000   0.51044547   -9.0034375    529.95554 0.0095528795 0.0080255737            9 
 4624000   0.50900768    -9.005411    529.07084 0.0095348696 0.0080227339            5 
 4625000   0.51449169   -9.0036093    530.07901 0.0095509731 0.0080198957            7 
 4626000   0.51131627   -8.9985811    528.84543 0.0095266867 0.0080170576            8 
 4627000   0.51661912   -9.0201127    529.99168  0.009545272 0.0080142239           10 
 4628000   0.53208443   -9.0050914    530.65732 0.0095551951 0.0080113901            8 
 4629000    0.5086292    -9.016122    528.91972   0.00952185 0.0080085592            7 
 4630000   0.50545125   -9.0139497    530.61993 0.0095503946 0.0080057283           12 
 4631000     0.520278   -8.9913355    530.70023 0.0095497774 0.0080029019            8 
 4632000   0.51114655    -9.015231    530.03378 0.0095357257  0.008000075           11 
 4633000   0.50185589   -9.0201966    530.17809 0.0095362632 0.0079972471            6 
 4634000   0.49741568   -9.0259258    529.65828 0.0095248576 0.0079944194            6 
 4635000   0.49842513   -9.0166727    530.81317 0.0095435665 0.0079915899            7 
 4636000   0.51558873   -9.0123324    530.38254 0.0095337672 0.0079887667            5 
 4637000   0.51455077   -9.0020315    530.48059 0.0095334734 0.0079859481            6 
 4638000   0.52219169   -9.0024927    530.22227 0.0095267765  0.007983128           10 
 4639000   0.50502368   -9.0148921    529.81354 0.0095173805 0.0079803092            6 
 4640000   0.50727937   -9.0391567    530.22479 0.0095227154 0.0079774862            5 
 4641000   0.50763382   -9.0289217     529.6885 0.0095110339 0.0079746665            3 
 4642000   0.51104619   -9.0077453     530.1805 0.0095178175 0.0079718496            4 
 4643000   0.50380508   -8.9916713    529.23746 0.0094988416 0.0079690341            7 
 4644000   0.52356582   -9.0439523     530.2584 0.0095151163 0.0079662181            4 
 4645000   0.49387549   -9.0102256    530.21017 0.0095122025  0.007963406           10 
 4646000   0.49949227   -9.0176177    529.86391 0.0095039444 0.0079605959            5 
 4647000   0.49934273   -9.0287905    529.57214 0.0094966671 0.0079577843            6 
 4648000   0.50985051   -9.0329296    529.66352 0.0094962623 0.0079549741            6 
 4649000    0.5135267   -9.0289959    529.79583 0.0094965913 0.0079521667            5 
 4650000   0.50021535   -9.0165693    530.39997 0.0095053759  0.007949359            8 
 4651000    0.5064634   -9.0122768    530.13597 0.0094986018 0.0079465521            8 
 4652000   0.52628079   -9.0227733    529.09996 0.0094780016 0.0079437495            5 
 4653000   0.49233803   -9.0307189    529.64889 0.0094857957  0.007940948            4 
 4654000   0.49893633   -9.0107495    530.27107 0.0094948981 0.0079381461            7 
 4655000    0.5050212   -9.0243994    529.45768 0.0094782973 0.0079353447            9 
 4656000   0.51321586   -9.0178184    529.77293 0.0094819039 0.0079325456           14 
 4657000   0.50113567   -9.0134269    530.23919  0.009488211 0.0079297508            4 
 4658000   0.51484555   -9.0305611    529.78956 0.0094781302 0.0079269559            4 
 4659000   0.50893995   -9.0120096    529.45017 0.0094700253 0.0079241637            6 
 4660000   0.51232296   -9.0247732    530.23733 0.0094820696 0.0079213693            7 
 4661000   0.49897697   -9.0240865    529.87017 0.0094734708 0.0079185779            7 
 4662000   0.51570403   -9.0238388    530.68183 0.0094859473 0.0079157861            5 
 4663000   0.50611067   -9.0290634    529.52079 0.0094631637 0.0079129959            7 
 4664000   0.49473888   -9.0280037    529.70122 0.0094643586 0.0079102091            5 
 4665000   0.50848043   -9.0191852     530.1048 0.0094695391 0.0079074218            9 
 4666000   0.48856804   -9.0215285    529.64681 0.0094593301 0.0079046345            7 
 4667000   0.51987342   -9.0306115    529.36853 0.0094523343 0.0079018459            7 
 4668000   0.50820354   -9.0361406    529.45651   0.00945188 0.0078990617            9 
 4669000   0.51134198   -9.0342225    530.24133 0.0094638633 0.0078962778            6 
 4670000   0.50925054    -9.033441    528.65642 0.0094335549 0.0078934933           10 
 4671000   0.50204003     -9.03462    529.68676 0.0094499172 0.0078907128            8 
 4672000   0.50669049   -9.0328332    530.08423 0.0094549842 0.0078879324            5 
 4673000   0.50840928   -9.0167484    530.10216 0.0094532805 0.0078851524            7 
 4674000   0.49297103   -9.0170196    529.70232 0.0094441292  0.007882374            2 
 4675000   0.50448582   -9.0194663    529.32127 0.0094353168 0.0078795979            6 
 4676000   0.50915326   -9.0394141    529.99299 0.0094452701 0.0078768225            4 
 4677000   0.50887296   -9.0217413    529.34745 0.0094317484 0.0078740477           11 
 4678000   0.49871796   -9.0272808    530.15101 0.0094440467 0.0078712722            9 
 4679000   0.49266411    -9.026142    529.48774 0.0094302155 0.0078684993            5 
 4680000   0.51041365   -9.0323822     530.0885 0.0094388979 0.0078657297           12 
 4681000   0.50130101   -9.0281463    529.58504 0.0094279186 0.0078629569            5 
 4682000   0.50481047   -9.0187017    530.11009 0.0094352501 0.0078601894           13 
 4683000   0.49859249   -9.0165028     528.9481 0.0094125577 0.0078574236            8 
 4684000   0.48624259   -9.0344835    529.67776 0.0094235298 0.0078546585            8 
 4685000   0.49957658   -9.0184985    529.49311 0.0094182339 0.0078518927            8 
 4686000   0.51169549   -9.0164546    529.27421 0.0094123312 0.0078491279            4 
 4687000   0.51468207   -9.0258976    529.99026 0.0094230542 0.0078463659           10 
 4688000   0.50584032   -9.0238524    529.35457 0.0094097442 0.0078436059            8 
 4689000   0.50661947   -9.0177522    529.90022 0.0094174349 0.0078408472            4 
 4690000   0.50127589    -9.031679    530.07991 0.0094186195 0.0078380908            6 
 4691000   0.50374603   -9.0178635    529.55773 0.0094073355 0.0078353336            9 
 4692000   0.50174454   -9.0147542    529.11049 0.0093973872 0.0078325782            5 
 4693000   0.50402415   -9.0326708    529.11297 0.0093954288 0.0078298234            8 
 4694000   0.50271929   -9.0426955    530.35234 0.0094154299 0.0078270713            5 
 4695000   0.50829099   -9.0194973    528.54157 0.0093812845 0.0078243188            7 
 4696000   0.49707503   -9.0439431    529.64003 0.0093987797 0.0078215671            7 
 4697000   0.50836082   -9.0401995    529.14339 0.0093879672 0.0078188143            8 
 4698000   0.48905241   -9.0238246    529.36392 0.0093898807 0.0078160656            9 
 4699000   0.50024349   -9.0166824    530.10067 0.0094009483 0.0078133173            6 
 4700000   0.50742049   -9.0481791    529.07169 0.0093807037 0.0078105712            3 
 4701000   0.51508469   -9.0270008    529.37706 0.0093841214 0.0078078282            7 
 4702000   0.48884251   -9.0190696    528.91194 0.0093738825 0.0078050843           13 
 4703000   0.50662104    -9.027857    528.92257 0.0093720776 0.0078023415            8 
 4704000   0.50117934   -9.0210426    529.78066 0.0093852866 0.0077995993            6 
 4705000   0.50050488   -9.0445297    530.41935 0.0093946042  0.007796863            8 
 4706000   0.49013879   -9.0325174    529.83688 0.0093822936 0.0077941255            6 
 4707000   0.51039686    -9.036018    529.67978  0.009377519 0.0077913922            3 
 4708000    0.4959849   -9.0310934    529.17048 0.0093665123 0.0077886556            8 
 4709000   0.49909547   -9.0336144     529.7521  0.009374816 0.0077859239            5 
 4710000   0.50117419   -9.0432318    529.21222 0.0093632735 0.0077831895            3 
 4711000   0.49748661   -9.0241854     528.8116 0.0093541993 0.0077804574            7 
 4712000   0.50337514    -9.032675    528.77848 0.0093516285 0.0077777237            8 
 4713000   0.49825874   -9.0336763    530.15849 0.0093740451 0.0077749947           10 
 4714000   0.50388839   -9.0279703    529.55447 0.0093613786 0.0077722679           12 
 4715000   0.49300867   -9.0462499    529.91251 0.0093657212 0.0077695424            8 
 4716000   0.49197076    -9.028287    529.21232 0.0093513627 0.0077668171            4 
 4717000    0.4930546   -9.0607179    529.42852 0.0093531998 0.0077640906            4 
 4718000   0.48577703   -9.0292149    528.71104 0.0093385447 0.0077613676            7 
 4719000    0.4977901    -9.024458    528.64311 0.0093353661 0.0077586446           10 
 4720000   0.48695967   -9.0417125    529.35786 0.0093460075 0.0077559217            6 
 4721000   0.50551173   -9.0275764    529.03367 0.0093383053 0.0077532017           12 
 4722000   0.48007311   -9.0395179     529.6062 0.0093464317 0.0077504811            5 
 4723000   0.51098339   -9.0493286    529.84487 0.0093486637 0.0077477638           10 
 4724000   0.49925681   -9.0206476    529.31883 0.0093374053 0.0077450464            7 
 4725000   0.49820895   -9.0465751    529.39068 0.0093366962 0.0077423326            5 
 4726000   0.49823773   -9.0230958    529.46699 0.0093360663 0.0077396176            8 
 4727000    0.4923619   -9.0487175    529.26337 0.0093305016 0.0077369032            7 
 4728000   0.50005547   -9.0386876     529.5446  0.009333485 0.0077341904            5 
 4729000   0.48319527   -9.0487064    528.92388 0.0093205731   0.00773148            5 
 4730000   0.49438578   -9.0501412    529.10176 0.0093217363 0.0077287698           10 
 4731000   0.48936257   -9.0410897    528.90915 0.0093163734 0.0077260608           12 
 4732000   0.50493707   -9.0454394    529.06216 0.0093170991 0.0077233561            5 
 4733000   0.48995025   -9.0399649    529.46121 0.0093221567 0.0077206491            5 
 4734000   0.49000054   -9.0358832    528.74479 0.0093075763 0.0077179441            4 
 4735000   0.49946182   -9.0599233     528.6697  0.009304289 0.0077152404            1 
 4736000    0.5014396   -9.0279069    528.52817  0.009299834 0.0077125359            7 
 4737000   0.49627547   -9.0320114    529.35913  0.009312489 0.0077098365            9 
 4738000   0.50349681   -9.0334491    529.78859 0.0093180771 0.0077071351            6 
 4739000   0.49602981   -9.0472418    529.44136  0.009310005 0.0077044362            5 
 4740000    0.4998846    -9.019616    530.11328 0.0093198538 0.0077017372           10 
 4741000   0.49369875   -9.0434539    529.00163 0.0092983483 0.0076990434           11 
 4742000   0.49008145   -9.0536331    529.04049 0.0092970703 0.0076963491            9 
 4743000   0.49338849   -9.0400762    528.89947 0.0092926325 0.0076936568            3 
 4744000    0.4960475   -9.0592894    528.76292  0.009288275 0.0076909627            4 
 4745000   0.49240108   -9.0432081    529.68253  0.009302468   0.00768827            6 
 4746000   0.49866582   -9.0380207    528.43485 0.0092786003 0.0076855812            6 
 4747000   0.49993488   -9.0261524    529.84542 0.0093014083 0.0076828918            5 
 4748000   0.48868732    -9.051671    529.17161  0.009287623 0.0076802046            9 
 4749000   0.48771279   -9.0356903     530.0178 0.0093005158 0.0076775193           13 
 4750000    0.4901776   -9.0545244    528.97754 0.0092803077 0.0076748366            9 
 4751000   0.48423118   -9.0589289    529.15219 0.0092814178 0.0076721509            5 
 4752000   0.49194578   -9.0384957    529.42375 0.0092842268 0.0076694691            4 
 4753000   0.49834571   -9.0541632    529.09731 0.0092765501 0.0076667867           15 
 4754000   0.48660324   -9.0351968    529.68133 0.0092848362 0.0076641077            6 
 4755000   0.49201697   -9.0505639    528.69433 0.0092655859 0.0076614326            8 
 4756000   0.49225605    -9.038976     529.4774 0.0092773584 0.0076587561           11 
 4757000    0.4838938   -9.0455563    529.43788 0.0092747158 0.0076560798           10 
 4758000    0.4925023   -9.0329385    529.70199 0.0092773922 0.0076534046            3 
 4759000   0.48698958   -9.0399594    528.62806 0.0092566376  0.007650729            5 
 4760000   0.49680596   -9.0358867    529.64804 0.0092725498  0.007648057            3 
 4761000    0.4918789   -9.0464095    529.33744 0.0092651655   0.00764539            4 
 4762000   0.49276928   -9.0464827    529.45284 0.0092652394 0.0076427213            5 
 4763000   0.48664004   -9.0402316    529.38195 0.0092620538 0.0076400498            7 
 4764000     0.483689   -9.0305294    529.60484 0.0092640085 0.0076373827            5 
 4765000   0.49204266   -9.0469045    528.14482 0.0092365307 0.0076347159            5 
 4766000   0.49584027   -9.0542224    529.26145 0.0092541168 0.0076320512            8 
 4767000   0.48236244   -9.0322631    529.75186 0.0092607485 0.0076293875            6 
 4768000   0.49010834   -9.0477677      529.263 0.0092502622 0.0076267244            4 
 4769000   0.48401359   -9.0463725    529.02391 0.0092441446 0.0076240654            6 
 4770000   0.49242841   -9.0343953    529.07953 0.0092431784 0.0076214076            5 
 4771000   0.49022623    -9.045427    529.07603 0.0092411799 0.0076187515            6 
 4772000   0.48820091   -9.0570123    529.23364 0.0092419957 0.0076160938           13 
 4773000   0.48224813   -9.0497815    529.46391 0.0092440798 0.0076134375            8 
 4774000   0.49384312   -9.0435399    528.69678 0.0092287526 0.0076107807            7 
 4775000   0.48480242   -9.0392148    528.82825 0.0092291143 0.0076081264            5 
 4776000   0.48094077   -9.0533853    529.23711 0.0092343158 0.0076054721            5 
 4777000   0.48818456    -9.054378    528.78684 0.0092245279 0.0076028178            6 
 4778000   0.49312155   -9.0580382    528.97509 0.0092258805 0.0076001644            4 
 4779000   0.48896781   -9.0392155    528.67882 0.0092187839  0.007597515            7 
 4780000   0.49336144    -9.020044    529.53131 0.0092317174 0.0075948662            6 
 4781000   0.49862494   -9.0648026    528.28961 0.0092081434  0.007592218            9 
 4782000   0.48323931   -9.0403923     528.6685 0.0092128206 0.0075895699            8 
 4783000   0.48673923   -9.0374184      530.179 0.0092372117 0.0075869252            7 
 4784000   0.48378609   -9.0575419    528.91707 0.0092132989 0.0075842806            4 
 4785000   0.48868306   -9.0511222    528.56293  0.009205206 0.0075816373            5 
 4786000   0.48698416   -9.0441634    529.06543 0.0092120321 0.0075789962           14 
 4787000   0.48685759   -9.0402344    529.64964 0.0092202779 0.0075763556            5 
 4788000   0.47554119   -9.0423223     529.0125 0.0092072629  0.007573716            9 
 4789000   0.49050764   -9.0522698    528.42249 0.0091950735 0.0075710789           12 
 4790000   0.48084385   -9.0563841    529.58366 0.0092133553 0.0075684422           14 
 4791000   0.47147977   -9.0590131    528.76311 0.0091971597 0.0075658074            8 
 4792000   0.48325261   -9.0668521     528.5728  0.009191931 0.0075631737            5 
 4793000   0.49344332   -9.0490776    528.57376 0.0091900299 0.0075605422            7 
 4794000   0.48394431   -9.0619173    527.79741 0.0091746178  0.007557911            4 
 4795000   0.48833139   -9.0495173      529.073 0.0091948731 0.0075552797            6 
 4796000   0.49029261   -9.0536459    529.60214 0.0092021501 0.0075526508           10 
 4797000   0.49073193   -9.0482299    528.67266 0.0091840848 0.0075500242            5 
 4798000   0.48981597   -9.0630218     528.9244 0.0091865431 0.0075473979            8 
 4799000   0.48839358   -9.0656446    529.34248 0.0091918886 0.0075447731           16 
 4800000   0.48073647   -9.0435438     528.2984 0.0091718472 0.0075421504            7 
 4801000   0.48405736   -9.0637862    528.56973 0.0091746464 0.0075395253            7 
 4802000   0.47080781   -9.0702292    528.66041 0.0091743095 0.0075369049           10 
 4803000   0.48470493   -9.0514553    528.99667 0.0091782337 0.0075342833           14 
 4804000   0.49002362   -9.0465774     529.0708  0.009177609  0.007531664            3 
 4805000   0.47884792   -9.0548093    528.38013 0.0091637206 0.0075290464           10 
 4806000   0.48197419   -9.0685362    528.64354 0.0091663813 0.0075264286           11 
 4807000    0.4822488   -9.0361031     528.3259 0.0091589678 0.0075238111           13 
 4808000   0.48607196   -9.0468384    528.20989 0.0091550522 0.0075211946            7 
 4809000   0.48181289   -9.0676017    528.64293 0.0091606525 0.0075185786           14 
 4810000   0.48264508   -9.0437142    528.97343 0.0091644738 0.0075159642            5 
 4811000   0.48490578    -9.045481    528.76164 0.0091589005 0.0075133518            6 
 4812000    0.4859639     -9.04987    528.94115 0.0091601058 0.0075107408            6 
 4813000   0.47378146   -9.0552674    527.94375 0.0091409333 0.0075081281           15 
 4814000   0.47892472     -9.05893    529.59158 0.0091675595 0.0075055188            6 
 4815000   0.47370279   -9.0632638    528.88059 0.0091533504 0.0075029109            9 
 4816000   0.47631148   -9.0548893    528.82916 0.0091505599 0.0075003026            8 
 4817000   0.47245017    -9.048402    527.75762 0.0091301228 0.0074976966            3 
 4818000   0.48556704   -9.0607525    528.78736 0.0091460385 0.0074950909            5 
 4819000   0.47585838   -9.0551787    529.65568 0.0091591562 0.0074924888           10 
 4820000   0.47359207   -9.0714101    528.86744  0.009143628 0.0074898859            6 
 4821000   0.48168708   -9.0539844    528.39191 0.0091335115 0.0074872831            8 
 4822000   0.47366781   -9.0600114    528.37796 0.0091313763 0.0074846821            8 
 4823000   0.47580754   -9.0610142    528.31468 0.0091283897 0.0074820822            8 
 4824000   0.48785994   -9.0594994    529.11434 0.0091403114 0.0074794857            6 
 4825000   0.48490426   -9.0642236     529.3992 0.0091433368 0.0074768879            7 
 4826000   0.46493822   -9.0526696    529.03297 0.0091351182 0.0074742937           14 
 4827000   0.47696113   -9.0835239    528.08434 0.0091168487 0.0074716988            5 
 4828000   0.48558182   -9.0584127    527.94213 0.0091125056  0.007469105            7 
 4829000   0.48175384   -9.0468474    528.41885 0.0091188454  0.007466513            7 
 4830000   0.47512424   -9.0486192    528.29413 0.0091148055 0.0074639215            8 
 4831000   0.47099613   -9.0523834    528.11776 0.0091098765 0.0074613322           12 
 4832000   0.48096573   -9.0644491    528.99552 0.0091231291 0.0074587458            9 
 4833000     0.485485   -9.0686279    528.13716 0.0091064411 0.0074561605            7 
 4834000   0.46904621    -9.073031    528.24268 0.0091063764 0.0074535757           10 
 4835000   0.48344891   -9.0579206    528.50184 0.0091089597 0.0074509923           13 
 4836000   0.48401545   -9.0691445    528.62069 0.0091091242 0.0074484084           13 
 4837000   0.47378419   -9.0596839    528.94307 0.0091127949  0.007445826            5 
 4838000   0.49032164   -9.0578343    529.23803  0.009115992 0.0074432456           11 
 4839000   0.47489738   -9.0776608    528.68223 0.0091045365 0.0074406648            5 
 4840000   0.47918694    -9.057404    529.19545 0.0091114919 0.0074380876            5 
 4841000   0.47756114   -9.0625112    528.44032 0.0090966108 0.0074355081            7 
 4842000   0.47318074   -9.0510716    528.57077 0.0090969773 0.0074329325            9 
 4843000   0.46458067   -9.0567864    528.84727 0.0090998566 0.0074303587           14 
 4844000   0.47001374   -9.0566204    528.69047 0.0090952807 0.0074277858            7 
 4845000    0.4849622   -9.0635074    528.95744 0.0090979953 0.0074252126            8 
 4846000   0.48754661   -9.0485485    528.35061 0.0090856825 0.0074226416           11 
 4847000   0.47693391   -9.0736629    528.70233 0.0090898551 0.0074200716            6 
 4848000   0.46593046    -9.069021    529.02866 0.0090935895 0.0074175028            5 
 4849000   0.47613398   -9.0707873    529.14793 0.0090937638 0.0074149334           14 
 4850000   0.47140164   -9.0652477    528.36528 0.0090784412 0.0074123665            7 
 4851000   0.47729345   -9.0661933    527.75728 0.0090661251 0.0074098002           13 
 4852000   0.48806411   -9.0738123    529.08928 0.0090871338 0.0074072352            5 
 4853000   0.48025514   -9.0693324    529.08698 0.0090852218 0.0074046703            5 
 4854000   0.46679717   -9.0736551    528.49155 0.0090731278 0.0074021071            9 
 4855000   0.46945194   -9.0785602    528.36857 0.0090691481 0.0073995441            4 
 4856000   0.47252476    -9.061577    527.80412  0.009057594 0.0073969832            9 
 4857000   0.48029093   -9.0647888    528.57372 0.0090689335 0.0073944231            6 
 4858000   0.48178653   -9.0559375    528.10267 0.0090589863 0.0073918656            8 
 4859000   0.46721153   -9.0662437    528.25225 0.0090596874 0.0073893097            8 
 4860000    0.4742526   -9.0772493    529.08468 0.0090720967 0.0073867533           10 
 4861000   0.47242629   -9.0758861     528.1821 0.0090547572  0.007384198            9 
 4862000    0.4943151   -9.0704074    527.37858 0.0090391227 0.0073816455           10 
 4863000   0.47809247   -9.0550683     529.1633 0.0090678474 0.0073790951            9 
 4864000   0.48155284   -9.0695557    528.09909 0.0090477504 0.0073765469            9 
 4865000   0.47555729   -9.0778504    529.08308 0.0090627454 0.0073739982            6 
 4866000   0.46893773   -9.0743887    527.82582 0.0090393517 0.0073714489            9 
 4867000   0.45994495   -9.0717293    528.30185  0.009045645 0.0073688998            6 
 4868000   0.48066645   -9.0731941    528.68366 0.0090503228  0.007366352            5 
 4869000    0.4841875   -9.0715114    528.16567 0.0090395986 0.0073638051           13 
 4870000   0.47016532   -9.0599369    528.93769  0.009050953 0.0073612618            7 
 4871000   0.47494368   -9.0966919     527.9544 0.0090322727 0.0073587205            9 
 4872000   0.48365154   -9.0649744    528.56199 0.0090408112 0.0073561797            8 
 4873000   0.47316037   -9.0718439    528.65561 0.0090405569 0.0073536411            5 
 4874000   0.47172249   -9.0764688    527.68108   0.00902204 0.0073511022           11 
 4875000   0.46676316    -9.070606    528.00749  0.009025769 0.0073485639            7 
 4876000   0.48050399   -9.0686153    528.86917 0.0090386445 0.0073460279           10 
 4877000   0.47599859   -9.0899224     528.5319 0.0090310282 0.0073434906            6 
 4878000   0.46861147   -9.0837439    528.82967 0.0090342638 0.0073409553            6 
 4879000   0.47019202   -9.0729836    527.73042 0.0090136371 0.0073384221            8 
 4880000   0.47349463   -9.0714881    528.48584 0.0090246899 0.0073358902            7 
 4881000   0.46705422   -9.0829906     528.2659 0.0090190859 0.0073333595           13 
 4882000   0.47252241   -9.0635034    528.68014 0.0090243094 0.0073308306            9 
 4883000   0.47941705    -9.061905    528.16292 0.0090136345 0.0073283013           10 
 4884000   0.47507459   -9.0845818    528.23919 0.0090130901 0.0073257731            7 
 4885000   0.47239405   -9.0796059    528.02817 0.0090076453 0.0073232449            4 
 4886000   0.47718378   -9.0712395     528.6355 0.0090161601 0.0073207191            8 
 4887000   0.46971744   -9.0637396    528.33016 0.0090091085  0.007318193            7 
 4888000   0.47039694   -9.0596792    528.66461 0.0090129673 0.0073156703            8 
 4889000     0.472846    -9.078259    528.62663 0.0090104765 0.0073131488            9 
 4890000   0.47110423   -9.0753694    527.84495 0.0089953127 0.0073106269            3 
 4891000   0.46855239   -9.0748678    528.25405 0.0090004439 0.0073081075           11 
 4892000   0.47061306   -9.0604439    528.17757 0.0089973012 0.0073055891           12 
 4893000   0.45952329   -9.0878452    528.18004 0.0089955045 0.0073030704            8 
 4894000   0.46223568   -9.0665525    527.72427 0.0089859056 0.0073005522           15 
 4895000   0.46477375   -9.0866817    528.43685  0.008996201 0.0072980354            7 
 4896000   0.46879903   -9.0766656    528.37544 0.0089933183 0.0072955225           10 
 4897000   0.46655439   -9.0633722    527.91926 0.0089837189 0.0072930103           10 
 4898000   0.46843791   -9.0901782    528.24378 0.0089874062 0.0072904973            7 
 4899000   0.47052575   -9.0807193    527.19054 0.0089676557 0.0072879846            4 
 4900000   0.47127323   -9.0863754    528.40528 0.0089864844 0.0072854735           13 
 4901000   0.47284518    -9.069704    527.61814 0.0089712667  0.007282964           11 
 4902000   0.47141364   -9.0739597    528.31247 0.0089812402 0.0072804539            6 
 4903000   0.46161527    -9.063429    528.98988 0.0089909219 0.0072779452            7 
 4904000   0.47403941   -9.0718981      527.247 0.0089594719 0.0072754391           16 
 4905000   0.45558695   -9.0887619    528.33296 0.0089760951 0.0072729332            7 
 4906000   0.47321982   -9.0674738    528.60691 0.0089789188 0.0072704291            7 
 4907000   0.47144767   -9.0805915    528.65505 0.0089779066 0.0072679265            9 
 4908000   0.45023823    -9.052739    528.51534 0.0089737052 0.0072654259            5 
 4909000   0.47606719    -9.071865    528.51265 0.0089718315 0.0072629278            8 
 4910000   0.46594731   -9.0788062    528.14497 0.0089637639 0.0072604306           14 
 4911000    0.4663368    -9.061938    528.52576 0.0089684001 0.0072579321            4 
 4912000   0.46169817   -9.0785203    527.58363 0.0089505909 0.0072554358           11 
 4913000    0.4776263   -9.0728309    529.12489 0.0089749117 0.0072529397            6 
 4914000   0.46922321   -9.0701622    528.99386 0.0089708632 0.0072504469           10 
 4915000   0.46405749   -9.0771338    528.05788 0.0089531686 0.0072479551           13 
 4916000   0.46055526   -9.0774519    528.58694 0.0089603156 0.0072454626            5 
 4917000   0.46183138   -9.0772351    528.22533 0.0089523648 0.0072429732            9 
 4918000   0.46203933    -9.087359    527.48848 0.0089380589 0.0072404818           10 
 4919000   0.47302436   -9.0899275    527.57337 0.0089376799 0.0072379922            6 
 4920000   0.45712302   -9.0944561    528.00419 0.0089431604 0.0072355028           10 
 4921000   0.46989684   -9.0698097    527.79602 0.0089378179 0.0072330133           17 
 4922000   0.46206099   -9.0750197    528.16708 0.0089422842 0.0072305286            3 
 4923000   0.46013225   -9.0853208    527.80665 0.0089343667 0.0072280431           10 
 4924000   0.46045395   -9.0633204     528.5369  0.008944911 0.0072255592            7 
 4925000   0.47362916   -9.0713008     527.7796 0.0089302808 0.0072230768            7 
 4926000    0.4659201   -9.0869131    527.92014 0.0089308455 0.0072205958            8 
 4927000   0.46597695   -9.0977709    528.05301 0.0089312802 0.0072181157            4 
 4928000   0.46295382   -9.0772234    527.03676 0.0089122828 0.0072156353            9 
 4929000   0.45516806   -9.0756761    528.30882 0.0089319811 0.0072131589            9 
 4930000   0.46119475   -9.0842182     527.4505  0.008915661 0.0072106792            8 
 4931000   0.46020206   -9.0914971    528.07741 0.0089244475 0.0072082026            7 
 4932000   0.45777526   -9.0867763    527.58472 0.0089143133 0.0072057268            7 
 4933000   0.45860515   -9.0874231    527.84056 0.0089168281 0.0072032535           10 
 4934000   0.47006275    -9.065554    528.10172 0.0089194318 0.0072007817            7 
 4935000   0.45104493   -9.0917058    527.96103 0.0089152487 0.0071983098           12 
 4936000   0.45851008    -9.085443    528.22094 0.0089178306 0.0071958392           10 
 4937000   0.45735929   -9.0789299    527.97975  0.008911953 0.0071933701            4 
 4938000   0.46473613   -9.0911346    527.51535 0.0089023112 0.0071909036            9 
 4939000   0.46362111   -9.0918483    528.23751 0.0089126933 0.0071884369            8 
 4940000   0.45917034    -9.097542    528.53045 0.0089158309 0.0071859721            8 
 4941000   0.45748789   -9.0888017    528.22938 0.0089089486 0.0071835077           17 
 4942000   0.46439931   -9.0743625    527.50339  0.008894904 0.0071810431            7 
 4943000   0.45836382   -9.0944417    528.07617 0.0089027609 0.0071785799            8 
 4944000   0.44648741   -9.1080539    527.78811 0.0088961049 0.0071761175            4 
 4945000   0.46583653   -9.0983478    528.23882 0.0089019013 0.0071736585           12 
 4946000   0.46266986   -9.0747905    528.61551 0.0089064481 0.0071711995            9 
 4947000   0.46048161   -9.0881899    527.93853 0.0088932438  0.007168742           13 
 4948000   0.46955745   -9.0820086    527.79019 0.0088889482 0.0071662845           12 
 4949000   0.46929629   -9.0964284    527.82997 0.0088878219 0.0071638292            7 
 4950000   0.45762888   -9.1000077    528.53963 0.0088979735 0.0071613731           11 
 4951000   0.46713736   -9.1011509     527.5663 0.0088797937 0.0071589181            9 
 4952000   0.45449109   -9.0851893    528.09228 0.0088868518 0.0071564658            4 
 4953000   0.45903558   -9.0985939     527.5437 0.0088758278 0.0071540137            7 
 4954000   0.46138269   -9.0870622    528.07192 0.0088829215 0.0071515638           11 
 4955000    0.4632666   -9.1013716    528.40964 0.0088868086 0.0071491133            7 
 4956000   0.46137551   -9.1002124    527.87431 0.0088760141  0.007146664            6 
 4957000   0.45391327   -9.0919261    527.56751 0.0088690659 0.0071442167            9 
 4958000   0.46276607   -9.0857249    527.62999 0.0088683271 0.0071417705            7 
 4959000   0.45310254   -9.1018417    527.90953 0.0088712363 0.0071393253           10 
 4960000   0.45873393   -9.0951134    527.06796 0.0088553085 0.0071368807            9 
 4961000   0.45355859   -9.0982596    527.88455 0.0088672403 0.0071344368            6 
 4962000    0.4540568   -9.0878026    527.63084 0.0088611924 0.0071319946            6 
 4963000   0.46142417   -9.1027822    528.22719 0.0088694202 0.0071295527            6 
 4964000   0.45827807   -9.0965385     527.1131 0.0088489306  0.007127112            5 
 4965000   0.45099529    -9.107499    528.36474  0.008868156 0.0071246725            7 
 4966000   0.45522726   -9.0842135    527.58342 0.0088532591 0.0071222331            7 
 4967000   0.45258651   -9.0835324    527.56182 0.0088511144  0.007119797            8 
 4968000   0.46374284   -9.0994628    527.97316 0.0088562326  0.007117358            3 
 4969000   0.45675902   -9.0923536     527.8598 0.0088525492 0.0071149225            5 
 4970000   0.44700345   -9.1010718    527.80856 0.0088499088 0.0071124881            8 
 4971000   0.47054468   -9.0919701    527.13813 0.0088368895 0.0071100546            9 
 4972000   0.45444393   -9.0938695    527.83147 0.0088467328 0.0071076232            4 
 4973000   0.44334492   -9.0950388     527.4607 0.0088387409 0.0071051915            9 
 4974000   0.45960306    -9.097658    528.47417 0.0088539433 0.0071027636            9 
 4975000    0.4549774   -9.0916514    528.22682 0.0088480205 0.0071003335           13 
 4976000   0.44901749   -9.0818396    528.08094 0.0088437993 0.0070979076           17 
 4977000   0.45011807    -9.100186    528.03605 0.0088412707 0.0070954813            7 
 4978000   0.44657658    -9.092766    527.42223 0.0088292191 0.0070930556           11 
 4979000    0.4567096   -9.0939203    527.60115 0.0088304404 0.0070906319            6 
 4980000   0.44653013   -9.0962949    527.59094 0.0088284963 0.0070882106            9 
 4981000   0.46433229   -9.0949156     527.5179 0.0088255019 0.0070857897            6 
 4982000   0.45490854   -9.0840243    527.68786 0.0088265733   0.00708337            6 
 4983000   0.45395414   -9.0771146    527.37802 0.0088196203 0.0070809516           10 
 4984000   0.45566983   -9.0907241    527.80019 0.0088249096 0.0070785353            8 
 4985000    0.4575762   -9.0937154    527.26883 0.0088142566 0.0070761189           15 
 4986000   0.45463079   -9.0988453    528.03143 0.0088252346 0.0070737021            9 
 4987000   0.44888244   -9.0975708    528.05212 0.0088238105 0.0070712882            3 
 4988000   0.45062257   -9.0929794    527.35182 0.0088103418 0.0070688754           12 
 4989000    0.4592256   -9.0870992    527.83137 0.0088165859  0.007066462            6 
 4990000   0.45506858   -9.0930082    527.59417  0.008810858 0.0070640506            7 
 4991000   0.44583697   -9.0974076    527.53218 0.0088080574 0.0070616412            8 
 4992000   0.45473509   -9.1021332    527.68674 0.0088088733 0.0070592325            8 
 4993000   0.44342669   -9.0978063    526.94335 0.0087947017 0.0070568227           11 
 4994000    0.4503693   -9.0863273    527.66578 0.0088049957 0.0070544137           11 
 4995000   0.46150058   -9.0909092    527.88789 0.0088069384 0.0070520079           11 
 4996000   0.45208961   -9.0951479    527.99429 0.0088069504 0.0070496033            7 
 4997000   0.44855369   -9.1057093    527.91126 0.0088038032 0.0070472022           12 
 4998000   0.45469998   -9.1118987    528.07456 0.0088047645 0.0070447985           10 
 4999000   0.45158532   -9.1015155    526.97498 0.0087846733 0.0070423954            8 
 5000000   0.45089454   -9.1026291    527.37306 0.0087895511 0.0070399946            3 
 5001000   0.44988214   -9.1036585    528.43429  0.008805477 0.0070375938            8 
 5002000   0.44968993   -9.1020897    528.28064 0.0088011568 0.0070351932            6 
 5003000   0.46024226   -9.1066159    528.04736 0.0087955119 0.0070327953            6 
 5004000   0.45025075   -9.1196689    527.47057 0.0087841489 0.0070303987            7 
 5005000   0.45374913    -9.100606    527.62323 0.0087849356 0.0070280018            6 
 5006000    0.4484078   -9.1053451    527.17145   0.00877566 0.0070256058            8 
 5007000   0.45275237   -9.1036829    527.75788 0.0087836675  0.007023212            3 
 5008000   0.44458639   -9.1043702    528.02285 0.0087863227 0.0070208218            8 
 5009000   0.44212558   -9.0983694    527.92258 0.0087829005 0.0070184304            9 
 5010000   0.44909023   -9.0972826    527.90939  0.008780928 0.0070160417           12 
 5011000   0.45348262   -9.1132298    527.45202 0.0087715695 0.0070136537           11 
 5012000   0.45314427   -9.1045815    527.89559 0.0087771945  0.007011265            5 
Loop time of 12479.5 on 48 procs for 5000000 steps with 4000 atoms

Performance: 69233.426 tau/day, 400.656 timesteps/s
99.4% CPU use with 48 MPI tasks x no OpenMP threads

MPI task timing breakdown:
Section |  min time  |  avg time  |  max time  |%varavg| %total
---------------------------------------------------------------
Pair    | 861.64     | 913.27     | 962.55     |  87.6 |  7.32
Neigh   | 82.704     | 86.717     | 91.09      |  23.3 |  0.69
Comm    | 792.62     | 849.94     | 907.1      | 102.8 |  6.81
Output  | 13.938     | 13.943     | 14.036     |   0.4 |  0.11
Modify  | 10477      | 10503      | 10529      |   9.7 | 84.16
Other   |            | 112.4      |            |       |  0.90

Nlocal:        83.3333 ave          88 max          77 min
Histogram: 1 3 3 1 6 8 11 8 5 2
Nghost:        2241.19 ave        2258 max        2225 min
Histogram: 1 4 6 8 6 5 10 5 1 2
Neighs:        15041.3 ave       16391 max       13422 min
Histogram: 2 2 0 7 11 5 7 11 2 1
FullNghs:      30082.3 ave       31869 max       27585 min
Histogram: 1 1 5 1 5 10 12 6 5 2

Total # of neighbors = 1443952
Ave neighs/atom = 360.98800
Neighbor list builds = 266617
Dangerous builds = 0

#clear
#
#next RN
#
#jump SELF
Total wall time: 3:28:03
