
units lj                  # Use reduced LJ style units
atom_style atomic         # Uncharged point particles
atom_modify map hash      # Needed for indexing of clusters etc
                          # Used to be able to find where atoms are in relation to each other.

lattice fcc 1.0 spacing 1 1 1
Lattice spacing in x,y,z = 1.5874011 1.5874011 1.5874011
region box block 0 10 0 10 0 10 units lattice
create_box 2 box
Created orthogonal box = (0.0000000 0.0000000 0.0000000) to (15.874011 15.874011 15.874011)
  3 by 4 by 4 MPI processor grid
create_atoms 1 box
Created 4000 atoms
  using lattice units in orthogonal box = (0.0000000 0.0000000 0.0000000) to (15.874011 15.874011 15.874011)
  create_atoms CPU = 0.036 seconds
set type 1 type/fraction 2 0.09 78393
Setting atom values ...
  390 settings made for type/fraction
mass 1 1.0
mass 2 1.0
pair_style lj/cut  3.5
pair_modify tail  yes
pair_coeff 1  1  1.0  1.0   # Intearaction between 1 and 1 set with epsilon = 1 and sigma = 1
pair_coeff 1  2  1.5  0.8
pair_coeff 2  2  0.5  0.88

write_data data.0
System init for write_data ...
Neighbor list info ...
  update every 1 steps, delay 10 steps, check yes
  max neighbors/atom: 2000, page size: 100000
  master list distance cutoff = 3.8
  ghost atom cutoff = 3.8
  binsize = 1.9, bins = 9 9 9
  1 neighbor lists, perpetual/occasional/extra = 1 0 0
  (1) pair lj/cut, perpetual
      attributes: half, newton on
      pair build: half/bin/atomonly/newton
      stencil: half/bin/3d
      bin: standard
WARNING: Not all mixed pair coeffs generated from mixing. Use write_data with 'pair ij' option to store all pair coeffs. (../write_data.cpp:312)


#############################
#   M E L T   S Y S T E M   #
#############################

velocity all create 2.4 6229865 mom yes dist gaussian # Assign velocities
                                                    # Temperature 2.4, random number seed, zero linear momentum
                                                                                # Gaussian distribution

timestep 0.002   # simulation timestep
thermo 1000       # output thermodynamic data every 1000 steps bf 100

# Define a fix  in this case with index 1 applied to all
# particles in the simulation. This fix is for simulations
# in the anisotropic NPT ensemble. Note that we use the MTK
# correction.
fix 1 all npt temp 2.4 2.4 0.1 iso 5.68 5.68 0.5 mtk yes tchain 5 pchain 5 # Use NPT ensemble
                                                                         # Set temperature and pressure and damping
                                                                         # Numbers of thermostats in chain and in barostat
run 10000          # run for 10000 steps
Per MPI rank memory allocation (min/avg/max) = 3.642 | 3.644 | 3.648 Mbytes
Step Temp E_pair E_mol TotEng Press Volume 
       0          2.4   -7.7460071            0   -4.1469071   -2.9736732         4000 
    1000    2.4108628   -4.5703714            0  -0.95498127    5.7057209    4882.7465 
    2000     2.456414   -4.5333721            0  -0.84967221    5.9145081    4869.6525 
    3000    2.4489395   -4.5589199            0  -0.88642899    5.7841921    4876.9672 
    4000     2.391431   -4.6244308            0   -1.0381811    5.3896129    4890.2265 
    5000    2.4553348   -4.5907129            0  -0.90863148    6.0718212    4828.4215 
    6000    2.4080142   -4.5541619            0  -0.94304365    5.9110251    4852.2929 
    7000    2.3828967   -4.6171729            0   -1.0437214    5.8185294    4829.2206 
    8000    2.3729505   -4.6155378            0    -1.057002    5.8527321    4831.7769 
    9000    2.3851314    -4.604439            0   -1.0276364    5.5013634    4882.9968 
   10000    2.4310846   -4.6309515            0   -0.9852362    5.7100836    4842.5579 
Loop time of 2.16789 on 48 procs for 10000 steps with 4000 atoms

Performance: 797088.223 tau/day, 4612.779 timesteps/s
99.7% CPU use with 48 MPI tasks x no OpenMP threads

MPI task timing breakdown:
Section |  min time  |  avg time  |  max time  |%varavg| %total
---------------------------------------------------------------
Pair    | 0.91139    | 0.95436    | 1.073      |   3.1 | 44.02
Neigh   | 0.19133    | 0.19725    | 0.22386    |   1.2 |  9.10
Comm    | 0.65617    | 0.76387    | 0.83868    |   4.7 | 35.24
Output  | 0.00023551 | 0.00024018 | 0.00030334 |   0.0 |  0.01
Modify  | 0.19665    | 0.2379     | 0.28707    |   4.6 | 10.97
Other   |            | 0.01428    |            |       |  0.66

Nlocal:        83.3333 ave          90 max          76 min
Histogram: 1 2 5 7 5 12 3 9 0 4
Nghost:        1442.98 ave        1464 max        1419 min
Histogram: 2 2 2 4 11 9 6 6 4 2
Neighs:        7857.73 ave        8515 max        6966 min
Histogram: 1 3 2 4 7 11 4 6 6 4

Total # of neighbors = 377171
Ave neighs/atom = 94.292750
Neighbor list builds = 907
Dangerous builds = 217

# Equilibrate just above the melting temperature to avoid step fn in T

fix 1 all npt temp 1.25 1.25 0.1 iso 5.68 5.68 0.5 mtk yes tchain 5 pchain 5
run 2000
Per MPI rank memory allocation (min/avg/max) = 3.642 | 3.644 | 3.648 Mbytes
Step Temp E_pair E_mol TotEng Press Volume 
   10000    2.4310846   -4.6309515            0   -0.9852362    5.7100836    4842.5579 
   11000    1.2360675   -6.1584387            0   -4.3048011    5.8948758    4003.1089 
   12000     1.248268   -6.1836459            0    -4.311712    5.6811189    4011.1425 
Loop time of 0.467184 on 48 procs for 2000 steps with 4000 atoms

Performance: 739751.084 tau/day, 4280.967 timesteps/s
99.7% CPU use with 48 MPI tasks x no OpenMP threads

MPI task timing breakdown:
Section |  min time  |  avg time  |  max time  |%varavg| %total
---------------------------------------------------------------
Pair    | 0.20867    | 0.22173    | 0.2456     |   1.5 | 47.46
Neigh   | 0.031372   | 0.032784   | 0.036549   |   0.5 |  7.02
Comm    | 0.14088    | 0.15945    | 0.1801     |   2.3 | 34.13
Output  | 5.2356e-05 | 5.3803e-05 | 6.8688e-05 |   0.0 |  0.01
Modify  | 0.039541   | 0.048721   | 0.057911   |   2.3 | 10.43
Other   |            | 0.004444   |            |       |  0.95

Nlocal:        83.3333 ave          91 max          75 min
Histogram: 1 1 1 13 7 9 9 2 2 3
Nghost:        1641.04 ave        1662 max        1627 min
Histogram: 5 5 8 3 16 0 5 2 2 2
Neighs:        9509.50 ave       10812 max        8511 min
Histogram: 2 2 8 12 7 9 2 2 3 1

Total # of neighbors = 456456
Ave neighs/atom = 114.11400
Neighbor list builds = 142
Dangerous builds = 9

#############################
# L I N E A R  Q U E N C H  #
#############################

# Define solid atoms. This closely follows ten Wolde  Ruiz-Montero and Frenkel  Faraday Discuss  1996  104  93-110
# Compute components of the per-atom q6 vector
compute q6 all orientorder/atom degrees 1 6 components 6 nnn NULL cutoff 1.3 # compute the Q6 parameter.
                                                                             # Use all neighbours within 1.3 unit cell.

# get number of connections
compute coord_number all coord/atom orientorder q6 0.5

# An atom is solid if it has 8 or more connections (of a possible 14)
variable is_solid atom c_coord_number>=8
group solid dynamic all var is_solid    # Must be dynamic to update
dynamic group solid defined

# do clustering
compute cluster solid cluster/atom 1.3 # Create a cluster where all atoms within are solid and max 1.3 units from another member

# define chunks one chunk per cluster
compute clus_chunks solid chunk/atom c_cluster nchunk every compress yes  # Says which atoms are in which chunk

# count the size of each chunk
compute size_chunks solid property/chunk clus_chunks count


# Find the maximum entry in the vector of chunk sizes
variable max_n equal max(c_size_chunks)


# Thermo style which includes this variable
# thermo_style custom step temp pe vol v_max_n

thermo ${N}  # Print the thermo information every 100 steps
thermo 1000  

# Reset the npt fix at a lower temperature (below freezing)
fix 1  all npt temp  ${temp} ${temp}  0.1  iso  5.68  5.68  0.5  mtk yes tchain  5  pchain  5
fix 1  all npt temp  0.45 ${temp}  0.1  iso  5.68  5.68  0.5  mtk yes tchain  5  pchain  5
fix 1  all npt temp  0.45 0.45  0.1  iso  5.68  5.68  0.5  mtk yes tchain  5  pchain  5

dump dmp2 all dcd ${N} traj.dcd
dump dmp2 all dcd 1000 traj.dcd


compute msd all msd com yes
variable twopoint equal c_msd[4]/6/(step*dt+1.0e-6)
fix 9 all vector 10 c_msd[4]
variable fit equal slope(f_9)/6/(10*dt)
thermo_style custom step temp pe c_msd[4] v_twopoint v_fit v_max_n

fix 1 all npt temp 1.25 ${temp} 0.1 iso 5.68 5.68 0.5 mtk yes tchain 5 pchain 5
fix 1 all npt temp 1.25 0.45 0.1 iso 5.68 5.68 0.5 mtk yes tchain 5 pchain 5
run 5000000 # 5000000  # Run for this many steps
Neighbor list info ...
  update every 1 steps, delay 10 steps, check yes
  max neighbors/atom: 2000, page size: 100000
  master list distance cutoff = 3.8
  ghost atom cutoff = 3.8
  binsize = 1.9, bins = 9 9 9
  4 neighbor lists, perpetual/occasional/extra = 1 3 0
  (1) pair lj/cut, perpetual
      attributes: half, newton on
      pair build: half/bin/atomonly/newton
      stencil: half/bin/3d
      bin: standard
  (2) compute orientorder/atom, occasional
      attributes: full, newton on
      pair build: full/bin/atomonly
      stencil: full/bin/3d
      bin: standard
  (3) compute coord/atom, occasional
      attributes: full, newton on
      pair build: full/bin/atomonly
      stencil: full/bin/3d
      bin: standard
  (4) compute cluster/atom, occasional
      attributes: full, newton on
      pair build: full/bin/atomonly
      stencil: full/bin/3d
      bin: standard
Per MPI rank memory allocation (min/avg/max) = 9.749 | 9.753 | 9.757 Mbytes
Step Temp PotEng c_msd[4] v_twopoint v_fit v_max_n 
   12000     1.248268   -6.1836459 7.8886091e-34 5.4782005e-36 8.3333333e+20            3 
   13000    1.2474869   -6.1539422   0.56745723 0.0036375462  0.046675941            2 
   14000    1.2618452      -6.2122    1.0994749  0.006544493  0.045264271            2 
   15000    1.2762079    -6.211731    1.6456146 0.0091423028  0.044688915            4 
   16000    1.2375726   -6.1620909    2.2088616  0.011504487  0.045268725            1 
   17000    1.2661783   -6.1788302    2.7420602  0.013441471  0.045603067            3 
   18000    1.2151426   -6.1775255    3.3859429  0.015675661  0.046000858            3 
   19000    1.2475429   -6.1681932     4.022637  0.017643144  0.046931057            2 
   20000    1.2299191   -6.2170913    4.6640534  0.019433555  0.047908273            2 
   21000    1.2636704   -6.1535963    5.2486856  0.020828117  0.048600561            4 
   22000    1.2466814   -6.1557056    5.9547899  0.022556022  0.049196622            3 
   23000     1.275334   -6.1914952    6.5914765  0.023882161  0.049862943            2 
   24000    1.2614429   -6.1693731     7.153114  0.024837201  0.050205475            3 
   25000    1.2532426   -6.1876867    7.6905168  0.025635056   0.05033624            2 
   26000    1.2483839   -6.1746802     8.278654  0.026534147  0.050227442            2 
   27000    1.2710557   -6.1710499    8.7883205  0.027124446  0.050046063            1 
   28000    1.2236433   -6.1736993    9.3410103  0.027800625  0.049875077            1 
   29000    1.2525098   -6.1539443    9.8680336  0.028356418  0.049624101            1 
   30000    1.2354923    -6.164661    10.396762  0.028879894   0.04932433            2 
   31000    1.2195867   -6.1538628    10.952246  0.029441521  0.049040056            1 
   32000    1.2532216   -6.1971492    11.413076   0.02972155  0.048777536            2 
   33000    1.2435142   -6.2402534    11.858685  0.029946174  0.048408874            3 
   34000    1.2552267   -6.1890446    12.322926  0.030203249  0.048008493            2 
   35000    1.2249299   -6.1561541    12.787014  0.030445271  0.047590495            2 
   36000    1.2645299   -6.2163516     13.14227  0.030421921  0.047169201            1 
   37000    1.2716768   -6.1673806    13.669556  0.030787287  0.046723988            2 
   38000    1.2481754   -6.1639198     14.19482  0.031128991  0.046377635            1 
   39000     1.227822   -6.1979306    14.651367   0.03130634  0.046065913            3 
   40000    1.2718899   -6.1924859    15.265782  0.031803713  0.045819974            5 
   41000    1.2577628   -6.2068759    15.894108  0.032305098  0.045648078            3 
   42000    1.2480106   -6.1912363    16.498811  0.032735735  0.045531018            2 
   43000    1.2641441   -6.1903289    17.070547  0.033082455  0.045437625            2 
   44000    1.2323291    -6.179537    17.743878   0.03360583  0.045406436            2 
   45000    1.2724345   -6.1813979    18.147465  0.033606417  0.045358748            2 
   46000      1.21499   -6.2167237    18.590323   0.03367812  0.045291271            6 
   47000    1.2436115   -6.1858817    19.252538  0.034135705  0.045249991            3 
   48000    1.2309822   -6.1576765    19.863401  0.034485071  0.045251838            3 
   49000    1.2591522   -6.1709861     20.41332   0.03471653   0.04525526            2 
   50000    1.2372252   -6.2167255    20.916123  0.034860205  0.045259964            2 
   51000    1.2781732    -6.204459    21.579853  0.035261197   0.04527995            3 
   52000    1.2447458   -6.1707258     21.96454  0.035199584  0.045267256            4 
   53000    1.2429268   -6.1992288    22.534967  0.035432338  0.045240405            3 
   54000    1.2138111   -6.1969948    23.082356   0.03562092  0.045237697            2 
   55000    1.2597269   -6.1903131     23.45792  0.035542302  0.045194702            1 
   56000    1.2371319   -6.1739528    24.126145  0.035902001  0.045179999            2 
   57000     1.251921   -6.1506927    24.728904  0.036153368  0.045153304            4 
   58000     1.235305   -6.1814502    25.206449  0.036216162  0.045136116            3 
   59000    1.2334257   -6.2128106    25.875318  0.036547059  0.045143485            3 
   60000    1.2321173   -6.2196665    26.648345  0.037011591  0.045169611            3 
   61000    1.2306121    -6.172284    27.178596   0.03712923  0.045213176            4 
   62000    1.2444641   -6.1678908    27.739896  0.037284806  0.045268815            5 
   63000    1.2472335   -6.2032543     28.35385  0.037505093  0.045332821            2 
   64000    1.2385178   -6.1760967    28.990751  0.037748373  0.045399329            2 
   65000    1.2383767   -6.1678086    29.654265  0.038018288  0.045467437            3 
   66000    1.2351087   -6.1923795    30.299575  0.038257039  0.045552022            2 
   67000    1.2757446    -6.207678    30.686715  0.038167555  0.045618234            4 
   68000     1.227246    -6.215349    31.254545  0.038302138  0.045678901            3 
   69000    1.2416428   -6.1763302    31.621482  0.038190195  0.045719419            2 
   70000    1.2246487    -6.169157    32.276725  0.038424673  0.045758401            2 
   71000    1.2462222   -6.1970364    32.861501  0.038569837  0.045798126            2 
   72000    1.2486301   -6.1698064    33.184498  0.038407984  0.045805962            5 
   73000    1.2519924   -6.2034587    33.708367  0.038479871  0.045791735            3 
   74000    1.2176761   -6.1979314    34.431528  0.038774243  0.045799695            1 
   75000    1.2195811   -6.1967168    35.070227  0.038966919  0.045822882            1 
   76000    1.2282326   -6.1741387    35.391339  0.038806293  0.045832964            2 
   77000    1.2284728   -6.1981353    35.784966  0.038728317   0.04583369            8 
   78000    1.2560442   -6.1885977    36.227235  0.038704311  0.045815551            1 
   79000    1.2287228   -6.1881509    36.554516  0.038559616  0.045772039            2 
   80000    1.2433043   -6.2195366    37.210048  0.038760467  0.045735519            2 
   81000    1.2174445   -6.2060141    37.870694  0.038961619  0.045714436            3 
   82000    1.2575025   -6.2277307      38.4979  0.039123882  0.045702428            2 
   83000    1.2313577    -6.187901    39.179386  0.039336732  0.045691669            4 
   84000     1.282938   -6.2092949    39.534987  0.039221217  0.045678607            2 
   85000    1.2403726   -6.2074029    40.170815  0.039383152  0.045669142            3 
   86000    1.2176846   -6.1866984    40.654509  0.039393904   0.04566349            1 
   87000    1.2930976    -6.168747    41.137419  0.039403658  0.045646636            2 
   88000    1.2020427   -6.1962875    41.589349  0.039383853  0.045627083            3 
   89000    1.2289284   -6.2197411     42.05706   0.03937927  0.045599937            4 
   90000    1.2116909    -6.202497    42.731963  0.039566632  0.045575184            2 
   91000    1.2454303   -6.2573083    43.515291  0.039849167  0.045576783            5 
   92000    1.2433466   -6.2214846    44.365868  0.040186475    0.0455954            3 
   93000    1.2200345   -6.2213368    44.899895  0.040232881  0.045615297            3 
   94000    1.2409225   -6.2061339     45.40616  0.040253688  0.045633169            4 
   95000    1.2387362   -6.1899351    45.913293  0.040274819  0.045648851            5 
   96000    1.2335204   -6.1747208    46.356343  0.040239881  0.045656013            2 
   97000    1.2678344   -6.2395761    46.722782  0.040139847  0.045655016            2 
   98000     1.224741    -6.188613    47.234223  0.040165155  0.045649425            2 
   99000      1.25451   -6.1723184    47.702315  0.040153464  0.045636953            3 
  100000    1.2461737   -6.2270758    48.001505  0.040001254  0.045617349            4 
  101000      1.25308   -6.1808259    48.766844   0.04023667   0.04560389            3 
  102000    1.2862298   -6.2021238      49.4587  0.040407434  0.045596191            3 
  103000     1.251865   -6.2082009    50.209528  0.040622595  0.045602429            7 
  104000    1.2240273   -6.2184654    50.706767  0.040630422  0.045611906            3 
  105000    1.2467614   -6.2403697    51.115481  0.040567842  0.045619389            2 
  106000    1.2508397   -6.1952736    51.752245  0.040685727  0.045621889            2 
  107000    1.2494485   -6.2242153    52.259695  0.040700697  0.045624505            2 
  108000    1.2302973   -6.2590362    52.922908  0.040835577  0.045626013            7 
  109000    1.2179605    -6.200443    53.428443  0.040847433   0.04563503            2 
  110000    1.2515174   -6.2150974    53.953033   0.04087351  0.045638476            2 
  111000    1.2326961   -6.2390481    54.727964   0.04108706  0.045649751            3 
  112000    1.2307207   -6.2208482    55.181706  0.041057817  0.045663308            4 
  113000    1.2210651   -6.2032785    55.886546  0.041214267  0.045679825            2 
  114000    1.2266941   -6.1877108    56.617603  0.041387137  0.045702862            2 
  115000    1.2388843   -6.2225261    57.367493  0.041570647  0.045725104            1 
  116000    1.2132461   -6.1810246    57.899226  0.041594271  0.045750609            2 
  117000    1.2268003   -6.2414778     58.43142   0.04161782  0.045780094            2 
  118000    1.2215354   -6.2160243    59.380371   0.04193529  0.045814307            3 
  119000    1.2341109   -6.1995976    59.965761  0.041992829  0.045850705            2 
  120000    1.2469781   -6.2022794    60.552721    0.0420505   0.04588967            2 
  121000    1.2317794   -6.2044524    61.267891  0.042195517  0.045927691            3 
  122000    1.2391497   -6.2076907    61.356656  0.041910284  0.045957308            2 
  123000    1.2333943   -6.2091278    62.065457  0.042049767  0.045980873            4 
  124000    1.2420981   -6.1939888    62.472735  0.041984365  0.046001848            3 
  125000    1.2418883    -6.208367    62.815793  0.041877195  0.046011739            3 
  126000     1.245708   -6.1781597    63.826887  0.042213549  0.046030036            3 
  127000    1.2263485   -6.1964947    64.516707  0.042333797  0.046055332            5 
  128000     1.219318   -6.2155258    64.846213  0.042217586  0.046083357            3 
  129000    1.2462241   -6.2281803    65.323651   0.04219874  0.046109311            3 
  130000    1.2307976   -6.2260119    66.042963  0.042335233  0.046136276            2 
  131000    1.2346733   -6.2092885    66.649388  0.042397829  0.046160162            3 
  132000    1.2316962   -6.2119316    67.062028  0.042337139  0.046185162            3 
  133000    1.2495947   -6.2048532    67.775314  0.042465736  0.046208023            3 
  134000    1.2350686   -6.2286492    68.365629  0.042515938  0.046230574            3 
  135000    1.2345865   -6.1926824    68.953254  0.042563737  0.046252588            3 
  136000    1.1960656   -6.1836145    69.537281  0.042608628  0.046277899            2 
  137000     1.221528   -6.2607994    69.887332  0.042510542  0.046296553            2 
  138000    1.2311997    -6.261735    70.138886    0.0423544  0.046305948            3 
  139000    1.2472851   -6.2385782    70.378849  0.042193554  0.046308516            2 
  140000    1.2232959   -6.2282294    70.929519  0.042219951  0.046308889            3 
  141000    1.2431271   -6.2099846    71.511265  0.042264341  0.046304664            1 
  142000    1.2216461   -6.2166942    71.848365  0.042164533  0.046291537            2 
  143000    1.2354672   -6.2152792    72.689807  0.042360027  0.046279296            1 
  144000    1.2391688   -6.2218355    72.788318  0.042122869  0.046264918            3 
  145000     1.206083   -6.2065774    73.486204  0.042233451  0.046249105            3 
  146000    1.2444312   -6.1870746    73.779725  0.042111715  0.046234274            3 
  147000    1.2262908   -6.2152741    74.337996  0.042141721  0.046216154            4 
  148000    1.2178509   -6.2061179    74.919557  0.042184435  0.046201677            2 
  149000    1.2190811   -6.2156439    75.610863  0.042287954  0.046188461            4 
  150000    1.2246331   -6.2057756    75.827483   0.04212638  0.046177593            1 
  151000    1.2117948   -6.2379554    76.554784  0.042248777  0.046165398            2 
  152000    1.1989284   -6.2064206    77.126765   0.04228441  0.046154996            4 
  153000    1.2353632   -6.1969696    77.280521  0.042091787  0.046141844            3 
  154000    1.1900528   -6.2199168    77.758355  0.042077032  0.046122262            2 
  155000    1.2173796   -6.2224597    77.967897  0.041918224  0.046100925            4 
  156000    1.2267173    -6.257201     78.77928  0.042082949  0.046079378            1 
  157000    1.2151578   -6.2454971    79.469313  0.042181164  0.046059225            2 
  158000    1.2165674   -6.2383023    79.791338  0.042084039  0.046037497            3 
  159000    1.2113085   -6.2356882    80.506569  0.042194218  0.046020409            1 
  160000    1.2336149   -6.2470549    81.270179  0.042328218  0.046005276            1 
  161000    1.2142686   -6.2150941    81.662345  0.042268294  0.045990995            3 
  162000    1.2473042   -6.1883053    82.271873  0.042320922  0.045979591            2 
  163000    1.2425008   -6.2042127    82.922878  0.042394109  0.045965543            2 
  164000    1.2257094   -6.2250522    83.195682  0.042274229  0.045954081            2 
  165000    1.2451089   -6.2290646    83.751751  0.042298864  0.045939995            4 
  166000    1.1982317   -6.2341542    83.951975  0.042144565  0.045923597            2 
  167000    1.2490615   -6.1979174    84.868445  0.042349523  0.045908497            2 
  168000    1.2249981   -6.1975714    85.395104  0.042358682  0.045897526            1 
  169000    1.2214997   -6.1941315    86.302894  0.042555667  0.045888024            2 
  170000    1.2258007   -6.1986735    86.910348  0.042603112   0.04588392            6 
  171000    1.2236894   -6.2650052    87.565004  0.042673004  0.045881239            1 
  172000    1.2071066   -6.2507147     88.29922   0.04278063  0.045881272            6 
  173000    1.2077137   -6.2518666    88.902784  0.042824077  0.045881537            3 
  174000    1.2284568   -6.1647774    89.329189  0.042782178  0.045878918            3 
  175000    1.2242774   -6.2517031    89.649979  0.042690466  0.045875575            5 
  176000    1.2174667   -6.2333944    90.320375  0.042765329  0.045869552            2 
  177000    1.2070236   -6.2095422    90.551404  0.042632488  0.045864205            3 
  178000    1.2181594   -6.2360232    90.957968  0.042583318  0.045858543            2 
  179000    1.2331956   -6.2525547    91.690459  0.042686433  0.045855042            2 
  180000    1.2190655   -6.1955942    92.290254  0.042726969  0.045851165            4 
  181000    1.2303412   -6.2283506    92.439047  0.042559414  0.045843526            2 
  182000      1.21169   -6.2318595    92.992333  0.042578907  0.045833574            2 
  183000    1.2099869    -6.210478    93.354104  0.042510976  0.045824131            2 
  184000    1.2319365   -6.2399953    94.480585   0.04279012  0.045816601            2 
  185000    1.2249114   -6.2230494    95.023149   0.04280322  0.045811579            3 
  186000    1.2218357   -6.2421082    95.675717  0.042865464  0.045806057            4 
  187000    1.2133503    -6.214967    95.874076  0.042724633  0.045801112            2 
  188000    1.2216027   -6.2361691    96.793138   0.04290476  0.045797036            3 
  189000    1.2041482   -6.1856965    97.449941  0.042967346  0.045794353            3 
  190000    1.2211266   -6.2077699     98.15063  0.043048522  0.045791652            2 
  191000    1.2245098   -6.2326198    98.058757  0.042783052  0.045788988            2 
  192000    1.2107565   -6.2317377    99.061335  0.042995371   0.04578263            3 
  193000    1.2433976   -6.2954972    99.250631  0.042854331  0.045778868            3 
  194000    1.2452632   -6.2086348    99.671043  0.042814022   0.04577285            3 
  195000    1.2188374   -6.2656389    100.03348   0.04274935  0.045766154            2 
  196000    1.2252604   -6.2468594    101.07595  0.042974469  0.045762283            2 
  197000    1.2116943   -6.2458187    101.90879  0.043108624  0.045762603            3 
  198000    1.2294872   -6.2574802    102.12465  0.042981755  0.045762729            3 
  199000    1.2264513    -6.253964    102.67926  0.042998017  0.045762181            2 
  200000     1.219292   -6.2287889    103.28464  0.043035268  0.045760683            4 
  201000    1.2051158   -6.2344916    104.01834  0.043125347  0.045758125            2 
  202000    1.2073877   -6.2549981     104.4179  0.043076693  0.045755973            3 
  203000     1.215839   -6.2505074     104.9524  0.043083909  0.045752828            2 
  204000    1.1858102   -6.1902495    105.99081  0.043296899  0.045749511            2 
  205000    1.2044929   -6.2642654    106.23031  0.043183051  0.045748168            9 
  206000    1.2326557   -6.1849039    106.77407  0.043193394   0.04574169            2 
  207000    1.2309333   -6.2333096    106.95437  0.043057316  0.045737087            3 
  208000    1.2315613   -6.2177818    107.39153  0.043025452  0.045731087            2 
  209000      1.22092   -6.2384878    107.93956  0.043038101  0.045723536            2 
  210000    1.2176338   -6.2332842    108.14658  0.042915311  0.045716664            2 
  211000    1.2193813   -6.2521811    108.80117  0.042970447  0.045708874            2 
  212000    1.2491318   -6.2317016    108.93733  0.042821278  0.045698312            5 
  213000    1.2176331    -6.240789    109.70638  0.042921118  0.045686299            3 
  214000    1.2162586   -6.2633145      110.235    0.0429264   0.04567767            2 
  215000    1.2241938   -6.2151714    110.57472  0.042858419  0.045667697            1 
  216000    1.2411165   -6.2158243    111.33274  0.042952445  0.045657454            1 
  217000    1.1868223   -6.2299443    112.12044  0.043057005  0.045650377            2 
  218000    1.1886661    -6.238392     112.6384  0.043057491  0.045642541            2 
  219000    1.2152012   -6.2268874    113.26616  0.043099756   0.04563571            3 
  220000    1.2204759   -6.2434918    113.87839  0.043135752  0.045629088            3 
  221000    1.2230778   -6.2717017    113.80124   0.04291148  0.045621757            4 
  222000    1.1880444   -6.2199436     114.2733  0.042895384  0.045612487            2 
  223000    1.2074761   -6.2276243    114.47127  0.042777006  0.045598217            2 
  224000    1.2239639   -6.2472295    115.13034  0.042831229  0.045585468            2 
  225000    1.2243172    -6.264474    115.52604  0.042787421    0.0455711            3 
  226000    1.1925635    -6.247779    116.21563  0.042852371  0.045555951            2 
  227000     1.226884   -6.2025704    117.00995  0.042955196  0.045543667            3 
  228000    1.2133867    -6.246232     117.4941  0.042943748  0.045533286            3 
  229000    1.2228206   -6.2430096    118.19053  0.043009655  0.045524028            2 
  230000    1.2075504   -6.2625549    118.96051  0.043101636  0.045515373            2 
  231000    1.2028651   -6.1975623    119.04976  0.042947246  0.045506884            1 
  232000    1.2282667   -6.2481532    119.38283  0.042881764  0.045495303            2 
  233000    1.2508369   -6.2742594    119.67285  0.042801449    0.0454813            2 
  234000    1.2180614   -6.3000942    120.34411  0.042857587  0.045466233            4 
  235000    1.2313381   -6.2507462    120.19984  0.042624055  0.045451621            3 
  236000    1.2224904   -6.2402496    120.67453  0.042611062  0.045432646            3 
  237000    1.2350023   -6.2191662     121.7204  0.042799014  0.045416973            1 
  238000    1.2039202    -6.239497    121.97056  0.042706777  0.045400331            3 
  239000    1.1975708   -6.2437242    122.32741  0.042652512  0.045382728            4 
  240000     1.224772   -6.2603365    122.87541  0.042665072  0.045363849            4 
  241000    1.2014277    -6.250614    123.24611  0.042616219  0.045346755            2 
  242000    1.2054767   -6.1977111    123.71289  0.042600859  0.045327956            2 
  243000    1.2067366   -6.2693177    124.12709  0.042567588   0.04530938            3 
  244000    1.1963621   -6.2198657    124.81229  0.042627147  0.045292515            3 
  245000    1.2045477   -6.2550183    125.41954  0.042659707   0.04527634            4 
  246000    1.2270448   -6.2790689    125.59101   0.04254438  0.045261373            2 
  247000    1.1985549   -6.2541642    126.80348  0.042781201  0.045246446            4 
  248000    1.2381335   -6.2887527    126.91438   0.04264596    0.0452319            3 
  249000    1.1808255   -6.2191457    127.50529  0.042672453  0.045215987            3 
  250000    1.1883992   -6.2181995    128.20201  0.042734004  0.045199776            3 
  251000    1.2080154   -6.2855811      128.033  0.042507635  0.045183064            5 
  252000    1.1989223   -6.2546477    129.17572  0.042716837  0.045166573            2 
  253000    1.2292551   -6.2784739    128.98734  0.042485949  0.045148506            4 
  254000    1.1957755   -6.2770437    129.23571  0.042400169  0.045130002            1 
  255000    1.2069125   -6.2458234     130.1821  0.042543171  0.045110285            4 
  256000    1.2394492     -6.21723    130.76323  0.042566155   0.04509103            2 
  257000     1.207922   -6.2485672    130.55797  0.042333973  0.045071627            3 
  258000    1.2115658   -6.2337717    131.18193  0.042371426  0.045050709            2 
  259000    1.2042807    -6.250751    132.08468  0.042498287  0.045031408            3 
  260000    1.2313164    -6.247746    133.05833    0.0426469  0.045013419            2 
  261000    1.2026964   -6.2619287    132.82813  0.042410004  0.044995041            1 
  262000    1.1973502   -6.2401112    133.80096  0.042557556  0.044976383            3 
  263000     1.222563   -6.2498479    134.32543  0.042561924  0.044958052            2 
  264000    1.2029799   -6.2282413    135.24817  0.042691974  0.044941622            2 
  265000    1.2011397   -6.2946553    134.86185  0.042409387  0.044924495            2 
  266000     1.228312   -6.2315244    135.58108  0.042475274  0.044904808            1 
  267000    1.1931512   -6.2190013    135.95119  0.042431708  0.044885878            2 
  268000    1.1969883   -6.2449296    136.21218  0.042354534  0.044866964            3 
  269000     1.227349   -6.2790356    137.14308  0.042485465  0.044848328            3 
  270000    1.2054689   -6.2791818    137.25571  0.042362872  0.044829041            4 
  271000    1.2159689   -6.2422457    138.63731  0.042631399  0.044811433            4 
  272000    1.2197915   -6.2689899    138.71211  0.042497583   0.04479526            2 
  273000    1.2197031   -6.2586233     139.4943  0.042580677  0.044779285            3 
  274000    1.2240494   -6.2873296      140.403  0.042701643  0.044765531            3 
  275000    1.2045499   -6.2844834    140.26334  0.042504043  0.044750651            2 
  276000    1.2195748   -6.2247658    141.58485  0.042749048  0.044737542            3 
  277000    1.2080836   -6.2873351     141.5474  0.042583455  0.044724769            1 
  278000    1.2462891   -6.2298585    141.93666  0.042546961  0.044710916            3 
  279000     1.197782   -6.2462892    142.56636  0.042582545  0.044697886            3 
  280000    1.1676573   -6.2577266    143.30828  0.042651275  0.044684195            3 
  281000    1.2105984   -6.2469725    143.54892  0.042570854  0.044669712            2 
  282000    1.2093672   -6.2754908    144.01729  0.042558302  0.044656334            1 
  283000     1.197122    -6.299895    144.25596  0.042478197  0.044642633            2 
  284000    1.2403432   -6.2499233    144.95936  0.042535024  0.044628706            1 
  285000    1.1827661   -6.2797837    144.94846  0.042382591  0.044612832            3 
  286000    1.1848968   -6.2490202    145.63284  0.042433811  0.044596542            6 
  287000     1.207863   -6.2624757     146.0439  0.042405312  0.044580327            3 
  288000    1.2262538   -6.1986285    146.51779  0.042395194  0.044563538            4 
  289000    1.1969874     -6.21966    146.68533  0.042296809  0.044547633            2 
  290000    1.2183259   -6.2649059    147.05913  0.042258371  0.044529738            2 
  291000    1.1976913   -6.2728373    147.37536  0.042203712   0.04451325            2 
  292000    1.2106252   -6.2356543    148.12753  0.042273838   0.04449428            3 
  293000    1.1972615    -6.300679    147.80201  0.042036977  0.044475008            2 
  294000    1.2111678    -6.271967    148.37847   0.04205739  0.044453409            2 
  295000    1.2245983   -6.2621592    149.04898  0.042104231  0.044432878            3 
  296000    1.1879205   -6.2873094    149.58477   0.04211283  0.044411707            2 
  297000     1.230156   -6.2215412    150.35447  0.042187001  0.044391984            2 
  298000    1.1856118   -6.2756015    150.62688  0.042121611  0.044370315            3 
  299000    1.2246717   -6.2470454    150.70783  0.042003296  0.044349111            3 
  300000    1.1901314   -6.2648308    151.64043  0.042122341  0.044328021            3 
  301000    1.2206934    -6.272117    151.79316  0.042024684  0.044307479            2 
  302000    1.2093276   -6.2721652    152.08193  0.041965211  0.044286996            4 
  303000    1.1957909   -6.2802763    152.68388  0.041992267  0.044267782            3 
  304000    1.2002664   -6.2634379    152.88282  0.041908669  0.044248351            2 
  305000    1.2394803   -6.2383975    154.16873  0.042122604  0.044228906            2 
  306000    1.2038417     -6.24352    155.15598  0.042253807  0.044211644            2 
  307000    1.2282479    -6.306054    155.53042  0.042217811  0.044194979            3 
  308000    1.2323848   -6.3016166    156.06973  0.042226658  0.044178627            2 
  309000    1.1959057   -6.2222233    156.75645  0.042275202  0.044163184            2 
  310000    1.1933883   -6.2711617    157.27781  0.042278982  0.044148452            3 
  311000     1.192126   -6.2613187    157.93102  0.042318066  0.044133934            2 
  312000    1.2241111    -6.276109    158.14207  0.042238802  0.044119086            4 
  313000    1.2310255    -6.271751    158.74772    0.0422651  0.044104942            2 
  314000    1.1974077   -6.2599611     159.4054  0.042305044  0.044090884            2 
  315000     1.178538   -6.2398665    160.08074  0.042349401  0.044077983            4 
  316000    1.2001451   -6.2289733     161.0039  0.042458835  0.044065339            2 
  317000     1.203231     -6.28077    161.36357  0.042419445   0.04405525            2 
  318000    1.2148307   -6.2618393    161.20674  0.042244954  0.044044237            2 
  319000    1.2036663   -6.2794516    161.88386  0.042289409  0.044033417            3 
  320000    1.1836047   -6.2425878    163.35617  0.042540668  0.044023651            2 
  321000    1.2092811     -6.28308    163.46048  0.042435224  0.044014101            4 
  322000    1.1929958   -6.2530594    163.28106  0.042257002  0.044003596            4 
  323000    1.1978838   -6.2274078    164.48212  0.042436047  0.043992811            3 
  324000    1.2112984   -6.2727914    164.55808   0.04232461   0.04398139            3 
  325000    1.2165881   -6.3069964    164.73896  0.042240759   0.04396969            2 
  326000    1.1786936   -6.2768623    165.36123  0.042270254  0.043958631            2 
  327000    1.1792142   -6.2853103     165.8506  0.042265698  0.043947754            4 
  328000    1.2140593   -6.2588709    166.85921  0.042393093  0.043938456            3 
  329000    1.1858457   -6.2742578    167.35841  0.042390681  0.043930822            5 
  330000    1.1614838   -6.2592528    168.49407  0.042549008  0.043923048            2 
  331000     1.218053   -6.2962415    168.70013  0.042472339  0.043916582            2 
  332000    1.2024064   -6.2734705    169.59891  0.042570007  0.043909053            2 
  333000    1.2158543   -6.2968969     169.6056  0.042443844  0.043901623            2 
  334000    1.2046764   -6.2886555     170.0989  0.042439846  0.043893922            3 
  335000    1.1933507   -6.2687124    171.10265  0.042562848  0.043886428            4 
  336000    1.2232074   -6.2548731     171.4454   0.04252118  0.043879957            3 
  337000    1.1683781   -6.2922057    171.38371  0.042379751  0.043873686            2 
  338000    1.1866008   -6.2462208    172.63498  0.042562864  0.043866917            2 
  339000    1.2103395   -6.2617944     173.0477  0.042538766  0.043859894            4 
  340000    1.2184528   -6.2453757    173.92303  0.042628193  0.043854202            4 
  341000    1.1862872   -6.2725932    174.33619  0.042604152   0.04384826            4 
  342000    1.1893283   -6.2637053    174.90095  0.042617189  0.043843043            2 
  343000     1.189175   -6.2759546    175.10082  0.042541502  0.043837417            1 
  344000    1.1962982   -6.2490537     176.3857  0.042729094  0.043833024            2 
  345000    1.1894585   -6.2806396    176.28549  0.042581036   0.04382911            2 
  346000    1.2132101   -6.2396692    177.07354  0.042647771   0.04382269            2 
  347000    1.2058414   -6.2382804    177.39861  0.042602933  0.043815545            2 
  348000    1.1833871    -6.277396    176.61192  0.042292125  0.043808317            2 
  349000     1.205492   -6.2854227    177.04357  0.042274015  0.043801181            4 
  350000     1.175502   -6.2375198    177.97468  0.042374923  0.043793689            2 
  351000    1.1960193   -6.2706102    178.85824  0.042463969  0.043786478            5 
  352000    1.1939911   -6.2590782    179.87728  0.042584584  0.043780055            3 
  353000    1.1961773   -6.2777587    180.00485  0.042494064  0.043774261            3 
  354000    1.1814991    -6.295223    180.48911  0.042488021  0.043768816            2 
  355000    1.1874971   -6.2721049    181.07676  0.042506281  0.043762258            4 
  356000    1.2149314   -6.2925776    181.51164   0.04248868  0.043756182            4 
  357000    1.2237644   -6.2672208    182.13722  0.042515691  0.043749135            5 
  358000    1.1620618   -6.2547118    182.35491  0.042447604  0.043742421            1 
  359000    1.1808898   -6.2723754    182.89388  0.042454476  0.043736029            3 
  360000    1.2033015   -6.2597923    182.83457  0.042322817  0.043729061            3 
  361000    1.1871464   -6.2401253    183.93865  0.042460444   0.04372265            3 
  362000    1.1871197   -6.2675317     184.2334  0.042411003  0.043715183            2 
  363000     1.177937   -6.2452897     184.6546  0.042390862  0.043708211            5 
  364000     1.211455   -6.2572752    185.64225  0.042500514    0.0437014            3 
  365000    1.2090131    -6.270469    185.92093  0.042447702  0.043693886            1 
  366000    1.1824781   -6.2504954    186.80887  0.042533896  0.043687098            4 
  367000    1.1909982   -6.2669763    187.22151  0.042511697  0.043681331            5 
  368000    1.1808393   -6.2934252    187.05601  0.042358699  0.043675961            1 
  369000    1.2081122   -6.2562569    188.95276  0.042672258   0.04367056            1 
  370000    1.1854417   -6.3028056     188.2963  0.042409077  0.043665877            3 
  371000    1.1860667   -6.2953211    188.85785  0.042420901  0.043659699            3 
  372000    1.2116675   -6.2849528    189.58087  0.042468832  0.043653219            3 
  373000    1.1907592   -6.2405921    190.57896  0.042577963  0.043647864            1 
  374000    1.1740745   -6.3268154    190.51507  0.042449881  0.043641979            3 
  375000     1.206974   -6.2852748    191.21175  0.042491499  0.043635325            3 
  376000    1.1951299   -6.2595824    191.16963  0.042369155  0.043629203            3 
  377000    1.1938652   -6.2605901    192.37601  0.042523434  0.043623643            5 
  378000    1.1970357   -6.2953557    193.11109  0.042572991  0.043619853            3 
  379000    1.1755267   -6.2717924     193.6082  0.042569966  0.043616263            3 
  380000    1.1998012   -6.2709037    193.27129  0.042384056  0.043611994            1 
  381000     1.168698   -6.2915368    194.23023  0.042482553  0.043605837            3 
  382000    1.1803555   -6.2920491    194.27777  0.042381713  0.043598685            3 
  383000    1.1916858   -6.2747167    195.20323  0.042472416  0.043591975            3 
  384000    1.1946643    -6.310867    195.23435  0.042368566  0.043585199            2 
  385000    1.1879101   -6.2984017    195.82104  0.042385506  0.043578769            2 
  386000    1.1853987   -6.3168029    195.92895  0.042298995  0.043570975            4 
  387000    1.1730309   -6.2913809    196.36442  0.042283467  0.043563792            3 
  388000    1.1949354   -6.2934472      197.272  0.042369415  0.043556201            5 
  389000    1.2028696   -6.3035557     197.6702  0.042345802  0.043548525            2 
  390000    1.1972777   -6.2898875    198.11336  0.042331915  0.043540772            2 
  391000    1.1860709   -6.2834357    198.97307  0.042406877  0.043533452            2 
  392000    1.1996151    -6.298933    198.85659  0.042273935  0.043525161            2 
  393000    1.2003485   -6.3271921    198.82693  0.042160079  0.043516296            2 
  394000    1.1932885   -6.2885678    199.83588  0.042266471  0.043506742            2 
  395000    1.1997298   -6.2900503    199.76767  0.042145079  0.043498126            2 
  396000    1.1712582     -6.25025     201.7336  0.042452357   0.04349022            5 
  397000    1.2002629   -6.2898035    201.49766  0.042295899  0.043483843            2 
  398000    1.1884014   -6.3147086    201.38348  0.042165719    0.0434758            3 
  399000    1.1773832     -6.27382    201.61305  0.042107988  0.043467328            2 
  400000    1.1873015   -6.2886828    202.92192  0.042275399  0.043458558            5 
  401000     1.197435   -6.3084999    202.73162  0.042130429  0.043449729            2 
  402000    1.1751906   -6.3072737    203.46472  0.042177595  0.043440878            1 
  403000     1.193749   -6.2644125    204.32658  0.042251153  0.043432004            1 
  404000    1.1914786   -6.3162575    204.82027  0.042248405   0.04342391            1 
  405000     1.161146   -6.2653819    205.25739  0.042234031  0.043415742            2 
  406000    1.1500511   -6.2996135    205.74713  0.042230528  0.043408043            1 
  407000    1.1734508    -6.308942    206.70984  0.042323882  0.043400996            2 
  408000    1.1676083   -6.3076701    207.10581  0.042301024  0.043393866            4 
  409000    1.2005371   -6.2833113    206.85817  0.042147141  0.043385633            5 
  410000    1.1730019   -6.3327012    207.06842  0.042087078  0.043376686            2 
  411000    1.1932633   -6.3246825    207.80647   0.04213432  0.043367914            3 
  412000     1.207358   -6.2740565    207.97299  0.042065734  0.043359147            1 
  413000    1.1820732   -6.2816348    209.04791  0.042180774  0.043349816            4 
  414000    1.2091901   -6.3105151    208.58392  0.041985491  0.043341554            3 
  415000    1.1956437   -6.2761489    209.89085  0.042146756  0.043332422            1 
  416000    1.1726717   -6.2768943    209.83215  0.042033684   0.04332384            3 
  417000    1.1642968   -6.2593232    210.62106  0.042090539  0.043314884            2 
  418000    1.2023526    -6.273216    211.38673  0.042142489  0.043305322            4 
  419000    1.1622406   -6.2708362    212.36697  0.042236867  0.043296557            2 
  420000    1.1856735   -6.3377807    211.52512  0.041969269  0.043287691            1 
  421000    1.2000019   -6.2603386    212.89317  0.042140373  0.043278469            2 
  422000    1.1815045   -6.3305271    211.99312  0.041862781  0.043268964            3 
  423000    1.1782343   -6.3147763    213.57344  0.042075145  0.043258861            3 
  424000    1.1626575   -6.3085372    213.51386  0.041964201  0.043250222            4 
  425000    1.1815329   -6.3100153    214.47583  0.042054085  0.043240827            2 
  426000    1.1860511   -6.2600504    214.67709  0.041994736  0.043231162            3 
  427000     1.176339    -6.296801    215.17122  0.041992823  0.043221627            4 
  428000    1.1742494   -6.2736878    214.99335  0.041860076  0.043211767            2 
  429000    1.1724124    -6.319665    215.83399  0.041925795  0.043200989            5 
  430000    1.1691945    -6.330414    216.03908  0.041868038  0.043190146            7 
  431000    1.1703265   -6.2511634    217.43728  0.042041237  0.043179801            3 
  432000    1.2022416   -6.3117948    217.35712  0.041928457  0.043169754            3 
  433000    1.1764609   -6.2909712     217.6717  0.041892167   0.04316033            3 
  434000    1.2018383   -6.3201083    218.11463   0.04188069  0.043150637            3 
  435000    1.1686001   -6.2913616    219.27846  0.042007369  0.043141729            4 
  436000    1.1938412   -6.3059906    219.97127  0.042043438  0.043132617            2 
  437000    1.1888435   -6.3193074    219.33322  0.041825557  0.043123852            3 
  438000    1.1852321    -6.282753    220.75083  0.041999777  0.043115884            1 
  439000    1.1848175   -6.2828325    221.57172  0.042059932  0.043107564            5 
  440000    1.1708094   -6.2793655    221.49397  0.041949615  0.043100092            4 
  441000    1.1625646    -6.324844    222.13608  0.041975829  0.043093025            1 
  442000    1.1698453   -6.3171525    223.17091  0.042075963  0.043085712            2 
  443000    1.1831465   -6.3001088    223.04767    0.0419578  0.043078665            4 
  444000    1.2061667   -6.2869428    223.86234  0.042016206   0.04307133            1 
  445000    1.1675896   -6.3455105    224.12345  0.041970683   0.04306357            2 
  446000    1.1852338   -6.3149614    224.18277  0.041887663  0.043056116            2 
  447000    1.1881857    -6.334573    225.03077  0.041952045  0.043048379            2 
  448000    1.1813235   -6.2808693     225.1982  0.041889545  0.043040691            2 
  449000    1.1850667   -6.3080845    226.17944  0.041978367  0.043032704            3 
  450000    1.1885755   -6.3103613    226.58344  0.041959896  0.043024819            3 
  451000    1.1459599   -6.2949351     227.5303  0.042041815   0.04301829            4 
  452000     1.175844    -6.345537    227.87244  0.042011881  0.043012225            2 
  453000    1.2156423   -6.2871687     228.9042  0.042108941  0.043005449            2 
  454000    1.1699865   -6.2836171    229.41227  0.042109447  0.042999474            3 
  455000    1.1711152   -6.3364821    229.51936  0.042036512   0.04299333            4 
  456000    1.1956337   -6.3253959    229.35792  0.041914824  0.042987051            1 
  457000    1.1722439   -6.3587654    229.73272  0.041891452   0.04297968            2 
  458000    1.2021583   -6.2979829    231.11336  0.042051193  0.042973031            3 
  459000    1.1670766   -6.2989962    230.74548  0.041892789  0.042966203            2 
  460000    1.1775931   -6.3379352    231.62041   0.04196022  0.042958985            3 
  461000    1.1869003   -6.2803895    233.20206  0.042155108  0.042951717            2 
  462000    1.1900155   -6.2945065    233.08678   0.04204307    0.0429447            3 
  463000    1.1536357   -6.3102237     232.6461  0.041872948  0.042937883            2 
  464000    1.1840422   -6.2808563    233.73419  0.041978123  0.042930084            2 
  465000    1.1963991    -6.330818    233.99093  0.041933858  0.042923128            6 
  466000    1.1682363   -6.3116268    235.34919  0.042086765  0.042915937            4 
  467000    1.1717995   -6.3273791    234.84125  0.041906005  0.042909507            4 
  468000    1.1667345   -6.3322248    236.20645  0.042059553  0.042902524            4 
  469000    1.1670882   -6.2807761    237.03896  0.042117798  0.042896003            3 
  470000    1.1662536     -6.34635     237.3543  0.042084095  0.042890713            2 
  471000    1.1848466   -6.3360667    237.67785  0.042051991  0.042884778            4 
  472000    1.1931991   -6.2803028    238.16239  0.042048445  0.042879756            1 
  473000    1.2045853   -6.3059553    239.43206  0.042183239  0.042874861            2 
  474000    1.1652032   -6.3017193    239.89717  0.042176014  0.042870348            2 
  475000    1.1871881   -6.2867232    241.29202  0.042331933  0.042866239            2 
  476000    1.1789297   -6.3322171    240.53596  0.042110637  0.042863188            2 
  477000    1.1782895    -6.302089    241.22974   0.04214356   0.04285974            2 
  478000    1.1766831   -6.3106083    242.40173  0.042259715  0.042856509            2 
  479000     1.156902   -6.3360559    241.86155  0.042077513  0.042852277            2 
  480000    1.1772488   -6.2818301    242.58094  0.042114746  0.042848315            2 
  481000    1.1574961   -6.3018888    242.63959   0.04203735  0.042843966            3 
  482000    1.1548766   -6.2905017    243.82549  0.042155167  0.042839348            3 
  483000     1.160321   -6.3122708    244.40658  0.042168147  0.042835495            3 
  484000    1.1624981   -6.2898542    245.16983  0.042212436  0.042831798            3 
  485000    1.1750461   -6.3244071    245.20727  0.042131833  0.042827756            3 
  486000     1.176959   -6.3012334    245.94587  0.042171789  0.042823585            3 
  487000    1.1765595   -6.3128584    246.49197   0.04217864  0.042819685            3 
  488000    1.1641455    -6.342256    246.61936  0.042113962  0.042816261            2 
  489000    1.1846345   -6.3099039    247.31296   0.04214604  0.042812859            2 
  490000    1.1610975   -6.2948289    248.33107  0.042233175  0.042809176            1 
  491000    1.1852066   -6.3368392    248.27013  0.042136818  0.042805741            4 
  492000    1.1768745    -6.352038    249.14762    0.0421998  0.042802319            3 
  493000    1.1558394   -6.3003078    248.54115  0.042011688  0.042798499            2 
  494000    1.1757699   -6.2995584    250.24855  0.042214667  0.042794717           10 
  495000    1.1484152   -6.3227755    249.86951  0.042065574   0.04279052            1 
  496000    1.1823122   -6.3367355    250.39248  0.042068629  0.042786061            2 
  497000    1.1785172   -6.3192577    250.89171  0.042067691  0.042781419            3 
  498000    1.1905525   -6.3248695    252.25646   0.04221159  0.042777298            7 
  499000    1.1737412   -6.3148248    251.92329  0.042071358  0.042773822            4 
  500000     1.184281   -6.3102739    252.54733  0.042091222  0.042770115            2 
  501000    1.1912488   -6.3055902    253.23158  0.042121021  0.042766248            3 
  502000    1.1542174   -6.3194476    253.68594  0.042112539  0.042761905            3 
  503000    1.1643462    -6.277505    255.25618  0.042288963   0.04275883            3 
  504000    1.1363523   -6.3491522    255.31809  0.042215292  0.042755463            2 
  505000    1.1662303   -6.3004004    255.59028  0.042176614  0.042751588            2 
  506000    1.1705545    -6.300672    255.31429  0.042047808  0.042747787            3 
  507000    1.1672973   -6.3113759    255.28958  0.041960813  0.042744079            6 
  508000    1.1947899   -6.3434503    255.66582  0.041939931  0.042740598            3 
  509000     1.179552   -6.3109134    256.66236  0.042020688  0.042736603            3 
  510000    1.1832215   -6.3391579    257.12438  0.042013787   0.04273208            5 
  511000    1.1565366      -6.2707    258.16019  0.042100488  0.042728177            2 
  512000    1.1359162   -6.3020396    258.04355  0.041999275  0.042723714            2 
  513000    1.1842497   -6.3030575    259.35255  0.042130045    0.0427192            2 
  514000    1.1499721   -6.3446442    259.10174  0.042007415  0.042715049            3 
  515000    1.1782761    -6.341631    259.21784  0.041944635  0.042709823            4 
  516000    1.1519361   -6.2699868    259.87857  0.041970053   0.04270452           12 
  517000    1.1691129   -6.2976539    260.41006  0.041974542  0.042699918            3 
  518000    1.1652402   -6.3198883    261.69743  0.042100616  0.042694998            3 
  519000    1.1557227   -6.3365879    260.86662  0.041886098  0.042689112            3 
  520000     1.159174   -6.2953836    261.36025  0.041884655  0.042684284            2 
  521000    1.1627766   -6.3545454    262.77355  0.042030318  0.042678931            2 
  522000    1.1710236   -6.3284045    263.08446  0.041999435  0.042673794            3 
  523000    1.1708201   -6.3395985    263.29723  0.041953032  0.042668345            2 
  524000    1.1814023   -6.3294408    263.34044  0.041879841   0.04266353            3 
  525000     1.140704   -6.3161173    264.72296  0.042019518  0.042659008            2 
  526000     1.165898   -6.3470194    263.38755  0.041728066  0.042654026            2 
  527000     1.170359   -6.3073172    265.44851   0.04197478  0.042647811            4 
  528000    1.1511553   -6.3117424    265.18733  0.041854061  0.042642013            3 
  529000     1.160742   -6.3536672     265.5783  0.041836531  0.042635934            3 
  530000    1.1890206   -6.3109497    266.01509  0.041826272  0.042630591            2 
  531000    1.1602311   -6.3116416    266.78246  0.041867932  0.042624718            3 
  532000    1.1906738   -6.3394519    266.72284  0.041779894  0.042618775            3 
  533000    1.1286297   -6.2984267    268.02335  0.041904838  0.042611972            2 
  534000    1.1735117   -6.2611416    268.86938  0.041958393  0.042605962            2 
  535000    1.1764586   -6.3424518    268.08325  0.041757516  0.042599943            3 
  536000    1.1779903   -6.3063156    267.87369  0.041647029   0.04259258            1 
  537000    1.1582725   -6.3278194    269.00663  0.041745287  0.042585464            3 
  538000    1.1788338   -6.3008288    269.36075  0.041722545  0.042578655            3 
  539000    1.1874938   -6.3602456    270.46964   0.04181658  0.042571937            2 
  540000    1.1768852    -6.312182    270.80822  0.041791392  0.042565296            6 
  541000    1.1714371   -6.3191366    270.95365  0.041736546  0.042558925            3 
  542000    1.1947408    -6.349983    271.71899  0.041777213  0.042552824            4 
  543000    1.1764629   -6.2831659    271.84388  0.041719442  0.042546817            2 
  544000    1.1517514    -6.333842    272.54984  0.041750894  0.042540844            2 
  545000    1.1773535   -6.3029957    273.37249  0.041800075  0.042535302            4 
  546000    1.1518276   -6.3436337     273.9773  0.041815827  0.042529386            3 
  547000    1.1797583   -6.3116213    273.65661  0.041690526  0.042523071            2 
  548000    1.1608846   -6.3530061     274.1434  0.041688473  0.042516635            2 
  549000     1.180367   -6.3441335    273.96655  0.041585694  0.042509787            4 
  550000    1.2140566   -6.3212635    275.55975  0.041751478  0.042502649            2 
  551000    1.1460501   -6.2979602    276.40247  0.041803157  0.042496123            4 
  552000    1.1641371   -6.3752334    275.75838   0.04163019  0.042489788            3 
  553000    1.1666657   -6.3212461      276.835  0.041717149  0.042483185            2 
  554000    1.1427329   -6.3686789    276.53979  0.041597442  0.042476282            3 
  555000    1.1737492   -6.3252046    277.37271  0.041647554  0.042469816            7 
  556000    1.1547123   -6.3633563    278.68051  0.041768662  0.042463892            6 
  557000    1.1530171   -6.3197408    279.18398  0.041768997  0.042457836            6 
  558000    1.1398785   -6.3212284    279.68158  0.041768456   0.04245202            3 
  559000    1.1372995   -6.3481607    279.22822  0.041626151  0.042445951            1 
  560000    1.1680406   -6.3510864    279.89874  0.041651598  0.042438681            2 
  561000    1.1691892   -6.3285615    279.93883  0.041583308  0.042431738            1 
  562000    1.1808368   -6.3251986    280.24682  0.041554986  0.042424254            2 
  563000    1.1617642   -6.3185949    280.44455  0.041510442  0.042416535            2 
  564000    1.1472279   -6.3312891    280.98004  0.041515963   0.04240971            3 
  565000    1.1493139   -6.3629342     280.0342   0.04130298  0.042401514            4 
  566000     1.150461   -6.3062446    282.15072  0.041541625  0.042393648            4 
  567000    1.1594781   -6.3460577     282.0779  0.041457657  0.042385306            2 
  568000    1.1598318   -6.3186452    283.27653  0.041560524  0.042377406            5 
  569000    1.1558898    -6.358688    282.99583  0.041446373  0.042370345            3 
  570000    1.1823968   -6.3291928    283.50601  0.041448246  0.042362467            2 
  571000    1.1889337   -6.3615859    283.83925  0.041424292  0.042354775            1 
  572000    1.1829692   -6.3274903    284.18939  0.041402883  0.042347355            3 
  573000     1.157449   -6.3289707    285.77103   0.04156065  0.042339956            2 
  574000    1.1756878   -6.3833597     284.9746  0.041372619  0.042332202            7 
  575000    1.1637709   -6.3743356    285.98992  0.041447815  0.042324424            2 
  576000    1.1453308   -6.3208749      286.395  0.041434462  0.042316764            2 
  577000    1.1668534   -6.3029873    287.44193  0.041513855  0.042309026            2 
  578000    1.1646103   -6.3156036    286.66924  0.041330629  0.042300881            2 
  579000    1.1642122   -6.3724493    287.68747  0.041405795  0.042292287            2 
  580000    1.1514114   -6.3197794    287.78808  0.041348862  0.042283947            3 
  581000     1.156563   -6.3480028    288.00929  0.041309423  0.042275221            2 
  582000     1.176726   -6.3291444    288.05783  0.041245394  0.042267783            2 
  583000    1.1360031   -6.3604988    289.12134  0.041326664  0.042259454            3 
  584000    1.1576812   -6.3223367    288.87497  0.041220743  0.042250068            2 
  585000    1.1529885   -6.3466372    289.61425  0.041255591  0.042241347            2 
  586000    1.1397499   -6.3284423    289.38605  0.041152738  0.042232054            2 
  587000    1.1755488    -6.295021    290.58815  0.041253287  0.042223649            4 
  588000    1.1380242   -6.3259178    291.23117  0.041274259  0.042214738            7 
  589000    1.1439302   -6.3734315    291.99063  0.041311634  0.042206266            5 
  590000    1.1629311   -6.3629683     291.5129  0.041174139  0.042197312            2 
  591000    1.1719085     -6.33828    292.34325  0.041221552  0.042187678            4 
  592000    1.1473033   -6.3383816    291.95524  0.041097303  0.042177961            2 
  593000    1.1489108   -6.3566802    293.08367  0.041186575  0.042168742            5 
  594000    1.1618862   -6.3274075    294.00282  0.041246187  0.042159409            4 
  595000    1.1684698   -6.3182294    293.71249  0.041136203  0.042149889            8 
  596000    1.1236038   -6.3620879    294.27563  0.041145922  0.042140665            2 
  597000    1.1308755   -6.3155526    293.92031  0.041027402   0.04213178            4 
  598000    1.1865533   -6.3337048    294.78121  0.041078764  0.042122781            3 
  599000     1.153018   -6.3457357    294.81713  0.041015182  0.042114122            3 
  600000    1.1474151   -6.3207252    296.61673  0.041196768  0.042104728            4 
  601000    1.1349252   -6.3225735    295.61115   0.04098879  0.042095265            2 
  602000    1.1392575   -6.3273067    295.72107  0.040935917  0.042085353            2 
  603000    1.1672352   -6.3158692     296.6624   0.04099812  0.042075423            4 
  604000     1.133854   -6.3359587    298.19294   0.04114141  0.042066218            3 
  605000    1.1533763   -6.3530803    298.51271  0.041117453  0.042056961            2 
  606000     1.155539   -6.3662493    298.76365   0.04108411  0.042047637            2 
  607000    1.1593898   -6.3421791    298.59659  0.040993491  0.042037768            5 
  608000    1.1713262   -6.3320891    298.99237  0.040980313  0.042028101            2 
  609000    1.1591477   -6.3697942    299.68899  0.041008346  0.042018235            3 
  610000    1.1741139   -6.3446519    300.45536  0.041045814  0.042008285            2 
  611000    1.1676103   -6.3693601    301.44656  0.041113825  0.041999118            2 
  612000    1.1849253   -6.3850677    300.81413  0.040960529  0.041989324            2 
  613000    1.1724402    -6.371691     302.1113  0.041070052  0.041979752            4 
  614000    1.1658715   -6.3191823    302.54937  0.041062618  0.041970701            3 
  615000    1.1356997   -6.3533366    303.44535  0.041117255  0.041961496            3 
  616000    1.1465631   -6.3495159    303.55571  0.041065436  0.041952166            3 
  617000    1.1428637    -6.377232    303.67817  0.041015419  0.041943365            2 
  618000    1.1554494   -6.3613919      304.191  0.041018203   0.04193496            2 
  619000    1.1639238   -6.3408062    303.89096  0.040911545  0.041926328            3 
  620000    1.1345251   -6.3317504    305.22104  0.041024333  0.041917732            4 
  621000    1.1558919   -6.3632181    305.80966   0.04103726  0.041908604            2 
  622000    1.1340554   -6.3598316    305.73893  0.040961807   0.04189952            4 
  623000    1.1248775   -6.3546389    305.59848  0.040877271  0.041890409            3 
  624000     1.136704   -6.3534249    306.08462  0.040876685  0.041880704            4 
  625000    1.1307408   -6.3372951    307.54303  0.041005738  0.041871321            2 
  626000    1.1214951   -6.3509315    307.01766  0.040870296  0.041861724            2 
  627000    1.1524875    -6.384716    307.31571  0.040844724  0.041852488            3 
  628000    1.1576285   -6.3135996     309.0823  0.041014106   0.04184352            3 
  629000    1.1345995   -6.3564747    308.16615  0.040827523  0.041834898            3 
  630000    1.1199442   -6.3516362    309.29331  0.040911813  0.041825417            4 
  631000    1.1402844    -6.355464    308.90839  0.040796142  0.041816065            2 
  632000    1.1644408   -6.3660547    310.19496  0.040901234  0.041806828            1 
  633000    1.1580961   -6.3509091    310.88583  0.040927571  0.041797843            2 
  634000    1.1616419   -6.3353529    311.21954   0.04090688  0.041788626            4 
  635000    1.1647806   -6.3653078    311.72336  0.040908578  0.041779218            2 
  636000    1.1310881   -6.3367749     311.9039  0.040867912   0.04177016            4 
  637000    1.1557634   -6.3411926    311.99538  0.040815723  0.041760999            3 
  638000    1.1576425   -6.3339811    312.84248  0.040862393   0.04175234            2 
  639000    1.1509279   -6.3800005    312.39831   0.04074052  0.041742998            7 
  640000    1.1520066   -6.3354819    312.38802  0.040675524  0.041733344            3 
  641000    1.1317682   -6.3897572    313.34745  0.040736798  0.041723164            4 
  642000    1.1439194   -6.3237271    314.41968  0.040812524  0.041713175            2 
  643000    1.1515218   -6.3453679    314.28207  0.040731217  0.041703231            3 
  644000    1.1540186   -6.3563279    315.13883  0.040778834   0.04169287            3 
  645000    1.1617535   -6.3836915    314.82431  0.040674975  0.041681966            3 
  646000    1.1559427   -6.3448812    314.61717   0.04058529  0.041671349            1 
  647000    1.1457929   -6.3765453    316.13548  0.040718119  0.041660702            2 
  648000    1.1626595   -6.3703886    314.92531  0.040499654  0.041650113            3 
  649000    1.1388659   -6.3348086    315.72509  0.040539945  0.041639369            3 
  650000    1.1501536   -6.3745617     316.4252  0.040567333  0.041628504            2 
  651000    1.1507674   -6.3550284    317.14264  0.040596856  0.041617726            4 
  652000    1.1382939   -6.3925891    316.68593  0.040476218  0.041607148            4 
  653000    1.1423937   -6.3411747    318.79392  0.040683247  0.041596586            3 
  654000    1.1534483   -6.3687641    318.16748  0.040541218  0.041585767            4 
  655000    1.1256684    -6.367756    318.80757  0.040560759   0.04157498            1 
  656000     1.147282   -6.3679432    318.28181  0.040432141  0.041564351            3 
  657000    1.1397528   -6.3543583    319.92742  0.040579328  0.041553486            3 
  658000    1.1848064   -6.3365971    320.77529  0.040625037  0.041543216            3 
  659000    1.1388119   -6.4033232    320.36998  0.040512136  0.041533064            3 
  660000    1.1385101   -6.3839033    320.58946  0.040478467  0.041522362            7 
  661000    1.1347963   -6.3769629    320.57992  0.040416027  0.041512174            2 
  662000    1.1329447   -6.3448963    322.48794  0.040595159  0.041501825            3 
  663000    1.1378433   -6.3636327    322.47307   0.04053206   0.04149185            4 
  664000    1.1585618   -6.3478473     323.2607  0.040569866  0.041481747            3 
  665000    1.1338486   -6.3667886    323.32828  0.040517328  0.041471802            2 
  666000    1.1414822    -6.348329    323.61554  0.040492435  0.041462198            2 
  667000    1.1309176   -6.3411777    324.57589  0.040551711  0.041452413            2 
  668000    1.1375214   -6.3602481     325.9763  0.040665706  0.041442735            2 
  669000    1.1539709   -6.3388401    325.43984  0.040538097  0.041432833            2 
  670000    1.1395349   -6.3515558    325.97952  0.040544717  0.041423451            3 
  671000    1.1681647   -6.3855207    326.85194   0.04059264  0.041414186            2 
  672000     1.136751   -6.3387436    328.11236  0.040688537  0.041405111            5 
  673000    1.1258641   -6.3854187    328.07736  0.040623744   0.04139599            3 
  674000    1.1430608   -6.3454159    329.05425  0.040684254   0.04138713            5 
  675000    1.1511839   -6.3871254    328.04719  0.040499653   0.04137848            2 
  676000    1.1416295   -6.3481959    329.16325  0.040577323  0.041369612            4 
  677000    1.1399103   -6.3525713    329.44504  0.040552073  0.041360978            3 
  678000    1.1168101   -6.3689088    330.30949  0.040598512  0.041352347            3 
  679000    1.1594281    -6.374314    330.69084  0.040585523  0.041343734            4 
  680000    1.1563516   -6.3592098    331.04097  0.040568746  0.041335147            7 
  681000     1.133995   -6.3660734    331.72552  0.040592942  0.041326312            1 
  682000    1.1482974   -6.3812412    330.71214  0.040409596   0.04131787            4 
  683000    1.1401019   -6.3726521    333.37664   0.04067553  0.041309417            2 
  684000    1.1336069   -6.3747372    332.63254  0.040525407  0.041301179            6 
  685000    1.1658446   -6.3387117     332.4094    0.0404391  0.041292874            3 
  686000    1.1419144   -6.3575278    333.51307  0.040514221  0.041284369            3 
  687000    1.1455507   -6.3721254     334.8318  0.040615211  0.041275805            3 
  688000    1.1560856   -6.3400283    335.60071  0.040649311  0.041267597            3 
  689000    1.1644225   -6.3877012    334.27423  0.040429878  0.041259224            2 
  690000    1.1558524   -6.3465156    333.90828  0.040327087  0.041250386            1 
  691000    1.1258886   -6.3821759    334.50025  0.040340116     0.041241            3 
  692000    1.1220367   -6.3756674    335.42428  0.040393098  0.041231857            2 
  693000     1.156589   -6.3589415    335.80987  0.040381177  0.041222737            2 
  694000    1.1614524   -6.3524788    337.35752  0.040508828  0.041214204            6 
  695000    1.1689919   -6.3990706    337.22308  0.040434422  0.041205597            2 
  696000    1.1304184   -6.3834132    337.89074  0.040456267  0.041196884            2 
  697000     1.130127   -6.4033913    336.10832  0.040185117  0.041187688            2 
  698000    1.1436995   -6.3564384     338.8388  0.040453534  0.041178256            3 
  699000    1.1405553   -6.4248821    337.77293   0.04026859  0.041168865            5 
  700000    1.1645133   -6.3551067    339.40545  0.040405411  0.041159222            3 
  701000    1.1528422   -6.3653324    339.84227  0.040399699  0.041149409            2 
  702000    1.1359354   -6.3866206    337.90894  0.040112648  0.041139411            5 
  703000    1.1434516   -6.4048445    339.34034  0.040225265   0.04112995            4 
  704000    1.1540053   -6.4025553    339.31287  0.040164876  0.041120027            4 
  705000    1.1352447   -6.4171444    340.04384  0.040194307   0.04111043            3 
  706000     1.120396    -6.345154    341.16702   0.04026995  0.041100651            2 
  707000    1.1606286   -6.3744933    340.74058  0.040162727  0.041091196            3 
  708000    1.1294797   -6.4067271    342.70476   0.04033719  0.041081702            2 
  709000    1.1775722   -6.3437056    342.84088  0.040296295  0.041072782            2 
  710000    1.1458294   -6.4068127    342.14211  0.040157525  0.041063301            3 
  711000    1.1537298   -6.3847461    343.75575  0.040290173  0.041053904            4 
  712000    1.1187048   -6.3695896    343.73467  0.040231118  0.041044789            4 
  713000    1.1436939   -6.3922504    344.40751  0.040253332  0.041035425            5 
  714000    1.1360708   -6.3642797    345.26937  0.040297546  0.041025822            5 
  715000    1.1215803   -6.3696566    345.53153   0.04027174  0.041016279            4 
  716000    1.1245067   -6.4027448    345.82093  0.040249177  0.041006962            3 
  717000    1.1333646   -6.4194593    345.68843  0.040177641  0.040997477            7 
  718000    1.1368789   -6.4025538    345.47948  0.040097432  0.040988429            8 
  719000     1.130801   -6.3732323    346.40435  0.040148858  0.040979153            2 
  720000     1.127615   -6.3986064    348.86197  0.040377542  0.040970499            3 
  721000    1.1306028   -6.3656774     348.6471  0.040296706  0.040962415            3 
  722000    1.1338035   -6.4330511    348.32379  0.040203576  0.040953872            3 
  723000    1.1296407   -6.4076568    349.96613  0.040337267  0.040945386            6 
  724000    1.1440763   -6.3965385    348.60226   0.04012457  0.040936779            2 
  725000    1.1179862   -6.4008522    350.14839  0.040246941  0.040928175            5 
  726000    1.1407805   -6.3735453    351.72916  0.040372953  0.040919981            5 
  727000    1.1477262   -6.3966965    351.14952  0.040250977  0.040911772            3 
  728000    1.1463318   -6.3582416    351.34214  0.040217736  0.040903753            3 
  729000     1.113242   -6.3538022    351.98766  0.040236358  0.040895422            5 
  730000    1.1543726   -6.3644421    349.72523  0.039922971  0.040886609            3 
  731000    1.1578156   -6.4088103    351.49422  0.040070021  0.040877783            3 
  732000    1.1496173   -6.3733606    352.87282  0.040172225  0.040869062            4 
  733000    1.1293127   -6.4036399    353.10579  0.040143906  0.040860145            5 
  734000    1.1204951   -6.3933555    352.24039  0.039990962  0.040851531            5 
  735000    1.1526361    -6.378383    353.41391  0.040069604  0.040842611            4 
  736000    1.1347715   -6.3359145    355.45066  0.040245773  0.040834226            2 
  737000    1.1103357   -6.3720262    355.71121  0.040220625  0.040826174            3 
  738000    1.1258209    -6.394781    356.79888  0.040288943  0.040818392            3 
  739000     1.113206   -6.4055099    357.42745  0.040305305  0.040810721            2 
  740000    1.0996583   -6.3628724    357.94374   0.04030898  0.040802879            3 
  741000    1.1268818   -6.3866637    357.06962  0.040156278   0.04079528            2 
  742000    1.1407651   -6.3651074    358.95776  0.040314214  0.040787872            2 
  743000    1.1224933   -6.3687128     358.3459   0.04019133  0.040780038            2 
  744000    1.1522221   -6.4075134    358.56896  0.040162294  0.040772143            3 
  745000    1.1368349   -6.4199557    358.73383  0.040126827  0.040764291            3 
  746000    1.1342767   -6.4107364    359.20934  0.040126155  0.040756657            3 
  747000    1.1335706   -6.3462591    359.97296  0.040157626  0.040749359            3 
  748000    1.1180807   -6.4348683    360.95907    0.0402138  0.040742224            5 
  749000    1.1421173      -6.3997     360.0519  0.040059179  0.040735165            3 
  750000    1.1394959   -6.4260137    360.55581  0.040061757  0.040727411            3 
  751000    1.1350148   -6.3697522    363.50732  0.040335921  0.040720052            2 
  752000    1.1234618   -6.3896859    361.83613  0.040097089  0.040713043            3 
  753000    1.1149504   -6.3821057    362.94843  0.040166936  0.040705546            3 
  754000    1.1353054   -6.4024451    363.93753  0.040222981  0.040698194            5 
  755000    1.1112096   -6.3989359    363.54783  0.040126692  0.040690933            6 
  756000    1.1340545   -6.4152124    363.33703  0.040050378   0.04068371            2 
  757000    1.1557375   -6.4265517     364.1666  0.040088793  0.040675685            2 
  758000    1.1216074   -6.4336709    364.45021  0.040067085  0.040667928            2 
  759000     1.157321   -6.3666366    365.30939  0.040108628  0.040660339            3 
  760000    1.1338215   -6.4183208    364.73729  0.039993124  0.040652842            5 
  761000    1.1278097   -6.4108128    364.71166  0.039937764    0.0406448            4 
  762000    1.1317979   -6.3704334    367.35926  0.040174897  0.040636444            2 
  763000    1.1127676   -6.3697933    365.66293  0.039936973  0.040628355            2 
  764000    1.1350253   -6.4287322    366.67583  0.039995182  0.040620462            3 
  765000    1.1205732   -6.3740758    367.53932  0.040036963   0.04061271            3 
  766000    1.1599813   -6.3739391    367.36749  0.039966001  0.040605046            4 
  767000    1.1070417   -6.3629379    368.79007  0.040068456  0.040596924            4 
  768000    1.1470891   -6.3761926    369.00984   0.04004013   0.04058907            3 
  769000    1.1259669   -6.3984815    368.49594  0.039932373  0.040581262            3 
  770000     1.125359    -6.354759    369.85401  0.040027491  0.040573522            3 
  771000    1.1101259   -6.3614791    370.69757   0.04006675  0.040565638            3 
  772000    1.1318897    -6.353765    370.34113  0.039976374  0.040557889            3 
  773000    1.1121458   -6.4138148    371.03521  0.039999484  0.040550126            4 
  774000    1.1481773   -6.4122156    370.27388  0.039865836  0.040541919            6 
  775000     1.146442   -6.3929293    370.52159  0.039841031  0.040533789            7 
  776000    1.1228107   -6.3890357    371.34464  0.039878076  0.040525424            3 
  777000    1.1378314   -6.3910336    372.50383  0.039951076  0.040516903            2 
  778000    1.1214879   -6.3836216    372.98496  0.039951259  0.040508972            2 
  779000    1.1291144   -6.4091735    372.91615  0.039892613  0.040500815            5 
  780000    1.1305822   -6.3451621    374.02913  0.039960377  0.040492927            3 
  781000    1.1228906   -6.4092557    373.10278  0.039810369  0.040484853            6 
  782000    1.1348506   -6.3946451    374.00695  0.039855813  0.040475958            2 
  783000    1.1430398   -6.4625717    373.49918  0.039750871  0.040466974            2 
  784000    1.1032518   -6.3854617    375.21639  0.039882695  0.040458458            5 
  785000    1.1380373   -6.4030167    375.33605  0.039844592  0.040450028            6 
  786000    1.1387832   -6.4363019    375.64612  0.039826772  0.040442216            3 
  787000    1.1370237   -6.3897719     377.4433  0.039966465  0.040434368            1 
  788000    1.1324118   -6.3690843    377.72143   0.03994516  0.040426409            4 
  789000    1.1121646   -6.3940148     377.2359  0.039843251  0.040418851            4 
  790000    1.1224058    -6.433705    377.26371   0.03979575  0.040410991            2 
  791000    1.1125221    -6.431003    377.84832  0.039807029  0.040403062            3 
  792000    1.1204259   -6.3768786    380.10325  0.039994029  0.040395222            2 
  793000    1.1305024   -6.4410907    379.40377  0.039870089  0.040387612            2 
  794000    1.1286445   -6.3854886    379.79046  0.039860459  0.040380379            3 
  795000     1.118289   -6.3934105    380.13909  0.039846865  0.040372756            4 
  796000    1.1301588   -6.3776946    381.26089  0.039914247  0.040365333            3 
  797000    1.1418935   -6.4038268    380.38735  0.039772831  0.040357419            3 
  798000    1.1313874   -6.4152325    380.59219   0.03974438  0.040349734            5 
  799000    1.1174463   -6.3797074    381.75686   0.03981611  0.040342448            5 
  800000     1.121611   -6.3818111     382.6593  0.039860344  0.040334827            4 
  801000    1.1221004   -6.3704086    381.81802  0.039723056  0.040327598            3 
  802000    1.1253118   -6.4083836    383.77262  0.039876623  0.040320232            2 
  803000     1.125442   -6.4125096    383.69332  0.039818734  0.040312927            3 
  804000    1.1266264    -6.394693    384.77449  0.039881269  0.040305096            2 
  805000    1.1241513   -6.4337008    383.77319  0.039728073   0.04029721            6 
  806000    1.1009463   -6.3824724    385.05399  0.039811207  0.040289659            2 
  807000    1.1284073   -6.4357764    384.57692  0.039712611  0.040282269            3 
  808000    1.1246576   -6.3895252    385.46687  0.039755247  0.040274651            1 
  809000    1.0763718   -6.3909412    385.93794  0.039754629  0.040267118            3 
  810000    1.1239896   -6.4255846    387.41326  0.039857331  0.040259603            3 
  811000    1.1153358   -6.4102677    386.67454  0.039732279  0.040251961            3 
  812000     1.127408    -6.399469    386.77729  0.039693892  0.040244449            2 
  813000    1.1377621   -6.4112057    387.43116  0.039712091  0.040237187            5 
  814000    1.1220468   -6.3724784    389.85243  0.039911182  0.040230183            2 
  815000    1.1156979   -6.4144658    389.59481   0.03983587  0.040223162            4 
  816000    1.1273003   -6.3816884    389.32715  0.039759718  0.040215755            3 
  817000     1.122986   -6.4299898     389.3059  0.039708884  0.040208508            2 
  818000    1.1000208   -6.4145385    389.33539  0.039663345  0.040201132            4 
  819000    1.1292155   -6.3894486    389.73832  0.039655914  0.040193688            5 
  820000    1.1321152   -6.3859043    389.90608  0.039624602  0.040185771            6 
  821000    1.1209532   -6.3978249    389.70905  0.039556339  0.040177658            3 
  822000    1.1224271   -6.3586143    390.11129  0.039548995    0.0401695            4 
  823000    1.1311491   -6.3844275    390.77629  0.039568275  0.040161313            3 
  824000    1.1125413   -6.4232764    390.51215  0.039493542  0.040152726            2 
  825000    1.0900674   -6.3908899    390.90337  0.039485189  0.040144274            4 
  826000    1.1261883   -6.3985516    392.76753  0.039625457  0.040136022            4 
  827000    1.1331309   -6.4472428    392.17944  0.039518283  0.040127739            2 
  828000    1.0942196   -6.4127733    390.83517  0.039335263  0.040119237            4 
  829000    1.1187957   -6.3952693    391.97966   0.03940286  0.040110641            8 
  830000    1.1347343   -6.4110796    393.05053  0.039462905  0.040102041            5 
  831000    1.1045066   -6.4108167    394.08076  0.039518728  0.040093328            2 
  832000    1.1200687   -6.3918494    394.37365  0.039500566  0.040084866            5 
  833000    1.1166105   -6.4188509    394.00263  0.039416029  0.040077028            4 
  834000    1.1458523   -6.3753365    395.39239  0.039507633   0.04006869            3 
  835000    1.1209743   -6.4525757    394.03456  0.039324807  0.040060105            2 
  836000     1.116028   -6.3703339    396.07715  0.039481375  0.040051433            2 
  837000     1.112416   -6.4111657    396.32564  0.039458945  0.040043044            5 
  838000    1.1222384     -6.43646    395.68359   0.03934801  0.040034245            3 
  839000    1.0897203   -6.4480127    395.61138  0.039293939  0.040025212            3 
  840000     1.111249   -6.4159982    396.45075  0.039330432  0.040016142            4 
  841000    1.1066969   -6.4333059    396.05875  0.039244823  0.040007118            4 
  842000    1.1141456   -6.4032502     398.0604  0.039396318  0.039997862            2 
  843000    1.0951265   -6.3919322    398.04016  0.039347584  0.039988709            2 
  844000    1.1070838   -6.4371804    398.18518  0.039315283  0.039979487            5 
  845000    1.1079272   -6.3980175    399.26507  0.039375253  0.039970622            4 
  846000    1.1237884   -6.4064944    398.06791  0.039210787   0.03996145            3 
  847000    1.1436238   -6.4018613    399.21351  0.039277205  0.039952144            4 
  848000    1.1184119   -6.4330203    400.35896  0.039343451  0.039942919            3 
  849000    1.1305364   -6.4471312    398.83086   0.03914712  0.039933695            2 
  850000    1.0942026   -6.4156243    400.22353  0.039237601  0.039924616            3 
  851000    1.1218611   -6.4161028    400.52262  0.039220782  0.039915585            3 
  852000    1.1406925    -6.442313    400.69883  0.039191983  0.039906011            2 
  853000    1.1045465   -6.4119578    401.93716  0.039267014  0.039896483            2 
  854000    1.1145117   -6.4033806    402.07904  0.039234879  0.039887126            6 
  855000    1.1119786   -6.4141584    401.62979  0.039145203  0.039877732            4 
  856000    1.0859228    -6.404696    401.51077  0.039087886  0.039868299            4 
  857000    1.1224711   -6.4049428    401.14696    0.0390069  0.039858457            1 
  858000    1.1222355   -6.4400702    402.28655   0.03907212  0.039848637            3 
  859000    1.1081472    -6.428585    403.54923  0.039149129  0.039838777            3 
  860000    1.1100091   -6.4583187    403.09141  0.039059245  0.039828876            2 
  861000    1.1205727   -6.4364779    402.79543  0.038985233  0.039818707            6 
  862000    1.1178254   -6.3538617    403.62187  0.039019902  0.039808472            3 
  863000    1.1125111    -6.418168    403.36208  0.038949602  0.039798243            4 
  864000    1.1158529   -6.4569407    403.74069  0.038941039  0.039787987            3 
  865000    1.1109304   -6.4353183    404.10469  0.038931088   0.03977743            5 
  866000    1.1218521   -6.3942122    405.44784  0.039015381  0.039767191            9 
  867000    1.1099167   -6.4053659     405.6257  0.038987476  0.039756668            5 
  868000    1.1208675   -6.4374394    404.64467  0.038848375  0.039746019            6 
  869000     1.124558   -6.4472751    405.56382  0.038891812   0.03973538            2 
  870000    1.1229625   -6.4307049    404.97321  0.038790537  0.039724747            3 
  871000    1.1014602    -6.425238     406.3258  0.038875411  0.039714078            3 
  872000    1.1078117   -6.4553526    405.59574  0.038761061  0.039703583            2 
  873000     1.106314   -6.4115139    406.45095  0.038798296  0.039692765            2 
  874000    1.1321143   -6.4502313     406.6579  0.038773637  0.039681782            6 
  875000     1.136324   -6.4305639    407.52241  0.038811658  0.039671007            2 
  876000    1.1086858   -6.4185086    407.59783  0.038774527  0.039660358            3 
  877000    1.0998171    -6.407043    408.71508  0.038836476  0.039649601            3 
  878000    1.1101866   -6.4360657    409.29254  0.038847052  0.039639005            3 
  879000    1.1174187   -6.4279216    408.65178   0.03874211  0.039628383            3 
  880000    1.1357402   -6.4522817    409.77608  0.038804553  0.039617811            3 
  881000    1.1326669   -6.4413567    409.84448  0.038766976  0.039607132            2 
  882000    1.0897192   -6.4348604    408.92465  0.038636116  0.039596696            5 
  883000    1.1217496   -6.4041835    411.09442  0.038797133  0.039586589            2 
  884000     1.111908   -6.3946556      412.098  0.038847851  0.039576449            4 
  885000    1.1498691   -6.3973037     411.4302  0.038741073  0.039566519            3 
  886000    1.0899697   -6.4213703    412.28408   0.03877766  0.039556327            7 
  887000    1.1200278   -6.4109522    413.05669  0.038806528  0.039546045            5 
  888000    1.1054085   -6.4224666     413.7389  0.038826848  0.039535699            5 
  889000    1.1327502   -6.4394353    412.13298  0.038632638  0.039525386            3 
  890000    1.1029813   -6.4311338    413.25994  0.038694751  0.039514885            2 
  891000    1.1111432   -6.4080941    414.93041  0.038807558  0.039504458            2 
  892000    1.1250219   -6.4155469     413.8221   0.03866051   0.03949394            4 
  893000    1.1168407   -6.4416181    413.32758   0.03857107  0.039483137            3 
  894000    1.1154282   -6.4330242    414.97807  0.038681774  0.039472419            8 
  895000    1.1106936   -6.4361981    414.27797  0.038573368  0.039462105            3 
  896000    1.1014638   -6.4356032    415.50053  0.038644023  0.039451259            4 
  897000    1.1231926   -6.4465884    415.76807  0.038625796  0.039440427            4 
  898000    1.0992514   -6.4741776    415.54997  0.038562544  0.039429776            2 
  899000    1.1035831   -6.3907003    417.81028   0.03872917  0.039419291            2 
  900000    1.0806708   -6.4448292    417.43358  0.038651258  0.039408913            4 
  901000    1.1071865    -6.424208    415.66413  0.038444703  0.039398541            3 
  902000    1.1206258   -6.4542753    417.23404  0.038547121  0.039387974            5 
  903000    1.1145247   -6.4543712    416.87037  0.038470872   0.03937713            3 
  904000    1.1166192   -6.4037102     418.2757  0.038557863   0.03936682            6 
  905000    1.1178081   -6.4261198    418.98943  0.038580979  0.039356614            3 
  906000    1.1021448   -6.4071072    420.09181  0.038639791  0.039346342            3 
  907000    1.0945942   -6.4246512    418.03413  0.038408134  0.039336018            4 
  908000    1.1083635   -6.4238591    420.56613  0.038598213  0.039325567            2 
  909000    1.1225545   -6.4345788    420.57326  0.038556404  0.039315312            6 
  910000    1.1222102   -6.4300754    420.16968  0.038477077  0.039304577            3 
  911000    1.1273349   -6.4577109    419.62571  0.038385082  0.039294126            4 
  912000    1.0838641    -6.391242     422.2322  0.038581158  0.039283862            5 
  913000    1.1066736   -6.4443339    422.64238   0.03857634   0.03927377            3 
  914000    1.0995971    -6.453056    422.36205  0.038508575   0.03926382            2 
  915000    1.0968476   -6.4776409    421.40257  0.038379105  0.039253704            2 
  916000    1.1173084   -6.4680482    423.06937  0.038488844  0.039243614            3 
  917000    1.0929907   -6.4425017    422.01125  0.038350714  0.039233604            2 
  918000    1.1132437   -6.4183758    423.88884  0.038479379  0.039223587            3 
  919000    1.1002355    -6.408369    424.81385  0.038521387  0.039213683            6 
  920000    1.1260677   -6.4538348    424.84154  0.038482023  0.039204018            5 
  921000    1.0994288   -6.4372415    425.68608  0.038516656  0.039193901            2 
  922000     1.094606   -6.4349692    426.75328  0.038571337  0.039183988            2 
  923000    1.1044804   -6.4402352    426.70295  0.038525005  0.039174043            4 
  924000    1.1090193   -6.4285383    426.24743  0.038442229  0.039164025            4 
  925000    1.1110158   -6.4506375    427.77195  0.038538013   0.03915398            2 
  926000    1.1093027   -6.4636555    426.21606  0.038356377  0.039144356            2 
  927000    1.1121549    -6.424859    428.88114  0.038554579  0.039134525            3 
  928000    1.1199777   -6.4273596    429.62929  0.038580216  0.039125127            1 
  929000    1.0877287   -6.4250042    426.98623  0.038301599  0.039115381            2 
  930000    1.0740896   -6.4601075    427.84716  0.038337559   0.03910536            2 
  931000    1.0845298    -6.440381    427.74014  0.038286801  0.039095093            3 
  932000    1.0965987   -6.4478164    428.99221  0.038357672  0.039085023            6 
  933000    1.1084356   -6.4243731     429.4233  0.038355064  0.039074916            8 
  934000    1.1094798   -6.4442631    429.84233  0.038351385   0.03906484            3 
  935000    1.0897701   -6.4499347    430.04625  0.038328543  0.039054564            5 
  936000    1.1041679   -6.4188592    430.43634  0.038322323  0.039044417            3 
  937000    1.1287169   -6.4573593     430.8816  0.038321024  0.039033995            1 
  938000    1.1208321   -6.4507589    431.76908  0.038359016  0.039023491            2 
  939000    1.1103218   -6.5279921     429.4787    0.0381149  0.039013123            3 
  940000    1.0950277   -6.4269364    430.52286   0.03816692  0.039002747            4 
  941000    1.1074087    -6.436098    432.14356  0.038269886  0.038992447            4 
  942000    1.1033709   -6.4521512    432.79818  0.038287171  0.038982246            2 
  943000    1.1198335   -6.4337328    433.88087  0.038342247  0.038972177            5 
  944000    1.1237696   -6.4318038    434.37583  0.038345324  0.038962301            4 
  945000    1.1125175   -6.4617526    433.42954    0.0382213  0.038952364            3 
  946000    1.0989804   -6.4361564    434.92457  0.038312595  0.038942931            4 
  947000     1.095165   -6.4549906     434.7458  0.038256406   0.03893358            4 
  948000    1.0968254   -6.4449028    435.82506  0.038310923  0.038923952            2 
  949000    1.0838061   -6.4533911    435.96965   0.03828325  0.038914732            4 
  950000    1.0999581   -6.4456957     437.1471  0.038346236  0.038905395            4 
  951000    1.0741081   -6.4781477    436.47029  0.038246608  0.038895531            3 
  952000    1.1218043   -6.4604469    436.52874  0.038211549  0.038885881            3 
  953000    1.1032962   -6.4437508    437.24863  0.038234403  0.038876249            4 
  954000    1.0985408   -6.4560728    439.10955  0.038356879  0.038866907            2 
  955000    1.1331216   -6.4603439    438.37262  0.038252411  0.038857578            4 
  956000    1.0870932   -6.4225136    437.64692  0.038149139  0.038848134            3 
  957000    1.1092414   -6.4591115    439.21797  0.038246079   0.03883828            6 
  958000    1.1022492   -6.4562398     438.6481  0.038156585  0.038828598            4 
  959000    1.1398556   -6.4525336    439.69384  0.038207668  0.038818813            2 
  960000     1.089681   -6.4523005     440.0313  0.038197162  0.038809203            3 
  961000    1.0644892   -6.4190743    441.98872  0.038327152  0.038799701            4 
  962000    1.1045149   -6.4226902    440.94846  0.038197199  0.038790076            2 
  963000    1.0833034   -6.4596793    440.39639   0.03810976  0.038780538            3 
  964000    1.0895418   -6.4552324    441.29206  0.038147654  0.038770943            5 
  965000    1.0965806   -6.4552817    442.12686  0.038180212  0.038761348            2 
  966000    1.0978937   -6.4646635    443.22443  0.038235372  0.038751739            3 
  967000    1.1013007   -6.4529954    441.80345  0.038073376  0.038742071            3 
  968000    1.0892747   -6.4451238    440.80115  0.037947757  0.038732143            2 
  969000    1.1200009   -6.4491482    442.66433  0.038068828  0.038722303            5 
  970000    1.0824704   -6.4119272    443.51028  0.038102258  0.038712388            2 
  971000    1.0744533   -6.4441635     442.8368  0.038005218  0.038702688            2 
  972000     1.063468   -6.4354232    443.67949  0.038038365  0.038692682            3 
  973000     1.106362   -6.4646048    444.10408  0.038035635  0.038682654            6 
  974000    1.0911054    -6.430737    443.57245  0.037951099   0.03867227            7 
  975000    1.1132855   -6.4190441    444.51181  0.037992462  0.038662028            2 
  976000    1.0913941   -6.4531416    444.84469  0.037981958  0.038651813            3 
  977000    1.0943383   -6.4178535    445.39953  0.037990407  0.038641565            3 
  978000    1.1042293   -6.4556361    444.48206  0.037873386  0.038631578            4 
  979000    1.1036377   -6.4862902     445.2821    0.0379028  0.038621365            3 
  980000    1.0860255   -6.4810024    444.86793  0.037828906  0.038611142            5 
  981000    1.0985789   -6.4367727    445.18856  0.037817581  0.038600991            7 
  982000    1.1043713   -6.4281932     447.2016  0.037949898  0.038590903            3 
  983000    1.0960498   -6.4652019    446.05433  0.037814033   0.03858084            3 
  984000    1.1163226   -6.4694802    447.41459  0.037890802  0.038570718            2 
  985000    1.1042762   -6.4225194    448.74024  0.037964488  0.038560582           10 
  986000    1.0797436   -6.4362236    449.47239  0.037987863  0.038550527            7 
  987000    1.1138652   -6.4717316    448.85835  0.037897531  0.038540513            3 
  988000    1.1136873   -6.5110655    448.29173  0.037811381  0.038530675            4 
  989000    1.0939297   -6.4471306    448.83447   0.03781888  0.038520591            3 
  990000    1.0917249   -6.4926413    449.37503  0.037826181  0.038510515            4 
  991000    1.0993352   -6.4671817    449.89331  0.037831594  0.038500499            3 
  992000     1.094105   -6.4597152    451.40721  0.037920633  0.038490671            2 
  993000    1.0767286   -6.4302137    450.35818  0.037794409  0.038481158            2 
  994000    1.0961761   -6.4030881     452.6565   0.03794907  0.038471759            3 
  995000    1.0722536   -6.4853826    451.39048  0.037804898  0.038462548            2 
  996000    1.0943397    -6.506619    452.87669  0.037891289     0.038453            2 
  997000     1.070809   -6.4134679    454.41741  0.037982063   0.03844374            3 
  998000    1.0967215   -6.4386056    455.39116  0.038025314  0.038434446           11 
  999000    1.0933955   -6.4508594    453.55917  0.037834432  0.038425618            2 
 1000000    1.0875407   -6.4858716    455.28539  0.037940449  0.038416614            3 
 1001000    1.0862255   -6.4856962    455.44282  0.037915652   0.03840789            4 
 1002000    1.1032062   -6.4900717    456.13462  0.037935347  0.038399182            3 
 1003000    1.0608734   -6.4722673    456.23901  0.037906199  0.038390789            3 
 1004000    1.0995466   -6.4266869    458.83512  0.038083924  0.038382519            3 
 1005000    1.0828763   -6.4848857    458.63695  0.038029598  0.038374501            3 
 1006000    1.1144983   -6.4412455    459.36416  0.038052035  0.038366131            5 
 1007000    1.0786741   -6.4757371    459.62466  0.038035804  0.038357788            3 
 1008000    1.0937676   -6.4699802    460.26333   0.03805087  0.038349736            4 
 1009000    1.0953932   -6.4790573    459.84449  0.037978567  0.038341668            2 
 1010000    1.0966996   -6.5020318      459.671   0.03792665  0.038333392            4 
 1011000    1.0656976   -6.4759273    460.29747  0.037940774  0.038325204            2 
 1012000    1.0860006   -6.4543489    460.20233  0.037895449  0.038316854            3 
 1013000    1.0747032   -6.5119789    461.98488  0.038004679  0.038308513            3 
 1014000    1.0933282   -6.4972993      462.128  0.037978961  0.038300391            6 
 1015000    1.0825968   -6.4230305    462.93509  0.038007807  0.038292363            2 
 1016000    1.0864249   -6.4457503    463.62573  0.038027045  0.038284434            4 
 1017000    1.1061956   -6.4745839    463.12733  0.037948814  0.038276727            3 
 1018000     1.075532   -6.4741945     463.4655  0.037939219  0.038268928            2 
 1019000    1.0756628   -6.4577902    463.78841  0.037928395  0.038260876            4 
 1020000    1.0822186   -6.4515259    462.94623  0.037822405  0.038252863            4 
 1021000    1.0857503   -6.4555052    463.76454   0.03785215  0.038244882            3 
 1022000    1.0603827   -6.4537907    464.56101  0.037880056  0.038236712            4 
 1023000    1.0889578    -6.478624    465.59933   0.03792761  0.038228538            3 
 1024000    1.0857869   -6.4725425    466.81219  0.037989273  0.038220499            2 
 1025000    1.0823799   -6.4688213    466.26347  0.037907599  0.038212623            3 
 1026000    1.0775505   -6.5001537    465.79527  0.037832624  0.038204619            5 
 1027000     1.080046   -6.4659138    467.07288  0.037899455  0.038196746            3 
 1028000    1.0903077   -6.4540892    467.34448  0.037884604    0.0381889            3 
 1029000    1.1153596    -6.465733    467.62814   0.03787076  0.038180901            4 
 1030000    1.0855299   -6.4666087    467.93274  0.037858636  0.038172898            3 
 1031000    1.0738842    -6.433946    469.12646  0.037918401  0.038165102            8 
 1032000    1.0825158    -6.506067    467.94025  0.037785873  0.038156925            2 
 1033000    1.0833298   -6.4669202    467.40469   0.03770609  0.038148629            4 
 1034000    1.0747792   -6.4963454     468.4315  0.037752378  0.038140226            3 
 1035000    1.0718114   -6.4823224    468.97576  0.037759723  0.038131572           10 
 1036000     1.070675   -6.5009685    467.94896  0.037640682  0.038123194            5 
 1037000     1.102189    -6.438348    470.59289  0.037816851   0.03811496            2 
 1038000    1.0654773   -6.4812605    470.07068  0.037738494  0.038106681            5 
 1039000    1.1179782   -6.4844423    471.22386  0.037794663  0.038098392            2 
 1040000    1.0852515   -6.4362931    472.25075  0.037840605  0.038090281            4 
 1041000    1.0810328    -6.458093     471.1477  0.037715954  0.038082245            4 
 1042000    1.0982102   -6.4776442    471.76085  0.037728795  0.038073979            8 
 1043000    1.0825477   -6.4673143    472.02529   0.03771375  0.038065783            2 
 1044000    1.0892947   -6.4791774    472.58426  0.037722243  0.038057658            8 
 1045000     1.081962   -6.4374414    473.19411  0.037734778  0.038049441            4 
 1046000    1.0858175   -6.4994212    472.47631  0.037641516  0.038041198            6 
 1047000    1.0768101   -6.4773245    473.22954  0.037665516  0.038032881            3 
 1048000    1.0794637   -6.4710122     472.3286  0.037557935  0.038024855            2 
 1049000     1.084273   -6.4902954    474.25956  0.037675529  0.038016493            3 
 1050000     1.058545   -6.5143844     474.0292  0.037621365  0.038008182            3 
 1051000    1.0837585   -6.4845716    475.34007  0.037689508  0.038000016            4 
 1052000    1.0890391    -6.462694    474.47317  0.037585011  0.037991909            1 
 1053000    1.0952588   -6.4118976    477.44164  0.037784239  0.037983994            4 
 1054000    1.0835654   -6.5035947    477.72496  0.037770791  0.037976148            5 
 1055000    1.0933929   -6.5039662    476.30264  0.037622641  0.037968072            4 
 1056000    1.0761928   -6.4878358     478.1699  0.037734367  0.037960003            5 
 1057000    1.0566073   -6.4957921    477.45883  0.037642607  0.037952196            2 
 1058000     1.113769   -6.4891338    477.46606  0.037607598  0.037944112            2 
 1059000    1.0890484    -6.517821     479.0747   0.03769867   0.03793604            4 
 1060000    1.0855332   -6.5260236    477.72259  0.037556808  0.037928092            6 
 1061000    1.0779703   -6.4704943    479.12792  0.037631787  0.037920268            2 
 1062000    1.1060452   -6.4653412    479.02881  0.037588576  0.037912507            6 
 1063000    1.0681213   -6.4656938    479.53451  0.037592859  0.037904523            4 
 1064000    1.0917907   -6.4718466    479.41717  0.037548337  0.037896665            3 
 1065000    1.0721288   -6.4793827    481.26051  0.037657317   0.03788862            5 
 1066000    1.0817099    -6.466996    480.89823   0.03759367  0.037880565            4 
 1067000    1.0748397   -6.4707916    481.11599  0.037575444  0.037872854            2 
 1068000    1.0818082   -6.4948036    480.23371  0.037471419  0.037864952            7 
 1069000    1.0896552   -6.4719669    483.89147  0.037721505  0.037857182            4 
 1070000    1.0799708   -6.4806682     483.5121  0.037656706  0.037849302            6 
 1071000    1.0844642   -6.4866389    482.08282  0.037510335  0.037841603            3 
 1072000    1.0873088    -6.458094    483.03495  0.037549358  0.037833909            3 
 1073000    1.0637999   -6.4613238    483.93942  0.037584609  0.037826152            3 
 1074000     1.086745   -6.5104546    484.05262  0.037558397  0.037818538            3 
 1075000    1.0733256   -6.5071553    484.51244  0.037559104   0.03781108            5 
 1076000    1.0861363    -6.483446    486.14108  0.037650332  0.037803536            3 
 1077000    1.0575531    -6.464198    485.33085  0.037552681  0.037796192            6 
 1078000    1.0929981   -6.5260854    484.69932  0.037469026  0.037789036            7 
 1079000    1.0828658   -6.5044044     486.8935  0.037603761   0.03778142            3 
 1080000    1.0582646   -6.4868842    487.61607  0.037624697  0.037774055            2 
 1081000    1.0811168   -6.4688547    487.49939  0.037580896  0.037766384            3 
 1082000    1.0881901   -6.4575411     487.9337  0.037579613   0.03775885            3 
 1083000    1.0993457   -6.4896563    487.44232  0.037507104  0.037751204            3 
 1084000    1.1016581   -6.5139867      487.654  0.037488776   0.03774384            2 
 1085000    1.0779801   -6.4852636    488.00575  0.037481241  0.037736271            3 
 1086000    1.0668083   -6.4858221    488.83158  0.037510096  0.037728958            4 
 1087000    1.0559732   -6.4613067    488.60845  0.037458483  0.037721458            3 
 1088000    1.1082761   -6.4641279    489.51295  0.037493333  0.037713852            2 
 1089000    1.0723945   -6.4764515    489.89388  0.037488053  0.037706139            6 
 1090000    1.0798855   -6.4692344    488.51129  0.037347958  0.037698656            7 
 1091000    1.0613756   -6.4953471     490.4203   0.03745954  0.037690986            2 
 1092000    1.1007601    -6.480179    490.60791  0.037439554  0.037683204            3 
 1093000    1.0649896   -6.5002446    491.16401  0.037447698  0.037675655            4 
 1094000    1.0466318   -6.5080503    492.02703  0.037479207  0.037668019            4 
 1095000    1.0870856   -6.4770831    491.70998  0.037420851  0.037660527            1 
 1096000    1.0659269    -6.528981    490.72494  0.037311811  0.037652634            3 
 1097000    1.0773948   -6.4915158    492.24104  0.037392969  0.037644626            6 
 1098000    1.0620853   -6.5133433    489.85668  0.037177951  0.037636637            3 
 1099000    1.0531998   -6.4794969     491.0528  0.037234819  0.037628369            5 
 1100000    1.0702128   -6.4889446    492.97362  0.037346487   0.03762005            3 
 1101000     1.055433   -6.4669979    494.36853  0.037418145  0.037612028            4 
 1102000    1.0748741   -6.5067543    493.33968  0.037306388  0.037603909            3 
 1103000    1.1064242   -6.5001312    492.69581  0.037223921  0.037595729            3 
 1104000    1.0659591   -6.5312571    494.00055  0.037288689  0.037587621            5 
 1105000    1.0815269   -6.4886479    493.19853  0.037194459  0.037579381            2 
 1106000    1.0762426   -6.5160785    493.54224  0.037186727  0.037571141            6 
 1107000    1.0668287   -6.4698372    495.20424  0.037278247  0.037562732            3 
 1108000    1.0936058   -6.4950407    493.73738  0.037134279  0.037554452            2 
 1109000    1.0806845   -6.4962225    494.53683  0.037160868  0.037546194            8 
 1110000    1.0681652   -6.5133838    494.45539  0.037121275  0.037537746            3 
 1111000    1.0600594   -6.5151696    495.48732  0.037165266  0.037529617            3 
 1112000    1.0846076   -6.5159475    496.89524  0.037237353  0.037521522            4 
 1113000    1.0543845     -6.51365    494.79113  0.037046356  0.037513464            3 
 1114000    1.0664348   -6.5224093    496.97162  0.037176214  0.037505208            5 
 1115000    1.0667586   -6.4737467    498.19183  0.037234068  0.037497152            2 
 1116000    1.0930287   -6.5129997    497.14378  0.037122445  0.037488736            5 
 1117000    1.0659661   -6.4762351    496.95366  0.037075027   0.03748008            3 
 1118000    1.0775228   -6.4976643    497.43552  0.037077782  0.037471441            6 
 1119000    1.0702049   -6.4626755    499.24204   0.03717918  0.037462918            3 
 1120000    1.0681754   -6.4747132    500.12491  0.037211675  0.037454545            7 
 1121000    1.0643761   -6.4877359    499.17738  0.037108042  0.037446103            3 
 1122000    1.0785191   -6.5309413    499.23996  0.037079616  0.037437768            2 
 1123000    1.0814199      -6.4512    500.30569  0.037125682  0.037429491            3 
 1124000    1.0686269   -6.4986906    500.61738  0.037115761  0.037421425            3 
 1125000    1.0723802   -6.5171924    500.90598  0.037104147  0.037413324            4 
 1126000    1.0623925   -6.5097943    501.28586  0.037099309  0.037405049            4 
 1127000    1.0706451   -6.5118039    500.50542  0.037008683  0.037396813            2 
 1128000    1.0529776   -6.4934182     502.3842  0.037114672  0.037388662            3 
 1129000    1.0681922   -6.4650096    502.35697  0.037079788  0.037380669            9 
 1130000     1.084632    -6.524422    500.70176  0.036924908  0.037372279            3 
 1131000    1.0647839   -6.5137856     502.9904   0.03706089  0.037363924            5 
 1132000     1.084333   -6.4653172    505.05638   0.03718024  0.037355682            2 
 1133000    1.0772288   -6.5042478    503.72997  0.037049865  0.037347439            4 
 1134000    1.0726368   -6.5094071    504.11423  0.037045432  0.037339357            3 
 1135000     1.084991    -6.528856    503.40379  0.036960631  0.037331317            7 
 1136000    1.0397749   -6.5003163    503.34634  0.036923881  0.037323252            3 
 1137000    1.0823685   -6.4883741    504.70393  0.036990906  0.037315182            2 
 1138000    1.0758096   -6.5245396    504.51579  0.036944624  0.037307201            6 
 1139000    1.0471264   -6.4539327     506.7952  0.037078958  0.037299162            1 
 1140000     1.081262   -6.5150153    505.35813  0.036941384  0.037290932            5 
 1141000    1.0887189   -6.5012641    506.82242  0.037015952  0.037282805            6 
 1142000    1.0831338   -6.4869872    508.30168  0.037091483  0.037274593            2 
 1143000    1.0427202   -6.5260113     507.0476    0.0369676  0.037266521            5 
 1144000    1.0651778   -6.4960196    506.99151  0.036931199  0.037258234            4 
 1145000    1.0679717   -6.5176267    506.86624  0.036889828  0.037249633            2 
 1146000    1.0627837   -6.5228416    508.11115  0.036948164  0.037241491            5 
 1147000    1.0680573   -6.5232298    507.11953  0.036843907  0.037233242            4 
 1148000    1.0728056    -6.505613    508.08438  0.036881851  0.037224868            3 
 1149000    1.0842881   -6.5133266    508.48924  0.036879115  0.037216463            3 
 1150000    1.0725136   -6.4874267    509.63717   0.03693023  0.037207994            2 
 1151000    1.0740446   -6.5449037    507.71669    0.0367591  0.037199407            7 
 1152000    1.0774103    -6.520329     509.3916  0.036848351  0.037190694            9 
 1153000    1.0723766    -6.528088    509.22658  0.036804465   0.03718221            4 
 1154000    1.0552171    -6.503498    510.83813  0.036888946   0.03717385            2 
 1155000    1.0701653   -6.4997873    511.97653  0.036939143  0.037165527            4 
 1156000    1.0591889   -6.5248475    510.67564  0.036813411  0.037157207            2 
 1157000    1.0593724   -6.4602176    512.02555  0.036878821   0.03714877            5 
 1158000    1.0733282   -6.5030958    511.32529  0.036796581  0.037140375            9 
 1159000    1.0606307   -6.4962036    510.64564  0.036715965  0.037131952            4 
 1160000    1.0609584   -6.4887359    513.03775   0.03685616  0.037123896            3 
 1161000    1.0779678   -6.4796577     511.4847  0.036712941   0.03711595            4 
 1162000    1.0820385   -6.5099246    514.99908  0.036933382  0.037107782            3 
 1163000    1.0736497   -6.4987619    515.22924  0.036918117  0.037099769            3 
 1164000    1.0800796   -6.5131749    513.78109  0.036782724  0.037091414            5 
 1165000    1.0622262   -6.5492266    513.17778  0.036707996  0.037083097            2 
 1166000    1.0787057    -6.508597    514.63703  0.036780805   0.03707461            5 
 1167000    1.0659745   -6.5360883    514.12307  0.036712587  0.037066077            4 
 1168000    1.0352444   -6.5132704    514.43977  0.036703751  0.037057598            7 
 1169000    1.0714509      -6.5282    513.69224  0.036619065  0.037049124            3 
 1170000    1.0520291   -6.5440721    514.27625  0.036629363  0.037040601            3 
 1171000    1.0674134   -6.5159958    514.89108  0.036641836  0.037031947            3 
 1172000    1.0721302   -6.4880392    517.14464  0.036770808  0.037023488            4 
 1173000    1.0632841   -6.5279593     515.4851  0.036621562  0.037015074            2 
 1174000     1.061315    -6.548462    516.68075  0.036675238  0.037006485            4 
 1175000    1.0500504   -6.5036599    516.83202  0.036654753  0.036998279            2 
 1176000    1.0636113   -6.5061139    517.95211  0.036702956  0.036990016            2 
 1177000    1.0734461   -6.5086262    517.85605  0.036664971   0.03698165            2 
 1178000    1.0487689    -6.507271    517.14464   0.03658352  0.036973243            4 
 1179000    1.0599505    -6.535506    518.13973  0.036622825  0.036964753            3 
 1180000    1.0481461   -6.4985678     517.7687  0.036565586   0.03695615            3 
 1181000    1.0753632   -6.5167717    519.91931  0.036686376  0.036947566            3 
 1182000    1.0764793    -6.516878    518.26585  0.036538765  0.036939066           10 
 1183000    1.0626656    -6.566977    517.83422  0.036477474  0.036930625            5 
 1184000    1.0580381    -6.531243    519.83483  0.036587474  0.036921997            3 
 1185000    1.0440077   -6.4907975    520.16619  0.036579901  0.036913592            4 
 1186000    1.0527256   -6.5267832    520.36835  0.036563263  0.036905424            6 
 1187000    1.0736517   -6.4888636    523.14634  0.036727488  0.036897484            3 
 1188000    1.0758592   -6.5321755    522.16158  0.036627496  0.036889462            5 
 1189000    1.0800555   -6.5098055    523.20727  0.036669979  0.036881531            3 
 1190000     1.058638   -6.5165234    523.06705  0.036629345   0.03687352            2 
 1191000    1.0501588   -6.5209099    524.13315  0.036673184  0.036865552            5 
 1192000    1.0749131   -6.5280584    523.18044  0.036575814  0.036857354            5 
 1193000    1.0738343   -6.5083614    524.47354  0.036635481  0.036849274            5 
 1194000    1.0980975   -6.5263774    525.85221   0.03670102  0.036841285            3 
 1195000    1.0629834   -6.5357871    524.11545  0.036549195  0.036833399            8 
 1196000    1.0446251   -6.5497487    524.95392  0.036577057  0.036825452            2 
 1197000    1.0416427   -6.4908602    524.88826  0.036541929  0.036817308            5 
 1198000    1.0464778   -6.5329829    525.14789  0.036529486  0.036809202            2 
 1199000      1.05543   -6.5094239    525.07278  0.036493799  0.036801234            4 
 1200000    1.0618218   -6.5226679    526.21014  0.036542371    0.0367933            2 
 1201000    1.0707924   -6.5438968    525.62269  0.036471183  0.036785251            2 
 1202000    1.0556267   -6.5135097    527.54964  0.036574434  0.036777346            4 
 1203000    1.0543062   -6.5098477    530.11977  0.036722068  0.036769624            6 
 1204000      1.04507   -6.5332478    528.11874  0.036553069  0.036761896            4 
 1205000    1.0504389    -6.483949    529.15077  0.036594106  0.036754191            3 
 1206000    1.0487179   -6.5072673    529.21251  0.036568029  0.036746392            5 
 1207000    1.0517007   -6.5374125    529.10623  0.036530394  0.036738668            4 
 1208000    1.0471366    -6.514629    529.18807    0.0365058  0.036730689            4 
 1209000     1.077234   -6.5340365    529.62462  0.036505695  0.036722852            2 
 1210000    1.0636348   -6.5602197    529.17305  0.036444425  0.036714806            4 
 1211000     1.059607   -6.5333566    530.93023  0.036535248   0.03670698            3 
 1212000    1.0489918   -6.5274892    530.11969  0.036449374  0.036699205            4 
 1213000     1.030701   -6.5267004    530.89992  0.036472927  0.036691477            4 
 1214000    1.0665776   -6.5343639    533.11015  0.036594601  0.036683853            6 
 1215000    1.0603877   -6.5568969    530.71023  0.036399879  0.036676223            4 
 1216000    1.0603349   -6.5166634    531.78751  0.036443771  0.036668397            5 
 1217000    1.0666331     -6.53263    532.55029  0.036466057  0.036660748            4 
 1218000    1.0491639   -6.5083987    534.61658  0.036577489  0.036653073            3 
 1219000    1.0455839   -6.5255956    535.36717  0.036598795  0.036645202            5 
 1220000    1.0580898   -6.5734653    531.48184  0.036303404  0.036637146            3 
 1221000    1.0753956   -6.5256893    534.98791  0.036512961  0.036629262            4 
 1222000    1.0519494   -6.5501277    534.06982  0.036420473  0.036621433            6 
 1223000    1.0351377   -6.5536728    531.42978  0.036210805  0.036613338            7 
 1224000    1.0610038    -6.459825    535.33411  0.036447039  0.036605433            2 
 1225000    1.0416824   -6.5592127    535.32342  0.036416559  0.036597502            6 
 1226000    1.0745562   -6.5153958    536.09149  0.036439063  0.036589393            6 
 1227000    1.0537013   -6.5125378     536.0303  0.036405209  0.036581447            5 
 1228000    1.0640927   -6.5241066     537.9506  0.036505877  0.036573504            8 
 1229000    1.0640477   -6.5884552    535.73049  0.036325637  0.036565655            4 
 1230000    1.0497991   -6.5108741    536.46268   0.03634571  0.036557868            3 
 1231000    1.0663466   -6.5558661    536.67274  0.036330405  0.036550104            3 
 1232000    1.0630293   -6.5159639    538.00762  0.036391208  0.036542423            3 
 1233000    1.0599008   -6.5308459    536.42797  0.036254932  0.036534572            3 
 1234000    1.0593651   -6.5177696    538.76188  0.036383163  0.036526776            3 
 1235000    1.0336001   -6.5388869    537.88215  0.036294342  0.036518828            3 
 1236000    1.0563066   -6.5530558    538.14286  0.036282555  0.036510833            7 
 1237000     1.036067   -6.5240296    538.52653  0.036279071  0.036502886            6 
 1238000    1.0632255   -6.5137172    539.09872  0.036288282  0.036495172            2 
 1239000    1.0136816   -6.5212336    539.26901  0.036270447  0.036487392            2 
 1240000    1.0568241   -6.5412053    538.50506  0.036189856  0.036479561            4 
 1241000    1.0452783    -6.566863    539.30471  0.036214391  0.036471626            6 
 1242000    1.0479079   -6.5530772    540.49542  0.036265124  0.036463664            5 
 1243000    1.0780169   -6.5402094    540.66317  0.036247196  0.036455796           15 
 1244000    1.0559418   -6.5639708    539.34952  0.036130059  0.036447867            3 
 1245000    1.0471559   -6.5562253     541.7552  0.036262061  0.036440048            3 
 1246000     1.082669   -6.5508492     540.4595  0.036146302  0.036432332            5 
 1247000    1.0669231   -6.5628059    540.06351  0.036090852  0.036424412            4 
 1248000    1.0552611    -6.560938    542.56657  0.036229071  0.036416459            8 
 1249000    1.0617509    -6.595362    541.55424  0.036132522  0.036408474            3 
 1250000    1.0556837   -6.5160166    543.22609  0.036215073  0.036400519            6 
 1251000    1.0825523   -6.5618915    540.89485  0.036030832  0.036392591            3 
 1252000    1.0851743   -6.5367278    542.02536    0.0360773  0.036384793            3 
 1253000    1.0517684   -6.5592301     543.3046  0.036133586  0.036376894            2 
 1254000    1.0658873   -6.5294342    544.40957  0.036178201  0.036368793            5 
 1255000    1.0672379   -6.5498188     545.5499  0.036225093  0.036361054            4 
 1256000    1.0505389   -6.5283805    545.92794  0.036221334  0.036353422            3 
 1257000    1.0432315    -6.528849    546.43547  0.036226165  0.036345733            3 
 1258000    1.0657947   -6.5643147    544.28158  0.036054689  0.036338014            3 
 1259000    1.0405899   -6.5494881    544.25176  0.036024077  0.036330241            4 
 1260000    1.0421976   -6.5522074    545.03589  0.036047347  0.036322368            5 
 1261000    1.0529563   -6.5416969    545.44464  0.036045773  0.036314429            4 
 1262000    1.0338903   -6.5350274    546.69136  0.036099535  0.036306738            6 
 1263000    1.0500131   -6.5563882    546.17659  0.036036988  0.036298858            8 
 1264000    1.0520752   -6.5105535     547.6735  0.036107166  0.036290901            3 
 1265000    1.0575996   -6.5221791    547.28392  0.036052959  0.036283164            3 
 1266000    1.0544587   -6.5661201    547.00436   0.03600608  0.036275065            4 
 1267000    1.0440177   -6.5344217     547.9817  0.036041943  0.036266932            2 
 1268000    1.0623206   -6.5313068    547.36604  0.035973057    0.0362591            2 
 1269000    1.0589395   -6.5122177    550.43403   0.03614618  0.036251259            4 
 1270000    1.0679784   -6.5476248    549.09979   0.03603017  0.036243433            4 
 1271000    1.0604919   -6.5520621    548.05262  0.035933164  0.036235452            2 
 1272000    1.0422677   -6.5144472     550.5971  0.036071613  0.036227627            3 
 1273000    1.0374888   -6.4991802     551.6904  0.036114847  0.036219874            2 
 1274000    1.0528649   -6.5336305    549.05881  0.035914365  0.036211916            2 
 1275000    1.0480892   -6.5300899    551.20561   0.03602651  0.036203971            4 
 1276000    1.0415632    -6.549824    550.05557   0.03592317  0.036196004            5 
 1277000    1.0350689   -6.5497184    550.34094  0.035913661  0.036187933            6 
 1278000    1.0410342   -6.5601886    550.47851   0.03589453  0.036179787            3 
 1279000    1.0466064   -6.5204677     551.5176  0.035934167  0.036171725            6 
 1280000    1.0364586   -6.5355385    551.90062   0.03593103  0.036163747            4 
 1281000      1.05983   -6.5365255    551.88945  0.035902254   0.03615566            4 
 1282000    1.0460146   -6.5464168    551.28302   0.03583483  0.036147393            3 
 1283000    1.0420962   -6.5589384    551.43178  0.035816561  0.036139205            7 
 1284000    1.0362121   -6.5914932    551.61026   0.03580025  0.036131027            2 
 1285000    1.0649061    -6.539066    553.35272   0.03588539  0.036123031            3 
 1286000    1.0458363   -6.5563228    554.37282  0.035923589  0.036115091            3 
 1287000    1.0273297   -6.5315788    554.28018  0.035889677  0.036106952            3 
 1288000    1.0551593   -6.5810319    551.81231  0.035702142  0.036098809            3 
 1289000    1.0294961   -6.5453495     553.8444  0.035805818  0.036090578            8 
 1290000    1.0340824   -6.5713084    553.35088  0.035746181  0.036082251            2 
 1291000    1.0656788   -6.5308586    554.37945  0.035784885  0.036074099            6 
 1292000    1.0741535   -6.5550142    555.23469  0.035812351  0.036065972            5 
 1293000    1.0430173   -6.5220528    555.36262  0.035792899   0.03605783            7 
 1294000    1.0542812   -6.5960621    556.75647  0.035855002  0.036049771            4 
 1295000    1.0493582   -6.5430548    554.99345  0.035713864  0.036041587            5 
 1296000    1.0182967   -6.5545874    556.60312   0.03578981  0.036033392            3 
 1297000    1.0539614   -6.5392983    556.15958  0.035733717  0.036025455            4 
 1298000      1.05114   -6.5508934    557.22641   0.03577468  0.036017262            5 
 1299000    1.0378993   -6.5820276     554.9075  0.035598377  0.036009104            2 
 1300000    1.0298341   -6.5373963    557.41356  0.035731638  0.036000834            3 
 1301000     1.047077    -6.530698    558.15738  0.035751818  0.035992386            2 
 1302000    1.0350688   -6.4935305    557.52008  0.035683569  0.035983955            5 
 1303000    1.0214257   -6.5579916    557.17752  0.035634275  0.035975314            5 
 1304000    1.0476871   -6.5477305    557.73705  0.035642705   0.03596673            2 
 1305000    1.0370353   -6.5277101    559.26506  0.035712967  0.035958172            5 
 1306000    1.0425595   -6.5419271    556.94665  0.035537689  0.035949713            1 
 1307000    1.0526302   -6.5514057    557.80596  0.035565287  0.035941087            3 
 1308000    1.0524036   -6.5426198    558.84389  0.035604223  0.035932625            5 
 1309000     1.033973   -6.5514385    557.59157  0.035497299  0.035923987            2 
 1310000    1.0206265    -6.552421    561.45589  0.035716024   0.03591535            3 
 1311000    1.0285083   -6.5390839    558.93017  0.035528233  0.035906888            5 
 1312000    1.0466306   -6.5585139    560.15086  0.035578688  0.035898494            4 
 1313000    1.0542954   -6.5260937    560.88448  0.035598152  0.035890244            3 
 1314000    1.0376415   -6.5649741    559.80836  0.035502814  0.035881732            8 
 1315000    1.0275966   -6.5813556    561.77012  0.035600134  0.035873039            3 
 1316000    1.0183409   -6.5816038    560.94768  0.035521003  0.035864252            6 
 1317000    1.0518342   -6.5412568    560.85459  0.035488141  0.035855697            5 
 1318000    1.0467886   -6.5477066    560.76551  0.035455584  0.035847081            8 
 1319000    1.0303464   -6.5913742    561.72934  0.035489597  0.035838461            4 
 1320000    1.0219072   -6.5702971    561.82668  0.035468856  0.035829737            4 
 1321000    1.0436664   -6.5574719      563.406  0.035541635  0.035821183            2 
 1322000     1.050474   -6.5613649    562.93643  0.035485151  0.035812791            5 
 1323000    1.0431795   -6.5507245    563.66458  0.035504193   0.03580429            2 
 1324000    1.0290012   -6.5560767    562.31182  0.035392235  0.035795666            2 
 1325000    1.0504725   -6.5857879    563.28454  0.035426701  0.035786914            4 
 1326000    1.0238898    -6.574247    563.29396  0.035400575  0.035778293            5 
 1327000    1.0363884   -6.5717595     563.1001  0.035361725  0.035769637            5 
 1328000     1.043267   -6.5685891    563.98985  0.035390929  0.035760937            2 
 1329000    1.0339707    -6.523557    565.21563  0.035441161  0.035752102            2 
 1330000    1.0253507   -6.5452793    563.28107    0.0352933  0.035743164            5 
 1331000    1.0464866   -6.5313587     565.2615  0.035390777  0.035734356            2 
 1332000    1.0533634   -6.5654529    563.91814  0.035280164  0.035725404            2 
 1333000    1.0519865   -6.5432687    563.96085  0.035256367  0.035716601            2 
 1334000    1.0390088   -6.5469077    565.37408  0.035318221  0.035707834            2 
 1335000    1.0394261   -6.5502123    564.79501  0.035255618  0.035698877            3 
 1336000     1.016068   -6.5520019    566.11761  0.035311727  0.035689798            4 
 1337000    1.0292084   -6.5294343    566.82137  0.035329181  0.035680978            9 
 1338000    1.0396182   -6.5635642    565.76336  0.035236881  0.035672111            7 
 1339000    1.0514089   -6.5750966    567.25227  0.035303228  0.035663127            3 
 1340000    1.0451733    -6.599724    567.51694  0.035293342  0.035654299            3 
 1341000      1.04832   -6.5354359    567.51706  0.035267031  0.035645398            2 
 1342000    1.0303968   -6.5713536    566.80282  0.035196399  0.035636435            4 
 1343000    1.0301924   -6.5539737    568.33907  0.035265517  0.035627594            6 
 1344000    1.0327161   -6.5728719    567.73036  0.035201535  0.035618576            2 
 1345000    1.0198252    -6.577314    568.05944  0.035195752    0.0356097            5 
 1346000    1.0172679   -6.5243806    569.94141   0.03528612  0.035600796            4 
 1347000    1.0325522   -6.5710174    569.62341   0.03524025  0.035591885            3 
 1348000    1.0638725   -6.5598973    567.70993  0.035095817  0.035583134            3 
 1349000    1.0178253    -6.553757    569.85159    0.0352021  0.035574259            2 
 1350000    1.0456598   -6.5923243    567.39547  0.035024412    0.0355653            2 
 1351000    1.0420668   -6.5354043    568.50191  0.035066735  0.035556201            7 
 1352000     1.032339    -6.561911    568.40217   0.03503465  0.035547155            4 
 1353000    1.0186067   -6.5620693    570.02137  0.035108486  0.035538261            4 
 1354000    1.0400806   -6.6150931    569.27921  0.035036879  0.035529306            7 
 1355000     1.032016   -6.5813242    570.45421  0.035083285  0.035520206            5 
 1356000    1.0522566   -6.5774659    571.25983  0.035106921  0.035511196           10 
 1357000    1.0251936   -6.5417208    569.93305  0.034999573  0.035502321            6 
 1358000    1.0485769   -6.5916785    571.05691  0.035042766  0.035493352            7 
 1359000    1.0527611   -6.5662732    573.33207  0.035156492  0.035484525            4 
 1360000    1.0307895    -6.543857    572.14209  0.035057726  0.035475624            4 
 1361000    1.0298402   -6.5629308     572.3301  0.035043479  0.035466698           11 
 1362000    1.0433213   -6.5748134    574.33909  0.035140669  0.035457939            2 
 1363000    1.0300785   -6.5997365     571.8559  0.034963066  0.035448863            7 
 1364000    1.0577524   -6.5556528    572.72617  0.034990602  0.035439739            5 
 1365000    1.0103407   -6.5427724    574.70341  0.035085678  0.035430506            4 
 1366000    1.0405422   -6.5788634    572.06252  0.034898885  0.035421487           10 
 1367000    1.0291525   -6.6043284     572.2847  0.034886899  0.035412286            5 
 1368000    1.0476943   -6.5556359    575.13669   0.03503513  0.035403085            8 
 1369000    1.0415661    -6.580836     573.9914  0.034939822  0.035394029            4 
 1370000    1.0119435   -6.6206846    573.74625  0.034899407  0.035384928            6 
 1371000    1.0297371   -6.6111284    574.57545  0.034924353  0.035375779            2 
 1372000    1.0115471   -6.5963465    574.50298  0.034894496  0.035366618            2 
 1373000     1.033832   -6.5722871    574.69801  0.034880918  0.035357473            3 
 1374000    1.0350733   -6.5328162    575.10855  0.034880431   0.03534826            3 
 1375000    1.0344016   -6.5400213    575.99639  0.034908872  0.035339069            4 
 1376000     1.020822   -6.5899194    575.79537  0.034871328  0.035330098            5 
 1377000    1.0022247   -6.6068162    578.21351  0.034992345  0.035321061            6 
 1378000    1.0178079   -6.5845492    577.87006  0.034946182  0.035312159            4 
 1379000    1.0391989   -6.5846799    578.57357  0.034963353  0.035303278            3 
 1380000    1.0280863   -6.6066135    577.05297  0.034846194    0.0352945            2 
 1381000    1.0231217   -6.5498252    580.57218   0.03503332  0.035285842            3 
 1382000    1.0243682   -6.5604883    581.17495  0.035044317  0.035277055            3 
 1383000     1.017503   -6.5487484    579.32713  0.034907636  0.035268322            4 
 1384000   0.99306232   -6.5372451    580.83947  0.034973475  0.035259509            5 
 1385000    1.0387335   -6.5715643    579.62939  0.034875414  0.035250608            4 
 1386000    1.0385685    -6.563276    579.64915   0.03485144  0.035241628            5 
 1387000    1.0141388   -6.5759044     580.2782  0.034864107  0.035232702            4 
 1388000    1.0179328   -6.5857709    580.73547  0.034866443   0.03522379            3 
 1389000    1.0349111   -6.5809661    579.37837  0.034759922  0.035214879            2 
 1390000    1.0204646    -6.550787     580.6734  0.034812554  0.035205949            3 
 1391000    1.0097834   -6.5751081    581.65073  0.034846078  0.035197031            5 
 1392000    1.0376362   -6.5823375    580.10246  0.034728356  0.035188058            5 
 1393000    1.0247718   -6.5939306    579.43439  0.034663459  0.035178958            3 
 1394000    1.0515263   -6.5913035    580.56403  0.034706123  0.035169747            5 
 1395000    1.0138438   -6.6109791    581.01687  0.034708296  0.035160572            3 
 1396000    1.0418224   -6.5697925    581.49001  0.034711677  0.035151338            2 
 1397000    1.0389456   -6.6191629    579.86787  0.034590066  0.035142126            4 
 1398000    1.0497388   -6.5841673    582.43516  0.034718357  0.035133006            8 
 1399000    1.0235996   -6.6228954    581.76638  0.034653704  0.035123851            4 
 1400000    1.0189585   -6.5772854     583.8781  0.034754649  0.035114843            6 
 1401000    1.0187849   -6.5906716    583.41785  0.034702465  0.035105898            5 
 1402000    1.0338788   -6.5672493     583.9138  0.034707192  0.035096972            3 
 1403000    1.0139607   -6.6194136    583.87525  0.034680164  0.035088098            4 
 1404000    1.0448852   -6.5817097    584.72635   0.03470598   0.03507925            4 
 1405000     1.024635   -6.6179254    584.68633  0.034678905  0.035070506            4 
 1406000     1.012946   -6.5715483    584.92677  0.034668491  0.035061692            4 
 1407000    1.0318841   -6.6091187    585.72567  0.034691167  0.035053104            4 
 1408000    1.0087047    -6.545457    588.40284  0.034824979  0.035044408            4 
 1409000    1.0336158    -6.599262    585.19754   0.03461069  0.035035714            4 
 1410000    1.0159562   -6.6186409    585.37842  0.034596833  0.035026881            5 
 1411000     1.031933   -6.6100617    586.58468  0.034643555  0.035018008            5 
 1412000    1.0358878   -6.5610647    586.90254   0.03463778  0.035009079            4 
 1413000    1.0370957    -6.597541    587.90893  0.034672619  0.035000347            3 
 1414000     1.032463      -6.6266    587.37995  0.034616923  0.034991651            3 
 1415000    1.0399569   -6.6319802    588.29684  0.034646457  0.034982793            5 
 1416000    1.0227015   -6.5976916    588.48638  0.034633144  0.034973981            2 
 1417000    1.0201932   -6.6234112    587.55431  0.034553888  0.034965224            3 
 1418000    1.0313566   -6.5957318    589.48235  0.034642828  0.034956475            3 
 1419000    1.0117078   -6.5730791    589.79112  0.034636547  0.034948032            2 
 1420000    1.0160649   -6.5627142     589.9712  0.034622723  0.034939517            4 
 1421000    1.0262498   -6.5664953    590.50063  0.034629406  0.034931067            2 
 1422000    1.0412537   -6.6323919    589.82297   0.03456534  0.034922562            8 
 1423000    1.0169765   -6.5992779     589.6394    0.0345303  0.034913992            7 
 1424000    1.0355913   -6.5958497    590.38017  0.034549401    0.0349055            5 
 1425000    1.0348669    -6.574283    591.58296  0.034595495  0.034897051            6 
 1426000    1.0203939    -6.573874    592.96429  0.034651957  0.034888616            5 
 1427000    1.0364911   -6.5856893    592.15941  0.034580671  0.034880243            3 
 1428000    1.0249475   -6.6144747    592.62525   0.03458364  0.034871783            4 
 1429000    1.0081264   -6.5950377    591.45943  0.034491452  0.034863337            6 
 1430000    1.0251608   -6.6147615    593.55071  0.034589202  0.034854854            5 
 1431000    1.0170465   -6.5979699    593.68255  0.034572708  0.034846344            2 
 1432000    1.0153811   -6.6230225    592.82189  0.034498481  0.034837858            5 
 1433000    1.0248672   -6.5717294    594.25688  0.034557855  0.034829285            3 
 1434000     1.005357   -6.5966415     593.8946  0.034512703  0.034820672            6 
 1435000    1.0107519   -6.5795609    592.89617  0.034430672  0.034812112            5 
 1436000    1.0191025   -6.5790905     595.0513   0.03453176  0.034803595            5 
 1437000    1.0140707   -6.6307601    593.50489  0.034418052  0.034794864            3 
 1438000    1.0001381   -6.5952898    594.45276  0.034449047  0.034786136            2 
 1439000    1.0324908   -6.5434921    595.42954  0.034481674  0.034777471            2 
 1440000    1.0365391   -6.5978388    594.65563  0.034412941  0.034768835            6 
 1441000    1.0085011    -6.591252    595.99306  0.034466404  0.034760192            5 
 1442000    1.0265808   -6.5634732    596.83532  0.034491177  0.034751722            4 
 1443000    1.0211803   -6.5755854    597.32276  0.034495424  0.034743107            5 
 1444000    1.0367297    -6.600059    597.89986  0.034504839  0.034734637            3 
 1445000    1.0229616    -6.576818    597.70578  0.034469768  0.034726169            3 
 1446000    1.0259631   -6.5897185    597.42716  0.034429873  0.034717639            3 
 1447000    1.0521077   -6.5907128    596.86765  0.034373857  0.034709228            4 
 1448000    1.0228263   -6.6197883    595.90819    0.0342949  0.034700639            2 
 1449000    1.0351928   -6.6021649    599.04485  0.034451625   0.03469217            3 
 1450000    1.0062808   -6.5901376    599.07678    0.0344297  0.034683684            5 
 1451000    1.0296118   -6.6013814    599.67264  0.034440193  0.034675332            3 
 1452000    1.0442345   -6.6090017    599.29705  0.034394918  0.034666817            5 
 1453000    1.0060406   -6.5920837    600.25144  0.034425983  0.034658386            4 
 1454000     1.024212   -6.5886798    598.68737  0.034312664  0.034649865            4 
 1455000    1.0422885   -6.6231579    600.23491  0.034377715  0.034641557            2 
 1456000    1.0118028   -6.6026017    598.98014  0.034282288  0.034633056            3 
 1457000    1.0159057    -6.585975    601.21857  0.034386786  0.034624441            6 
 1458000     1.009494   -6.6184094    599.92762  0.034289416  0.034615975            4 
 1459000    1.0327123   -6.5923154    602.36365  0.034405052  0.034607434            4 
 1460000     1.018286   -6.6036677    600.90203  0.034298061  0.034599022            3 
 1461000    1.0327087   -6.6161262    602.59948  0.034371405  0.034590554            3 
 1462000    1.0282869   -6.5955912    601.66729  0.034294761  0.034582003            2 
 1463000    1.0274016   -6.6400068    602.52494  0.034320172  0.034573468            3 
 1464000     1.016827   -6.6292683    599.79872  0.034141548   0.03456483            5 
 1465000    1.0396523   -6.6074182    603.29822  0.034317305  0.034556347            9 
 1466000    1.0245255   -6.6120945    604.14065  0.034341783  0.034547824            3 
 1467000   0.99443875   -6.5881101     604.6343  0.034346415  0.034539419            4 
 1468000    1.0209251   -6.6031259    603.20581  0.034241929   0.03453108            2 
 1469000    1.0089171   -6.5980142    606.55795  0.034408779  0.034522821            3 
 1470000    1.0127352   -6.5978428    604.72717  0.034281586  0.034514576            4 
 1471000    1.0076514   -6.6051242    605.56734  0.034305877  0.034506369            3 
 1472000    1.0559583   -6.5681121    607.03395    0.0343656  0.034498268            2 
 1473000    0.9973706   -6.6316803    605.92023  0.034279262  0.034490132            4 
 1474000   0.98946708   -6.6053687    607.02097  0.034318237  0.034481817            1 
 1475000    1.0111167    -6.606667    605.21098   0.03419271  0.034473416            3 
 1476000    1.0290805   -6.6271254      605.782  0.034201784  0.034465053            3 
 1477000    1.0209069   -6.5990244    607.25604  0.034261794  0.034456679            5 
 1478000     1.014936   -6.6273223    606.18516  0.034178234  0.034448343            3 
 1479000    1.0317446   -6.6070015     607.5459  0.034231795  0.034439942            4 
 1480000    1.0160372   -6.6180678    605.85563  0.034113493  0.034431665            6 
 1481000     0.995227   -6.5891352    608.12992  0.034218429   0.03442334            4 
 1482000    1.0327137   -6.6237881    608.06443  0.034191657   0.03441501            5 
 1483000    1.0090214    -6.624791    608.69232  0.034203884  0.034406772            7 
 1484000    1.0082768   -6.6046152    606.43217  0.034053918  0.034398462            4 
 1485000    1.0260394   -6.6160436     607.9238  0.034114691  0.034390133            4 
 1486000    1.0160371    -6.627921     608.4572  0.034121646  0.034381659            3 
 1487000    1.0255275   -6.5947192    609.01358   0.03412988  0.034373158            6 
 1488000    1.0263294   -6.6134886    607.58872  0.034027146  0.034364775            5 
 1489000    1.0038184   -6.6305692    609.00026  0.034083292  0.034356191            2 
 1490000    1.0256838   -6.5936878    609.36425  0.034080774  0.034347691            3 
 1491000   0.99627142   -6.5957496    607.53225  0.033955525  0.034339211            5 
 1492000    1.0402637   -6.5962743    612.51398  0.034211013  0.034330894            5 
 1493000    1.0199129   -6.6110523     608.9778  0.033990723  0.034322473            5 
 1494000    1.0195641   -6.5967086     610.3101  0.034042286  0.034313987           11 
 1495000    1.0280718    -6.643211    608.64742  0.033926835  0.034305365           15 
 1496000    1.0041184    -6.667637    610.21624  0.033991546  0.034296554            3 
 1497000    1.0130798   -6.5983902    610.90889  0.034007397  0.034287887            4 
 1498000     1.030856   -6.5766673    611.43011  0.034013691  0.034279173            5 
 1499000    1.0197583   -6.6098805    610.10143  0.033917135  0.034270564            6 
 1500000    1.0070015   -6.6475759    610.15665  0.033897592  0.034261818            6 
 1501000    1.0059973    -6.617592    610.03319  0.033868154  0.034252856            2 
 1502000    1.0158625   -6.6168124    611.03513  0.033901195  0.034244021            3 
 1503000    0.9943592   -6.5979711      610.863  0.033869095  0.034235113            1 
 1504000    1.0116539   -6.6483591    609.08289  0.033747944  0.034226236            5 
 1505000    1.0101849   -6.6293519    613.02445  0.033943768  0.034217198            4 
 1506000    1.0054613   -6.6049616    610.77441  0.033796725  0.034208138            5 
 1507000    1.0182921   -6.6290342    609.53962  0.033706018  0.034199199            4 
 1508000    1.0068082   -6.6101401    610.41489  0.033732034  0.034190097            5 
 1509000   0.98634586   -6.5973221    611.39833   0.03376399  0.034181042            4 
 1510000   0.98804677   -6.6387722    612.60203  0.033808059  0.034171965            9 
 1511000    1.0101011    -6.635462    611.19654   0.03370817  0.034162716            7 
 1512000    1.0195689   -6.6143512    612.73851  0.033770861  0.034153541            3 
 1513000    1.0161057   -6.6238514    613.33748  0.033781531  0.034144327            3 
 1514000    1.0152689   -6.6184931    611.81472  0.033675403  0.034135124            2 
 1515000    1.0134161   -6.6388732    613.12901  0.033725468  0.034125895            5 
 1516000    1.0129045    -6.609093    611.71925  0.033625728   0.03411661            3 
 1517000    1.0166547   -6.6076619    612.36284  0.033638917   0.03410736            3 
 1518000    1.0165363   -6.6506731    611.23959  0.033555094  0.034097998            5 
 1519000   0.99394355    -6.600198    613.66099  0.033665843  0.034088798            5 
 1520000    1.0152177   -6.6516184    612.91935  0.033603034  0.034079588            8 
 1521000    1.0120323   -6.6012884    613.48351  0.033611852  0.034070291            5 
 1522000    1.0076938   -6.6091913    613.43626   0.03358718   0.03406093            3 
 1523000    1.0074433   -6.6212691    613.76006  0.033582844  0.034051473            4 
 1524000   0.98791959   -6.6269567    614.61368  0.033607485  0.034042081            4 
 1525000    1.0040333   -6.6021481    614.68236    0.0335892  0.034032743            2 
 1526000    1.0131546    -6.644887    613.47868  0.033501457  0.034023393            3 
 1527000   0.99933503   -6.6043896    615.77345   0.03360475  0.034013998            7 
 1528000   0.99989271   -6.5941824    616.40794  0.033617362  0.034004948            3 
 1529000   0.99494519   -6.5997253    615.10953  0.033524609  0.033995877            4 
 1530000    1.0040714   -6.6125402     615.3239  0.033514374  0.033986564            6 
 1531000   0.98931879   -6.6350381    616.33117  0.033547309  0.033977212            3 
 1532000    1.0133546   -6.6649551     614.7375  0.033438724  0.033967817            4 
 1533000    1.0118444   -6.6228405    614.99711  0.033431024  0.033958345            3 
 1534000    1.0292069   -6.6217116    617.83703  0.033563506  0.033948971            6 
 1535000   0.99538246   -6.6365426    617.65834   0.03353194  0.033939592            4 
 1536000    1.0047981   -6.6031896    618.14139  0.033536317   0.03393029            6 
 1537000    1.0306447   -6.6498205     613.8561  0.033282157  0.033920879            4 
 1538000    1.0208501   -6.6335204    617.64056   0.03346557  0.033911496            2 
 1539000    1.0094768   -6.6220835    616.88697   0.03340302  0.033902144            3 
 1540000    0.9991085   -6.6481845    618.08209     0.033446  0.033892855            5 
 1541000    1.0129495     -6.62371    617.95581  0.033417467  0.033883496            7 
 1542000   0.98572538   -6.6176152    619.05583  0.033455244  0.033874263            4 
 1543000    1.0063784   -6.6342351    620.13237  0.033491703  0.033865017            3 
 1544000   0.98620807   -6.6321855    618.43886  0.033378608  0.033855728           11 
 1545000    1.0179015   -6.6280904    618.87899  0.033380744  0.033846337            7 
 1546000   0.98960335   -6.6178272    617.83165  0.033302698  0.033836899            3 
 1547000   0.99114783   -6.6376797    618.79006  0.033332798  0.033827476            7 
 1548000   0.99728439   -6.6293024    621.11496  0.033436421  0.033818034            5 
 1549000   0.98963865   -6.5983165    619.17562  0.033310502  0.033808631            4 
 1550000    1.0041059   -6.6444872    619.09733  0.033284803  0.033799144            2 
 1551000    0.9769032   -6.6349017    620.34099  0.033330163  0.033789691            3 
 1552000     1.019119   -6.6114837    619.23345  0.033249219  0.033780148            4 
 1553000    1.0176533   -6.5911499    621.12851  0.033329497  0.033770684            6 
 1554000    1.0262932   -6.6395851    621.51792  0.033328932  0.033761228            5 
 1555000   0.99095728   -6.6073524    620.78978  0.033268477  0.033751832            4 
 1556000    1.0088876   -6.6406323    621.31542  0.033275247  0.033742358           13 
 1557000    1.0122298   -6.6383157     621.0764  0.033241083  0.033732909            4 
 1558000     1.018452   -6.6069997    621.94339  0.033266121  0.033723556            3 
 1559000   0.98400555   -6.6456943    622.44429  0.033271557  0.033714197            5 
 1560000    1.0239664   -6.6232456     621.4937   0.03319945  0.033704739            5 
 1561000    1.0065039   -6.6154989    621.83477  0.033196389  0.033695239            4 
 1562000   0.96891529   -6.6220974    622.61455  0.033216738  0.033685529            7 
 1563000   0.99878615   -6.6263668    623.14939  0.033224003  0.033675978            4 
 1564000    1.0014594   -6.6420839    622.06971  0.033145232  0.033666412            4 
 1565000    1.0021223   -6.6419155    621.89523  0.033114762  0.033656827            4 
 1566000   0.99666618   -6.6476287    621.57832  0.033076752  0.033647211            6 
 1567000    1.0064012   -6.6334673    623.01974  0.033132298  0.033637648            3 
 1568000   0.99482893   -6.6322849    623.22694   0.03312218  0.033627987            5 
 1569000   0.99035372   -6.5980785    623.17006  0.033098048  0.033618394            4 
 1570000    0.9695572   -6.6466792    623.17234  0.033077088  0.033608674            5 
 1571000   0.99380814   -6.6237983    623.86408  0.033092727   0.03359896            2 
 1572000    1.0327819   -6.6506566    621.96017  0.032970747  0.033589227            5 
 1573000     1.004799   -6.6548099    624.63617  0.033091554  0.033579462            2 
 1574000    1.0190583   -6.6559586    622.93908   0.03298068  0.033569692            5 
 1575000   0.98870484   -6.6769985    622.13402  0.032917144  0.033559797            4 
 1576000   0.99308664    -6.653823     623.8846  0.032988822  0.033550039            6 
 1577000   0.98960253   -6.6488828    625.40919  0.033048467  0.033540238            3 
 1578000   0.99893787   -6.6307318    623.84427  0.032944881   0.03353053            4 
 1579000   0.98916076   -6.6508278    626.07548  0.033041771  0.033520982            5 
 1580000   0.98308567   -6.6415447    625.23231  0.032976387  0.033511379            4 
 1581000   0.97889482   -6.5990588    626.52315  0.033023569  0.033501874            8 
 1582000    1.0060417   -6.6566513    628.42668  0.033102965  0.033492558            2 
 1583000     1.030521   -6.6542411    626.81214   0.03299706  0.033483198            7 
 1584000    1.0041153   -6.6504864    625.76508  0.032921142  0.033473756            5 
 1585000   0.99752861   -6.6515163     626.6308  0.032945888  0.033464127            6 
 1586000    1.0037523    -6.638794    627.69336  0.032980946  0.033454509            5 
 1587000   0.98874782   -6.6551077     627.4839  0.032949165  0.033445007            4 
 1588000    1.0017128    -6.638929    627.81826  0.032945963  0.033435447            4 
 1589000    1.0057476   -6.6464246    628.48988  0.032960451  0.033425861            3 
 1590000    1.0021251   -6.6629427    625.90108   0.03280404   0.03341626            4 
 1591000    0.9790438   -6.6292026    626.61963  0.032821057  0.033406636            4 
 1592000   0.99771291   -6.6685653     629.2287  0.032937013  0.033397028            6 
 1593000    1.0040458   -6.6441963    629.36652  0.032923547  0.033387454            2 
 1594000    1.0002886    -6.643935    628.91873  0.032879482  0.033377784            4 
 1595000   0.97932951   -6.6119986    630.84049  0.032959273  0.033368281            3 
 1596000   0.99408892   -6.6784455    629.28888  0.032857607  0.033358696            5 
 1597000   0.99272889   -6.6593692    629.74937  0.032861061   0.03334912            9 
 1598000    1.0009307   -6.6333142    628.82046  0.032792056  0.033339684            4 
 1599000   0.99735082    -6.645633    630.53078  0.032860683  0.033330071            2 
 1600000     1.021914   -6.6312318    630.44016  0.032835425  0.033320469            4 
 1601000    1.0204976   -6.6430071    630.57724  0.032822051  0.033311018            2 
 1602000    1.0152366   -6.6558037    630.42021  0.032793394  0.033301386            2 
 1603000   0.99580468   -6.6349561     631.0341   0.03280485  0.033291617            5 
 1604000    1.0098041   -6.6759815    628.79206  0.032667917  0.033281973           13 
 1605000   0.99106889    -6.640025    632.72118  0.032851567  0.033272344            4 
 1606000    1.0128018   -6.6396008    632.06812  0.032797225  0.033262522            6 
 1607000   0.97802984   -6.6530464     631.1775  0.032730631  0.033252761            4 
 1608000   0.99621376   -6.6436938    629.88066  0.032643069   0.03324285            4 
 1609000    1.0297386   -6.6563659    631.08104  0.032684951  0.033233052            4 
 1610000   0.97902359   -6.6623157    632.59873  0.032743205  0.033223187            5 
 1611000    1.0078458   -6.6186259    631.18169   0.03264958  0.033213537            4 
 1612000   0.99508668   -6.6214341    633.06349  0.032726607  0.033203864            7 
 1613000   0.96662716   -6.6654463    633.80532  0.032744644  0.033194168            3 
 1614000   0.99865601   -6.6553342    633.07815  0.032686811  0.033184488            5 
 1615000   0.99097366   -6.6289467    635.28806  0.032780602  0.033175006            7 
 1616000   0.98074621   -6.6376226    634.01963  0.032694907  0.033165628            3 
 1617000   0.98689656   -6.6410152    634.22877  0.032685465  0.033156237            6 
 1618000   0.98878186   -6.6313375    636.40979  0.032777595   0.03314683            4 
 1619000   0.98650948   -6.6231469    635.86856  0.032729492  0.033137509            4 
 1620000    1.0073772   -6.6582078    635.34228  0.032682216  0.033128076            3 
 1621000    0.9782097   -6.6268912    636.16591  0.032704396  0.033118588            2 
 1622000   0.96061386   -6.6436767    637.28278  0.032741614  0.033109347            5 
 1623000   0.98286776   -6.6532014     637.1648  0.032715383  0.033100181            3 
 1624000   0.97420741    -6.619847    638.03136  0.032739705  0.033090978            3 
 1625000    1.0102906   -6.6198528    637.11848  0.032672743  0.033081788            6 
 1626000   0.96715676   -6.6482712    637.63409  0.032679074  0.033072595            4 
 1627000   0.98653109   -6.6587981    636.93195  0.032623025  0.033063381            6 
 1628000   0.99148049   -6.6509651    637.88134  0.032651584  0.033054262            3 
 1629000    1.0079616   -6.6739226     638.1783  0.032646731  0.033045163            6 
 1630000    1.0036557   -6.6477838     638.5964  0.032648078  0.033035991            4 
 1631000   0.99455349   -6.6565371    637.77235  0.032585957  0.033026877            2 
 1632000   0.99026185   -6.6614175    640.80067  0.032720622  0.033017842            5 
 1633000   0.98933042   -6.6960752    638.26199  0.032571034  0.033008689            4 
 1634000      1.01315   -6.6760347    639.66717  0.032622765   0.03299939            4 
 1635000    1.0065908   -6.6683318    638.68897  0.032552955  0.032990207            5 
 1636000   0.99601234   -6.6446507     640.7967  0.032640419  0.032981048            4 
 1637000    1.0065394   -6.6845968    639.68374  0.032563823  0.032971809            5 
 1638000    1.0032016   -6.6702213     640.1054  0.032565395  0.032962536            4 
 1639000   0.99849696   -6.6576925    640.72883  0.032577223  0.032953312            4 
 1640000    0.9965878   -6.6562966     640.7968  0.032560813  0.032944158            6 
 1641000   0.98559645     -6.62947    641.97357   0.03260073  0.032935073            5 
 1642000   0.98490788   -6.6161147    642.85959  0.032625842  0.032926036            4 
 1643000   0.98405234   -6.6867267    641.07792  0.032515618  0.032916901            7 
 1644000   0.98422328   -6.6645719    642.33393  0.032559506  0.032907825            6 
 1645000     1.012684   -6.6433482    642.90112  0.032568446  0.032898754            4 
 1646000   0.98979477   -6.6489285    644.66026  0.032637721  0.032889706            4 
 1647000   0.98633985   -6.6347918    642.90791  0.032529241  0.032880658            2 
 1648000   0.98243717   -6.6468687     643.1482  0.032521652  0.032871674            5 
 1649000   0.98122346   -6.6586722    644.51379  0.032570942  0.032862672            2 
 1650000   0.97904971   -6.6719469    644.25192  0.032537976  0.032853612            3 
 1651000   0.99158086   -6.6719109    645.39344  0.032575885  0.032844769            5 
 1652000   0.99775259   -6.6797631    644.73992    0.0325232  0.032835842            2 
 1653000   0.97122021   -6.6543065    645.62258  0.032548023  0.032826956            4 
 1654000    1.0071945   -6.6864837    645.63095  0.032528766  0.032818042            4 
 1655000    0.9859491   -6.6966596     645.1969  0.032487256  0.032809024            5 
 1656000   0.96732297   -6.6684574    643.62545  0.032388559  0.032800063            3 
 1657000   0.98854225    -6.656904    646.61988  0.032519608  0.032791115            3 
 1658000    1.0176935   -6.6645496     646.7897  0.032508529  0.032782168            4 
 1659000   0.96434393   -6.6846019    646.16046  0.032457327  0.032773254            4 
 1660000   0.97721786   -6.6619158    646.46359  0.032452992  0.032764307            6 
 1661000    0.9670545   -6.6368732     647.7032  0.032495645  0.032755319            5 
 1662000    1.0131496   -6.7018838    646.52921  0.032417229  0.032746315            4 
 1663000   0.98524355   -6.6727713    646.70816  0.032406703  0.032737348            7 
 1664000    0.9932683   -6.6646124    648.09254  0.032456558  0.032728533            3 
 1665000   0.98424787   -6.6515677    648.56984  0.032460953   0.03271985            3 
 1666000   0.99766804   -6.6355443    649.48535  0.032487263  0.032711251            2 
 1667000   0.97068852   -6.6622281    649.66174  0.032476592  0.032702583            5 
 1668000   0.97892084   -6.6426067    649.58672  0.032453373  0.032693941            2 
 1669000   0.97048581   -6.6650479    651.83351  0.032546111  0.032685201            5 
 1670000   0.97123122   -6.7117487    650.62015  0.032466076  0.032676456            9 
 1671000   0.96414714   -6.6870548    648.78464  0.032355109  0.032667811            9 
 1672000   0.98260875   -6.6678068    649.89629  0.032391163  0.032659117            5 
 1673000   0.99803643   -6.6874014    653.45804  0.032549215  0.032650454            8 
 1674000   0.98133743   -6.6504897    650.05468  0.032360348  0.032641844            7 
 1675000   0.96229489   -6.6602662    652.58637  0.032466983  0.032633265            5 
 1676000   0.99081037   -6.6778864    651.65523  0.032401314  0.032624671            4 
 1677000   0.99558396   -6.6391873    654.17943  0.032507426  0.032616081            4 
 1678000   0.97261255    -6.656286    653.92966  0.032475649   0.03260751            7 
 1679000   0.98830956   -6.6532917    651.24196  0.032322908  0.032598882            6 
 1680000   0.98412688   -6.6639665    651.22776  0.032302965  0.032590153            6 
 1681000   0.96753617   -6.6634361    650.77047  0.032261078  0.032581422            4 
 1682000    0.9954528   -6.6550633    654.06475   0.03240511  0.032572789            5 
 1683000   0.98601415   -6.6707236    651.69319  0.032268429  0.032564091            7 
 1684000   0.97897939   -6.6857837    651.93375  0.032261171  0.032555305            8 
 1685000   0.99381645   -6.6641444    651.97016  0.032243826  0.032546547            5 
 1686000   0.97510076   -6.6749214    652.47493  0.032249651  0.032537609            8 
 1687000   0.97276917   -6.6786571    653.59391  0.032285809  0.032528795            2 
 1688000   0.98896303   -6.6347034    653.46313  0.032260226  0.032519926            3 
 1689000    0.9840814   -6.6559874    654.79188  0.032306685  0.032511077            4 
 1690000   0.99418215   -6.6756111    652.91866    0.0321952  0.032502328            6 
 1691000   0.97243096   -6.6917024     655.0588  0.032281628  0.032493557            4 
 1692000   0.97337639    -6.622643    656.12769  0.032315193  0.032484853            4 
 1693000   0.99283264    -6.660308    656.59552  0.032319134  0.032476171           10 
 1694000   0.97177488   -6.6469449    654.33812  0.032189006  0.032467407            7 
 1695000    1.0035706   -6.6798151    653.49846  0.032128734  0.032458638            4 
 1696000   0.97198269   -6.6815039    655.36493    0.0322015  0.032449789            3 
 1697000   0.97815581   -6.6694071    655.16686  0.032172798  0.032440982            3 
 1698000   0.98695356   -6.6790676    654.59602  0.032125835  0.032432111            4 
 1699000   0.95965174   -6.6710437    656.89328  0.032219604  0.032423343            3 
 1700000   0.98046885   -6.6663647    655.74819  0.032144519  0.032414597            3 
 1701000    0.9805582   -6.6624816    656.53781  0.032164306  0.032405795            5 
 1702000   0.97441155   -6.6765168    656.12904  0.032125394  0.032396888            7 
 1703000   0.98514957   -6.6865225    656.62387  0.032130743   0.03238807            2 
 1704000   0.96678597   -6.6804482    658.66832   0.03221187  0.032379297            5 
 1705000   0.98905218   -6.6812542    658.90207  0.032204402  0.032370604            7 
 1706000   0.99240074   -6.6571788    659.58892  0.032219076  0.032361857            3 
 1707000   0.96058643   -6.7089731    656.97962  0.032072819  0.032353127            4 
 1708000   0.96961358   -6.6829698    657.84649  0.032096336  0.032344324            7 
 1709000    0.9759726    -6.688785    656.84017  0.032028485   0.03233561            4 
 1710000     0.974088   -6.6690188    658.00926  0.032066728  0.032326792            5 
 1711000    1.0012509   -6.6708664    658.59114  0.032076327  0.032317988            3 
 1712000    0.9781513    -6.673501     659.8772  0.032120191  0.032309233            3 
 1713000   0.98882776   -6.7196258    659.08089  0.032062701   0.03230035            4 
 1714000   0.97381414   -6.6982602    658.48144   0.03201485  0.032291459            3 
 1715000   0.96695268   -6.6764711     659.7416  0.032057415  0.032282713           10 
 1716000   0.97418392   -6.6797957    657.38683   0.03192438  0.032273921            9 
 1717000   0.96152148   -6.6789328    658.27355  0.031948823  0.032265011            5 
 1718000   0.97510033   -6.6831483    659.68601  0.031998739  0.032256261            6 
 1719000   0.98453258   -6.6518446    661.01892  0.032044741  0.032247452            5 
 1720000   0.97150611   -6.6913134    661.31667  0.032040536   0.03223856            6 
 1721000   0.97485412   -6.6829131    659.87265  0.031951997  0.032229738            3 
 1722000   0.97398604    -6.693934    660.33286  0.031955713  0.032220962            8 
 1723000   0.94693663   -6.6781228    661.15125  0.031976748  0.032212139            2 
 1724000   0.97151157   -6.6757238    661.10242   0.03195584  0.032203404            6 
 1725000   0.96885848   -6.7023587    661.94733  0.031978132  0.032194785            4 
 1726000   0.97879554   -6.7037606     661.7215  0.031948701  0.032186039            9 
 1727000   0.95228486   -6.6936622    660.98496  0.031894661  0.032177306            9 
 1728000   0.98742266   -6.6716102    660.97918  0.031875925   0.03216852            3 
 1729000   0.98115884   -6.6729176    662.12954  0.031912933  0.032159758            3 
 1730000   0.96828443   -6.6947435    663.78826  0.031974386  0.032151046            6 
 1731000   0.97024173   -6.7111302    662.53711  0.031895682  0.032142175            6 
 1732000   0.97745065   -6.6942165    662.09391  0.031855942  0.032133475            3 
 1733000   0.97654866    -6.684647    663.90087   0.03192445  0.032124607            3 
 1734000   0.97355659   -6.6806469    663.55946  0.031889632  0.032115824            6 
 1735000   0.97741829   -6.7053069    663.10023  0.031849194  0.032106929            6 
 1736000   0.96561448    -6.702353    662.17956  0.031786653  0.032098002            4 
 1737000   0.98468217   -6.6533822    664.91897  0.031899778  0.032089218            4 
 1738000   0.95973757   -6.6931433    662.81108  0.031780355  0.032080468            4 
 1739000   0.97542217   -6.7111749    661.44522  0.031696627  0.032071556            8 
 1740000   0.98653566   -6.6786578    663.57138  0.031780238  0.032062695            8 
 1741000     1.001415   -6.6862226     666.7821  0.031915666  0.032053905            7 
 1742000   0.95745802   -6.6739531    663.59756  0.031745004  0.032045182            5 
 1743000    0.9820789   -6.7133481    663.97434  0.031744805  0.032036494            3 
 1744000   0.95665382   -6.7002088    665.93998  0.031820527  0.032027722            6 
 1745000   0.98526202   -6.7278776    664.09143  0.031714013  0.032018998            9 
 1746000   0.98332882   -6.6716497    665.62943  0.031769255  0.032010358            8 
 1747000     0.979221   -6.7228731    664.73506  0.031708408  0.032001654            4 
 1748000   0.97040188    -6.670322    668.07481  0.031849486  0.031992975            2 
 1749000   0.97445756   -6.6717876    667.08054  0.031783902   0.03198445           14 
 1750000    0.9810841   -6.7058999    666.07689  0.031717947  0.031975899            7 
 1751000   0.95293971   -6.7057179    668.31747  0.031806467  0.031967401            5 
 1752000   0.95743118   -6.6770332    668.13672  0.031779715  0.031958848            5 
 1753000   0.96829902   -6.6881047    669.05509  0.031805243  0.031950386            4 
 1754000   0.98452144   -6.7088018    667.89573  0.031732028  0.031941778            5 
 1755000    0.9715875   -6.7044565    669.37899  0.031784377  0.031933201            9 
 1756000   0.97488758   -6.6922301    668.74467  0.031736174  0.031924665            7 
 1757000   0.97412424   -6.7471248    669.33572  0.031746145  0.031916118            5 
 1758000   0.98207363   -6.6974437    668.55153  0.031690914    0.0319075            5 
 1759000   0.98894649   -6.6627745    668.96064   0.03169228  0.031898886            3 
 1760000   0.96025426   -6.6791693    671.14142  0.031777529  0.031890344            5 
 1761000    0.9649847   -6.6872698    670.69996  0.031738594  0.031881786            3 
 1762000   0.97030188    -6.724075    669.76033  0.031676141  0.031873203            5 
 1763000   0.98093069   -6.7525733    668.50034  0.031598617  0.031864527            4 
 1764000    0.9839879   -6.6719551    670.77762  0.031688285   0.03185597            5 
 1765000   0.97892786   -6.6995356    669.21532  0.031596569  0.031847404            2 
 1766000   0.96708995   -6.7319407    669.76485  0.031604608  0.031838713            6 
 1767000   0.98323979   -6.6794588    672.07039  0.031695453  0.031830025            4 
 1768000    0.9851703   -6.6858511    670.00984  0.031580403  0.031821331            2 
 1769000   0.95928453   -6.6977106     669.6133  0.031543871   0.03181259            2 
 1770000   0.94471399   -6.7255235    669.44667  0.031518205  0.031803838            5 
 1771000    0.9591427   -6.7136718    670.02454  0.031527599  0.031794994            5 
 1772000   0.98405647   -6.6995043    672.14215  0.031609394  0.031786207            4 
 1773000   0.96400184   -6.7184717    670.81106  0.031529003  0.031777359            6 
 1774000   0.98906682   -6.7196409    673.21483  0.031624146  0.031768583            5 
 1775000   0.97052485   -6.6730495    671.37862  0.031520123  0.031759833            4 
 1776000    0.9639849   -6.6953662    672.59782  0.031559582  0.031751217            5 
 1777000   0.97781065    -6.689861    673.10186   0.03156546  0.031742475            5 
 1778000   0.97318934   -6.6931385    672.83764  0.031535323  0.031733808            6 
 1779000   0.97230137   -6.7255896    670.88056  0.031425921  0.031725106            6 
 1780000   0.96601812   -6.7098381    672.24185  0.031471997   0.03171633            5 
 1781000   0.98228398   -6.6804704    674.53373  0.031561563  0.031707627            7 
 1782000   0.96858099    -6.697721    674.60226  0.031547057  0.031698828            6 
 1783000   0.97163181   -6.6942319    673.37886  0.031472185  0.031690146            5 
 1784000   0.95792857   -6.7158554    673.46484  0.031458559  0.031681514            5 
 1785000   0.97491943   -6.7114542    674.98587  0.031511945  0.031672998            5 
 1786000   0.96784021    -6.703205    673.62944  0.031431012  0.031664416            6 
 1787000   0.96436782   -6.7150563    676.79931  0.031561244  0.031655952            6 
 1788000   0.96325799   -6.7079539    673.57282  0.031393215   0.03164754            5 
 1789000   0.95275354   -6.7095742    677.17122  0.031543284  0.031639005            5 
 1790000   0.96609971   -6.7018426    676.06391  0.031474111  0.031630544            4 
 1791000   0.96408613     -6.69249    677.32938  0.031515419  0.031622204            2 
 1792000   0.94994835   -6.6833868    678.20377  0.031538494  0.031613817            5 
 1793000   0.98689439   -6.7436249    676.76892  0.031454217   0.03160541            3 
 1794000   0.94630035   -6.7146767    678.13379  0.031500083  0.031596913            5 
 1795000    0.9544146   -6.7328714    676.03232  0.031384973  0.031588412            4 
 1796000   0.97493577   -6.6947305    678.33413  0.031474301  0.031579971            3 
 1797000   0.96962001   -6.7133198    678.30519  0.031455444  0.031571531            2 
 1798000   0.97815852   -6.7018081    677.59989   0.03140526  0.031563105            4 
 1799000   0.93093546    -6.711374    678.05813  0.031409029  0.031554662            3 
 1800000   0.98171754   -6.7009483    678.15884  0.031396242   0.03154613            3 
 1801000    0.9665702   -6.7142111    676.58137   0.03130582  0.031537528            3 
 1802000    0.9658624   -6.6758589    678.64039  0.031383666  0.031528886            5 
 1803000   0.98389721   -6.6967221    677.84006  0.031329269  0.031520432            5 
 1804000   0.94519424   -6.7099032    678.00671    0.0313196   0.03151192            6 
 1805000   0.96322808   -6.7303712    677.83866   0.03129449  0.031503363            8 
 1806000   0.95685607   -6.7166909    679.23456  0.031341572  0.031494863            4 
 1807000   0.95560138    -6.726645    679.71361   0.03134632  0.031486351            6 
 1808000   0.96641438   -6.6961686    682.31792  0.031449019  0.031477817            4 
 1809000   0.95313614   -6.7041674    680.90708  0.031366643  0.031469394            8 
 1810000   0.95032595   -6.7112345    681.19524   0.03136258  0.031460954            3 
 1811000   0.97519139   -6.6905267    679.15689  0.031251467  0.031452563            4 
 1812000   0.98154183   -6.6833863    680.31239  0.031287362  0.031444174            5 
 1813000   0.96987992   -6.7030218     681.8617  0.031341318  0.031435718            7 
 1814000   0.97911675   -6.7448698     679.2928  0.031206027   0.03142728            4 
 1815000   0.97038475   -6.6957493    681.46106  0.031288387  0.031418815            7 
 1816000   0.94856419    -6.728845    681.86036   0.03128948  0.031410426            6 
 1817000   0.92939389   -6.7222078    682.00152  0.031278734  0.031402047            6 
 1818000   0.96788499    -6.677093    682.22863  0.031271939    0.0313937            6 
 1819000   0.96155246   -6.7019034    682.30887  0.031258424  0.031385419            4 
 1820000   0.96320597   -6.7380855    682.03817  0.031228854  0.031377146            5 
 1821000   0.96198007   -6.7282676    684.64288  0.031330902  0.031368879            4 
 1822000    0.9702175   -6.7014435    684.73432  0.031317889  0.031360638            4 
 1823000   0.96952579   -6.7065285    683.49146  0.031243896  0.031352437            3 
 1824000   0.95234569   -6.7112463    683.68047  0.031235402  0.031344171            3 
 1825000   0.94632166   -6.7286446     684.0641  0.031235804  0.031335782            3 
 1826000   0.95917361   -6.7481082    684.05621  0.031218338   0.03132748            4 
 1827000   0.95798084   -6.6925907     684.0561  0.031201245  0.031319213            7 
 1828000   0.97764817   -6.6935889     684.7771  0.031217045  0.031310968            4 
 1829000   0.94525803   -6.7456445    683.14014  0.031125393  0.031302691            3 
 1830000    0.9621999   -6.7274492     687.1988  0.031293206   0.03129442            3 
 1831000   0.94661657   -6.7317003    686.13121  0.031227527  0.031286179            4 
 1832000   0.93619951   -6.7056631    684.43999  0.031133551  0.031277946            5 
 1833000   0.95057805   -6.7058216    687.32225  0.031247602  0.031269667            9 
 1834000   0.94738846   -6.7018223    685.05685  0.031127628  0.031261469            6 
 1835000   0.97175136   -6.7336321    685.65894  0.031138008  0.031253274            9 
 1836000   0.95644072   -6.7138748    685.45102  0.031111612  0.031245003            6 
 1837000   0.95436025     -6.73448    686.37197  0.031136453  0.031236789            8 
 1838000   0.96644149   -6.7506772    686.15755  0.031109791  0.031228528            4 
 1839000   0.97704246   -6.7156512     687.6147  0.031158904  0.031220281            5 
 1840000   0.95552176   -6.7605886    686.01036   0.03106931  0.031212052            8 
 1841000   0.94404833   -6.6885275    690.56963   0.03125881  0.031203844            5 
 1842000   0.94519153   -6.7277067    687.84086  0.031118388  0.031195719            5 
 1843000   0.93649975   -6.6960731    688.65674  0.031138395  0.031187557            3 
 1844000   0.97896232   -6.7065285    689.77888   0.03117222  0.031179425            8 
 1845000   0.96892472   -6.7415311    688.46983  0.031096198  0.031171269            5 
 1846000   0.97836439   -6.6995289    688.07018  0.031061312  0.031163112            2 
 1847000   0.94959747   -6.6928149    691.05337  0.031179091   0.03115503            5 
 1848000   0.95833222   -6.7346071    690.44897  0.031134964  0.031146933            4 
 1849000   0.93047536   -6.7508361    691.22469  0.031153087  0.031138898            7 
 1850000   0.96285585   -6.7034471    691.36604  0.031142614  0.031130843            4 
 1851000   0.96419296   -6.7351732    691.01959  0.031110192  0.031122841            6 
 1852000   0.96337009   -6.6842754    694.72728  0.031260227  0.031114911            6 
 1853000    0.9641282   -6.6677561    690.74582  0.031064302   0.03110701            5 
 1854000    0.9583889   -6.7256442    691.75964  0.031093116  0.031099138            7 
 1855000   0.98996615   -6.7030454    694.63988  0.031205745  0.031091315            5 
 1856000   0.97542386    -6.723338    692.59277  0.031097018  0.031083461            3 
 1857000   0.95217209   -6.7120593    695.06114   0.03119104  0.031075659            2 
 1858000   0.95776095   -6.7299984    694.07486  0.031130017  0.031067838            6 
 1859000   0.96060145   -6.7438333     693.0641  0.031067962  0.031059993            3 
 1860000   0.95617089   -6.7244521    694.66752  0.031123097  0.031052119            5 
 1861000   0.94320217   -6.7349767    691.93749  0.030984126  0.031044243            5 
 1862000   0.97253178   -6.7293846    694.44723  0.031079808  0.031036306            5 
 1863000   0.94698055   -6.7493183    693.51877  0.031021595  0.031028472            5 
 1864000   0.94708773   -6.7543502    693.63839    0.0310103  0.031020628            5 
 1865000    0.9565049   -6.7161235    695.84129  0.031092104  0.031012875            5 
 1866000   0.94817274   -6.7105142    695.58846   0.03106415  0.031005103           10 
 1867000   0.94628902   -6.7018691    695.86615  0.031059907  0.030997388            4 
 1868000   0.93960095   -6.7058003    696.38447  0.031066402  0.030989757            6 
 1869000   0.93167424   -6.7418864    696.59894  0.031059343  0.030981983           10 
 1870000   0.96678941   -6.7317965    696.58303  0.031042025  0.030974173            3 
 1871000   0.94824118   -6.7402498    695.35027  0.030970527  0.030966389            3 
 1872000   0.95641114   -6.7385841    695.92754  0.030979681   0.03095861            3 
 1873000   0.95474551   -6.7159939     696.7732  0.031000765  0.030950852            6 
 1874000   0.95526476   -6.7708886    696.64994  0.030978741  0.030943072            6 
 1875000   0.95678551   -6.7273508    699.50488  0.031089106  0.030935356           13 
 1876000   0.94110838   -6.7715114    696.86287  0.030955174  0.030927576            4 
 1877000   0.94323833    -6.720581    696.77176  0.030934637  0.030919762           10 
 1878000   0.95766091   -6.7405312     697.6997  0.030959341  0.030912022           17 
 1879000    0.9503616    -6.735005    700.11888  0.031050154  0.030904248           11 
 1880000   0.95667963   -6.7436159    701.34944  0.031088184  0.030896515            6 
 1881000   0.97598154   -6.7343549    698.85568  0.030961177  0.030888812            4 
 1882000   0.94979811   -6.7622473    698.33093   0.03092149  0.030881041            7 
 1883000   0.95587566   -6.7254347    697.21035  0.030855477  0.030873361            6 
 1884000   0.94247673   -6.7560707    700.71392  0.030994069  0.030865678            3 
 1885000   0.94676986   -6.7254426    700.37468  0.030962629  0.030857971           13 
 1886000   0.96067292   -6.7066948    699.70058  0.030916427  0.030850293            7 
 1887000   0.95718849   -6.7351774    700.74913  0.030946349  0.030842584            9 
 1888000   0.95371704   -6.7189851    699.55304  0.030877165  0.030834868            5 
 1889000   0.96795698   -6.7247689    699.42786  0.030855296  0.030827069            2 
 1890000   0.93813284   -6.7299555    699.05358  0.030822468  0.030819269            9 
 1891000   0.93969724   -6.7710633    702.40983  0.030954073  0.030811475           14 
 1892000   0.95369076   -6.7464593    700.35303  0.030847121  0.030803747            4 
 1893000   0.94184317   -6.7288919     702.3045  0.030916733  0.030796078            3 
 1894000   0.93856003   -6.7431062    701.43766   0.03086227  0.030788424            5 
 1895000   0.96164487   -6.7347878    703.18301  0.030922736  0.030780789            5 
 1896000   0.95167944   -6.7362701    702.79844  0.030889524  0.030773111            5 
 1897000   0.93121421   -6.7159509    702.85369  0.030875667  0.030765481            3 
 1898000   0.95562527   -6.7688335    702.01914  0.030822758  0.030757874            5 
 1899000   0.95731667     -6.71244    704.45855  0.030913575  0.030750231            6 
 1900000   0.93681362   -6.7071533    704.34412  0.030892286  0.030742775            5 
 1901000   0.96041256   -6.7141256    704.89361  0.030900123  0.030735262            7 
 1902000   0.94496648   -6.7156758    704.28786  0.030857337  0.030727791            5 
 1903000   0.95014306   -6.7588895    703.50699  0.030806927  0.030720198            8 
 1904000   0.95797802   -6.7437169    703.88141  0.030807134  0.030712632            2 
 1905000   0.94472476   -6.7239773    706.27906  0.030895847  0.030705171            5 
 1906000   0.93506967   -6.7300361    705.68609  0.030853712  0.030697737            5 
 1907000    0.9511697   -6.7316934    707.40767  0.030912763  0.030690335            6 
 1908000   0.94076213   -6.7711006    707.36727  0.030894797  0.030682877            9 
 1909000   0.93427177   -6.7552344    706.07617  0.030822253  0.030675363            2 
 1910000   0.94675143   -6.7501033    706.63038  0.030830296  0.030667955            4 
 1911000    0.9493422   -6.7531192    707.57048  0.030855158  0.030660502            6 
 1912000      0.94531   -6.7513177    704.98745  0.030726441   0.03065307           10 
 1913000   0.93914192   -6.7328653    707.57519  0.030823105  0.030645572            3 
 1914000   0.93849665   -6.7552159    705.78269  0.030728957  0.030638046            3 
 1915000     0.943221   -6.7654816     707.4562  0.030785735  0.030630548            7 
 1916000   0.96048228   -6.7575043    706.78975  0.030740682  0.030623079            2 
 1917000   0.93106471   -6.7782388      706.599  0.030716354  0.030615485           10 
 1918000   0.92854318   -6.7570097    707.93621  0.030758438  0.030607938            8 
 1919000   0.95307717   -6.7684785    709.31969  0.030802488  0.030600382            9 
 1920000   0.95330278   -6.7606034     707.4125  0.030703668   0.03059299           10 
 1921000   0.94563211   -6.7623597    709.82511  0.030792344  0.030585597            7 
 1922000   0.93892193   -6.7482635    711.23572  0.030837484  0.030578228            3 
 1923000   0.95248138   -6.7288718    708.94934  0.030722367  0.030570797            6 
 1924000   0.92511164   -6.7133444    709.80276  0.030743363  0.030563433            6 
 1925000   0.94619847   -6.7351888    711.14797  0.030785627  0.030556128            4 
 1926000   0.95849304   -6.7488526    709.49314  0.030698042  0.030548742            3 
 1927000   0.95455038   -6.7242131    711.87834  0.030785259  0.030541324            4 
 1928000   0.95591857   -6.7571219    710.25393  0.030699081  0.030533883            4 
 1929000   0.93348429   -6.7079906    712.14174   0.03076472  0.030526505            4 
 1930000   0.94724946   -6.7368722    710.83009  0.030692145  0.030519136            2 
 1931000   0.94480381   -6.7504213    711.72303  0.030714786  0.030511735            5 
 1932000   0.97060045   -6.7554746    710.74841   0.03065685  0.030504319           10 
 1933000   0.93465632   -6.7628645     710.4388  0.030627643  0.030496946            5 
 1934000   0.95277703   -6.7596853     710.8981  0.030631597  0.030489478            6 
 1935000   0.94930299   -6.7791458    711.38966  0.030636936   0.03048204            7 
 1936000    0.9503308   -6.7197323    714.54293  0.030756841  0.030474695            3 
 1937000   0.95580936   -6.7458907    711.87047  0.030625988  0.030467414            4 
 1938000   0.91239673   -6.7445653    711.78301  0.030606424  0.030460047            5 
 1939000   0.93777002   -6.7611806    712.92861  0.030639875  0.030452717            2 
 1940000   0.96384021   -6.7463397    714.21018  0.030679131  0.030445366            5 
 1941000   0.96809256   -6.7622714    712.27705   0.03058033  0.030438057            4 
 1942000   0.92533307    -6.721599    713.63072  0.030622671  0.030430737            5 
 1943000   0.97415269   -6.7159357    715.12985  0.030671207  0.030423405            3 
 1944000   0.94813487   -6.7456293    712.43372  0.030539854  0.030416112            4 
 1945000   0.93685089    -6.767237    714.98843  0.030633609   0.03040878            6 
 1946000   0.92352902   -6.7739281    714.90512  0.030614299  0.030401415            4 
 1947000   0.95865947   -6.7736661    714.60947  0.030585921  0.030394047            4 
 1948000   0.93983049   -6.7556334    717.66225  0.030700815  0.030386766           12 
 1949000   0.95096525   -6.7629219    715.18628  0.030579198   0.03037958            4 
 1950000   0.92210934   -6.7522876    714.90627   0.03055155  0.030372393            5 
 1951000   0.92783347   -6.7521608     715.8733  0.030577196  0.030365073            5 
 1952000   0.95245415   -6.7709902    714.98459  0.030523591  0.030357795            4 
 1953000     0.926922   -6.7448849    718.02396   0.03063765  0.030350639            5 
 1954000    0.9186321   -6.7551168    717.88537   0.03061606  0.030343508           11 
 1955000   0.93381495    -6.788428    715.14511  0.030483594   0.03033624            2 
 1956000   0.94865612   -6.7629256    717.60851   0.03057296  0.030328897            3 
 1957000   0.95110466   -6.7511678    718.68257  0.030603073  0.030321679            5 
 1958000    0.9467961   -6.7594705    717.94096   0.03055588  0.030314547            5 
 1959000   0.94615955   -6.7541092    717.14825  0.030506562  0.030307398            4 
 1960000   0.94978836   -6.7480558    717.14865  0.030491014  0.030300218            6 
 1961000   0.93710965    -6.753656    719.34894  0.030568967  0.030292966            4 
 1962000   0.94513782   -6.7490346    718.49284  0.030517025  0.030285748            3 
 1963000   0.95517186    -6.752639    717.00951  0.030438509  0.030278503            3 
 1964000   0.94787912   -6.7839648    716.97361  0.030421487  0.030271194           10 
 1965000    0.9453874   -6.7447174    719.53382  0.030514581  0.030263857            8 
 1966000   0.93271025   -6.7468475    720.23286   0.03052869  0.030256593            6 
 1967000   0.93361403    -6.774824     718.1616  0.030425419  0.030249383            4 
 1968000   0.93905414    -6.771125    719.12647  0.030450816   0.03024198            3 
 1969000   0.95240695   -6.7210987    719.79603  0.030463688  0.030234625            2 
 1970000   0.94427982   -6.7361249    718.72657  0.030402985  0.030227266            7 
 1971000   0.94380787   -6.7507545    719.04642  0.030401083  0.030219844            7 
 1972000   0.95855243   -6.7574652    718.37209  0.030357171  0.030212392            3 
 1973000   0.92096711   -6.7721559    717.80124  0.030317674  0.030204931            5 
 1974000   0.91427774   -6.7730504     719.3027    0.0303657  0.030197491            2 
 1975000   0.93211453   -6.7498883    722.02733  0.030465288    0.0301901            9 
 1976000   0.91509644    -6.749643    719.20091  0.030330673  0.030182757            8 
 1977000   0.93387046   -6.7078939    720.76036  0.030381064  0.030175404            6 
 1978000   0.93556055   -6.7516359    719.21941  0.030300784  0.030168067            3 
 1979000   0.93003393     -6.75023    720.58631  0.030343031  0.030160655            5 
 1980000   0.94884031   -6.7701716    720.32881  0.030316869  0.030153212            5 
 1981000   0.93181298   -6.7963186    720.16331  0.030294603  0.030145723            7 
 1982000   0.94078762    -6.735148    721.59254   0.03033941  0.030138307            7 
 1983000   0.94388731   -6.7484935    721.00537  0.030299435  0.030130782            5 
 1984000   0.93780987   -6.7119794    721.05515  0.030286255  0.030123235            5 
 1985000   0.92328918   -6.7573072    722.17403  0.030317969  0.030115709            4 
 1986000   0.93442467   -6.7849073    721.27111  0.030264817   0.03010822            6 
 1987000   0.94456697   -6.7659158    721.98917    0.0302797  0.030100801            7 
 1988000   0.95282797   -6.7458372    722.71375  0.030294842   0.03009329            4 
 1989000   0.93752653   -6.7892255    721.59266   0.03023264  0.030085855            4 
 1990000   0.91483825   -6.7953692    722.09196  0.030238357  0.030078321            4 
 1991000   0.94145714   -6.7953385    721.86559  0.030213695  0.030070857           18 
 1992000   0.93265839   -6.7766389    722.04382  0.030205983  0.030063353            6 
 1993000   0.92056406   -6.7465759    722.64143  0.030215815    0.0300558            4 
 1994000   0.92322965   -6.7352655    722.20345  0.030182357  0.030048303            2 
 1995000   0.92241718   -6.7454148    722.59421  0.030183551  0.030040804            6 
 1996000   0.92626345   -6.7338653    722.67074  0.030171624  0.030033219            5 
 1997000   0.93966054   -6.7844055    721.90784   0.03012468   0.03002559            6 
 1998000   0.92894003   -6.7871042    722.86742  0.030149625  0.030017966           14 
 1999000   0.92341951   -6.7788843    722.84598  0.030133649  0.030010282            4 
 2000000   0.92697825   -6.7707948    723.02962  0.030126234  0.030002693            6 
 2001000   0.91759805   -6.7723578    722.12664  0.030073573  0.029995116            7 
 2002000   0.92645652   -6.7785037    723.96918  0.030135247  0.029987438            7 
 2003000   0.94871872   -6.7948972    721.98997  0.030037858  0.029979725            3 
 2004000   0.93750271   -6.7958565    722.13146  0.030028753  0.029971963            6 
 2005000   0.91851648   -6.7677008    723.71036    0.0300794  0.029964322            3 
 2006000   0.94356052   -6.7708158    724.55671  0.030099564  0.029956759            8 
 2007000   0.94018981   -6.7509227    723.38978  0.030036115  0.029949043            3 
 2008000   0.94837699   -6.7591315    722.70292  0.029992651  0.029941434            8 
 2009000   0.92536895   -6.7581044    726.15824  0.030121049  0.029933871            2 
 2010000   0.92613078   -6.7820264    723.57348  0.029998901  0.029926332            5 
 2011000   0.93170072   -6.7577555    724.37136  0.030017046  0.029918853            5 
 2012000   0.93236267   -6.7741984     725.8129  0.030061833  0.029911246            4 
 2013000   0.91733253   -6.7172977    726.59873  0.030079431  0.029903662           10 
 2014000   0.90059813   -6.7459257    727.33379   0.03009491  0.029896156            4 
 2015000   0.92363296   -6.7687097    725.04786  0.029985437  0.029888658            7 
 2016000   0.94339264   -6.7652784    724.95819  0.029966856  0.029881003            7 
 2017000   0.92432075    -6.777726    726.63713  0.030021365  0.029873381            5 
 2018000   0.91303326   -6.7874263    724.51236  0.029918746  0.029865729            6 
 2019000   0.91029614   -6.7597909    725.93562  0.029962672  0.029857965           13 
 2020000   0.92528543   -6.7709048    725.49671  0.029929732  0.029850292           16 
 2021000    0.9313871   -6.7850294    727.69145   0.03000542  0.029842647            5 
 2022000   0.92213996   -6.7831334    727.71353  0.029991491  0.029834963            4 
 2023000   0.93293675    -6.755107    727.57124  0.029970804  0.029827285            4 
 2024000   0.92622721   -6.7897957    723.78899  0.029800272  0.029819619            8 
 2025000   0.93357066   -6.7720823     727.7005  0.029946523  0.029811986           10 
 2026000   0.91911172   -6.8079857    727.52544  0.029924541  0.029804394            4 
 2027000   0.93713855   -6.7696822     726.7535  0.029878042  0.029796768            4 
 2028000   0.91042456   -6.7728813     725.5752  0.029814892  0.029789098           12 
 2029000   0.90091462   -6.7988937    727.10047  0.029862842  0.029781425            7 
 2030000   0.94851619   -6.7793916    727.23544  0.029853672  0.029773706            6 
 2031000   0.93617925   -6.7729897    726.73384  0.029818392  0.029766058            3 
 2032000   0.92070005   -6.7815195    727.64371  0.029841032  0.029758293            5 
 2033000   0.92481823   -6.7707993     727.3328  0.029813609  0.029750558            3 
 2034000   0.92238351   -6.8050462    727.61771  0.029810624    0.0297428            8 
 2035000   0.93788068   -6.7695197    729.13191  0.029857982  0.029735054            5 
 2036000   0.94711625   -6.7753324    729.54209  0.029860105   0.02972735            4 
 2037000   0.93150356    -6.740915    732.39536  0.029962173  0.029719769            5 
 2038000   0.94526102   -6.7825501    732.70897  0.029960295  0.029712258            5 
 2039000   0.92135928   -6.7937838    731.09385  0.029879592   0.02970472            3 
 2040000   0.95600943   -6.7593975    729.61234  0.029804426  0.029697209            5 
 2041000   0.94523344   -6.7908374    732.95944  0.029926484  0.029689684            6 
 2042000   0.91464431   -6.7814256    730.72125  0.029820488  0.029682226            5 
 2043000    0.9469294   -6.8090819    730.18371  0.029783966   0.02967473            9 
 2044000    0.9244653   -6.7933547     731.7907  0.029834911  0.029667166            4 
 2045000   0.90992995   -6.7974217    730.65326  0.029773971   0.02965962            3 
 2046000   0.93589134    -6.812726    729.56653  0.029715157  0.029652019            3 
 2047000   0.92931743   -6.7790705    730.11007  0.029722768   0.02964432            2 
 2048000   0.93170649   -6.7832538    729.64745  0.029689431  0.029636657           16 
 2049000    0.9202738   -6.7948103    730.46551  0.029708212   0.02962894            4 
 2050000   0.95174046   -6.7929798    730.80101  0.029707358  0.029621364            9 
 2051000   0.92092773   -6.7950638    729.71323  0.029648677  0.029613644            5 
 2052000   0.92134114   -6.7857299    729.80233  0.029637846   0.02960599            5 
 2053000   0.90730074    -6.771192    731.83682  0.029705992  0.029598247           12 
 2054000   0.92158933   -6.7356931    734.35514  0.029793701  0.029590574            5 
 2055000   0.92721481   -6.7892974    730.65709  0.029629241  0.029582971            6 
 2056000   0.93050991   -6.8012204    732.01973   0.02967006  0.029575225            3 
 2057000   0.90258271   -6.7646994    732.29386  0.029666742  0.029567515            4 
 2058000   0.91611589   -6.8037648    732.38823  0.029656148  0.029559855           11 
 2059000   0.92302755   -6.7655314     735.0843  0.029750862  0.029552236            7 
 2060000   0.92089825   -6.7631956    733.08417  0.029655508  0.029544623            7 
 2061000   0.91302886   -6.7574124    734.24345  0.029687993  0.029537016            4 
 2062000   0.90245437    -6.807392    733.04876  0.029625314  0.029529371            3 
 2063000   0.91601233   -6.7883103     730.2632  0.029498433   0.02952158            5 
 2064000   0.91524337   -6.8307736    731.97881  0.029553408  0.029513732           10 
 2065000   0.93584761    -6.785614    733.10869  0.029584693  0.029505871            4 
 2066000   0.91712698   -6.8135862    734.19432  0.029614163  0.029498036           10 
 2067000   0.91745861   -6.7952645     732.3979  0.029527411  0.029490268            6 
 2068000    0.9154787   -6.7706414    735.13329   0.02962336  0.029482555            3 
 2069000   0.90950237   -6.7819302    733.89043  0.029558983  0.029474812            4 
 2070000   0.93867857   -6.7663201    733.58694  0.029532485  0.029467095            3 
 2071000     0.913673   -6.8028868     733.4125  0.029511207  0.029459355            3 
 2072000   0.93302538   -6.8303728    733.98803  0.029520111  0.029451634            3 
 2073000   0.92019089   -6.7855813    734.45264  0.029524547  0.029443863            5 
 2074000   0.92984458   -6.7736885    734.05687   0.02949441  0.029436172           13 
 2075000   0.92338246   -6.7919491    735.53512  0.029539563  0.029428492            5 
 2076000   0.90855766   -6.7850953    735.75787  0.029534276  0.029420841            7 
 2077000   0.92848581   -6.7928894    735.37487  0.029504689  0.029413217            4 
 2078000   0.91986659   -6.8194395    735.31473  0.029488078  0.029405564            4 
 2079000   0.92970554   -6.8031371    736.40465  0.029517582   0.02939791            9 
 2080000   0.90477176   -6.8212884    733.87752  0.029402144  0.029390268            6 
 2081000   0.91360652   -6.8237315    734.28439  0.029404308  0.029382555            5 
 2082000   0.91923394   -6.8302924    736.59754   0.02948277  0.029374888            5 
 2083000   0.92452824   -6.7811864    737.92771  0.029521832  0.029367297            3 
 2084000   0.90364016   -6.7750475    737.30676  0.029482836  0.029359653            5 
 2085000   0.89695711    -6.802774    737.19883  0.029464382  0.029351885            3 
 2086000   0.93920842   -6.8091911    735.24857  0.029372346  0.029344117            4 
 2087000   0.91319703    -6.820912    736.66357  0.029414773  0.029336332            6 
 2088000   0.92094913   -6.8020979    737.74218  0.029443733  0.029328562            9 
 2089000   0.93703654   -6.7823822    736.04261   0.02936184   0.02932081            8 
 2090000    0.9193075   -6.8058562    736.86511  0.029380586  0.029312967            5 
 2091000   0.92172057   -6.7957786    736.84231  0.029365627  0.029305174            4 
 2092000   0.93355688   -6.7716453    736.99695   0.02935775  0.029297433            5 
 2093000   0.93095064   -6.7630421    738.50853  0.029403907  0.029289683            4 
 2094000    0.9160769   -6.7966249    736.02049  0.029290851  0.029281968            6 
 2095000   0.91360451   -6.8182727    737.67852  0.029342821  0.029274221            6 
 2096000   0.92224185   -6.7846483    738.77865  0.029372561  0.029266459            9 
 2097000   0.92199165   -6.7852283    738.46313  0.029346015  0.029258763           11 
 2098000   0.92011893   -6.7843124    739.20894  0.029361651  0.029251136            9 
 2099000   0.92115883   -6.7830873    739.28709  0.029350766  0.029243477            4 
 2100000   0.91321337   -6.8137877    737.58938   0.02926942  0.029235809            5 
 2101000   0.92525673   -6.7921835    740.41777  0.029367673  0.029228227            3 
 2102000   0.91182933   -6.8050806    738.42323  0.029274629  0.029220562            8 
 2103000   0.89563011   -6.8236449    740.28827  0.029334612  0.029212965            7 
 2104000   0.90846355   -6.7910254    741.15294  0.029354917  0.029205455            6 
 2105000   0.90506539   -6.7693023    742.34499  0.029388163  0.029197925            3 
 2106000   0.91789564   -6.7716291    741.87308  0.029355535  0.029190504            5 
 2107000   0.91053726    -6.800171      742.862  0.029380715  0.029183066            4 
 2108000   0.91822608   -6.8052111    741.97078  0.029331546  0.029175596            5 
 2109000   0.92474846   -6.8286422     741.7911  0.029310538  0.029168046            4 
 2110000   0.91994877   -6.8164524     740.8208  0.029258325  0.029160458           22 
 2111000   0.91035646   -6.8123307    741.43581  0.029268743  0.029152863            7 
 2112000   0.90338976   -6.8419995    740.37754  0.029213129  0.029145286            6 
 2113000   0.91455601   -6.8060763    741.30054  0.029235705  0.029137664            4 
 2114000   0.92788911   -6.8145856    741.47623  0.029228801   0.02913013            4 
 2115000   0.92420182   -6.8101364    743.03136  0.029276255  0.029122625            5 
 2116000   0.89654608    -6.817144    742.24894  0.029231606  0.029115049            3 
 2117000   0.89621023   -6.8211769    742.92657  0.029244472  0.029107438           13 
 2118000   0.93427866   -6.8104757    744.22949  0.029281928  0.029099777            4 
 2119000   0.89748887   -6.8113201    741.54761   0.02916264  0.029092107            8 
 2120000   0.89159999   -6.7734158    742.27974  0.029177663  0.029084479            4 
 2121000   0.90867695    -6.809231    742.90516  0.029188479  0.029076904            5 
 2122000   0.91105807   -6.8143045    741.98298  0.029138509  0.029069321            3 
 2123000   0.90375442   -6.7954663    742.54488  0.029146839   0.02906167            5 
 2124000   0.92150251   -6.7695047    742.14489  0.029117424  0.029054009            9 
 2125000   0.92506087   -6.8116056     743.2753  0.029148051   0.02904637            6 
 2126000   0.92841556   -6.7768758    745.66625  0.029228059  0.029038758            6 
 2127000   0.91199041   -6.8516597    743.94018  0.029146693  0.029031185            5 
 2128000   0.92003379   -6.8013935    743.79995  0.029127504  0.029023624            3 
 2129000   0.91263828   -6.7894294    746.01785  0.029200636  0.029016044            5 
 2130000   0.91327499    -6.805978    743.91886  0.029104807  0.029008418            7 
 2131000   0.91439569   -6.8109202    744.56664   0.02911648  0.029000814            6 
 2132000   0.91122723   -6.8256125    743.27908  0.029052497  0.028993224            4 
 2133000    0.9241358    -6.820027    743.33758  0.029041162  0.028985648            6 
 2134000   0.93615951   -6.7958579    745.10275  0.029096483   0.02897804            4 
 2135000   0.91080202   -6.8014241    744.60092  0.029063268   0.02897043            8 
 2136000   0.92527722   -6.7797496    745.93321  0.029101639  0.028962862            3 
 2137000   0.91767736   -6.7727737    747.57928   0.02915221  0.028955307            6 
 2138000   0.90333248   -6.8322843    745.58305  0.029060767  0.028947734            4 
 2139000   0.90792326   -6.8198466    745.55509  0.029046092  0.028940115            5 
 2140000   0.92468812    -6.816014    746.16499  0.029056269  0.028932497            2 
 2141000   0.90317748     -6.83206    746.23866  0.029045565  0.028924853            3 
 2142000   0.91498816   -6.8247213    745.20213  0.028991679  0.028917175            6 
 2143000   0.92787062   -6.8236293    744.76728  0.028961241  0.028909506            4 
 2144000   0.90955566   -6.8086407    744.00171  0.028917977  0.028901851            7 
 2145000   0.90509406   -6.8216168    746.21557  0.028990504  0.028894207            5 
 2146000   0.90139636   -6.8389589    744.10095   0.02889488  0.028886584            3 
 2147000   0.89823651   -6.8058436    745.53717  0.028937167  0.028878922            5 
 2148000   0.91299499   -6.8105516     746.6527  0.028966973  0.028871287            4 
 2149000   0.91986812   -6.8179266     747.0067  0.028967221  0.028863681            6 
 2150000   0.89940693   -6.8261414    745.84708  0.028908802  0.028856057           11 
 2151000    0.9243446   -6.8091137    747.62679  0.028964311  0.028848444            8 
 2152000   0.92106215   -6.7934596    749.36068  0.029017994  0.028840888            5 
 2153000   0.92659001   -6.8257435    748.09552  0.028955547  0.028833366            6 
 2154000   0.87755549   -6.8248306    747.41575  0.028915806    0.0288258            3 
 2155000   0.93042427   -6.8045453    747.96379   0.02892358  0.028818249            4 
 2156000   0.88320913   -6.7933191    749.54772  0.028971387  0.028810746           12 
 2157000   0.89777773   -6.8182674    750.58608  0.028998071  0.028803188            4 
 2158000   0.89632079   -6.8233011    748.83149  0.028916879  0.028795706            5 
 2159000   0.90072071   -6.8233077    751.06041  0.028989517  0.028788263            7 
 2160000   0.89375966    -6.829104    749.67013  0.028922459  0.028780759            4 
 2161000   0.89214099   -6.8362389    749.61634  0.028907001  0.028773242            5 
 2162000   0.89716485    -6.824469    748.78641  0.028861641  0.028765665            4 
 2163000   0.90779038   -6.8067911     750.4884   0.02891387  0.028758083            5 
 2164000   0.91022479   -6.8240978    750.34456  0.028894969  0.028750638            5 
 2165000   0.92312039   -6.8157484    752.78845  0.028975691  0.028743208           19 
 2166000   0.90643277   -6.8260397    751.94685  0.028929934  0.028735756            6 
 2167000   0.89777279    -6.849637    750.06958  0.028844392   0.02872819            6 
 2168000   0.90318945   -6.8169325    751.42702  0.028883265  0.028720673            4 
 2169000   0.90739975   -6.8002884    751.57028  0.028875453  0.028713145            3 
 2170000   0.90096485   -6.7965761    751.03526    0.0288416   0.02870564            5 
 2171000   0.90698203    -6.841499    750.57348   0.02881059  0.028698162           10 
 2172000   0.88116722   -6.8182768    752.52651  0.028872257  0.028690637            5 
 2173000   0.90975147   -6.8000177    751.76225  0.028829661  0.028683125           16 
 2174000   0.91614582   -6.8186784    752.06168  0.028827878  0.028675601            6 
 2175000   0.91945952   -6.7959225    753.50253  0.028869829  0.028668091            3 
 2176000   0.89929179   -6.7978671    751.91141  0.028795627  0.028660648            7 
 2177000   0.88871618   -6.7865935     753.7071  0.028851137  0.028653206            5 
 2178000   0.89264365   -6.8581671    751.43194  0.028750839  0.028645754            5 
 2179000   0.90225732   -6.8480734    750.22229  0.028691383  0.028638171            6 
 2180000   0.91179917    -6.813232    751.66054  0.028733201  0.028630515            6 
 2181000   0.92589135   -6.8107462    753.70089  0.028797986  0.028622919            6 
 2182000   0.92596529   -6.8058131    751.51764  0.028701407  0.028615419            7 
 2183000   0.91109313   -6.8745145    749.65587  0.028617188  0.028607779            6 
 2184000   0.89011464   -6.8090557    752.81098  0.028724473  0.028600158            6 
 2185000   0.90593676   -6.8189332    754.49255  0.028775459  0.028592639            8 
 2186000   0.91218482   -6.8274737     752.9718  0.028704323  0.028585111            4 
 2187000   0.90305614   -6.7971942    754.03072  0.028731547  0.028577583            6 
 2188000    0.9090599   -6.8144048    754.89114  0.028751186  0.028570066           10 
 2189000   0.92270178   -6.8314856    752.30854  0.028639734  0.028562506            5 
 2190000   0.88474891   -6.8236069     753.7243  0.028680529  0.028555017            6 
 2191000   0.88993854    -6.833409    754.38369  0.028692518   0.02854746            9 
 2192000   0.90153685   -6.8314723    753.93556  0.028662392  0.028539945           15 
 2193000   0.89812001   -6.8265592    755.34216  0.028702772  0.028532402            4 
 2194000   0.91235839   -6.8075723    754.19436  0.028646094  0.028524921            4 
 2195000   0.91791965   -6.8341164    754.01189  0.028626116  0.028517474            8 
 2196000   0.90903166   -6.8335727    756.62217  0.028712135  0.028509987           17 
 2197000   0.89609961   -6.8365769    755.60246  0.028660387  0.028502484            4 
 2198000    0.9120127   -6.8544571    755.90318   0.02865875  0.028495005            3 
 2199000    0.8832572   -6.8253722    757.78677  0.028717098  0.028487567            7 
 2200000   0.90077712   -6.8437452    753.06725  0.028525275   0.02848003            5 
 2201000   0.90555923   -6.8387699    756.48962  0.028641891  0.028472495            9 
 2202000   0.90675755    -6.837268     755.4001  0.028587651  0.028465001           11 
 2203000    0.8875407   -6.8406412    756.60761  0.028620352  0.028457554            5 
 2204000   0.90113025    -6.822605    758.02854  0.028661091  0.028450054            6 
 2205000   0.89345658   -6.8221893    757.27512  0.028619619   0.02844264            4 
 2206000   0.87974749   -6.8110086     757.6964   0.02862256  0.028435296            6 
 2207000   0.88277368   -6.8358345    758.47827  0.028639113  0.028427963            5 
 2208000   0.89198268    -6.817546    757.75148  0.028598712  0.028420547            7 
 2209000   0.89608688   -6.8260801    757.22422  0.028565875  0.028413084           10 
 2210000   0.91967931   -6.8454511    757.35098  0.028557729  0.028405619            4 
 2211000   0.88848094   -6.7969459    759.37266  0.028621011  0.028398194            5 
 2212000   0.90669754   -6.8361985    757.28351  0.028529367  0.028390808           13 
 2213000   0.89362029   -6.8388981    759.33449  0.028593707   0.02838347            5 
 2214000   0.90181665   -6.8644207    758.97457  0.028567245  0.028376099            5 
 2215000   0.87899791    -6.833771     758.8334  0.028549037  0.028368688            8 
 2216000   0.89069854   -6.8291532    758.85837  0.028537093  0.028361244           14 
 2217000     0.894877   -6.8204225    761.44782  0.028621554  0.028353876            5 
 2218000   0.91068965   -6.8268135    760.68438  0.028579966  0.028346437            5 
 2219000   0.89398482   -6.8473487    757.89694  0.028462406  0.028338982            7 
 2220000   0.89655165    -6.814025    758.77656  0.028482603  0.028331483            7 
 2221000   0.88831417   -6.8491893    759.10122  0.028481961  0.028323994            9 
 2222000   0.91140339   -6.8043824    759.51712   0.02848474  0.028316529            3 
 2223000    0.8791048   -6.8546067    757.01904  0.028378281  0.028309003            5 
 2224000   0.91325986   -6.8463888    760.10583  0.028481184   0.02830147            8 
 2225000   0.90351976    -6.832392    759.01744   0.02842762  0.028294004            3 
 2226000   0.90732237   -6.8366579    760.66109  0.028476381  0.028286524            6 
 2227000    0.9056875   -6.8246978    759.82889  0.028432453  0.028278998            4 
 2228000   0.88763396   -6.8516082     759.9185  0.028423044  0.028271513            4 
 2229000   0.91469501   -6.8599424    760.00321  0.028413459   0.02826407            4 
 2230000   0.89517268   -6.8712423    761.48094   0.02845594  0.028256608            3 
 2231000   0.90851504   -6.8409191    759.33181   0.02836291  0.028249119            4 
 2232000   0.88238309   -6.8358423    758.81079  0.028330749  0.028241658            6 
 2233000   0.88536399   -6.8381304    759.70327  0.028351368  0.028234152            5 
 2234000   0.89735233   -6.8751447    759.61985  0.028335566  0.028226645            4 
 2235000     0.894353   -6.8285352    760.31193  0.028348692  0.028219161            5 
 2236000   0.89255093   -6.8367438    762.92467  0.028433388  0.028211765            3 
 2237000   0.88591306   -6.8567627    761.44984  0.028365737  0.028204343           15 
 2238000   0.89405177   -6.8126103    763.82843  0.028441631  0.028196877            8 
 2239000   0.90310895   -6.8578331    761.11754  0.028328031  0.028189384            5 
 2240000   0.89305227   -6.8321616    762.95007  0.028383559   0.02818191            6 
 2241000   0.88103228   -6.8326858    760.93505  0.028295963  0.028174422            8 
 2242000   0.88408887   -6.8491703    762.38103  0.028337089  0.028166928            5 
 2243000   0.89692595    -6.831793    763.86799  0.028379699  0.028159394            5 
 2244000   0.89808099   -6.8437591    762.96946  0.028333685  0.028151867           10 
 2245000    0.9015969   -6.8449161    763.32963  0.028334433  0.028144425            6 
 2246000   0.88680036   -6.8377916    761.36776  0.028249026  0.028137002            6 
 2247000   0.89543607   -6.8387135    764.03491   0.02833537  0.028129584            6 
 2248000   0.88970176   -6.8586683    763.55568     0.028305  0.028122137            4 
 2249000   0.91205409    -6.823019    763.13845  0.028276954  0.028114715           10 
 2250000   0.89669529   -6.8376668    764.74956  0.028324058  0.028107304           10 
 2251000    0.8690772   -6.8458694    764.67599  0.028308751  0.028099854            8 
 2252000   0.89982777   -6.8634317     762.4178  0.028212619  0.028092454           10 
 2253000   0.89601492   -6.8133871    767.02224  0.028370404  0.028085042           10 
 2254000   0.89566559   -6.8548859    763.70384  0.028235132  0.028077665            3 
 2255000    0.9184146   -6.8445874    765.08535  0.028273664  0.028070221           10 
 2256000   0.89788713   -6.8595482    764.22085  0.028229198    0.0280628            8 
 2257000   0.89725236   -6.8500279    763.17093  0.028177925  0.028055365            7 
 2258000   0.88834124   -6.8719971    763.20979   0.02816688  0.028047962            5 
 2259000   0.90757455   -6.8618795    763.48585  0.028164595  0.028040515            6 
 2260000   0.89816365   -6.8762064    763.31302   0.02814576  0.028033091            5 
 2261000   0.89311387   -6.8361342     767.2898  0.028279883  0.028025722            4 
 2262000   0.88555557   -6.8569259    764.72167   0.02817277  0.028018325            5 
 2263000   0.87533357   -6.8819627    766.11161  0.028211504  0.028010933           12 
 2264000   0.89713864   -6.8897503    767.24275  0.028240678  0.028003577           11 
 2265000   0.89078444   -6.8486769    767.94101    0.0282539  0.027996192           11 
 2266000   0.88847839   -6.8688758    767.08965  0.028210123  0.027988891            8 
 2267000   0.89967719   -6.8250342    770.44454  0.028321002  0.027981707           12 
 2268000   0.89423408   -6.8623959    766.49745  0.028163487  0.027974487            7 
 2269000   0.87805434   -6.8189741    769.86621  0.028274798  0.027967293            7 
 2270000   0.90591293   -6.8899967    767.11985  0.028161522  0.027960063            8 
 2271000   0.87659072   -6.8904095    767.78188  0.028173414  0.027952778           10 
 2272000   0.86713673   -6.8663089    769.37303  0.028219375  0.027945491            7 
 2273000   0.89328225   -6.8752188    767.34938  0.028132768  0.027938262            4 
 2274000   0.88414216   -6.8798228    769.14976  0.028186374  0.027931063            5 
 2275000   0.90228794   -6.8590735    767.83306  0.028125753  0.027923862           10 
 2276000   0.87968767   -6.8514702    769.79042  0.028185062  0.027916703            6 
 2277000   0.87375954   -6.8788352    769.06222  0.028146034   0.02790948            9 
 2278000   0.88239073   -6.8511033    769.32841  0.028143416  0.027902241            6 
 2279000   0.89494041   -6.8456981    770.74654  0.028182922  0.027895023            5 
 2280000   0.90165377   -6.8497265    772.40761  0.028231272  0.027887804            6 
 2281000   0.90139266   -6.8835182    768.00481  0.028058045  0.027880597            5 
 2282000   0.87088659   -6.8950612    768.82708  0.028075777  0.027873327            4 
 2283000   0.88220729   -6.8377311    768.92395  0.028067015  0.027866035            8 
 2284000   0.87051054   -6.8580579    768.60294  0.028043014  0.027858759            7 
 2285000   0.89965367   -6.8568476    770.22032  0.028089727  0.027851515            4 
 2286000   0.88422569   -6.8360005    769.74516  0.028060118  0.027844199            8 
 2287000   0.89557844      -6.8584    769.46046  0.028037475  0.027836899            5 
 2288000   0.88736633    -6.872868    769.56498  0.028029027  0.027829561            5 
 2289000   0.89863297   -6.8673913    767.65775  0.027947348  0.027822258            8 
 2290000    0.8975599   -6.8672391    769.94397   0.02801834  0.027814969            6 
 2291000   0.88404611   -6.8665582    769.50846  0.027990268  0.027807623            4 
 2292000   0.88535966   -6.8443773    771.11435  0.028036444  0.027800255           11 
 2293000    0.8780979   -6.8282543    771.54908  0.028040016  0.027792983            5 
 2294000   0.88030353   -6.8892787    772.47825  0.028061546  0.027785703            6 
 2295000   0.85520057   -6.9118539    771.55697  0.028015867  0.027778349            6 
 2296000    0.8885843   -6.8747856    771.94421   0.02801772  0.027771048           12 
 2297000   0.88564747   -6.8494702    773.16804  0.028049922  0.027763824            4 
 2298000   0.88937307   -6.8525807    771.96086  0.027993939  0.027756591            6 
 2299000   0.87562214   -6.8733378    773.82065  0.028049175  0.027749349            4 
 2300000   0.86256082   -6.8829241    771.74563  0.027961798  0.027742097            7 
 2301000   0.86939484   -6.8582557    771.14999  0.027928074  0.027734839            4 
 2302000   0.87711975   -6.8299767    773.62354  0.028005486  0.027727551            6 
 2303000   0.87700044   -6.8653384    774.15538   0.02801257  0.027720372            9 
 2304000   0.88727681   -6.8481161    773.53988  0.027978149  0.027713153            8 
 2305000   0.85858493   -6.9052269    772.61861  0.027932705  0.027705925            4 
 2306000   0.87907069   -6.8589264    773.22762    0.0279426  0.027698663            5 
 2307000   0.87813998   -6.8626766    773.79923  0.027951135  0.027691452           12 
 2308000    0.8781437   -6.8655466    774.50835  0.027964629  0.027684287            6 
 2309000   0.88713027   -6.8880794    773.31695  0.027909519  0.027677148            8 
 2310000   0.87397541   -6.8558603    774.40399  0.027936652  0.027670036            4 
 2311000   0.88016557   -6.8703941    773.70877  0.027899494  0.027662876            7 
 2312000   0.87319246   -6.8400382     775.2347  0.027942427  0.027655726            9 
 2313000   0.88509419   -6.8586032    776.40995  0.027972689  0.027648577            3 
 2314000    0.8756729   -6.8731579    776.02754  0.027946829  0.027641399            6 
 2315000   0.88457139   -6.8527609    774.29561  0.027872412  0.027634206            5 
 2316000   0.90254235    -6.890611    776.96666  0.027956486  0.027626977            5 
 2317000   0.87706073   -6.8668879    774.48122  0.027855029   0.02761975            9 
 2318000   0.88237563   -6.8402703    775.16289  0.027867518  0.027612588            6 
 2319000   0.87879578    -6.833544    774.18812  0.027820473  0.027605413            5 
 2320000   0.88342932   -6.8493865    776.45751  0.027889997  0.027598277            4 
 2321000   0.87104032    -6.863102    774.94255  0.027823587  0.027591079           12 
 2322000   0.89036436   -6.8583918    776.52049  0.027868235   0.02758398            5 
 2323000   0.86660146   -6.8555396    775.82821  0.027831404  0.027576841            4 
 2324000   0.87456587   -6.8650254    776.48542  0.027842994  0.027569655            5 
 2325000   0.89694094   -6.8677862    778.03806  0.027886669  0.027562496            5 
 2326000   0.91973851    -6.896843    775.21799  0.027773645  0.027555322            3 
 2327000   0.87382493   -6.9002475    776.83399  0.027819581  0.027548176            4 
 2328000   0.86075215     -6.90772    777.77902   0.02784146  0.027541001            5 
 2329000   0.88567322   -6.8800018     775.5096  0.027748304  0.027533799            5 
 2330000   0.88726949   -6.8895303    777.72881  0.027815766  0.027526639            3 
 2331000   0.89414734   -6.8921776    773.01271  0.027635232  0.027519396           13 
 2332000   0.90801888   -6.8783482    776.99265  0.027765603   0.02751218           11 
 2333000     0.865909   -6.8723405    777.95592   0.02778811  0.027504939           11 
 2334000   0.89679236   -6.8784627    777.28481  0.027752242  0.027497686            5 
 2335000   0.89012588   -6.8869704    778.53231  0.027784879  0.027490485            7 
 2336000   0.89108049    -6.863834    777.88705  0.027749966   0.02748332            9 
 2337000   0.87366893    -6.865845    777.67824  0.027730646  0.027476094            5 
 2338000   0.86050446    -6.866156    776.46793  0.027675646  0.027468848            5 
 2339000     0.857428    -6.853733    776.75334  0.027673982  0.027461532            6 
 2340000   0.86498762   -6.8875199    778.70981  0.027731831  0.027454258            5 
 2341000   0.88852703   -6.8929475    777.87173  0.027690151   0.02744702           15 
 2342000   0.88759806   -6.8823517    779.92571  0.027751413  0.027439805            6 
 2343000   0.87949451   -6.8704139    779.63656  0.027729284  0.027432622            5 
 2344000   0.85844783   -6.8702297    779.59534  0.027715989  0.027425512           13 
 2345000   0.86990792   -6.8668226    778.66495  0.027671107  0.027418327            4 
 2346000   0.86277547   -6.8882726    777.62407  0.027622338  0.027411168           11 
 2347000   0.88988026   -6.8842322    777.18729  0.027595061  0.027403977            6 
 2348000   0.88627185   -6.8727732    780.38476   0.02769679  0.027396803            8 
 2349000   0.89896851   -6.8635489    779.85095  0.027666062  0.027389623            4 
 2350000    0.8775378   -6.8703084    780.63388  0.027682052  0.027382464            6 
 2351000   0.86201334   -6.8797241    779.15503  0.027617859  0.027375281            5 
 2352000    0.8865156   -6.8540118     781.4774    0.0276884  0.027368086           12 
 2353000   0.86681376   -6.8864134    781.48575  0.027676929  0.027360931           10 
 2354000   0.87404155   -6.8882232    781.22892  0.027656079   0.02735375            7 
 2355000   0.87531658   -6.8582785    780.25656  0.027609928  0.027346587            4 
 2356000    0.8732912   -6.8819052    780.19167  0.027595914  0.027339376            5 
 2357000   0.86833399   -6.9071131     779.4273  0.027557181  0.027332133            4 
 2358000   0.87939659    -6.907043    780.73392  0.027591671  0.027324908            6 
 2359000   0.86471898   -6.8860962    780.26565  0.027563433  0.027317661            6 
 2360000   0.86227874   -6.8744231    780.51799  0.027560663  0.027310497            5 
 2361000   0.88460395   -6.8536008    781.69323  0.027590471  0.027303305            9 
 2362000   0.86999191   -6.8537858     781.1711  0.027560369  0.027296185            5 
 2363000   0.86974808   -6.8832736    780.55217  0.027526879  0.027289039            5 
 2364000   0.87938513   -6.9094876    779.73208  0.027486325  0.027281838            5 
 2365000   0.88174133   -6.8701122    782.81396  0.027583297  0.027274666            4 
 2366000   0.86818561    -6.894897    781.23716  0.027516102  0.027267447            4 
 2367000   0.87448804   -6.9339378    779.44845  0.027441503   0.02726022           11 
 2368000   0.87744353    -6.933152    780.67668  0.027473138  0.027252963            6 
 2369000   0.86975701   -6.8702476    779.36398  0.027415364  0.027245678            9 
 2370000   0.85091509   -6.9123459    781.12917  0.027465864  0.027238431            7 
 2371000   0.86427144   -6.8904053    782.26287  0.027494126  0.027231217            7 
 2372000   0.87477289   -6.9044154    780.73784  0.027428957  0.027223987            7 
 2373000   0.86843561   -6.8923078     780.1694  0.027397436  0.027216765            4 
 2374000   0.88605195   -6.8773925    780.97653  0.027414228  0.027209546           13 
 2375000   0.87446211   -6.9089755    782.47787  0.027455364  0.027202307           11 
 2376000   0.87245319   -6.8959919    781.62284   0.02741382  0.027195069            4 
 2377000   0.86971948   -6.8986184    781.47646  0.027397155  0.027187853            7 
 2378000   0.87163887   -6.8720369    783.47684  0.027455735  0.027180585            7 
 2379000   0.89013027   -6.8981699    780.70497  0.027347098   0.02717331            6 
 2380000   0.88067755   -6.8577971    781.65335  0.027368815   0.02716601            3 
 2381000   0.87642103   -6.8733276    783.26352  0.027413675  0.027158735            5 
 2382000   0.88100786   -6.8708251     784.5971  0.027448821  0.027151513            5 
 2383000   0.84781529   -6.8945553    781.46104  0.027327635  0.027144282            8 
 2384000   0.87574609   -6.8940234    781.92204  0.027332286  0.027136995            7 
 2385000   0.87947196   -6.8828941    783.99998   0.02739343  0.027129746            6 
 2386000   0.87514637   -6.9054818    784.03614  0.027383213  0.027122525           12 
 2387000    0.8728503   -6.8768393    783.22152  0.027343301  0.027115242            3 
 2388000   0.87502754   -6.8874849    783.31436  0.027335091   0.02710798            5 
 2389000    0.8455064   -6.9163693    783.14864  0.027317868  0.027100705            4 
 2390000   0.87139216   -6.9355841     782.6843  0.027290248  0.027093368            8 
 2391000   0.89635671   -6.9298559    781.27565  0.027229738  0.027086004           23 
 2392000   0.88509091   -6.9067139    782.03394  0.027244772  0.027078694            8 
 2393000   0.88220105   -6.8658718    782.80604  0.027260275  0.027071366            4 
 2394000   0.86365287    -6.905301    781.54074  0.027204843  0.027064072           10 
 2395000   0.87148399   -6.9209418    783.77426  0.027271199  0.027056777            9 
 2396000   0.87515544    -6.914663    784.55735  0.027287053  0.027049488           10 
 2397000   0.86458971   -6.8790045    783.57454  0.027241501  0.027042256            3 
 2398000   0.87430983    -6.910461    784.24807  0.027253547  0.027034922            6 
 2399000   0.86840385   -6.8598443    784.08737  0.027236605  0.027027607            8 
 2400000   0.87933888   -6.8754344    784.50738   0.02723984  0.027020339            7 
 2401000    0.8524955    -6.939593    784.00084  0.027210913  0.027013063            7 
 2402000   0.88794052   -6.9174085    785.31391   0.02724514  0.027005725            3 
 2403000   0.85268862   -6.8870732    785.36538  0.027235587  0.026998417            6 
 2404000    0.8678038   -6.8697854    782.85989  0.027137406  0.026991135            2 
 2405000   0.86886065   -6.8899244    783.30004  0.027141373  0.026983844            5 
 2406000     0.855826   -6.9193938     783.4903  0.027136683  0.026976456            5 
 2407000   0.85523419   -6.8992757    782.43046  0.027088716  0.026969094            5 
 2408000   0.85314144    -6.904427    784.77366  0.027158557  0.026961761            5 
 2409000   0.85963863   -6.9008316    783.54381  0.027104739  0.026954387           10 
 2410000   0.87356445   -6.8986057    783.57508  0.027094574  0.026946951           11 
 2411000   0.83619485   -6.8767002    786.89747  0.027198171  0.026939599            4 
 2412000   0.87965033   -6.8902843    785.38419  0.027134611  0.026932202            7 
 2413000   0.88224828   -6.8677847    784.93056    0.0271077  0.026924859           13 
 2414000   0.85983678   -6.9038135    787.15848   0.02717338  0.026917479            5 
 2415000   0.85733647   -6.9068226    784.84777  0.027082394  0.026910081            5 
 2416000   0.85291969   -6.9039197    784.54977  0.027060905  0.026902724            6 
 2417000   0.85385955   -6.9163647    785.74818  0.027091028  0.026895345            8 
 2418000   0.87031313   -6.8971159    785.81898  0.027082264  0.026887944            4 
 2419000   0.86798861    -6.913013    784.42182  0.027022937    0.0268805            3 
 2420000   0.86181066   -6.9314735    784.81281  0.027025235  0.026873076            5 
 2421000   0.86447659   -6.8904913    786.91542  0.027086446  0.026865709            7 
 2422000   0.85398203   -6.9165878    786.73173  0.027068942   0.02685833            9 
 2423000   0.87123144   -6.8824911     786.0691  0.027034981  0.026851002           17 
 2424000   0.87396494   -6.9154179    784.64403  0.026974836  0.026843584            6 
 2425000   0.87221606    -6.908497    785.19794  0.026982747  0.026836155            4 
 2426000   0.85027428   -6.8733223    785.31865  0.026975771  0.026828772            5 
 2427000   0.85800454   -6.9163331     785.2356  0.026961805  0.026821334            6 
 2428000   0.87476803   -6.8946296    785.28816  0.026952504  0.026813889           11 
 2429000   0.86916362   -6.8957562    785.77915  0.026958253  0.026806479           10 
 2430000   0.86716316   -6.9135845    785.69188  0.026944166  0.026799037            9 
 2431000   0.86793535   -6.9287785    786.53564  0.026962006  0.026791612           10 
 2432000   0.86161497   -6.9221471    784.79144  0.026891154  0.026784127           13 
 2433000     0.869246   -6.9233516    787.43634  0.026970693  0.026776625            9 
 2434000   0.86155987   -6.8990326    785.11711  0.026880208  0.026769196            8 
 2435000   0.87108687   -6.8998477    787.19002   0.02694011  0.026761741           16 
 2436000   0.86575015   -6.9010566    787.49339  0.026939429  0.026754295            6 
 2437000   0.87129564   -6.9277331    786.25781  0.026886124  0.026746829            7 
 2438000    0.8581544   -6.9027871    788.76807  0.026960899  0.026739371           12 
 2439000   0.85106696   -6.9313496    787.43938  0.026904448  0.026731934            6 
 2440000   0.86550245   -6.8956104    788.35253  0.026924608   0.02672458           11 
 2441000   0.86066957   -6.9064583    789.24118  0.026943916  0.026717245            3 
 2442000   0.85364049   -6.8979491    788.30493  0.026900932  0.026709882           16 
 2443000   0.86941367   -6.8928994    789.34443   0.02692538  0.026702577            4 
 2444000   0.84053664   -6.9152254    788.98182  0.026901999  0.026695196           14 
 2445000   0.86435774   -6.8916332    789.48302  0.026908078  0.026687866           13 
 2446000   0.86042791   -6.9053035    789.27868  0.026890116  0.026680593            9 
 2447000   0.87387262   -6.9179217     788.9598  0.026868267  0.026673248            6 
 2448000   0.86095289   -6.8914661    789.02803  0.026859614  0.026665903            3 
 2449000   0.86858479   -6.9161913    790.82828  0.026909905  0.026658607            4 
 2450000    0.8596766   -6.9239997    789.63921  0.026858476  0.026651303            5 
 2451000   0.89119715    -6.915215    789.65012  0.026847889  0.026643925            8 
 2452000   0.84594424   -6.9291157    789.88689  0.026844987  0.026636533            5 
 2453000   0.84807913   -6.9021005     791.6815   0.02689501  0.026629158            5 
 2454000   0.86502728   -6.9058198    790.17645  0.026832941  0.026621837            5 
 2455000   0.86318615   -6.8947054    789.04537  0.026783617  0.026614507            8 
 2456000   0.83909496   -6.9455271    789.48924  0.026787773  0.026607087            8 
 2457000   0.84932495   -6.9153016    788.24439  0.026734649  0.026599679           10 
 2458000   0.87143165   -6.9297411    789.01328   0.02674984  0.026592311            6 
 2459000   0.86593881   -6.9212581    788.99243  0.026738255  0.026584936           13 
 2460000   0.85623354   -6.9031728    788.55691  0.026712633  0.026577593            8 
 2461000   0.84464422   -6.9198013    788.21886  0.026690331  0.026570223           11 
 2462000   0.84561965   -6.9223884    789.77379  0.026732121  0.026562798            3 
 2463000   0.84385636   -6.9163505    788.90969  0.026692032  0.026555413            6 
 2464000   0.85553764   -6.8982099     792.4527  0.026801025  0.026548114            4 
 2465000   0.83705844   -6.8956098    790.29178  0.026717099  0.026540815           10 
 2466000   0.84739923   -6.8707598    790.56908  0.026715635  0.026533447            5 
 2467000   0.86239747   -6.9250873    787.66098  0.026606573  0.026526043            9 
 2468000   0.83933878   -6.9236552    787.91999  0.026604538  0.026518595            5 
 2469000   0.85668672    -6.941199    786.66096  0.026551268  0.026511082            9 
 2470000   0.85595818   -6.9118108    789.93717  0.026651052  0.026503619           12 
 2471000    0.8610032   -6.8983955    790.72014  0.026666671   0.02649614           11 
 2472000   0.86334831   -6.9233182    790.64947  0.026653501   0.02648865            5 
 2473000   0.85577756   -6.9178384    790.33968  0.026632285  0.026481152            4 
 2474000   0.85540875   -6.9332004    792.50951  0.026694608  0.026473701            4 
 2475000   0.86460767   -6.9205985    791.07623  0.026635563  0.026466222            5 
 2476000   0.85766882   -6.9399535    788.06857  0.026523579   0.02645877           12 
 2477000    0.8700417   -6.9402319    790.12748  0.026582138  0.026451321            5 
 2478000    0.8527201   -6.9251346    791.14696  0.026605695  0.026443862            5 
 2479000   0.85425619   -6.9271018    791.57217  0.026609257  0.026436423            7 
 2480000   0.86300445   -6.9068126     790.9405  0.026577302  0.026428977            7 
 2481000   0.86344908   -6.9203625    791.05329  0.026570378  0.026421498           11 
 2482000   0.85571106   -6.9148246    791.81446  0.026585229  0.026414023           20 
 2483000   0.86604581   -6.9497037    790.33915  0.026525008  0.026406559            7 
 2484000   0.85936104   -6.9437005    789.54316  0.026487626   0.02639909            3 
 2485000    0.8611404   -6.9398151    790.69449  0.026515577  0.026391615            3 
 2486000   0.85280436   -6.9341477    790.42047  0.026495725  0.026384147            9 
 2487000   0.85334081   -6.9314431    791.40223  0.026517968  0.026376658            7 
 2488000   0.86782119   -6.9278445    790.68998  0.026483453  0.026369173           13 
 2489000   0.84585372   -6.9272383    793.12272  0.026554263  0.026361758            5 
 2490000   0.87142859   -6.9445991     791.7629  0.026498089  0.026354316           11 
 2491000   0.82661059   -6.9093147    791.11746  0.026465859  0.026346882           13 
 2492000   0.85121735   -6.9229921    791.29017  0.026461014   0.02633943            6 
 2493000   0.86538313   -6.9318474    791.91651  0.026471337  0.026331969            6 
 2494000   0.85193337   -6.9388502    793.29343   0.02650673  0.026324511            4 
 2495000   0.84618612   -6.9294971    791.34835  0.026431141  0.026317057            8 
 2496000   0.85499296   -6.9369775    791.90534  0.026439147  0.026309588            9 
 2497000   0.85035681   -6.9479116     793.0775  0.026467678  0.026302093            3 
 2498000   0.86846119   -6.9219246    793.29428  0.026464314  0.026294633            9 
 2499000   0.84778415   -6.9335198    794.16392  0.026482724  0.026287141            7 
 2500000   0.85175735   -6.9429396    793.50999  0.026450333  0.026279656            4 
 2501000   0.84888755   -6.9389905    791.41573  0.026369976  0.026272173            8 
 2502000   0.85078497    -6.948643     792.9194  0.026409519  0.026264724            8 
 2503000   0.84901818   -6.9246433    793.23807  0.026409578  0.026257253            8 
 2504000   0.85862028   -6.9281863    794.86864  0.026453296  0.026249774            9 
 2505000   0.81985486   -6.9590717    792.52445  0.026364752  0.026242373            5 
 2506000   0.86013114   -6.9598636    793.42961  0.026384331  0.026234903            9 
 2507000   0.83034152   -6.9242713    794.32951   0.02640372  0.026227477            7 
 2508000   0.83756455   -6.9162075    793.27082  0.026358015  0.026220074            9 
 2509000   0.84873956   -6.9262224    792.69736  0.026328463  0.026212651            5 
 2510000   0.86913727   -6.9091882    793.61831  0.026348549  0.026205246            5 
 2511000   0.85470174   -6.9294824    793.89147  0.026347122  0.026197848           13 
 2512000   0.84798656   -6.9344785    794.86812  0.026369033  0.026190379            5 
 2513000   0.85470391   -6.9332527    793.86336  0.026325221  0.026182919            6 
 2514000   0.85502719   -6.9314332    795.19722  0.026358964  0.026175474            5 
 2515000   0.84896976   -6.9529134    794.19863  0.026315395  0.026168017            6 
 2516000   0.87334062   -6.9334678    794.08966  0.026301327   0.02616052           14 
 2517000   0.85084889   -6.9530243    793.05271  0.026256546  0.026153012           21 
 2518000   0.83466092   -6.9651275    792.58044  0.026230488   0.02614546           32 
 2519000   0.85339141   -6.9422574    793.41371  0.026247642  0.026137924           19 
 2520000   0.84559684   -6.9204159    794.33753  0.026267775  0.026130463           10 
 2521000   0.83983711   -6.9355795    795.10909   0.02628286  0.026123032            7 
 2522000   0.85582046   -6.9477067    793.11649  0.026206598  0.026115598           10 
 2523000   0.84735009   -6.9414076    795.07721  0.026260973  0.026108169            4 
 2524000   0.84780135   -6.9248687    796.92963  0.026311729  0.026100709           11 
 2525000    0.8644696   -6.9185229     792.4609  0.026153825   0.02609334            7 
 2526000   0.86767801   -6.9426432    796.04832  0.026261821  0.026085858            5 
 2527000   0.83480391   -6.9296196    795.58535  0.026236161  0.026078374           10 
 2528000   0.83829414   -6.9678542    794.81579  0.026200415  0.026070913            7 
 2529000   0.86093271   -6.9566531    793.92627  0.026160744  0.026063385            7 
 2530000   0.85304166   -6.9160474    796.08891  0.026221637    0.0260559           12 
 2531000   0.85265746   -6.9238866    797.01583  0.026241796   0.02604851           21 
 2532000   0.83029457   -6.9644008    794.75497  0.026157022  0.026041078           13 
 2533000    0.8426018    -6.932774    794.50202  0.026138374  0.026033616            6 
 2534000   0.83193413   -6.9216244    796.46623  0.026192654  0.026026169            4 
 2535000   0.81975451   -6.9473324    795.45855  0.026149196  0.026018729           15 
 2536000   0.84517125    -6.954804    795.93739   0.02615462  0.026011317            6 
 2537000   0.84494471   -6.8885392    796.46965  0.026161794    0.0260039            8 
 2538000   0.83817464   -6.9504257    796.72992  0.026160032  0.025996504            3 
 2539000   0.83355621   -6.9391987    798.68552  0.026213914  0.025989109            4 
 2540000   0.84634079   -6.9527348    798.33968  0.026192247  0.025981699            8 
 2541000   0.84526468   -6.9136302    798.10303  0.026174178  0.025974288            5 
 2542000   0.84099602   -6.9161767    798.40183  0.026173676  0.025966899           10 
 2543000   0.86282814   -6.9563069    797.22072  0.026124679  0.025959509            8 
 2544000   0.83741233   -6.9410367    797.85238  0.026135102   0.02595207            7 
 2545000   0.85927807     -6.92221    797.99575  0.026129527  0.025944691            5 
 2546000   0.83129931   -6.9159025     798.4998  0.026135762  0.025937336            9 
 2547000   0.85839804   -6.9698228    797.04759  0.026077987  0.025929948            9 
 2548000   0.84739863   -6.9546654     796.3312  0.026044322  0.025922525            6 
 2549000   0.84047272   -6.9229093    797.07004  0.026058259  0.025915139            5 
 2550000   0.87034135   -6.9414828    798.80667  0.026104793  0.025907762            6 
 2551000   0.83402563   -6.8973068    799.17242  0.026106508  0.025900374            8 
 2552000   0.84761547   -6.9254381     796.9459  0.026023573  0.025893049            6 
 2553000   0.84052348   -6.9193354    799.91719  0.026110366  0.025885672            3 
 2554000   0.84636342   -6.9197775    799.17462  0.026075914  0.025878316           14 
 2555000   0.86076465   -6.9443647    798.23542  0.026035076   0.02587094            5 
 2556000    0.8330919   -6.9459426    800.41393  0.026095916  0.025863608            5 
 2557000   0.86257302   -6.8997435    801.56298  0.026123158  0.025856342            7 
 2558000    0.8545182    -6.937616    800.02188  0.026062741  0.025849087            4 
 2559000   0.84554914   -6.9353744    798.66884  0.026008494  0.025841798            7 
 2560000   0.84217413   -6.9183221    801.34597  0.026085481  0.025834528            5 
 2561000   0.83624354   -6.9462682    798.60769  0.025986193  0.025827201           12 
 2562000   0.85195219   -6.9257569      800.496  0.026037471  0.025819877            8 
 2563000   0.84632496   -6.9065527    799.23485  0.025986307  0.025812567            4 
 2564000   0.84205669   -6.9509849    800.59527  0.026020387  0.025805268            4 
 2565000   0.83772821     -6.96363    799.49588  0.025974525  0.025797984            7 
 2566000   0.83219838   -6.9335197    800.89351  0.026009792    0.0257907            8 
 2567000   0.84037539   -6.9335232     798.5417  0.025923312  0.025783392           10 
 2568000   0.85708108   -6.9550984     800.8125  0.025986906  0.025776077            6 
 2569000   0.85768552   -6.9481688    801.45564  0.025997653  0.025768725            7 
 2570000   0.82449571   -6.9332113    799.27676  0.025916886  0.025761406            5 
 2571000   0.85245425   -6.9392796    801.42949  0.025976581  0.025754101            4 
 2572000   0.84119263   -6.9408437    802.30096  0.025994717  0.025746755            8 
 2573000   0.82401178    -6.967554    803.01917  0.026007876  0.025739469            8 
 2574000   0.82459326   -6.9116692    801.73883   0.02595632  0.025732145           14 
 2575000   0.85290049   -6.9605876    801.21871  0.025929408  0.025724868           10 
 2576000   0.84371413   -6.9518764    801.69954  0.025934897  0.025717561            4 
 2577000   0.83644041   -6.9499723    801.79141  0.025927804  0.025710253            9 
 2578000   0.83581968   -6.9383566    801.92152  0.025921952  0.025702965           13 
 2579000   0.82952666   -6.9480002    801.90823  0.025911472  0.025695644            6 
 2580000   0.84692005   -6.9657676    801.48177  0.025887654  0.025688329            5 
 2581000   0.85751979   -6.9570043    802.88683   0.02592299  0.025680996            8 
 2582000   0.83208777   -6.9462137       801.34  0.025863026   0.02567366            8 
 2583000    0.8383856   -6.9143191    801.89335  0.025870866  0.025666357            2 
 2584000   0.83863357   -6.9434975    801.35174  0.025843387  0.025659093            5 
 2585000   0.84951645   -6.9653039    802.27279  0.025863082  0.025651808            7 
 2586000   0.83202329   -6.9747246    802.61232  0.025864022  0.025644517           14 
 2587000   0.84606938    -6.950088    802.79635  0.025859952   0.02563724            8 
 2588000   0.83332777   -6.9638122    804.87582  0.025916919  0.025630023           11 
 2589000   0.83177278   -6.9746426    803.04844  0.025848089  0.025622725            7 
 2590000   0.82924247   -6.9828053    802.98051  0.025835924  0.025615439           11 
 2591000   0.84994962   -6.9574091    803.67772  0.025848376  0.025608166           15 
 2592000   0.80965838   -6.9471002    803.38037  0.025828844  0.025600884            3 
 2593000   0.85291624   -6.9518815    804.43711  0.025852844  0.025593635            7 
 2594000   0.84604207   -6.9401062    804.36402   0.02584053  0.025586378            5 
 2595000   0.84875961   -6.9535672    803.03909  0.025788025  0.025579089            5 
 2596000   0.84581867   -6.9607766    801.74793  0.025736644  0.025571824            4 
 2597000   0.83208866   -6.9594317    802.43088  0.025748648  0.025564592            5 
 2598000   0.85316789   -6.9515743    804.87798   0.02581723  0.025557357            9 
 2599000   0.84214779   -6.9423458    804.19922  0.025785533  0.025550141           11 
 2600000   0.86376578   -6.9596919    805.39889  0.025814067  0.025542905            9 
 2601000   0.84988433   -6.9192562    806.60112   0.02584266  0.025535724            4 
 2602000   0.84902888   -6.9869032    803.16062  0.025722541  0.025528544            9 
 2603000   0.81078237    -6.958356    805.51828  0.025788138  0.025521292            5 
 2604000    0.8323215   -6.9605942    801.95225  0.025664114  0.025514091            4 
 2605000   0.84023929   -6.9459392    805.42455  0.025765341  0.025506842            5 
 2606000   0.83337907   -6.9615704    804.62047  0.025729741  0.025499631            5 
 2607000   0.84784367   -6.9654615     806.8741   0.02579191   0.02549237           10 
 2608000   0.82663753   -6.9555756    805.08974  0.025725004  0.025485148           11 
 2609000    0.8320249   -6.9681298    806.12901  0.025748339  0.025477945            4 
 2610000   0.82770533   -6.9687861    804.92294  0.025699966  0.025470744            6 
 2611000   0.83126433   -6.9628419    806.18609  0.025730438   0.02546356            7 
 2612000   0.82903338   -6.9749255    805.93829  0.025712681  0.025456384           13 
 2613000    0.8537382   -6.9907015    806.81705  0.025730867  0.025449152            8 
 2614000   0.84679112   -6.9583609    805.25098  0.025671097   0.02544198            8 
 2615000   0.81915597   -6.9603091    806.81906  0.025711251  0.025434816            7 
 2616000   0.83875772    -6.959658    806.19248  0.025681463  0.025427712            7 
 2617000   0.82438253   -6.9571191    806.04869  0.025667071  0.025420533            5 
 2618000   0.84533937   -6.9662161    805.65094  0.025644606  0.025413349           11 
 2619000   0.83987166   -6.9589658     807.3962  0.025690346  0.025406197            5 
 2620000   0.83394418   -6.9581117    808.58114   0.02571823  0.025399041           10 
 2621000   0.81706325   -6.9866981    806.05346  0.025628051  0.025391858            4 
 2622000   0.83506327   -6.9890193    806.18519  0.025622464  0.025384626            5 
 2623000   0.84425224   -6.9792197    806.29951  0.025616327  0.025377418           10 
 2624000   0.81677412   -6.9880853    806.27129  0.025605669  0.025370209            9 
 2625000   0.84573839   -6.9779198    805.30775  0.025565325  0.025363029           18 
 2626000   0.83671752   -6.9697136    808.56315  0.025658897  0.025355861            9 
 2627000    0.8312468    -6.971195    805.30819  0.025545876  0.025348668            8 
 2628000   0.83339413   -6.9881983     806.7096  0.025580594  0.025341486            9 
 2629000   0.82984606   -6.9879183    807.61898  0.025599689  0.025334301            4 
 2630000   0.84212998   -6.9688595    807.13172  0.025574516  0.025327166            6 
 2631000   0.83003079   -6.9776924    808.48608  0.025607693  0.025320025           14 
 2632000   0.84402511   -6.9600726     809.1467   0.02561888  0.025312878            5 
 2633000   0.83898247   -6.9912284    806.57437  0.025527737  0.025305735            7 
 2634000   0.83629462   -6.9593813    808.76837  0.025587458  0.025298593            7 
 2635000   0.83920826   -6.9401883    807.25681  0.025529943  0.025291483            8 
 2636000   0.83276534   -6.9844827    807.87711  0.025539868  0.025284382            9 
 2637000   0.82092388   -6.9803179    808.92945  0.025563439  0.025277297            3 
 2638000   0.83087745   -6.9923826    806.92896  0.025490554  0.025270141            7 
 2639000   0.83128586   -6.9629122    810.03871  0.025579093   0.02526302            9 
 2640000   0.80713554   -6.9711059    810.57368   0.02558629  0.025255937           10 
 2641000    0.8308284   -6.9858551    808.65521  0.025516067  0.025248814            5 
 2642000   0.82626532   -7.0148037    807.07116  0.025456446  0.025241691            7 
 2643000   0.81239551   -6.9799984    808.20376  0.025482525  0.025234559            5 
 2644000   0.82847685   -6.9565036    810.36082  0.025540873  0.025227442            7 
 2645000   0.83041232   -6.9517774    810.60849   0.02553902  0.025220309            8 
 2646000   0.83635913   -6.9770772    809.26215  0.025486966  0.025213184           11 
 2647000    0.8507606   -7.0098158      810.659  0.025521313  0.025206075            8 
 2648000   0.81421211   -6.9554831    810.96959   0.02552145  0.025198997            5 
 2649000   0.81823049   -6.9827678    811.11795  0.025516483  0.025191919            5 
 2650000    0.8249621   -6.9678798    809.50805  0.025456228  0.025184863            5 
 2651000   0.84535136   -6.9827115    810.90644  0.025490583  0.025177828           11 
 2652000   0.83744809   -6.9848138    811.65497  0.025504493  0.025170794           11 
 2653000   0.83330038   -7.0043919    810.24417  0.025450564  0.025163712           13 
 2654000   0.82853144   -7.0141578    810.50304  0.025449103  0.025156628           12 
 2655000   0.83801265   -6.9948691     812.8968  0.025514652  0.025149556            8 
 2656000   0.83177738    -6.988685    811.25035  0.025453387  0.025142476           11 
 2657000   0.84036268   -6.9698294    812.10354  0.025470566  0.025135412            8 
 2658000   0.83669523   -6.9816647    810.29124  0.025404165  0.025128388            5 
 2659000   0.82526663   -6.9943511    811.09578  0.025419825  0.025121367           14 
 2660000   0.81740851   -6.9873484    812.23063  0.025445822  0.025114322           11 
 2661000   0.81515076   -6.9995007    813.64183  0.025480453   0.02510731           10 
 2662000   0.85653455   -6.9946005    810.27247  0.025365404  0.025100267           11 
 2663000   0.80871598   -7.0009978    811.35957  0.025389898  0.025093207            6 
 2664000   0.84059297   -6.9824385    809.95103  0.025336306  0.025086118            5 
 2665000   0.83352983   -7.0157127    813.03182  0.025423134  0.025079051            7 
 2666000    0.8072341    -7.015208     810.0688   0.02532098  0.025071993           12 
 2667000   0.82640682   -6.9895992    813.07442    0.0254054  0.025064908            4 
 2668000   0.81221348   -6.9873662    810.14315  0.025304321  0.025057841            9 
 2669000   0.81203901   -6.9996805    811.64884  0.025341852  0.025050763            7 
 2670000    0.8046277   -6.9778006    813.86251  0.025401452  0.025043694            5 
 2671000    0.8155617   -6.9973211    812.42724  0.025347162  0.025036647            5 
 2672000   0.82862087    -6.973443     815.3429  0.025428608  0.025029578            6 
 2673000   0.81448066   -6.9878404    812.04211   0.02531619  0.025022516           10 
 2674000   0.82393618   -7.0093155    811.25852  0.025282302  0.025015503           15 
 2675000   0.83045427   -7.0035262    813.97372  0.025357437  0.025008463            7 
 2676000   0.82500106   -6.9689349    814.56105  0.025366251  0.025001465            4 
 2677000   0.82251195   -6.9730675     814.1614  0.025344335  0.024994479            6 
 2678000   0.83704679   -6.9701016    813.49398  0.025314102   0.02498751            9 
 2679000   0.82128344   -6.9644446    814.43057  0.025333786  0.024980543            6 
 2680000     0.830561   -6.9875148    814.22935  0.025318077  0.024973538            6 
 2681000   0.82295718   -6.9961513    811.38273  0.025220152  0.024966508            8 
 2682000   0.82079957   -6.9958069     813.0152  0.025261471  0.024959423           15 
 2683000   0.83131847   -6.9879414    815.54924  0.025330763  0.024952387            4 
 2684000   0.83848836   -6.9938149    815.32236  0.025314281    0.0249454            6 
 2685000   0.81123959   -6.9854724    815.77692  0.025318961  0.024938405            8 
 2686000   0.81812364   -7.0079397    814.88504  0.025281864  0.024931385           12 
 2687000   0.83212749   -6.9925062     814.8311  0.025270782  0.024924392            4 
 2688000    0.8282011   -6.9815472    812.40041  0.025186025  0.024917403            9 
 2689000   0.81328509   -6.9864961    814.50671  0.025241933  0.024910447            8 
 2690000   0.81667452   -6.9946841    814.46887  0.025231378  0.024903439            3 
 2691000   0.80834585    -6.994463    815.40854  0.025251101  0.024896387            8 
 2692000   0.82260096   -6.9870039    815.26855  0.025237387  0.024889369            6 
 2693000   0.80509006   -7.0196236    815.16878  0.025224928  0.024882341           10 
 2694000    0.8300063   -7.0051195    814.43958  0.025193009  0.024875343            5 
 2695000   0.80652777   -6.9926681     815.7004  0.025222647  0.024868362            9 
 2696000   0.82828378    -6.959945    814.75508  0.025184072  0.024861393            7 
 2697000   0.84034708   -7.0124852    813.17454  0.025125897  0.024854428            7 
 2698000   0.81904037    -6.974641     814.8872  0.025169484  0.024847447            6 
 2699000    0.8014671   -7.0070339    814.92831  0.025161427  0.024840469            7 
 2700000   0.83064412   -7.0072617    818.18969  0.025252768  0.024833516            5 
 2701000   0.81793988   -6.9725432    815.95075  0.025174341   0.02482657           19 
 2702000   0.83579375   -6.9856654    817.22117  0.025204206  0.024819635            5 
 2703000    0.8160773   -6.9966393    815.80398   0.02515119  0.024812682           10 
 2704000   0.82714351   -6.9915658    815.85213  0.025143372   0.02480573           12 
 2705000   0.81196644   -7.0154062    815.44952  0.025121673  0.024798786            6 
 2706000   0.84388288   -7.0032252    814.30052  0.025077006  0.024791798            4 
 2707000   0.82291883   -7.0075944    813.81662  0.025052845  0.024784856            3 
 2708000   0.81722026   -6.9694068    817.14453  0.025146004  0.024777909            5 
 2709000   0.83497277   -6.9989947    817.11177  0.025135713  0.024771012           12 
 2710000   0.82104822   -6.9934077    815.34533  0.025072119   0.02476404           11 
 2711000   0.82254742   -6.9883308    816.43515  0.025096371  0.024757113            5 
 2712000   0.81007288   -6.9954739    818.04391  0.025136551  0.024750182            5 
 2713000   0.81356077   -7.0185293    815.54525  0.025050536   0.02474321           13 
 2714000   0.82355172   -6.9939007    818.02858  0.025117557  0.024736256           11 
 2715000   0.83327294   -6.9752688    817.81924   0.02510188  0.024729296            5 
 2716000   0.81359167   -7.0274343    817.63331  0.025086933  0.024722315            8 
 2717000   0.83841813   -7.0155173    818.17596  0.025094343  0.024715316            9 
 2718000   0.80332466   -7.0170168    815.55547  0.025004767  0.024708303            3 
 2719000   0.80643598   -7.0011588    816.26112  0.025017197  0.024701319           18 
 2720000   0.82017607   -7.0057271    815.87317  0.024996114  0.024694321            6 
 2721000   0.81393808   -7.0169276    818.24446  0.025059551  0.024687323           14 
 2722000   0.81123096    -6.995627    815.88023  0.024977964  0.024680326           10 
 2723000   0.80961888   -7.0142014    815.42333  0.024954809  0.024673316           12 
 2724000   0.81823224   -6.9873435    818.85425  0.025050607    0.0246663            5 
 2725000   0.83118062   -7.0300758    819.25189  0.025053575  0.024659309            5 
 2726000   0.81423071   -6.9851203    818.38042  0.025017743   0.02465234            6 
 2727000   0.81662053   -6.9980259    816.86481  0.024962254  0.024645387           12 
 2728000   0.82696148   -6.9985527    818.17808  0.024993221  0.024638398            5 
 2729000   0.81934437   -7.0070604    819.68373  0.025030039  0.024631424            5 
 2730000   0.80394674    -7.008104    816.84357  0.024934175   0.02462447            7 
 2731000   0.81112342   -7.0085899    818.82842   0.02498561  0.024617526           21 
 2732000   0.81312439   -6.9951325    817.34084  0.024931089  0.024610589            6 
 2733000   0.80382447   -7.0259561     817.8199  0.024936575  0.024603628            7 
 2734000   0.81610417   -7.0227121    817.09056  0.024905223   0.02459666            8 
 2735000    0.8120467   -7.0302895    817.82671  0.024918547  0.024589721            5 
 2736000   0.81143205   -7.0246402    818.30078  0.024923879  0.024582793           10 
 2737000   0.81891632   -7.0223533    815.57705  0.024831843  0.024575835           25 
 2738000   0.80823825   -6.9974767    822.31063  0.025027716  0.024568901           13 
 2739000   0.82540241   -7.0285463    819.69763  0.024939078  0.024561992            6 
 2740000   0.82356551   -7.0196784    819.86884  0.024935184  0.024555098            5 
 2741000   0.81524039   -7.0256587    818.54492  0.024885836   0.02454817            9 
 2742000   0.81791183   -7.0084449    819.73332  0.024912877  0.024541237            8 
 2743000   0.82389071   -7.0198109    820.38208  0.024923505  0.024534356            6 
 2744000   0.81597005   -7.0425766    820.30319  0.024912026  0.024527419           14 
 2745000   0.80976984   -7.0099402    818.83571  0.024858401  0.024520477            7 
 2746000   0.80299912   -7.0012112    821.68598  0.024935845  0.024513568            8 
 2747000   0.82187361   -7.0090182    820.91972  0.024903523   0.02450666            5 
 2748000   0.79436094   -6.9907545    820.13543  0.024870677  0.024499741            6 
 2749000   0.82453236   -6.9918509    820.11248  0.024860934  0.024492841            6 
 2750000   0.82305865   -7.0272926    819.12793  0.024822058  0.024485945            5 
 2751000   0.82303839    -7.005218    820.74221  0.024861935  0.024479082            6 
 2752000   0.81654441   -7.0182178    819.10039  0.024803185  0.024472204           11 
 2753000   0.80589006   -6.9946659    819.37925  0.024802617  0.024465273            8 
 2754000   0.79877205   -7.0223119    819.31596  0.024791696   0.02445833            9 
 2755000   0.81159947   -7.0223671    819.67978  0.024793702  0.024451422           10 
 2756000   0.80769241   -6.9996393    821.83582  0.024849898   0.02444449            4 
 2757000   0.79356096   -7.0113981    820.71867  0.024807117  0.024437585           12 
 2758000   0.82070239   -7.0098319    820.10235  0.024779501  0.024430676            4 
 2759000   0.80829018   -7.0075211    820.57014  0.024784648  0.024423763            6 
 2760000   0.80863977   -7.0560345      820.981  0.024788074   0.02441683            9 
 2761000   0.81299876   -7.0271219    821.75406  0.024802428  0.024409903            7 
 2762000   0.81175944    -7.022103    820.85238  0.024766244  0.024403009           10 
 2763000   0.83968228   -7.0269395    820.06608  0.024733565  0.024396069            7 
 2764000   0.80655757   -7.0143286    819.69701  0.024713489  0.024389107            7 
 2765000   0.80125362   -7.0106932    821.18179  0.024749301  0.024382158            5 
 2766000   0.81885906   -7.0279597    821.52727  0.024750761  0.024375226            8 
 2767000   0.81173178   -7.0239969    820.76709  0.024718922  0.024368251            7 
 2768000   0.80330923   -7.0077246    819.61932  0.024675437  0.024361271            6 
 2769000   0.80693033   -7.0205194    819.87395  0.024674189  0.024354314            6 
 2770000   0.81395094   -7.0258693    820.37967  0.024680495  0.024347372            8 
 2771000   0.81874063   -7.0067891     823.1781  0.024755747  0.024340463           10 
 2772000   0.79889051   -6.9880962    821.57363  0.024698582  0.024333513            7 
 2773000   0.79948797   -7.0390244    819.19459  0.024618181  0.024326567           12 
 2774000   0.81146046   -7.0375501     820.5538  0.024650138  0.024319649            7 
 2775000   0.80136477   -7.0006464     820.6862  0.024645231  0.024312731            7 
 2776000    0.8057338   -6.9990667    820.05048   0.02461727  0.024305799            5 
 2777000   0.81073969   -7.0417364    818.91037  0.024574192  0.024298794           11 
 2778000   0.81662914   -7.0259263    821.86989  0.024654124  0.024291817           12 
 2779000   0.79916479    -7.015155    821.28935  0.024627844  0.024284823            6 
 2780000     0.797093   -7.0269522    821.11035   0.02461362   0.02427786            4 
 2781000   0.79879265   -7.0412919    820.76794  0.024594509  0.024270849            6 
 2782000   0.82544225   -7.0270325    820.53231   0.02457861  0.024263853            6 
 2783000   0.80703983   -7.0179044    819.72097  0.024545483   0.02425685            9 
 2784000   0.81566684   -7.0105002    821.08918  0.024577622  0.024249902            5 
 2785000   0.80150101   -7.0236069    823.06009  0.024627771  0.024242998            6 
 2786000   0.78422115   -6.9988913     823.0277  0.024617962  0.024236121            6 
 2787000   0.79862913   -7.0097438    823.56342  0.024625147  0.024229259            8 
 2788000   0.81612819   -7.0127017     823.5947   0.02461725  0.024222395            5 
 2789000   0.80040231    -7.032885    823.54386  0.024606904  0.024215578            6 
 2790000   0.80703568   -7.0057381    826.09252  0.024674209  0.024208746           14 
 2791000   0.80795003   -7.0067648    822.96435  0.024571968  0.024201884            4 
 2792000   0.79792854    -7.032149    822.68561  0.024554847  0.024195037           10 
 2793000   0.78511584   -7.0175943    822.33921  0.024535721  0.024188129            7 
 2794000   0.80973905   -7.0289542    822.68036  0.024537114  0.024181229            8 
 2795000   0.80491894    -7.039652    825.07379  0.024599696  0.024174348            7 
 2796000   0.79912656   -7.0272814    821.90063  0.024496323  0.024167468            8 
 2797000   0.79494953   -7.0364029    823.33433   0.02453028  0.024160561           15 
 2798000   0.81867767   -7.0212618    822.85046  0.024507102  0.024153688            4 
 2799000   0.79088778   -7.0148352    824.20482  0.024538669  0.024146822            4 
 2800000   0.78496105   -7.0310784    824.25215  0.024531314   0.02413996            5 
 2801000   0.82524376    -7.011562    824.76131  0.024537704  0.024133119           11 
 2802000   0.81166051   -7.0091354     822.4482  0.024460154   0.02412626            6 
 2803000   0.79430213   -7.0182038    823.99356  0.024497371   0.02411941            7 
 2804000   0.81192488   -7.0367996    824.30822  0.024497986  0.024112581            9 
 2805000   0.81476314   -7.0483003     824.2626  0.024487897  0.024105749           12 
 2806000   0.80518835   -7.0216735    823.45667  0.024455235  0.024098915           10 
 2807000    0.8161393   -7.0294097    824.26901  0.024470639  0.024092038           11 
 2808000   0.80958018   -7.0177854    825.20236  0.024489624  0.024085192            6 
 2809000   0.79636866     -7.05523    824.08512  0.024447761  0.024078314            8 
 2810000   0.80181435   -7.0333146    824.80507  0.024460411  0.024071456           21 
 2811000   0.80302687   -7.0380561    823.76064  0.024420747  0.024064548            9 
 2812000   0.80213639    -7.037731    825.59504  0.024466425  0.024057663           13 
 2813000    0.8012561   -7.0555882    822.68283  0.024371455   0.02405082           14 
 2814000   0.79171392   -7.0156271    825.37901  0.024442638  0.024043978            9 
 2815000   0.80748055   -7.0372613    825.29226  0.024431387  0.024037152            8 
 2816000   0.80424379   -7.0335243    825.30059  0.024422958  0.024030313           14 
 2817000   0.81089633   -7.0370261    825.26997  0.024413382  0.024023488            5 
 2818000   0.81049115   -7.0182614    824.52664  0.024382737  0.024016644            6 
 2819000   0.79989971   -7.0166857    825.94003  0.024415869  0.024009841            4 
 2820000   0.79291902   -7.0439087    825.95429  0.024407633  0.024003029           10 
 2821000     0.788628    -7.055082    826.22364  0.024406937  0.023996211            6 
 2822000   0.79784217   -7.0253737    826.28995  0.024400246  0.023989413            7 
 2823000   0.78933303   -7.0276589    826.19482  0.024388795  0.023982551           11 
 2824000   0.80655536   -7.0308395    825.08575  0.024347431   0.02397572           12 
 2825000   0.78012926   -7.0519915    825.83791     0.024361  0.023968906           11 
 2826000   0.81183027   -7.0428058    826.11006  0.024360405    0.0239621           13 
 2827000   0.78441548   -7.0665738    825.43918  0.024332012  0.023955304           15 
 2828000   0.79508061   -7.0141039    825.99791  0.024339872  0.023948495            5 
 2829000   0.80871914   -7.0103418    828.23949  0.024397298  0.023941764            7 
 2830000   0.78749353    -7.033668    826.95603  0.024350884  0.023935011           12 
 2831000   0.80541322   -7.0348741    826.53961  0.024330025  0.023928224           16 
 2832000    0.8070755   -7.0566518    829.58894  0.024411162  0.023921459            5 
 2833000   0.80599451    -7.048012    827.63508  0.024345072  0.023914686           11 
 2834000    0.7850491   -7.0505761    826.08967  0.024291039  0.023907888           11 
 2835000   0.81077607   -7.0257204    826.33139  0.024289576  0.023901085           12 
 2836000    0.7901071   -7.0248493    828.60913  0.024347941  0.023894309            3 
 2837000   0.80988566   -7.0355242    828.48319  0.024335659  0.023887558           16 
 2838000    0.7904832   -7.0352738    826.66979  0.024273837  0.023880758           10 
 2839000   0.79681567   -7.0257921    824.40909  0.024198928  0.023873925            8 
 2840000   0.80289143   -7.0483631    827.57117  0.024283192  0.023867171            5 
 2841000   0.79528127   -7.0414356    827.41412  0.024270038  0.023860416           11 
 2842000   0.79407141   -7.0362719    827.26584   0.02425715  0.023853657           13 
 2843000   0.80830445   -7.0661719    827.97886  0.024269517  0.023846898           23 
 2844000   0.78539726   -7.0653774     828.0771  0.024263863  0.023840142            8 
 2845000   0.80786279   -7.0581216    827.94677  0.024251516  0.023833372           17 
 2846000   0.78706822   -7.0670307    827.84713  0.024240078  0.023826574            9 
 2847000   0.79976922   -7.0889538     828.2876  0.024244456  0.023819768           14 
 2848000   0.80492934   -7.0609742    829.26104  0.024264427   0.02381299           14 
 2849000   0.79151047   -7.0451434     827.9128  0.024216474   0.02380628           11 
 2850000   0.79915076   -7.0293886    828.19706  0.024216288  0.023799553            7 
 2851000   0.77971348   -7.0533531    830.26465  0.024268229  0.023792852           11 
 2852000     0.791334   -7.0559377    829.62001  0.024240884  0.023786141           18 
 2853000   0.79234986   -7.0579657    830.69869  0.024263895  0.023779434            7 
 2854000   0.80033381   -7.0497515    831.04752  0.024265578  0.023772748            9 
 2855000   0.79506329   -7.0402019    830.42205  0.024238822  0.023766068            5 
 2856000    0.7966829   -7.0287654    828.17076  0.024164646  0.023759358           11 
 2857000   0.81287424   -7.0745066    830.31702  0.024218791  0.023752663            9 
 2858000   0.77954491   -7.0362262    829.82618  0.024196005  0.023745942           10 
 2859000   0.79054922   -7.0450757    830.82194  0.024216566   0.02373923           16 
 2860000   0.78395966   -7.0537458    830.17892  0.024189362  0.023732509           20 
 2861000   0.79629944    -7.064043    829.46073  0.024159989    0.0237258           10 
 2862000   0.79732123   -7.0781918    828.41079  0.024120976  0.023719088            9 
 2863000   0.78969478   -7.0596747    829.19524  0.024135384  0.023712369           10 
 2864000   0.80054191   -7.0558245    829.86318  0.024146391  0.023705681            4 
 2865000   0.79827617   -7.0534768     830.0653  0.024143842  0.023698978            8 
 2866000   0.79176417    -7.037552    831.29186  0.024171082   0.02369228            4 
 2867000   0.79899932   -7.0628918     831.2738  0.024162126  0.023685638           11 
 2868000   0.78914281   -7.0277612    831.14998  0.024150104  0.023679001            4 
 2869000   0.78367975   -7.0399142    832.62786  0.024184613  0.023672376           12 
 2870000   0.79737142   -7.0312175    830.80819  0.024123351  0.023665728            6 
 2871000    0.7817508   -7.0220105     831.8499  0.024145185  0.023659106           11 
 2872000   0.77419793   -7.0451177    831.21736  0.024118424  0.023652457            9 
 2873000   0.79400154   -7.0559694    832.61831  0.024150665  0.023645804            8 
 2874000   0.79495639   -7.0532704     832.9091  0.024150693  0.023639161           11 
 2875000   0.77701202   -7.0400325    831.85281  0.024111676  0.023632469           14 
 2876000   0.77625238   -7.0431436    831.44207  0.024091391  0.023625797           13 
 2877000   0.81200296   -7.0635553    831.48938  0.024084387  0.023619146            9 
 2878000    0.7858276   -7.0500813    830.15383  0.024037347  0.023612493           10 
 2879000   0.81255067   -7.0558767    830.13721  0.024028517  0.023605824           22 
 2880000   0.77314099   -7.0453756    831.94805  0.024072571  0.023599162           11 
 2881000   0.79669311   -7.0200903    833.89601   0.02412056  0.023592516           11 
 2882000   0.79332844   -7.0493748    832.17435  0.024062409  0.023585878            7 
 2883000   0.79989157   -7.0589442    831.53816  0.024035673  0.023579308            8 
 2884000   0.79791146   -7.0293206     832.4369  0.024053308  0.023572697           14 
 2885000   0.78244236   -7.0234436    832.48985  0.024046501    0.0235661            6 
 2886000   0.79026097   -7.0752211    833.67214  0.024072307  0.023559482            5 
 2887000   0.80070847   -7.0527754    832.12252  0.024019239  0.023552843           10 
 2888000   0.78356998   -7.0408692    832.81097  0.024030787  0.023546228            8 
 2889000    0.7815912   -7.0549479    834.22559  0.024063274  0.023539602            3 
 2890000   0.78915927   -7.0542567    833.06293  0.024021423  0.023532947            9 
 2891000   0.78981763   -7.0468349     833.8745  0.024036507  0.023526336            3 
 2892000   0.80490568   -7.0484184     832.9896  0.024002697  0.023519714            8 
 2893000   0.78799831   -7.0299451    834.52369   0.02403859  0.023513092           15 
 2894000   0.79151199   -7.0521032    831.71601  0.023949436  0.023506434            5 
 2895000    0.8044617   -7.0675382    831.89742  0.023946385  0.023499788            7 
 2896000   0.79170263   -7.0784083    834.38173  0.024009603  0.023493149            9 
 2897000   0.78473325   -7.0792757    831.89823  0.023929877  0.023486502           16 
 2898000   0.77945409   -7.0387772    832.90574  0.023950591  0.023479861           12 
 2899000   0.77338296   -7.0579488    832.59854  0.023933498  0.023473219           15 
 2900000   0.79678154    -7.069327    832.51352  0.023922802  0.023466549           10 
 2901000    0.7835574    -7.042338    831.79971  0.023894051  0.023459935           13 
 2902000   0.80617449   -7.0629015    834.80612  0.023972149  0.023453308            8 
 2903000   0.79244523   -7.0657939    834.10035  0.023943632  0.023446702           11 
 2904000   0.79772638   -7.0564643    835.42698  0.023973456  0.023440073            6 
 2905000   0.75316969   -7.0888444    833.36152  0.023905953  0.023433462            6 
 2906000   0.80910811   -7.0750651    835.19137    0.0239502  0.023426817            7 
 2907000   0.78487699   -7.0392298    834.19656  0.023913444  0.023420179           10 
 2908000   0.78267376   -7.0911731    834.35954  0.023909891  0.023413598            7 
 2909000   0.80817102   -7.0878446     834.2693  0.023899086  0.023406987            9 
 2910000    0.7852411   -7.0593449    836.43819  0.023952984  0.023400381           11 
 2911000   0.78419463    -7.066406    833.50794  0.023860871  0.023393768            8 
 2912000   0.78593485   -7.0616469     832.3153  0.023818547  0.023387145            9 
 2913000   0.80279139   -7.0931035    832.83181  0.023825146  0.023380538           14 
 2914000    0.7913366   -7.0604553    835.18764  0.023884341  0.023373954            8 
 2915000   0.78670742   -7.0772562    834.59316  0.023859153  0.023367362            7 
 2916000   0.80031039   -7.0436629    834.43967  0.023846584  0.023360775            6 
 2917000   0.78995436   -7.0746362    832.63042  0.023786722   0.02335418            6 
 2918000   0.77043926   -7.0656094    834.38001  0.023828536  0.023347591            3 
 2919000   0.78608916   -7.0966869    834.50911  0.023824058  0.023340993            7 
 2920000   0.79572763   -7.0823204    832.73898  0.023765382  0.023334377           19 
 2921000    0.7838324   -7.0671401    835.37414  0.023832424  0.023327808           10 
 2922000   0.78232725   -7.0576089    835.26342  0.023821111  0.023321243           11 
 2923000    0.7779544   -7.0857787    834.63153  0.023794946  0.023314667            6 
 2924000   0.77237943    -7.095501    835.85483  0.023821672  0.023308079           12 
 2925000   0.76560384   -7.0756339    833.68045   0.02375158  0.023301475           11 
 2926000   0.77435822   -7.0752554    834.62561  0.023770381  0.023294887           11 
 2927000   0.77346585    -7.082252    835.80739  0.023795906  0.023288275            8 
 2928000   0.78070258    -7.066661    835.47061  0.023778194  0.023281668            9 
 2929000   0.78310394   -7.0667164    834.19319  0.023733731  0.023275075            8 
 2930000   0.78147501   -7.0740766    835.88401   0.02377372  0.023268508            5 
 2931000   0.77689579   -7.0462056    836.77016  0.023790804  0.023261986            5 
 2932000   0.78716857   -7.0494703    835.75094  0.023753722  0.023255449            4 
 2933000   0.77951441   -7.0587794    836.12777  0.023756329   0.02324891            8 
 2934000   0.79687368   -7.0956586    836.89569  0.023770043  0.023242351            6 
 2935000   0.79081739   -7.0565938    834.66854  0.023698709  0.023235789            5 
 2936000   0.77700962   -7.0753943    834.57796  0.023688066  0.023229236           13 
 2937000   0.79276999   -7.0774923    838.55934  0.023792967  0.023222681           10 
 2938000   0.78235215   -7.0790273    836.68928  0.023731827  0.023216149            9 
 2939000   0.78648208   -7.0403865    839.02232  0.023789904  0.023209637           10 
 2940000   0.76761286   -7.0849697    836.62313  0.023713808  0.023203123            9 
 2941000   0.78306587   -7.0541207     838.1996  0.023750414  0.023196616            6 
 2942000   0.78165096   -7.0840626    836.13775  0.023683938  0.023190073            7 
 2943000   0.77174534   -7.1045022    837.59378  0.023717119  0.023183503           18 
 2944000   0.77529846   -7.0504326    836.60746  0.023681144  0.023176961            9 
 2945000   0.78715562   -7.0817241    836.88419  0.023680933  0.023170409            6 
 2946000   0.79441567   -7.0809044     837.0463  0.023677481  0.023163888           11 
 2947000   0.77282809    -7.084981    839.11397  0.023727914  0.023157364           11 
 2948000   0.78483014   -7.0762055    836.77271  0.023653684  0.023150818           16 
 2949000   0.77064014   -7.0741641    836.81311  0.023646804  0.023144265            6 
 2950000   0.78361993   -7.0971711     837.1478  0.023648243  0.023137698           15 
 2951000    0.7739588   -7.0948964    836.96262     0.023635   0.02313113            8 
 2952000   0.76766415   -7.0889314    836.85192  0.023623869  0.023124559           11 
 2953000   0.79799667   -7.0851965    836.51304  0.023606305  0.023118001           14 
 2954000    0.7720272   -7.0777378    838.01627  0.023640721   0.02311146           27 
 2955000   0.79870617   -7.0621052    837.92189  0.023630059  0.023104932           10 
 2956000   0.75476624   -7.0726893    835.41474  0.023551385  0.023098355            5 
 2957000   0.77730361   -7.1147348    836.55093   0.02357544  0.023091794           10 
 2958000   0.77700273   -7.0859717    838.36976  0.023618711  0.023085226            9 
 2959000   0.78653796   -7.0726359     836.9314  0.023570221  0.023078664            9 
 2960000   0.76107172   -7.0724129    836.51298  0.023550478  0.023072063            5 
 2961000   0.78473793   -7.0636945    838.21471  0.023590417  0.023065486            8 
 2962000   0.79518415   -7.0826881    839.19641  0.023610072  0.023058946           16 
 2963000   0.78710334   -7.0881885    838.05116  0.023569894  0.023052407           10 
 2964000   0.78624271   -7.0565385    837.85072  0.023556307  0.023045873            7 
 2965000   0.77804864   -7.1026278    836.27155  0.023503978  0.023039302           10 
 2966000   0.78667307   -7.0824498    837.55745  0.023532183  0.023032715            8 
 2967000   0.75715807   -7.0893342    837.30412  0.023517136  0.023026145            9 
 2968000   0.77279737   -7.1093852    837.31141  0.023509417  0.023019576            6 
 2969000   0.78079282   -7.0654704    837.33256  0.023502093  0.023013034           25 
 2970000   0.77917565   -7.0816826    837.71716  0.023504971    0.0230065            3 
 2971000   0.78187099   -7.0735935    839.42733  0.023545028  0.022999969            7 
 2972000   0.77976343   -7.0855496    840.06446   0.02355497  0.022993447           12 
 2973000   0.76916352   -7.0805757    838.43229  0.023501298  0.022986896           15 
 2974000   0.78826324   -7.1259956    836.88282  0.023449978  0.022980328            6 
 2975000    0.7726062   -7.0717857    837.56971  0.023461336  0.022973762            7 
 2976000    0.7804361   -7.0996363    837.51789  0.023452002  0.022967177            8 
 2977000   0.78328431   -7.1267113     837.3258  0.023438747  0.022960621           11 
 2978000   0.76866412   -7.0775248    839.50869   0.02349196  0.022954081           13 
 2979000   0.77727581   -7.1011754    837.04787  0.023415236  0.022947503           12 
 2980000     0.785976   -7.0731104    839.35902  0.023472008  0.022940951           15 
 2981000   0.77851357   -7.0652261    838.24306  0.023432938  0.022934408           10 
 2982000   0.77989662   -7.0971308    836.82097  0.023385339  0.022927855           10 
 2983000   0.76312999   -7.1243451    837.35333  0.023392371  0.022921265           13 
 2984000   0.77303861   -7.1278059    836.82592  0.023369803  0.022914662            8 
 2985000   0.79032106   -7.0728722    837.59292  0.023383387  0.022908066            5 
 2986000   0.78533831   -7.0825442     839.3167  0.023423663  0.022901488           14 
 2987000   0.78064179   -7.0850238    840.86875  0.023459121  0.022894919            8 
 2988000   0.77493302   -7.0728551    839.56906  0.023415023    0.0228884           10 
 2989000    0.7708348   -7.0795366    839.65102  0.023409474  0.022881854           17 
 2990000    0.7797688   -7.1075372    841.77425  0.023460821  0.022875337           11 
 2991000    0.7572577   -7.0632909    841.18406  0.023436533  0.022868888           12 
 2992000    0.7740756   -7.0747557    843.54077   0.02349434   0.02286246           11 
 2993000   0.78992801   -7.1076901    841.25115  0.023422741  0.022855992           11 
 2994000   0.76412883   -7.0873644    840.39354  0.023391047  0.022849508           16 
 2995000   0.79194152   -7.0705851    839.93454  0.023370466  0.022843031            9 
 2996000   0.77686692   -7.1153185    840.69595  0.023383844  0.022836554            7 
 2997000   0.77865722   -7.1071617    842.18566  0.023417464  0.022830061            6 
 2998000   0.77003417   -7.0818906    840.14033    0.0233528  0.022823559           12 
 2999000   0.78324029   -7.0888872    840.59175  0.023357557  0.022817069           15 
 3000000   0.77393908   -7.0751683    839.74131  0.023326148  0.022810592            6 
 3001000   0.76844711   -7.1098514    840.42273  0.023337297  0.022804094            9 
 3002000   0.75676971   -7.1182537    843.37199  0.023411392  0.022797618            5 
 3003000   0.77874141   -7.0904322    839.35897  0.023292235  0.022791122           20 
 3004000   0.77221017   -7.0835908    840.72462  0.023322365  0.022784621            5 
 3005000   0.78297761   -7.1156814    841.13895  0.023326094  0.022778134           12 
 3006000   0.76013806    -7.078651    844.66331  0.023416038  0.022771689           12 
 3007000    0.7681985   -7.0863695    842.54021  0.023349413   0.02276523            4 
 3008000   0.75573567   -7.0629879    843.25613  0.023361484  0.022758798           17 
 3009000   0.76945427   -7.0751848    842.27624  0.023326582  0.022752375           16 
 3010000   0.76189533   -7.1099058    842.14319  0.023315149  0.022745953           19 
 3011000   0.77464712   -7.1038577     843.5194  0.023345494   0.02273952           10 
 3012000   0.76037146   -7.1053229    843.13763  0.023327181  0.022733078           14 
 3013000   0.76623909   -7.0966594    839.88372  0.023229442  0.022726641           12 
 3014000   0.77579466   -7.0909823    842.63028  0.023297674  0.022720198           12 
 3015000   0.77148259   -7.0931482    842.69643  0.023291775  0.022713786           17 
 3016000   0.76795738   -7.1159795    841.45815  0.023249838  0.022707387           22 
 3017000   0.76941901   -7.1078854    841.51959  0.023243829  0.022700953           12 
 3018000   0.76439462   -7.0915922     842.0828  0.023251679   0.02269451            8 
 3019000    0.7877597   -7.0821564    842.99801   0.02326924  0.022688102            7 
 3020000   0.76814194   -7.1007297      844.365  0.023299255  0.022681678            9 
 3021000   0.77421741   -7.0792476    843.61206  0.023270773   0.02267525            7 
 3022000   0.77150283   -7.1065217    842.97197  0.023245422  0.022668804           18 
 3023000   0.76487094   -7.0999219    842.73871  0.023231302  0.022662388           13 
 3024000   0.76755015   -7.0798357     842.8796  0.023227502  0.022655963            9 
 3025000   0.76160739   -7.0838118    842.49789  0.023209308  0.022649537            9 
 3026000    0.7550512   -7.1012755    840.99514  0.023160254  0.022643064            9 
 3027000   0.76846202   -7.1369328    843.57551   0.02322364  0.022636637           10 
 3028000    0.7729078   -7.0935175    843.99005  0.023227379  0.022630231           10 
 3029000   0.77438754   -7.1284402    842.41611  0.023176409  0.022623814           12 
 3030000   0.76897404   -7.1146646    843.08261   0.02318709  0.022617359           11 
 3031000   0.75728759   -7.1075064    842.91202   0.02317475  0.022610934            7 
 3032000   0.75631476   -7.1288147     841.2538  0.023121531  0.022604492           16 
 3033000   0.76904968   -7.0985108    842.83128   0.02315725  0.022598029           20 
 3034000   0.75879694   -7.1199422    842.29005  0.023134752  0.022591577           35 
 3035000   0.76061519   -7.1155396    842.79695  0.023141047  0.022585143            8 
 3036000     0.779931   -7.1088256    843.01516  0.023139415  0.022578687           13 
 3037000   0.75676872   -7.0865902    842.87053  0.023127827   0.02257228            7 
 3038000   0.76393357   -7.1056203    845.47313  0.023191604  0.022565859           12 
 3039000   0.77346091   -7.1004923    842.96134  0.023115097  0.022559418           10 
 3040000   0.78465777    -7.086966    844.70718   0.02315535   0.02255304            5 
 3041000   0.77467029   -7.1015842    841.80415  0.023068183  0.022546651           10 
 3042000   0.77729973   -7.0807414    845.77891  0.023169486  0.022540263           24 
 3043000   0.75720519   -7.1114771    843.96569  0.023112216  0.022533889           12 
 3044000   0.77408758   -7.1240881    841.90851  0.023048306  0.022527499           10 
 3045000    0.7573521   -7.1109313    845.93069  0.023150812  0.022521089            8 
 3046000   0.78857712   -7.1238396    843.53231  0.023077597  0.022514684           12 
 3047000   0.76777902   -7.1117182    844.39698  0.023093671  0.022508286            7 
 3048000    0.7744823   -7.1084992    844.94648  0.023101118  0.022501925            6 
 3049000   0.77416273   -7.1180701    844.75017  0.023088176  0.022495561            8 
 3050000   0.76075838   -7.1281807    843.56325  0.023048176  0.022489185           12 
 3051000   0.75730995   -7.1391506    843.39388  0.023035996   0.02248283           11 
 3052000   0.75820682   -7.1165272    845.03613  0.023073289  0.022476438            8 
 3053000   0.76443373   -7.1121507    845.18635  0.023069832  0.022470056           11 
 3054000   0.75373682   -7.1239333    843.08105  0.023004831  0.022463684            9 
 3055000   0.76167175   -7.1072806     844.6546  0.023040224   0.02245731            9 
 3056000    0.7599218   -7.0817937    844.21631  0.023020733  0.022450951           13 
 3057000    0.7785643   -7.1035265    844.84183  0.023030254  0.022444579            7 
 3058000   0.76126754   -7.0885945    846.05728  0.023055845  0.022438201           12 
 3059000   0.76801795   -7.1473437    843.85715  0.022988372  0.022431838           26 
 3060000   0.74389795   -7.1251818    845.59974  0.023028315  0.022425474           15 
 3061000    0.7637516   -7.1307476    845.32974  0.023013442  0.022419105           12 
 3062000   0.75713047   -7.1203425      845.811  0.023019023  0.022412722           19 
 3063000   0.74524355   -7.1062333    844.87155  0.022985949  0.022406336           11 
 3064000   0.76697099   -7.0975659    844.96968  0.022981116  0.022399945            6 
 3065000   0.76739682   -7.1300876    843.89734  0.022944463  0.022393553            8 
 3066000   0.75116142   -7.1046541    845.33266  0.022975991  0.022387156            7 
 3067000   0.77051217   -7.1217882    845.08117  0.022961667  0.022380794            7 
 3068000   0.76444054   -7.1299827    846.22727  0.022985313  0.022374455           11 
 3069000   0.77016023   -7.1163314    847.50948  0.023012639  0.022368152           15 
 3070000   0.75909635   -7.1251312    847.01387   0.02299169  0.022361826            7 
 3071000   0.74826053   -7.1025495    845.47882  0.022942549  0.022355517            5 
 3072000   0.74722538   -7.1068178    846.00322  0.022949306  0.022349202            5 
 3073000   0.75137805   -7.0940314    847.28778  0.022976673  0.022342933            5 
 3074000   0.75247954   -7.0983356    846.96619   0.02296048  0.022336623           10 
 3075000   0.77370201   -7.1195433    846.89761  0.022951155  0.022330305            7 
 3076000    0.7668899    -7.124601    846.01091  0.022919671  0.022323981           12 
 3077000   0.74825438   -7.1270576    844.49835  0.022871259  0.022317645           36 
 3078000    0.7486195   -7.1251084    843.68968  0.022841934  0.022311335           36 
 3079000   0.76344346   -7.1200235    846.65936   0.02291489  0.022305034           11 
 3080000    0.7634618   -7.1021237    844.68578  0.022854053  0.022298719           15 
 3081000   0.76043327   -7.1242524    846.76913  0.022902984  0.022292393           16 
 3082000   0.76010943   -7.1390662    845.96169  0.022873721  0.022286059            8 
 3083000   0.74874331   -7.1245199    846.51837  0.022881349  0.022279733            8 
 3084000   0.75757452   -7.1192301    846.29626  0.022867928  0.022273399            9 
 3085000   0.75826883   -7.1229029    847.07646   0.02288159  0.022267093           16 
 3086000   0.75483718   -7.1221351    848.03024  0.022899931  0.022260784           14 
 3087000   0.75626119   -7.1353437    847.35906  0.022874394  0.022254505           15 
 3088000   0.75001434   -7.1245207    847.56706    0.0228726  0.022248209           11 
 3089000   0.73272191   -7.1437336    847.28787  0.022857663    0.0222419            5 
 3090000   0.77116568    -7.129887    847.16728  0.022847014  0.022235594           11 
 3091000   0.74979034   -7.1082963    847.80165  0.022856725  0.022229311           12 
 3092000   0.77438046   -7.1113553    849.06869  0.022883481  0.022223037           11 
 3093000   0.76542847    -7.115947     848.9593  0.022873136  0.022216775            6 
 3094000   0.74342228   -7.1492503    848.54999  0.022854718  0.022210484           10 
 3095000    0.7582649   -7.1070654    849.14417  0.022863333  0.022204189            4 
 3096000   0.76117553   -7.1138363    848.30251  0.022833293  0.022197907            7 
 3097000   0.74622711   -7.0984501    848.16877  0.022822322  0.022191639            8 
 3098000   0.75424407   -7.1130892    847.00071  0.022783535  0.022185346           12 
 3099000   0.74800851   -7.1421184    847.88392  0.022799933  0.022179065            7 
 3100000   0.74737715   -7.1309653    847.95507  0.022794491  0.022172777           13 
 3101000   0.74596684   -7.1091284    847.33958    0.0227706  0.022166507            6 
 3102000   0.75615105   -7.1309775    850.39197   0.02284526  0.022160261            5 
 3103000   0.74843083   -7.1233246     849.3879  0.022810933  0.022154015           20 
 3104000   0.74823643   -7.1201425    849.68209  0.022811482  0.022147783           16 
 3105000   0.76405915    -7.121487    850.04359  0.022813838  0.022141561           10 
 3106000   0.75803625   -7.1158829    848.87399  0.022775112  0.022135352           20 
 3107000   0.75578353   -7.1401628    847.25029  0.022724233  0.022129114            9 
 3108000   0.75368872   -7.1679858     847.2502  0.022716919  0.022122858           13 
 3109000   0.75120272   -7.1213757    849.51467  0.022770309  0.022116627           12 
 3110000   0.75566277    -7.122808    849.08589  0.022751498  0.022110384           10 
 3111000   0.74700373   -7.1238528    848.76336  0.022735545  0.022104151            9 
 3112000   0.75169192   -7.1422253    849.45807  0.022746842  0.022097911            7 
 3113000   0.75303829   -7.1147148    850.46254  0.022766424  0.022091708           12 
 3114000   0.76318045   -7.1383819    849.20457  0.022725449  0.022085531           30 
 3115000    0.7334817   -7.1270926     850.0818  0.022741621  0.022079308           16 
 3116000   0.74220375    -7.135744    849.63596  0.022722399  0.022073116           24 
 3117000   0.73586037   -7.1259008    849.87952  0.022721621  0.022066908           33 
 3118000   0.75029423   -7.1332221    849.07604   0.02269286  0.022060728           31 
 3119000   0.74951657   -7.1117427    849.44139  0.022695345  0.022054564           20 
 3120000   0.75037045   -7.0974685    851.76145  0.022750039  0.022048371            8 
 3121000   0.74063289   -7.1098011    850.74876   0.02271571  0.022042196           16 
 3122000   0.75878923   -7.1548316    850.63769  0.022705469   0.02203602           10 
 3123000   0.75299071   -7.1229807    851.74455  0.022727734  0.022029813            8 
 3124000   0.73812603   -7.1429631    847.47209   0.02260649  0.022023601           22 
 3125000   0.74500062   -7.1221325    849.50203  0.022653388  0.022017368           17 
 3126000    0.7561541   -7.1454426    849.60133  0.022648788  0.022011176            7 
 3127000   0.76303252   -7.1326908    851.41194  0.022689797  0.022004967           15 
 3128000   0.76539621   -7.1189981    849.24288  0.022624757  0.021998769           10 
 3129000   0.75562935    -7.146239     849.7866  0.022632007  0.021992589            8 
 3130000   0.73971709   -7.1581917    849.29309  0.022611637  0.021986373           14 
 3131000   0.75432168    -7.156772    850.87321  0.022646471  0.021980148           16 
 3132000   0.75338875   -7.1526955    850.88901  0.022639661    0.0219739            9 
 3133000   0.74611345   -7.1395349    850.90668  0.022632905  0.021967679            8 
 3134000   0.74802267   -7.1215916    849.39544  0.022585499  0.021961456            8 
 3135000    0.7730868   -7.1129134    850.89845  0.022618247  0.021955236           17 
 3136000   0.74377921   -7.1370836     850.9305  0.022611886  0.021949052            9 
 3137000   0.76267378   -7.1455399    849.81817  0.022575129  0.021942835            7 
 3138000   0.74808971   -7.1494216    851.61773  0.022615725  0.021936625           15 
 3139000   0.75128125   -7.1447575    852.39601  0.022629181  0.021930403           14 
 3140000   0.74735781   -7.1491418    851.55037  0.022599532   0.02192421           20 
 3141000   0.73232417   -7.1538839    850.72742  0.022570504     0.021918           12 
 3142000    0.7589771   -7.1417665    851.87918  0.022593868   0.02191181           14 
 3143000   0.75599412   -7.1359345    851.43965  0.022575025  0.021905626           10 
 3144000   0.74155878   -7.1433282    851.46018  0.022568389   0.02189944            8 
 3145000   0.76462238   -7.1550114    850.71229  0.022541396  0.021893227           22 
 3146000   0.74284786   -7.1386255    851.36328  0.022551475  0.021887016            9 
 3147000    0.7377844   -7.1418646    851.19009  0.022539723  0.021880808           14 
 3148000   0.73103807   -7.1552019    851.21218  0.022533147  0.021874595           11 
 3149000   0.74838989   -7.1512403    848.99768  0.022467388  0.021868391           15 
 3150000   0.74123913   -7.1412134    851.82174  0.022534967  0.021862182            6 
 3151000   0.75986072   -7.1274779    851.76546  0.022526327   0.02185598            7 
 3152000   0.75853959   -7.1705309    851.24736  0.022505482  0.021849763           10 
 3153000   0.74395637     -7.12116    850.50834  0.022478812  0.021843562           16 
 3154000    0.7473128   -7.1100071    851.77876  0.022505252  0.021837354            6 
 3155000    0.7319466   -7.1685415    850.58291  0.022466532  0.021831146           11 
 3156000   0.72761635   -7.1540946     851.4416  0.022482087  0.021824887           13 
 3157000   0.74428525   -7.1460143    851.17817  0.022468012  0.021818644            9 
 3158000   0.74347734   -7.1612631    850.09756  0.022432382  0.021812404            8 
 3159000   0.74936974   -7.1651624    849.39509   0.02240675  0.021806172            5 
 3160000   0.73690228   -7.1714513    853.08979  0.022497094   0.02179996           13 
 3161000   0.75035069   -7.1742304    851.49054  0.022447816  0.021793744           10 
 3162000   0.74488607   -7.1677915    850.96895   0.02242697  0.021787509            9 
 3163000   0.73105154   -7.1715548    853.12095  0.022476577   0.02178127            6 
 3164000   0.74541009   -7.1427401    852.11547  0.022442991  0.021775064            4 
 3165000   0.75763619    -7.152227    852.31014  0.022441025  0.021768864            5 
 3166000   0.73534162   -7.1532963    852.21735  0.022431495  0.021762671           13 
 3167000   0.73659211   -7.1545427    850.05537  0.022367524  0.021756455           17 
 3168000   0.74761317   -7.1921056    849.58981  0.022348217  0.021750234           15 
 3169000   0.72414583   -7.1368159    851.40417  0.022388876  0.021744013           19 
 3170000   0.75079163   -7.1654982    851.83117  0.022393038  0.021737824           17 
 3171000   0.74045215    -7.177691     850.8346  0.022359787  0.021731643           13 
 3172000   0.75696775   -7.1435521    852.43219  0.022394709  0.021725465           20 
 3173000   0.75452112   -7.1663308     850.9355  0.022348343  0.021719266           13 
 3174000   0.75410957   -7.1737618    852.47105  0.022381618  0.021713076           16 
 3175000   0.74970406    -7.155454    851.48557  0.022348703  0.021706871           22 
 3176000   0.74803833   -7.1396869    851.06234  0.022330561  0.021700666           13 
 3177000   0.73335167   -7.1631287    850.09157  0.022298069  0.021694472           17 
 3178000   0.75045833   -7.1630267    852.54873  0.022355484  0.021688276           14 
 3179000   0.74326975   -7.1511889    851.95905  0.022332994  0.021682034           13 
 3180000   0.76035377   -7.1230079    853.42386  0.022364357  0.021675826           12 
 3181000    0.7372342   -7.1630222    852.02637  0.022320716  0.021669619           12 
 3182000   0.75798169   -7.1513567     850.4551  0.022272551  0.021663422           11 
 3183000   0.74338081   -7.1617587    851.09194  0.022282227  0.021657215            8 
 3184000   0.73566479   -7.1388955    852.94955  0.022323847  0.021651008            9 
 3185000   0.74247454   -7.1575545    850.97007  0.022265046  0.021644792           13 
 3186000   0.74531005   -7.1264953    851.57421   0.02227386  0.021638577           10 
 3187000   0.75351847   -7.1566223    851.47862  0.022264372  0.021632371            7 
 3188000   0.73464235   -7.1563596    852.96931  0.022296354  0.021626144            8 
 3189000   0.74050672   -7.1778049    852.31122  0.022272165  0.021619946           10 
 3190000    0.7443513   -7.1802753    853.75345  0.022302859  0.021613735           19 
 3191000   0.73941913   -7.1523783    851.81812  0.022245329  0.021607519            6 
 3192000   0.74285403   -7.1890296     852.3719  0.022252817  0.021601308            7 
 3193000   0.74777465   -7.1678419    852.31339  0.022244321  0.021595092           11 
 3194000   0.74203424   -7.1202666    853.23133  0.022261306  0.021588895            6 
 3195000   0.73685745   -7.1796557     851.7334  0.022215269  0.021582676            9 
 3196000   0.74631596   -7.1582309    853.05042  0.022242658  0.021576465            8 
 3197000   0.73884911   -7.1548575    853.47866  0.022246863  0.021570274           16 
 3198000    0.7393887   -7.1480948    853.19284  0.022232459  0.021564069           11 
 3199000   0.74679006   -7.1573283    851.08277  0.022170542  0.021557863           23 
 3200000   0.73028425    -7.155906    852.09021  0.022189849  0.021551667           18 
 3201000   0.73579682   -7.1632692    851.67819  0.022172191  0.021545487            6 
 3202000   0.74205949   -7.1957425    852.68094  0.022191363  0.021539297            6 
 3203000   0.73338634     -7.16954    850.29534  0.022122368   0.02153313           28 
 3204000    0.7558318   -7.1897485    851.83903  0.022155614  0.021526929           13 
 3205000    0.7515071   -7.1861328    852.41372  0.022163643  0.021520744            6 
 3206000   0.74848399   -7.1509231    851.94778  0.022144619  0.021514568           14 
 3207000   0.74893035   -7.1429874    854.11452  0.022194016  0.021508405           18 
 3208000    0.7378194   -7.1665439    853.88281  0.022181079   0.02150224           17 
 3209000   0.75704991   -7.1633874    854.12055   0.02218034  0.021496092           16 
 3210000    0.7393896   -7.1689523    853.98671  0.022169956  0.021489924            9 
 3211000   0.72868043   -7.1528505    852.26166  0.022118283  0.021483759            8 
 3212000   0.72723676    -7.177467      851.304  0.022086551  0.021477595           20 
 3213000    0.7195478   -7.1994078    851.71943  0.022090451  0.021471399           16 
 3214000   0.73615405   -7.2023194    852.85687   0.02211307  0.021465204           15 
 3215000   0.73507615     -7.15458    852.69029  0.022101874  0.021459029           12 
 3216000   0.73336957   -7.1784367    853.63796  0.022119558  0.021452836           13 
 3217000   0.74635278   -7.1652173    852.33101  0.022078826  0.021446631           14 
 3218000    0.7355424   -7.1775143    851.80473  0.022058337  0.021440427           14 
 3219000   0.73063073    -7.205974    852.58555  0.022071698  0.021434216           29 
 3220000   0.72850099   -7.1978691     852.3896  0.022059772  0.021428003            8 
 3221000   0.73759879   -7.1700991    853.70373  0.022086922  0.021421842           16 
 3222000   0.72579061   -7.1624944    853.72018  0.022080493    0.0214157           13 
 3223000   0.72698706   -7.1500893    855.26529  0.022113592  0.021409557            8 
 3224000   0.73666245   -7.1763295    853.75789   0.02206777  0.021403403           14 
 3225000   0.74221787   -7.1402516    854.85854  0.022089368  0.021397265            9 
 3226000   0.73126032   -7.1981545    855.18834   0.02209104  0.021391142           13 
 3227000   0.74685453    -7.149733    855.46782  0.022091411  0.021385034            8 
 3228000   0.74180103   -7.1452481     856.4438  0.022109764  0.021378937            7 
 3229000   0.73432688   -7.1659147    855.06782  0.022067405   0.02137288           10 
 3230000   0.73949136    -7.163348    854.31537   0.02204116  0.021366803           12 
 3231000   0.74358837   -7.1618503     855.0281  0.022052721  0.021360707           12 
 3232000   0.74165981   -7.1272524      856.489  0.022083565  0.021354625           15 
 3233000   0.73265167   -7.1902524    855.52627  0.022051919  0.021348566           12 
 3234000    0.7427999   -7.1825953    856.35819  0.022066538    0.0213425            7 
 3235000   0.73263346   -7.1968689    855.09284  0.022027121  0.021336406           22 
 3236000   0.72581646   -7.1990937    853.26288  0.021973189  0.021330304           28 
 3237000   0.74366456   -7.1745469    855.69393  0.022028986  0.021324208            9 
 3238000   0.73417911   -7.1803653    855.80704  0.022025094  0.021318131            7 
 3239000   0.73875613   -7.1572413    855.78898  0.022017829  0.021312077           16 
 3240000   0.74084677   -7.1779139     855.0686  0.021992505  0.021306012            9 
 3241000   0.72239856   -7.1674265    853.57029  0.021947195   0.02129992           10 
 3242000   0.72409815   -7.1490964    856.86367  0.022025079  0.021293849           17 
 3243000   0.73567113   -7.1590853    855.67514  0.021987746  0.021287763            9 
 3244000   0.73165363   -7.1700389     855.6254  0.021979691  0.021281675            7 
 3245000   0.74645582   -7.1834131    856.97449  0.022007563  0.021275585           10 
 3246000   0.70786383   -7.1629725    856.24431  0.021982037  0.021269493           10 
 3247000   0.73331015   -7.1868381    855.23174   0.02194928  0.021263407            6 
 3248000   0.74099101    -7.175778    854.80248  0.021931509  0.021257326           13 
 3249000   0.73361658   -7.1939168      855.906  0.021953062  0.021251245           13 
 3250000   0.72362891   -7.1599085    858.88865  0.022022786  0.021245187           10 
 3251000   0.72508374   -7.1644763    856.62755  0.021958053  0.021239108           11 
 3252000   0.72029189   -7.1750452    855.30862  0.021917503  0.021233034           23 
 3253000    0.7264389   -7.1823981    855.73138  0.021921595  0.021226933           23 
 3254000   0.74459391   -7.1648604    855.55776  0.021910412  0.021220828           11 
 3255000   0.72374683   -7.1743213    855.84919  0.021911142  0.021214771           19 
 3256000   0.72359934   -7.1785256    856.35267  0.021917298  0.021208698            5 
 3257000    0.7307498   -7.1655196    857.21367  0.021932598   0.02120265            5 
 3258000   0.72375019    -7.172507    855.06328  0.021870864  0.021196612            9 
 3259000   0.71789469   -7.1548899    856.07453  0.021890011  0.021190566            8 
 3260000   0.73867398   -7.1565551    857.70814  0.021925055   0.02118453           17 
 3261000   0.72130747   -7.1417604    857.60905  0.021915799  0.021178495           12 
 3262000   0.73059275   -7.1706218    858.19985  0.021924174   0.02117247           25 
 3263000   0.73492057   -7.1887223    856.29551   0.02186882  0.021166444           26 
 3264000   0.73480963   -7.1747066    858.75444  0.021924899  0.021160425           12 
 3265000   0.72065817   -7.1742621    857.91037   0.02189664  0.021154389           11 
 3266000   0.74092896   -7.2110002    856.40114  0.021851427   0.02114833            6 
 3267000   0.73415192   -7.2043519    856.31761  0.021842608  0.021142248           16 
 3268000   0.72178385   -7.1869761     855.8769  0.021824686  0.021136188           20 
 3269000   0.70966271   -7.2021045    855.63304  0.021811794  0.021130132           37 
 3270000   0.70277689    -7.188882    857.16428  0.021844146  0.021124111            9 
 3271000   0.71941632   -7.1719773    858.87653   0.02188109  0.021118079            8 
 3272000   0.72980286   -7.1864188    857.11972  0.021829659  0.021112079           16 
 3273000   0.74287052   -7.1906416    857.74423   0.02183889  0.021106085           13 
 3274000   0.73415841   -7.1889975     859.0069  0.021864358  0.021100071           28 
 3275000   0.71624988   -7.1840634    857.14223  0.021810235  0.021094061           10 
 3276000   0.73002823   -7.1752156    859.85524  0.021872589  0.021088045           27 
 3277000   0.72201331   -7.2112129    857.85449  0.021815036  0.021082024           14 
 3278000   0.73610864   -7.1904389    856.80242  0.021781636  0.021075969           35 
 3279000   0.71554349   -7.1803887    855.63015  0.021745201  0.021069921           21 
 3280000   0.72090818   -7.1763096     857.2555  0.021779865  0.021063907           20 
 3281000   0.71798968   -7.1815125    857.63813  0.021782945  0.021057862           21 
 3282000   0.71586183   -7.1800821    857.27609  0.021767116  0.021051814           11 
 3283000   0.71436319   -7.1725987    857.22076  0.021759081  0.021045796           11 
 3284000    0.7351473   -7.1723122    858.16047  0.021776301  0.021039772           13 
 3285000   0.73389905   -7.1905648    858.32676   0.02177389  0.021033741           12 
 3286000   0.73692246   -7.1849762    857.76246  0.021752954  0.021027715           25 
 3287000   0.73472741     -7.18099    856.97579  0.021726392  0.021021694           14 
 3288000   0.72098613   -7.2053836    857.44007  0.021731551  0.021015657            9 
 3289000   0.71623743     -7.19151    857.18615   0.02171851  0.021009625           22 
 3290000   0.74110001   -7.2090006    858.54128  0.021746233  0.021003596           13 
 3291000   0.72857466   -7.1721423    858.51863  0.021739052  0.020997581           18 
 3292000   0.70984103   -7.1819202     859.1943  0.021749552  0.020991559           11 
 3293000   0.71502972    -7.189119    858.74412  0.021731555  0.020985533           14 
 3294000   0.71906539   -7.1872168    857.32416  0.021689035  0.020979504           14 
 3295000   0.71784434   -7.2063767    857.27427   0.02168119  0.020973474            5 
 3296000   0.72374952   -7.1801605    857.12723  0.021670895   0.02096744           15 
 3297000   0.72370523   -7.1935072      857.424  0.021671823  0.020961403           11 
 3298000   0.71641796   -7.1811595     859.7209  0.021723289  0.020955392           15 
 3299000   0.72228702   -7.1954252    857.82552  0.021668827  0.020949398           11 
 3300000   0.73556599   -7.1865628    857.99523  0.021666546  0.020943382           12 
 3301000    0.7314095   -7.2005773    858.95868  0.021684305  0.020937378           10 
 3302000   0.72210743   -7.1940592    859.08908  0.021681029  0.020931393            9 
 3303000   0.71744811   -7.2018933    859.91429  0.021695284  0.020925405            9 
 3304000   0.70527338   -7.2041576    857.19551  0.021620145  0.020919408           19 
 3305000    0.7335835   -7.2038622    857.13014  0.021611955  0.020913392            9 
 3306000   0.73006511   -7.1974526    859.19465  0.021657457  0.020907397           11 
 3307000    0.7109628   -7.2187781    857.84368  0.021616865  0.020901403            8 
 3308000   0.72642478   -7.1987479    858.17627  0.021618709  0.020895413           15 
 3309000   0.72210536   -7.2109785    859.31534  0.021640862  0.020889422           12 
 3310000   0.72674438   -7.1891213    859.53132  0.021639761  0.020883464           30 
 3311000    0.7160454   -7.2129025    859.69115  0.021637248  0.020877487           39 
 3312000   0.72262789   -7.2320817     857.9037  0.021585741  0.020871478           13 
 3313000   0.70706896   -7.1913856    857.74249  0.021575171  0.020865483           20 
 3314000   0.74314691   -7.1899125    859.74398   0.02161899  0.020859504           37 
 3315000   0.71256212   -7.1925912    859.73308  0.021612194  0.020853546           11 
 3316000   0.72291654   -7.2051992    858.92994  0.021585493  0.020847569            6 
 3317000   0.70619653   -7.1902444    860.56846   0.02162015  0.020841597           10 
 3318000   0.72388257   -7.2016923    860.53968  0.021612911  0.020835627           19 
 3319000   0.72815799   -7.2218772    858.43813  0.021553634  0.020829662           15 
 3320000   0.74129993   -7.1933212    858.35755  0.021545119   0.02082369           10 
 3321000   0.72442809   -7.2294646    858.84866  0.021550955  0.020817717           18 
 3322000   0.71645099   -7.2037581    860.35271  0.021582197  0.020811754           38 
 3323000   0.71089849   -7.2191847    858.56822  0.021530951  0.020805777           26 
 3324000   0.70202826   -7.2022497     858.0761  0.021512137  0.020799798           21 
 3325000   0.72092766   -7.2011416    859.92324  0.021551961  0.020793835           26 
 3326000   0.71215328   -7.2117921    858.84171  0.021518383  0.020787867           14 
 3327000   0.72080555    -7.207116    860.78424  0.021560571  0.020781913           12 
 3328000   0.71722158    -7.201013    859.20341  0.021514509  0.020775952            7 
 3329000   0.72072726   -7.1982492    858.74071  0.021496463  0.020770007           31 
 3330000   0.71218339   -7.1910529    860.02581  0.021522167  0.020764053           12 
 3331000   0.70873061   -7.2084627    859.48266  0.021502118  0.020758117           14 
 3332000   0.72262417   -7.1776687    859.74412  0.021502204  0.020752179            8 
 3333000   0.71336965   -7.2110848    858.22721  0.021457826  0.020746242           18 
 3334000     0.733886   -7.1773432    860.37016  0.021504953  0.020740295           21 
 3335000   0.71432062   -7.1870507    860.00733  0.021489439  0.020734374           11 
 3336000   0.72382812   -7.2117817    859.66911  0.021474548  0.020728436            9 
 3337000   0.70123344   -7.2072243    859.19208    0.0214562  0.020722506            6 
 3338000   0.71470667    -7.206926    860.25686  0.021476355  0.020716584           17 
 3339000   0.71570654    -7.204415    860.11857  0.021466471  0.020710657           14 
 3340000   0.72227145   -7.1969594    859.33656  0.021440533  0.020704733           10 
 3341000   0.71039412   -7.2017662    860.04635  0.021451819  0.020698814           11 
 3342000   0.72133197   -7.2148367    861.42887  0.021479874  0.020692874           16 
 3343000   0.71253535   -7.2107984    860.27498  0.021444685  0.020686932           11 
 3344000   0.71836255   -7.2090119    860.40662  0.021441552  0.020680966            8 
 3345000    0.7016212   -7.2169781    859.33933  0.021408553  0.020675029           10 
 3346000   0.72345645   -7.2019977    860.96613  0.021442671  0.020669073           10 
 3347000   0.72982952   -7.2062294    860.44914  0.021423393   0.02066313           15 
 3348000   0.71211607   -7.1988113    862.09438  0.021457945  0.020657194            7 
 3349000   0.72748902     -7.22557    858.88664  0.021371719  0.020651255           19 
 3350000   0.72580448   -7.1865295    861.66973   0.02143457  0.020645323           10 
 3351000   0.71143647   -7.1980577    860.82807  0.021407243  0.020639414           11 
 3352000   0.71355381   -7.1867932    862.11131  0.021432759  0.020633488           23 
 3353000   0.70403019   -7.2386937    861.18573  0.021403363  0.020627595           21 
 3354000   0.70945654   -7.2023099    862.44579  0.021428289    0.0206217           13 
 3355000   0.71422893   -7.2080055     860.7678  0.021380224  0.020615804           29 
 3356000   0.71321246   -7.1810988    861.14769  0.021383286   0.02060992           10 
 3357000   0.73354915   -7.2160377    862.12856  0.021401265   0.02060404           13 
 3358000   0.71388633   -7.1980959    861.94997   0.02139046  0.020598163           18 
 3359000   0.71724424   -7.2248565    862.13616  0.021388711   0.02059227            9 
 3360000   0.72038897   -7.2015409    860.65371  0.021345578  0.020586358           20 
 3361000   0.69792076   -7.2040335    862.05374   0.02137394  0.020580454           10 
 3362000   0.70895739   -7.2085076    860.85941  0.021337979  0.020574561           20 
 3363000   0.71557518   -7.2167424    862.16522  0.021363991  0.020568685           24 
 3364000   0.71399794   -7.2339098    861.93469  0.021351929  0.020562776           20 
 3365000   0.71427629    -7.219582    860.45404  0.021308916  0.020556873           15 
 3366000   0.72109539   -7.2395376     860.6097  0.021306439  0.020550977           19 
 3367000   0.72373528   -7.2343215    860.26617  0.021291609  0.020545039           31 
 3368000   0.70835385   -7.2528433    858.72698  0.021247204  0.020539105           16 
 3369000   0.72135594   -7.2541766    861.14539  0.021300717  0.020533181           35 
 3370000   0.70033086   -7.2366007    860.48122  0.021277973  0.020527275           47 
 3371000   0.70797477   -7.2450648    860.77239  0.021278859  0.020521365           21 
 3372000   0.71856917   -7.2491251    859.80986  0.021248761  0.020515452           18 
 3373000   0.70733908   -7.2444404    861.34752  0.021280451  0.020509531           32 
 3374000   0.71291243   -7.2186647    861.80385  0.021285414  0.020503613           21 
 3375000   0.71368151   -7.2039014    862.08113  0.021285954   0.02049773           12 
 3376000    0.7177286    -7.227635    861.72119  0.021270764  0.020491822           33 
 3377000   0.70651028   -7.2058141    861.95344  0.021270196   0.02048595           26 
 3378000   0.71350245   -7.2143313    862.48039  0.021276899  0.020480036           45 
 3379000   0.70540809   -7.2335293    860.89464  0.021231495  0.020474137           39 
 3380000   0.70388244    -7.249469    859.86811  0.021199904  0.020468205           45 
 3381000   0.70941245    -7.245183    860.69629  0.021214046  0.020462278           26 
 3382000   0.70991602   -7.2247551    861.36034  0.021224136  0.020456359           27 
 3383000   0.71124872   -7.2348647    860.46456  0.021195797  0.020450445           15 
 3384000   0.70813029   -7.2436786    862.87845  0.021248977  0.020444524           16 
 3385000    0.7115323   -7.2198419    861.18864  0.021201099  0.020438616           14 
 3386000    0.7203769   -7.2307156    863.60635   0.02125434  0.020432703           10 
 3387000   0.70506439   -7.2248685    860.25017   0.02116549   0.02042679           15 
 3388000   0.71325234   -7.2175165    860.24221  0.021159047  0.020420879           23 
 3389000   0.70960111    -7.207221    861.19062  0.021176124   0.02041498           11 
 3390000   0.71462541   -7.2000343    863.53157  0.021227423  0.020409078           11 
 3391000   0.70402019    -7.191465    861.83005  0.021179348  0.020403202           17 
 3392000   0.71990058   -7.2166888    861.54457  0.021166091    0.0203973           15 
 3393000   0.71118003   -7.2424234    860.72597  0.021139748   0.02039137           38 
 3394000   0.71991711   -7.2172591    859.75461  0.021109669   0.02038542           17 
 3395000   0.72583986   -7.2310944    860.86638  0.021130741  0.020379506           17 
 3396000   0.70551928   -7.2343246     861.2966  0.021135075  0.020373608           15 
 3397000   0.72338293   -7.2391217    861.76658  0.021140383  0.020367691           14 
 3398000   0.70931423   -7.2448872    861.97234  0.021139208  0.020361773           24 
 3399000   0.69213767   -7.2285485    860.82172  0.021104779  0.020355859           21 
 3400000   0.70538747    -7.243561    862.67006  0.021143874  0.020349942           12 
 3401000   0.72043756   -7.2139324    861.58737  0.021111128  0.020344034           23 
 3402000   0.71234723   -7.2042217    862.78652  0.021134296  0.020338131           10 
 3403000   0.69915967   -7.2133531    861.35456   0.02109302  0.020332228           11 
 3404000   0.72857473   -7.2248831    861.67827  0.021094748  0.020326353            9 
 3405000   0.70479963   -7.2162929     862.8937  0.021118299  0.020320494           12 
 3406000     0.721573   -7.2046253    860.30001   0.02104864  0.020314622           12 
 3407000   0.70912269   -7.2083591    863.29014  0.021115599  0.020308751           17 
 3408000   0.72664381   -7.2223393    862.24848  0.021083932  0.020302858           22 
 3409000   0.69710435    -7.244059     861.7704   0.02106606  0.020296964           23 
 3410000   0.70032479   -7.2296709    861.32891  0.021049094  0.020291064            9 
 3411000   0.70322617   -7.2315877    861.16932  0.021039024  0.020285165            7 
 3412000   0.68877808   -7.2424589     861.7885   0.02104798  0.020279273           13 
 3413000   0.70155505   -7.2238881     861.5514  0.021036024  0.020273362           17 
 3414000   0.70862048   -7.2500165    862.54882  0.021054209  0.020267426           17 
 3415000   0.70415212   -7.2513665    859.77474   0.02098035    0.0202615           15 
 3416000   0.71278935   -7.2547804    860.40173  0.020989503  0.020255553           14 
 3417000   0.69711756   -7.2611843    860.29558  0.020980772  0.020249624           27 
 3418000   0.69346718   -7.2588026    859.50365  0.020955326   0.02024367           26 
 3419000   0.70562653   -7.2506974    860.36221  0.020970123   0.02023773           35 
 3420000   0.69873132   -7.2257319    860.56007  0.020968813  0.020231798           16 
 3421000   0.70431504   -7.2324317    859.84886  0.020945358  0.020225875           27 
 3422000   0.70163193   -7.2403814     862.2617  0.020997996  0.020219944           22 
 3423000   0.71024702   -7.2446777    861.00488  0.020961264  0.020214025           31 
 3424000   0.70190839   -7.2467983    861.75708  0.020973449  0.020208124           17 
 3425000   0.68637828   -7.2404143    860.41232  0.020934606  0.020202219           37 
 3426000   0.71696288   -7.2380046    859.65743  0.020910134  0.020196303           36 
 3427000   0.69431838    -7.225503    862.13289  0.020964227  0.020190395           12 
 3428000    0.7003787   -7.2795785    861.29736    0.0209378  0.020184487           14 
 3429000   0.70196304   -7.2431212    861.41119  0.020934461  0.020178602           16 
 3430000   0.70242161   -7.2628913    861.91915  0.020940698  0.020172681           21 
 3431000   0.69402933    -7.242162     862.2109  0.020941681  0.020166761           31 
 3432000   0.69707277   -7.2376429    862.29742   0.02093768  0.020160846           18 
 3433000   0.70606346   -7.2192799    862.00472  0.020924476   0.02015496           24 
 3434000   0.70384233   -7.2515831    860.99358  0.020893845  0.020149067           22 
 3435000   0.70318388   -7.2571111    860.90416  0.020885593  0.020143168            9 
 3436000   0.70351753    -7.245813    860.73497  0.020875411  0.020137266           11 
 3437000   0.71664839   -7.2260159    861.54427   0.02088896  0.020131363           14 
 3438000   0.70403105   -7.2453283    861.93959  0.020892466  0.020125463           19 
 3439000   0.70841124   -7.2648783    861.25476  0.020869796  0.020119566           12 
 3440000   0.69077701   -7.2175744    861.71206  0.020874808  0.020113678           15 
 3441000   0.70008315   -7.2433378      861.384  0.020860796  0.020107786            8 
 3442000   0.70252359   -7.2339578    862.90538  0.020891569  0.020101898           13 
 3443000   0.71493762   -7.2669831    862.54805  0.020876853  0.020095999           30 
 3444000   0.71734712   -7.2584484    860.41739  0.020819236  0.020090093           23 
 3445000    0.7095732   -7.2549856    859.64721  0.020794562  0.020084197           13 
 3446000   0.70506761   -7.2712058    861.87422  0.020842383  0.020078293            8 
 3447000   0.71667035    -7.239608    861.88251  0.020836537    0.0200724            9 
 3448000    0.6995669   -7.2539849    860.58063  0.020799029  0.020066483           22 
 3449000   0.70775475   -7.2251116    860.62145  0.020793985  0.020060577           16 
 3450000   0.69516649   -7.2564438    861.63998   0.02081256  0.020054663           22 
 3451000   0.70493161   -7.2613243    860.67068  0.020783123  0.020048754           27 
 3452000   0.70405893   -7.2844877    861.00162  0.020785091  0.020042849           18 
 3453000    0.6934589   -7.2321554    862.22624  0.020808626  0.020036937           22 
 3454000   0.70350887   -7.2683273    862.81993  0.020816926  0.020031029           34 
 3455000   0.69032303   -7.2543025    862.73604  0.020808877  0.020025153           12 
 3456000   0.68748658   -7.2527355     860.9451  0.020759672  0.020019247           33 
 3457000   0.71772378   -7.2397758    861.20547  0.020759943  0.020013346           23 
 3458000   0.70596609   -7.2325683    862.85296  0.020793642  0.020007474           38 
 3459000   0.70098495    -7.257336    861.27796  0.020749686  0.020001605           35 
 3460000   0.68753773   -7.2365182    862.20358  0.020765982  0.019995729            8 
 3461000   0.70311469   -7.2435776    863.66401  0.020795146  0.019989877           33 
 3462000   0.69589475   -7.2504146    861.18045  0.020729358  0.019984022           59 
 3463000   0.71377112   -7.2821563    862.83473   0.02076318  0.019978157           26 
 3464000   0.68937895   -7.2754719    861.32098   0.02072077  0.019972283           33 
 3465000   0.70308151   -7.2902098    861.81145  0.020726586  0.019966395           40 
 3466000   0.70427721   -7.2935564    862.25649  0.020731306  0.019960515           53 
 3467000   0.69731835   -7.2601231    861.31077  0.020702595  0.019954614           61 
 3468000    0.6935512    -7.272434    862.71012  0.020730251  0.019948733           37 
 3469000   0.70885266   -7.2625166    862.19098  0.020711804  0.019942859           21 
 3470000   0.71131292   -7.2411866    862.58561  0.020715312  0.019936977           14 
 3471000   0.69845587   -7.2617872    863.49339  0.020731139  0.019931113           11 
 3472000   0.69316397   -7.2642704    863.30736  0.020720703  0.019925233            8 
 3473000   0.68146168   -7.2729782    861.42288  0.020669519  0.019919348            7 
 3474000   0.69939241   -7.2670165     861.1237  0.020656393  0.019913469           14 
 3475000   0.68204465   -7.2533197    862.08197  0.020673429  0.019907588           15 
 3476000   0.68517174   -7.2557723    862.37062  0.020674401  0.019901717           29 
 3477000   0.70207839   -7.2651571    861.70338  0.020652463  0.019895821           11 
 3478000   0.69843359   -7.2645801    860.24791  0.020611652  0.019889933           17 
 3479000   0.69201733    -7.274083     863.7175  0.020688835  0.019884073           21 
 3480000   0.69246827   -7.2610991    863.52447  0.020678268  0.019878221           19 
 3481000   0.68307593   -7.2585975    863.96446  0.020682861  0.019872385           23 
 3482000   0.68452469   -7.2847078    862.04461  0.020630974  0.019866531           14 
 3483000   0.69469475    -7.278671    861.47072   0.02061132  0.019860682           17 
 3484000   0.69068998   -7.2736076     863.6431  0.020657365  0.019854837           18 
 3485000   0.68593916    -7.266967    863.26395  0.020642371  0.019848995           13 
 3486000   0.68314224   -7.2619439    863.71902  0.020647328  0.019843171           12 
 3487000   0.69421778    -7.229217    862.26294  0.020606609  0.019837357            8 
 3488000   0.68140318   -7.2499407    862.97619  0.020617742  0.019831526            9 
 3489000    0.6831251   -7.2478641    865.13395  0.020663369  0.019825704           14 
 3490000   0.70046697   -7.2527589    864.22772   0.02063581  0.019819886           13 
 3491000   0.68324915   -7.2763407    863.76408  0.020618831  0.019814036           19 
 3492000   0.68770901   -7.2539677    862.24549  0.020576687  0.019808193            7 
 3493000   0.68608611   -7.2461612    862.32228  0.020572628  0.019802357           19 
 3494000   0.70015171   -7.2475914    864.10369  0.020609227  0.019796525           15 
 3495000   0.69118332   -7.2733525    863.65211  0.020592563  0.019790688            5 
 3496000   0.68689425   -7.2650714    862.15648  0.020551022   0.01978484            8 
 3497000   0.70156224    -7.289388     862.4889  0.020553067  0.019779001           21 
 3498000   0.68965064   -7.2601924    862.78491  0.020554243  0.019773156           14 
 3499000   0.69259124    -7.266158      862.403  0.020539273    0.0197673           23 
 3500000   0.69489019   -7.2725014    862.05386  0.020525092  0.019761452           12 
 3501000   0.70337254   -7.2673929    864.49888  0.020577427  0.019755595           12 
 3502000   0.67593147   -7.2804391    862.72449  0.020529328  0.019749741           15 
 3503000   0.69041986   -7.2899194    862.42595  0.020516366  0.019743897           17 
 3504000    0.6897899   -7.2520547    862.15046  0.020503959  0.019738057           15 
 3505000   0.69259929   -7.2418774     863.3466  0.020526548  0.019732214           30 
 3506000   0.70712522   -7.2740039    862.25055  0.020494641  0.019726375           19 
 3507000    0.6842461    -7.262015    864.01804  0.020530797  0.019720523           39 
 3508000    0.6815626   -7.2665679    862.87463  0.020497782  0.019714653           18 
 3509000   0.67733045   -7.2767854    862.04107  0.020472145  0.019708785           49 
 3510000   0.67248775   -7.2886172    861.59231  0.020455658  0.019702927           50 
 3511000   0.69420645   -7.2762149    863.21821  0.020488422  0.019697061           35 
 3512000   0.69339369   -7.3022965    862.90224  0.020475091  0.019691201           32 
 3513000   0.68523029   -7.2925473     860.2469  0.020406274  0.019685325           27 
 3514000   0.69558915   -7.3005222    859.72811  0.020388164  0.019679448           32 
 3515000   0.68512651   -7.2614338    861.68321  0.020428715   0.01967358           14 
 3516000   0.67876321   -7.2650724    861.40984  0.020416426  0.019667703           28 
 3517000   0.69436449   -7.2713508    862.62474  0.020439407  0.019661832           30 
 3518000   0.67064608   -7.2605349    862.74962  0.020436555  0.019655968           39 
 3519000   0.70527933   -7.2971506    860.98902  0.020389055  0.019650107           91 
 3520000    0.6738973   -7.2920427    859.64662  0.020351483  0.019644228           41 
 3521000   0.66777677    -7.274462     861.5359  0.020390417  0.019638347           28 
 3522000   0.68859157   -7.2927469    860.76797  0.020366458  0.019632464           46 
 3523000   0.67134791   -7.3111178    861.03631  0.020367024  0.019626581           45 
 3524000   0.67521779   -7.2957603    861.60483  0.020374688  0.019620701           32 
 3525000   0.67947947   -7.2930288    862.08433  0.020380244  0.019614828           15 
 3526000   0.68794753   -7.3012779    860.93877   0.02034739  0.019608954           33 
 3527000   0.69713463   -7.2961697    861.89436  0.020364199  0.019603095           51 
 3528000   0.71096399   -7.2556528    863.07014    0.0203862  0.019597257           48 
 3529000   0.70129793   -7.2640406    863.50936  0.020390794  0.019591427           39 
 3530000    0.6836384   -7.2869464    861.30221  0.020332913  0.019585603           15 
 3531000   0.69427946   -7.2728533    863.64569  0.020382462  0.019579764           30 
 3532000   0.68411819    -7.269094    864.30961  0.020392356  0.019573925           35 
 3533000   0.67492442   -7.3006327    861.34202  0.020316587  0.019568089           32 
 3534000   0.69663447    -7.292306    860.96668  0.020301987  0.019562242           29 
 3535000   0.68564652   -7.3051862    862.69935   0.02033709  0.019556399           25 
 3536000   0.69329466   -7.2601755    862.30077  0.020321945  0.019550555           28 
 3537000   0.69848981   -7.2833712    863.18781  0.020337099  0.019544721           18 
 3538000   0.67877238   -7.2672829    863.37285  0.020335709  0.019538893           28 
 3539000   0.68693373   -7.2871418    862.71596  0.020314495  0.019533054           27 
 3540000   0.69203095   -7.2968062     861.0314  0.020269101  0.019527228           19 
 3541000    0.6810487    -7.286403     862.9852  0.020309357  0.019521401           27 
 3542000   0.69217325   -7.2841898    862.39609  0.020289763  0.019515566           54 
 3543000   0.68367038   -7.2679385    864.10349  0.020324195  0.019509743           27 
 3544000   0.67243124   -7.2760346    863.40956  0.020302144   0.01950391           50 
 3545000   0.67808441   -7.2987096    863.74006  0.020304186   0.01949808           31 
 3546000   0.69256011   -7.2844467    863.68072  0.020297065  0.019492236           16 
 3547000   0.68380569   -7.2975206    860.99327  0.020228204  0.019486379           26 
 3548000   0.68269932   -7.2639257    861.75641  0.020240427  0.019480535           16 
 3549000   0.67428246     -7.28769    863.49516  0.020275551  0.019474689           19 
 3550000   0.67734995   -7.2659521    861.94676  0.020233492  0.019468876           15 
 3551000   0.68712308    -7.261625    861.26558  0.020211808  0.019463059           18 
 3552000   0.69630894   -7.3014942    862.58824  0.020237149  0.019457235           22 
 3553000   0.70150835   -7.2851354    862.94831  0.020239898  0.019451414           35 
 3554000   0.69223212   -7.2896203    862.55196   0.02022491  0.019445584           42 
 3555000   0.67339957   -7.2794116    861.93438  0.020204744  0.019439755           35 
 3556000   0.68441124   -7.2721891    862.73328  0.020217784  0.019433933           20 
 3557000   0.67838765   -7.2748728    861.88092  0.020192131  0.019428128           19 
 3558000   0.67270045   -7.2984992    861.36068  0.020174271  0.019422296           53 
 3559000   0.67519619   -7.2761124    862.15783  0.020187268  0.019416462           22 
 3560000   0.66694433   -7.3064598    862.28811  0.020184647  0.019410624           27 
 3561000   0.68201943   -7.3149507    862.70551  0.020188746  0.019404791           23 
 3562000   0.68907538   -7.2854638     861.5602  0.020156284  0.019398961           13 
 3563000   0.69443558   -7.2946945    863.62226  0.020198855  0.019393136           18 
 3564000   0.67666937   -7.2898151    862.75238  0.020172848  0.019387328           18 
 3565000   0.68081628   -7.2817941    862.07371  0.020151326  0.019381514           30 
 3566000   0.68952688   -7.2885725    863.30459  0.020174439  0.019375706           16 
 3567000   0.65736137   -7.2985077    861.74158  0.020132267  0.019369902           31 
 3568000   0.67321168    -7.311317    862.75221  0.020150229  0.019364086           18 
 3569000   0.67369623   -7.3036074    862.16524  0.020130878  0.019358282           27 
 3570000   0.67968467   -7.3073432    862.56811  0.020134643  0.019352488           41 
 3571000   0.67862946   -7.3186183    862.43902  0.020125992  0.019346668           23 
 3572000   0.70139079   -7.2930702    861.37658  0.020095571  0.019340857           19 
 3573000   0.68556037   -7.2975455    861.54807  0.020093947  0.019335068           19 
 3574000   0.68949661   -7.2941029    863.73983  0.020139429  0.019329285           17 
 3575000   0.67863587   -7.2952856     863.4152  0.020126228  0.019323523           26 
 3576000   0.66868393   -7.2893955    864.11345  0.020136872  0.019317756           25 
 3577000   0.66873799   -7.2945796    863.44371  0.020115639  0.019311993           31 
 3578000   0.66584046   -7.2672353    865.79409  0.020164759  0.019306233           14 
 3579000   0.69894385   -7.2892053    865.20606  0.020145433  0.019300477           23 
 3580000    0.6813699   -7.2824056    863.58548  0.020102083  0.019294726           34 
 3581000   0.67195189   -7.2936691    863.39702  0.020092084  0.019288969           13 
 3582000   0.66776594   -7.2894492    864.94488  0.020122485  0.019283227           14 
 3583000   0.68259737   -7.2809682    862.98225  0.020071222  0.019277481           17 
 3584000   0.66627416   -7.2729172    865.01278  0.020112834  0.019271724           29 
 3585000    0.6846029   -7.2626575     864.4013   0.02009301   0.01926597           48 
 3586000   0.67386263   -7.2774759    864.16556  0.020081929  0.019260223           26 
 3587000   0.67424707   -7.2998945    863.70112   0.02006554  0.019254487           19 
 3588000   0.68813345     -7.28921    864.31299  0.020074159   0.01924873           21 
 3589000   0.66661383   -7.2837647    864.50292  0.020072976   0.01924298           19 
 3590000   0.69527733   -7.2884502    864.16201  0.020059471  0.019237242           19 
 3591000   0.66191234   -7.2919434    864.42801  0.020060058   0.01923149           14 
 3592000   0.68262671   -7.2884266    864.25905  0.020050553  0.019225756            8 
 3593000   0.66013198   -7.2977917    865.55563  0.020075045  0.019220025           11 
 3594000   0.68660024   -7.2861508    863.31512  0.020017509   0.01921429           30 
 3595000    0.6868603   -7.3089803    863.31639   0.02001197  0.019208546           12 
 3596000   0.66865952   -7.2726806    862.18943  0.019980289   0.01920279           19 
 3597000   0.67005047    -7.282241    863.65848  0.020008768  0.019197034           12 
 3598000   0.66791971   -7.3207861    865.26246  0.020040357  0.019191291           41 
 3599000   0.68423859   -7.3082146    863.28955  0.019989107  0.019185522           13 
 3600000   0.67011603   -7.2855192    863.16383  0.019980644  0.019179755            8 
 3601000   0.68370732   -7.2745518    862.92656  0.019969605  0.019173987           16 
 3602000   0.67408606   -7.2666448    864.08603  0.019990885  0.019168226           20 
 3603000   0.67127554   -7.2745259    863.74844  0.019977529  0.019162466           30 
 3604000   0.69605515   -7.3046024    863.05339  0.019955915    0.0191567           18 
 3605000   0.67616252    -7.295766     862.9288  0.019947499  0.019150947           14 
 3606000    0.6874803   -7.2900504    861.88537  0.019917854  0.019145195           14 
 3607000   0.68019174   -7.2985676       863.22  0.019943166  0.019139416           14 
 3608000   0.67170995   -7.3069944     863.7566  0.019950032  0.019133641           59 
 3609000   0.67660577   -7.3043318    863.01531  0.019927388  0.019127869           42 
 3610000   0.66819853   -7.3220096    862.61763  0.019912688  0.019122081           37 
 3611000    0.6608309   -7.3161429    864.24519  0.019944733  0.019116286           55 
 3612000   0.68598721   -7.3333701    863.55843  0.019923367  0.019110512           43 
 3613000   0.68298986    -7.305876    862.09172  0.019884023  0.019104734           54 
 3614000   0.66353387   -7.3150751    863.42164  0.019909187  0.019098937           67 
 3615000   0.69638814    -7.317222    862.25573  0.019876803  0.019093154           78 
 3616000   0.66964574   -7.3311865    863.64546  0.019903334  0.019087376           47 
 3617000    0.6745887   -7.3384592    862.49426  0.019871308  0.019081603           30 
 3618000   0.67379237   -7.3150989     862.9683  0.019876734  0.019075817           26 
 3619000   0.66427646   -7.3065782     862.9053  0.019869791  0.019070038           35 
 3620000   0.67916765   -7.3202829    862.31078  0.019850616  0.019064264           37 
 3621000    0.6814726   -7.3275063     862.5847  0.019851438  0.019058498           27 
 3622000    0.6749006    -7.337459    863.01305  0.019855813  0.019052744           45 
 3623000   0.67747534    -7.324586    862.70234  0.019843186  0.019046993           47 
 3624000   0.67419234   -7.2992023    863.26591  0.019850669  0.019041236           38 
 3625000   0.66527956   -7.3031679    862.80234  0.019834537  0.019035481           60 
 3626000   0.68121949   -7.3160529    863.20461  0.019838311  0.019029721           70 
 3627000   0.66651049   -7.3155778    865.09038  0.019876169  0.019023969           65 
 3628000   0.66724031   -7.2896297    863.61273  0.019836749  0.019018245           87 
 3629000   0.67598165   -7.3065672    865.31527  0.019870379  0.019012526           29 
 3630000   0.65871881   -7.3106448    865.79272  0.019875866  0.019006809           18 
 3631000   0.66098756   -7.3038746    863.89789  0.019826905  0.019001104           30 
 3632000   0.67551125   -7.2704586    861.98645  0.019777589  0.018995401           38 
 3633000   0.68200994   -7.3254496    862.62101  0.019786701  0.018989656           34 
 3634000   0.66998724   -7.3103936    864.09557   0.01981507  0.018983923           23 
 3635000   0.67855832   -7.2845341    862.98305  0.019784114  0.018978177           37 
 3636000   0.66103758   -7.3211353    863.36206  0.019787359  0.018972433           47 
 3637000   0.65659971   -7.3115513    862.87933  0.019770858   0.01896668           62 
 3638000   0.66853878   -7.3266763    861.52015   0.01973429  0.018960911           40 
 3639000   0.67108382   -7.3106196     863.1307  0.019765748  0.018955143           43 
 3640000   0.66433109   -7.3178587    862.47883  0.019745394  0.018949383           27 
 3641000   0.66789748   -7.3161012    863.05515  0.019753162  0.018943635           21 
 3642000   0.66426191   -7.3329631    864.49863  0.019780767  0.018937896           31 
 3643000   0.67052082   -7.3368405    862.12005  0.019720927  0.018932146           23 
 3644000   0.67962864   -7.3055129    861.55024  0.019702484  0.018926385           33 
 3645000   0.66306903   -7.3199298    862.13946   0.01971055  0.018920639           36 
 3646000   0.67248909   -7.3250684    863.15344   0.01972832  0.018914914           37 
 3647000    0.6689296   -7.3044403    863.26586  0.019725479    0.0189092           23 
 3648000   0.66559502   -7.3277141    864.86396  0.019756578  0.018903483           18 
 3649000   0.67087043    -7.321857    863.89622  0.019729063  0.018897745           26 
 3650000   0.68139724   -7.3113204    862.97879  0.019702712  0.018892011           26 
 3651000   0.67094078   -7.2937088    864.10066  0.019722922  0.018886291           27 
 3652000   0.66815151    -7.321744    861.73339  0.019663504  0.018880576           33 
 3653000   0.65659052   -7.3091999    864.26432  0.019715857  0.018874847           20 
 3654000   0.66790209   -7.3144875    864.70693  0.019720556  0.018869129           15 
 3655000   0.66220856   -7.3242377    863.63098  0.019690629  0.018863422           20 
 3656000    0.6600078   -7.3260302     862.6447  0.019662762    0.0188577           22 
 3657000   0.66778034   -7.2898744    862.86473  0.019662399  0.018851977           40 
 3658000   0.67062348   -7.3233989    864.76137  0.019700232  0.018846263           20 
 3659000   0.65193782   -7.3097808     861.7834  0.019627025  0.018840538           24 
 3660000   0.65447568   -7.3253605    864.29642   0.01967888  0.018834837           27 
 3661000   0.66771095   -7.2933146    863.54303  0.019656356  0.018829146           32 
 3662000   0.68785841     -7.32867    863.79396  0.019656698  0.018823452           37 
 3663000   0.66450425   -7.3098986    865.69804   0.01969465  0.018817771           45 
 3664000   0.67206503   -7.3328546    865.80684  0.019691749  0.018812089           38 
 3665000   0.65900865   -7.3255123    863.10825  0.019625017  0.018806394           27 
 3666000   0.67654621   -7.3033468    864.14444  0.019643218  0.018800708           28 
 3667000   0.66803594   -7.3322129    864.97851  0.019656815  0.018795021           32 
 3668000    0.6624969   -7.3162226    863.43151   0.01961631  0.018789332           16 
 3669000   0.66904321   -7.3308917    863.01646  0.019601537  0.018783649           30 
 3670000   0.68000194   -7.2975385    861.72058  0.019566771  0.018777955           35 
 3671000   0.66251055   -7.3279028    862.91319  0.019588513  0.018772262           76 
 3672000   0.66174472   -7.3413131    862.28001  0.019568809  0.018766564           28 
 3673000    0.6546528   -7.3328766    864.10069  0.019604789  0.018760883           22 
 3674000    0.6654241   -7.3380895    863.36377  0.019582738  0.018755202           30 
 3675000   0.66668141   -7.3056466    863.78963  0.019587066   0.01874952           23 
 3676000   0.66446387   -7.3318049    863.50876  0.019575371  0.018743832           63 
 3677000   0.66474073   -7.3149523    865.18312  0.019607994  0.018738145           37 
 3678000   0.65865143   -7.3229498    865.80054  0.019616652  0.018732469           31 
 3679000   0.66925334   -7.3146228    863.02726  0.019548502  0.018726791           44 
 3680000   0.67032453   -7.3187512    862.36798   0.01952826  0.018721105           69 
 3681000   0.65994868   -7.3485869    862.13599  0.019517703  0.018715409           39 
 3682000   0.66663729   -7.3129923    862.64875  0.019524008  0.018709718           29 
 3683000   0.67170685   -7.3377888    864.91095  0.019569892  0.018704021           28 
 3684000   0.66136214   -7.3025236    864.92869  0.019564981  0.018698349           25 
 3685000   0.66898153   -7.3170957    863.43906  0.019525985  0.018692688           20 
 3686000   0.65441807   -7.3365619    864.63234  0.019547665  0.018687025           34 
 3687000   0.64450395   -7.3158008    865.14232   0.01955389  0.018681355           30 
 3688000   0.66894109   -7.3119164    864.88893  0.019542863  0.018675691           62 
 3689000   0.66201641    -7.356272    863.34478  0.019502683  0.018670024           39 
 3690000   0.65569278   -7.3259597     864.1056   0.01951458  0.018664346           60 
 3691000   0.65733017   -7.3437936    862.71149  0.019477817  0.018658669           47 
 3692000   0.65211962   -7.3309976    862.22583   0.01946158  0.018652981           51 
 3693000   0.66697774    -7.356218    861.87158  0.019448316  0.018647285           28 
 3694000   0.66577009   -7.3269465    863.26418  0.019474467  0.018641602           28 
 3695000   0.67052859   -7.3623224    861.57993  0.019431212  0.018635923           41 
 3696000   0.65593673   -7.3617256    862.62167  0.019449442  0.018630213           31 
 3697000   0.66257794   -7.3506869    862.96766   0.01945198  0.018624522           37 
 3698000   0.67005526   -7.3373349    861.61311  0.019416196  0.018618824           14 
 3699000   0.65945648   -7.3392176     862.3749  0.019428109  0.018613136           23 
 3700000   0.65192229   -7.3661961    860.48858  0.019380373  0.018607443           62 
 3701000   0.65963767   -7.3452007    862.38234  0.019417778  0.018601752           18 
 3702000   0.66464798   -7.3467948     864.1639  0.019452636  0.018596058           31 
 3703000   0.64796058   -7.2927014    863.14566  0.019424468  0.018590385           55 
 3704000   0.66167856   -7.3210969    862.87809  0.019413204  0.018584721           82 
 3705000   0.64600387   -7.3117304    864.76744   0.01945046  0.018579072           43 
 3706000   0.67181944   -7.3450458    865.60557  0.019464058  0.018573425           67 
 3707000    0.6530525   -7.3353732    862.89991  0.019397984  0.018567778           69 
 3708000   0.66006206   -7.3317752    865.13388  0.019442959  0.018562125           46 
 3709000   0.65014709    -7.341533     864.9602  0.019433814   0.01855648           51 
 3710000   0.65526614   -7.3327305     863.8129  0.019402805  0.018550842           38 
 3711000    0.6734955   -7.3517353     862.9083  0.019377263  0.018545191           65 
 3712000   0.67439685   -7.3227363    864.27476   0.01940272  0.018539539           27 
 3713000   0.66331562   -7.3415288    862.67669  0.019361628  0.018533902           41 
 3714000   0.67102337   -7.3391251    864.45834  0.019396391  0.018528263           18 
 3715000   0.64592777   -7.3481382    863.44312  0.019368397  0.018522613           37 
 3716000    0.6676871   -7.3508021    865.01781  0.019398498  0.018516972           67 
 3717000   0.66080471   -7.3416537    866.09406  0.019417408  0.018511344           32 
 3718000   0.65210978   -7.3302683    866.06343  0.019411499  0.018505716           37 
 3719000   0.65314941   -7.3402653    864.41204  0.019369276  0.018500069           60 
 3720000   0.66916347   -7.3417344     863.7656  0.019349588   0.01849444           98 
 3721000   0.65246671   -7.3422545    863.95195  0.019348561  0.018488815           42 
 3722000   0.67058881   -7.3345572    865.53343  0.019378771   0.01848321           70 
 3723000   0.63917812   -7.3530691    864.48995  0.019350209  0.018477604           33 
 3724000   0.67331725   -7.3501805     861.7758  0.019284278  0.018471988           37 
 3725000   0.64778559   -7.3420834    864.15264  0.019332274  0.018466368           37 
 3726000   0.65338919   -7.3575639    865.74978  0.019362806  0.018460765           19 
 3727000    0.6641989   -7.3284421     864.1422  0.019321666  0.018455133           37 
 3728000   0.64986633   -7.3683578      864.488  0.019324213  0.018449502           21 
 3729000   0.63558318   -7.3511962    864.65807  0.019322832  0.018443874           49 
 3730000   0.64108411   -7.3442726    865.51165  0.019336721  0.018438255           24 
 3731000   0.66071875   -7.3687753    864.22326  0.019302762  0.018432627           95 
 3732000   0.64643132   -7.3660443    864.73678  0.019309056  0.018427004           44 
 3733000   0.64601455   -7.3632487    864.57834  0.019300347   0.01842138           46 
 3734000   0.65116203   -7.3666833    864.37678   0.01929068  0.018415774           27 
 3735000   0.65499963   -7.3472944    864.28088  0.019283375  0.018410165           37 
 3736000    0.6525124   -7.3355924    866.17894  0.019320551  0.018404559           35 
 3737000   0.64830541   -7.3482711    864.77464  0.019284066  0.018398969           27 
 3738000   0.65188498   -7.3599743    862.89408  0.019236982  0.018393373           32 
 3739000   0.66033624   -7.3674481    865.70712  0.019294533  0.018387775           30 
 3740000   0.64651044   -7.3444962    864.89407  0.019271258  0.018382185           56 
 3741000   0.66037322   -7.3448943    866.04662  0.019291781  0.018376599           51 
 3742000   0.64404849   -7.3660884    863.76976   0.01923592  0.018371024           42 
 3743000   0.63946515   -7.3439551    863.12796  0.019216492  0.018365438           40 
 3744000   0.67454602   -7.3523866    862.75934  0.019203155  0.018359849           47 
 3745000   0.65824276   -7.3529054    865.49662  0.019258937  0.018354265           28 
 3746000   0.67209768   -7.3633494    864.97383  0.019242166   0.01834869           12 
 3747000   0.65700568   -7.3366133     864.4533  0.019225454  0.018343106           22 
 3748000   0.66272881   -7.3629789    863.84058  0.019206701  0.018337512           37 
 3749000   0.65658391   -7.3666597    863.19086  0.019187136  0.018331918           29 
 3750000   0.65037234    -7.375286    864.36366  0.019208081  0.018326328           46 
 3751000   0.65135697    -7.371092    866.05985  0.019240644  0.018320752           24 
 3752000   0.65154801   -7.3620788    865.78719   0.01922946  0.018315173           16 
 3753000   0.65581358   -7.3806964    864.30339  0.019191389  0.018309597           18 
 3754000   0.65497361   -7.3341372    865.09428  0.019203833  0.018304027           24 
 3755000   0.66314426   -7.3727292     865.5942  0.019209814  0.018298465           22 
 3756000   0.64397497   -7.3543899    865.95792  0.019212769  0.018292893           18 
 3757000   0.65053179   -7.3472373    865.67656  0.019201414  0.018287323           28 
 3758000   0.65198729   -7.3399146    866.02848  0.019204108  0.018281777           16 
 3759000   0.64890901   -7.3302922    864.98184  0.019175797  0.018276214           13 
 3760000   0.64762237   -7.3615627     866.1181   0.01919588  0.018270667           17 
 3761000   0.65659808   -7.3617497    864.59232  0.019156969  0.018265117           26 
 3762000   0.64652709   -7.3555614    863.31226  0.019123522  0.018259553           30 
 3763000   0.66629627    -7.356769    864.82023  0.019151834  0.018253999           17 
 3764000   0.64549377   -7.3875206    865.54703  0.019162837  0.018248444           19 
 3765000   0.65851192   -7.3623993    865.28495  0.019151947  0.018242897           15 
 3766000   0.63654856    -7.367967    865.40247  0.019149462  0.018237348           13 
 3767000   0.64626028   -7.3441872    865.18455  0.019139557  0.018231793           22 
 3768000   0.65004093   -7.3479707    865.76396  0.019147292  0.018226248           25 
 3769000    0.6510542   -7.3409522    864.56101  0.019115614  0.018220703           15 
 3770000   0.66928077   -7.3532094    864.29315  0.019104623  0.018215175           27 
 3771000    0.6424038   -7.3630166    867.31415  0.019166316  0.018209652           22 
 3772000   0.64837942   -7.3481813    866.72472  0.019148213  0.018204132           20 
 3773000   0.65325931   -7.3478236     866.4129  0.019136251  0.018198632           11 
 3774000    0.6467604   -7.3719604    867.39691  0.019152908  0.018193112           22 
 3775000   0.64269453   -7.3437454    866.03474  0.019117765  0.018187598           28 
 3776000    0.6516005   -7.3500563    866.84861  0.019130663  0.018182086           15 
 3777000   0.65456435   -7.3505946    866.44487   0.01911669  0.018176581           17 
 3778000   0.65112617   -7.3752639    865.76779  0.019096696  0.018171076           12 
 3779000   0.63780719   -7.3498153    866.35423  0.019104574  0.018165573           10 
 3780000   0.65175841    -7.352771    867.49333  0.019124632   0.01816007           17 
 3781000   0.64161679   -7.3457985    865.23942  0.019069898  0.018154557           18 
 3782000   0.64192384   -7.3486118    865.77259  0.019076604  0.018149044           17 
 3783000   0.66075334   -7.3764957    864.45349  0.019042504   0.01814352           20 
 3784000   0.63869574   -7.3545029    865.54138  0.019061429  0.018138002           12 
 3785000   0.65179787    -7.358736    866.20367  0.019070975  0.018132485            9 
 3786000   0.65902681   -7.3904379    865.25257  0.019045003   0.01812697           13 
 3787000     0.636131   -7.3722387    863.49922  0.019001391  0.018121443           13 
 3788000   0.63750706   -7.3804727    864.17398  0.019011219  0.018115909           13 
 3789000   0.63073411   -7.3851467    865.14551  0.019027569   0.01811037           12 
 3790000   0.66871065   -7.3615902    865.27772  0.019025456  0.018104846           19 
 3791000   0.64742491    -7.396431    865.07974  0.019016085  0.018099331           12 
 3792000   0.63971371   -7.3807792     865.4293  0.019018752  0.018093807           20 
 3793000   0.65729191   -7.3696528    864.82669  0.019000498   0.01808829           18 
 3794000   0.64082796   -7.3921751    865.29621  0.019005803  0.018082774           19 
 3795000   0.63352039    -7.341616    863.97711  0.018971829  0.018077251           14 
 3796000   0.64192254   -7.3611367    864.00752  0.018967499   0.01807173           19 
 3797000   0.64810561    -7.353147     864.5267  0.018973898  0.018066222           21 
 3798000   0.65298367   -7.3630139     865.7185  0.018995052  0.018060718           22 
 3799000   0.63763635   -7.3563102    866.05381  0.018997407  0.018055223           17 
 3800000   0.64785684    -7.371426    867.67852  0.019028038  0.018049722           26 
 3801000   0.64913628   -7.3531419    863.68995  0.018935586  0.018044215           23 
 3802000   0.63493748    -7.342147    865.56593  0.018971724  0.018038722           35 
 3803000   0.65309611   -7.3577481    864.28252  0.018938613  0.018033227           31 
 3804000   0.64331828   -7.3612168    865.26161  0.018955083  0.018027724           33 
 3805000   0.63797246   -7.3673993    864.58681  0.018935322  0.018022217           48 
 3806000   0.63574019   -7.3596432     864.5463   0.01892946  0.018016708           42 
 3807000   0.64479387   -7.3655438    864.31465  0.018919417  0.018011206           44 
 3808000   0.64120359   -7.3639622    865.41243  0.018938472  0.018005696           30 
 3809000   0.62751994   -7.3738916    862.64526   0.01887296  0.018000184           53 
 3810000   0.65543807   -7.3656144    864.90891  0.018917518  0.017994678           28 
 3811000   0.63865451   -7.3774151    864.14826  0.018895921   0.01798917           26 
 3812000   0.64100273   -7.3734312    865.94496  0.018930241  0.017983675           41 
 3813000   0.65376906    -7.376241    865.52389  0.018916074  0.017978188           27 
 3814000   0.64854216   -7.3535766    864.90183  0.018897523  0.017972712           29 
 3815000   0.64216138   -7.3557027    864.76644  0.018889612  0.017967235           23 
 3816000   0.65535474   -7.3600681    865.98725  0.018911322  0.017961758           31 
 3817000   0.64024839   -7.3931567    864.90288  0.018882693  0.017956278           13 
 3818000    0.6341675   -7.3562274    865.69387  0.018895012  0.017950791           18 
 3819000   0.64886153   -7.3679589    864.69169  0.018868196  0.017945289           21 
 3820000   0.64351965   -7.3616115    865.01417  0.018870292  0.017939783           43 
 3821000   0.62902409   -7.3693545    864.51614  0.018854491  0.017934273           28 
 3822000   0.62722484   -7.3686068    863.99731  0.018838246  0.017928779           22 
 3823000   0.64790005   -7.3673573    863.57315  0.018824073  0.017923276           21 
 3824000   0.64200786   -7.3757838    866.09816  0.018874175  0.017917777           14 
 3825000   0.63415753   -7.3896888    863.57599  0.018814292  0.017912269           21 
 3826000   0.64617351   -7.3986576    864.73864  0.018834698  0.017906751           18 
 3827000   0.63892583   -7.3819025    864.19864  0.018818018  0.017901249           24 
 3828000   0.63145618   -7.3890973    863.30975  0.018793751  0.017895757           33 
 3829000   0.64994952   -7.3829742     864.6482  0.018817972  0.017890246           39 
 3830000   0.63962925    -7.356297    864.35504   0.01880668  0.017884753           28 
 3831000   0.65303681    -7.366167    866.32747  0.018844676  0.017879263           13 
 3832000    0.6416288   -7.3765706    863.18958   0.01877152  0.017873779           12 
 3833000    0.6431146   -7.3870213    866.20536  0.018832189   0.01786831           31 
 3834000    0.6210835   -7.4003586    865.51615  0.018812297  0.017862841           25 
 3835000   0.63352652   -7.3772901    864.17574  0.018778265  0.017857356           44 
 3836000    0.6317649   -7.3944735    864.67699  0.018784259  0.017851876           31 
 3837000    0.6378556   -7.3865335    863.98231  0.018764276  0.017846399           17 
 3838000   0.63256509   -7.3761184     865.3111  0.018788238   0.01784092           19 
 3839000   0.64956321   -7.3746383    864.18074  0.018758807  0.017835448           28 
 3840000   0.63986269   -7.3911492    864.97925  0.018771251  0.017829993           44 
 3841000   0.62662364   -7.3769876     864.5172   0.01875634  0.017824537           52 
 3842000   0.64302168   -7.3654658    866.34822  0.018791172  0.017819081           38 
 3843000   0.63407335   -7.3958513    866.03528  0.018779497  0.017813631           18 
 3844000   0.64030573   -7.3564797    866.49551  0.018784589  0.017808176           46 
 3845000   0.62599608   -7.3638553    864.51943  0.018736875  0.017802742           17 
 3846000   0.63404366    -7.370553    865.61405  0.018755721   0.01779729           30 
 3847000   0.61607148   -7.3750255    864.70696  0.018731197  0.017791842           45 
 3848000   0.64403573   -7.3688693    864.94836  0.018731557  0.017786389           76 
 3849000   0.64535492   -7.3647962    865.29263  0.018734144  0.017780928           23 
 3850000   0.63230292   -7.3879949    863.64095  0.018693527  0.017775447           27 
 3851000   0.63500614   -7.4067846    863.63926  0.018688636  0.017769966           68 
 3852000   0.64842208   -7.4182746    864.34221  0.018698992   0.01776449           39 
 3853000   0.62871458    -7.378313    863.38457  0.018673427  0.017759017           43 
 3854000    0.6459604   -7.3949821    864.33392  0.018689109  0.017753545           43 
 3855000   0.63129461   -7.3889896    864.31445   0.01868384   0.01774807           38 
 3856000   0.62989316   -7.3940031    863.32331  0.018657575  0.017742586           36 
 3857000   0.64179051   -7.4147272    864.23583  0.018672453  0.017737103           28 
 3858000   0.63122581   -7.4134043    862.45085  0.018629057  0.017731621           32 
 3859000   0.62883078   -7.4016457    865.14298  0.018682365  0.017726148           55 
 3860000   0.63924624   -7.4019857    863.89692  0.018650624  0.017720679           24 
 3861000   0.62424162   -7.3972827    863.02191  0.018626908  0.017715213           20 
 3862000   0.63613451   -7.3673739    865.97188  0.018685739  0.017709744           34 
 3863000   0.62979631   -7.3963622    863.18653  0.018620816  0.017704265           20 
 3864000   0.63747061   -7.4005271    863.18026  0.018615861  0.017698797           22 
 3865000   0.62470467   -7.3973543    864.29866  0.018635159  0.017693326           32 
 3866000   0.63116584   -7.4196645    864.51163  0.018634929  0.017687871           24 
 3867000   0.63130811   -7.3925437    864.99587  0.018640545  0.017682416           20 
 3868000   0.63574944   -7.4243333    863.38805  0.018601087  0.017676956           21 
 3869000   0.63594873   -7.4119067    863.94541  0.018608284  0.017671504           16 
 3870000   0.63846235    -7.394317    863.01925  0.018583533  0.017666045           32 
 3871000   0.63717418    -7.400819    862.27098  0.018562623  0.017660576           22 
 3872000   0.63007655   -7.4224689    862.04226  0.018552907  0.017655107           20 
 3873000   0.62638359   -7.4125584    861.90838  0.018545236  0.017649638           26 
 3874000   0.62503389   -7.3988881    863.47686  0.018574188  0.017644172           36 
 3875000   0.63609337   -7.3975416     863.7875  0.018576075    0.0176387           16 
 3876000   0.63086111   -7.3965795    863.24965  0.018559719  0.017633229           20 
 3877000   0.64337995   -7.3979113    864.30071  0.018577524  0.017627759           42 
 3878000   0.63547506   -7.3994318    862.02513  0.018523834  0.017622291           27 
 3879000   0.63247697   -7.3975476    863.99379  0.018561352  0.017616829           30 
 3880000   0.63284167   -7.4014033    866.03593  0.018600428  0.017611386           21 
 3881000   0.64224632   -7.3789781    865.14627  0.018576533  0.017605945           27 
 3882000   0.61199838   -7.4099483    865.11044  0.018570978  0.017600499           36 
 3883000   0.63122145   -7.4056962    864.85467  0.018560706  0.017595054           28 
 3884000   0.62726311   -7.3794509    862.72332  0.018510198  0.017589623           13 
 3885000   0.62308375    -7.413025    863.70892  0.018526575  0.017584183           22 
 3886000    0.6291269    -7.408851    864.27877  0.018534028  0.017578748           45 
 3887000    0.6306427   -7.3986889    864.28373  0.018529366  0.017573312           12 
 3888000   0.62887301   -7.4037088    864.16258  0.018522003  0.017567889           38 
 3889000   0.63834048   -7.3956437    866.73546  0.018572372  0.017562468           33 
 3890000   0.62234687   -7.4155885     864.6657  0.018523258  0.017557037           20 
 3891000    0.6306456   -7.4015389    865.01326  0.018525942  0.017551614           19 
 3892000   0.63274267    -7.395365     865.5238  0.018532113   0.01754618           94 
 3893000   0.62486098   -7.3937506    864.67439   0.01850917  0.017540748           44 
 3894000   0.64153093   -7.4075376    864.43904   0.01849938  0.017535322           92 
 3895000   0.63091628   -7.4000698    862.35197  0.018449978  0.017529876           37 
 3896000    0.6139469   -7.4106102    864.77921   0.01849716  0.017524445           37 
 3897000   0.62956812   -7.4107567    864.90038  0.018495004  0.017519021           62 
 3898000   0.61826817   -7.3969707    865.08606  0.018494229  0.017513609           36 
 3899000   0.62534146   -7.4056236    863.99131  0.018466088  0.017508194           74 
 3900000    0.6172549   -7.4028682    863.60768  0.018453156  0.017502777           63 
 3901000    0.6302962   -7.3993503    865.77841  0.018494796  0.017497363           19 
 3902000   0.62729535   -7.4081351    863.04218   0.01843162   0.01749195           99 
 3903000   0.62557481   -7.4059631    863.46774  0.018435984  0.017486536          158 
 3904000   0.63153577   -7.4192577    863.08132  0.018423013   0.01748112           44 
 3905000   0.63905527   -7.4123446    864.10097  0.018440055  0.017475704           54 
 3906000   0.62652074   -7.4052506     864.3221  0.018440052  0.017470281           48 
 3907000   0.62648668   -7.3936407    864.39836  0.018436958  0.017464866          116 
 3908000   0.62900063   -7.4179435    863.84201  0.018420377  0.017459455           51 
 3909000   0.62374925   -7.4434773    863.64281  0.018411418   0.01745403          140 
 3910000   0.63722718   -7.4154623    863.13666  0.018395922  0.017448619           75 
 3911000   0.62163958   -7.4220303    862.84954  0.018385101  0.017443197           86 
 3912000   0.61606178   -7.4395768     863.7531  0.018399649  0.017437786           78 
 3913000   0.64832886   -7.4291236    863.48288  0.018389192  0.017432391           37 
 3914000   0.61533924   -7.4222722    865.37477  0.018424774  0.017426991           41 
 3915000   0.62745455   -7.4241912    865.05486  0.018413258  0.017421594           30 
 3916000   0.64368334   -7.4072669    864.02403   0.01838662  0.017416196           84 
 3917000   0.63251405   -7.4260162    863.56478  0.018372155  0.017410804          100 
 3918000   0.63401513   -7.4139146    862.85666  0.018352405  0.017405408           97 
 3919000   0.62808132   -7.4332059    864.53928  0.018383501  0.017400015          109 
 3920000   0.62860341   -7.4101413     863.8918  0.018365047  0.017394622          117 
 3921000    0.6345316   -7.4191649    863.59572   0.01835407  0.017389229           86 
 3922000   0.61406196   -7.4249528     865.1266  0.018381918  0.017383844          128 
 3923000   0.62291741    -7.419197    864.25327  0.018358681  0.017378465           84 
 3924000   0.61390889   -7.4222492    862.42937  0.018315269  0.017373074           68 
 3925000   0.62651617   -7.4256831    865.02945  0.018365806  0.017367687           98 
 3926000   0.62373561   -7.4345926    864.35369  0.018346784  0.017362299           87 
 3927000   0.63419863   -7.4389531    864.53443  0.018345948  0.017356918           85 
 3928000   0.62882447   -7.4337011    863.81705  0.018326058  0.017351533           84 
 3929000   0.60228525   -7.4505391    862.17449  0.018286555  0.017346148           73 
 3930000   0.62738729   -7.4187606    863.54228  0.018310905  0.017340758           59 
 3931000   0.61864887   -7.4186504    864.04016  0.018316801  0.017335371           49 
 3932000   0.61726295   -7.4243031     862.8144  0.018286165  0.017329991           70 
 3933000    0.6176597   -7.4348751    863.19038  0.018289482  0.017324613          121 
 3934000    0.6116728   -7.4312294    862.55803  0.018271438  0.017319238          130 
 3935000   0.61907478   -7.4231921    864.71839  0.018312545   0.01731386          109 
 3936000   0.61998365   -7.4156932    862.57766  0.018262569   0.01730847          110 
 3937000   0.62926729   -7.4035914    861.74953  0.018240402   0.01730308          114 
 3938000   0.62516196   -7.4349471    864.02731  0.018283971  0.017297691          105 
 3939000   0.63333951   -7.4478777    864.47666  0.018288835  0.017292313          116 
 3940000   0.62715345   -7.4427386    863.52088  0.018263978  0.017286932           77 
 3941000   0.62820136   -7.4315065    865.98934   0.01831154  0.017281568           55 
 3942000   0.62011388   -7.4287948    863.80979  0.018260819  0.017276199          155 
 3943000   0.62919762   -7.4237803     863.8831  0.018257737  0.017270826           45 
 3944000    0.6231546     -7.43587     863.2926  0.018240631  0.017265459           57 
 3945000   0.61540037    -7.424765    863.17244  0.018233469  0.017260077          113 
 3946000   0.62401506   -7.4214528    864.60464  0.018259094  0.017254713           84 
 3947000   0.62238143   -7.3996811      864.071  0.018243202  0.017249358          107 
 3948000     0.624104    -7.397757    865.14019  0.018261149  0.017244015           63 
 3949000     0.623624   -7.4302255    863.59946  0.018224012  0.017238663           52 
 3950000    0.6219192   -7.4436982    863.28876  0.018212843  0.017233312           97 
 3951000    0.6095609   -7.4559312    863.64463  0.018215739  0.017227957           82 
 3952000   0.63167402   -7.4310355    862.30003  0.018182777  0.017222591           64 
 3953000   0.62210449   -7.4282163    861.52701  0.018161881  0.017217225          172 
 3954000   0.64139863    -7.433171    863.25916  0.018193794  0.017211872           80 
 3955000   0.61399146   -7.3987996    863.59533  0.018196278   0.01720652           78 
 3956000   0.62587082   -7.4410826    863.08616  0.018180952  0.017201166           91 
 3957000   0.63270029   -7.4405241      863.723  0.018189769  0.017195801           70 
 3958000   0.62889713   -7.4316417    863.30369  0.018176345  0.017190445           78 
 3959000   0.61066212   -7.4207758    862.38539  0.018152425  0.017185092           78 
 3960000   0.60442967    -7.419282    863.83842  0.018178418  0.017179742           58 
 3961000   0.62729295   -7.4306729    864.25491  0.018182591  0.017174395           71 
 3962000   0.61160475   -7.4276137    862.64692  0.018144181   0.01716905           49 
 3963000    0.6261803   -7.4338118    862.99754  0.018146975    0.0171637           53 
 3964000   0.61238077   -7.4536596      862.484  0.018131601  0.017158356           78 
 3965000   0.60809588   -7.4272652    862.87495  0.018135245  0.017153009           78 
 3966000   0.62814817   -7.4195619    863.74778  0.018149012  0.017147663           85 
 3967000    0.6192653   -7.4431042    863.23956  0.018133761   0.01714231           98 
 3968000   0.63059733   -7.4368374    862.91394  0.018122353  0.017136976           67 
 3969000   0.62383674    -7.442711    863.51671  0.018130442  0.017131633           61 
 3970000   0.61859139   -7.4340726    862.36703  0.018101743  0.017126288           66 
 3971000   0.62404902   -7.4439932    862.09041  0.018091379  0.017120937           56 
 3972000   0.62375263   -7.4457089    862.05891  0.018086164  0.017115591          100 
 3973000   0.61818554   -7.4424109     864.2616  0.018127813  0.017110252           42 
 3974000   0.60750564   -7.4438377    862.02473  0.018076345  0.017104897           94 
 3975000   0.61967777   -7.4217964    860.35874  0.018036871  0.017099548           56 
 3976000   0.61846553   -7.4501497    862.65242  0.018080408  0.017094216           95 
 3977000   0.61505895   -7.4191551    862.87571   0.01808054  0.017088878          106 
 3978000   0.62420828   -7.4396244    863.13545  0.018081436  0.017083536          128 
 3979000   0.62057286   -7.4346352    863.12884  0.018076754  0.017078195          169 
 3980000   0.61363481   -7.4458796    864.61786  0.018103389  0.017072845           93 
 3981000   0.62478818   -7.4491942    861.41969  0.018031895    0.0170675          119 
 3982000   0.64115489   -7.4371416    862.70879  0.018054344  0.017062165          122 
 3983000   0.61289252   -7.4291522    862.99381  0.018055775  0.017056829           82 
 3984000   0.61607992   -7.4352217    860.96391  0.018008783  0.017051485          129 
 3985000   0.61678809   -7.4360641    863.10287  0.018048994  0.017046138           68 
 3986000    0.6153301   -7.4556948    863.20791  0.018046661  0.017040798          102 
 3987000   0.60740042   -7.4571998    863.81369  0.018054797  0.017035462           98 
 3988000   0.63190722   -7.4693118     863.3726  0.018041052  0.017030122           95 
 3989000   0.61668756   -7.4335376    863.46793  0.018038521  0.017024778           92 
 3990000   0.62414996   -7.4540476    863.08313  0.018025963  0.017019445          100 
 3991000   0.60379388   -7.4513809    862.84614  0.018016498  0.017014111           85 
 3992000   0.60598994    -7.451898    862.16897  0.017997849  0.017008768          103 
 3993000   0.61175469   -7.4329137    860.97969  0.017968522  0.017003429           82 
 3994000   0.60214974   -7.4583815    861.22818  0.017969208  0.016998087           71 
 3995000   0.61527161   -7.4378093    861.21238   0.01796438  0.016992744           75 
 3996000   0.61693568   -7.4425957    860.73057  0.017949837  0.016987409           81 
 3997000   0.62133428   -7.4511424    862.86311  0.017989807  0.016982069          123 
 3998000   0.60722218   -7.4265025    860.60629  0.017938267  0.016976721          102 
 3999000   0.61573184   -7.4459778    862.05568  0.017963984  0.016971379           73 
 4000000   0.61967374   -7.4408903    863.33149  0.017986073   0.01696605          146 
 4001000   0.61068109   -7.4368577    860.55018  0.017923648   0.01696072          124 
 4002000   0.61916628   -7.4369495     862.8234  0.017966504  0.016955389          123 
 4003000    0.6184211   -7.4558694    860.75335  0.017918922  0.016950061           62 
 4004000   0.60508839   -7.4562584    862.22131  0.017944999   0.01694474           91 
 4005000   0.60445785   -7.4434447    861.82961  0.017932368   0.01693942          154 
 4006000   0.60735143    -7.461178    861.07891  0.017912276  0.016934096          118 
 4007000   0.60113882    -7.430129    861.38819  0.017914237  0.016928761           88 
 4008000   0.60052655    -7.470264    862.09061  0.017924372  0.016923445           44 
 4009000    0.5971631   -7.4578792    861.17356  0.017900839  0.016918114           55 
 4010000   0.61405984    -7.450396    861.68637  0.017907032  0.016912799           88 
 4011000   0.60361727   -7.4577749    861.27091  0.017893936   0.01690748           86 
 4012000   0.61250625   -7.4578327    862.20014  0.017908777  0.016902169           69 
 4013000   0.60299397   -7.4572449    862.27232  0.017905813   0.01689686           83 
 4014000   0.61497575   -7.4719663    861.03566  0.017875678  0.016891541           78 
 4015000   0.61551086    -7.452346    861.96009  0.017890413  0.016886226           87 
 4016000   0.61756639   -7.4517491    862.14669   0.01788983  0.016880915           65 
 4017000   0.59910439   -7.4620496    860.96069  0.017860773  0.016875602           90 
 4018000   0.62410252   -7.4684149    861.19009  0.017861085  0.016870288          184 
 4019000   0.61532685   -7.4496036    859.03727  0.017812003  0.016864985           84 
 4020000   0.60985706   -7.4671999    861.90073   0.01786693  0.016859688           76 
 4021000   0.61525365    -7.457209    860.54625  0.017834416  0.016854376           78 
 4022000   0.59742171   -7.4561908    861.78979  0.017855747  0.016849076           82 
 4023000   0.60754811   -7.4626486    859.95621  0.017813328  0.016843762           81 
 4024000    0.5988149   -7.4611528    861.74128  0.017845868  0.016838454           76 
 4025000    0.5960457    -7.452154    861.20843  0.017830402  0.016833138           86 
 4026000   0.59168426   -7.4741157    861.04058  0.017822499  0.016827836           82 
 4027000   0.61311264   -7.4500949    859.48321  0.017785846  0.016822527          105 
 4028000   0.60362499   -7.4580667    860.01456  0.017792423  0.016817226           91 
 4029000   0.59507041   -7.4598364    859.68064    0.0177811   0.01681191           93 
 4030000   0.60707356   -7.4706684    861.26553  0.017809461  0.016806599           80 
 4031000   0.59453343    -7.469938    860.31469  0.017785386  0.016801287          101 
 4032000   0.60795481   -7.4588958    861.59528  0.017807442  0.016795975          108 
 4033000   0.60349241   -7.4722581    860.64414  0.017783374  0.016790665          105 
 4034000   0.61419026   -7.4347534    861.08182  0.017788006  0.016785356           84 
 4035000   0.60386565   -7.4539026      860.812  0.017778026  0.016780049           77 
 4036000   0.61007808   -7.4696213    860.64839  0.017770243  0.016774741          182 
 4037000   0.61855382   -7.4567816    860.90261  0.017771089  0.016769438           86 
 4038000   0.61281479   -7.4377613    860.60474   0.01776054  0.016764146           95 
 4039000   0.61230472    -7.447246    861.03137  0.017764945   0.01675886           82 
 4040000   0.59201136   -7.4613453    861.08146  0.017761581  0.016753568           92 
 4041000   0.59712662    -7.471369    862.23662  0.017781008  0.016748283          106 
 4042000   0.61119651   -7.4543357    861.09079  0.017752985  0.016742994           89 
 4043000   0.60336181   -7.4886908    861.13562  0.017749518  0.016737706          132 
 4044000   0.59429097   -7.4950367    861.89027   0.01776068  0.016732414          112 
 4045000   0.60487754   -7.4662144    860.42452  0.017726092  0.016727132          136 
 4046000    0.5987952    -7.464889    861.04394  0.017734469   0.01672185          212 
 4047000   0.60003036   -7.4682703    860.56351  0.017720194   0.01671656          233 
 4048000   0.60418168    -7.469944    860.96431  0.017724068   0.01671128          184 
 4049000   0.60587848   -7.4703735    861.72003  0.017735244     0.016706          202 
 4050000   0.61742782   -7.4714894    861.06324  0.017717351  0.016700725          188 
 4051000   0.61166805   -7.4543978    862.20209  0.017736404  0.016695449          179 
 4052000   0.61118478   -7.4772195    860.78847  0.017702955  0.016690183          170 
 4053000   0.59689529    -7.461109    860.74744  0.017697743  0.016684904          187 
 4054000   0.60994264   -7.4991514    862.12259  0.017721645  0.016679633          119 
 4055000   0.58928843   -7.4728713    863.53771  0.017746357  0.016674364          192 
 4056000   0.60613508   -7.4875854    862.13375  0.017713136  0.016669092          210 
 4057000   0.59316573   -7.4600036    861.22373  0.017690077  0.016663825          152 
 4058000    0.5999791    -7.464863    860.83668   0.01767777  0.016658556          143 
 4059000   0.60558374   -7.4792898    862.08743  0.017699093  0.016653283           88 
 4060000   0.59557609   -7.4771043    862.66375  0.017706563  0.016648028          202 
 4061000   0.60478994   -7.4864086    861.40932  0.017676461  0.016642769          246 
 4062000   0.59689261   -7.4763183    860.63837  0.017656293   0.01663751          211 
 4063000   0.59996877   -7.4651924    859.88063  0.017636406  0.016632255          269 
 4064000   0.60121922   -7.4703678    859.54872  0.017625261  0.016627002          120 
 4065000   0.60246351    -7.463506     862.0724  0.017672661  0.016621746          128 
 4066000    0.6091193   -7.4644744    862.49974  0.017677073  0.016616497          232 
 4067000   0.60589735   -7.4751906    861.44109  0.017651035  0.016611254          202 
 4068000   0.60837816   -7.4684147    860.38171  0.017624994  0.016606005          263 
 4069000   0.59043268   -7.4935988     861.5763  0.017645128  0.016600761          272 
 4070000    0.5849112   -7.4806248    860.19027  0.017612413  0.016595517          240 
 4071000   0.60034437   -7.4905565    860.92828  0.017623194  0.016590275          251 
 4072000   0.58957213   -7.4766464    860.42895  0.017608648  0.016585022          240 
 4073000   0.60735236   -7.4590194    860.69309  0.017609728  0.016579771          211 
 4074000   0.60028331   -7.4806252    861.16831  0.017615127  0.016574526          273 
 4075000   0.59861447   -7.4949641    861.56305  0.017618876  0.016569279          237 
 4076000   0.59722115   -7.4936376    861.07915   0.01760466  0.016564026          204 
 4077000   0.61468874   -7.4801851    858.57429  0.017549143  0.016558779          152 
 4078000   0.59468203   -7.4814025    861.65675   0.01760783   0.01655354          194 
 4079000   0.59530215   -7.4634044    859.66166  0.017562753    0.0165483          233 
 4080000   0.58370075   -7.4839436    861.43209   0.01759461  0.016543065          200 
 4081000     0.589064    -7.492888    859.80748  0.017557124  0.016537825          180 
 4082000   0.59899791   -7.5048186    858.49079  0.017525943  0.016532579          230 
 4083000   0.60535367      -7.4839    859.70218  0.017546375  0.016527343          179 
 4084000   0.60023218    -7.500662    861.75341  0.017583933  0.016522101          218 
 4085000   0.59046874   -7.4980494    860.00656  0.017543994  0.016516864          199 
 4086000   0.59535685   -7.5032317    860.41422  0.017548014  0.016511618          205 
 4087000   0.58647609   -7.5061818    860.89843  0.017553593   0.01650638          255 
 4088000   0.59642806   -7.4947198    860.24282  0.017535935  0.016501141          335 
 4089000   0.59764773   -7.4786816    859.65209  0.017519607  0.016495909          231 
 4090000    0.6017365   -7.4788246    859.15703  0.017505237  0.016490687          279 
 4091000   0.59578924   -7.4804381    861.59409  0.017550601  0.016485469          246 
 4092000   0.59238673   -7.4895596    860.31529  0.017520269  0.016480248          134 
 4093000   0.60269745   -7.4902893    860.21626  0.017513972  0.016475028          205 
 4094000   0.60594331   -7.4875788    859.44767   0.01749405  0.016469803          216 
 4095000   0.59299626   -7.5022297    859.93866  0.017499769  0.016464572          221 
 4096000   0.60326218   -7.5010138    860.13669  0.017499526   0.01645934          210 
 4097000   0.60475899   -7.4899782     859.9991  0.017492456  0.016454114          208 
 4098000   0.59483161   -7.4738993    859.48408  0.017477714    0.0164489          196 
 4099000   0.60752415   -7.4718528    861.00367  0.017504344  0.016443687          212 
 4100000   0.59541692    -7.493892    861.06211  0.017501262  0.016438469          183 
 4101000    0.5960803   -7.4666433    860.58252  0.017487249   0.01643326          196 
 4102000   0.58612923   -7.4859043    859.62554  0.017463545  0.016428049          203 
 4103000   0.58972235   -7.4942571    858.66161  0.017439711  0.016422837          157 
 4104000    0.5861187   -7.4885596    861.12201  0.017485421  0.016417629          120 
 4105000   0.59455335   -7.4843466    861.58809  0.017490623  0.016412424          216 
 4106000   0.59388439   -7.4740993    859.05096  0.017434871  0.016407226          220 
 4107000   0.57383728   -7.4749043    859.93707  0.017448605  0.016402023          212 
 4108000   0.60933117   -7.4800171    860.77526  0.017461361  0.016396832          209 
 4109000   0.59732497   -7.4757313     860.3831  0.017449158  0.016391637          172 
 4110000     0.594697   -7.4934908     861.6139  0.017469868  0.016386435          221 
 4111000   0.57059261   -7.4806459    861.67235  0.017466804  0.016381231          184 
 4112000    0.6007573   -7.5006662    859.38136  0.017416127  0.016376032          212 
 4113000   0.59446003   -7.4876278      858.712  0.017398331  0.016370831          234 
 4114000   0.59563697   -7.4976288    860.40278   0.01742835   0.01636563          218 
 4115000   0.58623746   -7.4945739    859.84322  0.017412783  0.016360439          206 
 4116000     0.592718   -7.4836422    860.37337  0.017419286   0.01635525          227 
 4117000   0.58155179   -7.5128304    858.98976  0.017387049  0.016350052          313 
 4118000   0.58623863   -7.5220758    858.52634  0.017373449  0.016344856          212 
 4119000   0.58892245   -7.4904254    859.45756  0.017388071  0.016339663          299 
 4120000   0.59330399   -7.5048202     860.9362  0.017413758  0.016334469          204 
 4121000   0.59076117     -7.49227     859.4368  0.017379212  0.016329278          271 
 4122000   0.58594847    -7.499562    858.82452  0.017362618  0.016324089          208 
 4123000     0.591682   -7.5019716     860.2304  0.017386822  0.016318902          225 
 4124000   0.59587806   -7.5046945    857.89678  0.017335451  0.016313713          378 
 4125000   0.59930086   -7.4763227      858.857  0.017350646  0.016308533          356 
 4126000   0.58399811   -7.5118314    860.26451  0.017374869  0.016303351          244 
 4127000   0.61281593   -7.4933311    860.69235  0.017379298  0.016298178          349 
 4128000   0.58773295   -7.5045554    861.68676  0.017395162  0.016293004          228 
 4129000   0.59238622   -7.4948016    859.51428  0.017347103  0.016287832          221 
 4130000   0.60380792   -7.5113806    859.21355  0.017336835  0.016282647          193 
 4131000    0.5990749   -7.4835527    860.22948  0.017353132  0.016277476          239 
 4132000   0.58864303   -7.4849085    859.83952  0.017341068  0.016272311          218 
 4133000    0.5758273    -7.489941    859.59862  0.017332015  0.016267145          205 
 4134000   0.58788106   -7.4773835    859.78965  0.017331673   0.01626198          359 
 4135000   0.57822988   -7.4916514    860.00382  0.017331798   0.01625682          229 
 4136000   0.59078147   -7.4804046    860.79479  0.017343544  0.016251666          308 
 4137000   0.59684801   -7.5171775    860.01027  0.017323549  0.016246511          255 
 4138000   0.58752053   -7.5045486    859.80401  0.017315209  0.016241353          263 
 4139000   0.59811548   -7.5024539    859.27008  0.017300275  0.016236186          286 
 4140000   0.58680629   -7.5092517    858.93579  0.017289368  0.016231026          265 
 4141000   0.59173442   -7.4979018    860.29199  0.017312485  0.016225864          241 
 4142000   0.58575104   -7.4983411    860.17542   0.01730596  0.016220703          416 
 4143000   0.58406858    -7.496389    861.78875  0.017334233  0.016215543          227 
 4144000   0.59850445    -7.521357    860.34684  0.017301054  0.016210392          333 
 4145000   0.59312784   -7.5090418    860.43464  0.017298646  0.016205244          367 
 4146000   0.57815012   -7.4972752     858.7882   0.01726138  0.016200091          390 
 4147000    0.5923396   -7.5152585    860.63089  0.017294247  0.016194949          161 
 4148000   0.59782448   -7.4985418    860.44825  0.017286408   0.01618981          163 
 4149000   0.59150567   -7.4909812    860.26927  0.017278647  0.016184661          205 
 4150000   0.58235911   -7.4900822     858.1661  0.017232251  0.016179518          211 
 4151000   0.57222494   -7.4929677    859.59389  0.017256763  0.016174382          249 
 4152000   0.59270425   -7.5298831    859.81765  0.017257098  0.016169241          325 
 4153000   0.59897411   -7.4966533    859.46149  0.017245796  0.016164107          296 
 4154000   0.58928478   -7.5081486    860.42367  0.017260947  0.016158984          228 
 4155000   0.59019606   -7.4884388    860.06675  0.017249634  0.016153866          180 
 4156000   0.58635451   -7.4871978    860.21996  0.017248555  0.016148749          163 
 4157000   0.58807945   -7.4876835    860.84195  0.017256875  0.016143627          268 
 4158000   0.59580759   -7.5048989    859.23866  0.017220592  0.016138505          290 
 4159000   0.58717716   -7.5052108    859.92723  0.017230248  0.016133383          247 
 4160000   0.59396067   -7.5013101    860.77265  0.017243042   0.01612826          221 
 4161000    0.5878506   -7.4953408    859.50381  0.017213486  0.016123141          216 
 4162000   0.58052637   -7.4824949    859.37256  0.017206723   0.01611802          187 
 4163000   0.58501477    -7.509539    860.14338  0.017218019   0.01611291          206 
 4164000   0.59347889   -7.5002622     858.2414   0.01717582  0.016107798          275 
 4165000   0.58775489   -7.5122202    858.43504  0.017175571  0.016102689          244 
 4166000    0.5854118   -7.5023321    858.82561  0.017179261   0.01609759          261 
 4167000   0.58076424   -7.4998205     860.4481  0.017207585  0.016092495          219 
 4168000    0.5915216   -7.5026833    860.00515  0.017194601  0.016087398          376 
 4169000   0.58994248   -7.5168104    862.62729   0.01724289  0.016082307          281 
 4170000   0.58788699   -7.4977446    859.76967  0.017181648  0.016077216          260 
 4171000   0.60790408   -7.5125775    861.32753  0.017208654  0.016072125          258 
 4172000   0.58712777   -7.5008157    859.91111  0.017176237  0.016067026          324 
 4173000   0.57324913   -7.4973782    860.58627  0.017185603  0.016061932          307 
 4174000   0.59016646   -7.5023059    860.61944  0.017182148  0.016056834          263 
 4175000   0.56986128   -7.4934976     860.2428  0.017170515  0.016051739          269 
 4176000   0.58913803   -7.4878763    860.50611  0.017171658  0.016046653          319 
 4177000    0.5901549   -7.5162484    860.43159   0.01716606  0.016041571          335 
 4178000   0.58042632   -7.4828454    859.51643  0.017143698  0.016036482          314 
 4179000   0.58848778   -7.5253977     860.6591  0.017162381  0.016031393          287 
 4180000   0.57345286   -7.4905557    859.75299  0.017140211  0.016026304          355 
 4181000   0.58088989   -7.4940438    858.76574  0.017116434  0.016021226          286 
 4182000    0.5781731   -7.4928316    861.02035  0.017157268  0.016016165          325 
 4183000   0.56617701   -7.4959087    860.67401  0.017146267  0.016011095          256 
 4184000   0.58335239    -7.499245    860.89181  0.017146507  0.016006022          290 
 4185000   0.58247531   -7.5076973     859.6231  0.017117147  0.016000955          287 
 4186000   0.58035446   -7.4874301    860.63037   0.01713311  0.015995889          225 
 4187000   0.56266535   -7.4939237    860.28429   0.01712213  0.015990823          360 
 4188000   0.58884111   -7.5074119    860.04364  0.017113253  0.015985754          342 
 4189000   0.58648152   -7.5093578    859.86908  0.017105695  0.015980691          360 
 4190000   0.56832075   -7.4930337    860.41005  0.017112372   0.01597564          255 
 4191000    0.5880008   -7.5090093    861.36607  0.017127298  0.015970597          382 
 4192000   0.57971747   -7.5096675    861.70839  0.017130017  0.015965551          352 
 4193000   0.59099565   -7.5254564    860.64296  0.017104757  0.015960504          289 
 4194000   0.57819529   -7.5070016    860.25386  0.017092948  0.015955456          379 
 4195000   0.59039058   -7.5016573    859.50281  0.017073953  0.015950409          382 
 4196000   0.58499292   -7.5034723    859.06234  0.017061136  0.015945372          376 
 4197000   0.58144986   -7.5025632    858.87613  0.017053374  0.015940334          317 
 4198000   0.58011757   -7.5048418    859.12863  0.017054324  0.015935295          324 
 4199000   0.59186233    -7.521576    859.67227  0.017061052  0.015930265          362 
 4200000   0.57011897    -7.517138    859.73684  0.017058271  0.015925233          293 
 4201000   0.57413862   -7.5046142    859.72121    0.0170539  0.015920193          132 
 4202000   0.58744038   -7.5164262    861.81544  0.017091374  0.015915155          358 
 4203000   0.57889632   -7.4832464    861.46704    0.0170804  0.015910113          225 
 4204000   0.57203342   -7.5094457    861.01528  0.017067382  0.015905076          290 
 4205000   0.57599611   -7.5257146    859.00815  0.017023546  0.015900038          431 
 4206000   0.57622058    -7.511476    860.61982  0.017051431  0.015894998          378 
 4207000   0.58122641    -7.535734    859.67171  0.017028597  0.015889967          393 
 4208000   0.57048814   -7.5342455     860.5072  0.017041096  0.015884933          321 
 4209000   0.58435925   -7.5059609    861.62634  0.017059205  0.015879908          323 
 4210000   0.57381669   -7.5063193    859.63129  0.017015663  0.015874884          373 
 4211000   0.58666833   -7.5081988    858.65089  0.016992221  0.015869855          326 
 4212000   0.57481964   -7.5042198    859.94831  0.017013856  0.015864825          247 
 4213000   0.56924186   -7.5147633    860.73481  0.017025374  0.015859806          337 
 4214000   0.56418791    -7.522944      859.247  0.016991912  0.015854785          364 
 4215000   0.57374092   -7.5319368    858.97479  0.016982499  0.015849754          352 
 4216000   0.59555218   -7.5279399    858.02748  0.016959746  0.015844721          411 
 4217000   0.58948127   -7.5137797    859.72512  0.016989272  0.015839687          404 
 4218000   0.57785487   -7.5205533    859.27064  0.016976265  0.015834656          421 
 4219000   0.58058206   -7.5321609    859.63029  0.016979345  0.015829631          367 
 4220000   0.58300938   -7.5392777     858.2744  0.016948547  0.015824613          359 
 4221000   0.57785857    -7.511931    859.09045  0.016960642  0.015819589          431 
 4222000   0.57944851   -7.5205648     859.4441  0.016963605   0.01581456          400 
 4223000   0.56656413   -7.5357281    859.01217  0.016951065  0.015809534          441 
 4224000   0.57495632   -7.5349455    859.09381  0.016948663  0.015804509          386 
 4225000   0.56649882   -7.5438624    859.03861  0.016943562  0.015799483          445 
 4226000   0.57312032   -7.5281408    858.90244  0.016936868   0.01579446          457 
 4227000   0.57830157   -7.5399691    860.16042  0.016957661  0.015789437          473 
 4228000   0.56920041   -7.5310308    859.20215  0.016934763  0.015784417          425 
 4229000   0.57837832   -7.5364683    857.84883  0.016904091  0.015779396          472 
 4230000   0.58386902   -7.5409609    859.60662  0.016934725  0.015774378          443 
 4231000   0.57166423   -7.5128722    859.26953  0.016924083  0.015769359          482 
 4232000   0.57726942   -7.5390065    857.54198  0.016886066  0.015764346          469 
 4233000   0.57287396   -7.5379689    858.86206  0.016908065  0.015759332          398 
 4234000   0.55775785   -7.5232444    857.74114  0.016882009  0.015754324          440 
 4235000   0.57848648   -7.5245879    859.14962  0.016905738  0.015749316          361 
 4236000   0.57016576   -7.5471842    858.17744  0.016882622  0.015744308          348 
 4237000     0.569999   -7.5419504     857.9127  0.016873431  0.015739288          425 
 4238000   0.58130179   -7.5408175    858.64657  0.016883879  0.015734276          412 
 4239000   0.56984193   -7.5347102    860.42269  0.016914813  0.015729265          479 
 4240000   0.59283758   -7.5495266    859.31615  0.016889075  0.015724254          436 
 4241000   0.58194495   -7.5580146    859.48686  0.016888447  0.015719241          450 
 4242000   0.56533506   -7.5427907    859.53773  0.016885465  0.015714236          436 
 4243000   0.57122785   -7.5463699    859.22399  0.016875324   0.01570923          433 
 4244000   0.56078723   -7.5374314    859.01448  0.016867234  0.015704227          462 
 4245000   0.57272098   -7.5289626    857.78734   0.01683917  0.015699222          385 
 4246000   0.56496115   -7.5305648    858.56792  0.016850524  0.015694217          379 
 4247000   0.56439397   -7.5444511    857.93309    0.0168341  0.015689217          498 
 4248000   0.57278413   -7.5531886    858.06221   0.01683267  0.015684217          410 
 4249000    0.5712903   -7.5575109    858.19296  0.016831273  0.015679219          458 
 4250000   0.57282485   -7.5609191    858.86632  0.016840516  0.015674217          446 
 4251000   0.56960561   -7.5536243    857.65021  0.016812715  0.015669219          443 
 4252000   0.57843614   -7.5457055    859.09087  0.016836996  0.015664223          473 
 4253000   0.56521715   -7.5290303    859.11208  0.016833452  0.015659233          477 
 4254000   0.58084123   -7.5399449    859.53176  0.016837717  0.015654242          488 
 4255000   0.57277734   -7.5388378    858.71463  0.016817756  0.015649253          457 
 4256000   0.56129167   -7.5553424     858.4766  0.016809144  0.015644264          475 
 4257000   0.56899687   -7.5585715    859.58262  0.016826846  0.015639281          274 
 4258000   0.57517587   -7.5533598    858.75079  0.016806615  0.015634297          454 
 4259000   0.56593094   -7.5503102    858.22867  0.016792453  0.015629314          434 
 4260000   0.57129843   -7.5655663    857.24684  0.016769304  0.015624333          466 
 4261000   0.57893473   -7.5490242    857.87227    0.0167776  0.015619353          481 
 4262000   0.56495873   -7.5590064    857.79474  0.016772148  0.015614374          534 
 4263000    0.5628328   -7.5437723     857.8661  0.016769609  0.015609387          495 
 4264000   0.57810326   -7.5351361    856.73452  0.016743561  0.015604405          508 
 4265000   0.57734285   -7.5384125    858.69039   0.01677785  0.015599426          506 
 4266000   0.58399643    -7.525159    857.45359  0.016749758  0.015594455          528 
 4267000   0.57400935   -7.5581151    858.21354  0.016760674  0.015589492          503 
 4268000   0.57853605   -7.5498682    857.75751  0.016747843  0.015584533          426 
 4269000   0.56026021   -7.5655436    858.25218  0.016753576  0.015579569          423 
 4270000   0.57297193   -7.5419731    858.79963  0.016760336    0.0155746          384 
 4271000   0.56950091    -7.575474     857.8949  0.016738759  0.015569632          453 
 4272000   0.56555742   -7.5569932    859.43866  0.016764955  0.015564672          466 
 4273000    0.5665298   -7.5495991       857.81  0.016729269  0.015559709          418 
 4274000    0.5660609   -7.5527625    857.81082  0.016725371  0.015554744          435 
 4275000   0.56577743   -7.5638861     858.4433  0.016733787  0.015549787          509 
 4276000   0.57349039   -7.5590824    857.54325  0.016712333  0.015544826          515 
 4277000   0.57580799    -7.546988    857.74878   0.01671243  0.015539864          440 
 4278000   0.56821306   -7.5561417    857.99064  0.016713235   0.01553491          464 
 4279000   0.56569506   -7.5542602     858.0277  0.016710051  0.015529954          482 
 4280000   0.57291114   -7.5605884    858.46205  0.016714604  0.015524993          449 
 4281000   0.56255832   -7.5699838    858.12216  0.016704083   0.01552004          500 
 4282000   0.56794344   -7.5475777    858.16732  0.016701061  0.015515096          427 
 4283000   0.56489434   -7.5530919    859.78908  0.016728716   0.01551015          414 
 4284000   0.56124651   -7.5447631    858.29972   0.01669584  0.015505204          483 
 4285000   0.55911736   -7.5549865    857.46895  0.016675787  0.015500265          399 
 4286000   0.56927355   -7.5460371    857.58548  0.016674162  0.015495327          383 
 4287000   0.57429182   -7.5422034    857.06652  0.016660184   0.01549039          508 
 4288000   0.56233313   -7.5550656    857.77173  0.016670004  0.015485453          445 
 4289000   0.57093868   -7.5493772    857.67485  0.016664235  0.015480513          425 
 4290000   0.55635858   -7.5486184    858.09619  0.016668535  0.015475579          416 
 4291000   0.55930744   -7.5601342    858.63058  0.016675029  0.015470642          509 
 4292000   0.56059364   -7.5513698    857.76488  0.016654335  0.015465703          441 
 4293000   0.55759203   -7.5503326    857.08738  0.016637305  0.015460767          455 
 4294000   0.55034352   -7.5535495    857.12324  0.016634126  0.015455834          488 
 4295000   0.56469039    -7.558273     858.5668  0.016658262  0.015450909          490 
 4296000   0.57509921    -7.563467    857.75838  0.016638702  0.015445981          508 
 4297000   0.55943084   -7.5648041    857.18449    0.0166237  0.015441054          499 
 4298000   0.56442413   -7.5296019    857.31087  0.016622283  0.015436126          398 
 4299000   0.57676106   -7.5593228    858.52699   0.01664199  0.015431201          408 
 4300000   0.56371805   -7.5742186     858.1653   0.01663111  0.015426278          483 
 4301000    0.5655769   -7.5640306    857.72202  0.016618655  0.015421355          452 
 4302000   0.56070738   -7.5798011    857.98994  0.016619982  0.015416435          503 
 4303000   0.55924387   -7.5704937    858.45229  0.016625073  0.015411517          483 
 4304000   0.56893538   -7.5641545    857.74736  0.016607562  0.015406606          466 
 4305000   0.57258171   -7.5484878    857.17494  0.016592624  0.015401687          424 
 4306000   0.55505715    -7.568409    856.92007  0.016583838  0.015396769          456 
 4307000   0.56497469   -7.5393937    857.95361  0.016599985  0.015391856          533 
 4308000   0.56561069   -7.5682548    857.37694  0.016584976  0.015386936          423 
 4309000   0.55570289   -7.5647011    858.83308  0.016609288  0.015382022          455 
 4310000   0.56874422   -7.5851689    858.04669   0.01659023  0.015377114          458 
 4311000    0.5573922   -7.5724866    857.84893  0.016582559  0.015372204          520 
 4312000   0.56324426   -7.5744187    856.72723  0.016557035  0.015367297          496 
 4313000    0.5540923   -7.5682338    855.54425  0.016530339  0.015362387          502 
 4314000   0.56063908   -7.5586208    855.97411  0.016534811  0.015357484          463 
 4315000   0.55334791   -7.5513573    857.59627  0.016562307  0.015352581          491 
 4316000   0.57405795   -7.5856236    859.05503  0.016586636  0.015347681          507 
 4317000   0.55635837   -7.5603562    858.12744  0.016564888  0.015342783          474 
 4318000   0.55458857   -7.5780874     857.3165  0.016545401  0.015337881          448 
 4319000   0.53500579   -7.5644634    859.07607   0.01657552  0.015332983          490 
 4320000   0.56085934   -7.5391531    857.48093  0.016540913  0.015328089          446 
 4321000   0.56286729   -7.5764577    857.99107  0.016546923    0.0153232          530 
 4322000   0.55379843   -7.5767264    855.20891  0.016489452   0.01531831          425 
 4323000   0.55498131    -7.574057    856.87604  0.016517774  0.015313423          576 
 4324000   0.54421855   -7.5738993    857.69803  0.016529795  0.015308539          491 
 4325000   0.55619041   -7.5719962    856.71004  0.016506937  0.015303653          509 
 4326000   0.56384248   -7.5657447    858.57801  0.016539105   0.01529877          527 
 4327000   0.56787661   -7.5826138    858.08411  0.016525771  0.015293886          464 
 4328000   0.55091751   -7.5676539    857.33963  0.016507618  0.015289012          529 
 4329000   0.56525464   -7.5810141    857.99354  0.016516392  0.015284129          464 
 4330000   0.55878275    -7.579662    857.56461  0.016504323  0.015279255          466 
 4331000   0.55388852   -7.5700248    857.03894  0.016490398  0.015274378          477 
 4332000   0.57803524   -7.5732486    856.78197  0.016481648  0.015269507          505 
 4333000   0.54559459    -7.557139    855.85948  0.016460102  0.015264634          493 
 4334000   0.57217469   -7.5870049    856.61487  0.016470829  0.015259765          514 
 4335000   0.58017484   -7.5621172    857.89226  0.016491585  0.015254897          547 
 4336000   0.54858813   -7.5753719    856.63415  0.016463602  0.015250034          528 
 4337000   0.55262176   -7.5884476    856.20714  0.016451601  0.015245165          542 
 4338000   0.54875383   -7.5806343    857.14247  0.016465777  0.015240293          476 
 4339000   0.54777501   -7.5727005     857.2158   0.01646339  0.015235418          569 
 4340000   0.56461933   -7.5668497    858.10846  0.016476737  0.015230547          489 
 4341000   0.55742796   -7.5869811    856.09003  0.016434194  0.015225677          496 
 4342000   0.55916743   -7.5724515    855.07386  0.016410906  0.015220807          539 
 4343000   0.57110188   -7.5816367    857.33951  0.016450601  0.015215944          455 
 4344000   0.55442794    -7.593969    858.74564  0.016473788  0.015211085          509 
 4345000   0.55021046   -7.5745295    858.26365  0.016460753   0.01520623          509 
 4346000   0.56558199   -7.5791366    857.01959  0.016433111   0.01520138          524 
 4347000   0.56269412   -7.5773852    856.78303  0.016424795  0.015196527          478 
 4348000   0.56068524    -7.572139    855.84536  0.016403047  0.015191673          510 
 4349000   0.56324579   -7.5985507    856.37523  0.016409428  0.015186822          488 
 4350000   0.55668983   -7.5767942    856.64639   0.01641085  0.015181978          511 
 4351000   0.55018695   -7.5856622    855.61279  0.016387282  0.015177125          524 
 4352000   0.55501057   -7.6005944    857.65407  0.016422604  0.015172278          556 
 4353000   0.56211746   -7.5759094    856.81947  0.016402854  0.015167435          514 
 4354000   0.56187792   -7.5984085    857.09165  0.016404296  0.015162595          528 
 4355000   0.54773408   -7.5793242    856.71271  0.016393278  0.015157762          504 
 4356000   0.54992996    -7.604439    857.07129  0.016396375  0.015152921          448 
 4357000   0.56520989   -7.5748367    855.86008  0.016369445  0.015148078          459 
 4358000   0.56256041   -7.5795135    856.69554  0.016381665  0.015143236          511 
 4359000   0.56509883   -7.5794467    855.88251  0.016362363  0.015138398          523 
 4360000   0.54555571   -7.5821572    857.32685  0.016386217  0.015133567          525 
 4361000   0.55881124   -7.5739434    855.63344    0.0163501  0.015128732          559 
 4362000   0.54771954   -7.5784822    855.34207  0.016340785  0.015123896          529 
 4363000   0.54659838    -7.605113    855.18113  0.016333966  0.015119058          525 
 4364000    0.5646492   -7.5824845    856.63202  0.016357929  0.015114229          556 
 4365000   0.56658203   -7.5673491    855.44531  0.016331526  0.015109401          534 
 4366000   0.54284243   -7.5815244    856.38844  0.016345786  0.015104577          533 
 4367000   0.55594306   -7.5823364    856.56499  0.016345412   0.01509975          535 
 4368000   0.55068453   -7.6017826    856.81956  0.016346527  0.015094925          510 
 4369000   0.56883364   -7.5882443    856.92044   0.01634471    0.0150901          538 
 4370000   0.54812797   -7.5993901    856.03526   0.01632409  0.015085279          593 
 4371000   0.54962778   -7.5745226    857.41319  0.016346625   0.01508046          517 
 4372000    0.5553311   -7.5966428    855.85769  0.016313237  0.015075643          520 
 4373000    0.5529168   -7.6025683    857.09054  0.016333001  0.015070824          540 
 4374000    0.5405674   -7.6109861    857.28116  0.016332898   0.01506601          563 
 4375000   0.56360529   -7.5809981    856.97046  0.016323247  0.015061201          554 
 4376000   0.55203515   -7.5907991    856.59281  0.016312325  0.015056388          556 
 4377000   0.55481923    -7.598373     857.2992  0.016322047  0.015051581          618 
 4378000   0.55227287   -7.5891034    858.61769  0.016343416  0.015046773          522 
 4379000   0.54948265   -7.5796977    857.70578   0.01632233  0.015041965          540 
 4380000   0.55489341   -7.6002393    855.31566  0.016273129  0.015037153          540 
 4381000   0.55063738    -7.613439    855.64545  0.016275688  0.015032347          527 
 4382000   0.54478726   -7.5979387    856.87177  0.016295295  0.015027541          533 
 4383000   0.56195299   -7.5936361    856.00932  0.016275179   0.01502274          555 
 4384000   0.54225838   -7.6033269    856.40936  0.016279071  0.015017935          550 
 4385000   0.54362049   -7.5974018     856.4057  0.016275289  0.015013133          544 
 4386000   0.54676634   -7.6027003    857.02792    0.0162834  0.015008336          602 
 4387000    0.5449565    -7.609152    856.20816  0.016264117  0.015003533          591 
 4388000   0.54520466   -7.5969626    854.32391  0.016224626  0.014998739          537 
 4389000   0.53907373   -7.5960099    856.03108  0.016253343  0.014993942          623 
 4390000   0.55163695   -7.5999206    855.71636  0.016243667  0.014989154          596 
 4391000   0.53991962   -7.6087615     855.2118  0.016230392  0.014984365          525 
 4392000   0.54905806   -7.5938528    855.82386  0.016238309  0.014979573          561 
 4393000   0.56249211    -7.598609    855.96339   0.01623726  0.014974791          552 
 4394000   0.55452348   -7.5912041    854.58026  0.016207333  0.014970006          543 
 4395000   0.54339221   -7.5943488    854.80482  0.016207903  0.014965221          531 
 4396000   0.53747498    -7.595907    857.29289  0.016251382  0.014960433          557 
 4397000   0.54488883    -7.601319      856.235  0.016227636  0.014955647          638 
 4398000     0.538678   -7.6035458    856.47603  0.016228514  0.014950865          614 
 4399000   0.53387636   -7.6049275    855.40644  0.016204562  0.014946084          591 
 4400000   0.55998185   -7.6143622    857.54482  0.016241379  0.014941308          568 
 4401000   0.55559369   -7.5913175    855.45041  0.016198031   0.01493653          549 
 4402000   0.55473714    -7.602503    855.51788  0.016195629  0.014931759          620 
 4403000   0.53995532   -7.6065547    857.04968  0.016220942  0.014926985          574 
 4404000   0.54029881   -7.6018721    855.88236   0.01619517  0.014922212          566 
 4405000   0.54600392   -7.6014381     856.5828  0.016204745   0.01491744          553 
 4406000   0.54225305   -7.6073835    857.02697  0.016209468  0.014912674          646 
 4407000   0.56236831   -7.6073759    856.50951  0.016196005  0.014907902          592 
 4408000   0.54619058   -7.5989562    856.93311  0.016200339  0.014903131          588 
 4409000   0.54329357   -7.5986834    855.53042  0.016170152  0.014898366          670 
 4410000   0.54545345   -7.5942118    855.55416  0.016166934  0.014893596          631 
 4411000   0.54166033   -7.6104286    855.19706  0.016156523  0.014888823          568 
 4412000   0.54958066   -7.6111297    856.12556  0.016170398  0.014884055          586 
 4413000   0.54518866   -7.6122045    856.76662  0.016178839  0.014879287          583 
 4414000   0.53721081   -7.6031361    854.28984  0.016128414  0.014874519          556 
 4415000   0.54479716   -7.6123213     856.1776  0.016160393  0.014869763          598 
 4416000   0.53060422   -7.6020156    855.12335  0.016136839  0.014865006          635 
 4417000   0.56605646   -7.6102092      855.626  0.016142669  0.014860248          576 
 4418000   0.54186246   -7.6013846    855.80502  0.016142391  0.014855491          588 
 4419000   0.54927845    -7.595137    856.13342  0.016144931  0.014850736          649 
 4420000   0.53394111   -7.5999298    854.85515  0.016117178  0.014845989          613 
 4421000   0.54885907   -7.5993884    855.39891  0.016123783  0.014841241          629 
 4422000   0.55051865    -7.620723     855.5423  0.016122838  0.014836495          596 
 4423000   0.53903163   -7.6149488    855.75238  0.016123151  0.014831751          569 
 4424000   0.53903906   -7.6105903     856.1966  0.016127874  0.014827006          645 
 4425000   0.54737161   -7.5904657    855.27255  0.016106828  0.014822264          594 
 4426000   0.54983198   -7.6073355    854.87098  0.016095628  0.014817525          672 
 4427000   0.54365303   -7.6186529    855.29174  0.016099912  0.014812785          571 
 4428000   0.54714273   -7.6104969    856.43145  0.016117725  0.014808051          557 
 4429000   0.54886305   -7.6229812    855.74026  0.016101081  0.014803321          569 
 4430000   0.55163645   -7.6101481    856.87715  0.016118833  0.014798588          577 
 4431000    0.5422716   -7.6347821    856.62398  0.016110434  0.014793859          644 
 4432000   0.54600499   -7.5947143    855.66156  0.016088703  0.014789131          590 
 4433000   0.54733886   -7.6077026    854.01752  0.016054168  0.014784403          580 
 4434000   0.53704978   -7.6272714    854.33722  0.016056556  0.014779673          608 
 4435000   0.55120007    -7.613917    855.96176   0.01608346  0.014774948          598 
 4436000   0.53952021   -7.5951796     856.1898  0.016084119  0.014770227          640 
 4437000   0.54995721   -7.6242244    856.59521  0.016088108  0.014765507          605 
 4438000    0.5314571   -7.6292698    855.28681  0.016059915  0.014760788          621 
 4439000   0.53180173   -7.6349116    855.67127  0.016063514  0.014756069          578 
 4440000   0.54277101   -7.6298089    855.65022  0.016059501  0.014751349          547 
 4441000   0.54361238   -7.6198684    856.83833  0.016078179  0.014746636          650 
 4442000   0.53258578   -7.5996469    856.01727  0.016059156  0.014741922          570 
 4443000   0.54621031   -7.6305063    855.67304  0.016049086  0.014737209          635 
 4444000   0.54748071   -7.6180562    856.34892  0.016058148  0.014732499          668 
 4445000   0.53402519    -7.607836    856.14492  0.016050711  0.014727787          633 
 4446000   0.54552302   -7.5968302    855.53246  0.016035621   0.01472308          590 
 4447000   0.54872451   -7.6248141    856.44842   0.01604918  0.014718385          607 
 4448000   0.54134222   -7.6228493    855.67878  0.016031152  0.014713683          632 
 4449000   0.53618948   -7.6265681    856.25844  0.016038406   0.01470898          610 
 4450000   0.53961947   -7.6284926    855.17997  0.016014606  0.014704279          583 
 4451000   0.55399529    -7.626602    855.01187  0.016007861  0.014699572          625 
 4452000   0.53842442   -7.6214702    854.62697  0.015997061  0.014694875          580 
 4453000   0.54096366   -7.6289106    855.56665  0.016011053  0.014690178          643 
 4454000   0.53619903   -7.6191117    855.59168  0.016007927  0.014685482          717 
 4455000   0.53144904   -7.6327124    854.92837  0.015991926   0.01468079          657 
 4456000    0.5335768   -7.6372751    855.32069  0.015995674  0.014676093          606 
 4457000   0.55087978   -7.6146619    855.13726  0.015988656  0.014671398          527 
 4458000   0.54225052   -7.6062442    856.85796  0.016017234  0.014666713          613 
 4459000   0.53690975   -7.6150014    855.26383   0.01598385  0.014662024          589 
 4460000   0.54337038    -7.620601    856.00737  0.015994159  0.014657343          590 
 4461000   0.54261788   -7.6302344    855.40678  0.015979354  0.014652662          527 
 4462000   0.53482579     -7.59904     856.0136  0.015987106  0.014647981          530 
 4463000   0.54473905   -7.6233651    857.09892  0.016003789  0.014643302          608 
 4464000   0.54337172   -7.6180531    856.68619  0.015992499  0.014638622          642 
 4465000   0.52200359   -7.6237839    854.99053   0.01595727  0.014633936          658 
 4466000   0.54144233   -7.6291882    855.38842  0.015961121  0.014629259          698 
 4467000   0.53003669   -7.6191374     855.5068  0.015959757  0.014624583          685 
 4468000   0.52419479   -7.6212984    856.02055  0.015965767  0.014619912          690 
 4469000   0.55172598   -7.6044194    855.79368  0.015957964  0.014615244          630 
 4470000   0.53757215   -7.6285839    853.84955   0.01591815  0.014610571          638 
 4471000   0.53618282   -7.6114833    855.37105  0.015942948  0.014605903          628 
 4472000   0.54037083   -7.6134024    855.80763  0.015947519  0.014601235          674 
 4473000   0.53459305    -7.624645    855.38298  0.015936042  0.014596571          649 
 4474000   0.54130702   -7.6242044    854.74572   0.01592061  0.014591904          606 
 4475000   0.53750246   -7.6283026    853.94163  0.015902079  0.014587239          565 
 4476000   0.53410965   -7.6216366    855.16396  0.015921283  0.014582576          617 
 4477000   0.52853613   -7.6413693    853.39285   0.01588476  0.014577914          593 
 4478000   0.52890448   -7.6464772    855.53098  0.015921002  0.014573251          612 
 4479000   0.52596003    -7.646703     854.5283  0.015898792  0.014568591          606 
 4480000   0.54928405   -7.6407489    856.36864  0.015929476  0.014563934          712 
 4481000   0.53971794   -7.6131411    855.33016  0.015906609   0.01455928          626 
 4482000   0.53059972   -7.6377206    855.88866  0.015913444  0.014554631          659 
 4483000   0.52218577   -7.6398874    854.87008   0.01589096  0.014549979          667 
 4484000   0.54524489   -7.6215781    855.44152  0.015898036  0.014545331          645 
 4485000   0.54193315   -7.6180008    853.54413  0.015859237  0.014540683          596 
 4486000   0.53654021   -7.6398673    854.22967  0.015868436  0.014536039          648 
 4487000   0.53283942   -7.6123455    855.90612  0.015896035  0.014531397          661 
 4488000   0.51897762   -7.6309181    855.42955  0.015883644  0.014526757          562 
 4489000   0.53368089   -7.6341396    856.34603  0.015897119  0.014522123          714 
 4490000   0.53408246   -7.6256236    856.33516  0.015893377  0.014517492          648 
 4491000   0.53163541   -7.6281862    855.01561  0.015865353  0.014512864          615 
 4492000    0.5461808   -7.6273407    855.80433  0.015876453  0.014508239          564 
 4493000   0.53389348   -7.6368179    853.31877  0.015826819  0.014503609          639 
 4494000   0.53379389   -7.6072708     855.5962  0.015865528  0.014498987          633 
 4495000   0.52472514    -7.606881    854.38525  0.015839549  0.014494359          619 
 4496000   0.53544666   -7.6280733    856.19139  0.015869502  0.014489738          660 
 4497000   0.52144667   -7.6326914      855.374  0.015850827  0.014485117          709 
 4498000   0.52536951   -7.6175676     855.9214  0.015857444  0.014480499          576 
 4499000   0.53462813   -7.6379162    856.15697  0.015858283   0.01447588          677 
 4500000   0.53633858   -7.6319083    854.75053  0.015828714  0.014471264          732 
 4501000   0.53842885   -7.6350418    854.50292  0.015820612  0.014466645          620 
 4502000   0.53947103   -7.6330806    854.95584  0.015825482  0.014462034          660 
 4503000   0.53039234   -7.6430772    855.21204  0.015826709  0.014457425          647 
 4504000   0.52578448   -7.6427552    856.14674  0.015840489  0.014452813          646 
 4505000   0.52640239   -7.6395649      854.586  0.015808102  0.014448206          695 
 4506000   0.53523094   -7.6304726    855.44309  0.015820445  0.014443603          590 
 4507000   0.54611655   -7.6192377    854.58551  0.015801078  0.014439004          601 
 4508000   0.53494297   -7.6148875    856.10441  0.015825651  0.014434407          624 
 4509000   0.52610803   -7.6215459    856.59228  0.015831158  0.014429806          551 
 4510000   0.53104953   -7.6120476    855.81958   0.01581337  0.014425207          617 
 4511000   0.51928538    -7.606798    855.25962   0.01579952  0.014420609          588 
 4512000   0.53017021    -7.619717    853.38505  0.015761396  0.014416013          679 
 4513000   0.53455003   -7.6225817    855.42804  0.015795628  0.014411417          661 
 4514000   0.52270354   -7.6344736    853.96526  0.015765124  0.014406821          651 
 4515000   0.52197785   -7.6226391    854.33623   0.01576848  0.014402225          647 
 4516000    0.5370796   -7.6498662    855.00313  0.015777294  0.014397634          662 
 4517000   0.52810106   -7.6201401    854.66621  0.015767586  0.014393046          655 
 4518000   0.52934598   -7.6301427    854.47026  0.015760481   0.01438845          592 
 4519000   0.52741526   -7.6374615    855.20035  0.015770457  0.014383865          614 
 4520000   0.53632414   -7.6372897    853.59231  0.015737321   0.01437928          516 
 4521000   0.53122157    -7.616716    856.42419  0.015786039  0.014374697          560 
 4522000   0.52883981   -7.6347032    855.21925  0.015760343  0.014370123          531 
 4523000   0.52747013    -7.636996    855.63138  0.015764452  0.014365551          639 
 4524000   0.53351757   -7.6281425    853.74313  0.015726185  0.014360976          606 
 4525000   0.52416309   -7.6469145    854.07664  0.015728852  0.014356404          573 
 4526000   0.53179709   -7.6158191    855.29855  0.015747874  0.014351834          591 
 4527000    0.5288434   -7.6399938    855.02039  0.015739275   0.01434727          594 
 4528000   0.52531024   -7.6422326    855.49806   0.01574459  0.014342702          595 
 4529000   0.52839086   -7.6290838    856.54947   0.01576046  0.014338133          572 
 4530000   0.51823166   -7.6493438    854.37911  0.015717055  0.014333571          618 
 4531000   0.52764816   -7.6263983    854.37393  0.015713491  0.014329004          534 
 4532000   0.53465249   -7.6418908    853.88426   0.01570102  0.014324443          512 
 4533000   0.52359955   -7.6404511    855.44334  0.015726218  0.014319881          571 
 4534000   0.51486343   -7.6351024    855.44127  0.015722711  0.014315322          599 
 4535000   0.52749755   -7.6303975    855.55977  0.015721422  0.014310765          618 
 4536000   0.52339225    -7.646748    854.78228  0.015703672  0.014306207          539 
 4537000   0.53380991   -7.6463156    855.59894  0.015715211  0.014301645          576 
 4538000   0.53162875   -7.6373137    855.74231  0.015714381  0.014297088          580 
 4539000   0.52876477   -7.6360136    855.39788  0.015704595  0.014292533          625 
 4540000   0.52521557   -7.6458088    857.09558  0.015732298  0.014287979          648 
 4541000    0.5253345   -7.6339524    855.02156  0.015690772  0.014283427          568 
 4542000   0.52479682   -7.6373547    855.65282    0.0156989  0.014278879          588 
 4543000   0.52462178   -7.6452039    854.58827  0.015675917   0.01427433          543 
 4544000   0.51466716   -7.6439198    854.80598  0.015676459  0.014269785          520 
 4545000   0.52652227   -7.6469949    853.69684  0.015652674   0.01426524          581 
 4546000   0.53102166    -7.663255     852.9308  0.015635188  0.014260693          533 
 4547000   0.52920904   -7.6376055    855.42181  0.015677403   0.01425615          593 
 4548000   0.51911013   -7.6486284    855.97114  0.015684021  0.014251607          587 
 4549000   0.52991226   -7.6398019    854.30676  0.015650084  0.014247068          586 
 4550000   0.52651631      -7.6368    853.67816  0.015635131  0.014242532          518 
 4551000   0.51277141   -7.6506932    855.77932   0.01567017  0.014237995          658 
 4552000   0.53714561   -7.6399707    854.54428  0.015644118  0.014233461          686 
 4553000   0.52372018   -7.6373077    855.09434  0.015650749  0.014228926          599 
 4554000    0.5300568   -7.6349826    855.21974  0.015649607  0.014224396          602 
 4555000    0.5168607   -7.6486266    853.65909   0.01561762  0.014219869          613 
 4556000   0.51077011   -7.6463585    855.78893  0.015653148  0.014215344          683 
 4557000   0.51829755   -7.6578749     854.4481  0.015625194  0.014210817          585 
 4558000   0.52549148   -7.6414311    854.23098  0.015617796  0.014206291          585 
 4559000   0.53107863   -7.6361591    854.49268  0.015619154  0.014201763          543 
 4560000   0.51226119   -7.6466052     854.9675  0.015624406  0.014197242          655 
 4561000   0.51871696   -7.6509756    854.31021  0.015608971  0.014192721          569 
 4562000   0.52504496   -7.6455861    852.86736  0.015579193  0.014188197          614 
 4563000   0.52316234   -7.6392395    855.23169  0.015618958  0.014183674          619 
 4564000   0.52772346   -7.6388273    855.78745  0.015625684  0.014179156          606 
 4565000   0.52288656   -7.6540393    855.09008  0.015609531  0.014174641          647 
 4566000   0.52835235   -7.6333301    852.80693  0.015564442  0.014170124          656 
 4567000   0.51001023   -7.6451551    853.47079  0.015573148  0.014165611          585 
 4568000   0.51917281   -7.6579735    854.10343   0.01558128  0.014161096          670 
 4569000   0.51908611   -7.6640845    855.22608  0.015598345   0.01415659          647 
 4570000   0.51873858   -7.6509013    854.76511  0.015586526  0.014152083          661 
 4571000   0.51435397    -7.662152    854.70232  0.015581972  0.014147578          645 
 4572000   0.51597857   -7.6460612    854.36889  0.015572486  0.014143073          685 
 4573000   0.51914507   -7.6363308    856.09272  0.015600494   0.01413857          622 
 4574000   0.51547308   -7.6297052    854.14974  0.015561685  0.014134066          639 
 4575000    0.5272502   -7.6530373    852.16089  0.015522056  0.014129563          659 
 4576000   0.51621191   -7.6551287    854.00886  0.015552318  0.014125065          632 
 4577000   0.51363151   -7.6239786    853.63669  0.015542144  0.014120567          668 
 4578000   0.51890501   -7.6352715    853.86836  0.015542966  0.014116074          640 
 4579000   0.51360294    -7.657649    855.02227  0.015560571  0.014111578          639 
 4580000    0.5225534   -7.6549025    855.57707  0.015567268  0.014107086          597 
 4581000   0.51808698   -7.6209811    854.50107  0.015544297  0.014102593          734 
 4582000   0.51681693   -7.6585465    854.01639  0.015532089  0.014098103          655 
 4583000   0.51908836   -7.6373075     854.1107  0.015530415  0.014093613          690 
 4584000   0.50840015   -7.6430759     853.6581  0.015518799  0.014089126          689 
 4585000   0.52426582   -7.6558428    854.18929  0.015525069   0.01408464          613 
 4586000   0.52354733    -7.681037    854.66634  0.015530352  0.014080157          674 
 4587000   0.50917191   -7.6470448    854.67407  0.015527107  0.014075675          678 
 4588000   0.51364095   -7.6522599    855.35599  0.015536108  0.014071196          651 
 4589000   0.51111664   -7.6458752       854.32   0.01551391   0.01406672          653 
 4590000   0.52256987   -7.6490041    855.19161  0.015526355  0.014062242          622 
 4591000   0.52125132   -7.6301154    854.15177  0.015504098  0.014057772          640 
 4592000   0.51294734   -7.6351819    853.78581   0.01549408  0.014053302          649 
 4593000   0.51654948   -7.6590446    854.77936  0.015508734  0.014048832          714 
 4594000   0.51652686   -7.6418261    854.06945   0.01549248  0.014044364          616 
 4595000   0.51213153   -7.6464607    854.37784  0.015494702  0.014039893          700 
 4596000   0.52126741   -7.6514465    853.22528  0.015470432  0.014035427          688 
 4597000   0.50844047   -7.6342374    852.44938  0.015453002  0.014030966          626 
 4598000     0.505539   -7.6364101    854.12329  0.015479978  0.014026502          655 
 4599000   0.52503593   -7.6550092    855.45822  0.015500801  0.014022041          563 
 4600000   0.51932063   -7.6424391    854.36064  0.015477548  0.014017587          662 
 4601000   0.50875721   -7.6678611    851.94873  0.015430499  0.014013129          641 
 4602000   0.51752444   -7.6475857    854.34955  0.015470621  0.014008669          696 
 4603000    0.5121239   -7.6710787    853.05444  0.015443813  0.014004212          715 
 4604000   0.52077243   -7.6628391    853.89644  0.015455699  0.013999752          699 
 4605000    0.5160704   -7.6560946    854.56936   0.01546452    0.0139953          693 
 4606000   0.50658368   -7.6540503    854.37016  0.015457558  0.013990851          670 
 4607000   0.50657791   -7.6680415    854.38023  0.015454385  0.013986403          666 
 4608000   0.53742248   -7.6477436    855.09956   0.01546404  0.013981954          651 
 4609000   0.53799906     -7.64838    854.05323  0.015441767  0.013977507          687 
 4610000   0.51728018   -7.6621551    853.56552  0.015429601  0.013973057          636 
 4611000   0.50958638   -7.6569766    853.54813   0.01542594  0.013968612          584 
 4612000   0.52450124   -7.6715552    852.77783  0.015408677  0.013964167          716 
 4613000   0.52324423   -7.6571473    853.33372  0.015415379  0.013959725          684 
 4614000   0.52187545   -7.6696069     852.8159  0.015402686  0.013955286          729 
 4615000   0.52485115   -7.6590762    853.70973  0.015415488  0.013950848          571 
 4616000   0.51217761   -7.6640442    853.97934  0.015417016  0.013946411          611 
 4617000    0.5023546   -7.6693441    853.38711  0.015402987  0.013941977          715 
 4618000   0.52054588   -7.6651023    854.93545  0.015427592  0.013937545          692 
 4619000   0.51053108   -7.6678785    851.77558  0.015367244  0.013933109          717 
 4620000   0.52136038   -7.6629725    852.79239  0.015382258  0.013928673          549 
 4621000   0.51686773   -7.6547454    853.66483  0.015394663   0.01392424          666 
 4622000   0.51789088   -7.6558527    852.42224  0.015368928  0.013919812          552 
 4623000   0.50223871   -7.6825429    853.98452  0.015393765  0.013915379          614 
 4624000   0.50827438   -7.6960536    854.74537  0.015404148  0.013910949          604 
 4625000   0.51635783   -7.6656002    854.56347   0.01539754  0.013906522          608 
 4626000   0.50099051   -7.6501811    853.96364  0.015383406  0.013902095          653 
 4627000   0.52827951   -7.6746107    853.92669  0.015379416  0.013897673          639 
 4628000   0.51594184   -7.6688363    855.22115  0.015399401  0.013893247          648 
 4629000   0.50925537   -7.6421246    853.65688  0.015367914  0.013888829          677 
 4630000   0.50536685   -7.6507632    854.30757  0.015376306  0.013884415          686 
 4631000   0.50652117   -7.6791716    853.56013  0.015359536  0.013879998          681 
 4632000   0.52609596   -7.6674192    853.07134  0.015347426  0.013875583          631 
 4633000   0.51477143   -7.6641327    853.69267  0.015355289  0.013871166          609 
 4634000   0.51106175   -7.6564423    854.46808   0.01536592  0.013866752          643 
 4635000   0.51387003    -7.660801    853.25456  0.015340787  0.013862344          653 
 4636000   0.51699186   -7.6632052    853.98372  0.015350584  0.013857933          606 
 4637000   0.52214247   -7.6490178    853.39209  0.015336642  0.013853523          634 
 4638000   0.49507153   -7.6723221    853.27535  0.015331237  0.013849115          636 
 4639000   0.51588957   -7.6753865    852.51811   0.01531433  0.013844711          688 
 4640000   0.50747142   -7.6676523    854.14092  0.015340174  0.013840309          574 
 4641000   0.50414968   -7.6624029    853.95792  0.015333583  0.013835905          710 
 4642000   0.51577287   -7.6513279    855.07433  0.015350322  0.013831506          634 
 4643000   0.50463679   -7.6693302    853.56631   0.01531995  0.013827109          721 
 4644000   0.50871187   -7.6642861    853.68801  0.015318835  0.013822713          713 
 4645000   0.51446001   -7.6584372    851.78579   0.01528141   0.01381832          671 
 4646000   0.51185986   -7.6672815    852.48496  0.015290661  0.013813926          647 
 4647000   0.50858804   -7.6724651    852.55214  0.015288576  0.013809536          655 
 4648000   0.51778296   -7.6759281    853.73813   0.01530655  0.013805143          593 
 4649000   0.50035392   -7.6643851    852.38143  0.015278939  0.013800754          686 
 4650000   0.49860068   -7.6603433    854.77256  0.015318505   0.01379637          692 
 4651000   0.49954454   -7.6985123    854.35045  0.015307648  0.013791987          722 
 4652000   0.51416663   -7.6575737    852.95492  0.015279359  0.013787606          644 
 4653000   0.50018467   -7.6660647    853.76273  0.015290542  0.013783225          735 
 4654000    0.5044941   -7.6578526    852.76108  0.015269322  0.013778849          629 
 4655000   0.50496447   -7.6717069     852.8689  0.015267972  0.013774468          741 
 4656000   0.51009444   -7.6591959    853.12561  0.015269287  0.013770095          699 
 4657000   0.49826177   -7.6767231    854.17215  0.015284735   0.01376572          718 
 4658000   0.51045023   -7.6614147     854.6587  0.015290158  0.013761351          729 
 4659000   0.49863366   -7.6762673    852.36908  0.015245923  0.013756979          729 
 4660000   0.50101275   -7.6848411    853.74338  0.015267228  0.013752609          703 
 4661000   0.49642485   -7.6879361    854.34402  0.015274691  0.013748244          714 
 4662000   0.49971838    -7.672536     853.0434  0.015248166  0.013743877          709 
 4663000   0.51261782   -7.6846677    853.81922  0.015258761   0.01373951          675 
 4664000   0.51054271   -7.6784197     853.2991  0.015246196  0.013735143          723 
 4665000   0.50381997   -7.6840657    852.59105  0.015230279  0.013730784          732 
 4666000   0.50280888   -7.6837439    852.64351  0.015227952  0.013726424          673 
 4667000   0.50291429   -7.6696705    851.34895  0.015201574  0.013722065          745 
 4668000   0.51792008   -7.6768155    853.34823  0.015234009  0.013717709          655 
 4669000   0.50019454   -7.6781401    853.21924  0.015228444  0.013713358          743 
 4670000   0.50179381   -7.6833943    853.24927  0.015225719  0.013709002          724 
 4671000   0.49350641    -7.674727    853.63054  0.015229261  0.013704649          650 
 4672000   0.50525944    -7.688154    853.49477   0.01522358  0.013700298          727 
 4673000   0.50067976   -7.6797414    852.87563  0.015209281  0.013695954          780 
 4674000   0.50258552   -7.6824685    852.69474  0.015202802  0.013691608          752 
 4675000   0.50887447    -7.663367    853.94138  0.015221772  0.013687263          752 
 4676000   0.50701895   -7.6631755    851.66713  0.015177986  0.013682925          751 
 4677000   0.48901229    -7.673115    852.14242  0.015183209  0.013678581          764 
 4678000   0.50978824   -7.6850266    853.92248  0.015211673  0.013674241          685 
 4679000   0.51131187   -7.6875864    854.35378  0.015216103  0.013669904          771 
 4680000   0.51164659   -7.6768552    852.91117  0.015187165   0.01366557          694 
 4681000   0.49587799   -7.6621431    853.83552  0.015200376  0.013661235          681 
 4682000   0.49562075   -7.6715813    852.82133  0.015179078    0.0136569          781 
 4683000    0.5085002   -7.6808366     852.9797  0.015178655  0.013652567          647 
 4684000   0.49170228   -7.6712303    854.23392  0.015197728  0.013648237          668 
 4685000   0.50230967   -7.6597969    853.25624  0.015177094  0.013643911          742 
 4686000   0.51846085    -7.679257    853.73907  0.015182442  0.013639587          757 
 4687000    0.5108381   -7.6798492    852.56587  0.015158343  0.013635262          720 
 4688000   0.50529174   -7.6737254    852.79908  0.015159256  0.013630941          772 
 4689000   0.49998506   -7.6871502    853.42383  0.015167126  0.013626616          718 
 4690000   0.50897621   -7.6678282    852.31215  0.015144139  0.013622299          709 
 4691000   0.50965483   -7.6745485    853.42633  0.015160704  0.013617981          739 
 4692000   0.49477504   -7.6614088    852.35834  0.015138504  0.013613665          733 
 4693000   0.51084012   -7.6715841    852.90928  0.015145062  0.013609351          649 
 4694000    0.4947763   -7.6864897    853.05724  0.015144462  0.013605039          597 
 4695000   0.50537131    -7.680801    852.84663  0.015137498  0.013600731          657 
 4696000   0.48595415   -7.6850964    852.82482  0.015133887  0.013596417          739 
 4697000   0.49880968   -7.6711239    853.32582  0.015139554  0.013592112          795 
 4698000   0.49522561   -7.6879211    853.09239  0.015132191  0.013587807          680 
 4699000   0.49899673   -7.6779679    853.04077  0.015128055  0.013583504          749 
 4700000   0.49960634   -7.6538339    852.20238  0.015109971  0.013579198          596 
 4701000   0.50490759   -7.6697317    852.09242  0.015104808  0.013574893          687 
 4702000   0.49564245    -7.679713    852.74912  0.015113234  0.013570594          704 
 4703000   0.49177723   -7.6761562    853.25228  0.015118936  0.013566289          708 
 4704000   0.50224403   -7.6682102    853.63548  0.015122511  0.013561988          754 
 4705000   0.50217401   -7.6931345    852.73991  0.015103434  0.013557689          761 
 4706000   0.49438293   -7.6827793    852.35607  0.015093428  0.013553387          651 
 4707000   0.49707919   -7.6671435     853.8832  0.015117258  0.013549092          717 
 4708000   0.50057376   -7.6695387    853.05115  0.015099319  0.013544795          662 
 4709000   0.49714989   -7.6733724    852.10996  0.015079457    0.0135405          690 
 4710000   0.50622751   -7.6925424     853.0015  0.015092029  0.013536209          679 
 4711000   0.50221522   -7.6732053    852.48242  0.015079644  0.013531917          660 
 4712000   0.49774241   -7.6879482    852.47957  0.015076393  0.013527632          683 
 4713000   0.50431664   -7.6880823    853.87616  0.015097888  0.013523345          716 
 4714000   0.50078769   -7.6745855     854.2613  0.015101494  0.013519057          722 
 4715000   0.49503634   -7.6823759    851.97612  0.015057902   0.01351477          692 
 4716000   0.50919176   -7.6904156    852.63119  0.015066285  0.013510484          749 
 4717000   0.50166718   -7.6747418    852.91334  0.015068075  0.013506205          713 
 4718000   0.49803926   -7.6892194    852.82235  0.015063275  0.013501926          635 
 4719000   0.48758939   -7.6804871     850.8942  0.015026033  0.013497645          659 
 4720000   0.49820018   -7.6731768    852.60874   0.01505312  0.013493368          697 
 4721000   0.49419461   -7.6884321    853.28395   0.01506185  0.013489095          686 
 4722000   0.48501608   -7.7014245    853.11247  0.015055634  0.013484818          732 
 4723000   0.49153863   -7.6788261    853.24632  0.015054808  0.013480548          744 
 4724000   0.50136713   -7.6896126    852.01987  0.015029986  0.013476279          651 
 4725000   0.49091123   -7.6930888     851.6643  0.015020534  0.013472011          700 
 4726000   0.49865042   -7.6838056    853.59442   0.01505139  0.013467743          737 
 4727000    0.5010289   -7.6861531    853.63932  0.015048997  0.013463478          756 
 4728000   0.50771693   -7.6922913    853.20437  0.015038148  0.013459213          695 
 4729000   0.48492949   -7.6873185    852.05558  0.015014724  0.013454947          658 
 4730000   0.49110837    -7.679106    853.35206  0.015034391  0.013450687          687 
 4731000   0.49099646   -7.6867378    851.67555  0.015001683  0.013446429          633 
 4732000   0.49134261   -7.6723884    851.64127  0.014997909  0.013442175          746 
 4733000   0.49333957   -7.6970892    852.49069  0.015009696  0.013437917          719 
 4734000   0.48421476   -7.6891995    854.10247  0.015034898  0.013433667          707 
 4735000   0.48153351   -7.6970723    852.20669  0.014998358  0.013429416          724 
 4736000    0.5043635   -7.6765509    853.08509  0.015010647  0.013425165          746 
 4737000    0.4925176    -7.692596    853.05875  0.015007015  0.013420915          722 
 4738000   0.49691504   -7.6740887    852.33476  0.014991114  0.013416666          695 
 4739000     0.498478    -7.703056    853.93413  0.015016075  0.013412419          733 
 4740000   0.49718809   -7.7058208    852.19519  0.014982335  0.013408175          686 
 4741000   0.49596586   -7.6760923    852.51662  0.014984824  0.013403937          703 
 4742000     0.507758   -7.6862989     852.3476  0.014978694  0.013399695          724 
 4743000   0.49760731   -7.6812693    851.67126  0.014963653   0.01339545          743 
 4744000   0.49527202   -7.6938525    851.63818  0.014959918  0.013391211          721 
 4745000   0.49135102   -7.6926245    852.34363  0.014969154  0.013386972          701 
 4746000   0.49596082   -7.6943227    852.93332  0.014976354  0.013382735          723 
 4747000   0.49218993   -7.6977247    851.70739  0.014951678  0.013378499          674 
 4748000   0.49266253   -7.7031472    852.34913  0.014959792  0.013374267          765 
 4749000   0.48436389   -7.6974416    851.48195  0.014941425  0.013370029          745 
 4750000   0.48869205   -7.6972322    853.23484  0.014969032  0.013365798          706 
 4751000   0.47983611   -7.6849415    850.81753  0.014923481  0.013361568          750 
 4752000    0.4971796   -7.6777055     851.6627  0.014935162   0.01335734          732 
 4753000   0.49545261   -7.6921571    852.28405  0.014942914  0.013353114          726 
 4754000   0.48628886   -7.6960717    853.06774  0.014953508   0.01334889          758 
 4755000   0.49531622    -7.692272    852.09995  0.014933403  0.013344667          635 
 4756000    0.4932078   -7.7007676    851.54049   0.01492046  0.013340444          691 
 4757000   0.49583391   -7.6847916    850.91155  0.014906306  0.013336224          727 
 4758000   0.49764732   -7.6818216    851.31906   0.01491031  0.013332005          769 
 4759000   0.47603077   -7.7015968     852.3259  0.014924807  0.013327787          754 
 4760000   0.49188694   -7.6977428    850.63396  0.014892051  0.013323571          823 
 4761000   0.49207596   -7.6903502    851.52038  0.014904439  0.013319361          718 
 4762000   0.48289424   -7.6923538    852.21504  0.014913465   0.01331515          744 
 4763000   0.48681517   -7.7024176    852.27398  0.014911365   0.01331094          750 
 4764000   0.49058014   -7.6901089    851.93486  0.014902303  0.013306732          749 
 4765000   0.48193757    -7.705124    852.59902  0.014910791  0.013302525          708 
 4766000   0.48311322   -7.6791141    851.92634    0.0148959   0.01329832          704 
 4767000   0.48627394   -7.6849191    852.48855  0.014902604  0.013294115          717 
 4768000   0.48507444   -7.7102931    851.81525  0.014887711  0.013289914          741 
 4769000   0.49773448   -7.7054121     851.7426  0.014883319  0.013285713          773 
 4770000   0.48705428   -7.7022578    853.02635  0.014902627  0.013281512          750 
 4771000   0.48993796     -7.68911    851.51921  0.014873178  0.013277312          733 
 4772000   0.48241986   -7.6943391    851.47624  0.014869311  0.013273116          749 
 4773000   0.50096862   -7.7104487    851.75388  0.014871043  0.013268921          668 
 4774000   0.48868681   -7.7032932    852.70509  0.014884532  0.013264729          739 
 4775000   0.48741669    -7.699104    852.45264  0.014877009  0.013260543          723 
 4776000    0.4920191   -7.7037697    851.85871  0.014863531  0.013256354          717 
 4777000   0.49832882   -7.6991514    850.66706  0.014839632  0.013252166          726 
 4778000   0.48777865   -7.6805611    852.25714  0.014864259  0.013247982          723 
 4779000   0.48217518   -7.6829503    851.68433   0.01485116  0.013243802          712 
 4780000   0.50259018   -7.6921438    850.79696  0.014832583  0.013239617          747 
 4781000   0.49537338   -7.7069581    851.61525  0.014843743  0.013235432          752 
 4782000   0.48708069   -7.6903236     852.5653  0.014857195   0.01323125          760 
 4783000    0.4835059   -7.6891843    851.25272   0.01483122  0.013227072          744 
 4784000   0.48384483   -7.6981369    853.05135  0.014859451  0.013222893          824 
 4785000   0.49501613    -7.702564    851.87995  0.014835945  0.013218718          705 
 4786000   0.48135325   -7.7164443    852.08943  0.014836492  0.013214543          711 
 4787000   0.49668694   -7.7069627    851.40603  0.014821496  0.013210367          758 
 4788000   0.49417124   -7.7105916     851.5102  0.014820214  0.013206196          769 
 4789000   0.48593804   -7.7034474    850.78472  0.014804495  0.013202024          709 
 4790000    0.4867399   -7.7082913    852.33547  0.014828383  0.013197853          706 
 4791000   0.49244444   -7.6866653    852.04504  0.014820237  0.013193685          743 
 4792000   0.48275723   -7.7070657    852.18331  0.014819548  0.013189519          764 
 4793000   0.47781009   -7.7075763    850.66291  0.014790022  0.013185352          743 
 4794000   0.48083814   -7.6899451    852.10425  0.014811992  0.013181185          602 
 4795000   0.47157906   -7.7218862    853.04734  0.014825293  0.013177022          692 
 4796000   0.48288376   -7.7135353    851.87656  0.014801859  0.013172859          774 
 4797000   0.49922403   -7.6943691    851.86384  0.014798552  0.013168702          738 
 4798000   0.49025395   -7.6896798    850.41747  0.014770347  0.013164544          724 
 4799000   0.47931227   -7.7027641    850.81473  0.014774167  0.013160384          816 
 4800000   0.48532758   -7.6882071    852.22892  0.014795641  0.013156233          763 
 4801000   0.48698394   -7.6978437    851.06979   0.01477244  0.013152083          767 
 4802000   0.47436256   -7.6990282      851.499  0.014776812  0.013147933          768 
 4803000   0.48669735   -7.7053764    851.96087  0.014781749  0.013143785          769 
 4804000   0.47133331   -7.7078008    851.15374  0.014764671  0.013139635          822 
 4805000   0.49084718   -7.7042743    851.97954   0.01477592  0.013135487          752 
 4806000   0.48449496   -7.7115358    851.68295  0.014767703  0.013131345          787 
 4807000   0.47217942   -7.7118971    850.29098    0.0147405  0.013127201          768 
 4808000   0.49032973   -7.7212122    852.26505  0.014771649   0.01312306          806 
 4809000   0.47981497   -7.7076026    851.91466  0.014762505  0.013118921          809 
 4810000    0.4766127   -7.7133168    851.02586  0.014744038  0.013114784          757 
 4811000   0.48621889   -7.6941628    850.89594  0.014738723  0.013110652          792 
 4812000   0.48604479   -7.6949695    852.97259  0.014771623  0.013106521          735 
 4813000   0.47874204   -7.7071002    852.05418  0.014752652  0.013102389          802 
 4814000   0.47425607   -7.7061966    851.28874  0.014736337  0.013098258          779 
 4815000   0.47953329   -7.7277608    852.10136  0.014747341  0.013094128          777 
 4816000   0.48602051   -7.7076534    851.59069  0.014735442  0.013089997          785 
 4817000   0.46601049    -7.699477    851.69377  0.014734167  0.013085868          717 
 4818000   0.49319527   -7.7183832    851.29347  0.014724185  0.013081739          738 
 4819000   0.47165123   -7.7156885    850.78423  0.014712323  0.013077612          761 
 4820000   0.47091779   -7.6919149    851.29462  0.014718095  0.013073489          734 
 4821000   0.48449791   -7.7128182    852.02027  0.014727585  0.013069366          816 
 4822000   0.48102649   -7.7136966    851.03926  0.014707577  0.013065243          756 
 4823000   0.48594501   -7.7022806     851.6416  0.014714935  0.013061125          725 
 4824000   0.47354163   -7.7093571    852.84412  0.014732658  0.013057008          782 
 4825000   0.47713433   -7.7168715    851.91492  0.014713556   0.01305289          780 
 4826000   0.47491475   -7.7082053    849.52415  0.014669225  0.013048775          727 
 4827000   0.48233434   -7.7101925    851.04455  0.014692434  0.013044663          777 
 4828000   0.48083552   -7.7057186     851.5497   0.01469811   0.01304055          794 
 4829000   0.46854445   -7.6938143    850.85212  0.014683028   0.01303644          750 
 4830000   0.48503451    -7.720068    851.16369  0.014685364  0.013032326          808 
 4831000   0.46545857   -7.7224939    850.77293  0.014675584  0.013028214          788 
 4832000   0.48485756   -7.7149631     852.2975  0.014698839  0.013024102          801 
 4833000   0.47736311   -7.7023146    850.26951   0.01466083  0.013019993          791 
 4834000   0.47816276   -7.7261721    850.87924  0.014668309  0.013015889          835 
 4835000   0.47544382   -7.7050737    850.84176  0.014664629  0.013011782          817 
 4836000   0.47902161   -7.7258833     851.1361  0.014666668   0.01300768          785 
 4837000   0.48393523   -7.7164716     851.7411  0.014674059  0.013003574          788 
 4838000   0.47710103   -7.7102524    851.57589  0.014668181  0.012999471          731 
 4839000   0.48326993   -7.7298753    850.71039  0.014650244   0.01299537          860 
 4840000   0.48019569   -7.7171732    849.56417  0.014627482  0.012991273          803 
 4841000   0.47889638   -7.7146995    850.67945  0.014643659  0.012987174          810 
 4842000   0.48070994   -7.7194435    851.75702   0.01465918   0.01298308          756 
 4843000   0.47215644   -7.7283791    850.67307  0.014637502  0.012978984          795 
 4844000   0.47062858   -7.7106372    851.31127   0.01464546  0.012974891          834 
 4845000   0.46888911    -7.709216    850.68217  0.014631616  0.012970799          823 
 4846000   0.47702693   -7.7149866     850.1298  0.014619098  0.012966708          790 
 4847000   0.47359853   -7.7190086    850.37659  0.014620325  0.012962621          780 
 4848000   0.46457251   -7.7286675    851.53235  0.014637176  0.012958534          758 
 4849000    0.4724162   -7.7173214    851.60451  0.014635397  0.012954448          754 
 4850000   0.47524397   -7.7305847    850.98292    0.0146217  0.012950365          819 
 4851000   0.47732584   -7.7087136    851.82917  0.014633223  0.012946282          839 
 4852000   0.46898938   -7.7242309    851.40146  0.014622861  0.012942203          792 
 4853000   0.47689017   -7.7131508    851.15745  0.014615658  0.012938124          849 
 4854000     0.469035    -7.721139    850.79802  0.014606476  0.012934047          832 
 4855000   0.47786357   -7.7311806    850.83011  0.014604018   0.01292997          810 
 4856000   0.46185361   -7.7254871    850.29799  0.014591879  0.012925897          811 
 4857000   0.48000916    -7.738339    851.29839  0.014606039  0.012921824          788 
 4858000   0.46920802   -7.7154336    850.89925  0.014596186  0.012917755          812 
 4859000   0.48297656   -7.7193751    849.92236  0.014576428  0.012913688          826 
 4860000   0.48667793    -7.720881    850.51306  0.014583557   0.01290962          763 
 4861000   0.47129323   -7.7152076    850.90448  0.014587267  0.012905554          815 
 4862000   0.47904558   -7.7246412    849.67534    0.0145632   0.01290149          763 
 4863000   0.46877235   -7.7279341     851.1308  0.014585146  0.012897428          815 
 4864000   0.46345336   -7.7343515    850.85462  0.014577416  0.012893366          803 
 4865000   0.46753624   -7.7252221      851.453  0.014584669  0.012889305          701 
 4866000   0.47146167   -7.7224092    851.27141  0.014578562  0.012885246          769 
 4867000   0.47746264    -7.729747    851.73295  0.014583469  0.012881187          828 
 4868000   0.46639157   -7.7281514    851.21468  0.014571602  0.012877133          780 
 4869000    0.4790835   -7.7230135    849.99285  0.014547697  0.012873082          724 
 4870000   0.46831716   -7.7150253     851.0085  0.014562089  0.012869032          690 
 4871000    0.4714407   -7.7217639    850.94807  0.014558066  0.012864978          752 
 4872000   0.47936923   -7.7147624     850.0338   0.01453944  0.012860932          753 
 4873000    0.4582722   -7.7147892    850.12056   0.01453794  0.012856886          800 
 4874000   0.47025584   -7.7176457    851.53319  0.014559109  0.012852839          779 
 4875000   0.47625254   -7.7000542    849.69211  0.014524652  0.012848793          795 
 4876000   0.47268186   -7.7267798    850.49772  0.014535441  0.012844751          802 
 4877000    0.4665575   -7.7262139    850.30936  0.014529242  0.012840706          797 
 4878000   0.47054678   -7.7104671    850.00797  0.014521115  0.012836666          775 
 4879000   0.46870549   -7.7396832    850.03691  0.014518633  0.012832628          789 
 4880000   0.46631633   -7.7201722    850.12448  0.014517153  0.012828589          845 
 4881000   0.47898605    -7.720317    850.28101  0.014516851  0.012824557          855 
 4882000    0.4671624   -7.7209663    850.75282  0.014521931  0.012820526          728 
 4883000   0.47565041   -7.7350783    851.05307  0.014524081  0.012816495          809 
 4884000   0.48448185   -7.7100112    850.31303  0.014508481  0.012812466          762 
 4885000   0.47312169   -7.7227492    850.79701  0.014513767   0.01280844          804 
 4886000   0.47231171   -7.7169077    849.93237  0.014496049  0.012804417          804 
 4887000   0.46882783   -7.7207378    850.77938  0.014507526  0.012800396          735 
 4888000   0.48101153   -7.7334047    850.50197  0.014499829  0.012796372          748 
 4889000    0.4707478   -7.7246566    849.94003  0.014487285   0.01279235          770 
 4890000    0.4774567   -7.7394097    851.02295  0.014502777  0.012788332          816 
 4891000    0.4719369   -7.7257407    851.01506  0.014499677  0.012784314          819 
 4892000   0.47719505   -7.7336229    850.01066  0.014479604  0.012780298          722 
 4893000   0.46852141   -7.7172219    851.20353   0.01449696  0.012776288          783 
 4894000   0.46984403   -7.7126774    850.01203   0.01447371  0.012772277          799 
 4895000   0.47022851   -7.7325183    850.12881  0.014472741  0.012768262          789 
 4896000   0.46688682   -7.7254946    850.97159   0.01448413  0.012764252          774 
 4897000   0.46396938   -7.7176747    850.56082  0.014474182  0.012760242          834 
 4898000   0.46952131   -7.7117231    850.70338  0.014473652  0.012756236          839 
 4899000   0.46830105   -7.7541633     851.8823  0.014490752  0.012752232          819 
 4900000   0.46843887   -7.7226555    850.28411  0.014460614   0.01274823          801 
 4901000   0.46607964    -7.739743    849.70176  0.014447762  0.012744228          783 
 4902000   0.46742066   -7.7335333    850.93321  0.014465749  0.012740227          771 
 4903000   0.46551719   -7.7337907    850.23698  0.014450965  0.012736229          823 
 4904000   0.47213758   -7.7320341    851.04866  0.014461811  0.012732234          810 
 4905000    0.4742456   -7.7345847    850.33174  0.014446683  0.012728237          813 
 4906000   0.46792209   -7.7044363    849.42623  0.014428357  0.012724242          771 
 4907000   0.46648429    -7.728428    849.95638   0.01443442  0.012720249          764 
 4908000   0.46375566    -7.734191     849.5379  0.014424373  0.012716257          763 
 4909000   0.46630549   -7.7289215    851.40008  0.014453047  0.012712266          799 
 4910000   0.46857133   -7.7382788    851.10282  0.014445058  0.012708275          797 
 4911000   0.46941294   -7.7235841    850.75867  0.014436277  0.012704288          762 
 4912000   0.46261768   -7.7419098    851.34839  0.014443343  0.012700303          774 
 4913000   0.46657936   -7.7342503    850.50164   0.01442604  0.012696316          834 
 4914000   0.48033261   -7.7431203    848.89359  0.014395835  0.012692331          796 
 4915000   0.46882896   -7.7319214    849.56728  0.014404328  0.012688349          752 
 4916000   0.46282643   -7.7131475    849.82457   0.01440576  0.012684371          809 
 4917000   0.47113636     -7.71428    851.09814  0.014424414  0.012680394          870 
 4918000   0.46557441   -7.7365993    849.15998   0.01438864  0.012676414          786 
 4919000   0.45867358   -7.7361015    850.02192  0.014400317  0.012672435          814 
 4920000   0.46616201   -7.7365757    851.06295  0.014415023   0.01266846          860 
 4921000   0.46325014   -7.7447035    850.40237  0.014400907  0.012664483          798 
 4922000    0.4667695   -7.7112954    850.16215  0.014393914  0.012660512          777 
 4923000   0.46279663   -7.7221099    849.78573  0.014384619  0.012656544          832 
 4924000   0.46239193   -7.7271229    849.64848  0.014379375   0.01265257          831 
 4925000    0.4755545   -7.7285247    849.88376  0.014380436    0.0126486          832 
 4926000   0.46808041   -7.7372956    849.61914   0.01437304  0.012644637          821 
 4927000    0.4670618   -7.7359317    848.97446  0.014359219  0.012640674          816 
 4928000   0.46008145   -7.7309814    849.71637  0.014368851   0.01263671          823 
 4929000   0.46532611   -7.7334542    849.70302   0.01436571  0.012632749          805 
 4930000   0.46299426   -7.7368727    850.25206  0.014372077  0.012628785          802 
 4931000   0.46567873   -7.7175381    850.58427  0.014374776  0.012624828          802 
 4932000    0.4658179   -7.7343581    850.73125  0.014374345  0.012620869          779 
 4933000   0.45869557   -7.7428118    849.53179  0.014351169  0.012616911          813 
 4934000   0.46028822   -7.7196439    848.76201  0.014335259  0.012612954          792 
 4935000   0.45829315   -7.7207519    849.87837  0.014351205  0.012608999          702 
 4936000   0.46521959   -7.7292636    850.72221  0.014362544  0.012605047          790 
 4937000   0.45779077   -7.7376066    850.15051  0.014349985  0.012601094          772 
 4938000   0.45142125   -7.7421821    850.35314  0.014350499  0.012597144          794 
 4939000   0.45873963   -7.7290844    849.09125  0.014326302  0.012593197          835 
 4940000   0.45274455   -7.7230486     849.3955  0.014328534  0.012589249          782 
 4941000   0.46330814   -7.7450692    849.43435  0.014326289  0.012585308          810 
 4942000   0.45490234    -7.724947    849.95108  0.014332104  0.012581363          814 
 4943000   0.46075767   -7.7236363    849.99554  0.014329954  0.012577422          798 
 4944000   0.46201499   -7.7437577    850.34838  0.014333003  0.012573482          827 
 4945000   0.46233632   -7.7482252    850.54245  0.014333375   0.01256954          801 
 4946000   0.47230106   -7.7298777    849.92476  0.014320069  0.012565603          818 
 4947000   0.47124667   -7.7296476    850.74337  0.014330964  0.012561667          762 
 4948000   0.47083619   -7.7228714    850.37721  0.014321901  0.012557735          793 
 4949000    0.4622116   -7.7393906    849.97654  0.014312261  0.012553802          806 
 4950000   0.46413282   -7.7412999    848.55986   0.01428552   0.01254987          783 
 4951000   0.45827587   -7.7371008    848.49748  0.014281584   0.01254594          814 
 4952000    0.4596108   -7.7412065    849.55693  0.014296529   0.01254201          843 
 4953000   0.45276487   -7.7517213    849.85039   0.01429858   0.01253808          769 
 4954000   0.45691118   -7.7485518      849.837  0.014295468  0.012534154          841 
 4955000   0.45855711   -7.7379472    848.66306   0.01427284  0.012530228          780 
 4956000   0.45391256   -7.7383341     849.1586  0.014278292  0.012526308          810 
 4957000   0.47374866   -7.7373061    848.82354  0.014269779  0.012522384          816 
 4958000   0.46036447   -7.7363776    849.43662  0.014277206  0.012518464          820 
 4959000   0.45963008   -7.7371714    850.64395  0.014294615  0.012514545          830 
 4960000   0.46101686   -7.7306951    849.21946    0.0142678  0.012510628          794 
 4961000   0.45252804    -7.740623    848.87378  0.014259117  0.012506713          803 
 4962000   0.46361332   -7.7397971    849.76802  0.014271262  0.012502799          838 
 4963000   0.44782863   -7.7674695    848.85465   0.01425305  0.012498885          744 
 4964000   0.45320768   -7.7510317    849.53546  0.014261608  0.012494971          782 
 4965000   0.45767426   -7.7410712    849.43016  0.014256968  0.012491063          810 
 4966000   0.44908406    -7.745454    849.70611  0.014258728  0.012487156          822 
 4967000   0.46039885   -7.7299587    850.35692  0.014266776  0.012483247          810 
 4968000   0.46396959   -7.7551966    850.20554  0.014261365   0.01247934          816 
 4969000   0.46294147    -7.749774    851.64682  0.014282666  0.012475434          834 
 4970000   0.45278152    -7.739688    849.37965  0.014241778  0.012471531          764 
 4971000    0.4443667   -7.7463364    850.35966  0.014255342  0.012467629          719 
 4972000    0.4461682   -7.7456235    850.36153  0.014252506  0.012463732          766 
 4973000   0.45765315   -7.7367014    850.36023  0.014249618  0.012459836          779 
 4974000   0.46068861   -7.7495545    849.28765  0.014228784   0.01245594          822 
 4975000   0.45402929   -7.7539466    849.87774  0.014235808  0.012452044          815 
 4976000   0.46008156   -7.7483299    849.80176  0.014231675  0.012448152          842 
 4977000   0.44767246   -7.7520841    850.42975   0.01423933   0.01244426          840 
 4978000   0.46211581   -7.7526636    850.19028  0.014232461  0.012440369          768 
 4979000   0.45400345   -7.7500954    849.71086  0.014221578  0.012436479          761 
 4980000   0.45067584   -7.7469252    849.80036   0.01422022  0.012432592          805 
 4981000   0.45454381   -7.7538544    850.38047  0.014227071  0.012428709          801 
 4982000   0.45579574    -7.742219    849.69574  0.014212762  0.012424824          842 
 4983000   0.45826814   -7.7494336    849.10936  0.014200103  0.012420945          847 
 4984000    0.4643566   -7.7388914    849.93394  0.014211041  0.012417064          826 
 4985000   0.45271093   -7.7485804    850.82417  0.014223072  0.012413188          767 
 4986000   0.45104936   -7.7506931    849.00112   0.01418975  0.012409312          841 
 4987000   0.45101147   -7.7433519    849.00994  0.014187052  0.012405436          825 
 4988000   0.45267444   -7.7527201    848.77576  0.014180295  0.012401562          800 
 4989000   0.46099329   -7.7422273    847.81301  0.014161372  0.012397687          807 
 4990000   0.44732726   -7.7598408    850.38462   0.01420148  0.012393814          799 
 4991000    0.4543027   -7.7432894    849.22518  0.014179276  0.012389942          763 
 4992000   0.45347479   -7.7627571    850.25149  0.014193568  0.012386075          795 
 4993000   0.44855591   -7.7476663    849.11873  0.014171819  0.012382206          818 
 4994000   0.45368782   -7.7558177    849.82712  0.014180802  0.012378341          834 
 4995000   0.45717145   -7.7555785    849.44253  0.014171547  0.012374475          808 
 4996000   0.44866105   -7.7421178    849.29816  0.014166302  0.012370612          642 
 4997000   0.45409306   -7.7517556    849.01997  0.014158828  0.012366748          816 
 4998000   0.45378864    -7.742427    847.78995  0.014135487  0.012362886          886 
 4999000   0.45437433   -7.7556957    848.56818  0.014145632  0.012359026          810 
 5000000   0.45964198   -7.7541067    849.13994  0.014152332  0.012355165          866 
 5001000   0.45522771   -7.7490245    850.27268  0.014168378  0.012351307          775 
 5002000   0.44475134   -7.7453627    849.96401  0.014160403  0.012347449          794 
 5003000   0.46319704    -7.752595    849.41553  0.014148436  0.012343594          838 
 5004000    0.4523569    -7.732626    848.97402  0.014138256  0.012339743          825 
 5005000    0.4633671   -7.7513368    849.39194   0.01414239  0.012335892          777 
 5006000   0.45255764   -7.7618315    849.21642  0.014136643  0.012332041          797 
 5007000   0.44030513   -7.7359148    848.63921  0.014124213  0.012328194          797 
 5008000   0.45088233   -7.7559735    849.22908  0.014131208  0.012324347          776 
 5009000    0.4372634    -7.751289    849.78322  0.014137606  0.012320501          776 
 5010000   0.45328241   -7.7515659    848.88578  0.014119857  0.012316658          854 
 5011000   0.45411648   -7.7478638    849.08696  0.014120384  0.012312818          811 
 5012000    0.4464312   -7.7529757    848.98347  0.014115846  0.012308977          799 
Loop time of 10974.4 on 48 procs for 5000000 steps with 4000 atoms

Performance: 78728.874 tau/day, 455.607 timesteps/s
99.4% CPU use with 48 MPI tasks x no OpenMP threads

MPI task timing breakdown:
Section |  min time  |  avg time  |  max time  |%varavg| %total
---------------------------------------------------------------
Pair    | 754.74     | 779.97     | 803.87     |  39.8 |  7.11
Neigh   | 68.295     | 69.325     | 71.113     |   7.0 |  0.63
Comm    | 604.16     | 638.33     | 667.71     |  56.5 |  5.82
Output  | 13.971     | 13.977     | 14.065     |   0.3 |  0.13
Modify  | 9310       | 9350.5     | 9392.4     |  21.4 | 85.20
Other   |            | 122.3      |            |       |  1.11

Nlocal:        83.3333 ave          90 max          75 min
Histogram: 2 1 2 3 12 6 9 3 8 2
Nghost:        1808.85 ave        1831 max        1793 min
Histogram: 1 7 6 14 5 3 5 4 1 2
Neighs:        11101.6 ave       12542 max        9455 min
Histogram: 1 1 4 6 8 13 6 2 4 3
FullNghs:      22205.3 ave       24391 max       19605 min
Histogram: 2 1 3 5 9 10 8 4 5 1

Total # of neighbors = 1065855
Ave neighs/atom = 266.46375
Neighbor list builds = 269484
Dangerous builds = 2

#clear
#
#next RN
#
#jump SELF
Total wall time: 3:02:57
