
units lj                  # Use reduced LJ style units
atom_style atomic         # Uncharged point particles
atom_modify map hash      # Needed for indexing of clusters etc
                          # Used to be able to find where atoms are in relation to each other.

lattice fcc 1.0 spacing 1 1 1
Lattice spacing in x,y,z = 1.5874011 1.5874011 1.5874011
region box block 0 10 0 10 0 10 units lattice
create_box 2 box
Created orthogonal box = (0.0000000 0.0000000 0.0000000) to (15.874011 15.874011 15.874011)
  3 by 4 by 4 MPI processor grid
create_atoms 1 box
Created 4000 atoms
  using lattice units in orthogonal box = (0.0000000 0.0000000 0.0000000) to (15.874011 15.874011 15.874011)
  create_atoms CPU = 0.002 seconds
set type 1 type/fraction 2 0.6 78393
Setting atom values ...
  2421 settings made for type/fraction
mass 1 1.0
mass 2 1.0
pair_style lj/cut  3.5
pair_modify tail  yes
pair_coeff 1  1  1.0  1.0   # Intearaction between 1 and 1 set with epsilon = 1 and sigma = 1
pair_coeff 1  2  1.5  0.8
pair_coeff 2  2  0.5  0.88

write_data data.0
System init for write_data ...
Neighbor list info ...
  update every 1 steps, delay 10 steps, check yes
  max neighbors/atom: 2000, page size: 100000
  master list distance cutoff = 3.8
  ghost atom cutoff = 3.8
  binsize = 1.9, bins = 9 9 9
  1 neighbor lists, perpetual/occasional/extra = 1 0 0
  (1) pair lj/cut, perpetual
      attributes: half, newton on
      pair build: half/bin/atomonly/newton
      stencil: half/bin/3d
      bin: standard
WARNING: Not all mixed pair coeffs generated from mixing. Use write_data with 'pair ij' option to store all pair coeffs. (../write_data.cpp:312)


#############################
#   M E L T   S Y S T E M   #
#############################

velocity all create 2.4 8172548 mom yes dist gaussian # Assign velocities
                                                    # Temperature 2.4, random number seed, zero linear momentum
                                                                                # Gaussian distribution

timestep 0.002   # simulation timestep
thermo 1000       # output thermodynamic data every 1000 steps bf 100

# Define a fix  in this case with index 1 applied to all
# particles in the simulation. This fix is for simulations
# in the anisotropic NPT ensemble. Note that we use the MTK
# correction.
fix 1 all npt temp 2.4 2.4 0.1 iso 5.68 5.68 0.5 mtk yes tchain 5 pchain 5 # Use NPT ensemble
                                                                         # Set temperature and pressure and damping
                                                                         # Numbers of thermostats in chain and in barostat
run 10000          # run for 10000 steps
Per MPI rank memory allocation (min/avg/max) = 3.642 | 3.644 | 3.648 Mbytes
Step Temp E_pair E_mol TotEng Press Volume 
       0          2.4   -4.7127585            0   -1.1136585   -4.0555291         4000 
    1000    2.4085314   -4.4177423            0  -0.80584847    5.6464509    3639.2704 
    2000    2.4098795   -4.4631238            0  -0.84920835    5.5223881    3623.4464 
    3000    2.4529626   -4.4166482            0  -0.73812414    5.6678023    3644.9883 
    4000    2.4169855   -4.4501505            0  -0.82557853    6.0103336    3588.2285 
    5000    2.3820548   -4.4946798            0  -0.92249089    6.0024036    3567.3324 
    6000    2.3300747   -4.5101763            0    -1.015938    5.3204924    3609.7671 
    7000    2.3934833   -4.4271486            0  -0.83782117    5.8462871    3613.2481 
    8000    2.4014015   -4.4060038            0  -0.80480208    6.0771742    3612.4536 
    9000    2.3984631   -4.4665791            0  -0.86978379    5.3638814    3637.9302 
   10000    2.3928753   -4.4356567            0    -0.847241    5.7392372     3624.461 
Loop time of 2.73466 on 48 procs for 10000 steps with 4000 atoms

Performance: 631888.458 tau/day, 3656.762 timesteps/s
99.6% CPU use with 48 MPI tasks x no OpenMP threads

MPI task timing breakdown:
Section |  min time  |  avg time  |  max time  |%varavg| %total
---------------------------------------------------------------
Pair    | 1.2105     | 1.2872     | 1.4717     |   4.5 | 47.07
Neigh   | 0.21955    | 0.2269     | 0.24938    |   1.5 |  8.30
Comm    | 0.75844    | 0.94422    | 1.0307     |   5.7 | 34.53
Output  | 0.00026619 | 0.00027143 | 0.00033867 |   0.0 |  0.01
Modify  | 0.21262    | 0.26043    | 0.31366    |   5.3 |  9.52
Other   |            | 0.01569    |            |       |  0.57

Nlocal:        83.3333 ave          91 max          76 min
Histogram: 3 3 5 6 10 4 6 2 4 5
Nghost:        1753.96 ave        1790 max        1719 min
Histogram: 3 2 5 8 7 9 5 4 2 3
Neighs:        10531.4 ave       11733 max        9321 min
Histogram: 3 3 8 2 9 6 4 5 4 4

Total # of neighbors = 505506
Ave neighs/atom = 126.37650
Neighbor list builds = 906
Dangerous builds = 217

# Equilibrate just above the melting temperature to avoid step fn in T

fix 1 all npt temp 1.25 1.25 0.1 iso 5.68 5.68 0.5 mtk yes tchain 5 pchain 5
run 2000
Per MPI rank memory allocation (min/avg/max) = 3.644 | 3.646 | 3.650 Mbytes
Step Temp E_pair E_mol TotEng Press Volume 
   10000    2.3928753   -4.4356567            0    -0.847241    5.7392372     3624.461 
   11000    1.2457952   -6.5155833            0   -4.6473576    5.6091996    2775.5883 
   12000    1.2214187    -6.605006            0    -4.773336    6.0954749    2732.4531 
Loop time of 0.668722 on 48 procs for 2000 steps with 4000 atoms

Performance: 516806.833 tau/day, 2990.780 timesteps/s
99.6% CPU use with 48 MPI tasks x no OpenMP threads

MPI task timing breakdown:
Section |  min time  |  avg time  |  max time  |%varavg| %total
---------------------------------------------------------------
Pair    | 0.30753    | 0.32741    | 0.36801    |   2.0 | 48.96
Neigh   | 0.042635   | 0.044559   | 0.050257   |   0.6 |  6.66
Comm    | 0.20328    | 0.24661    | 0.2696     |   2.6 | 36.88
Output  | 5.0447e-05 | 5.2957e-05 | 6.8122e-05 |   0.0 |  0.01
Modify  | 0.040954   | 0.045201   | 0.048842   |   0.9 |  6.76
Other   |            | 0.004891   |            |       |  0.73

Nlocal:        83.3333 ave          90 max          73 min
Histogram: 1 0 1 1 7 14 10 8 3 3
Nghost:        2130.96 ave        2154 max        2113 min
Histogram: 3 5 10 4 8 6 6 3 1 2
Neighs:        13979.2 ave       15156 max       12516 min
Histogram: 1 2 4 4 8 6 9 9 2 3

Total # of neighbors = 671001
Ave neighs/atom = 167.75025
Neighbor list builds = 144
Dangerous builds = 8

#############################
# L I N E A R  Q U E N C H  #
#############################

# Define solid atoms. This closely follows ten Wolde  Ruiz-Montero and Frenkel  Faraday Discuss  1996  104  93-110
# Compute components of the per-atom q6 vector
compute q6 all orientorder/atom degrees 1 6 components 6 nnn NULL cutoff 1.3 # compute the Q6 parameter.
                                                                             # Use all neighbours within 1.3 unit cell.

# get number of connections
compute coord_number all coord/atom orientorder q6 0.5

# An atom is solid if it has 8 or more connections (of a possible 14)
variable is_solid atom c_coord_number>=8
group solid dynamic all var is_solid    # Must be dynamic to update
dynamic group solid defined

# do clustering
compute cluster solid cluster/atom 1.3 # Create a cluster where all atoms within are solid and max 1.3 units from another member

# define chunks one chunk per cluster
compute clus_chunks solid chunk/atom c_cluster nchunk every compress yes  # Says which atoms are in which chunk

# count the size of each chunk
compute size_chunks solid property/chunk clus_chunks count


# Find the maximum entry in the vector of chunk sizes
variable max_n equal max(c_size_chunks)


# Thermo style which includes this variable
# thermo_style custom step temp pe vol v_max_n

thermo ${N}  # Print the thermo information every 100 steps
thermo 1000  

# Reset the npt fix at a lower temperature (below freezing)
fix 1  all npt temp  ${temp} ${temp}  0.1  iso  5.68  5.68  0.5  mtk yes tchain  5  pchain  5
fix 1  all npt temp  0.45 ${temp}  0.1  iso  5.68  5.68  0.5  mtk yes tchain  5  pchain  5
fix 1  all npt temp  0.45 0.45  0.1  iso  5.68  5.68  0.5  mtk yes tchain  5  pchain  5

dump dmp2 all dcd ${N} traj.dcd
dump dmp2 all dcd 1000 traj.dcd


compute msd all msd com yes
variable twopoint equal c_msd[4]/6/(step*dt+1.0e-6)
fix 9 all vector 10 c_msd[4]
variable fit equal slope(f_9)/6/(10*dt)
thermo_style custom step temp pe c_msd[4] v_twopoint v_fit v_max_n

fix 1 all npt temp 1.25 ${temp} 0.1 iso 5.68 5.68 0.5 mtk yes tchain 5 pchain 5
fix 1 all npt temp 1.25 0.45 0.1 iso 5.68 5.68 0.5 mtk yes tchain 5 pchain 5
run 5000000 # 5000000  # Run for this many steps
Neighbor list info ...
  update every 1 steps, delay 10 steps, check yes
  max neighbors/atom: 2000, page size: 100000
  master list distance cutoff = 3.8
  ghost atom cutoff = 3.8
  binsize = 1.9, bins = 8 8 8
  4 neighbor lists, perpetual/occasional/extra = 1 3 0
  (1) pair lj/cut, perpetual
      attributes: half, newton on
      pair build: half/bin/atomonly/newton
      stencil: half/bin/3d
      bin: standard
  (2) compute orientorder/atom, occasional
      attributes: full, newton on
      pair build: full/bin/atomonly
      stencil: full/bin/3d
      bin: standard
  (3) compute coord/atom, occasional
      attributes: full, newton on
      pair build: full/bin/atomonly
      stencil: full/bin/3d
      bin: standard
  (4) compute cluster/atom, occasional
      attributes: full, newton on
      pair build: full/bin/atomonly
      stencil: full/bin/3d
      bin: standard
Per MPI rank memory allocation (min/avg/max) = 9.848 | 9.853 | 9.858 Mbytes
Step Temp PotEng c_msd[4] v_twopoint v_fit v_max_n 
   12000    1.2214187    -6.605006 4.1929929e-30 2.9118005e-32 8.3333333e+20            1 
   13000     1.244945   -6.5944252   0.49935403 0.0032009873  0.040732812            3 
   14000    1.2607094   -6.6204418   0.98864376  0.005884784  0.040216399            1 
   15000    1.2701296   -6.5626857    1.4893136 0.0082739644  0.040741666            3 
   16000    1.2455045   -6.6462228    1.9763477  0.010293477  0.040893255            2 
   17000    1.2463682    -6.572069      2.44409  0.011980833  0.040854734            3 
   18000    1.2331994   -6.6381378    2.8459557  0.013175721   0.04031149            2 
   19000    1.2260628   -6.5878655    3.2585696  0.014291972  0.039074576            1 
   20000    1.2964357   -6.6081146    3.6401244  0.015167185  0.038322504            2 
   21000    1.2187069   -6.6330398    4.0572693  0.016100275  0.037591699            3 
   22000    1.2542706   -6.6159679    4.6078026  0.017453797  0.037336488            1 
   23000     1.273774   -6.6025846    5.0020252  0.018123279  0.037247967            3 
   24000     1.234696   -6.5828686    5.3869254  0.018704602  0.036929868            1 
   25000    1.2489258   -6.6182229    5.9001125  0.019667041  0.036800326            1 
   26000    1.2798253    -6.664208    6.2869462  0.020150468  0.036826028            5 
   27000     1.283998   -6.5977025    6.6981588  0.020673329  0.036779212            3 
   28000    1.2671415   -6.6441075    7.1810595  0.021372201  0.036733367            3 
   29000    1.2470871   -6.6454411    7.5298875  0.021637607  0.036542535            3 
   30000    1.2500422   -6.6287334    7.9259302  0.022016472  0.036398338            2 
   31000    1.2424015   -6.5809211    8.4256226  0.022649523  0.036289577            1 
   32000    1.2523283   -6.6231272     8.818912  0.022965916   0.03623505            1 
   33000    1.2324984   -6.6201554    9.2328125  0.023315183  0.036147489            1 
   34000    1.2603338   -6.6334442    9.7414809  0.023876178  0.036104295            3 
   35000    1.2379733   -6.5790226    10.195157  0.024274183  0.036141738            2 
   36000    1.2511058   -6.5982503    10.699601  0.024767595  0.036184993            2 
   37000    1.2146567    -6.608522    11.098478  0.024996572   0.03621513            3 
   38000     1.274165   -6.6359645    11.461363  0.025134569  0.036240272            2 
   39000    1.2374537    -6.661716    11.867756  0.025358453  0.036219446            2 
   40000    1.2351219   -6.6562978    12.371688  0.025774349  0.036231998            3 
   41000    1.2524132    -6.630574     12.86079  0.026139818   0.03624794            2 
   42000    1.2732898   -6.5897907    13.287218  0.026363528  0.036303634            1 
   43000    1.2372218   -6.5939965    13.794011   0.02673258   0.03635655            2 
   44000    1.2339379   -6.6511915    14.139285  0.026778949  0.036374427            3 
   45000    1.2322807   -6.6469096    14.533785  0.026914416  0.036379452            5 
   46000    1.2241293   -6.6341666    14.909147  0.027009324  0.036351979            3 
   47000    1.2237313   -6.6479886    15.328324  0.027177879  0.036304708            2 
   48000    1.2231516   -6.5679701    15.840549  0.027500953  0.036286246            1 
   49000    1.2710082    -6.628044    16.335823  0.027782012  0.036306681            3 
   50000    1.2611547   -6.6186729     16.95245  0.028254084  0.036351536            2 
   51000    1.2665851    -6.643567    17.430724  0.028481574  0.036424541            3 
   52000    1.2570672   -6.6403587    17.875302  0.028646317  0.036502138            2 
   53000    1.2430609    -6.579741    18.350934  0.028853669  0.036559182            1 
   54000    1.2315206   -6.5928282    18.832111    0.0290619  0.036619881            3 
   55000    1.2299805   -6.6306505    19.282254  0.029215537  0.036693232            3 
   56000    1.2194333   -6.6133732     19.83759  0.029520223  0.036777642            1 
   57000    1.2442864   -6.6334348    20.127107  0.029425594  0.036850169            1 
   58000     1.215712   -6.6022103    20.563541  0.029545317   0.03688537            6 
   59000    1.2251757    -6.665351    20.932927  0.029566281  0.036896085            2 
   60000    1.2451909   -6.6621402    21.392314  0.029711547  0.036918983            4 
   61000    1.2370787   -6.6595519    21.725025  0.029678995  0.036930239            3 
   62000    1.2357316   -6.6375183    22.190814  0.029826363  0.036914818            2 
   63000      1.23831   -6.6613816    22.626282  0.029928945  0.036899192            2 
   64000    1.2301891    -6.623146    23.174645  0.030175318  0.036896361            1 
   65000    1.2437675   -6.6519739    23.660905  0.030334493   0.03691583            2 
   66000    1.2267056   -6.6373314    24.147735  0.030489564  0.036940347            2 
   67000    1.2555228    -6.655016    24.418748  0.030371577  0.036954976            2 
   68000    1.2336407   -6.6602326    25.021255  0.030663303  0.036965188            2 
   69000    1.2603657   -6.6823497    25.349803  0.030615703  0.036975271            3 
   70000    1.2669848   -6.6658621    25.893417  0.030825496  0.036994348            6 
   71000    1.2398353   -6.6130813    26.478671  0.031078252  0.037018388            1 
   72000    1.2311749   -6.6403262    26.820226  0.031041928  0.037034184            2 
   73000    1.2729591     -6.66069    27.284781   0.03114701  0.037048884            1 
   74000    1.2329606   -6.6353791    27.697019  0.031190337  0.037054361            3 
   75000    1.2490087   -6.6519228    28.024869  0.031138744  0.037055812            4 
   76000    1.2294466   -6.6692558    28.488305  0.031237176  0.037058333            2 
   77000    1.2351432   -6.6344006    28.919778   0.03129846  0.037054356            2 
   78000    1.2251337   -6.6406841    29.437305  0.031450112  0.037050114            3 
   79000    1.2486268   -6.6617277    29.789928  0.031423974  0.037053195            2 
   80000    1.2427702    -6.647435    30.122971  0.031378094  0.037048483            2 
   81000    1.2545972   -6.6561656    30.546186  0.031426117  0.037042245            2 
   82000    1.2628892   -6.6125386    31.024403  0.031528865  0.037020232            2 
   83000    1.2220379   -6.6299802    31.720825  0.031848218  0.037015484            4 
   84000    1.2290587   -6.6160121    32.121547  0.031866614  0.037018402            1 
   85000    1.2372607   -6.6375993    32.454135  0.031817779  0.037015899            4 
   86000    1.2485475   -6.6337068    32.975826  0.031953319  0.037014449            2 
   87000    1.2436623   -6.6488639    33.452505  0.032042629  0.037015618            3 
   88000    1.2280357   -6.6364934    33.882045   0.03208527  0.037025276            3 
   89000    1.2634427   -6.6668617    34.153899  0.031979306   0.03701816            1 
   90000     1.226152   -6.6525557    34.525169  0.031967749  0.037010751            4 
   91000    1.2320903   -6.6268167    34.905842  0.031965057  0.036997759            1 
   92000    1.2604776   -6.6312344    35.208722  0.031891959  0.036974878            3 
   93000    1.2272203   -6.6532366    35.494278  0.031804909  0.036942419            1 
   94000    1.2388109   -6.6555329    36.197814   0.03209026  0.036916409            4 
   95000    1.2576886   -6.6330668    36.497115  0.032015013  0.036899868            2 
   96000    1.2442277   -6.6758297    37.118458  0.032220884    0.0368821            3 
   97000    1.2501116   -6.6437999    37.415509  0.032143908  0.036868279            2 
   98000    1.2217712   -6.6507681    37.851168  0.032186367  0.036852746            2 
   99000    1.2063904   -6.6285539    38.347094  0.032278698  0.036843206            3 
  100000     1.221501   -6.6402415     38.75343  0.032294525  0.036825177            4 
  101000    1.2145766    -6.674069    38.913833  0.032107123  0.036805847            3 
  102000    1.2519597   -6.6582542    39.688631  0.032425352  0.036790328            2 
  103000     1.232211   -6.6471527    40.063647  0.032413954    0.0367863            3 
  104000    1.2504162   -6.6879339    40.418786  0.032386848  0.036775571            2 
  105000    1.2555415   -6.6765951    41.006947  0.032545196  0.036760883            2 
  106000    1.2374818   -6.6329009    41.558591  0.032671848  0.036754564            4 
  107000    1.2352891   -6.6865823    41.818873  0.032569215  0.036746873            3 
  108000    1.2609696   -6.6847806    42.208971   0.03256865  0.036737653            1 
  109000    1.2323546   -6.6709067    42.581149  0.032554395  0.036729025            3 
  110000    1.2201868   -6.6548521    43.378313  0.032862358  0.036722864            2 
  111000    1.2306481   -6.6427726    43.415493  0.032594214  0.036713156            4 
  112000    1.2225159   -6.6592952    43.788124  0.032580449  0.036691708            1 
  113000    1.2148432   -6.6357239    44.225788  0.032614888  0.036668057            1 
  114000    1.2148855   -6.6497612    44.577691  0.032586031  0.036644115            3 
  115000    1.2573054   -6.6568521    45.114931  0.032691979   0.03662502            2 
  116000    1.2338085   -6.5894729    45.499479  0.032686407   0.03660301            4 
  117000    1.2357952   -6.6553443    45.651545  0.032515345  0.036573047            5 
  118000    1.2582913   -6.6571543     45.94798  0.032449138  0.036539685            1 
  119000    1.2175578   -6.7117623    46.183795  0.032341593  0.036502807            2 
  120000    1.2315587   -6.6300745    46.737429  0.032456548  0.036468188            1 
  121000    1.2522562    -6.669136    47.023475  0.032385313  0.036431825            3 
  122000     1.239748    -6.658012    47.424028  0.032393461   0.03639019            2 
  123000    1.2259909   -6.7096497    47.666623   0.03229446  0.036350207            5 
  124000    1.2247412   -6.6556721    47.988803   0.03225054  0.036305896            3 
  125000    1.2590369   -6.6775389    48.491227  0.032327485  0.036262266            4 
  126000    1.2157117   -6.6614166    49.201468  0.032540653    0.0362266            1 
  127000    1.2629513    -6.656245    49.477476  0.032465535   0.03619229            3 
  128000     1.238003   -6.6436846    50.009026  0.032557959  0.036161579            2 
  129000    1.2464397   -6.6682948    50.259025   0.03246707  0.036133916            6 
  130000     1.249894   -6.6489199    50.770454  0.032545163  0.036103999            2 
  131000    1.2309147   -6.6612661    51.155938  0.032541945  0.036077369            4 
  132000    1.2309971   -6.6687604    51.316737   0.03239693  0.036048459            3 
  133000    1.2310241   -6.6661011    51.833665  0.032477234  0.036015924            4 
  134000    1.2165276   -6.6811765    52.021465  0.032351657  0.035979558            2 
  135000    1.2237419   -6.6795732    52.199642  0.032222001  0.035941414            2 
  136000    1.2349872   -6.7008032    52.662436  0.032268649  0.035899795            4 
  137000    1.2298002   -6.7011795    53.015265  0.032247728  0.035857841            4 
  138000    1.2564139   -6.6682031    53.475947  0.032292238  0.035817344            4 
  139000    1.2279545     -6.62784    53.869779   0.03229603  0.035780808            2 
  140000    1.2299434   -6.6684846    54.106016  0.032205962  0.035739986            3 
  141000    1.2272076   -6.6589531    54.512868  0.032218007  0.035697464            4 
  142000    1.2467857   -6.6560721    55.063902  0.032314496  0.035658811            2 
  143000    1.2490229   -6.6475074    55.290217  0.032220406  0.035621532            4 
  144000    1.2184122   -6.6698433     55.76465   0.03227121  0.035585254            1 
  145000    1.2322873   -6.6602234    56.311975  0.032363204  0.035549048            4 
  146000    1.2279849   -6.6655515    56.777324  0.032407148  0.035515227            1 
  147000    1.2232726   -6.6900447    57.061652  0.032347875  0.035484254            4 
  148000    1.2041571   -6.7055621    57.542055  0.032399806  0.035452691            4 
  149000     1.244062   -6.7115422    57.666459  0.032251935  0.035422942            3 
  150000    1.2343843   -6.6810169    58.315782  0.032397656  0.035392434            2 
  151000    1.2117448   -6.6918567     58.58834  0.032333521  0.035360443            2 
  152000    1.1981325   -6.6338904    58.942611  0.032315028  0.035328823            3 
  153000    1.2141104   -6.6665811    59.486239  0.032399912  0.035301022            1 
  154000    1.2260366   -6.6608456    59.693523   0.03230169  0.035271914            4 
  155000    1.2560611   -6.6913337    60.138851  0.032332715  0.035241373            4 
  156000    1.2416453   -6.7452535    60.404495  0.032267358  0.035211435            4 
  157000     1.231269   -6.6648894    61.046122    0.0324024  0.035184704            2 
  158000    1.2571354   -6.6751712    61.555072  0.032465755  0.035158415            4 
  159000    1.2519516   -6.6406292    61.716101  0.032345965  0.035133446            5 
  160000    1.2372543   -6.6727868    62.092229  0.032339702  0.035104668            3 
  161000    1.2494732   -6.6351339     62.21678  0.032203302  0.035076984            3 
  162000    1.2175247   -6.7009259     62.69476  0.032250391   0.03504757            4 
  163000    1.2376291   -6.6483433    63.271095  0.032347186  0.035018953            2 
  164000    1.1815033   -6.6871171    63.566998  0.032300304  0.034995459            5 
  165000    1.2135399   -6.6658834    63.982742  0.032314516  0.034971974            5 
  166000    1.2299566   -6.6450487    64.500679  0.032379859  0.034947673            1 
  167000    1.2224566   -6.6704515     64.84268  0.032356627  0.034921005            3 
  168000    1.2020788    -6.660568    65.192475  0.032337537  0.034894121            5 
  169000    1.2366723   -6.6615149    65.734776  0.032413598  0.034869772            2 
  170000     1.216585   -6.7133687    66.062775  0.032383713  0.034846204            2 
  171000    1.2155355   -6.6604699     66.49709  0.032405989  0.034825171            3 
  172000    1.2261465   -6.7098232    66.728989  0.032329937  0.034802599            2 
  173000    1.2023495    -6.691396    67.277719  0.032407379  0.034777836            2 
  174000    1.2087162    -6.650357    67.451636  0.032304423  0.034754439            4 
  175000    1.1992075   -6.6606551    67.739391  0.032256853  0.034729412            3 
  176000    1.2429961   -6.6998977    68.128239  0.032257689  0.034704737            3 
  177000    1.2058617   -6.7078615    68.902023  0.032439747  0.034683207            5 
  178000    1.1967712   -6.6660845    69.311877   0.03244938  0.034664745            3 
  179000    1.2156486   -6.7030582    69.443078  0.032329179  0.034644348            2 
  180000    1.2050333   -6.7122798    69.631332  0.032236728  0.034623217            3 
  181000    1.1968607    -6.669176    70.316438   0.03237405  0.034603679            1 
  182000    1.2030784   -6.6588281    70.697534  0.032370666  0.034584395            5 
  183000    1.2181581   -6.6972484    71.210025  0.032427151  0.034566149            3 
  184000    1.2054579   -6.6516584    71.857452  0.032544136  0.034551778            3 
  185000    1.2232969   -6.7333556    71.761785  0.032325128  0.034537093            2 
  186000    1.2371865   -6.7000166    72.517231  0.032489799  0.034524101            1 
  187000    1.2497525   -6.6911341    73.204344  0.032622256  0.034511483            2 
  188000     1.208951   -6.6516565    73.818644   0.03272103  0.034503833            1 
  189000    1.2118746   -6.7122515    73.734041    0.0325106  0.034495318            3 
  190000    1.2140743   -6.7045128    74.520134  0.032684269  0.034487566            1 
  191000    1.2347522   -6.6982384    75.337054   0.03286957  0.034481087            4 
  192000    1.2130178   -6.6841492    75.475232  0.032758347   0.03447691            1 
  193000     1.249125   -6.6806158     75.91267  0.032777491  0.034472459            2 
  194000    1.2057573   -6.6672174    76.449899  0.032839304  0.034467614            3 
  195000    1.2205353   -6.6854928    76.415124  0.032656036  0.034460681            4 
  196000    1.2165333   -6.6323199    76.953412  0.032718287  0.034452883            3 
  197000    1.2126951   -6.6989547    77.187248   0.03265112  0.034446188            6 
  198000    1.1981494   -6.6687057    77.571881  0.032648098  0.034435663            1 
  199000    1.2283249   -6.7065217    77.717973  0.032545215    0.0344251            1 
  200000    1.2134765   -6.6995136    78.101237  0.032542182  0.034414477            1 
  201000    1.2530309   -6.7328789    78.547962   0.03256549  0.034404682            2 
  202000    1.2331574   -6.7242624    79.159165  0.032656421  0.034395716            1 
  203000    1.2229491   -6.7044067    79.829929  0.032770907  0.034388816            2 
  204000    1.1917379   -6.7211895    79.659632  0.032540699  0.034382835           11 
  205000    1.2231417   -6.7224965    80.381764  0.032675514  0.034375358            2 
  206000    1.2401223   -6.7324275    80.365718  0.032510404  0.034363951            3 
  207000    1.2573648   -6.6707085    81.402753  0.032770834  0.034355059            1 
  208000    1.2201651   -6.6892867    81.280715  0.032564389  0.034344986            6 
  209000    1.2050672   -6.7297806    81.646555  0.032554448  0.034333236            3 
  210000    1.2232832   -6.7026856    82.015851  0.032545973   0.03432114            3 
  211000    1.2199867   -6.6956487    82.606923  0.032625167   0.03430931            2 
  212000    1.2390506   -6.7059497    82.639725  0.032484169  0.034296768            3 
  213000    1.2335454   -6.7240027    82.858322  0.032417184   0.03428317            3 
  214000     1.209555   -6.6935221    83.336858  0.032452047   0.03426827            2 
  215000     1.207463   -6.7089303    83.766522  0.032467644  0.034252251            4 
  216000    1.2024017   -6.6914203    84.083103  0.032439469  0.034233566            3 
  217000    1.1992431   -6.6119336     84.44625  0.032429435  0.034216939            3 
  218000    1.2130325   -6.6923679    84.617907  0.032346295  0.034199698            5 
  219000    1.1966823   -6.6756763    85.139532  0.032397082  0.034183142            2 
  220000    1.2014171   -6.7134942    85.127016  0.032245082   0.03416785            2 
  221000    1.2180878   -6.7408391     85.76722  0.032340581  0.034152222            5 
  222000    1.2271132   -6.6589491    86.513292  0.032474959  0.034138675            3 
  223000    1.2167307   -6.7183016    86.301967  0.032250361  0.034121002            2 
  224000    1.2432896   -6.7316541    86.672384   0.03224419   0.03410285            3 
  225000    1.2073253   -6.7202332    87.240394  0.032311257  0.034085191            2 
  226000    1.2305812   -6.7014289     87.65613  0.032321582  0.034070396            4 
  227000    1.2035342   -6.7212721    88.169478   0.03236765  0.034056444            2 
  228000    1.2040429   -6.6918908     88.89439   0.03249064  0.034042214            2 
  229000    1.2438124   -6.7007344    89.210594  0.032463826  0.034031079            2 
  230000    1.2423529   -6.6785464    89.891583  0.032569414  0.034022374            4 
  231000    1.2198809   -6.6999676    89.976137  0.032458924  0.034013832            4 
  232000    1.2194122   -6.6939785    90.508734  0.032510321  0.034004241            5 
  233000    1.2385221   -6.6849645    91.024428  0.032555232  0.033993195            2 
  234000    1.1766931    -6.714645     90.94423  0.032387546  0.033983748            2 
  235000    1.1918802   -6.6646958    92.054202  0.032643334  0.033974463            6 
  236000    1.1967212   -6.7213412    92.031945  0.032497156  0.033965633            2 
  237000    1.2327242   -6.7360646    92.119395  0.032390786  0.033954146            2 
  238000     1.225414   -6.7170557    92.371066   0.03234281  0.033941956            2 
  239000    1.1836735   -6.7197574    93.089156  0.032457865   0.03392924            2 
  240000    1.2359316   -6.7370795    93.399283  0.032430306  0.033917739            2 
  241000    1.2020094   -6.6792745    93.962043  0.032490333  0.033905753           12 
  242000    1.2271577   -6.6633188    94.348291  0.032489081  0.033893089            1 
  243000    1.1941623   -6.7130147    94.095932  0.032268838   0.03388054            2 
  244000    1.2218047   -6.6599935    94.862878  0.032398524  0.033866143            3 
  245000    1.2238686   -6.6733324    94.808532    0.0322478   0.03385294            6 
  246000    1.2194947   -6.7190686    95.029746  0.032191648   0.03383833            4 
  247000    1.2239351   -6.7143242     95.54062  0.032233678   0.03382371            2 
  248000    1.2053499   -6.7306156    95.845412  0.032206119  0.033808139            2 
  249000    1.2099597   -6.7146283    95.930243  0.032105168   0.03378993            2 
  250000    1.2194272   -6.7682983    96.423399  0.032141133  0.033772618            3 
  251000    1.2068726   -6.7240024    97.039483  0.032217624  0.033758332            4 
  252000    1.2002342   -6.6835972    97.663496  0.032296129  0.033745434            2 
  253000    1.1982293   -6.7081085     98.01804  0.032285257   0.03373305            2 
  254000     1.202539   -6.6993328    98.734689  0.032393271  0.033721052            4 
  255000    1.2146485   -6.7057488    98.936118  0.032332065  0.033707959            2 
  256000    1.1967696   -6.7338596    98.730581  0.032138861  0.033693494            1 
  257000    1.2065483   -6.7369016    98.897059  0.032067788  0.033676879            3 
  258000    1.1946948    -6.708418    99.382063  0.032100149   0.03366184            1 
  259000    1.2275901   -6.6817068    100.03658  0.032186802  0.033649009            5 
  260000    1.2237645   -6.7107449     100.3119  0.032151249  0.033634127            2 
  261000    1.2007954   -6.6968834    100.74432   0.03216613  0.033618715            5 
  262000    1.2095762   -6.6984742    100.77756  0.032053931  0.033602345            3 
  263000     1.212068   -6.6646953    101.42867  0.032138362  0.033585591            3 
  264000    1.2385366   -6.7451242    101.02524  0.031889279  0.033567265            2 
  265000    1.2131406   -6.7588586    101.80242  0.032013339  0.033548645            2 
  266000    1.1877596   -6.7136919    101.49428  0.031796454  0.033529041            3 
  267000    1.2043652   -6.6761057    102.49372    0.0319893  0.033508831            8 
  268000    1.2172442   -6.7195977    102.84041  0.031977738  0.033491272            4 
  269000    1.2046978   -6.7271906    103.33174  0.032011072  0.033474098            2 
  270000    1.2113595   -6.7430879    103.20167  0.031852367  0.033457647            2 
  271000    1.2254632   -6.7197071    103.60796  0.031859765  0.033438782            3 
  272000    1.2156529   -6.7102369     104.5162  0.032020894  0.033420454            1 
  273000    1.1852973    -6.721929    104.32518  0.031845293  0.033402741            5 
  274000    1.2116924   -6.7218814    104.71031  0.031846201  0.033383451            3 
  275000    1.2094303   -6.6482603    105.55902  0.031987582  0.033366099            2 
  276000    1.2061243   -6.7343595    105.27497   0.03178592  0.033349298            3 
  277000     1.176493   -6.7131581    105.55023   0.03175398  0.033329774            1 
  278000     1.191001   -6.7240184    105.67862  0.031678243  0.033312152            2 
  279000    1.2294345   -6.7912738    105.63257  0.031550946  0.033292076            4 
  280000    1.2414938   -6.7134392    106.27728  0.031630143  0.033272815            2 
  281000    1.2155376   -6.7136501    107.16434  0.031780647  0.033252628            3 
  282000    1.1939881   -6.6816944    108.17695  0.031967185  0.033234643            1 
  283000    1.2140349   -6.7261281    107.41909  0.031631062  0.033216929            2 
  284000    1.2043827   -6.7557993    108.48052  0.031831138  0.033198199            3 
  285000    1.1902664   -6.7448818     108.5109  0.031728333   0.03317975            5 
  286000    1.1897176   -6.7269542    109.07182  0.031780832  0.033162208            1 
  287000      1.22225   -6.7249839    109.22699  0.031715154  0.033144577            4 
  288000     1.184801   -6.7451566    109.39899  0.031654802  0.033126208            3 
  289000    1.1959563    -6.782503    109.75939  0.031649188  0.033107152            3 
  290000    1.2050512   -6.6995816    110.51877  0.031758266  0.033091405            1 
  291000    1.1911843   -6.7127583     110.4882  0.031640378  0.033074567            5 
  292000    1.2268926   -6.7024527     111.1298  0.031715125  0.033057577            2 
  293000    1.2235665   -6.7635573    111.77063  0.031789143  0.033041033            3 
  294000    1.1833407   -6.7221941    112.13262  0.031783623   0.03302524            2 
  295000    1.2026024   -6.6899014    112.22241  0.031701247  0.033008964            3 
  296000    1.1850177   -6.7853099    112.41974  0.031649702  0.032992527            3 
  297000    1.2101742   -6.6811079    113.18919  0.031759031  0.032977136            2 
  298000    1.1863202   -6.7304117    113.38991  0.031708588  0.032963038            3 
  299000    1.1709634   -6.7483411    113.68177  0.031683881  0.032947766            6 
  300000    1.1968992    -6.809709    113.70888  0.031585801    0.0329309            3 
  301000    1.1911604   -6.7342681    114.72384  0.031761859   0.03291564            4 
  302000    1.2163185   -6.7237912    115.30853  0.031818028  0.032900622            3 
  303000    1.2157455   -6.7230316    115.52017  0.031771224  0.032884742            1 
  304000    1.2048466   -6.7387487    115.29375  0.031604646  0.032868892            2 
  305000    1.2031925   -6.7347734    115.59499  0.031583332   0.03285312            3 
  306000     1.216991   -6.7483969    116.60921   0.03175632  0.032837982            1 
  307000    1.2169024    -6.735248    116.73924  0.031688177  0.032824745            3 
  308000    1.1999105   -6.7638589    116.90641  0.031630522  0.032811546            2 
  309000    1.1748428   -6.7347488    117.52724  0.031695589  0.032799782            2 
  310000    1.1788634   -6.7057133    118.57207  0.031874212  0.032789745            3 
  311000    1.1799893   -6.7190266    119.24522  0.031952095  0.032779636            2 
  312000    1.2082341    -6.714401    119.94704  0.032037137  0.032771641            3 
  313000    1.1919259   -6.7401181    119.58672   0.03183885  0.032764708            2 
  314000     1.178871    -6.670916    120.83239  0.032068044  0.032757136            1 
  315000    1.1847357   -6.7714175    120.28724  0.031822022  0.032749917            3 
  316000    1.2413894   -6.7261243    121.51516  0.032045137  0.032742718            2 
  317000    1.1819872   -6.7559224    121.22958  0.031868973  0.032735475            1 
  318000    1.1961672    -6.718599    122.02216  0.031976458    0.0327282            3 
  319000    1.2063015   -6.7668659    122.19746   0.03192201  0.032720254            1 
  320000    1.1985771   -6.7608121    122.60442  0.031928234  0.032713931            5 
  321000    1.2184354   -6.7326281    123.43659  0.032044804  0.032708223            4 
  322000    1.1949331   -6.7601505     124.0547  0.032105254  0.032703381            1 
  323000     1.209722   -6.7714252    124.29548  0.032067978    0.0326988            4 
  324000    1.1780189   -6.7309607    125.24173  0.032212379  0.032694829            2 
  325000    1.1842204   -6.7397979     124.8542  0.032013898   0.03269081            3 
  326000    1.2022396   -6.7313451    125.09984  0.031978486  0.032685118            1 
  327000    1.1979503   -6.7630252     124.9354  0.031838788  0.032678722            3 
  328000    1.1868811   -6.7403281    126.25725  0.032077554  0.032672027            2 
  329000    1.1933239   -6.7409097    125.89845  0.031889172   0.03266503            1 
  330000    1.2319679   -6.7671178    126.04436  0.031829384  0.032658108            5 
  331000    1.1837324   -6.7441968    126.72568  0.031904754  0.032650544            5 
  332000    1.2022386   -6.7783251    126.43241  0.031735043  0.032642773            1 
  333000    1.1967097   -6.7439449     127.0555  0.031795671  0.032634769            1 
  334000    1.1922999   -6.7727392    127.52559  0.031817763  0.032626096            2 
  335000    1.2408868   -6.7125898    128.31074  0.031918094  0.032618025            2 
  336000    1.2057388   -6.7325836    128.49426  0.031868615  0.032610974            2 
  337000    1.2093757   -6.7425447    129.26188  0.031963868  0.032604369            2 
  338000       1.1883   -6.7034299    129.86286  0.032017471  0.032598198            4 
  339000    1.1963735   -6.7358584    129.66286   0.03187386   0.03259223            3 
  340000    1.2015826   -6.7702397     129.8372  0.031822842  0.032584569            4 
  341000    1.2020838   -6.7136994    130.45379  0.031880203  0.032577265            3 
  342000    1.1846631   -6.7613729    130.59997  0.031822605  0.032570654            2 
  343000    1.1946123   -6.7432825    131.42429  0.031930099   0.03256463            2 
  344000    1.2116913   -6.7609925    131.49204  0.031853692  0.032557148            5 
  345000    1.2061147   -6.7280385    131.69137   0.03180951  0.032548866            2 
  346000    1.1911334   -6.7636478    131.68083  0.031715036  0.032541215            2 
  347000    1.2269927   -6.7646399    132.77184  0.031885648  0.032533554            2 
  348000    1.1999026   -6.8010197     132.8363  0.031809459  0.032527751            3 
  349000    1.2298149   -6.7633289    133.79044  0.031946142  0.032522802            2 
  350000    1.1783112   -6.7441354     134.2015  0.031952738  0.032518767            1 
  351000    1.1904012   -6.7391065    134.20988  0.031863694  0.032514414            2 
  352000    1.2069414   -6.7380985    135.07272  0.031977444   0.03251013            2 
  353000    1.1989927   -6.7636669    135.20812  0.031918821  0.032505247            4 
  354000    1.2033449   -6.7713493    135.45804  0.031887486   0.03250145            7 
  355000    1.2106798   -6.7160944    136.11112  0.031950967  0.032497871            2 
  356000    1.2056254   -6.7344266    136.55224  0.031964476  0.032494506            3 
  357000    1.2159083   -6.7752856    137.29103  0.032047394  0.032490622            1 
  358000    1.1967166   -6.7614132    137.16432  0.031928381  0.032487076            4 
  359000    1.2047197   -6.7329915    138.32239  0.032108262  0.032484116            2 
  360000    1.2226508   -6.7863912    138.15336  0.031979945  0.032480195            4 
  361000    1.1853735   -6.7668536    138.59264  0.031992761  0.032476655            2 
  362000    1.1603379   -6.8012338    139.09179   0.03201929   0.03247316            4 
  363000    1.1553043   -6.7770681    139.41805  0.032005979  0.032469305            3 
  364000    1.2037031   -6.7776772    139.39198  0.031912083  0.032466009            1 
  365000     1.193491   -6.7181448    139.99481  0.031962286  0.032462602            1 
  366000    1.1972193   -6.7745585    140.53872  0.031998797  0.032459703            1 
  367000    1.2038667   -6.7413341    140.78268  0.031967003  0.032457309            3 
  368000    1.1904941   -6.7638238    141.70625  0.032089279  0.032455183            1 
  369000    1.1748389   -6.6626715    142.29935  0.032136258  0.032453657            4 
  370000    1.2067109   -6.7674887    142.35267  0.032061412  0.032451049            2 
  371000    1.1827596   -6.7647539    142.26802   0.03195598  0.032447854            4 
  372000    1.1917666   -6.7691018    142.62922  0.031950991  0.032444348            1 
  373000    1.1958249   -6.7756596    143.01524  0.031951573  0.032441325            2 
  374000    1.1977541   -6.7704221    143.74862  0.032029549  0.032437974            3 
  375000    1.1993119   -6.7635694      144.057  0.032012666  0.032433732            2 
  376000    1.2072719   -6.7315286    144.56042    0.0320391  0.032431374            2 
  377000    1.1907771   -6.7811648    144.69604  0.031984094  0.032428468            3 
  378000    1.2261348   -6.7766278      145.344  0.032042327  0.032426108            4 
  379000    1.1985038   -6.7494071    146.02769  0.032108111  0.032424395            5 
  380000    1.1854234   -6.7805708    145.87298  0.031989689  0.032422151            2 
  381000    1.2216069   -6.7518063    146.77869  0.032103825  0.032419785            2 
  382000    1.1965668   -6.7573331    146.65471  0.031992738  0.032417074            2 
  383000    1.2094023   -6.7710712    146.34637  0.031842116  0.032413328            7 
  384000    1.1948614   -6.7990596     147.0572  0.031913454  0.032409927            3 
  385000    1.2012808   -6.7676356    147.69122  0.031967796  0.032406184            3 
  386000    1.1676529   -6.6997363    149.17812  0.032205985  0.032403496            1 
  387000    1.1714385   -6.7466195    148.29168  0.031931886  0.032399988            2 
  388000    1.1804143   -6.7980226     148.6101  0.031917977  0.032395932            4 
  389000    1.1874752   -6.8096077    148.68463  0.031851892  0.032392175            2 
  390000     1.196328   -6.7649256    149.45073  0.031933917  0.032388104            3 
  391000    1.1944279   -6.7851329     149.9581   0.03196038   0.03238495            2 
  392000    1.2023294   -6.7707766    150.23506  0.031937725  0.032381109            3 
  393000    1.1849193   -6.7672105     150.7666  0.031969168  0.032377431            3 
  394000    1.1888256   -6.7698782    150.87155  0.031910227  0.032373758            1 
  395000    1.1955736    -6.757675    151.90316  0.032047081  0.032370957            2 
  396000    1.1686383   -6.7834623    151.92241  0.031970204  0.032368532            1 
  397000    1.1831281   -6.7502947    152.96201  0.032107895  0.032367684            2 
  398000    1.1818736   -6.7403291    152.95281  0.032025296   0.03236638            3 
  399000    1.1781837   -6.7534666     153.2168  0.032000168  0.032365407            1 
  400000     1.206685   -6.7602839    154.28717   0.03214316  0.032363966            2 
  401000    1.1649473   -6.7576136    154.27094   0.03205963  0.032363239            4 
  402000    1.1750988   -6.7928233    154.58665  0.032045326   0.03236121            7 
  403000    1.1795572   -6.7437204    155.37426  0.032128673  0.032360462            5 
  404000    1.1933804    -6.760409    155.23897   0.03202124  0.032359499            3 
  405000      1.20802   -6.7621264     155.9438  0.032087202  0.032358918            2 
  406000    1.1922889   -6.7709496    156.13474  0.032047361  0.032357753            3 
  407000    1.2115203   -6.7683944    156.66429  0.032077044  0.032356258            4 
  408000    1.1805455   -6.7713298    157.29175  0.032126584  0.032355237            2 
  409000    1.1803048   -6.7745041    156.98186  0.031984893  0.032353226            2 
  410000    1.1544853   -6.7923525    157.35686  0.031983102  0.032351375            2 
  411000    1.1660737   -6.7850077    158.09734  0.032055422   0.03234969            4 
  412000    1.1967294   -6.7574663    158.16555  0.031991413  0.032347476            2 
  413000    1.1928111    -6.779082    158.97117  0.032076506  0.032345779            3 
  414000    1.1787849   -6.7977932     158.9667  0.031998128  0.032344171            1 
  415000    1.1699357   -6.7771161     159.3381  0.031995603  0.032341901            3 
  416000    1.2010249   -6.8093994    159.64132  0.031979431  0.032339874            2 
  417000    1.1864252   -6.7872558    159.89039  0.031952515  0.032338481            3 
  418000    1.1725956   -6.7975627    160.51561  0.032000719  0.032335791            3 
  419000    1.2050962   -6.8038133    160.26891   0.03187528  0.032333164            2 
  420000    1.1749316   -6.7867035    161.64342  0.032072107  0.032330693            2 
  421000    1.1623508   -6.7895225    161.76153  0.032019306  0.032328791            5 
  422000    1.1950182   -6.7846157    162.60208  0.032109415  0.032327291            3 
  423000    1.1933851   -6.7686015    162.72176  0.032057085  0.032326453            3 
  424000    1.1892326    -6.762303    162.48649  0.031935237  0.032324644            2 
  425000    1.1888366    -6.760116    163.34849  0.032029116  0.032322278            2 
  426000    1.1835613   -6.8408084    163.42777  0.031969438  0.032320449            1 
  427000    1.1805081   -6.8097626    163.51627  0.031911841  0.032318823            3 
  428000     1.161193    -6.794355    164.55328  0.032039191  0.032316928            1 
  429000      1.17708   -6.7847684     165.0911  0.032068978  0.032315123            6 
  430000    1.1766798   -6.7770055    165.61368  0.032095675  0.032313447            3 
  431000     1.176961   -6.7835849     165.8623  0.032069277  0.032312609            2 
  432000    1.1586611   -6.7827854    166.61394  0.032140035  0.032311837            3 
  433000    1.1841729   -6.7914475    166.77408  0.032096629  0.032311313            2 
  434000    1.1686016   -6.7885443    168.08932  0.032275214  0.032312513            2 
  435000    1.2011214   -6.7768333      167.584  0.032104215  0.032313386            2 
  436000    1.1808471   -6.7391875    168.82853  0.032268449  0.032314962            3 
  437000    1.1732023   -6.7441514    169.53577  0.032329475  0.032316472            3 
  438000      1.18557   -6.8005033     169.6386  0.032275228  0.032316847            4 
  439000    1.1993221     -6.80828    169.44458  0.032164878  0.032317585            5 
  440000    1.1923031   -6.8070988    169.60022  0.032121253    0.0323182            3 
  441000    1.1924134   -6.7724771    170.49232  0.032216992  0.032318329            2 
  442000    1.1718588    -6.788994    170.70003  0.032183263  0.032317841            2 
  443000    1.1853297   -6.7598368    170.72141  0.032114636   0.03231696            2 
  444000    1.2050644   -6.8170242    170.12176   0.03192976  0.032316293            2 
  445000    1.2025995   -6.7872781    171.19005  0.032058062  0.032315716            2 
  446000    1.1622698   -6.7747828    171.29675   0.03200612  0.032314443            4 
  447000     1.178175   -6.8220363    171.33797  0.031942202  0.032313088            2 
  448000    1.1871255   -6.7631842    172.00667  0.031995288  0.032311731            4 
  449000    1.1788106   -6.7821325    173.20809   0.03214701  0.032309469            2 
  450000    1.1925228   -6.7732989    173.07997  0.032051847  0.032308169            3 
  451000    1.1527535   -6.8266882    172.78426  0.031926139  0.032306035            3 
  452000     1.180754   -6.7641287    172.98702  0.031892887  0.032303501            2 
  453000    1.1698405   -6.7721886    173.91112   0.03199248  0.032301178            3 
  454000    1.1786702   -6.7480558    174.23381  0.031981243  0.032298666            3 
  455000     1.161292   -6.7508978    174.47628  0.031955363  0.032296149            5 
  456000     1.179668   -6.7999142    174.27195  0.031847945  0.032292912            2 
  457000    1.1838202   -6.7866125    174.23508  0.031771532  0.032287902            3 
  458000    1.1718096   -6.8016491    174.79762  0.031804517   0.03228311            2 
  459000    1.1881139   -6.8062985    175.37995   0.03184095   0.03227866            6 
  460000    1.1638735   -6.8135749      175.196  0.031738406  0.032274389            4 
  461000    1.1803148   -6.8058417     175.5501  0.031733569  0.032269554            2 
  462000    1.1999306   -6.8244641    175.59453  0.031672895  0.032264078            4 
  463000    1.1907056   -6.8078043    176.47801  0.031763501  0.032259472            6 
  464000    1.1815844   -6.8146728    176.82384  0.031757155  0.032254578            4 
  465000    1.1789925   -6.8196994    177.36393  0.031785651  0.032250157            3 
  466000    1.1822719   -6.7800624    178.19676  0.031866373  0.032245472            2 
  467000    1.1888442   -6.8375412    177.66771  0.031703732  0.032240553            4 
  468000    1.1834877   -6.8116914    178.24744  0.031739216   0.03223629            6 
  469000      1.15869   -6.7580024    179.22927  0.031845996  0.032231959            3 
  470000    1.1554694   -6.7931458    178.61655  0.031669601   0.03222736            4 
  471000    1.1705017   -6.8196591    178.34138  0.031553676  0.032221725            6 
  472000    1.1579277   -6.8185505    179.93106   0.03176749  0.032216118            4 
  473000     1.198305   -6.8490235     179.3678  0.031601092  0.032209896            4 
  474000    1.1773105   -6.8062109    180.24504   0.03168865  0.032204016            3 
  475000    1.1670864   -6.7913858    181.03025  0.031759693  0.032198711            3 
  476000    1.1729034   -6.8118417    180.90626  0.031671264  0.032194023            3 
  477000    1.1686275   -6.7850634    181.69579    0.0317428  0.032188954            3 
  478000    1.1745113    -6.819769    181.52928  0.031647363  0.032183911            2 
  479000    1.1696961    -6.828696    181.97157  0.031658241  0.032178714            4 
  480000    1.1973979   -6.8186831    182.45115  0.031675546  0.032172341            2 
  481000    1.1967836   -6.7575188    183.05666  0.031714598  0.032166904            2 
  482000      1.15092    -6.828189     181.9735  0.031461532  0.032160824            2 
  483000    1.1537657   -6.7706897     182.9124  0.031558384  0.032154968            4 
  484000    1.1876219   -6.8556138    182.57018   0.03143426  0.032149499            1 
  485000    1.1613098   -6.7826477    184.03104  0.031620453  0.032143516            2 
  486000    1.1555759   -6.8187135    183.58911  0.031479614  0.032137505            3 
  487000    1.1861817   -6.8093866    183.73559  0.031440039  0.032131425            1 
  488000    1.2007443   -6.7768381    184.26837  0.031466594  0.032124241            3 
  489000    1.1758383    -6.845404    184.43333  0.031430357  0.032117411            4 
  490000    1.1677939   -6.7336683    185.92063  0.031619154  0.032110279            7 
  491000    1.1532197   -6.7624285    185.29684  0.031448886  0.032103308            3 
  492000    1.1770039   -6.8146474    185.55012  0.031427865  0.032096409            1 
  493000    1.1959126   -6.7695488    185.68949  0.031387676  0.032089006            4 
  494000     1.190678   -6.8072431    185.49627  0.031291544  0.032081302            1 
  495000    1.1614881   -6.8054823     186.5676  0.031408687  0.032073202            2 
  496000    1.1849272   -6.8092727    187.06634  0.031429157  0.032066083            2 
  497000    1.1610833   -6.7340373    187.89391   0.03150468  0.032059294           10 
  498000    1.1560861   -6.8080607    187.56682  0.031386684  0.032052201            2 
  499000     1.152185   -6.7971147      188.095   0.03141199  0.032044368            4 
  500000    1.1946797   -6.7505459    189.00477  0.031500795  0.032037461            3 
  501000    1.1759474   -6.8273805     188.5735  0.031366185   0.03202998            2 
  502000    1.1851695   -6.8223573    189.14997  0.031399398  0.032021146            4 
  503000    1.1517935    -6.818745    188.26774  0.031190812  0.032012416            2 
  504000    1.1816828   -6.7943799    188.82098  0.031220401   0.03200367            5 
  505000    1.1726591   -6.8151454    189.23761  0.031227329  0.031995278            2 
  506000    1.1623049    -6.844539    189.21241  0.031161465  0.031986629            4 
  507000    1.1596728   -6.8688256    189.61852  0.031166752    0.0319783            5 
  508000    1.1736191    -6.823451    189.97773  0.031164326  0.031969817            2 
  509000    1.1865402    -6.858962      190.634  0.031210544  0.031961477            2 
  510000    1.1811529   -6.8366519    190.71961  0.031163334   0.03195321            2 
  511000    1.1845817   -6.7921184    191.91236  0.031296863  0.031945206            2 
  512000    1.1973796   -6.7680876    192.94283  0.031403455   0.03193821            3 
  513000     1.155663   -6.8338077     192.3337  0.031243292  0.031930782            4 
  514000    1.1567583   -6.8447296    193.15307  0.031315349  0.031922922            3 
  515000    1.1730854   -6.8157603    193.00368  0.031230369  0.031914714            4 
  516000    1.1933454   -6.7787045    194.12156   0.03135038   0.03190754            8 
  517000    1.1942816   -6.8658282    193.39658  0.031172885  0.031900599            2 
  518000    1.1841011   -6.8172074    194.95896  0.031364055  0.031893777            2 
  519000    1.1466978   -6.8214313    194.62803  0.031250487  0.031886686            3 
  520000    1.1668983   -6.7629502    196.22475  0.031446275  0.031879665            1 
  521000    1.1739043   -6.8310127    195.49452  0.031269118  0.031873111            3 
  522000    1.1759066   -6.8136235     196.2438  0.031328831  0.031865785            7 
  523000    1.1626793   -6.7941066    195.89623  0.031213549  0.031859107            2 
  524000    1.1407312   -6.8305657     196.3183  0.031221104  0.031852235            2 
  525000    1.1511964   -6.8102874    197.01999  0.031273015  0.031844425            2 
  526000     1.176173   -6.8265149    197.55024  0.031297567  0.031837307            3 
  527000    1.1989742   -6.8496827    197.13433  0.031172412  0.031830737            2 
  528000    1.1794237   -6.8333521    197.58072  0.031183826  0.031822829            4 
  529000    1.1417221   -6.8217558    197.59066  0.031126443  0.031815164            2 
  530000    1.1816393   -6.8320494    198.17527  0.031159634  0.031808086            2 
  531000    1.1472449   -6.7980912    199.44834  0.031300743  0.031801006            2 
  532000    1.1444391   -6.8789919    199.29633  0.031218097  0.031794096            4 
  533000    1.1728454   -6.8583551    199.94351  0.031260711  0.031787618            1 
  534000     1.185393   -6.8630564    199.67023  0.031159523  0.031780773            3 
  535000    1.1541861   -6.8305028    200.82496  0.031281146   0.03177419            3 
  536000     1.170106   -6.8342275    201.33386  0.031301907   0.03176801            2 
  537000    1.1562633   -6.8666373    201.08527  0.031205039   0.03176189            3 
  538000    1.1652132    -6.807776    202.21142  0.031321472  0.031755418            1 
  539000    1.1488901   -6.8263613    202.62017  0.031326557  0.031749981            2 
  540000    1.1870869   -6.8144671    202.84052  0.031302549  0.031744781            3 
  541000    1.1467049   -6.7864913    204.94448  0.031568774  0.031740111            1 
  542000    1.1806611   -6.8249912    203.74264  0.031325744  0.031735467            4 
  543000    1.1560563   -6.8130389    204.41376  0.031371049  0.031730331            2 
  544000    1.1330159   -6.8361808    204.82037   0.03137567  0.031724997            3 
  545000    1.1912117   -6.8663609      204.395  0.031253058  0.031719051            3 
  546000    1.1767541   -6.8595403    204.63267  0.031232092   0.03171322            6 
  547000    1.1539078   -6.8376023    203.97933  0.031075462   0.03170761            8 
  548000    1.1438397   -6.8247961    205.50186  0.031250283  0.031702192            4 
  549000    1.1531425   -6.8540446    205.93306  0.031258813  0.031696654            2 
  550000    1.1846991   -6.8254328    205.79428  0.031180952  0.031691613            1 
  551000    1.1476652   -6.8311595    206.53589  0.031236524  0.031686387            4 
  552000    1.1664299   -6.8572856    207.49047  0.031324045   0.03168155            3 
  553000    1.1790047   -6.8718772    207.18633  0.031221569  0.031676618            3 
  554000    1.1667864   -6.8586609    207.30446  0.031182981  0.031670954            3 
  555000     1.177454   -6.8592902    207.84566  0.031208057  0.031665379            2 
  556000    1.1515134   -6.8600454    207.82245  0.031148448    0.0316599            5 
  557000    1.1474518   -6.7982542    209.86837  0.031398619  0.031654298            1 
  558000    1.1764695   -6.8498115    209.03967  0.031218588  0.031649007            4 
  559000    1.1605418   -6.8540306    208.18018  0.031034612  0.031643015            5 
  560000    1.1805225   -6.8606543    209.83278  0.031225116   0.03163691            2 
  561000    1.1422707   -6.8259596    210.05071  0.031201828  0.031630958            3 
  562000    1.1675688   -6.8653728    210.22053  0.031171491  0.031625044           10 
  563000    1.1557369   -6.8654301    210.83349  0.031206851  0.031619128            3 
  564000    1.1897985    -6.866546    210.73989   0.03113769  0.031613435            2 
  565000    1.1710109   -6.8386684    210.96443  0.031115698  0.031607248            5 
  566000    1.1608673    -6.844959    211.02363  0.031069439  0.031601278            2 
  567000    1.1601729   -6.8217337    212.02635  0.031162016  0.031595529            2 
  568000    1.1595451   -6.8683514    212.07986  0.031115003  0.031589436            2 
  569000    1.1546226    -6.840736      212.471  0.031117603  0.031583027            2 
  570000    1.1713763   -6.8747786    212.53968  0.031073053  0.031577165            4 
  571000    1.1838181   -6.8422205    214.02749  0.031235769  0.031571159            2 
  572000    1.1529279    -6.895155    212.80676  0.031003316  0.031565142            2 
  573000    1.1875888   -6.8636947    214.09798  0.031136996  0.031558648            5 
  574000    1.1761527   -6.8674415    213.93145  0.031058574  0.031552245            2 
  575000    1.1562572   -6.8432308    214.58328  0.031099025  0.031546026            7 
  576000    1.1506659   -6.8687417     214.1735  0.030985749   0.03153964            3 
  577000    1.1540474   -6.8560572    215.00464  0.031052086  0.031533018            2 
  578000    1.1636465   -6.8803332    214.53217  0.030930244  0.031526693            2 
  579000    1.1828595   -6.8388358     215.3403  0.030993135  0.031519977            2 
  580000    1.1752498   -6.8486919    215.97182  0.031030434  0.031513175            3 
  581000    1.1469969   -6.8279995    216.64584  0.031073701  0.031506793            3 
  582000    1.1442184   -6.8838515    215.84866  0.030906166  0.031499842            2 
  583000    1.1521887   -6.8556001    216.32418  0.030921123  0.031492808            2 
  584000    1.1524439   -6.9195378    216.11159  0.030837841  0.031485871            4 
  585000    1.1384243   -6.8802148    217.21049  0.030941666  0.031478774            9 
  586000    1.1776111    -6.860573    218.36794  0.031053462  0.031472447            3 
  587000    1.1733807   -6.8921474     218.0232  0.030951619  0.031466122            1 
  588000    1.1562579   -6.8599268    218.41805  0.030954939  0.031459651            2 
  589000    1.1563523   -6.8397189    218.76965   0.03095213  0.031453881            4 
  590000    1.1455559   -6.8991055    218.85467  0.030911677  0.031447137            4 
  591000    1.1624559    -6.874004    219.82045  0.030995551  0.031440642            3 
  592000    1.1478789   -6.8504576    220.00586  0.030969293  0.031434071            6 
  593000    1.1732136   -6.8298783    220.55528  0.030994278  0.031427459            6 
  594000    1.1511376   -6.8717124    220.24537  0.030898621  0.031421078            1 
  595000    1.1291345   -6.9017931    220.35697  0.030862321   0.03141455            4 
  596000    1.1340941   -6.8580372    221.91243  0.031028024  0.031408197            3 
  597000    1.1433747   -6.8334051     222.4193  0.031046803  0.031402453            3 
  598000     1.129325   -6.8767779    222.36064  0.030986711  0.031396427            2 
  599000    1.1422634   -6.8789203    222.22844  0.030916589  0.031390718            4 
  600000    1.1621974   -6.8295724    223.17263  0.030996199  0.031384827            3 
  601000    1.1351145   -6.8264223    223.65081  0.031010928  0.031378915            3 
  602000     1.139039   -6.9098976    223.01324  0.030871157  0.031373012            3 
  603000    1.1651055   -6.8494177    224.49365  0.031024551  0.031366795            3 
  604000     1.161173   -6.8416184    223.91173  0.030892899  0.031360743            3 
  605000    1.1702455   -6.8685494     223.9753  0.030850592  0.031354158            6 
  606000    1.1505425   -6.8336459    224.95515  0.030934427  0.031347612            5 
  607000    1.1641571   -6.8765843    224.20309  0.030780215  0.031340847            2 
  608000     1.155129   -6.8378066    226.00562  0.030976648  0.031334531            1 
  609000    1.1427171    -6.869521    225.81945  0.030900308  0.031328936            2 
  610000    1.1635481   -6.8861354     225.9315  0.030864959   0.03132285            2 
  611000    1.1701656   -6.8453377    227.31572  0.031003235  0.031316666            4 
  612000    1.1293966   -6.8318565    227.30433  0.030951025  0.031310538            5 
  613000    1.1706674   -6.8285825    227.35139  0.030906932  0.031304968            5 
  614000    1.1550216   -6.8797649    226.91569   0.03079746  0.031298866            2 
  615000    1.1449616    -6.865305    227.66088  0.030848357  0.031293035            4 
  616000    1.1280867   -6.8730347    229.15624  0.031000573  0.031287673            5 
  617000    1.1208527   -6.8377162    228.94501    0.0309218  0.031282435            3 
  618000    1.1588575   -6.8779075    228.81705  0.030854511  0.031277155            2 
  619000    1.1520285    -6.887665    229.40847  0.030884285  0.031271195            2 
  620000    1.1549278   -6.9231786     229.3332  0.030824355  0.031265822            4 
  621000       1.1656   -6.9344274    229.19694  0.030756433  0.031260405            1 
  622000    1.1668138   -6.8629764    231.38486  0.031000115  0.031255113            2 
  623000    1.1567946   -6.8708328    230.99505  0.030898214  0.031249336            3 
  624000    1.1411646   -6.8570736    232.45569  0.031043762   0.03124385            3 
  625000    1.1472561    -6.898148    231.70078  0.030893438  0.031238451            2 
  626000    1.1414914   -6.8403589    232.19523  0.030909908  0.031232803            5 
  627000    1.1462312   -6.8496196    232.71084  0.030929139  0.031227748            2 
  628000    1.1492168    -6.902488    231.73849  0.030750861  0.031222387            2 
  629000    1.1379018   -6.8643566    233.09252  0.030881362  0.031216748            6 
  630000    1.1808135   -6.8143653    233.63335  0.030903883  0.031211205            2 
  631000    1.1589367   -6.8546807    232.87585  0.030754866  0.031205116            1 
  632000    1.1594288   -6.8557979    233.00741  0.030723551  0.031199157            2 
  633000    1.1412886   -6.8448313    233.78301  0.030777121   0.03119271            3 
  634000     1.139874    -6.895727    233.64038  0.030709829   0.03118632            4 
  635000    1.1717947   -6.8739329    234.38082  0.030758638  0.031179529            3 
  636000    1.1378213   -6.8307247    234.61531     0.030741  0.031173436            3 
  637000    1.1590942   -6.8914169    234.93685  0.030734805  0.031167248            3 
  638000    1.1416988   -6.8989509    234.99982  0.030694856  0.031161226            2 
  639000    1.1327422   -6.8470399    236.39656  0.030828972  0.031155314            5 
  640000    1.1517032   -6.8644106    236.72684  0.030823807  0.031149469            2 
  641000    1.1584845   -6.8957034    236.50422  0.030746778  0.031143519            1 
  642000    1.1360565   -6.9183346    237.24567  0.030795128  0.031137772            3 
  643000    1.1363772   -6.8435979    236.90176  0.030702664  0.031131895            5 
  644000    1.1514123   -6.8678148    238.39957  0.030848806   0.03112696            2 
  645000    1.1656909   -6.8977105    238.05546   0.03075652   0.03112165            7 
  646000    1.1483596   -6.9120143    239.08297  0.030841457   0.03111649            4 
  647000    1.1483352   -6.8845003     239.3911  0.030833475  0.031111094            1 
  648000    1.1563303   -6.8810775    238.88432   0.03072072  0.031105912            5 
  649000    1.1437761   -6.8439842    240.52358   0.03088387  0.031100484            2 
  650000    1.1751524   -6.8813012    239.19859  0.030666486   0.03109531            4 
  651000    1.1735073   -6.8506395    240.65849  0.030806259  0.031090189            1 
  652000    1.1311322   -6.8389056    241.42417  0.030856873  0.031085328            2 
  653000     1.136968   -6.8635998    241.74424  0.030850464  0.031080174            1 
  654000    1.1547037   -6.9146412    241.53631  0.030776798  0.031074793            3 
  655000    1.1495191   -6.8999909    240.90187  0.030649093  0.031068891            7 
  656000    1.1396035   -6.8443336    242.27878  0.030777284  0.031063359            2 
  657000    1.1182823    -6.863633     242.3998  0.030745788  0.031057853            1 
  658000    1.1601281   -6.8934111    242.14527  0.030666828   0.03105192            3 
  659000    1.1410115   -6.9112428    241.76947  0.030572771  0.031045973            5 
  660000    1.1382568   -6.9055465    242.75996   0.03065151  0.031040305            4 
  661000    1.1221338   -6.8919921    244.92402  0.030877965  0.031035198            4 
  662000    1.1474217   -6.8977584    243.66445  0.030672766  0.031029603            1 
  663000    1.1689054   -6.9585979    243.10695  0.030556429  0.031023502            3 
  664000    1.1369298   -6.9272901    244.16845  0.030643631  0.031017709            7 
  665000    1.1629712   -6.8854411    244.36831  0.030622595  0.031011424            2 
  666000    1.1478806   -6.9093488    244.14706  0.030548931  0.031005351           10 
  667000    1.1453607    -6.914737    245.50038  0.030672211  0.030999739            2 
  668000    1.1519819   -6.9323408    245.18289  0.030586688  0.030993874            5 
  669000    1.1457275   -6.9078927    245.55506  0.030587327  0.030987841            1 
  670000    1.1765841   -6.8638319     245.6838  0.030557686  0.030981268            4 
  671000    1.1694393   -6.8440173    246.08054  0.030561418  0.030974868            3 
  672000    1.1336551   -6.9005101    245.36653  0.030427397  0.030968233            2 
  673000    1.1502657   -6.8710125    246.38076  0.030507771  0.030960813            8 
  674000    1.1437474   -6.9260402    245.08923  0.030302822  0.030954068            2 
  675000    1.1508508    -6.872148    246.71196  0.030458267  0.030947318            3 
  676000    1.1301287   -6.8992183    247.63555  0.030527065  0.030940822            1 
  677000    1.1438741   -6.8590163    247.49132  0.030464219   0.03093401            3 
  678000    1.1207624    -6.865807    247.65356  0.030439228  0.030927695            3 
  679000    1.1491179   -6.8798981    248.65741    0.0305176  0.030921162            4 
  680000    1.1487182   -6.8510706    248.62795  0.030469112  0.030914442            2 
  681000    1.1477213   -6.8885406    249.26815   0.03050271  0.030907995            5 
  682000    1.1538054    -6.881586    249.38835  0.030472672  0.030901578            2 
  683000    1.1373569   -6.9271202    249.40292  0.030429834  0.030895145            1 
  684000    1.1315778   -6.8869315    249.92022  0.030448369  0.030888731            2 
  685000    1.1498871   -6.9338413    250.17531  0.030434952   0.03088194            2 
  686000    1.1276439   -6.8738672    250.68237  0.030452183  0.030875896            4 
  687000    1.1267132   -6.8897203     251.2258  0.030473775  0.030869689           13 
  688000    1.1178561   -6.8504242     251.7921  0.030498074  0.030863466            2 
  689000    1.1599124   -6.8748186    252.18967  0.030501895  0.030857177            2 
  690000    1.1440962   -6.9311714    252.03001  0.030438407  0.030850801            3 
  691000    1.1630615   -6.9124184    252.17141  0.030411409  0.030844403            3 
  692000    1.1325898   -6.8655481    253.86961  0.030571967  0.030838272            3 
  693000    1.1333984   -6.8890748    252.69262  0.030386318  0.030832385            4 
  694000    1.1453564   -6.8820804    253.19155  0.030402443  0.030825983            7 
  695000    1.1019134   -6.9026942    253.13517  0.030351939    0.0308191            5 
  696000    1.1287541   -6.9028328    254.39005  0.030458579  0.030812702            2 
  697000    1.1364713   -6.9336809    253.94425  0.030361579  0.030805957            1 
  698000    1.1517758   -6.9282438    253.83769   0.03030536   0.03079891            3 
  699000    1.1418769   -6.8724862    254.96284  0.030396142  0.030792129            3 
  700000     1.153092   -6.9261381    255.36801  0.030400954  0.030785492            6 
  701000    1.1663357   -6.9398222    254.91334  0.030303535  0.030779262            3 
  702000    1.1468855   -6.9014308    255.41877  0.030320367  0.030772499            2 
  703000    1.1443854   -6.8928989    255.77286  0.030319211  0.030765553            2 
  704000     1.126913   -6.8870355    255.99991  0.030303019  0.030758485            4 
  705000    1.1436875   -6.9107605    256.65541  0.030337519  0.030752175            4 
  706000    1.1543204   -6.8986075     256.6174  0.030290061   0.03074566            3 
  707000    1.1242104   -6.9058592    256.88392  0.030278633  0.030739118            3 
  708000    1.1446161   -6.9569486    256.97563  0.030246661   0.03073225            2 
  709000    1.1548523   -6.8969152    257.16551  0.030226318  0.030725185            3 
  710000    1.1423118   -6.9123909    258.29527  0.030316346  0.030718551            3 
  711000     1.126724    -6.930072    257.25826  0.030152164  0.030711491            3 
  712000    1.1332247   -6.9261722    258.33587   0.03023594  0.030704689            2 
  713000    1.1409552   -6.9050004    258.64001   0.03022908  0.030697216            3 
  714000    1.1288478   -6.9027901    258.11137  0.030125043  0.030690035            2 
  715000    1.1205208   -6.9148283    258.69827  0.030151313  0.030682859            3 
  716000    1.1217553   -6.8544731     259.7471  0.030231273  0.030675839            3 
  717000    1.1541372   -6.9222993      259.627  0.030175151  0.030668825            4 
  718000    1.1455865   -6.9160128    260.22406  0.030202421  0.030661519            4 
  719000    1.1437035   -6.9296626    260.40894  0.030181843  0.030654248            2 
  720000    1.1394018   -6.9279325    260.35283   0.03013343  0.030646992            4 
  721000    1.1423126   -6.9196111    259.35131  0.029975879   0.03063917            5 
  722000    1.1376024   -6.9283048    261.29761  0.030159004  0.030631783            4 
  723000     1.148733   -6.8991288    261.33047  0.030121078  0.030624676            3 
  724000    1.1284159   -6.8594915    262.87973  0.030257796  0.030617228            3 
  725000    1.1483419   -6.8841005    262.21341  0.030139472  0.030610222            4 
  726000     1.147616   -6.9216595    262.63171  0.030145972   0.03060248            2 
  727000    1.1619264   -6.9009056    262.21018  0.030056188  0.030595081            2 
  728000    1.1140083   -6.8978241    262.98951   0.03010411  0.030587775            5 
  729000    1.1266464   -6.8522932    263.68521  0.030142342  0.030580393            3 
  730000    1.1358882    -6.906327    263.29833  0.030056887  0.030573373            4 
  731000    1.1373373   -6.9431946    263.21768  0.030006575  0.030566181            4 
  732000    1.1492854   -6.9110636    264.97525   0.03016567  0.030558892            1 
  733000     1.147322   -6.9252814    264.68002  0.030090952  0.030551843            3 
  734000    1.1272223   -6.9082031    265.84588   0.03018232  0.030545051            4 
  735000    1.1282067   -6.8854361    266.95758    0.0302673  0.030538458            2 
  736000    1.1179647   -6.9259621    266.37732  0.030160476   0.03053191            2 
  737000     1.131153   -6.9041207    266.65469  0.030150915  0.030525525            4 
  738000    1.1506649   -6.8420789    266.89842  0.030137582  0.030518675            4 
  739000    1.1143686   -6.8740344    266.79429  0.030085058  0.030512175            1 
  740000    1.1430868   -6.8653491    268.43566  0.030229241  0.030505353            2 
  741000    1.1378016   -6.8987257    266.66325  0.029989119  0.030498527            1 
  742000    1.1271108   -6.9189397     267.1545  0.030003874  0.030491206            4 
  743000    1.1270835   -6.9180334    267.16017  0.029964129  0.030483828            5 
  744000    1.1356786   -6.8940603    267.99163  0.030016983  0.030476833            1 
  745000     1.138405   -6.9354925    268.35954  0.030017846  0.030469645            4 
  746000    1.1347357   -6.8753654    269.64128  0.030120786  0.030462541            4 
  747000    1.1235903   -6.8833977    269.49641  0.030064303  0.030455558            6 
  748000    1.1316537   -6.9317795    269.65266  0.030041517  0.030448526            2 
  749000    1.1413571   -6.8649326    270.95213  0.030145987  0.030441705            1 
  750000    1.1542069   -6.9219266    270.37996  0.030042218  0.030434356            3 
  751000    1.1411948   -6.9307417    270.62749  0.030029681  0.030427395            3 
  752000    1.1347233   -6.9420197    270.26627   0.02994972  0.030420318            6 
  753000    1.1342761   -6.9235382     270.3038  0.029914099  0.030413348            4 
  754000    1.1106759   -6.9170946    271.01145  0.029952636  0.030406226            3 
  755000     1.125709   -6.8835923    271.48881  0.029965652   0.03039912            2 
  756000    1.1280283    -6.927488     270.9577  0.029867471    0.0303922            2 
  757000    1.1389133   -6.9120603    271.94427  0.029936621  0.030384991            2 
  758000     1.141844   -6.9117543    272.88608  0.030000668  0.030378107            6 
  759000    1.1700756   -6.9337455    272.40617   0.02990845  0.030371185            7 
  760000    1.1366457   -6.9360302    272.01627  0.029826346  0.030363992            2 
  761000    1.1290454   -6.9544295    272.84739  0.029878164  0.030356891            2 
  762000    1.1231766   -6.9612211    273.37705  0.029896877  0.030349973            3 
  763000    1.1133618   -6.9339489    273.28815  0.029847985  0.030342614            3 
  764000    1.1366445   -6.9463509    274.18021  0.029906219  0.030335405            3 
  765000    1.1271895   -6.9008563    274.89458  0.029944943   0.03032847            1 
  766000    1.1238656   -6.9124116    274.67929   0.02988243  0.030321829            2 
  767000      1.11318   -6.8994344    275.74046  0.029958764  0.030314681            5 
  768000    1.1010461   -6.9168418     275.5691  0.029901161   0.03030749            2 
  769000    1.1237541   -6.9531555    275.01624  0.029802367  0.030299976            5 
  770000     1.138907   -6.9279459    275.06133  0.029768542  0.030292332            2 
  771000    1.0896219   -6.9393615    275.63148  0.029791557  0.030284672            3 
  772000    1.1302525   -6.9265925     276.4171   0.02983777   0.03027738            2 
  773000     1.128896   -6.9138832    276.70878  0.029830614  0.030270588            3 
  774000    1.1174401   -6.9334201    276.57985  0.029778192  0.030263195            3 
  775000    1.1340445   -6.9486942    275.82049  0.029658117  0.030255885            4 
  776000    1.1328297   -6.9260338    276.96373  0.029742669  0.030248397            2 
  777000    1.1215831   -6.9412379    277.14523  0.029723856  0.030240976            7 
  778000     1.135361   -6.9811972    277.54556  0.029728531  0.030232899            2 
  779000    1.1007689    -6.896496     278.8125  0.029825899  0.030225453            4 
  780000    1.1179184   -6.9349083    278.67975  0.029773477  0.030218293            4 
  781000    1.1248185   -6.9173891    278.97861  0.029767244  0.030211213            4 
  782000    1.1426762   -6.9280789    279.30245  0.029763688   0.03020375            3 
  783000    1.1568974   -6.8952152     279.2944  0.029724819  0.030196684            4 
  784000    1.1233465   -6.9568079    278.71335  0.029625143  0.030189366            3 
  785000    1.1570933   -6.9066858    279.55241  0.029676477  0.030181683            1 
  786000    1.1297945   -6.9381146    280.05393  0.029691892  0.030174352            5 
  787000    1.1270238   -6.9222685    280.79502  0.029732637  0.030166566            5 
  788000    1.1256019   -6.9316969    280.39788  0.029652906  0.030159043            3 
  789000    1.1364125   -6.8982145    281.67534  0.029750247  0.030151685            5 
  790000    1.1325372   -6.9209463    282.70951  0.029821678  0.030144255            6 
  791000    1.1155365   -6.9317487    282.00288  0.029709532  0.030137133            3 
  792000     1.110108   -6.9264385    282.52655   0.02972712  0.030130093            3 
  793000    1.1553995    -6.918612    281.90766  0.029624597  0.030123143            4 
  794000    1.1271716   -6.8998526    282.87183   0.02968848  0.030116074            6 
  795000    1.1064937   -6.9152406    283.02718   0.02966742  0.030109226            3 
  796000     1.123262   -6.8806152    283.78021  0.029708984  0.030102252            2 
  797000     1.114834   -6.9769772    282.36731  0.029523976  0.030095138            7 
  798000      1.12542   -6.9002495    285.24697  0.029787695  0.030087985            3 
  799000    1.1007531   -6.9243512    284.15432  0.029636454  0.030080682            7 
  800000     1.129881   -6.9597369     284.0226  0.029585688  0.030073393            2 
  801000    1.1230014   -6.9327932    284.75626  0.029625079  0.030066218            7 
  802000    1.1340679   -6.9520843    284.44484  0.029555781  0.030059046            6 
  803000    1.1205903   -6.9553126    284.84666  0.029560674  0.030051562            3 
  804000     1.130085   -6.9337032    285.48467  0.029590036  0.030044104            3 
  805000       1.1171   -6.9356842    286.44944  0.029653151  0.030036761            6 
  806000    1.1179809   -6.9515124    285.57872  0.029526336  0.030029775            3 
  807000    1.1384553   -6.9473495    288.35693  0.029776634  0.030022459            7 
  808000    1.1299624   -6.9178734    287.48342  0.029649693  0.030015692            3 
  809000    1.1391746   -6.9329706    287.54253  0.029619132  0.030008792            8 
  810000    1.1368296   -6.9269425    288.27169  0.029657581  0.030001989            2 
  811000    1.1379144   -6.8888477    289.50705   0.02974795  0.029995312            3 
  812000      1.12437   -6.9414444    288.59412  0.029617623  0.029988621            2 
  813000    1.1388666   -6.9495543    288.34137  0.029555286  0.029981407            3 
  814000    1.1213587    -6.922564    288.80717  0.029566664  0.029974151            3 
  815000    1.1214639   -6.9379316    289.85638  0.029637666  0.029967324            3 
  816000    1.1194548   -6.9699543    289.08239  0.029522303  0.029960255            3 
  817000     1.131588   -6.9358851    289.88755  0.029568293  0.029953416            2 
  818000    1.1383947   -6.9063194    290.48263   0.02959277  0.029946976            5 
  819000    1.1408623   -6.9032149    291.18398  0.029627999  0.029940263            3 
  820000    1.0894354   -6.9607134    290.11556  0.029483289  0.029933122            3 
  821000    1.1126151   -6.9228755    291.35152   0.02957283  0.029926266            2 
  822000    1.1341189   -6.9267189    291.27812  0.029529412  0.029919156            3 
  823000    1.1040265   -6.9665016    290.43556  0.029408217   0.02991166            3 
  824000    1.1316892   -6.8941708    291.90792  0.029521432  0.029904391            3 
  825000    1.1298849   -6.9313598    292.11862  0.029506932  0.029897432            5 
  826000    1.1134643    -6.916512    292.88999  0.029549031  0.029890545            5 
  827000    1.1424099   -6.9469083    293.14524   0.02953902  0.029883198            4 
  828000    1.1069602   -6.9388865    293.00665  0.029489397  0.029875837            2 
  829000    1.1277687    -6.932413    293.27311   0.02948061  0.029868909            2 
  830000    1.1153596   -6.9422432    294.15259  0.029533393  0.029862289            2 
  831000     1.099795   -6.9512229    294.05101  0.029487667  0.029855472            1 
  832000    1.0938695   -6.9679878    294.22324  0.029469475  0.029848786            3 
  833000    1.1190189   -6.9489321     294.3816   0.02944994  0.029841825            2 
  834000    1.1360874   -6.9387298    294.35767  0.029412237  0.029834848            3 
  835000    1.1153979   -6.9547221    295.01975  0.029443089  0.029827964            2 
  836000    1.1331447   -6.9509673     295.1378  0.029419637   0.02982109            5 
  837000      1.08944   -6.9664389    294.39038  0.029310074  0.029813761            2 
  838000    1.1153961   -6.9680627    294.42183  0.029278225  0.029805976            3 
  839000    1.1144152   -6.9120691    296.15694  0.029415668  0.029798234            5 
  840000    1.1276169   -6.9930125    294.10432  0.029177016  0.029790577           11 
  841000    1.1275851   -6.9323847    296.10109  0.029340179  0.029782988            2 
  842000    1.1400583   -6.9824871    294.53584  0.029150419  0.029775096            4 
  843000     1.137524   -6.9494159    296.40277  0.029300392  0.029767172            1 
  844000    1.1239304    -6.947388    296.29914  0.029255444  0.029759066            2 
  845000    1.1216416   -6.9866085    297.11977  0.029301752  0.029750699            2 
  846000    1.0899368   -6.9574293    297.08718  0.029263906  0.029742647            4 
  847000    1.1276585   -6.9984752    295.58382  0.029081447   0.02973447            5 
  848000    1.1157243   -6.9942396    297.10548  0.029196687  0.029726445            4 
  849000    1.0979532   -6.9771805    299.10486  0.029358545  0.029718881            2 
  850000    1.0949693   -7.0277168    298.19228  0.029234537  0.029711462            2 
  851000    1.0975391   -6.9809183    298.56244  0.029236432  0.029703788            6 
  852000    1.1348636   -6.9994861    297.60661  0.029108628  0.029695821            3 
  853000    1.1082863   -6.9735272    299.20614  0.029230767  0.029687788            2 
  854000    1.1170904   -6.9609421    300.54824  0.029327502  0.029679929            5 
  855000    1.1107077   -6.9655913    300.51871  0.029290323  0.029672474            3 
  856000    1.1005225   -6.9757354    301.50977  0.029352586   0.02966499            6 
  857000    1.1058982   -6.9748748    301.65181  0.029332148  0.029658054            6 
  858000    1.1218088   -6.9446315    301.71463  0.029304063  0.029650809            2 
  859000    1.1090701   -6.9782136    300.77437  0.029178732  0.029643594            7 
  860000    1.0962318   -6.9569153    302.47932  0.029310012  0.029635751            3 
  861000    1.1024962   -6.9706557    302.46752  0.029274828  0.029627937           11 
  862000    1.1065114   -6.9355239     303.0764  0.029299729  0.029620525            3 
  863000    1.1312528   -6.9696537    301.58295  0.029121567  0.029612942            2 
  864000    1.0968165   -6.9549456    302.99279  0.029223841  0.029605422            2 
  865000    1.1083743   -7.0055183    302.65796    0.0291578  0.029597924            4 
  866000     1.119106   -6.9731605    302.17845  0.029077988  0.029590169            3 
  867000    1.1236057   -6.9312871    302.69694  0.029094285  0.029582371            3 
  868000    1.1143869    -6.971123    303.42431  0.029130598  0.029574575            5 
  869000    1.0809734   -6.9635216    304.44326  0.029194789  0.029567121            6 
  870000    1.1117044   -6.9419533     305.1699  0.029230833  0.029559507            1 
  871000     1.080963   -6.9662714     304.5555  0.029138491  0.029551906            2 
  872000    1.1080441   -6.9710232    304.67721  0.029116705  0.029544168            9 
  873000    1.1013123    -6.938106    305.30471  0.029143252  0.029536426            2 
  874000    1.1144237   -6.9733846    305.99162  0.029175402  0.029529027            6 
  875000    1.1104646   -6.9702968    304.65373  0.029014641  0.029521055            4 
  876000    1.1049187   -6.9796638    305.05434  0.029019629  0.029512861            3 
  877000    1.1303922   -6.9887002     304.7225  0.028955007  0.029504764            1 
  878000    1.1305869   -6.9239925    306.84949  0.029123908   0.02949667            8 
  879000    1.1151382   -6.9783802    306.36256  0.029044611   0.02948855            7 
  880000    1.1178965   -7.0151446    305.22881  0.028904243  0.029480346            3 
  881000    1.1198317    -7.002261    306.91464  0.029030897  0.029472177            1 
  882000    1.1324679   -6.9895568     307.1492  0.029020143  0.029463931            7 
  883000    1.1276009    -7.033248    306.95689  0.028969129  0.029455887            6 
  884000    1.1127695   -6.9944313    307.06818  0.028946849  0.029448167            4 
  885000    1.0882228     -6.98301    307.76471  0.028979728  0.029440233            3 
  886000    1.0824056   -6.9626059    307.42316  0.028914895  0.029432196            5 
  887000    1.0990293   -6.9597455    308.18867  0.028954216  0.029424065            5 
  888000    1.1100033   -7.0124445    307.07096  0.028816719  0.029416024            2 
  889000    1.0702198   -6.9513192    308.86833  0.028952787  0.029407716            4 
  890000    1.1276069   -6.9941363    308.41998  0.028878275  0.029399622            3 
  891000    1.0892385   -7.0166409    308.61867  0.028864447  0.029391169            5 
  892000    1.0991981   -6.9600452    309.06323   0.02887362  0.029382837            3 
  893000    1.1062224   -7.0017235    308.33073  0.028772931  0.029374605            3 
  894000      1.10481   -6.9594346     309.5087   0.02885055   0.02936597            2 
  895000    1.1024929   -7.0159743    308.07113  0.028684462  0.029356963            5 
  896000     1.101616   -6.9881495    307.64892  0.028613181  0.029347691            2 
  897000     1.107015   -7.0171042    308.43151  0.028653986  0.029338315            3 
  898000     1.081904   -6.9792541     309.8679  0.028755373   0.02932953            8 
  899000     1.124346   -7.0080084    308.91679  0.028635223  0.029320462            3 
  900000    1.1085672   -6.9455567    311.15711  0.028810844  0.029311816            5 
  901000    1.1122366   -6.9709628    309.09276  0.028587936  0.029302879            4 
  902000    1.1180651   -6.9295832    310.59547  0.028695073  0.029293969            2 
  903000    1.1322649   -6.9871141    310.25425  0.028631806  0.029284732            3 
  904000     1.104069    -6.951714    310.61689  0.028633563  0.029275641            3 
  905000    1.1013201   -6.9701815    310.36076  0.028578339  0.029266477            3 
  906000    1.1189158   -7.0188562     310.8503  0.028591823   0.02925756            2 
  907000    1.1136955   -6.9814813    311.25925  0.028597873  0.029248179            5 
  908000    1.0932891   -7.0014407    312.28126  0.028660174  0.029238587            6 
  909000    1.0900354    -7.015356    311.06032  0.028516714  0.029228879            3 
  910000    1.1225308   -7.0083868    311.11703  0.028490571  0.029219059            3 
  911000    1.1007635   -7.0257168    312.07055   0.02854652  0.029209433            5 
  912000    1.1429714   -6.9731842    313.36867  0.028633833  0.029199909            8 
  913000    1.0894205   -6.9744801    312.43307  0.028517075  0.029190279            2 
  914000    1.1104903    -6.970058    312.90159  0.028528591  0.029180775            2 
  915000    1.1111869   -6.9628436    313.52367  0.028554068  0.029171202            3 
  916000    1.0893734    -6.994634     313.4281  0.028514202  0.029161821            2 
  917000    1.1116522   -6.9886175    313.97433  0.028532746  0.029152539            4 
  918000    1.1213782    -6.958201    314.71479  0.028568881  0.029143375            3 
  919000    1.1036036   -7.0205643     314.2758  0.028497987  0.029133814            5 
  920000    1.1184762   -7.0030072    314.11785  0.028452704  0.029124796            4 
  921000      1.12477   -6.9965743    314.42166    0.0284493  0.029115505            4 
  922000    1.1017623   -7.0399293    314.96572  0.028467617  0.029106366            4 
  923000    1.1173836    -6.969802     315.7276  0.028505561  0.029097208            3 
  924000    1.1046296   -7.0277857    315.07624  0.028415966  0.029088103            2 
  925000    1.1059608   -6.9668551    316.89461  0.028549064  0.029078812            5 
  926000    1.1074222   -6.9880673    315.98424  0.028436306  0.029069619            6 
  927000     1.123945   -6.9660362    317.54921  0.028546315  0.029060416            1 
  928000    1.1062406    -6.991372    317.39792  0.028501969  0.029051414            6 
  929000    1.0912996   -7.0068647    316.27474  0.028370536  0.029042044            4 
  930000     1.106453   -7.0141429    316.53615  0.028363454  0.029032587            3 
  931000    1.1067779    -6.997419    316.84617  0.028360738  0.029023168            2 
  932000    1.1083753   -6.9741392    316.71677  0.028318739  0.029013898            3 
  933000    1.0938995   -7.0233574    317.19138  0.028330777  0.029004645            3 
  934000    1.1200914   -6.9979435    317.63746  0.028340244  0.028995569            3 
  935000    1.0961533   -6.9999283    318.17499  0.028357842  0.028986345            2 
  936000    1.1156379    -7.007926    317.38492  0.028257205  0.028977001            3 
  937000    1.0998716   -7.0055325    318.84897  0.028357254  0.028967305            3 
  938000    1.0960931   -7.0181417    318.40858  0.028287898  0.028957672            5 
  939000    1.1104292   -7.0082568    318.82119   0.02829439  0.028948051            3 
  940000     1.097894   -7.0321002    319.15467  0.028293853  0.028938451            4 
  941000    1.1226793   -7.0026828    320.32714  0.028367617   0.02892902            2 
  942000    1.0991858   -7.0470647     319.0624   0.02822562  0.028919677            6 
  943000    1.0952902   -7.0312939    319.95099  0.028274212  0.028910309            5 
  944000    1.1221394   -7.0044512    321.10351  0.028346002  0.028901262            3 
  945000    1.0717679   -7.0777308    319.50816  0.028175322   0.02889169            2 
  946000    1.1181735   -7.0322149     320.5747  0.028239491  0.028882164            8 
  947000    1.0784424   -7.0160071    321.39947  0.028282249  0.028872899            2 
  948000    1.1063005   -6.9592568    322.93919  0.028387763  0.028863961            4 
  949000    1.1150086   -7.0072121    322.80732   0.02834627  0.028854982            2 
  950000    1.1287223   -7.0027259    323.37815  0.028366504  0.028846316            3 
  951000    1.1103147   -6.9927165    322.18322  0.028231968  0.028837702            2 
  952000    1.1097324   -6.9678893     323.3079  0.028300761   0.02882883            3 
  953000    1.0891887   -7.0139698    322.97983  0.028242378  0.028820026            2 
  954000     1.092188   -7.0554936    321.46888   0.02808079  0.028810944            6 
  955000    1.1155703   -7.0293666    322.69122  0.028158047  0.028801806            3 
  956000    1.1074752   -7.0237713    323.49192  0.028198389  0.028792689            2 
  957000    1.1313887   -7.0165261    322.78089  0.028107009  0.028783503            3 
  958000    1.0774026   -6.9989108    324.50623  0.028227752  0.028774179            4 
  959000    1.1056332   -7.0272525    324.54054  0.028201298  0.028764956            7 
  960000    1.1256255    -7.035008    322.81701   0.02802231  0.028755527            6 
  961000    1.1132233   -6.9818454    325.76567  0.028248844  0.028746287            3 
  962000    1.0881926   -7.0801545    325.01716   0.02815464  0.028736941            3 
  963000    1.0672097   -6.9865374    326.07661  0.028217083  0.028727632            2 
  964000    1.0930676   -7.0197042    325.31428  0.028121912  0.028718574            4 
  965000    1.0711661   -7.0737078    326.19824  0.028169105  0.028709618            6 
  966000    1.0924103   -7.0103554    327.05989  0.028214276  0.028700797            2 
  967000    1.1032563   -7.0007807     327.2309  0.028199836  0.028692082            5 
  968000     1.085616    -7.029918    327.10086  0.028159509  0.028683283            2 
  969000     1.096699   -7.0121394    327.37026  0.028153617  0.028674463            6 
  970000    1.0771073   -6.9850173    328.15055  0.028191628   0.02866578            4 
  971000       1.1141   -7.0035959    328.73855  0.028213058  0.028657258            4 
  972000    1.0943838   -7.0157646    328.56004  0.028168728  0.028648486            5 
  973000    1.0906573    -7.031865    327.84559  0.028078588  0.028639703            3 
  974000    1.0826468   -7.0251636    328.45393  0.028101808  0.028631012            6 
  975000    1.1289563   -6.9869002    329.63986  0.028174347  0.028622436            5 
  976000      1.09908   -7.0128879    330.17296  0.028190997  0.028613772            2 
  977000    1.1023502   -7.0251536    329.67164  0.028119383  0.028604925            4 
  978000    1.0911496   -7.0312794    329.55893  0.028081027  0.028596404            4 
  979000    1.0845433   -7.0134346     331.0265  0.028177264  0.028587986            3 
  980000    1.1008859   -7.0027767    331.48583   0.02818757  0.028579878            2 
  981000    1.0982595   -7.0266569    330.08716  0.028040024   0.02857163            2 
  982000    1.1048651   -7.0163697    330.97929  0.028087176  0.028562909            4 
  983000    1.1105428   -7.0298879    330.95503  0.028056547  0.028554302            6 
  984000    1.1002499   -7.0208489    332.39566  0.028150039  0.028545934            4 
  985000    1.0821874   -7.0358571     331.9213  0.028081328  0.028537542            3 
  986000    1.0931495   -7.0256413    332.14437  0.028071701  0.028529128            5 
  987000    1.0878847   -7.0277291    333.39618  0.028148951  0.028520564            3 
  988000    1.0878976   -6.9874898    332.63074  0.028055899  0.028512105            3 
  989000    1.0892826   -7.0380541    332.89371  0.028049689  0.028503718            9 
  990000    1.0722468   -7.0141325    332.98408  0.028028963  0.028495324            3 
  991000    1.1016069   -7.0389623    332.94119  0.027997072  0.028486894            5 
  992000    1.0966285   -7.0518183    334.34795  0.028087026  0.028478561            9 
  993000     1.092482   -7.0043337    335.12948  0.028124327  0.028470304            3 
  994000    1.0830965   -7.0095222    334.81937  0.028070034  0.028462184            1 
  995000    1.0876998   -7.0232192    334.79311  0.028039624  0.028454325            6 
  996000    1.1100574   -7.0016448    336.10899  0.028121569  0.028446051           12 
  997000    1.0886312   -7.0178306    335.03239  0.028003376  0.028438022            3 
  998000    1.1112317    -7.068611    334.09432  0.027896987  0.028429744            2 
  999000     1.081906   -7.0265846     335.4997  0.027986295  0.028421486            4 
 1000000    1.1177277   -7.0393142    335.59988  0.027966657  0.028413365            4 
 1001000    1.0863841   -7.0386641    336.84276  0.028042188  0.028405237            3 
 1002000    1.0750125    -7.035578    336.47203  0.027983369   0.02839698            3 
 1003000    1.0786807   -7.0610286    335.85562  0.027904256  0.028388719            4 
 1004000     1.082056   -7.0504119    337.01241  0.027972478  0.028380517            5 
 1005000    1.0724296   -6.9858435    337.61218  0.027994376  0.028372515            3 
 1006000    1.1012812   -7.0352216    337.74984  0.027977953  0.028364705            2 
 1007000     1.087968   -7.0605335    337.89855  0.027962475   0.02835649            2 
 1008000     1.104126   -7.0315785    338.51486  0.027985686  0.028348429            3 
 1009000    1.0982783   -7.0498751    338.24381  0.027935564   0.02834039            2 
 1010000    1.0931332   -7.0361701    339.10879  0.027979273  0.028332257            3 
 1011000    1.0804493   -7.0546384    338.67513  0.027915853  0.028324226            4 
 1012000    1.1016386   -7.0506679    338.42544  0.027867707  0.028315973            4 
 1013000    1.1044917   -7.0101314    340.57799  0.028017274  0.028307849            3 
 1014000    1.0894606   -7.0839173    339.98852    0.0279412  0.028300074            3 
 1015000    1.0808653   -7.0065244    339.64932  0.027885823  0.028292255            3 
 1016000    1.0846993   -7.0055997    341.01048   0.02797002  0.028284146            2 
 1017000    1.0818861   -7.0691697    340.52185  0.027902479  0.028275998            3 
 1018000    1.1161032   -6.9764919    341.71714  0.027972916  0.028268076            2 
 1019000    1.0769678   -7.0319868    341.63646  0.027938866  0.028260036            3 
 1020000    1.0876859   -7.0490489     340.9736   0.02785732  0.028252035            5 
 1021000    1.0807737   -7.0497234     340.8028  0.027816095  0.028244029            2 
 1022000    1.0814195   -7.0807868    340.72583  0.027782602  0.028236067            3 
 1023000    1.0976855   -7.0246295    342.23333  0.027878245  0.028228271            2 
 1024000     1.079691   -7.0392419    342.72055   0.02789067  0.028220585            3 
 1025000    1.0817841   -7.0413438    342.29728  0.027829047  0.028212651            6 
 1026000    1.0784157   -6.9684006    343.87313  0.027929916   0.02820489            2 
 1027000    1.1036858   -7.0638117    342.60214   0.02779959  0.028197215            2 
 1028000    1.0689481   -7.0399167    344.12839   0.02789627  0.028189379            6 
 1029000    1.0950034   -7.0559947    343.49574  0.027817925  0.028181451            3 
 1030000    1.0699771   -7.0258586    345.53069  0.027955558  0.028173534            2 
 1031000    1.0905156   -7.0204694    345.23488  0.027904533  0.028166004            2 
 1032000    1.1042696   -7.0198174    345.18228  0.027873246  0.028158414            2 
 1033000    1.0893623   -6.9977901    345.77064  0.027893727  0.028150601            2 
 1034000    1.0759277   -7.0360739    345.58808  0.027852037  0.028142733            3 
 1035000    1.1002934   -7.0749526    344.68561  0.027752465  0.028134605            4 
 1036000    1.0901207   -7.0288958    345.64873  0.027803148  0.028126562            2 
 1037000     1.092851   -7.0520031    345.15382  0.027736566  0.028118573            3 
 1038000    1.0878062   -7.0078814    346.77553   0.02784004  0.028110872            4 
 1039000    1.0819084   -7.0597021    344.81324  0.027655858  0.028103228            4 
 1040000    1.0834129    -7.076937    346.06311  0.027729416  0.028095418            3 
 1041000    1.0819822   -7.0428996    345.82182  0.027683463   0.02808748            2 
 1042000     1.089314   -7.0255158    346.97429  0.027749064  0.028079646            6 
 1043000    1.0946385   -7.0744746    346.80457  0.027708898  0.028071638            5 
 1044000    1.0699852   -7.0300083    347.01086  0.027698823  0.028063804            6 
 1045000    1.0929049   -7.0581699    348.21938   0.02776869  0.028056006            3 
 1046000    1.0748058   -7.0774263    347.94953  0.027720645  0.028048145            3 
 1047000    1.1045162   -7.0381483    348.76577  0.027759135  0.028040328            3 
 1048000    1.0856445   -7.0135745    349.77887  0.027813206  0.028032749            6 
 1049000    1.0967758   -7.0688884    349.10602   0.02773324  0.028025249            3 
 1050000    1.0821673   -7.0789162    349.22863  0.027716558  0.028017625            3 
 1051000    1.0997183   -7.0432252    350.16166  0.027764166  0.028010026            2 
 1052000    1.0770526   -7.0725723    349.41716  0.027678799  0.028002317            5 
 1053000    1.0785427   -7.0100403    351.27482  0.027799527  0.027994838            3 
 1054000    1.0737907   -7.0163409    350.90816  0.027744162  0.027987682            4 
 1055000    1.0621541   -7.0683029    351.05109  0.027729154  0.027980634            3 
 1056000    1.0668254   -7.0255532    352.14148  0.027788943  0.027973505            6 
 1057000    1.0788271   -7.0304997    352.84089  0.027817793  0.027966633            6 
 1058000    1.1066171   -7.0495135    352.72645  0.027782487  0.027959727            3 
 1059000    1.0376974   -7.0508649    353.29783  0.027801214  0.027952864            4 
 1060000    1.0866837   -7.0692991    354.12122  0.027839718  0.027945989           13 
 1061000    1.0721747   -7.0790448    354.11224  0.027812774  0.027938969            5 
 1062000    1.1148762   -7.0929013    354.12964  0.027787951  0.027932147            3 
 1063000    1.1039345   -7.0027549    355.49648  0.027868962  0.027925526            2 
 1064000    1.0748613     -7.09034    354.80796  0.027788844  0.027919029            3 
 1065000    1.0906069   -7.0243289    355.49788  0.027816735  0.027912425            5 
 1066000    1.0892327   -7.0474524    354.48084  0.027711135  0.027905567            2 
 1067000    1.0734124   -7.0461867    354.79708  0.027709862  0.027898681            3 
 1068000    1.0647355   -7.0465959    354.28358   0.02764385  0.027891696            7 
 1069000    1.0763318   -7.0707441    354.01487  0.027597043   0.02788463            4 
 1070000    1.1177859   -7.0556265    355.43089  0.027681534  0.027877622            4 
 1071000    1.0885619   -7.0536075    353.79768  0.027528609  0.027870407            2 
 1072000    1.0820229   -7.0482163    355.43859  0.027630487  0.027863016            3 
 1073000    1.0935438   -7.0591644    354.24177  0.027511787  0.027855519            4 
 1074000    1.0714466   -7.0415168     355.6492  0.027595375  0.027848066            4 
 1075000    1.0657386   -7.0709544    355.75092  0.027577591  0.027840716            3 
 1076000    1.0545276   -7.0154123    356.21083   0.02758758   0.02783332            2 
 1077000    1.0692215   -7.0209706    356.17385  0.027559103  0.027825931            5 
 1078000    1.0881865   -7.0798483    354.94683  0.027438685  0.027818326            4 
 1079000    1.0744738   -7.0445297    356.12985  0.027504623  0.027810638            4 
 1080000    1.0878357   -7.0875443    355.00146  0.027392088  0.027802756            3 
 1081000    1.0921199   -7.0706959    354.99259  0.027366064  0.027795025            4 
 1082000    1.0595949   -7.0796368    356.33057  0.027443821  0.027786963            2 
 1083000    1.0900006   -7.0791877    357.62563  0.027518131  0.027779035            3 
 1084000    1.0690688   -7.0403656    356.85349  0.027433386  0.027771167            2 
 1085000    1.0767097   -7.0928199    355.82819  0.027329354  0.027763434            3 
 1086000    1.0877477    -7.051001    357.41069  0.027425621  0.027755407            2 
 1087000    1.0757765   -7.1026179    357.03965  0.027371945  0.027747431            4 
 1088000    1.0785589    -7.088509    358.66499  0.027471276  0.027739465            8 
 1089000    1.0813954   -7.0961913    356.93562  0.027313714  0.027731546            7 
 1090000    1.0777571   -7.0422437    358.28204  0.027391594  0.027723602           10 
 1091000    1.0610435     -7.09629    358.51417  0.027384217  0.027715685            4 
 1092000    1.0814564   -7.0742503      358.601  0.027365766  0.027707634            6 
 1093000    1.0818117   -7.0527199    360.15353  0.027459098  0.027699731            4 
 1094000    1.0752309   -7.0559669    359.67952  0.027397891  0.027691836            2 
 1095000    1.0998739   -7.0872953    358.78747  0.027304982   0.02768394            8 
 1096000    1.0861761   -7.0940912     358.8572  0.027285371  0.027675835           10 
 1097000    1.1073446    -7.060297    358.41669  0.027227035  0.027667687            3 
 1098000    1.0940825   -7.1201002    358.76348  0.027228558  0.027659339            3 
 1099000    1.0861748    -7.099182    359.45399  0.027256141  0.027651038            4 
 1100000    1.0647015   -7.1294748    358.48736  0.027158133  0.027642425            7 
 1101000    1.0736754   -7.0758588    359.72237  0.027226943  0.027634121            4 
 1102000    1.0727254   -7.0836491    360.12663  0.027232806   0.02762572            9 
 1103000    1.0732804   -7.0266615     361.4694  0.027309565  0.027617505            3 
 1104000      1.07955   -7.0797021    360.23959  0.027191998   0.02760901            3 
 1105000    1.0595521   -7.0904397    359.41399  0.027105127   0.02760062            6 
 1106000    1.0660411   -7.0873654    359.88833   0.02711636  0.027592199            2 
 1107000    1.1111829   -7.1142423    361.25147   0.02719448  0.027583738            7 
 1108000    1.0804163   -7.0450698    361.87214  0.027216617  0.027575476            5 
 1109000    1.0604671   -7.0275666    362.38973  0.027230968  0.027567536            2 
 1110000    1.0952412    -7.077169    362.03187   0.02717957  0.027559175            7 
 1111000      1.07165   -7.1100099    361.68698  0.027129236  0.027550735            6 
 1112000    1.0649496   -7.0833435    362.05887  0.027132709  0.027542383            7 
 1113000    1.0899381    -7.099747    362.07049  0.027109201  0.027534098            6 
 1114000    1.0498323   -7.0735296    363.80769  0.027214818  0.027526124            2 
 1115000    1.0788977   -7.0990536    362.30008  0.027077734  0.027517895            3 
 1116000    1.0612174   -7.1098818    362.65479  0.027079958  0.027509766            1 
 1117000    1.0533248   -7.1052225    361.92685  0.027001406  0.027501241            5 
 1118000    1.0865074   -7.0203668    364.54129   0.02717213  0.027492899            3 
 1119000    1.0671754   -7.0827797    363.65225  0.027081639  0.027484562            2 
 1120000    1.0853951   -7.0676637    364.07546  0.027088948  0.027476242            2 
 1121000    1.0856159   -7.0573574    365.23732  0.027151154  0.027468113            3 
 1122000    1.0678644   -7.0623493    364.95462  0.027105958  0.027459819            4 
 1123000    1.0640965   -7.0759678    364.39183  0.027040058  0.027451517            2 
 1124000    1.0825145    -7.068324    364.84209  0.027049384  0.027443283            4 
 1125000    1.0629066   -7.0487918    365.34156  0.027062338  0.027435075            5 
 1126000    1.0769052   -7.0693627    366.05313  0.027090966  0.027426863            2 
 1127000    1.1036165   -7.1184982    364.67553  0.026965064  0.027418609            3 
 1128000    1.0666438   -7.0783712    366.59189  0.027082734  0.027410212            3 
 1129000    1.0591814   -7.0673847    367.22844  0.027105731  0.027402096            4 
 1130000    1.0781671   -7.0826263    366.32666   0.02701524  0.027393994            2 
 1131000    1.0867095   -7.0534866    368.58749  0.027157935  0.027385934            7 
 1132000    1.0712816   -7.1001533    365.31985  0.026893393  0.027377768            2 
 1133000    1.0687458   -7.0912786    367.05121     0.026997  0.027369584            3 
 1134000    1.0866787   -7.0871686     368.3274  0.027066975  0.027361736            2 
 1135000    1.0725524    -7.089387    367.59263   0.02698918  0.027353709            4 
 1136000    1.0721144   -7.0806603    369.10425   0.02707631  0.027345575           12 
 1137000    1.0778867   -7.0422365    368.95545   0.02704159  0.027337557            5 
 1138000     1.100019   -7.0594188    368.66734   0.02699673  0.027329704            4 
 1139000    1.0597827   -7.1315289    369.08711  0.027003739  0.027321634            4 
 1140000    1.0708487   -7.0966765    368.21589  0.026916366  0.027313435            4 
 1141000    1.0815289    -7.113352     367.8642   0.02686709  0.027305086            5 
 1142000    1.0740756   -7.1018437    368.65448  0.026901232  0.027296562           10 
 1143000    1.0616985   -7.1105882    367.88754  0.026821781  0.027288147            2 
 1144000    1.0709421   -7.0755614    370.08599  0.026958479   0.02727977            8 
 1145000    1.0708976   -7.1253505    368.74614   0.02683742  0.027271358            3 
 1146000    1.0609722   -7.1138819    369.93462  0.026900423  0.027262724            4 
 1147000    1.0796334   -7.0904045    369.59397  0.026852221  0.027254227            2 
 1148000    1.0685347   -7.1152716    370.12387  0.026867296  0.027245683            3 
 1149000    1.0862666   -7.0656701    369.73141  0.026815449  0.027237375            3 
 1150000    1.0832292   -7.0671663    369.46227  0.026772628  0.027229034            4 
 1151000    1.0534128   -7.1055793    370.46998  0.026822327  0.027220726            4 
 1152000    1.0738946   -7.1008618    370.54024  0.026804126  0.027212201            5 
 1153000    1.0556964   -7.0975286    371.10946   0.02682202  0.027203815            6 
 1154000      1.07838   -7.1087303    370.72294  0.026770865  0.027195473            4 
 1155000    1.0624443   -7.0634959    373.51383   0.02694905  0.027187416            4 
 1156000    1.0464379   -7.0934902    372.52629  0.026854548   0.02717942            3 
 1157000    1.0725543   -7.1034069    372.95376  0.026862126  0.027171242            2 
 1158000    1.0481988   -7.1251312    371.74107   0.02675166  0.027163006            2 
 1159000    1.0657532   -7.0940275    374.13682  0.026900835  0.027154858            2 
 1160000    1.0495867   -7.1368477    372.35068  0.026749331  0.027146864            3 
 1161000    1.0765032   -7.1082692    373.20553  0.026787649   0.02713874            7 
 1162000     1.076594   -7.0853981     374.1596  0.026833018  0.027130722            2 
 1163000    1.0680768   -7.1149161    372.97979  0.026725408  0.027122687            8 
 1164000    1.0410986   -7.1410199    373.37357  0.026730639  0.027114514            7 
 1165000      1.07846   -7.1177522    372.95722  0.026677913  0.027106202            4 
 1166000    1.0721562   -7.0783785     374.4947  0.026764916  0.027097997            2 
 1167000    1.0614973   -7.0735971    374.80383  0.026764056  0.027089763            3 
 1168000    1.0704219   -7.0555248    374.73357  0.026736128  0.027081611            2 
 1169000    1.0613213   -7.1093948    373.37482  0.026616397  0.027073353            5 
 1170000    1.0540562   -7.1100664    374.80942  0.026695827  0.027065063            5 
 1171000    1.0572413   -7.1004412    375.47188  0.026720174  0.027056598            7 
 1172000     1.060984   -7.0955382    376.24956   0.02675267  0.027048343            3 
 1173000    1.0426566   -7.1169787    375.27075  0.026660326  0.027039902            3 
 1174000    1.0674927   -7.1182987    375.55857  0.026658047  0.027031656            3 
 1175000    1.0695429   -7.0767611      375.554  0.026635036  0.027023373            1 
 1176000    1.0636247   -7.0978352    375.91332  0.026637849  0.027015235            5 
 1177000    1.0760644     -7.13403    375.51497  0.026587013  0.027006957            1 
 1178000    1.0706413   -7.1242047    375.90692  0.026592171  0.026998478            7 
 1179000    1.0533898   -7.1269183    376.87074   0.02663774  0.026990012            3 
 1180000    1.0616293   -7.0901447    377.24175  0.026641366  0.026981623            2 
 1181000     1.073363   -7.1081781    376.55982   0.02657069  0.026973316            2 
 1182000    1.0547783   -7.0922114    377.58298  0.026620346   0.02696495            2 
 1183000    1.0500749    -7.162793     376.5258  0.026523373  0.026956637            5 
 1184000    1.0431764   -7.0935893    378.12868  0.026613786  0.026948431           10 
 1185000    1.0660739   -7.1646967    376.77757  0.026496313  0.026940274            5 
 1186000    1.0765314   -7.1627268    377.27613  0.026509003  0.026931849            3 
 1187000    1.0593824   -7.1135664    378.10986  0.026545202  0.026923534            2 
 1188000    1.0483972   -7.0821764    380.26397   0.02667396  0.026915389            5 
 1189000    1.0593455   -7.0868386    379.15779  0.026573997  0.026907356            3 
 1190000    1.0630976   -7.1026018    379.84906  0.026600074  0.026899451            1 
 1191000    1.0508325   -7.1140029    379.07947  0.026523893  0.026891414            5 
 1192000    1.0724614   -7.0806569    381.18004  0.026648493  0.026883366            3 
 1193000    1.0935157   -7.1280851    379.72525  0.026524536  0.026875496            2 
 1194000    1.0578423   -7.1606543     379.4447   0.02648274  0.026867416            4 
 1195000    1.0457727   -7.0963403    380.91828  0.026563339    0.0268594            5 
 1196000    1.0417976   -7.0999197    381.30509   0.02656808  0.026851299            3 
 1197000    1.0821586   -7.1268099    381.38334  0.026551332  0.026843323            7 
 1198000    1.0386988   -7.0875341    382.12046  0.026580444  0.026835378            3 
 1199000    1.0663752   -7.1223845    381.64218  0.026525034  0.026827834            4 
 1200000     1.083278   -7.1106335    382.41744  0.026556767  0.026820049            3 
 1201000    1.0748793   -7.1471647    382.27534  0.026524795  0.026812171            3 
 1202000    1.0617353   -7.1188828    381.68708  0.026461944  0.026804203            5 
 1203000    1.0497421   -7.1180881    382.72203   0.02651164  0.026796315            3 
 1204000    1.0739524   -7.1195253    383.43394  0.026538894  0.026788561            2 
 1205000    1.0707207    -7.072212    384.59873  0.026597422   0.02678087            4 
 1206000       1.0529   -7.0878303    384.33566   0.02655719   0.02677309            4 
 1207000    1.0218618   -7.1142533    383.63125  0.026486554  0.026765255            3 
 1208000     1.058525   -7.1334423    383.26515  0.026439373  0.026757239            5 
 1209000     1.057482   -7.1267468     383.2887  0.026419127  0.026749338            4 
 1210000    1.0575279   -7.1009706    385.39291  0.026542212  0.026741752            2 
 1211000    1.0688595   -7.1772604    383.93893   0.02642024   0.02673389            8 
 1212000    1.0441502   -7.1051569    385.13477  0.026480664  0.026726117            9 
 1213000    1.0565768   -7.0904226    385.90451  0.026511714  0.026718368            5 
 1214000    1.0448147    -7.105337      386.205  0.026510503  0.026710537            4 
 1215000    1.0667103   -7.1440669    385.56408  0.026444724  0.026702706            3 
 1216000    1.0740334   -7.1440116    383.92772  0.026310836  0.026694716            3 
 1217000     1.050487   -7.1411312    384.41421  0.026322529  0.026686826            3 
 1218000    1.0719057   -7.1072563    386.04808  0.026412704  0.026678917            5 
 1219000    1.0626666   -7.1156451    385.74776  0.026370506  0.026670916            3 
 1220000    1.0800657   -7.1232747    386.24899  0.026383128   0.02666322            4 
 1221000    1.0723805   -7.1157089    386.61114  0.026386236  0.026655511            5 
 1222000    1.0512052   -7.1569421    386.84702  0.026380729  0.026647511            2 
 1223000    1.0727761   -7.1285916     386.9377  0.026365338  0.026639446            3 
 1224000    1.0526491   -7.1271397    387.08331  0.026353711  0.026631535            6 
 1225000    1.0639127      -7.1422    386.66304  0.026303608   0.02662356            4 
 1226000     1.056352   -7.0971101    387.53114   0.02634116  0.026615554            3 
 1227000    1.0767751   -7.1490325    387.91497   0.02634576  0.026607637            8 
 1228000    1.0512807   -7.1350281    388.11953  0.026338187  0.026599681            4 
 1229000    1.0557105   -7.1027498    387.60571  0.026281917  0.026591668            4 
 1230000    1.0674091   -7.1173686    388.99636  0.026354767  0.026583695            6 
 1231000    1.0545964   -7.1158666    389.66758  0.026378796  0.026575865            6 
 1232000    1.0299469   -7.1625172    388.89242  0.026304953  0.026568058            4 
 1233000    1.0712991   -7.1388446    389.02416  0.026292522  0.026560166            3 
 1234000     1.063071   -7.1090084    390.26287  0.026354867  0.026552346            4 
 1235000    1.0652426   -7.1029936    390.87239  0.026374655   0.02654473            2 
 1236000    1.0500166   -7.1327341    389.55463  0.026264471  0.026537124            3 
 1237000    1.0389559   -7.1030941    391.78787  0.026393686  0.026529445            5 
 1238000    1.0698648   -7.0809042    391.54132   0.02635577  0.026521968            5 
 1239000    1.0472643   -7.1187512    392.19591  0.026378525  0.026514513            4 
 1240000    1.0531942      -7.0871    391.50052  0.026310519  0.026506901            1 
 1241000    1.0533988   -7.1294509    389.71359  0.026169325  0.026499209            5 
 1242000    1.0342414   -7.1630913    389.46925  0.026131861  0.026491216            6 
 1243000    1.0384403   -7.1700431    390.07702  0.026151584  0.026483108            6 
 1244000     1.046998   -7.2272437    389.81759  0.026113182  0.026475138            3 
 1245000    1.0819125   -7.0907748    392.40084  0.026265117  0.026467248            7 
 1246000    1.0399134   -7.1262641     391.1548  0.026160701  0.026459512            5 
 1247000    1.0673003   -7.0865369    393.22465  0.026278044  0.026451814            3 
 1248000    1.0527062   -7.1320047    393.06592  0.026246389  0.026444022            4 
 1249000    1.0521977   -7.1242049    393.99465   0.02628734  0.026436416           11 
 1250000    1.0703807   -7.1202501    393.81031  0.026254021  0.026428613            3 
 1251000    1.0325038   -7.1009652    394.46234  0.026276468  0.026420977            2 
 1252000    1.0551208   -7.1028378    393.77324  0.026209614  0.026413336            3 
 1253000    1.0403177   -7.1243902    393.78891  0.026189739  0.026405566            5 
 1254000    1.0478477   -7.1496511    393.47264  0.026147836   0.02639781            2 
 1255000    1.0290482   -7.1466227    392.96415  0.026093237  0.026389958            3 
 1256000    1.0267114   -7.1825785    394.54481  0.026177336  0.026382031            3 
 1257000    1.0353771   -7.1575979    393.68694  0.026099638  0.026374267            3 
 1258000    1.0373219   -7.1324801    394.47412  0.026131036  0.026366548            3 
 1259000    1.0369692   -7.1433114    394.06784  0.026083389  0.026358683            2 
 1260000    1.0716507   -7.0802373    396.08302  0.026195967  0.026350919            6 
 1261000    1.0404215   -7.1102094    395.63181  0.026145374   0.02634339            4 
 1262000    1.0799341   -7.1402972    395.02151  0.026084358  0.026335731            6 
 1263000    1.0629466   -7.1690507    394.73803     0.026045  0.026327933            9 
 1264000    1.0481546   -7.1075521    396.53186   0.02614266  0.026320315            3 
 1265000    1.0575998   -7.1295146    396.49085  0.026119292  0.026312562            3 
 1266000    1.0447695   -7.1527828    396.75557  0.026116085  0.026304906            3 
 1267000    1.0512856   -7.1312757    397.58209  0.026149835  0.026297498            4 
 1268000    1.0415545   -7.1240197    397.59115  0.026129808  0.026289954            3 
 1269000    1.0471562    -7.157451    397.23635  0.026085917  0.026282506            3 
 1270000    1.0477614   -7.1933892     396.3784  0.026009081   0.02627499            3 
 1271000    1.0562851   -7.1618979    396.86937  0.026020808  0.026267366            5 
 1272000    1.0400091   -7.1918962    395.89931  0.025936799   0.02625958            3 
 1273000    1.0639622   -7.1797197    396.79651  0.025975158  0.026251884            4 
 1274000    1.0432701   -7.2106065    396.94558   0.02596452  0.026244052            3 
 1275000    1.0420988   -7.1749745    397.84328  0.026002829  0.026236276            4 
 1276000    1.0739558     -7.17631    398.01867  0.025993905  0.026228601            2 
 1277000    1.0583249   -7.1709706    398.36864  0.025996387  0.026220913            3 
 1278000   0.99948782   -7.1713702    398.89737  0.026010522  0.026213161            5 
 1279000    1.0492012   -7.1649862    397.87526   0.02592359  0.026205398            6 
 1280000    1.0485367   -7.1838679    398.34885   0.02593417  0.026197526            4 
 1281000    1.0456128   -7.1795528    398.96019  0.025953694  0.026189605            2 
 1282000    1.0419573   -7.1726271    399.05111   0.02593936    0.0261818            5 
 1283000    1.0257652   -7.1944269    399.99212  0.025980263  0.026174261            5 
 1284000    1.0161068   -7.1459651    401.52599  0.026059579  0.026166458            7 
 1285000    1.0372997   -7.1103229    401.78727  0.026056243  0.026159016            2 
 1286000    1.0499213   -7.1374881    401.70569  0.026030696  0.026151529            5 
 1287000    1.0303143   -7.1119354     401.9899  0.026028872  0.026144042            3 
 1288000    1.0318536   -7.1450164    401.51721  0.025978081  0.026136699            4 
 1289000    1.0432196   -7.2104156    400.98443  0.025923482   0.02612932            2 
 1290000    1.0447692   -7.1770064    401.50887  0.025937265  0.026121742           10 
 1291000    1.0660079   -7.1444876    402.60678  0.025988044  0.026114107            2 
 1292000    1.0259064    -7.145555    403.14127  0.026002404  0.026106779            3 
 1293000    1.0578824   -7.1400004    403.26513  0.025990276  0.026099372            3 
 1294000    1.0685401    -7.113393    402.57652  0.025925845  0.026092069            7 
 1295000    1.0247663   -7.1476465    403.46154  0.025962776  0.026084793            3 
 1296000    1.0488136   -7.1609794    402.93847   0.02590911  0.026077582            3 
 1297000    1.0535269   -7.1325432     404.4603  0.025986912  0.026070443            2 
 1298000    1.0389225   -7.1200146    403.77971  0.025923197   0.02606329            2 
 1299000    1.0395714   -7.1870945    402.91525  0.025847783   0.02605604            3 
 1300000    1.0431495   -7.1528142    403.89805  0.025890901  0.026048799            2 
 1301000    1.0072661   -7.1419963    405.22113  0.025955747  0.026041672            3 
 1302000    1.0331095   -7.1872262    404.75676  0.025906091  0.026034434            5 
 1303000    1.0462195   -7.2165528    405.44567  0.025930268  0.026027028            6 
 1304000    1.0345986   -7.1525923     405.2206     0.025896  0.026019734            2 
 1305000    1.0493496   -7.1791857    405.65323  0.025903782    0.0260123            5 
 1306000    1.0626664   -7.1662591    405.29286  0.025860954   0.02600497            9 
 1307000    1.0484042    -7.160219    405.82962   0.02587539   0.02599769            6 
 1308000    1.0408101   -7.1709027    405.83002  0.025855633  0.025990587            3 
 1309000    1.0277394   -7.1466253    407.23383   0.02592525  0.025983385            5 
 1310000    1.0519733   -7.1867399    405.41432  0.025789715  0.025976257            5 
 1311000     1.025842   -7.1249667     406.3721  0.025830924  0.025969139            6 
 1312000    1.0607017   -7.1477888    408.00742  0.025915105  0.025962143            4 
 1313000    1.0679285   -7.2247644    407.25335  0.025847509  0.025954895            6 
 1314000    1.0495153   -7.1945396    406.75246  0.025796072  0.025947607           10 
 1315000    1.0371313   -7.1751702    407.69742  0.025836339  0.025940456            4 
 1316000    1.0670163   -7.1874786    407.66514  0.025814662  0.025933294            2 
 1317000    1.0549337    -7.213404    407.65983  0.025794725  0.025925882            3 
 1318000    1.0147647    -7.167267    407.30256  0.025752565  0.025918486            4 
 1319000    1.0519271   -7.1875226    407.14503  0.025723087  0.025911065            5 
 1320000     1.046709   -7.1339175     408.6409  0.025798037  0.025903665            8 
 1321000    1.0495694   -7.1668871    408.73318  0.025784329  0.025896243            2 
 1322000    1.0385824   -7.1659986    408.01304   0.02571943  0.025888802            5 
 1323000    1.0422192    -7.141956     408.1915  0.025711231  0.025881344            4 
 1324000    1.0532388   -7.2066619    407.61972  0.025655824  0.025873907            7 
 1325000    1.0410856    -7.189626     408.4118  0.025686277  0.025866382            3 
 1326000    1.0410919    -7.194565    408.45466  0.025669599  0.025858784            5 
 1327000    1.0503041   -7.1791313    410.77421  0.025795919  0.025851251            7 
 1328000    1.0377114   -7.1928116    408.46902  0.025631841  0.025843644            4 
 1329000    1.0479572   -7.1679672    408.70235  0.025627185  0.025836058            2 
 1330000    1.0432185   -7.1731605    409.16622  0.025636981  0.025828806            8 
 1331000    1.0406049   -7.1895304    410.32525  0.025690286  0.025821414            3 
 1332000    1.0652613   -7.2008574    409.26806  0.025604859  0.025813831            4 
 1333000    1.0514926    -7.189215    409.23883  0.025583823  0.025806486            3 
 1334000    1.0390054   -7.1757985    409.67791  0.025592073  0.025798938            2 
 1335000    1.0542238    -7.171645    410.45612  0.025621481  0.025791309            6 
 1336000    1.0446912   -7.1966254     411.4921  0.025666922  0.025783812            3 
 1337000     1.056587   -7.2061635    410.40017  0.025579666  0.025776283            3 
 1338000    1.0299967   -7.1990574    410.64933  0.025576067   0.02576877            2 
 1339000    1.0085328   -7.2200583    410.80726  0.025566795  0.025761241            2 
 1340000    1.0586058   -7.1824794      411.364  0.025582338  0.025753692            3 
 1341000    1.0656397   -7.1676084    410.87658  0.025532971  0.025746177            3 
 1342000    1.0213925   -7.2070253     411.3276  0.025541952  0.025738649            4 
 1343000      1.02013   -7.1842143    410.47542  0.025470056  0.025731076            4 
 1344000    1.0434124   -7.1960427    411.24211  0.025498643  0.025723409            4 
 1345000    1.0452782   -7.1544013    411.50943  0.025496247  0.025715824            3 
 1346000    1.0307237   -7.1421892    413.25979  0.025585673  0.025708151            3 
 1347000    1.0424115   -7.2182479    412.78534  0.025537326  0.025700592            2 
 1348000    1.0316314   -7.1657391    413.01263  0.025532432  0.025693053            5 
 1349000    1.0199325   -7.1958748    412.02813  0.025452689  0.025685444            4 
 1350000    1.0155447   -7.1781023    412.10161  0.025438371  0.025677848           10 
 1351000    1.0579764   -7.2118628    412.04491  0.025416044  0.025670186            3 
 1352000    1.0330488   -7.2182922    412.57979  0.025430214  0.025662521            6 
 1353000    1.0704791   -7.1987042    412.70969  0.025419419  0.025654797            6 
 1354000    1.0266635   -7.1684309     413.7197  0.025462808  0.025647208            6 
 1355000     1.037191   -7.2300712     413.0659  0.025403807   0.02563937            4 
 1356000    1.0313525   -7.1803896     414.0559  0.025445913  0.025631661            2 
 1357000    1.0237907   -7.1878971     413.7802  0.025410231  0.025624052            6 
 1358000    1.0323305   -7.1437567    415.55871  0.025500657  0.025616645            5 
 1359000    1.0190137   -7.1727329    414.38241  0.025409763  0.025609242            3 
 1360000    1.0340114    -7.187498    414.38652  0.025391331   0.02560156            5 
 1361000     1.034595   -7.2111568      413.664  0.025328435  0.025593907            2 
 1362000    1.0479224   -7.1884642    414.26002  0.025346306  0.025586148            7 
 1363000    1.0196078   -7.1690904    415.97495   0.02543256  0.025578425            5 
 1364000    1.0308313   -7.1753565    415.69727   0.02539695  0.025570802            3 
 1365000    1.0533843   -7.1967939    415.62556  0.025373966  0.025563074            2 
 1366000    1.0251154   -7.1992504    415.27273  0.025333866  0.025555309            6 
 1367000    1.0393444   -7.1950437    414.96074  0.025296314   0.02554742            6 
 1368000     1.032832   -7.1744974    416.22075  0.025354578  0.025539546            3 
 1369000    1.0518891   -7.1567481    416.94357  0.025380057  0.025531689            3 
 1370000    1.0467685   -7.1931822    416.33488  0.025324506  0.025523854            7 
 1371000    1.0297537   -7.1836407     415.4375  0.025251489  0.025516034            4 
 1372000    1.0258373   -7.1906634    415.13801  0.025214894  0.025508298            5 
 1373000    1.0492367   -7.1959874    416.29439  0.025266715  0.025500517            7 
 1374000    1.0366778   -7.2201828    415.26413   0.02518584  0.025492557            2 
 1375000    1.0288556    -7.181535     416.3282  0.025232012  0.025484503            5 
 1376000    1.0300333   -7.1948885    416.65887  0.025233701  0.025476464           10 
 1377000    1.0247906    -7.176203    417.98523  0.025295644  0.025468619            8 
 1378000    1.0296059   -7.2159256    415.81274  0.025145909  0.025460765            4 
 1379000    1.0352591   -7.2252478     416.6011  0.025175314  0.025452831            4 
 1380000    1.0452271   -7.2334438    415.98045  0.025119593  0.025444812            4 
 1381000    1.0428316   -7.2451225    415.81657  0.025091514  0.025436715            4 
 1382000     1.035733   -7.2013408     417.0645  0.025148607  0.025428641            5 
 1383000    1.0290296   -7.1807999    417.77635  0.025173316  0.025420654            9 
 1384000    1.0495695   -7.2073352     419.0564  0.025232201  0.025412689            4 
 1385000    1.0474915   -7.2049719    417.49217  0.025119866  0.025404644            3 
 1386000    1.0304528   -7.1504844    418.04137  0.025134762  0.025396779            3 
 1387000    1.0292282   -7.2298497    417.92629  0.025109727  0.025388757            3 
 1388000    1.0434393   -7.2514906    418.07359   0.02510048  0.025380419            5 
 1389000    1.0189268   -7.1957319    418.14719  0.025086824  0.025372296            3 
 1390000    1.0136014   -7.2095438    417.54576  0.025032719  0.025364278            3 
 1391000    1.0152634   -7.1863237    419.73465  0.025145857  0.025356408            7 
 1392000     1.055655   -7.2158947      418.907  0.025078245  0.025348547            2 
 1393000    1.0203581   -7.2175543     420.2887  0.025142899   0.02534073            4 
 1394000    1.0221163   -7.2143564    419.69991  0.025089665   0.02533303            4 
 1395000   0.99895893     -7.23301    419.85516  0.025080954   0.02532515            7 
 1396000    1.0562252   -7.1974148    421.01532  0.025132242  0.025317304            8 
 1397000    1.0182101   -7.2352493    418.19767  0.024946174  0.025309325            8 
 1398000    1.0190057   -7.2497581     419.8157   0.02502478  0.025301442            2 
 1399000    1.0229024   -7.2141895    419.90713  0.025012338  0.025293679            4 
 1400000    1.0300101   -7.2463082    420.34823  0.025020728  0.025285851            7 
 1401000     1.036876   -7.1680922    421.74714  0.025086078  0.025277888            2 
 1402000    1.0134146    -7.224895    420.37284  0.024986498  0.025270058            6 
 1403000     1.029363    -7.190913    422.58085  0.025099837  0.025262323            4 
 1404000    1.0144943   -7.1834448    423.06984  0.025110983  0.025254629            5 
 1405000    1.0122742   -7.2088213    421.21547  0.024983124  0.025246816            5 
 1406000     1.033935   -7.2418174    421.73748  0.024996294  0.025238862            4 
 1407000    1.0223287   -7.2015146    421.99038  0.024993508  0.025231007            6 
 1408000    1.0306687   -7.2134424    422.96248   0.02503329  0.025223251            8 
 1409000    1.0164703   -7.1599818    422.06422  0.024962398  0.025215431            3 
 1410000    1.0491583   -7.2374618    421.37787   0.02490413  0.025207611            2 
 1411000    1.0295405   -7.2464103    422.12681  0.024930711  0.025199661            2 
 1412000    1.0389246   -7.2207785    422.96658  0.024962617  0.025191741            5 
 1413000    1.0358369   -7.2246433    422.82347   0.02493651  0.025183839            4 
 1414000    1.0308866   -7.2001105     422.6084    0.0249062  0.025175993            4 
 1415000    1.0089967   -7.2098683    423.83119  0.024960612   0.02516818            4 
 1416000    1.0134434   -7.2318049    424.41534  0.024977362  0.025160335            7 
 1417000    1.0252515    -7.193106    424.16357  0.024944929  0.025152502            3 
 1418000    1.0390985   -7.1870787    424.54069    0.0249495  0.025144657           10 
 1419000      1.01364   -7.2180821    424.42596  0.024925179  0.025136901            7 
 1420000    1.0403597   -7.2516937    423.63454  0.024861182  0.025129066            7 
 1421000    1.0383751   -7.2227327     424.1052  0.024871288  0.025121165            3 
 1422000    1.0230064   -7.2201105    425.85492  0.024956336  0.025113383            7 
 1423000    1.0319933   -7.2110098    426.15277  0.024956241  0.025105669            7 
 1424000    1.0175812   -7.2120226    425.38297  0.024893667  0.025098104            4 
 1425000    1.0152504   -7.2215431      426.347  0.024932573  0.025090586            4 
 1426000    1.0189324   -7.2136421    426.01522    0.0248957  0.025083036            3 
 1427000    1.0430014   -7.2248558    426.39603  0.024900492  0.025075501            3 
 1428000    1.0249936   -7.2621385    425.31895    0.0248202  0.025067846            2 
 1429000    1.0227794   -7.2140691    427.03338   0.02490281  0.025060366            2 
 1430000    1.0334145   -7.2093921     427.0026  0.024883601  0.025052774            4 
 1431000    1.0223724   -7.2048777    427.75594  0.024910083  0.025045388            4 
 1432000    1.0203717   -7.1798209    429.63119  0.025001815  0.025038192            4 
 1433000    1.0327654   -7.1726463    429.11482  0.024954339  0.025030888            5 
 1434000    1.0346355   -7.1759277    428.90599  0.024924802  0.025023497            4 
 1435000    1.0382117   -7.2497687    427.35712  0.024817486  0.025015929            4 
 1436000    1.0218222   -7.2389391    428.41567  0.024861634  0.025008177            3 
 1437000    1.0161981   -7.2396408    428.06074   0.02482375  0.025000527            9 
 1438000    1.0416439   -7.2285357    428.98432  0.024860009  0.024992991            7 
 1439000    1.0468355   -7.2499681    429.01502  0.024844511  0.024985394            4 
 1440000    1.0067042   -7.2161936    429.04264  0.024828857  0.024977834            3 
 1441000    1.0243642   -7.1936536    430.78769  0.024912543  0.024970474            2 
 1442000    1.0284691   -7.1748702    431.99744  0.024965178   0.02496329            4 
 1443000    1.0173935   -7.2082662    430.38803  0.024854934  0.024955978            4 
 1444000    1.0137267   -7.2309054    430.51394  0.024844987  0.024948676            6 
 1445000    1.0243231    -7.233574    430.17041  0.024807982  0.024941335            5 
 1446000     1.028123    -7.238853    431.08439  0.024843499  0.024934092            3 
 1447000    1.0214854   -7.2440087    431.24758  0.024835728  0.024926837            3 
 1448000    1.0353416   -7.2335203    432.82181  0.024909174  0.024919573            4 
 1449000   0.99323359   -7.2055836    433.48041  0.024929861  0.024912322            4 
 1450000    1.0082524   -7.2084493     432.7151  0.024868684  0.024905102            7 
 1451000    1.0324579   -7.2374023    431.59991  0.024787498  0.024897926            2 
 1452000    1.0219373   -7.1989258     433.9008  0.024902479  0.024890738            7 
 1453000    1.0107417   -7.2536701    431.04731  0.024721686  0.024883537           14 
 1454000     1.031293   -7.2006045    432.95349  0.024813932  0.024876299            5 
 1455000    1.0291769     -7.21498    433.18505   0.02481014  0.024869114            5 
 1456000    1.0132278   -7.2413635    432.25771  0.024740024  0.024861864            2 
 1457000    1.0096058   -7.1958649    432.91822  0.024760822  0.024854669            3 
 1458000    1.0107425   -7.2278675    433.98013  0.024804534  0.024847486            5 
 1459000    1.0068506   -7.2831229    433.14058   0.02473958  0.024840211            4 
 1460000    1.0275316   -7.2962684    433.17881  0.024724818  0.024832683            4 
 1461000    1.0056614   -7.2347895    434.10743  0.024760862   0.02482525            8 
 1462000    1.0253747   -7.2600916    433.45609  0.024706799  0.024817823            2 
 1463000    1.0458939   -7.2791423    433.05379  0.024666997  0.024810468            4 
 1464000    1.0105154   -7.2492428    434.80685  0.024749935  0.024803337            5 
 1465000    1.0105846   -7.2756389    433.71347  0.024670846  0.024796118            4 
 1466000    1.0246346   -7.2719266    433.93807  0.024666784   0.02478876            6 
 1467000    1.0127674   -7.2045356    435.75132  0.024752972  0.024781457            6 
 1468000    1.0258228   -7.2604643    435.81651  0.024739811  0.024774231            3 
 1469000    1.0262935   -7.2501172    434.84646  0.024667941  0.024767032            2 
 1470000    1.0074192   -7.2498651     437.2325  0.024786423  0.024759874            9 
 1471000   0.98794767   -7.1952374    436.83134  0.024746847  0.024752936            3 
 1472000    1.0040136   -7.2401939    437.25601  0.024754077  0.024745891            6 
 1473000    0.9850768   -7.3140397    435.27148  0.024624999  0.024738758            7 
 1474000    1.0175825   -7.2326111    437.04045  0.024708302  0.024731558            4 
 1475000    1.0119477   -7.2289901    438.44813  0.024771081  0.024724588            6 
 1476000    1.0268474   -7.2716076     438.0021  0.024729116  0.024717589            2 
 1477000   0.98818023   -7.2551086    436.73091  0.024640652  0.024710503           12 
 1478000    1.0199119    -7.216785     437.3463  0.024658677  0.024703321            7 
 1479000     1.023747   -7.2724741    435.76644  0.024552988  0.024696221            5 
 1480000    1.0134291   -7.2637122    438.10058  0.024667825  0.024689061            4 
 1481000    1.0288441    -7.260942     438.5414  0.024675973  0.024682117            5 
 1482000     1.035903   -7.2355112     439.1299  0.024692414  0.024675167            5 
 1483000    1.0279879   -7.2663692    438.65883  0.024649293  0.024668055            4 
 1484000    1.0094258   -7.2530659    437.33947  0.024558595  0.024660914            7 
 1485000   0.99578797   -7.2542958    437.73187  0.024564078  0.024653806            3 
 1486000    1.0103782   -7.2163722    438.61934  0.024597316  0.024646733            4 
 1487000     1.015497   -7.2661008    437.40868  0.024512928  0.024639538            3 
 1488000    1.0229168   -7.2513721    437.86791  0.024522173  0.024632291            3 
 1489000    1.0041101   -7.2269501    439.74112  0.024610539  0.024625182            4 
 1490000    1.0235123   -7.2720424    438.65166  0.024533091  0.024617948            6 
 1491000    1.0120946   -7.2341117    439.82039  0.024581958  0.024610713            4 
 1492000    1.0052579   -7.2691198    439.44298  0.024544403    0.0246037           10 
 1493000     1.007758   -7.2648039    439.47205  0.024529586  0.024596483            3 
 1494000    1.0145417   -7.2502355    439.64031  0.024522552  0.024589276            4 
 1495000    1.0256478   -7.2440593    440.60237  0.024559775  0.024582219           12 
 1496000    1.0242832   -7.1862523    441.12985  0.024572741  0.024575022            7 
 1497000    1.0022371   -7.2143289    440.02213  0.024494663  0.024567884            3 
 1498000   0.97789772   -7.2845651    440.40874  0.024499819  0.024560686            3 
 1499000    1.0182302   -7.2466785    440.87881  0.024509607   0.02455352            3 
 1500000    1.0207305   -7.2497823    439.67182  0.024426212  0.024546281            3 
 1501000    1.0001382    -7.230381    440.94194  0.024480454  0.024539056           10 
 1502000    1.0098369   -7.2408671    441.65289    0.0245036  0.024531971            5 
 1503000    1.0045463    -7.221724    442.37693  0.024527441  0.024524908            3 
 1504000    1.0138765   -7.2624028    441.43315   0.02445884  0.024517892            3 
 1505000   0.99603836   -7.2784443    440.71966  0.024403082  0.024510773            3 
 1506000   0.99318007   -7.2741987    440.56703  0.024378432  0.024503588            3 
 1507000    1.0180538    -7.254655    442.27921  0.024456935  0.024496449            5 
 1508000    1.0000214   -7.2597007    443.13514  0.024488016  0.024489253            7 
 1509000    1.0135604   -7.2776575    442.09646  0.024414428  0.024482203            4 
 1510000    1.0216973   -7.2598876    443.85876  0.024495516  0.024475027           10 
 1511000    1.0051153   -7.3048932    440.61567  0.024300445  0.024467823            3 
 1512000    1.0152864     -7.24645     443.1845  0.024425953  0.024460664            4 
 1513000   0.99984725   -7.2283554    443.42519  0.024423066  0.024453564            5 
 1514000    1.0169081   -7.2329064    443.64247  0.024418894  0.024446531            8 
 1515000    1.0263585   -7.2105578    444.27304  0.024437461   0.02443953            6 
 1516000    1.0005394   -7.2429871    444.42903  0.024429916  0.024432456            2 
 1517000    1.0263223   -7.2489975    444.05484  0.024393256  0.024425369            3 
 1518000    1.0085476   -7.2822757    444.86089  0.024421436  0.024418381            3 
 1519000    1.0138802   -7.2883058    445.11083  0.024419071  0.024411338            5 
 1520000    1.0023277   -7.2282565    445.50565  0.024424652  0.024404239            2 
 1521000     1.007426   -7.2896403    445.25268  0.024394734  0.024397123            7 
 1522000   0.98439542   -7.2430703    445.31431   0.02438208  0.024390103            5 
 1523000    1.0254971   -7.2483761    445.72386   0.02438848  0.024382966            2 
 1524000    1.0141373   -7.2632444    446.68971   0.02442529  0.024375945            7 
 1525000    1.0179021   -7.2287549    446.26603  0.024386122  0.024368892            1 
 1526000     1.010832   -7.2297534    447.53901  0.024439657   0.02436193            5 
 1527000    1.0027702   -7.2465991    445.92239  0.024335428  0.024354926            4 
 1528000    1.0312884   -7.2383796    445.03263  0.024270977  0.024347949            3 
 1529000    1.0094238   -7.3210972    444.32919  0.024216764  0.024340711            4 
 1530000    1.0043704   -7.2964432    444.76701  0.024224783  0.024333569            5 
 1531000   0.98363175    -7.263157    445.87485   0.02426926  0.024326336            3 
 1532000   0.99394406   -7.2777126    446.29445  0.024276243  0.024318962            4 
 1533000    1.0047525   -7.2848913    445.46747  0.024215453    0.0243117            4 
 1534000    1.0118461   -7.2697775    446.28553  0.024244107  0.024304387            3 
 1535000    1.0294731   -7.2726374    446.45756  0.024237653  0.024297125            8 
 1536000     1.008203   -7.2646589    446.12849   0.02420402  0.024289773            4 
 1537000   0.98896514   -7.2812674    446.17664  0.024190882  0.024282361            8 
 1538000    1.0132241   -7.3007138    443.74578  0.024043443  0.024274844            3 
 1539000   0.99885777   -7.2790922     446.2662  0.024164295  0.024267325            4 
 1540000    1.0132922   -7.2624226    446.74996  0.024174781   0.02425992            3 
 1541000    1.0142573   -7.2251622    446.31429  0.024135534  0.024252635            3 
 1542000    1.0042614   -7.2751776    445.82614  0.024093501  0.024245273            7 
 1543000    1.0088164   -7.2529804    446.65936  0.024122886   0.02423787            4 
 1544000    1.0132307   -7.2573548    446.70823    0.0241099  0.024230612            6 
 1545000   0.99865027   -7.2646446    447.19749  0.024120684  0.024223487            2 
 1546000    1.0156647   -7.2659546    448.19402  0.024158798  0.024216314            6 
 1547000    1.0057045   -7.2938798    447.67078  0.024114995  0.024209146            6 
 1548000   0.99920247   -7.2856354    448.56504  0.024147558  0.024202062            2 
 1549000    1.0159915   -7.2737295    448.72946  0.024140815  0.024194851            2 
 1550000   0.98973976   -7.2881001    449.26008  0.024153768  0.024187661            6 
 1551000     1.004443   -7.2841671    449.75171   0.02416461  0.024180453            3 
 1552000    0.9995854   -7.2542486    449.11577  0.024114893  0.024173334            3 
 1553000    1.0160569   -7.2647517    450.15195  0.024154966  0.024166195            5 
 1554000   0.99845781    -7.279364    448.75603  0.024064566   0.02415911            5 
 1555000   0.99659064    -7.269225    450.21514  0.024127285  0.024151891            3 
 1556000    1.0051289   -7.2872445    448.88153  0.024040356  0.024144825            4 
 1557000    0.9857446    -7.234851    450.26944  0.024099199  0.024137867            5 
 1558000    1.0067951   -7.2387792    451.93304  0.024172713  0.024130989            3 
 1559000   0.99850561   -7.2412247    452.24987  0.024174143  0.024124042            6 
 1560000    1.0127642   -7.2472359    451.45781  0.024116336  0.024117105            8 
 1561000    1.0058586   -7.2573831    452.53588  0.024158439  0.024110107            4 
 1562000    1.0332584   -7.2521618    451.26132  0.024074974   0.02410304            3 
 1563000    1.0040706   -7.2894175    450.40385  0.024013854  0.024095903            2 
 1564000   0.99573923   -7.2625534     451.8702   0.02407663  0.024088787            2 
 1565000   0.97798929    -7.262027     452.5967  0.024099931  0.024081606            4 
 1566000    1.0039463   -7.2855282    449.67525  0.023929079  0.024074286            4 
 1567000   0.97256851   -7.3258184    450.96783  0.023982548  0.024067067            7 
 1568000    1.0034723   -7.2787726    451.65115  0.024003569  0.024059907            4 
 1569000    1.0010688   -7.3381644    451.39601  0.023974719  0.024052828            4 
 1570000    1.0255865   -7.2787568    454.03091  0.024099305   0.02404579            5 
 1571000     1.019143   -7.3091835    451.53533  0.023951587  0.024038711            6 
 1572000   0.99939093   -7.2561203    452.26366  0.023974961   0.02403165            3 
 1573000   0.99005348   -7.2982471    453.04473  0.024001098  0.024024492            6 
 1574000    1.0268389   -7.2886895    452.73451  0.023969425  0.024017216            5 
 1575000    1.0107144   -7.2884874    452.88578  0.023962211  0.024010037            2 
 1576000   0.99040814   -7.2804154     453.2622   0.02396691  0.024002908            9 
 1577000    1.0180671   -7.2688171     453.4789  0.023963163   0.02399579            3 
 1578000    1.0018986   -7.3193999     452.4989  0.023896224  0.023988665            4 
 1579000    1.0066368   -7.2890158    452.82877  0.023898499   0.02398152            7 
 1580000    1.0009522   -7.3099793    453.13049  0.023899288   0.02397434            6 
 1581000    1.0013295   -7.3280888    453.14643  0.023885011  0.023967088            7 
 1582000    1.0066475   -7.3172144    453.83503  0.023906186   0.02395989            4 
 1583000    1.0135521   -7.2893559    453.92541  0.023895842  0.023952651            5 
 1584000   0.98106929    -7.295193    453.98698  0.023883995  0.023945346            3 
 1585000    1.0022444    -7.322027    452.55493  0.023793634  0.023938086            2 
 1586000   0.98775348    -7.297293    455.11134  0.023912954  0.023930863           13 
 1587000   0.99208193   -7.2692041    453.94241  0.023836506  0.023923653            2 
 1588000    1.0106443   -7.3229848    453.25167  0.023785247  0.023916386            3 
 1589000     1.016247   -7.3019412    455.06659   0.02386546  0.023909211            5 
 1590000    0.9889513   -7.2707119    455.34708  0.023865151  0.023902044            3 
 1591000   0.97869981   -7.2438691     456.0239  0.023885601  0.023894809            4 
 1592000    0.9919477   -7.3097179    454.99999  0.023817001  0.023887644            3 
 1593000    1.0027455   -7.3244845    453.44635  0.023720776  0.023880399            7 
 1594000   0.99366015   -7.2798462    455.17564  0.023796301  0.023873068            5 
 1595000   0.98838214   -7.3067796    455.25888  0.023785731  0.023865782            5 
 1596000   0.98196278   -7.3031855    455.30426  0.023773197  0.023858349            4 
 1597000   0.99474629   -7.2942908    455.44806  0.023765814  0.023851016            4 
 1598000   0.99487964   -7.2725034    457.18194  0.023841361  0.023843759           13 
 1599000   0.99911382   -7.2912539    456.56766  0.023794437  0.023836484            7 
 1600000    1.0078815   -7.2935459    456.34237  0.023767832  0.023829336            5 
 1601000   0.97878566   -7.2733736    456.16484  0.023743745  0.023822293            3 
 1602000    1.0083415   -7.3111741    456.45602  0.023744071  0.023815106            4 
 1603000   0.99187927    -7.248065     459.0218  0.023862643  0.023807995            4 
 1604000    1.0075561    -7.332255    456.29292  0.023705991  0.023800927            4 
 1605000    1.0058772   -7.2626887    457.05785  0.023730937   0.02379381            3 
 1606000   0.97954495   -7.3515471    456.03868  0.023663277  0.023786612            4 
 1607000   0.99721781   -7.3578768    456.90076  0.023693256  0.023779293            6 
 1608000    1.0047938   -7.3392209    456.93472  0.023680282  0.023771891            5 
 1609000    0.9736782   -7.3126624    456.11825  0.023623278  0.023764492            3 
 1610000    0.9637014   -7.3245002    458.21181  0.023716967  0.023757287            4 
 1611000   0.99716547   -7.3339607    457.51129  0.023666009  0.023750058            4 
 1612000    1.0069137   -7.3023272    457.78005  0.023665222  0.023742881            5 
 1613000   0.99243118   -7.2953736    458.50541  0.023688025  0.023735665            5 
 1614000    1.0163273   -7.3556983    458.71679  0.023684262  0.023728447            3 
 1615000   0.98359929   -7.3227747    457.85045  0.023624894  0.023721304            4 
 1616000    1.0032251   -7.3087479    458.52069  0.023644837   0.02371406            4 
 1617000    0.9874051   -7.3531768    458.37733  0.023622827  0.023706837            4 
 1618000   0.99373152   -7.3467377    458.47739   0.02361338   0.02369953            4 
 1619000    1.0048266   -7.2616724    461.27144   0.02374261  0.023692428            5 
 1620000   0.99867915     -7.29121    459.90068  0.023657442  0.023685358            8 
 1621000   0.99442116    -7.320751    459.70671  0.023632876  0.023678137            6 
 1622000   0.98369334   -7.3214366    460.16744  0.023641977  0.023671005            4 
 1623000    1.0014023   -7.3422937    459.12575  0.023573924   0.02366374            8 
 1624000    1.0037196   -7.3445436     459.7921  0.023593601  0.023656421            8 
 1625000   0.99375231   -7.3421531      459.543  0.023566308  0.023649315            4 
 1626000   0.98818378   -7.3360743    460.72557  0.023612421  0.023642102            4 
 1627000   0.99559445   -7.3255278     459.1602  0.023517732  0.023634814            7 
 1628000    1.0128043   -7.3041092    462.50329  0.023674411  0.023627707            8 
 1629000   0.99705608    -7.312167    459.65088   0.02351396  0.023620628            3 
 1630000   0.97674594   -7.2809303    462.76517  0.023658751  0.023613528            3 
 1631000   0.98360565   -7.3128522    462.34652  0.023622855   0.02360643            5 
 1632000    0.9983949   -7.3055482    462.13913  0.023597791  0.023599323            6 
 1633000   0.97078795   -7.3004903     461.3993  0.023545586  0.023592292            7 
 1634000   0.98251019   -7.3084135    463.46215  0.023636381  0.023585337            3 
 1635000   0.99300638   -7.3154805    462.12595   0.02355382  0.023578205            3 
 1636000   0.97595433      -7.3381    462.29543  0.023548056  0.023571186            5 
 1637000   0.96660138    -7.315056    461.42591  0.023489407  0.023564077            7 
 1638000   0.98308348   -7.3066189    463.01697  0.023556012  0.023556948            5 
 1639000     1.004955    -7.306467    462.85781  0.023533547  0.023549863            4 
 1640000   0.99540345   -7.3121162    462.19646  0.023485593  0.023542924            7 
 1641000   0.99536681   -7.3287856    463.92763  0.023559193  0.023535943            6 
 1642000    1.0048432   -7.3418852     464.7464  0.023586399  0.023528849            4 
 1643000   0.99883586   -7.3336281     463.7487   0.02352144  0.023521828            6 
 1644000   0.99434577   -7.3228814    463.27253  0.023482995  0.023514923            5 
 1645000   0.99097054   -7.3056971    465.52617  0.023582886  0.023507946            5 
 1646000   0.99003071   -7.3244147    464.17729  0.023500268  0.023500992            3 
 1647000   0.99220869   -7.2911677    464.51863   0.02350327  0.023494045            4 
 1648000    1.0066962   -7.3322384    465.07143  0.023516962  0.023487181            3 
 1649000   0.98100199    -7.317598    464.84913  0.023491466  0.023480204            5 
 1650000    1.0021743   -7.3184109    466.50672  0.023560946  0.023473304            4 
 1651000   0.99634515   -7.2823022    466.48943  0.023545802  0.023466433            3 
 1652000   0.97521932   -7.3081231    467.28147  0.023571503  0.023459629            4 
 1653000   0.98023768   -7.3125497    465.68458  0.023476738  0.023452871            5 
 1654000    0.9889766   -7.3377957    466.45811  0.023501517  0.023446079            5 
 1655000   0.99051126   -7.3322201    466.84847  0.023506972  0.023439264            8 
 1656000   0.99801429   -7.3789433    466.81221  0.023490953  0.023432413            4 
 1657000    0.9984915   -7.3533116    465.81095  0.023426421  0.023425519            3 
 1658000   0.97966934   -7.3581804    467.44818  0.023494581  0.023418686            3 
 1659000   0.99514364   -7.3326341    465.90527  0.023402917  0.023411798            5 
 1660000   0.96914661    -7.317625    467.56842   0.02347231  0.023404944            3 
 1661000    0.9952305   -7.2950584    467.60412   0.02345997  0.023398079            3 
 1662000   0.98186228   -7.3478847    466.05575  0.023368219  0.023391323            9 
 1663000    0.9942034   -7.3491236     467.2277  0.023412893  0.023384477            7 
 1664000    1.0019735   -7.3004425    467.71759  0.023423357  0.023377561            5 
 1665000   0.99951595   -7.3416914       466.89  0.023367868   0.02337074            7 
 1666000    1.0166208   -7.3564495    467.61955  0.023390334  0.023363941            4 
 1667000   0.98934544   -7.3213932    468.20588  0.023405613  0.023357129            3 
 1668000   0.98390918   -7.3343151    467.86506  0.023374553  0.023350395            4 
 1669000   0.99129198   -7.3212775    469.30976  0.023432682  0.023343576            4 
 1670000   0.98786392   -7.3358333    469.74148  0.023440194  0.023336748            3 
 1671000   0.96299062   -7.3301294    470.17175  0.023447624  0.023329939            7 
 1672000   0.95646835    -7.367292    467.40251   0.02329558   0.02332319            7 
 1673000    0.9914635    -7.362143    469.46236  0.023384258  0.023316314            3 
 1674000   0.97579723   -7.3541936     469.1046  0.023352479  0.023309465            5 
 1675000   0.96913778   -7.3393857    469.21284  0.023343923  0.023302626            4 
 1676000   0.97928475   -7.3578056    469.36183  0.023337402   0.02329584            5 
 1677000    1.0011851   -7.3462596    469.66701  0.023338651  0.023289009            2 
 1678000   0.99117507   -7.3525985    471.32308  0.023406987  0.023282188            3 
 1679000   0.98543532   -7.3300783    470.51759  0.023353067  0.023275496            6 
 1680000   0.98033372   -7.3154897    471.31898  0.023378917  0.023268803            3 
 1681000   0.95881199   -7.2938965     472.0268  0.023400099  0.023262084            3 
 1682000   0.96555216   -7.3005633     471.1829  0.023344377  0.023255413            2 
 1683000   0.97313396   -7.3368374    471.05126  0.023323988  0.023248589            4 
 1684000   0.95756026   -7.3500553    471.12555  0.023313814   0.02324176            4 
 1685000   0.97841572   -7.4123152    468.53724   0.02317197  0.023234901            2 
 1686000   0.98914136   -7.3918691    469.20049  0.023191009  0.023227885            5 
 1687000   0.98840326   -7.3291878    470.65532  0.023249127  0.023220923            8 
 1688000   0.96018495   -7.3414868    470.35838  0.023220694  0.023213986            4 
 1689000   0.97621803   -7.2969668    473.23539  0.023348894  0.023207172            3 
 1690000   0.98529563   -7.3511578    472.41674  0.023294711  0.023200338            3 
 1691000   0.98846574   -7.3788158    468.57355  0.023091541  0.023193527            2 
 1692000    0.9732469   -7.3654436    471.49924  0.023221988  0.023186701            4 
 1693000   0.98281511   -7.3286825    472.07772  0.023236746  0.023179914            7 
 1694000   0.97605987    -7.340411    472.59847  0.023248646  0.023173194            5 
 1695000   0.99562851   -7.3607795    471.31422   0.02317179  0.023166391            4 
 1696000   0.97905523   -7.3292739    472.83229  0.023232718  0.023159582            3 
 1697000   0.99989378   -7.3429354    474.11976  0.023282251   0.02315283            3 
 1698000   0.98403643   -7.3402398    472.95056  0.023211158  0.023146069            5 
 1699000   0.95260577   -7.3327335    472.03363  0.023152523  0.023139324            9 
 1700000   0.98490873   -7.3542998    472.41391  0.023157545  0.023132478            6 
 1701000   0.98115048   -7.3495661    471.92893  0.023120171  0.023125599           10 
 1702000   0.97146631   -7.3322192    473.18267  0.023167972  0.023118665            9 
 1703000   0.98025271   -7.3753169    472.82854   0.02313704  0.023111821           16 
 1704000   0.97734584   -7.3357435    473.79357  0.023170656  0.023104952            6 
 1705000   0.97502205   -7.3485728    473.88566  0.023161567  0.023098179            6 
 1706000   0.97425855   -7.3543013    472.93515  0.023101561  0.023091332            2 
 1707000   0.99226332   -7.3406432    474.84093  0.023181065  0.023084506            1 
 1708000   0.99885745   -7.3316758    473.10352  0.023082724  0.023077654           11 
 1709000   0.98076459   -7.3625696    473.70086  0.023098345   0.02307083            3 
 1710000   0.97626433   -7.3580886    474.06922  0.023102788  0.023063928            2 
 1711000   0.96917504   -7.3526739     474.6975  0.023119886  0.023057087            6 
 1712000   0.97677496   -7.3755639    473.59156  0.023052549  0.023050222            8 
 1713000   0.98117616   -7.3657713    473.95026  0.023056541  0.023043281            6 
 1714000   0.98161138   -7.3187392    474.76206  0.023082558  0.023036413            3 
 1715000   0.98855746   -7.3686671    473.72902  0.023018903   0.02302951            3 
 1716000   0.99279304   -7.3428781    473.67574  0.023002901   0.02302261            6 
 1717000   0.98617983   -7.3463567    474.45509  0.023027329  0.023015691            4 
 1718000   0.99639666   -7.3224221    475.20008  0.023050062  0.023008761            4 
 1719000    1.0010115   -7.3589764    473.98975  0.022977979  0.023001782            3 
 1720000    0.9755826   -7.3760722    474.39281  0.022984148   0.02299487            6 
 1721000     0.957439   -7.3476233    474.49168   0.02297558  0.022988001            3 
 1722000    0.9791199   -7.3490837    475.63829  0.023017726  0.022981032            3 
 1723000    0.9684723   -7.3325467    475.76526  0.023010508  0.022974078            1 
 1724000   0.97268649   -7.3857888    475.47231     0.022983  0.022967093            2 
 1725000    1.0007415    -7.343886    475.82953  0.022986934  0.022960109            3 
 1726000   0.95136777   -7.3355409    476.99597  0.023029933  0.022953186            6 
 1727000   0.97674657    -7.399887     474.9345  0.022917125  0.022946215            4 
 1728000   0.97015309   -7.3710088    474.80346  0.022897543  0.022939148            5 
 1729000   0.97009008   -7.3534294     475.6258  0.022923935  0.022932081            3 
 1730000   0.98498458   -7.3567684    476.10989  0.022934003  0.022925164            4 
 1731000   0.99522808   -7.3586619     476.8252   0.02295519  0.022918244            3 
 1732000    1.0000416   -7.3113278    476.28254  0.022915826  0.022911292            2 
 1733000   0.99015354    -7.349282    476.24385  0.022900743  0.022904326            3 
 1734000   0.96817791    -7.332725    477.04923  0.022926241  0.022897325            6 
 1735000   0.98726663   -7.2941277    477.87669  0.022952771  0.022890467            6 
 1736000   0.95947563   -7.3506675    477.28486   0.02291114  0.022883617            4 
 1737000   0.98046692   -7.3604098    476.07182  0.022839753   0.02287672            5 
 1738000   0.99366957   -7.3603279    477.18541  0.022880006  0.022869796            6 
 1739000   0.97089009   -7.3766967    476.42249   0.02283029  0.022862815            7 
 1740000   0.97532814    -7.360998    476.81314  0.022835878    0.0228558           10 
 1741000   0.98724959   -7.3691562    477.73261  0.022866772  0.022848748            3 
 1742000   0.95772999   -7.3835864    475.96327  0.022769004  0.022841766            4 
 1743000   0.97646887   -7.4035427    476.42036  0.022777795  0.022834675           12 
 1744000   0.98300883    -7.405864    476.43422  0.022765397   0.02282758            6 
 1745000   0.95688386   -7.3971637     476.0937  0.022736089  0.022820433            5 
 1746000   0.98664121   -7.3779059    476.23459  0.022729791  0.022813191            5 
 1747000    0.9739192   -7.3760095    476.39164  0.022724272  0.022805949            8 
 1748000   0.94587921    -7.372959    477.60182  0.022768965  0.022798763            5 
 1749000   0.97344983   -7.3952288      475.723  0.022666428  0.022791599            7 
 1750000   0.94949063   -7.4005442    475.96851  0.022665167  0.022784394            6 
 1751000   0.98754724   -7.3714192    477.71076   0.02273514  0.022777156            5 
 1752000   0.95642908   -7.3968388     477.1395  0.022694992  0.022769818            3 
 1753000   0.97010621   -7.4031321    476.31957  0.022643068  0.022762545            8 
 1754000   0.97396043   -7.3803494    477.11724  0.022668056  0.022755212            5 
 1755000    0.9725264   -7.3650438    477.63202  0.022679583  0.022747906            5 
 1756000    0.9758459   -7.4065682    477.52419   0.02266155  0.022740476            6 
 1757000   0.96613113   -7.3737326    477.84577  0.022663905  0.022733177            6 
 1758000   0.97387463   -7.3680247    478.28591  0.022671877  0.022725876           11 
 1759000   0.94986636   -7.3454868     480.3321  0.022755927  0.022718609           11 
 1760000   0.96866714    -7.377032    477.77815  0.022622071  0.022711395           12 
 1761000    0.9757551   -7.4090304    477.81478  0.022610959  0.022704168            9 
 1762000   0.96863723   -7.3756255     477.8252  0.022598619  0.022696945            4 
 1763000   0.98784507   -7.3827676    478.16884  0.022602044  0.022689746           10 
 1764000   0.98918226   -7.3874537    479.21666  0.022638731   0.02268246            3 
 1765000   0.93740717   -7.3509796    479.59566  0.022643799  0.022675226            2 
 1766000   0.97039599   -7.3764183    479.38458  0.022621016  0.022668078            3 
 1767000   0.96019363   -7.4060126    480.51259  0.022661413   0.02266087            3 
 1768000   0.95841607   -7.4175992    478.38176   0.02254816  0.022653624            4 
 1769000   0.94190397   -7.3844993    479.00427  0.022564739  0.022646335           12 
 1770000   0.95625068   -7.3585316     479.8414  0.022591403  0.022639039            4 
 1771000   0.97479692   -7.4201931    479.23041  0.022549897  0.022631804            4 
 1772000    0.9592711   -7.3742555    479.96821  0.022571868  0.022624635            6 
 1773000   0.95536228   -7.3526098    480.87493  0.022601755  0.022617384            3 
 1774000   0.96821192   -7.4130715    479.33817  0.022516825  0.022610147            4 
 1775000   0.97263407   -7.4234647    478.23956  0.022452561  0.022602898            4 
 1776000   0.94601839    -7.399032    478.72334  0.022462619  0.022595696            2 
 1777000   0.97654441   -7.4081193    480.89738  0.022551931  0.022588491            5 
 1778000   0.96318041   -7.4167495    478.96429  0.022448645  0.022581346            6 
 1779000    0.9862117   -7.3906463     480.4947  0.022507715  0.022574084            7 
 1780000   0.96901907   -7.4007049    481.24602  0.022530244  0.022566779            6 
 1781000   0.95840103   -7.4319247    480.06379  0.022462277   0.02255947            2 
 1782000   0.95441816   -7.4109278    480.30743  0.022461066  0.022552182            5 
 1783000   0.96056287   -7.4154386    480.03898  0.022435922  0.022544877            5 
 1784000   0.98933925   -7.3898933    480.55666  0.022447527  0.022537503            4 
 1785000   0.98822327   -7.4095187     481.2807  0.022468753   0.02253022            3 
 1786000   0.95723612   -7.3883005    481.07818  0.022446723  0.022522934            5 
 1787000   0.95624096   -7.3945698    482.24267  0.022488466  0.022515647            7 
 1788000   0.97306463   -7.3860233     482.2335  0.022475461  0.022508391            6 
 1789000   0.94310048   -7.3736833    481.93729  0.022449101  0.022501078           15 
 1790000   0.94704933   -7.3855278    481.18649  0.022401606  0.022493788            3 
 1791000   0.97460739   -7.4170241     481.3179  0.022395212  0.022486473            6 
 1792000    0.9842815   -7.4081221    481.32518  0.022383054  0.022479194            4 
 1793000   0.94009994   -7.3652482    483.26342  0.022460654  0.022471892            4 
 1794000   0.97020402   -7.3958043    482.84529  0.022428711  0.022464694            6 
 1795000   0.96320687   -7.3662535     483.6092   0.02245168  0.022457543           10 
 1796000   0.95615209   -7.4005507    482.22235  0.022374831  0.022450419            3 
 1797000   0.96570775   -7.3775567    483.66322  0.022429198  0.022443256            3 
 1798000   0.98352452   -7.3917711    483.70678  0.022418742   0.02243609            3 
 1799000   0.96849899   -7.3517039    485.02732   0.02246745  0.022428863            6 
 1800000   0.94652104    -7.409497    483.15157  0.022368128  0.022421684            5 
 1801000   0.98622975   -7.4099476    482.41136  0.022321458  0.022414454            8 
 1802000   0.95702626   -7.4140353    482.41141  0.022309074  0.022407182            7 
 1803000   0.98213585    -7.392603     483.7065  0.022356558  0.022399884            6 
 1804000    0.9647297   -7.4439443    481.43044  0.022239026  0.022392553           11 
 1805000   0.96116111   -7.3898976    483.17847  0.022307408  0.022385242            9 
 1806000   0.97842526   -7.3611753    484.27458  0.022345634  0.022377965            5 
 1807000   0.95760763   -7.3267021    485.69851  0.022398935  0.022370781           11 
 1808000   0.94627308    -7.375579    484.89798  0.022349649   0.02236363            4 
 1809000   0.95388468    -7.416433    484.58016  0.022322653  0.022356405            6 
 1810000   0.97083328   -7.3898097    484.72589   0.02231703   0.02234913            5 
 1811000   0.95572394   -7.3825737    484.24608  0.022282628  0.022341912            8 
 1812000   0.95896806   -7.4179067    484.52629  0.022283218  0.022334666            4 
 1813000   0.94631866   -7.4051612    484.07822  0.022250332  0.022327284            2 
 1814000   0.95475991   -7.3955222    483.56576  0.022214524  0.022319973            7 
 1815000   0.96172043   -7.3999592    485.47342  0.022289873   0.02231277            4 
 1816000   0.93664694   -7.4294652    484.28693  0.022223152  0.022305454            4 
 1817000   0.96879803   -7.3961922    484.62026  0.022226209   0.02229814            5 
 1818000   0.95882773   -7.3873723    484.76025    0.0222204  0.022290849            7 
 1819000   0.95695978   -7.3934229    483.83883  0.022165972  0.022283496            3 
 1820000   0.93179593   -7.4389094    484.01785  0.022161989  0.022276129            2 
 1821000   0.97912214    -7.423393    484.34992  0.022165016  0.022268766           12 
 1822000   0.95103004   -7.4011542    484.08085  0.022140544  0.022261455            4 
 1823000   0.97232869   -7.4038383    484.92617   0.02216704  0.022254234            3 
 1824000   0.94522153   -7.4061966    485.45275  0.022178945  0.022246904            6 
 1825000   0.94914829   -7.4040334    485.98686  0.022191181  0.022239646            5 
 1826000   0.98611039   -7.3983243    484.53585  0.022112808  0.022232437            3 
 1827000    0.9900782   -7.4488943     485.1518  0.022128799  0.022225098            4 
 1828000   0.96111487   -7.4032201    485.00079   0.02210981  0.022217746            5 
 1829000   0.94878111   -7.4174588    485.79965  0.022134119  0.022210329            4 
 1830000   0.93851129   -7.4390121    486.30404  0.022144993  0.022203022            3 
 1831000   0.96227169   -7.4228355    485.43906  0.022093531  0.022195714            5 
 1832000   0.96662331    -7.433986    486.58629  0.022133656  0.022188481            6 
 1833000   0.93425423   -7.4375424    484.65831  0.022033929  0.022181137            5 
 1834000   0.94876562   -7.4351238    486.83315  0.022120735  0.022173847            6 
 1835000   0.93262701   -7.4249021    486.64342  0.022100064   0.02216648            5 
 1836000   0.96202799   -7.4143468    487.34844  0.022120027  0.022159285            5 
 1837000   0.95381722   -7.4338165    487.34031  0.022107617   0.02215212           11 
 1838000   0.96002092   -7.4238327     487.4153  0.022098989   0.02214488            7 
 1839000   0.96766005   -7.4423908    486.13553   0.02202898  0.022137643            4 
 1840000   0.94770404   -7.3904949    489.06476  0.022149672  0.022130368            3 
 1841000   0.95208793   -7.4295307     488.0762  0.022092893  0.022123285            6 
 1842000   0.91866237   -7.4115169    489.15421  0.022129669  0.022116114           10 
 1843000   0.97748462   -7.4471359    487.50778  0.022043217  0.022108928            7 
 1844000   0.94074683   -7.4327408    488.37224  0.022070329  0.022101657            6 
 1845000   0.93847174   -7.4034953    487.22788  0.022006679  0.022094306            9 
 1846000   0.95397915   -7.4038762     487.6424  0.022013471  0.022087069           14 
 1847000   0.96796668   -7.4312131    487.69858  0.022004087  0.022079927            8 
 1848000    0.9723839    -7.410065    487.93785   0.02200297  0.022072663            4 
 1849000   0.94335097   -7.4506296    488.61168  0.022021438  0.022065356            6 
 1850000   0.95965723   -7.4737074    486.10341   0.02189655  0.022058085            7 
 1851000   0.94665172   -7.4334679    488.71249  0.022002183  0.022050791            8 
 1852000   0.94483185   -7.4122325     490.0146  0.022048893  0.022043666            6 
 1853000   0.96348335   -7.4402021    489.15652  0.021998404   0.02203657            4 
 1854000   0.96788598   -7.4369364    488.77591  0.021969431  0.022029403            5 
 1855000    0.9668505   -7.4062079    491.13463   0.02206355  0.022022229            3 
 1856000   0.97199185   -7.4254061    491.45555  0.022066072  0.022015171            4 
 1857000   0.95914582   -7.4185191    491.36709   0.02205022  0.022008159            8 
 1858000   0.95114749   -7.3963923    490.42724  0.021996198  0.022001075            5 
 1859000   0.96903187    -7.443006    490.33579  0.021980267  0.021993968            7 
 1860000   0.94462635   -7.4109488    491.36992  0.022014782  0.021986887            4 
 1861000   0.96986024   -7.4711169    490.28598  0.021954414  0.021979852            5 
 1862000   0.96752038   -7.4685671    489.81149  0.021921388  0.021972752            7 
 1863000   0.96502545   -7.4433021    490.99367  0.021962501  0.021965645            6 
 1864000   0.94250266   -7.4093163    492.82195  0.022032455  0.021958686            6 
 1865000   0.96703539   -7.4387437    492.03116  0.021985307  0.021951707            4 
 1866000   0.93489025   -7.4593813    491.74138  0.021960583  0.021944718            2 
 1867000   0.94764433    -7.443306    492.78411  0.021995363   0.02193768            7 
 1868000     0.969215   -7.4051828    492.80264  0.021984415  0.021930683           13 
 1869000   0.94249353   -7.4075217    493.22299  0.021991394  0.021923762            5 
 1870000   0.95715718   -7.4201235    492.05516  0.021927592    0.0219168           11 
 1871000   0.96523219   -7.4188218    493.58136  0.021983848  0.021909838            8 
 1872000   0.93241065   -7.4007854    493.29958  0.021959561  0.021902913            4 
 1873000    0.9572115   -7.4260862    492.92122  0.021931003  0.021896052           13 
 1874000   0.95736104   -7.4350279     493.1913   0.02193131  0.021889111            5 
 1875000   0.95424804   -7.4470918    491.81429  0.021858413   0.02188222            3 
 1876000   0.94962254   -7.4540374    492.89901  0.021894946  0.021875241            7 
 1877000   0.95078106   -7.4181814    493.29293   0.02190077  0.021868282            7 
 1878000   0.93474482   -7.4560139    492.62089  0.021859287  0.021861287            6 
 1879000    0.9677766   -7.4491145    492.72457  0.021852252  0.021854187            3 
 1880000   0.95636776   -7.4432971    492.58146  0.021834285  0.021847198            4 
 1881000   0.94193075   -7.4863236    491.59092  0.021778793  0.021840168            8 
 1882000    0.9465481   -7.4675548    492.32126   0.02179956  0.021833169            6 
 1883000   0.97646055   -7.4785112    493.44297  0.021837625  0.021826146            8 
 1884000   0.94711224   -7.4316221    493.83207  0.021843244  0.021819145           13 
 1885000   0.95262139   -7.4342553     494.3274  0.021853554  0.021812149            4 
 1886000   0.93644123    -7.439703    493.73332  0.021815718   0.02180524           10 
 1887000   0.99472148    -7.468678    493.24408  0.021782551  0.021798305            7 
 1888000   0.92634468   -7.4163005    494.56134  0.021829155  0.021791328            4 
 1889000   0.95990113   -7.4256823    493.20842  0.021757915  0.021784428            2 
 1890000   0.94244721   -7.3930966     496.5571  0.021894052  0.021777538            8 
 1891000   0.95925035   -7.3957754    496.94287  0.021899474  0.021770639            5 
 1892000    0.9490373   -7.4157248    495.01301  0.021802899  0.021763769            4 
 1893000   0.95166256   -7.4366757    495.09959  0.021795192  0.021756883            7 
 1894000   0.95817005   -7.4595922    495.80116  0.021814553  0.021749946            4 
 1895000   0.97690066   -7.4647975    493.44401  0.021699385  0.021742943            6 
 1896000   0.95739881   -7.4909431    492.75994  0.021657874  0.021735857            3 
 1897000   0.95322647   -7.4996466    493.71441  0.021688385  0.021728725            7 
 1898000   0.93829909   -7.4818061    493.53652  0.021669148  0.021721559            7 
 1899000   0.94752299   -7.4945562    493.79346  0.021669013  0.021714476            9 
 1900000   0.93952573   -7.4849136    495.54167  0.021734284  0.021707374            5 
 1901000   0.94413348   -7.4820503    495.10045  0.021703509  0.021700367            7 
 1902000   0.94780011    -7.469947    495.67566    0.0217173  0.021693288            3 
 1903000   0.94007504   -7.4567185     495.2885  0.021688934  0.021686245            4 
 1904000   0.93474561   -7.4845875    495.65914  0.021693765  0.021679248           11 
 1905000   0.94633477   -7.4950019    493.87885  0.021604499  0.021672234            6 
 1906000   0.95349031   -7.4641062    496.30581  0.021699275  0.021665258            2 
 1907000   0.94640015   -7.4572757    494.99701  0.021630703  0.021658208            5 
 1908000   0.92973714   -7.4863454    496.05376  0.021665521  0.021651167            9 
 1909000   0.95050678    -7.469687    495.62257  0.021635349  0.021644089           15 
 1910000   0.94015369   -7.4871385    494.79771  0.021588033  0.021637008            7 
 1911000    0.9456075   -7.4628081    495.15619  0.021592368  0.021629961            8 
 1912000   0.95711998   -7.4883221     496.2627  0.021629302  0.021622919            5 
 1913000   0.93532037   -7.4927923    495.22896  0.021572964  0.021615883            4 
 1914000   0.92908097   -7.4964969    495.42458   0.02157021  0.021608869            7 
 1915000   0.96743906   -7.4741407    496.61126  0.021610586  0.021601868            4 
 1916000   0.95284011   -7.4840789    496.30461   0.02158597  0.021594886            7 
 1917000   0.94905687   -7.4469907    496.83815  0.021597902  0.021587855            5 
 1918000   0.94154042   -7.4640466    497.66078  0.021622383  0.021580898            5 
 1919000   0.96364792   -7.4633792    498.42779  0.021644424  0.021573911            9 
 1920000   0.94168568   -7.4628904    497.33615  0.021585771  0.021566926            7 
 1921000   0.93964432   -7.4860406    497.37712  0.021576311  0.021559918            9 
 1922000   0.96950813   -7.4433971    497.79423   0.02158317  0.021552941            7 
 1923000   0.96116445   -7.4916362    496.47585  0.021514814  0.021545958           14 
 1924000    0.9524779   -7.5253749    497.36299  0.021542056   0.02153899           15 
 1925000     0.935838   -7.4741708    497.06822  0.021518105  0.021531977            7 
 1926000    0.9568296   -7.4918222    498.44956    0.0215667  0.021524999            4 
 1927000   0.93461232   -7.4541005    499.73499  0.021611096  0.021518052            4 
 1928000   0.95776045   -7.4205844    499.54031  0.021591473  0.021511137           12 
 1929000   0.94596311   -7.4510768     499.6873   0.02158663  0.021504235            9 
 1930000   0.94095189   -7.4414069    499.36241  0.021561417  0.021497344            6 
 1931000   0.92710592   -7.4629795    497.73892  0.021480188  0.021490374            4 
 1932000   0.93483572   -7.4534262    499.13104  0.021529117   0.02148348           11 
 1933000   0.93517442   -7.4470198    500.11258  0.021560294   0.02147652            2 
 1934000   0.92309564   -7.5101905    498.38562  0.021474734  0.021469588           10 
 1935000   0.95682445   -7.4604603    498.26899  0.021458613  0.021462647           10 
 1936000   0.92650076   -7.4285543    500.16951  0.021529335  0.021455752            5 
 1937000   0.94152292   -7.4653284    499.22272  0.021477487  0.021448788            2 
 1938000   0.96565539   -7.4902162    497.53163  0.021393689  0.021441711            7 
 1939000   0.96384177   -7.4673458    500.09218  0.021492702  0.021434686            7 
 1940000   0.93842898   -7.4650362    499.77805  0.021468129  0.021427658            6 
 1941000   0.93245766   -7.4828131    498.88616  0.021418777  0.021420651            4 
 1942000   0.94011272   -7.4859054    500.79308  0.021489576  0.021413681            8 
 1943000   0.94199825   -7.4644195    500.15382  0.021451099  0.021406737            5 
 1944000   0.93320316   -7.4906953    500.77873  0.021466852  0.021399816            3 
 1945000   0.93836067   -7.4617877    500.83848  0.021458375  0.021392924            5 
 1946000   0.94345644   -7.4422643    500.77305  0.021444546  0.021386093            3 
 1947000   0.95543635   -7.4630139    500.45516  0.021419926  0.021379217            3 
 1948000   0.96123491   -7.5031457    500.14947  0.021395853  0.021372302            6 
 1949000   0.93641342   -7.4788509    500.63709  0.021405725  0.021365403           10 
 1950000   0.93934637   -7.4576928    500.60048  0.021393183  0.021358538            5 
 1951000   0.91453082   -7.4349642    501.93498  0.021439219  0.021351713            2 
 1952000   0.93078576   -7.4399814    500.63804  0.021372867  0.021344911            9 
 1953000   0.95180094    -7.471706    502.98193  0.021461936  0.021338147            9 
 1954000   0.94930352   -7.4687056    502.01194  0.021409585  0.021331365            6 
 1955000   0.93230551   -7.4551584    502.68254  0.021427218  0.021324526            4 
 1956000   0.93332377   -7.4660971    502.32202  0.021400904  0.021317638            5 
 1957000    0.9181943   -7.4566519    502.14294  0.021382343  0.021310743            3 
 1958000   0.94398396   -7.4477489    502.33672   0.02137967  0.021303899            6 
 1959000   0.93788957   -7.4549158    503.04101  0.021398716  0.021297059            6 
 1960000    0.9380619   -7.5004319    502.12735  0.021348952  0.021290214            6 
 1961000   0.94129019    -7.438881    502.72502  0.021363463  0.021283372           10 
 1962000   0.92550231   -7.4171923    504.30832  0.021419823   0.02127652            3 
 1963000   0.93401604   -7.4603073     502.6137  0.021336971  0.021269738            5 
 1964000   0.93768836   -7.5009416    503.34644  0.021357198  0.021262905            4 
 1965000   0.92458562   -7.4659195    502.49688    0.0213103   0.02125606            3 
 1966000   0.93479034   -7.4656156    503.04192  0.021322564  0.021249259            8 
 1967000   0.92159305   -7.4305465     504.0621  0.021354944  0.021242515            5 
 1968000   0.93343889   -7.4629757    504.62202  0.021367802  0.021235792            6 
 1969000   0.94419669   -7.4477865     504.5999  0.021356014  0.021229041            6 
 1970000    0.9395915   -7.4853358    503.65782  0.021305322  0.021222257            7 
 1971000   0.92805167   -7.5185791    503.57346  0.021290946  0.021215395           13 
 1972000   0.92261367    -7.481109    502.74726  0.021245236  0.021208505            5 
 1973000   0.93707852   -7.5242855    503.19472  0.021253367  0.021201641            3 
 1974000   0.91952673    -7.515314    503.00976  0.021234792  0.021194743            4 
 1975000   0.94030448   -7.5001893    504.94271    0.0213056  0.021187937            5 
 1976000   0.93386936    -7.480466    503.11107  0.021217572  0.021181134            4 
 1977000     0.937143   -7.4977478    503.59885  0.021227401  0.021174384            9 
 1978000   0.91209765   -7.4491245    504.51935  0.021255449  0.021167638            4 
 1979000   0.93544393    -7.505912    503.92488  0.021219677  0.021160896            6 
 1980000   0.93107139   -7.4657126    505.21422  0.021263225  0.021154176            8 
 1981000   0.96113258   -7.4832115    504.16671  0.021208426  0.021147439            5 
 1982000   0.93839081   -7.5001094    504.57934  0.021215075  0.021140557           12 
 1983000   0.93756057   -7.4538776    506.63604  0.021290807  0.021133816            7 
 1984000   0.93937758   -7.4781074     505.5006  0.021232384  0.021127099            5 
 1985000   0.92548941   -7.5058076    504.39354  0.021175212  0.021120389            6 
 1986000   0.95434527   -7.5001902     504.3691  0.021163524  0.021113613            9 
 1987000   0.92840419   -7.4740691     505.6963  0.021208535   0.02110683            7 
 1988000   0.92848962   -7.4500667    506.59203  0.021235414  0.021100066            7 
 1989000    0.9314185   -7.5061887    505.65371  0.021185424  0.021093314            3 
 1990000   0.93600073   -7.4787781    505.84568  0.021182818  0.021086572            8 
 1991000   0.93572118   -7.4996322    507.52423  0.021242434  0.021079844           13 
 1992000    0.9464189   -7.5130061    507.34142  0.021224122   0.02107314            9 
 1993000   0.95445605   -7.4738641    506.52773   0.02117945  0.021066453            2 
 1994000   0.94538392   -7.5168985    505.68664  0.021133678   0.02105976           10 
 1995000   0.94210593   -7.5380553    504.59593  0.021077524  0.021053023            3 
 1996000   0.94672295   -7.5359953    505.08086   0.02108721  0.021046223            4 
 1997000    0.9335898   -7.5326787    507.20956   0.02116548  0.021039453            9 
 1998000   0.92026222   -7.4656379    507.83624  0.021181025  0.021032647            9 
 1999000   0.91252838   -7.5143399    507.83183  0.021170245  0.021025923            4 
 2000000   0.93086267   -7.5164041    507.05533  0.021127305  0.021019179            7 
 2001000    0.9348237   -7.4544761    508.73493  0.021186695  0.021012469            3 
 2002000   0.92264335   -7.5007769    506.83739  0.021097128   0.02100579            3 
 2003000   0.93845724   -7.4891992     506.8689  0.021087906  0.020999095            5 
 2004000   0.91520274   -7.4960484    507.64553  0.021109678   0.02099239            5 
 2005000   0.92257596   -7.4837019    507.81488  0.021106188  0.020985661            3 
 2006000   0.92225204   -7.4813502    506.45147  0.021039027  0.020978913            4 
 2007000   0.92146065   -7.4709403    507.09867  0.021055417  0.020972233            3 
 2008000   0.92299305   -7.4792655    508.19902  0.021090597  0.020965555            5 
 2009000    0.9349964   -7.4526424    509.11998    0.0211183  0.020958803            6 
 2010000   0.92296601   -7.4977573     507.8114  0.021053541  0.020952059           11 
 2011000   0.93409747   -7.4933423    508.92364  0.021089161  0.020945326           11 
 2012000   0.92734883   -7.4727002    508.65804  0.021067679  0.020938695           21 
 2013000    0.9434155   -7.5075743     508.6959   0.02105878  0.020932014           13 
 2014000   0.93070595    -7.501093    508.53912  0.021041837  0.020925316            4 
 2015000   0.93850184   -7.5052995    509.43125   0.02106829  0.020918643            9 
 2016000   0.94679141   -7.5338009    505.87082  0.020910666  0.020911874            6 
 2017000   0.92636438   -7.5404822    506.16249  0.020912349  0.020905066            4 
 2018000   0.92923229   -7.5001531    509.37166  0.021034509   0.02089829            5 
 2019000   0.91488133   -7.5002128    507.60395  0.020951129  0.020891536            5 
 2020000   0.93969054   -7.5040806    508.31663  0.020970158  0.020884779            3 
 2021000   0.93092307    -7.482773    508.83055  0.020980973  0.020878089            6 
 2022000   0.92100338    -7.450746    509.89926  0.021014642  0.020871463            8 
 2023000   0.94323236   -7.4937703    509.79618  0.021000007  0.020864758            6 
 2024000   0.92176172   -7.4900472    509.53954  0.020979066  0.020858025            3 
 2025000   0.94354468   -7.4979263    509.57232  0.020970054  0.020851265            5 
 2026000   0.93788232   -7.4740686    510.24523  0.020987382  0.020844604            3 
 2027000   0.94664458   -7.5066808    509.09054  0.020929557  0.020837897           19 
 2028000   0.91921023   -7.5163496    509.94627    0.0209544  0.020831112           12 
 2029000   0.91709246   -7.4808771    509.08299  0.020908616  0.020824384           11 
 2030000   0.92752534   -7.4993629    509.08093  0.020898232  0.020817633            4 
 2031000   0.91720028   -7.5296243    508.99764  0.020884525  0.020810876            6 
 2032000    0.9146381   -7.5464581    508.50663  0.020854111  0.020804103            7 
 2033000   0.91969995     -7.47274    510.42603  0.020922529  0.020797299            4 
 2034000   0.92117451   -7.5005139    509.93555  0.020892148  0.020790558            6 
 2035000   0.92555011   -7.4868915    510.55891  0.020907408  0.020783826           10 
 2036000   0.93561575   -7.4829149    510.42747   0.02089176  0.020777158            5 
 2037000   0.93240145   -7.4889263    510.05782  0.020866381  0.020770479            5 
 2038000   0.93114889   -7.5291311    510.59225  0.020877995  0.020763849            5 
 2039000   0.91239461   -7.5338213    510.48893  0.020863533   0.02075718            7 
 2040000   0.92808887   -7.5123634    510.29327  0.020845313  0.020750486            6 
 2041000   0.90276433   -7.5124773    509.35247  0.020796688  0.020743774            6 
 2042000   0.92427104   -7.4910926    511.29999  0.020865981  0.020737054            3 
 2043000   0.92612742   -7.5300939    511.24994  0.020853726  0.020730303            4 
 2044000   0.92055424   -7.5234432    509.90444  0.020788668  0.020723611            4 
 2045000   0.90976832    -7.510036    510.75443  0.020813139  0.020716884           16 
 2046000    0.9169749   -7.5230889    509.48743  0.020751362   0.02071013            7 
 2047000   0.94408653   -7.5272646    510.32787  0.020775438  0.020703248            2 
 2048000    0.9154291   -7.4618975    510.85357  0.020786685  0.020696486            5 
 2049000   0.91615646   -7.4693684    511.56371  0.020805422  0.020689677            8 
 2050000   0.92713525   -7.5349479    510.77781  0.020763326  0.020682836            8 
 2051000   0.93273466   -7.5102963    510.84988   0.02075613  0.020676053            5 
 2052000   0.91927157   -7.5214283    510.24771  0.020721561  0.020669257            9 
 2053000   0.93028217   -7.4775414    513.22998  0.020832521  0.020662495            5 
 2054000   0.92857469   -7.5456855    510.15076  0.020697451  0.020655763           10 
 2055000   0.92229345   -7.5047672    511.35374  0.020736161  0.020648984            5 
 2056000   0.93422635   -7.4972219    512.38558  0.020767898  0.020642222            5 
 2057000   0.89119564   -7.5055404    511.97555  0.020741191  0.020635415            4 
 2058000   0.92320812   -7.5216091    511.24977  0.020701724  0.020628597           11 
 2059000   0.91360811   -7.5316059    510.37576  0.020656296  0.020621735            4 
 2060000   0.90595347   -7.5285258    511.18114  0.020678849  0.020614875            5 
 2061000   0.92820005   -7.5430231    511.56802  0.020684458   0.02060797            9 
 2062000   0.92496723   -7.5545008     510.0361  0.020612516  0.020601075            4 
 2063000   0.90941845   -7.5272817    511.72141  0.020670601  0.020594127            5 
 2064000   0.93170973   -7.5532797    509.56744  0.020573621  0.020587248            5 
 2065000   0.91903272   -7.5267301     511.5887  0.020645226   0.02058025           10 
 2066000   0.93715913   -7.4903146    511.68864  0.020639264  0.020573388            7 
 2067000   0.93044749    -7.490248    513.75737  0.020712682  0.020566568            4 
 2068000   0.92895625   -7.5219508    511.94698  0.020629714  0.020559735            2 
 2069000   0.92252657   -7.5488768    510.19383  0.020549131  0.020552844           24 
 2070000   0.91081663   -7.5635511    510.73646  0.020561049  0.020545925            5 
 2071000   0.90454001    -7.522269    511.52998  0.020583051   0.02053905            7 
 2072000   0.92931742   -7.4934171    511.96613  0.020590658  0.020532217            4 
 2073000   0.90795383   -7.5418531    511.76416  0.020572606  0.020525398            8 
 2074000   0.91087975   -7.5249588    512.97936  0.020611514  0.020518592            3 
 2075000   0.92278545   -7.5175892    512.19623   0.02057013  0.020511747            4 
 2076000   0.92103867   -7.5389385    510.56389  0.020494697  0.020504823            5 
 2077000   0.93089694   -7.5387993    510.78676  0.020493771  0.020497891            7 
 2078000   0.92644694   -7.5457729    512.03059   0.02053379  0.020490977            7 
 2079000   0.91077562   -7.5522482    511.55307  0.020504773  0.020484028            8 
 2080000   0.90707647   -7.5410848    511.59613   0.02049664  0.020476995            9 
 2081000   0.91512066   -7.5934252    510.83445  0.020456289  0.020469989           10 
 2082000   0.94328197   -7.5420127    512.40537  0.020509341  0.020463007            5 
 2083000   0.91723856   -7.5407261    512.89798  0.020519202  0.020456101            4 
 2084000   0.90267016   -7.5487148    512.78612  0.020504883  0.020449148            6 
 2085000   0.91653726   -7.5022232    512.51911  0.020484377  0.020442282            7 
 2086000   0.90561425   -7.5303464    513.30392  0.020505909  0.020435422            9 
 2087000   0.91940285   -7.4930671    512.96067  0.020482378  0.020428577           11 
 2088000   0.91816731   -7.5274407    514.31411  0.020526585  0.020421739           11 
 2089000   0.91457858   -7.5326432    513.60341  0.020488408  0.020414875            6 
 2090000   0.89792303   -7.5410721    512.34705  0.020428511  0.020408006            7 
 2091000   0.92741114   -7.4907598    511.38567  0.020380427  0.020401082            8 
 2092000   0.92098457   -7.5374688    511.95072  0.020393193   0.02039418            5 
 2093000   0.89229583   -7.5627382    513.08433  0.020428585  0.020387303            6 
 2094000   0.93870447   -7.5596223     512.8248    0.0204085  0.020380416            4 
 2095000   0.89736242   -7.5510155    512.66232  0.020392296  0.020373484            8 
 2096000   0.89400574    -7.529831    514.51487  0.020456221  0.020366588           19 
 2097000    0.9127706    -7.527427    514.60159  0.020449912  0.020359677            6 
 2098000   0.91290348   -7.5438003    513.91543   0.02041291  0.020352804            5 
 2099000   0.92281991   -7.5561564    513.28409   0.02037812  0.020345872            7 
 2100000   0.89721446    -7.529482    513.99957  0.020396808  0.020338895           12 
 2101000   0.92263872   -7.5634593     514.8684  0.020421561   0.02033201            8 
 2102000   0.92451862   -7.5736606    511.74823  0.020288147  0.020325111            9 
 2103000   0.91126318   -7.5278241    514.21281  0.020376161  0.020318217           10 
 2104000   0.90251412   -7.5545232    513.86337  0.020352637  0.020311301            6 
 2105000   0.89710773    -7.560615    514.45678   0.02036646  0.020304327            5 
 2106000    0.9081984   -7.5522354    512.40148  0.020275462   0.02029737            9 
 2107000   0.93456583   -7.5704375    513.74909  0.020319138   0.02029041            9 
 2108000   0.92089202   -7.5720758    514.96706  0.020357648  0.020283474            6 
 2109000   0.91513147   -7.5506636     513.8748  0.020304836  0.020276556            8 
 2110000   0.92040637   -7.5782092    515.41701  0.020356122  0.020269652            6 
 2111000   0.90010937   -7.5738664    515.96189  0.020367989  0.020262775            7 
 2112000   0.90332962   -7.5469065    515.48033  0.020339344  0.020255885            6 
 2113000   0.91392767    -7.575115    514.48523  0.020290473   0.02024901            3 
 2114000   0.90916703   -7.5785752    515.82629  0.020333739  0.020242138            7 
 2115000   0.90042501   -7.5649412    514.07659  0.020255185  0.020235289            5 
 2116000   0.90311305   -7.5072279    515.89823  0.020317353  0.020228497           10 
 2117000   0.91155704   -7.5763325    514.17319  0.020239852   0.02022167            6 
 2118000   0.90192468   -7.5846559    515.14639  0.020268586  0.020214795            4 
 2119000   0.92150257   -7.5897547    514.57968  0.020236734  0.020207884            7 
 2120000   0.93531325   -7.5693522    515.12693    0.0202487  0.020200983            4 
 2121000   0.92165794   -7.5788688    516.07231  0.020276297  0.020194093            6 
 2122000   0.90647741   -7.5577936    514.26764   0.02019587  0.020187233            7 
 2123000   0.92336191   -7.5266685    516.91503  0.020290274  0.020180405            8 
 2124000   0.90230318   -7.5839243    515.71284  0.020233555  0.020173571            3 
 2125000   0.91730439   -7.5568534     514.8955   0.02019198  0.020166704            5 
 2126000   0.92928718    -7.563721      516.298  0.020237457  0.020159879            5 
 2127000   0.91134013   -7.5579483    515.13047    0.0201822  0.020153041            5 
 2128000   0.90073119   -7.5733523    515.43109  0.020184488  0.020146109            5 
 2129000   0.92639127   -7.5973623    514.76466  0.020148922  0.020139206            3 
 2130000   0.91038995   -7.5525697    515.43133  0.020165545  0.020132295           11 
 2131000   0.89613359   -7.5442366    514.97676  0.020138306  0.020125371            4 
 2132000   0.90272088    -7.585717    516.60405  0.020192466  0.020118451            6 
 2133000   0.93218804   -7.5407808    516.32628  0.020172147   0.02011151            6 
 2134000   0.91654355   -7.5970149    516.41584  0.020166192  0.020104539            4 
 2135000   0.91280613   -7.5716738    514.68282  0.020089103  0.020097562            7 
 2136000   0.92534043   -7.5297501    516.94605  0.020167995  0.020090642            5 
 2137000   0.92583742   -7.5551805    515.67187   0.02010887  0.020083716            6 
 2138000   0.94276625   -7.5264754     516.2693  0.020122751   0.02007679            7 
 2139000   0.90945764   -7.5561985    515.73409  0.020092492  0.020069874            8 
 2140000    0.9143172   -7.5794961    514.94545  0.020052393  0.020062957            6 
 2141000    0.8985233   -7.6041297    515.95999  0.020082515  0.020055923            8 
 2142000   0.90202994   -7.5785561     516.1848  0.020081886  0.020048894            6 
 2143000   0.89165296   -7.5749598    514.82681  0.020019708  0.020041902            6 
 2144000    0.9013156   -7.5950007    516.18409  0.020063125  0.020034859            4 
 2145000   0.90616072   -7.5647931    515.58912  0.020030657  0.020027865            5 
 2146000    0.9000808   -7.5431122     516.7897  0.020067944   0.02002091            9 
 2147000   0.92820218   -7.5770067    517.05492  0.020068892  0.020013918            9 
 2148000   0.91392975    -7.593781    514.80539  0.019972276  0.020006965            5 
 2149000   0.92744796   -7.5879821    516.25546  0.020019213  0.019999983            6 
 2150000   0.89257671   -7.5918762    515.83612  0.019993648  0.019992968           12 
 2151000   0.89202864   -7.6022861     516.7088  0.020018162  0.019986007            8 
 2152000   0.89970516   -7.5880777    516.23534  0.019990526  0.019979033            5 
 2153000   0.90953878    -7.573046    516.92315  0.020007863  0.019972085           16 
 2154000   0.90239927   -7.6169848    517.24614   0.02001107  0.019965111            7 
 2155000   0.91094223    -7.601675    516.03545  0.019954967  0.019958066            5 
 2156000   0.91894281   -7.5957877    516.97127  0.019981883  0.019951079            4 
 2157000    0.9111394   -7.6270551    515.97382  0.019934084  0.019944054            9 
 2158000    0.9082714   -7.5972383     517.0817  0.019967628  0.019937043           28 
 2159000   0.91350894   -7.5803759    517.44689  0.019972475  0.019930042            5 
 2160000   0.90209449   -7.5864702    519.83426  0.020055334  0.019923075            9 
 2161000   0.87487092   -7.5980019    517.65434  0.019961991  0.019916148            7 
 2162000    0.9193819   -7.5986229    517.66377  0.019953121  0.019909196           12 
 2163000    0.9046072   -7.5840777    518.20315  0.019964677  0.019902299            4 
 2164000   0.90457285   -7.5714059    516.98673  0.019908608  0.019895396            3 
 2165000   0.90878297   -7.5762072    519.72961  0.020004989  0.019888526            5 
 2166000   0.90990515   -7.5642891     518.6107  0.019952705  0.019881684            8 
 2167000   0.90059915   -7.5805231    518.12788   0.01992493   0.01987487           11 
 2168000   0.88781888   -7.5659266    519.70225  0.019976255  0.019868081            9 
 2169000   0.90733592   -7.5769782    518.61271  0.019925185  0.019861341            9 
 2170000   0.88394501   -7.5500864    519.32795   0.01994347  0.019854552            3 
 2171000   0.87409709   -7.5735651    520.05885  0.019962339  0.019847745            6 
 2172000   0.88073315   -7.5641219    519.35696  0.019926219  0.019840978            6 
 2173000   0.89218313   -7.5447048     519.9645  0.019940347  0.019834233            4 
 2174000    0.8967367   -7.5358437    519.94823  0.019930552  0.019827498            9 
 2175000   0.90714035   -7.5532605    519.73025  0.019913036  0.019820696            4 
 2176000   0.91288031   -7.5491745    521.18967  0.019959776  0.019813873            5 
 2177000   0.90734594   -7.5625213    519.63538  0.019891111  0.019807021            6 
 2178000   0.91486487   -7.5688595    521.35625  0.019947821  0.019800198            8 
 2179000    0.8821858   -7.5874754    518.97437  0.019847574  0.019793399           13 
 2180000   0.89941555     -7.63627    519.14799  0.019845107  0.019786538           10 
 2181000   0.91335115   -7.5756827    520.16419  0.019874835   0.01977971           11 
 2182000   0.91223551   -7.6067064    519.99976  0.019859447   0.01977289            7 
 2183000   0.90987775   -7.6179449    518.54417  0.019794784  0.019766026            8 
 2184000    0.9045905   -7.5682879    520.00496  0.019841459  0.019759202            8 
 2185000   0.91068922   -7.5927186     520.4381  0.019848898  0.019752393            8 
 2186000   0.90578219   -7.5827209    520.09768   0.01982684  0.019745601            6 
 2187000   0.91570351   -7.5636284    522.76562  0.019919434   0.01973886            7 
 2188000   0.88568286   -7.5404053    522.14632  0.019886743  0.019732136           12 
 2189000   0.89362299   -7.5521159    521.30481  0.019845623  0.019725428            6 
 2190000   0.90135683   -7.5394593    522.92807  0.019898328  0.019718765           10 
 2191000   0.91302714   -7.5532108    523.06948  0.019894625    0.0197121           23 
 2192000   0.92672467   -7.6039491    520.20991  0.019776837  0.019705354           21 
 2193000   0.89138657    -7.571508    522.32509  0.019848195  0.019698606           12 
 2194000   0.89337842   -7.5866198    521.03157  0.019790017  0.019691912           18 
 2195000   0.90939437   -7.5597034    521.77528  0.019809236  0.019685157            8 
 2196000   0.91891862   -7.5953531    522.84553  0.019840829  0.019678425           13 
 2197000   0.90619546   -7.6151172    521.18945  0.019768982  0.019671617            9 
 2198000   0.87640635    -7.593642    521.76639  0.019781862  0.019664824            7 
 2199000   0.91499407   -7.6119045    520.14076  0.019711261  0.019658003            7 
 2200000   0.89179809   -7.5683405    521.12325  0.019739517  0.019651216            3 
 2201000   0.88688181   -7.5688542    521.83326  0.019757431  0.019644516            6 
 2202000   0.90657708   -7.5967455    521.62442  0.019740555  0.019637815            7 
 2203000   0.90315384   -7.5587157    522.86894  0.019778671  0.019631121            5 
 2204000   0.88593206   -7.5917911     523.2633  0.019784608  0.019624452            3 
 2205000   0.88828981   -7.5582263    523.66084  0.019790659  0.019617786            4 
 2206000   0.89201925   -7.5667031    523.00961  0.019757087  0.019611066            4 
 2207000   0.88401511   -7.6109134    521.72512  0.019699635  0.019604373            4 
 2208000     0.912403   -7.5747727     523.9348  0.019774109  0.019597711            5 
 2209000   0.88002552   -7.5912056    523.76057  0.019758585  0.019591058            8 
 2210000   0.88077728   -7.5828451    522.36498   0.01969702   0.01958438           13 
 2211000   0.92495394   -7.6272832    521.81576  0.019667412  0.019577688           14 
 2212000   0.90190121   -7.6069766    521.04235  0.019629383  0.019570982           10 
 2213000   0.91202682   -7.6455199    520.54025  0.019601606  0.019564234            8 
 2214000   0.90215172   -7.6271771    521.55775   0.01963105  0.019557463           16 
 2215000   0.89009367   -7.6321907    521.17668  0.019607851  0.019550673            8 
 2216000   0.88545045   -7.6336177    521.50577  0.019611378  0.019543912            4 
 2217000   0.92117826   -7.5897217    522.44507  0.019637839  0.019537186            6 
 2218000   0.90576649   -7.5891783    523.85321  0.019681891  0.019530505            9 
 2219000   0.89267409   -7.6236186     523.2404  0.019650008  0.019523777            9 
 2220000   0.89850493   -7.6010713    522.20644  0.019602344  0.019517067           12 
 2221000    0.8980206   -7.6008487    522.81447  0.019616332  0.019510375            6 
 2222000   0.87845866   -7.5690402    524.12351  0.019656597  0.019503671            7 
 2223000   0.90451104   -7.5929508    521.94268  0.019566002   0.01949698            6 
 2224000   0.90334749   -7.5821349    523.78103  0.019626088  0.019490321            5 
 2225000    0.9010991   -7.6036537    524.44191  0.019642019   0.01948361           16 
 2226000   0.91811383   -7.5894538    523.82007  0.019609916   0.01947695            7 
 2227000   0.90046744   -7.5721552    524.00435  0.019608006  0.019470252            6 
 2228000   0.88512767   -7.5827196    523.96423  0.019597705    0.0194636           12 
 2229000    0.9118416   -7.6102107     524.3664  0.019603948  0.019456928            5 
 2230000   0.88996152   -7.5765629    524.42597  0.019597383  0.019450271            6 
 2231000   0.89607939   -7.6151669    523.69497  0.019561294  0.019443574           18 
 2232000   0.89517411   -7.5768058    522.80554  0.019519323  0.019436907            7 
 2233000    0.8813339   -7.6307184    524.07111  0.019557811  0.019430207            5 
 2234000   0.89120727   -7.6121646    524.91078  0.019580378  0.019423494            6 
 2235000   0.91375729   -7.5902425    524.53419  0.019557576  0.019416833            5 
 2236000   0.89083114    -7.589635    523.98059  0.019528197  0.019410184            4 
 2237000   0.90860928   -7.6137523    523.27186  0.019493066  0.019403483            8 
 2238000   0.90656999   -7.6341825    525.26975  0.019558749  0.019396763            6 
 2239000   0.91301102    -7.631783    523.82833  0.019496365  0.019390016            7 
 2240000   0.88592036   -7.6215565    523.60448  0.019479333    0.0193833            5 
 2241000   0.88126355   -7.6048521    525.33362   0.01953494  0.019376604            8 
 2242000   0.89603154   -7.6033866    524.15173  0.019482297  0.019369974            9 
 2243000   0.88434217    -7.608906    523.64393  0.019454746  0.019363293            9 
 2244000   0.89447606   -7.5759793     524.9228  0.019493568  0.019356639            4 
 2245000   0.90464175   -7.6002953    525.18547  0.019494635  0.019349976           10 
 2246000   0.89773997   -7.6073453    525.26722  0.019488988  0.019343274            5 
 2247000   0.89559768   -7.6140982    524.34991  0.019446295  0.019336548            7 
 2248000    0.8861681   -7.6381918    524.72722  0.019451632  0.019329814           12 
 2249000    0.8979008   -7.6299114    523.52318  0.019398369  0.019323055            4 
 2250000   0.87676841   -7.6317476    523.91909  0.019404411  0.019316362            7 
 2251000   0.89103967   -7.6188765    524.16317  0.019404827  0.019309692            8 
 2252000   0.89829347   -7.6198093    523.73628  0.019380413  0.019302953            8 
 2253000   0.89601622   -7.6353715    524.23349  0.019390202  0.019296189            6 
 2254000   0.88105201    -7.633125    525.41051  0.019425115  0.019289459            7 
 2255000    0.9105142   -7.5877137    523.72036  0.019354041  0.019282747            4 
 2256000   0.91005928   -7.6115603    524.56945  0.019376827  0.019276037            5 
 2257000   0.89903779   -7.5907681    524.43314  0.019363208  0.019269316            5 
 2258000   0.90439383   -7.6012375    525.61878   0.01939839  0.019262619           12 
 2259000    0.9275584   -7.6202479    524.89496  0.019363102  0.019255891            7 
 2260000   0.87138969   -7.6133495    523.95572  0.019319901  0.019249129            6 
 2261000   0.88584751   -7.6607532    523.39118  0.019290549  0.019242367            6 
 2262000   0.87098284   -7.5926644    524.81103  0.019334329  0.019235647            7 
 2263000   0.92049713   -7.6211153    524.19634   0.01930315  0.019228854            6 
 2264000   0.86940326   -7.5847033    525.70927  0.019350312  0.019222035           11 
 2265000   0.86844132   -7.6300603    524.76099   0.01930688  0.019215284           12 
 2266000   0.88416189   -7.6208893    524.20891  0.019278056  0.019208499           17 
 2267000   0.88446637   -7.5868468    526.79748  0.019364707  0.019201767           19 
 2268000   0.88601032   -7.6428362    523.57881  0.019237905   0.01919503            6 
 2269000   0.88001033   -7.6366418    525.06764  0.019284106  0.019188281            9 
 2270000   0.90302123    -7.620797    524.68229  0.019261464  0.019181566            4 
 2271000   0.87035186   -7.6308851    525.63437  0.019287919  0.019174843            7 
 2272000   0.91170179     -7.64948     524.6608  0.019243721  0.019168101           15 
 2273000    0.9100082   -7.5768255    527.39728   0.01933558    0.0191614           10 
 2274000    0.8890739   -7.6188756    526.67753  0.019300701  0.019154693           22 
 2275000   0.88756596   -7.6280101    524.88967  0.019226728   0.01914795            9 
 2276000   0.89101939   -7.6237247    526.13806  0.019263989  0.019141184            7 
 2277000   0.88562922   -7.6912544    523.78369  0.019169363  0.019134401            9 
 2278000   0.88610946   -7.6185945    525.75364  0.019233013  0.019127587           11 
 2279000   0.87428709   -7.6593288    525.30495  0.019208167  0.019120811            5 
 2280000   0.89259883   -7.6476289    525.53312  0.019208082  0.019114009            8 
 2281000   0.89372089   -7.6592906    524.66591  0.019167979  0.019107253            4 
 2282000   0.88550286   -7.6329911    526.07002  0.019210854  0.019100486            8 
 2283000   0.87611048   -7.6476814    524.12888  0.019131584  0.019093721            6 
 2284000   0.88144518   -7.6333473    525.56035  0.019175436  0.019086968            9 
 2285000   0.88146147   -7.6742476    525.77074  0.019174717  0.019080155            9 
 2286000   0.88822496   -7.6296455    525.50953  0.019156807  0.019073339            5 
 2287000   0.89937771   -7.6458678    525.27911  0.019140035  0.019066528           10 
 2288000   0.88721056   -7.6312409    526.60562  0.019179983  0.019059746            9 
 2289000   0.87517447   -7.6066987    526.08541  0.019152665  0.019053011            5 
 2290000   0.88891628     -7.61938      526.354  0.019154076  0.019046216            6 
 2291000    0.8864692   -7.6221718    526.60452  0.019154828  0.019039456           22 
 2292000   0.89564525    -7.620503    525.46356  0.019104987  0.019032661            9 
 2293000   0.86484341   -7.6680085    525.21651  0.019087677   0.01902584            5 
 2294000   0.86237281   -7.6399956     526.2285  0.019116118  0.019019039            8 
 2295000   0.86652873   -7.6385607    526.15756  0.019105213   0.01901223            9 
 2296000   0.87508935   -7.6863418    525.26874  0.019064632  0.019005421            4 
 2297000   0.87459008   -7.6912812    525.30982  0.019057822  0.018998609           18 
 2298000   0.89265468   -7.6527599    526.59188  0.019096021  0.018991759           10 
 2299000   0.88425652   -7.6878686     525.5732   0.01905079   0.01898493           13 
 2300000   0.88196421   -7.6240504    526.13964   0.01906303  0.018978105            9 
 2301000   0.88242887   -7.6573096    526.03858  0.019051086  0.018971308            6 
 2302000   0.89615393   -7.6530703     526.9361    0.0190753  0.018964526            9 
 2303000   0.89744322   -7.6306985    526.18183  0.019039725  0.018957789            5 
 2304000   0.89178331    -7.639287    527.26655  0.019070694  0.018951106           11 
 2305000   0.87810432    -7.634967    527.23649  0.019061334  0.018944416            4 
 2306000   0.87313768   -7.5969297    528.65276  0.019104248  0.018937732            5 
 2307000    0.8869494   -7.6283086    526.96248  0.019034911  0.018931032            4 
 2308000    0.8741182   -7.6392182    526.35549  0.019004748  0.018924394            8 
 2309000   0.89857032   -7.6671468     527.7191   0.01904573  0.018917691            9 
 2310000   0.87890114   -7.6317683    528.40804  0.019062339  0.018910984           11 
 2311000   0.88396884   -7.6635697    526.76708  0.018994919  0.018904254            3 
 2312000   0.87381029   -7.6480583    527.15812  0.019000797  0.018897496            6 
 2313000    0.8774897   -7.6338605    528.54384  0.019042508  0.018890788            6 
 2314000   0.89359864   -7.6671448    528.23917  0.019023306  0.018884068            5 
 2315000    0.8612173   -7.7053358    526.61429  0.018956598  0.018877298            6 
 2316000   0.87445055   -7.6593317    526.83779  0.018956455  0.018870489            9 
 2317000   0.87334071   -7.6504804    527.08503  0.018957166  0.018863698            6 
 2318000   0.86735984   -7.6378592    526.97991  0.018945208  0.018856919            7 
 2319000   0.88384054   -7.6862161     525.6193  0.018888145   0.01885011           12 
 2320000   0.86608648   -7.6654344    527.27566  0.018939499  0.018843306           11 
 2321000   0.87344702   -7.6494533    527.77078  0.018949116  0.018836507           10 
 2322000   0.86893844   -7.6764918    527.19497   0.01892029  0.018829736           10 
 2323000   0.89069307   -7.6628885    526.76356   0.01889667  0.018822994           12 
 2324000   0.86169818    -7.673964    527.04626  0.018898675  0.018816261            7 
 2325000   0.87382483   -7.6626116    527.56663  0.018909198  0.018809506            4 
 2326000   0.87649257   -7.6199968    528.59019   0.01893774  0.018802751            6 
 2327000   0.86920515   -7.5912058    529.96374   0.01897879     0.018796           16 
 2328000   0.88703659   -7.6377758    528.98755  0.018935694  0.018789282            5 
 2329000   0.87318842   -7.6345827    527.72991  0.018882564  0.018782619            7 
 2330000   0.88181216   -7.6405673    528.31174   0.01889527  0.018775922            7 
 2331000   0.89646181   -7.6600795    526.79591  0.018832973  0.018769182            6 
 2332000   0.88681213   -7.6897317    526.83702  0.018826366  0.018762475           12 
 2333000   0.87109527   -7.6285581    527.91528  0.018856811   0.01875579           21 
 2334000   0.87287119   -7.6598451    527.56566  0.018836249  0.018749014           11 
 2335000   0.90158761   -7.6730801    527.87084  0.018839074   0.01874226           43 
 2336000   0.85904043   -7.7027562    528.03398  0.018836829  0.018735465           45 
 2337000   0.88792567   -7.7362837    526.93765  0.018789675  0.018728639           17 
 2338000   0.86705482    -7.680469    526.88552   0.01877978  0.018721782           22 
 2339000    0.8842503    -7.691573    527.22182  0.018783733  0.018714966           36 
 2340000     0.873523   -7.7092799    527.45645  0.018784062  0.018708147           20 
 2341000   0.86897091   -7.6910805     527.0478  0.018761491  0.018701312           14 
 2342000   0.86210545   -7.6914436    527.45422  0.018767941  0.018694497           19 
 2343000    0.8623703   -7.7029715    527.18687  0.018750422  0.018687635           35 
 2344000   0.87911096   -7.6777236    528.36457  0.018784292  0.018680798           25 
 2345000   0.87566394   -7.6836388    527.38642  0.018741522  0.018673995           21 
 2346000   0.89378256   -7.6478686    527.13719   0.01872468  0.018667168           15 
 2347000   0.87287611   -7.6646181    529.35537  0.018795461  0.018660352           15 
 2348000    0.8692917     -7.69865    526.57861  0.018688906  0.018653532            7 
 2349000   0.89404117   -7.6939177    528.18544  0.018737954  0.018646674           23 
 2350000    0.8849261   -7.6744405    527.62927  0.018710258  0.018639811           18 
 2351000   0.89128958   -7.6893376     528.2011  0.018722569   0.01863302            9 
 2352000   0.88253343   -7.7033335    526.43791  0.018652137  0.018626221           30 
 2353000   0.85953829   -7.6665311    529.14552  0.018740102  0.018619466           15 
 2354000   0.87312882   -7.6937589    528.01867   0.01869225  0.018612678           15 
 2355000   0.87071032   -7.6973224    528.00634  0.018683876  0.018605871           25 
 2356000   0.87546901   -7.6909052    528.42244  0.018690663  0.018599047           13 
 2357000   0.88049095   -7.7145396    527.67877  0.018656441   0.01859223            6 
 2358000   0.87177431   -7.6731262    529.45987  0.018711474  0.018585499            9 
 2359000   0.87464542   -7.6489531    530.99904  0.018757914   0.01857881            9 
 2360000   0.87604397   -7.6503645    529.40726  0.018693759  0.018572118           15 
 2361000   0.86014239   -7.6655298    529.24028  0.018679948  0.018565409           11 
 2362000   0.85892043   -7.6732795    530.32296  0.018710237  0.018558669            9 
 2363000   0.86881092   -7.6648796    528.25028  0.018629224  0.018551918            9 
 2364000   0.86804154   -7.6675902    529.73366  0.018673634  0.018545188            7 
 2365000   0.85596583   -7.6780354    529.25423  0.018648845  0.018538424            7 
 2366000   0.87642056   -7.6577194    529.79617  0.018660051  0.018531687           11 
 2367000   0.85888301   -7.6754057    528.49244  0.018606268  0.018524913            6 
 2368000   0.87568189   -7.6665559    528.65497  0.018604131  0.018518121           18 
 2369000   0.86897688    -7.703175    528.93704  0.018606199  0.018511397            7 
 2370000    0.8686377   -7.6361145    530.76088  0.018662478  0.018504689            7 
 2371000   0.85601247   -7.6647308    529.70844  0.018617617  0.018498038            4 
 2372000   0.86022612   -7.6857995    530.33532  0.018631792  0.018491331            9 
 2373000   0.87071427   -7.6915258    528.24178  0.018550421  0.018484595           10 
 2374000   0.89322092   -7.6509851    532.27658  0.018684238  0.018477902            8 
 2375000   0.87261766   -7.6736172    529.45769  0.018577463    0.0184712           24 
 2376000   0.87050388     -7.69533    530.39999  0.018602693  0.018464489           14 
 2377000   0.85575757   -7.6289267    529.45358  0.018561688  0.018457841            5 
 2378000   0.85354264   -7.6714058    530.41841  0.018587693  0.018451145            7 
 2379000   0.85707903   -7.6341908    532.22715  0.018643238  0.018444497            5 
 2380000   0.89240264   -7.6661497    531.62656  0.018614375  0.018437842            8 
 2381000    0.8739664   -7.6735957    530.62967  0.018571667  0.018431171            6 
 2382000   0.87898711   -7.6859375    529.90352  0.018538466  0.018424481            5 
 2383000    0.8769199   -7.7078957    530.26494  0.018543325  0.018417804            6 
 2384000    0.8680021   -7.6849718      530.967  0.018560088  0.018411112            5 
 2385000    0.8665429   -7.7061814    530.02569  0.018519416  0.018404452           11 
 2386000   0.86506717    -7.710987    530.29233  0.018520967  0.018397788            6 
 2387000   0.89037109   -7.6739483    531.33498  0.018549608  0.018391139            9 
 2388000    0.8566916   -7.6681225    532.11719  0.018569137  0.018384521            9 
 2389000   0.88476791   -7.6897179    531.59425  0.018543123  0.018377914           13 
 2390000     0.879059   -7.7032744    531.33777  0.018526422  0.018371343           11 
 2391000   0.86872006   -7.6779885    531.20438  0.018514024    0.0183647           12 
 2392000   0.87713721   -7.6941705    531.78474  0.018526503  0.018358051            8 
 2393000    0.8784045   -7.7140159    530.37051  0.018469512  0.018351384           15 
 2394000    0.8718739   -7.6927128    530.88165  0.018479589  0.018344665           37 
 2395000   0.87442766   -7.7367073    530.50533   0.01845878  0.018337995           12 
 2396000    0.8608529    -7.701474    530.51662  0.018451468  0.018331354           11 
 2397000   0.87520614   -7.6852652    532.19192  0.018502013  0.018324745           11 
 2398000   0.85937814    -7.706501    530.05526  0.018420047  0.018318123            9 
 2399000   0.88722788   -7.6757657    531.47155  0.018461566  0.018311516            9 
 2400000    0.8759057   -7.7460496    530.54946  0.018421856  0.018304928           10 
 2401000   0.88111469   -7.7126016    532.26828   0.01847384  0.018298295           23 
 2402000   0.86754317   -7.7123911    531.74741  0.018448078  0.018291655           17 
 2403000   0.85171889   -7.7091488    531.80759  0.018442488  0.018285029            4 
 2404000   0.85128077   -7.7371203    531.09843  0.018410234  0.018278384            8 
 2405000   0.85637744   -7.7169321    529.25744  0.018338789  0.018271687            8 
 2406000   0.86805599    -7.734142    530.97533  0.018390667   0.01826504            5 
 2407000   0.87507531   -7.7115779     530.4925   0.01836631  0.018258382           15 
 2408000   0.86763131    -7.711056    531.10366  0.018379833  0.018251706            8 
 2409000    0.8574147   -7.7058764    531.27088  0.018377988  0.018245094            8 
 2410000   0.87207639   -7.6940093    532.12063  0.018399745    0.0182385            6 
 2411000   0.89526702   -7.6738165    532.57358  0.018407769  0.018231947           30 
 2412000   0.87285596   -7.7259265    532.69327  0.018404273  0.018225425           15 
 2413000   0.88328916   -7.6712011    532.94875  0.018405469  0.018218858           16 
 2414000   0.86525544   -7.7376698    533.16733   0.01840539  0.018212265           11 
 2415000   0.87809725   -7.6990149    531.10528  0.018326614  0.018205662            7 
 2416000   0.85238896   -7.7177436    531.94843  0.018348111  0.018199079           16 
 2417000   0.84150108   -7.6842312    531.93098  0.018339918  0.018192503            4 
 2418000   0.86342866   -7.7331522    532.91682  0.018366309  0.018185908            8 
 2419000   0.88376518   -7.7486842    531.34347  0.018304515  0.018179309            6 
 2420000   0.87157571    -7.688406    532.77655    0.0183463  0.018172691            8 
 2421000   0.87751619    -7.723045    530.94581  0.018275706  0.018166097            7 
 2422000   0.86482723   -7.7384615    533.33549  0.018350382   0.01815948            9 
 2423000   0.86035503   -7.7208576    533.07088  0.018333708  0.018152913           10 
 2424000   0.86800473   -7.7338986    532.03801  0.018290636  0.018146288           13 
 2425000   0.87373862   -7.7222729    531.56801  0.018266942  0.018139652            6 
 2426000   0.84916081   -7.7576815    530.32693  0.018216781   0.01813294            6 
 2427000   0.86205338   -7.7626197     532.5408   0.01828529  0.018126299            6 
 2428000   0.84578951   -7.7653868    530.50668  0.018207945  0.018119653            8 
 2429000   0.88218096   -7.7466476    531.64909  0.018239642  0.018113012           18 
 2430000   0.85495378   -7.7334267    532.09753  0.018247515  0.018106384            8 
 2431000   0.85812839   -7.7327878    532.58348  0.018256667  0.018099768            8 
 2432000   0.87389336   -7.7223364    532.10669  0.018232822  0.018093131           22 
 2433000   0.86782185   -7.6944369    533.93444  0.018287931   0.01808653            9 
 2434000   0.85517431   -7.7159237     533.0547  0.018250298  0.018079962           15 
 2435000   0.86736974   -7.7497895    531.92369  0.018204096  0.018073369            8 
 2436000   0.86422204   -7.7210221    533.45467  0.018248997  0.018066809            9 
 2437000   0.86558981     -7.72523    533.81162  0.018253714   0.01806024            6 
 2438000   0.87879962   -7.7401507    532.59152  0.018204523  0.018053679            8 
 2439000   0.84593097   -7.7410209    534.32287  0.018256214  0.018047127            5 
 2440000   0.84485868   -7.7454703    532.89074   0.01819982  0.018040577            7 
 2441000     0.849782   -7.7471413     533.0753  0.018198665  0.018034033           13 
 2442000   0.88985631   -7.7459173    531.85408  0.018149539  0.018027454            7 
 2443000   0.86669339   -7.7387194    533.32949  0.018192437  0.018020848            7 
 2444000   0.85841928   -7.7679784    534.06951  0.018210226  0.018014247           26 
 2445000   0.87473353   -7.7685094    531.15442  0.018103423   0.01800765           11 
 2446000   0.87947974   -7.7267839    533.26031  0.018167768  0.018001038            5 
 2447000   0.84881801   -7.7354388    531.96374  0.018116188  0.017994438           12 
 2448000    0.8589859   -7.7753073    533.09829  0.018147409  0.017987857           15 
 2449000   0.85363902   -7.7777489    533.68266  0.018159884  0.017981241           14 
 2450000   0.86301244   -7.7508324     532.3895  0.018108487  0.017974668            9 
 2451000   0.86329362   -7.7545965    533.27863  0.018131328  0.017968128            6 
 2452000   0.84610721    -7.737587     534.3633  0.018160797  0.017961557            6 
 2453000   0.85618831   -7.7756756    533.73845  0.018132166  0.017954989           13 
 2454000    0.8589848   -7.7629798     533.2616  0.018108584  0.017948404            5 
 2455000   0.85909231   -7.7682135    533.47822  0.018108561  0.017941806            7 
 2456000   0.84132777   -7.7671484    532.73716  0.018076044  0.017935151           12 
 2457000   0.86431466   -7.7980365     532.8895  0.018073854  0.017928561            6 
 2458000   0.84843772   -7.7453586    534.83633  0.018132504  0.017922008           10 
 2459000    0.8551318   -7.7153378    534.28487  0.018106441  0.017915462           10 
 2460000   0.87847255   -7.7121038    535.41034  0.018137206  0.017908908            7 
 2461000   0.88108478   -7.7558896    532.73715  0.018039318  0.017902315           15 
 2462000   0.86944346   -7.7448129    534.06239  0.018076848  0.017895746           10 
 2463000    0.8605797   -7.7200756    534.80571  0.018094658  0.017889195           13 
 2464000   0.85867033   -7.7195754    533.61955  0.018047198  0.017882681           13 
 2465000   0.86704164    -7.710862    534.38777  0.018065847  0.017876169           11 
 2466000   0.86462757    -7.729306     533.1039  0.018015136  0.017869574            7 
 2467000   0.89404557   -7.7312268    533.04149  0.018005725  0.017863012            9 
 2468000   0.85736081    -7.740962    534.25247  0.018039319  0.017856455            8 
 2469000    0.8388126   -7.7484978    533.43461  0.018004408  0.017849858           12 
 2470000   0.86778243    -7.729067    534.39854   0.01802964  0.017843266           13 
 2471000   0.89063569   -7.7284039    533.49323  0.017991813  0.017836703           10 
 2472000   0.85080175   -7.7141752    533.60927  0.017988446  0.017830137            6 
 2473000   0.85423637   -7.7741583    532.16038  0.017932349  0.017823561           17 
 2474000   0.86043507   -7.7633216    533.68685  0.017976517  0.017816927           12 
 2475000   0.85266159   -7.7622027    532.83413  0.017940543  0.017810256           15 
 2476000   0.85304335   -7.7778285    533.23003  0.017946622  0.017803583            8 
 2477000   0.87075291   -7.7549694    531.33017   0.01787546  0.017796907           11 
 2478000   0.85566323   -7.7344154     533.1287   0.01792873  0.017790247           21 
 2479000    0.8666061   -7.7418492    531.86817  0.017879124  0.017783571            9 
 2480000   0.85356498    -7.783461    533.20393  0.017916799  0.017776888           12 
 2481000    0.8796149   -7.7555634     532.6122  0.017889702  0.017770227           23 
 2482000   0.86708277   -7.8039416    532.05847  0.017863902  0.017763559           20 
 2483000   0.85533227   -7.7893366    533.51254  0.017905509  0.017756868           12 
 2484000   0.85418795   -7.7588143    532.36973  0.017859961  0.017750202            4 
 2485000   0.86222352   -7.7561991    533.34231  0.017885389  0.017743503           11 
 2486000    0.8524542   -7.7579039     534.4287  0.017914612  0.017736805            8 
 2487000   0.86677945   -7.7803606    532.66485  0.017848306  0.017730106            8 
 2488000   0.86164238   -7.7717709     532.7391  0.017843619  0.017723441           14 
 2489000   0.84901277   -7.7154625    535.07465  0.017914646  0.017716827            6 
 2490000   0.82897869   -7.7612785    533.97168  0.017870538  0.017710241            9 
 2491000   0.83159333   -7.7389985    534.35499  0.017876187  0.017703642            6 
 2492000   0.85522755   -7.7831214    532.13593  0.017794808   0.01769701           10 
 2493000   0.85608699    -7.779328    533.63389  0.017837742  0.017690358            7 
 2494000   0.84272074   -7.7883171    533.86612  0.017838349  0.017683707            9 
 2495000   0.84702418   -7.7500134    533.59371  0.017822101  0.017677038            8 
 2496000   0.85727818   -7.8209804    532.51396  0.017778912  0.017670345           14 
 2497000   0.86301231   -7.7921817    532.31873  0.017765276  0.017663652            5 
 2498000   0.85176388   -7.7760053     533.2605  0.017789582  0.017656922            6 
 2499000   0.85934489   -7.7770416    533.18948  0.017780095  0.017650254            6 
 2500000   0.85550227    -7.804403    531.43074  0.017714358   0.01764359           10 
 2501000   0.86616518   -7.7667818    532.47583  0.017742098  0.017636929           27 
 2502000   0.85128644   -7.7842245    533.70249  0.017775862  0.017630301           14 
 2503000   0.86531972   -7.7551258    534.57529  0.017797819  0.017623701            6 
 2504000   0.86071506   -7.7728233    532.90251  0.017735041  0.017617087           24 
 2505000   0.87266245   -7.7590272    535.44928  0.017812684  0.017610533            8 
 2506000   0.85051993   -7.7388379    534.59687   0.01777723     0.017604           13 
 2507000   0.83762077   -7.7563292    534.13529  0.017754796    0.0175975           24 
 2508000   0.84097241   -7.7266406    535.33667  0.017787635  0.017590967            7 
 2509000   0.83679828    -7.758445    534.14461  0.017740953  0.017584433           21 
 2510000   0.85627035   -7.7632606     534.8541   0.01775744  0.017577833            6 
 2511000   0.83979964     -7.76446    534.26007  0.017730654  0.017571249            7 
 2512000   0.84685284   -7.7145991    536.97794  0.017813759  0.017564678            7 
 2513000   0.85893611   -7.7453098    534.02761  0.017708834   0.01755813           10 
 2514000   0.85568652   -7.7776875    534.60173  0.017720821  0.017551588           13 
 2515000    0.8409233   -7.7513311    535.30946  0.017737225  0.017545046           11 
 2516000   0.83664772    -7.760427    534.85634  0.017715168  0.017538534           19 
 2517000   0.85690575   -7.7585203    535.21333  0.017719949  0.017531973           14 
 2518000   0.83211282   -7.7406235    534.82654   0.01770011  0.017525436            6 
 2519000   0.85204727   -7.7683171    534.35763  0.017677571  0.017518859           10 
 2520000   0.86822488   -7.7593025    534.22403  0.017666139  0.017512296           19 
 2521000   0.84531652   -7.7399871    536.88966  0.017747245  0.017505795           15 
 2522000   0.84364771   -7.7110189    535.12064  0.017681755  0.017499274           12 
 2523000   0.82560963   -7.7962155    533.73978  0.017629138  0.017492737            6 
 2524000   0.86282221   -7.7463423    536.68039  0.017719242  0.017486208           11 
 2525000     0.841164   -7.7555419    535.10611  0.017660268  0.017479658           14 
 2526000   0.85354969   -7.7824295    535.43264  0.017664049  0.017473111           13 
 2527000   0.85474309   -7.7631495    535.34523  0.017654176  0.017466608           14 
 2528000   0.84933876   -7.7624754    535.68307  0.017658329  0.017460094           11 
 2529000   0.85778005   -7.7163371    536.39074  0.017674665  0.017453631           10 
 2530000   0.84472217    -7.762069    535.51754  0.017638917  0.017447175           12 
 2531000   0.84120151   -7.7686093    535.78561  0.017640775  0.017440703            9 
 2532000   0.88224752   -7.7357591    536.54933  0.017658943  0.017434237            5 
 2533000   0.86013352     -7.75823    535.43808  0.017615413  0.017427738            9 
 2534000      0.85001   -7.8065819    535.46833  0.017609456  0.017421196           16 
 2535000   0.85610456    -7.789692    534.66409  0.017576071   0.01741466           16 
 2536000   0.85347113    -7.772067    536.36421  0.017625007  0.017408104           16 
 2537000   0.87101587   -7.7954618     534.5126   0.01755724  0.017401577            9 
 2538000   0.84875669   -7.7723891    534.59921  0.017553165  0.017395033           29 
 2539000   0.84846281   -7.7931713    536.53916  0.017609924  0.017388499            7 
 2540000   0.84525579   -7.8284001    533.67553   0.01750904  0.017381959            9 
 2541000   0.84295306   -7.8103963    535.23897  0.017553423  0.017375382            8 
 2542000   0.83871746   -7.7990134    535.47079  0.017554117  0.017368839           12 
 2543000   0.85003069   -7.7824466    535.41704  0.017545453  0.017362322           32 
 2544000   0.85962557    -7.794783    533.65946  0.017480983  0.017355738           27 
 2545000   0.85047517    -7.785892    535.06585  0.017520165  0.017349163           22 
 2546000   0.83280271   -7.7990175    536.30093  0.017553709    0.0173426           24 
 2547000   0.84134716   -7.7935484    535.64839  0.017525468  0.017336081           14 
 2548000   0.85040448   -7.7778729    536.11455  0.017533835  0.017329541           11 
 2549000   0.84482032   -7.8009473    535.85184  0.017518368  0.017322986           12 
 2550000   0.84457531   -7.7786972    534.97008  0.017482682  0.017316451           10 
 2551000   0.83599572   -7.8158833    535.95244   0.01750792  0.017309874            6 
 2552000   0.84724865   -7.8181311    534.24787  0.017445398  0.017303305            7 
 2553000   0.83595762   -7.7992841    535.63518  0.017483848  0.017296793           10 
 2554000   0.83438795   -7.7850736    534.72216  0.017447212  0.017290259            8 
 2555000   0.82899711   -7.7954469    535.87296  0.017477918  0.017283728           10 
 2556000    0.8356832   -7.8019652      534.504  0.017426448  0.017277165            8 
 2557000   0.83596577   -7.8077925    536.27829  0.017477457  0.017270574            5 
 2558000   0.85380452    -7.780299    535.65435  0.017450298  0.017264036           11 
 2559000   0.83161871   -7.7952816    535.76843  0.017447194  0.017257508           11 
 2560000   0.84265154   -7.7719442    536.79637   0.01747384     0.017251           18 
 2561000   0.84375907   -7.8100103    535.39552  0.017421434  0.017244484           17 
 2562000   0.82654123   -7.7733041    537.48504    0.0174826  0.017237964           13 
 2563000   0.83605479   -7.7975939    536.82152  0.017454205  0.017231416           17 
 2564000   0.83434338   -7.7808112    536.60993   0.01744052  0.017224901            8 
 2565000   0.84024265   -7.7955846    535.57134  0.017399979  0.017218425           10 
 2566000   0.83504521    -7.784134    536.73313  0.017430928   0.01721192           11 
 2567000   0.85581126   -7.7992374    536.54327  0.017417974   0.01720546           20 
 2568000   0.83815528   -7.7903334    535.28664  0.017370413  0.017198998           12 
 2569000   0.84021265   -7.7819847    536.57069  0.017405303  0.017192532           10 
 2570000   0.84065522   -7.7894168    536.17424  0.017385676  0.017186084           15 
 2571000     0.844918    -7.782323    535.95649  0.017371856  0.017179651            9 
 2572000   0.85240109   -7.7951903    537.13012  0.017403127   0.01717321           10 
 2573000   0.85946787   -7.8056073    536.24073  0.017367558  0.017166749           10 
 2574000   0.83916086   -7.7759858    536.90929  0.017382456  0.017160258           11 
 2575000   0.84460652   -7.8073776    535.50573  0.017330283  0.017153789            8 
 2576000   0.83846599   -7.8117775    535.38017  0.017319493  0.017147312           13 
 2577000    0.8516834   -7.7824623    537.28372  0.017374328  0.017140866           22 
 2578000   0.83857665   -7.7883311    536.74564  0.017350195  0.017134446           17 
 2579000   0.83838063   -7.7715848    537.05897  0.017353592  0.017128029           10 
 2580000   0.83836075   -7.7874189    536.89474  0.017341562  0.017121607            9 
 2581000   0.83450175   -7.7703958    537.76134  0.017362823  0.017115194            5 
 2582000    0.8216566   -7.7845897    538.26847  0.017372465  0.017108766           13 
 2583000   0.83313206    -7.796559    536.54773  0.017310225  0.017102358           11 
 2584000   0.82882268   -7.7764831    536.88359  0.017314357  0.017095946           15 
 2585000    0.8227371   -7.7939155    536.10695  0.017282623  0.017089508            8 
 2586000   0.82298999   -7.7850031    537.95876  0.017335613   0.01708304            9 
 2587000   0.82673494   -7.8049412    537.52796  0.017315035  0.017076635           14 
 2588000   0.84787702    -7.793043    538.72682  0.017346948   0.01707026           11 
 2589000   0.83325072    -7.788526    538.86379  0.017344657   0.01706387           19 
 2590000    0.8283325   -7.8044344    536.99873  0.017277951  0.017057431           12 
 2591000    0.8525149   -7.7810206    537.28608  0.017280525  0.017050993           13 
 2592000   0.85057309   -7.8100683    537.21535  0.017271584  0.017044541           11 
 2593000   0.84173642   -7.8086311    537.24847  0.017265988  0.017038083           26 
 2594000   0.85196913   -7.7914638    537.67066  0.017272894  0.017031651           13 
 2595000   0.83588567   -7.7732067    537.99015  0.017276498  0.017025266           10 
 2596000   0.82941373    -7.817602     537.4413  0.017252225  0.017018878           10 
 2597000   0.83862626    -7.776416    539.39455  0.017308258  0.017012494           13 
 2598000   0.84431168   -7.7800405    537.02173  0.017225485  0.017006152           16 
 2599000   0.82607902   -7.7886184    538.37834  0.017262356  0.016999792           13 
 2600000   0.82600275   -7.7916065      537.269   0.01722016  0.016993415           13 
 2601000   0.84796095   -7.8144251    537.16166  0.017210101  0.016987022           13 
 2602000   0.85208255   -7.7853656    537.29988  0.017207913  0.016980635            9 
 2603000   0.84307161   -7.7972283    536.85693  0.017187122  0.016974256            7 
 2604000   0.84152367   -7.8098474    536.76555  0.017177597    0.0169679            6 
 2605000    0.8309352   -7.7917551    538.23884  0.017218133  0.016961535           13 
 2606000    0.8300522   -7.8096613    536.89209   0.01716846  0.016955171            9 
 2607000   0.82392304   -7.7902301    539.02889  0.017230178  0.016948807           13 
 2608000   0.82814274   -7.7973396    537.48572  0.017174263  0.016942414           14 
 2609000   0.82723233   -7.8244069    537.40596  0.017165132  0.016936012            6 
 2610000   0.86293427   -7.7986537    538.34667  0.017188591  0.016929613           17 
 2611000   0.83341451    -7.809431    537.67748   0.01716065  0.016923213            6 
 2612000   0.81138499   -7.8018535    537.55837   0.01715028  0.016916801            5 
 2613000   0.85235144   -7.8075431    537.67988  0.017147591  0.016910432           11 
 2614000   0.82267638   -7.7968551    539.68361   0.01720491  0.016904058            6 
 2615000   0.83114619   -7.8071376    537.05776  0.017114651  0.016897712            7 
 2616000   0.82801669   -7.7789211     539.0291  0.017170907  0.016891357           13 
 2617000   0.84168398   -7.8376546    537.58107  0.017118236  0.016884997            5 
 2618000   0.84900077   -7.8026147    537.44045  0.017107221   0.01687865            4 
 2619000   0.84200532   -7.8195989     537.9286  0.017116221  0.016872306           15 
 2620000   0.82374346   -7.7892404     539.7717  0.017168311  0.016865969            9 
 2621000   0.82210185   -7.8139743    537.24331  0.017081372  0.016859636           10 
 2622000   0.82942478   -7.8297957    537.97541  0.017098125  0.016853254            7 
 2623000   0.84625694   -7.7977286    538.76119  0.017116571    0.0168469           22 
 2624000   0.81668217   -7.8121153    538.63631  0.017106082  0.016840577           20 
 2625000   0.83600135    -7.826964    537.55966  0.017065386  0.016834251           30 
 2626000   0.82601965   -7.7954414    539.54987  0.017122045  0.016827902           14 
 2627000   0.83101748   -7.7890568    539.25604  0.017106206  0.016821571           17 
 2628000   0.83608947   -7.8125109    538.84411  0.017086635  0.016815249            9 
 2629000    0.8083113   -7.7841395    539.56904  0.017103114  0.016808949           20 
 2630000   0.82578114   -7.8321265    538.73969  0.017070332  0.016802649            7 
 2631000   0.82448362   -7.8132605    538.81309  0.017066169  0.016796346            6 
 2632000   0.83871846   -7.8115915    538.57774  0.017052234  0.016790044           24 
 2633000   0.83354861   -7.7917416    539.39849  0.017071733  0.016783751           12 
 2634000   0.82744239   -7.7882026    538.51913  0.017037431  0.016777456            7 
 2635000   0.82634471   -7.7939476    539.24289  0.017053855  0.016771168            7 
 2636000   0.83810192   -7.8388588    538.91876  0.017037138  0.016764868            8 
 2637000   0.84410762   -7.8254066    538.59544   0.01702046  0.016758557            8 
 2638000   0.84865304   -7.8105394    539.64496  0.017047162  0.016752267           15 
 2639000   0.83230959   -7.8048057    538.67808  0.017010171  0.016745961           21 
 2640000   0.82538578   -7.8134754    538.70654  0.017004626  0.016739685           13 
 2641000   0.84326879   -7.8223296     539.7754  0.017031913   0.01673346            8 
 2642000   0.81762725   -7.8336309    539.93502  0.017030501  0.016727203           25 
 2643000    0.8383008   -7.8249661    538.95694  0.016993219  0.016720897           12 
 2644000   0.83119977   -7.8370199    538.83582  0.016982975  0.016714603           15 
 2645000   0.83724329   -7.8348435    537.88626  0.016946637  0.016708317           10 
 2646000   0.85089187   -7.8259932    538.55434  0.016961273  0.016702053            8 
 2647000    0.8516759   -7.8220743    539.83095  0.016995056  0.016695758           12 
 2648000   0.82802022   -7.8204378    539.32917  0.016972847  0.016689482            5 
 2649000   0.82417197   -7.7999625    539.77293  0.016980399  0.016683202            6 
 2650000    0.8151962   -7.7939882    539.03931  0.016950922  0.016676963           10 
 2651000   0.82899276   -7.8041485    540.52898  0.016991355   0.01667072            9 
 2652000   0.82496446   -7.7937434    539.46438  0.016951495  0.016664453           16 
 2653000   0.82602742   -7.8476108      539.488  0.016945848  0.016658179            7 
 2654000   0.82111713     -7.83622     539.7191  0.016946719  0.016651927           10 
 2655000   0.81227992    -7.799527    540.48323   0.01696432  0.016645676           21 
 2656000   0.83514858    -7.819949    538.99333  0.016911186  0.016639426           10 
 2657000   0.82289551   -7.8160837    541.80128  0.016992889  0.016633203           16 
 2658000   0.83696533   -7.8472903    540.25823  0.016938118  0.016626959           23 
 2659000   0.82410372   -7.7976707    540.76699  0.016947693  0.016620747           11 
 2660000    0.8217757   -7.8422646    538.65835  0.016875262  0.016614512           21 
 2661000   0.83753108   -7.8200659     539.8594  0.016906533  0.016608256           25 
 2662000   0.82943141   -7.8748081    538.24018  0.016849492  0.016601947           16 
 2663000   0.81318599   -7.8453248    540.10329  0.016901467  0.016595653           17 
 2664000   0.81568044   -7.8513007    539.49104  0.016875971  0.016589345            8 
 2665000   0.84332624   -7.8523095    539.71379  0.016876604  0.016583022           15 
 2666000   0.83142639   -7.8554311    538.58771  0.016835075  0.016576746           12 
 2667000   0.83171328   -7.8607014     540.0943  0.016875837  0.016570461           11 
 2668000   0.80874107   -7.8590648    538.59359  0.016822638  0.016564161           22 
 2669000   0.81392847   -7.8704253    539.72123  0.016851543  0.016557871           19 
 2670000   0.80225948   -7.8372714    540.77382  0.016878084  0.016551601           18 
 2671000   0.84271705   -7.8790194     539.8424  0.016842706  0.016545346           37 
 2672000   0.83706462   -7.8538226    539.46908  0.016824759   0.01653909           19 
 2673000   0.82027896   -7.8528793    540.03547  0.016836123  0.016532863           10 
 2674000   0.82546235   -7.8533301    538.70854  0.016788474  0.016526636           38 
 2675000   0.83072523   -7.8655522    538.59611  0.016778695  0.016520379           29 
 2676000   0.83320697   -7.8162705    540.49055   0.01683142  0.016514147           12 
 2677000   0.82174487   -7.8946126    538.46015  0.016761927  0.016507907           12 
 2678000   0.83441329   -7.8269373    540.50736  0.016819373  0.016501681           18 
 2679000   0.83295644   -7.8626149     540.8651  0.016824222  0.016495518           20 
 2680000   0.83486529   -7.7998903    542.17004  0.016858521  0.016489315           12 
 2681000   0.82542027   -7.8469747     540.4218  0.016797893  0.016483121            9 
 2682000   0.82224916   -7.8578291    539.69042  0.016768905  0.016476917           13 
 2683000    0.8256278   -7.8643003    539.21859  0.016747999  0.016470708           20 
 2684000   0.81215069   -7.8771562    539.84227  0.016761124  0.016464491           45 
 2685000   0.81009219   -7.8667863    539.32973  0.016738974  0.016458246            9 
 2686000   0.81384694   -7.8933795    539.59741  0.016741047  0.016452019           14 
 2687000   0.82147854   -7.8589859     541.2842  0.016787129   0.01644576            9 
 2688000   0.83120428   -7.8844728    538.58157  0.016697097  0.016439513           20 
 2689000    0.8317121   -7.8716923    539.67063  0.016724638  0.016433265           12 
 2690000    0.7992824   -7.9004281    539.53317  0.016714163  0.016427037           22 
 2691000   0.82157629   -7.9039578    539.18661  0.016697219  0.016420798           11 
 2692000   0.82940385   -7.8967233    539.70564  0.016707084  0.016414553           17 
 2693000   0.81034488   -7.8635261    539.45259   0.01669305  0.016408315            5 
 2694000   0.81852782   -7.8692674    538.87278  0.016668918  0.016402076            7 
 2695000     0.812326    -7.862601    539.94348   0.01669584  0.016395835           10 
 2696000   0.81330735   -7.8740128    539.08469  0.016663103  0.016389627           14 
 2697000    0.8206924   -7.8713262    541.42369  0.016729196  0.016383419           25 
 2698000   0.83273977   -7.8531422    540.91848  0.016707391  0.016377212           18 
 2699000   0.80928606   -7.8802791    540.22522  0.016679796     0.016371           15 
 2700000   0.82709798   -7.8847027    540.01712  0.016667195  0.016364786           29 
 2701000   0.83334406   -7.8618014    540.11833  0.016664147   0.01635857           10 
 2702000   0.81967954   -7.8831551    540.36633  0.016665628   0.01635234           20 
 2703000   0.83988836   -7.8833088    540.13324  0.016652277  0.016346099           28 
 2704000   0.80791922   -7.8576292    540.47016  0.016656501  0.016339874           22 
 2705000   0.82740303   -7.8777996    541.14159  0.016671029  0.016333659            9 
 2706000   0.81898937   -7.8712662    539.58105   0.01661681  0.016327447            9 
 2707000   0.81657558   -7.8673631    540.41548  0.016636359  0.016321239            7 
 2708000   0.82170781   -7.8758114    540.28943  0.016626337  0.016315052           16 
 2709000   0.82802201   -7.8688073    539.57572  0.016598244  0.016308863            9 
 2710000   0.82505484   -7.8925547    540.30079  0.016614415  0.016302679            7 
 2711000   0.81495646   -7.8298232    540.70985  0.016620861  0.016296495           18 
 2712000   0.82643778   -7.8515462     541.1208   0.01662736  0.016290311           17 
 2713000   0.82437708   -7.8581024     539.3357    0.0165664   0.01628414           23 
 2714000   0.83161497   -7.8881813    540.09228  0.016583526  0.016277934           11 
 2715000     0.804635   -7.9005403    540.01758  0.016575125  0.016271686            7 
 2716000   0.81626916   -7.8503985    541.08118  0.016601656  0.016265462           14 
 2717000   0.81068745    -7.908101    540.15375  0.016567101  0.016259237           15 
 2718000    0.8078047   -7.8779286    540.04469  0.016557662  0.016252992           14 
 2719000   0.81610167   -7.8920719    538.42414  0.016501905  0.016246738           21 
 2720000   0.81007104   -7.8878898    538.96504  0.016512409  0.016240496           15 
 2721000   0.82946618   -7.8568513    540.21203  0.016544531  0.016234288           15 
 2722000   0.81179244   -7.9100329    538.91427  0.016498722  0.016228058           10 
 2723000   0.81202257   -7.9067049    540.60985  0.016544554  0.016221815           13 
 2724000    0.8319445   -7.9055505    540.07302  0.016522058  0.016215586           16 
 2725000   0.81139564   -7.9041939    539.86003  0.016509481  0.016209364           15 
 2726000   0.81618827    -7.908442    539.63335  0.016496495  0.016203181           15 
 2727000    0.8088318   -7.8993147    539.50407  0.016486495  0.016196963           21 
 2728000    0.8205073   -7.8945104    540.39188  0.016507572  0.016190761           20 
 2729000   0.80842939    -7.910051     539.2497  0.016466645   0.01618453           40 
 2730000   0.82067549   -7.9066802    541.04071  0.016515284  0.016178321           43 
 2731000   0.80707564   -7.8993276    540.23237  0.016484571  0.016172094           31 
 2732000   0.82851291   -7.9220191     538.8598   0.01643667  0.016165867           18 
 2733000   0.83481964      -7.9072    538.46725  0.016418687  0.016159636           11 
 2734000   0.83215183   -7.9242825    539.46543  0.016443106  0.016153379           24 
 2735000   0.80445372   -7.9116459    539.57855  0.016440541  0.016147145           52 
 2736000   0.82408727    -7.958718    537.51729   0.01637175   0.01614089           23 
 2737000   0.81567206   -7.9140435    540.12758  0.016445244  0.016134619           40 
 2738000   0.81122089   -7.9267659    539.18101  0.016410428  0.016128371           43 
 2739000   0.80573085    -7.936207    538.87619  0.016395162  0.016122119           20 
 2740000    0.8178273   -7.9242687    540.68528  0.016444199  0.016115844           64 
 2741000   0.80983717   -7.9469154     538.8224  0.016381564  0.016109582           20 
 2742000   0.79971553   -7.9646365    539.29664  0.016390002  0.016103301           25 
 2743000   0.81344262   -7.9575202    538.35115  0.016355303  0.016097023           36 
 2744000   0.82022304   -7.9816583    538.26266  0.016346655  0.016090735           36 
 2745000   0.81004677    -7.935435    538.67554  0.016353234  0.016084474           39 
 2746000   0.80956587   -7.9571827    539.63434  0.016376376  0.016078218           25 
 2747000   0.79547192   -7.9853105     538.1569  0.016325595  0.016071959           76 
 2748000   0.80913781   -7.9477615    539.93178  0.016373477  0.016065679           47 
 2749000   0.79567981   -7.9255371    539.47054  0.016353539  0.016059455           36 
 2750000     0.819247   -7.9459666    539.12602  0.016337152  0.016053237           33 
 2751000   0.79979723   -7.9127617    539.87425  0.016353879  0.016047038           47 
 2752000   0.80890989   -7.9395099    540.47117  0.016366012  0.016040832           74 
 2753000   0.81064428   -7.9420639    538.99942  0.016315517  0.016034596           73 
 2754000    0.8212779   -7.9536282    539.39648  0.016321607  0.016028351           42 
 2755000   0.79149808   -7.9246623    540.36994  0.016345128  0.016022133           39 
 2756000   0.83856893    -7.937451    539.00276  0.016297858  0.016015937           59 
 2757000   0.80234835    -7.936327     540.6974  0.016343169  0.016009747           73 
 2758000   0.79878042   -7.9041976     541.2685  0.016354499  0.016003549           47 
 2759000   0.80784381   -7.9080181    541.52194  0.016356226  0.015997367           72 
 2760000   0.82107771   -7.9155598    540.02538  0.016305114  0.015991221           61 
 2761000   0.81332306   -7.8938222    542.13511  0.016362885  0.015985066           55 
 2762000   0.81468796   -7.8887551    541.12391  0.016326451  0.015978936          105 
 2763000   0.79119325   -7.9025093    540.42243  0.016299386  0.015972821           85 
 2764000   0.80950943   -7.9155618    540.26307  0.016288684  0.015966709           63 
 2765000   0.82115229   -7.9022047    541.77267   0.01632829  0.015960583           95 
 2766000   0.81287587   -7.9467087    541.10997  0.016302421   0.01595444           89 
 2767000   0.80861741   -7.9184711    540.57854  0.016280525  0.015948283          100 
 2768000   0.81904023   -7.9144497    542.57035  0.016334608  0.015942139          108 
 2769000   0.80063379   -7.9444312    540.38306  0.016262882  0.015935982          116 
 2770000   0.81381417   -7.9201206    541.71838  0.016297183   0.01592984          100 
 2771000   0.81275823   -7.9129922    540.84823  0.016265134  0.015923678          111 
 2772000   0.80977769   -7.9036752    540.98936  0.016263509  0.015917525           90 
 2773000   0.78832743   -7.8984886     542.1281  0.016291865  0.015911397           72 
 2774000   0.81972588   -7.9355428    539.91938   0.01621964  0.015905262           68 
 2775000   0.79876973   -7.8925118    542.29536  0.016285146  0.015899124           71 
 2776000   0.79917117   -7.9302421    540.80408  0.016234513  0.015893032           94 
 2777000   0.79952009   -7.9197402    541.08302  0.016237037  0.015886924          108 
 2778000   0.81620589   -7.8687728    541.72745  0.016250524   0.01588083          107 
 2779000   0.79970394    -7.918088    541.89917  0.016249825  0.015874727           84 
 2780000   0.80913544   -7.8870495      541.066  0.016219005  0.015868642          103 
 2781000    0.8029646   -7.9159551     541.5805   0.01622859  0.015862521          110 
 2782000   0.80702206   -7.9650485    539.96592  0.016174393  0.015856393          173 
 2783000   0.79098493   -7.9397961     540.9348  0.016197592  0.015850252          164 
 2784000   0.82882083   -7.9506867     541.5435  0.016209994  0.015844139          133 
 2785000   0.80164495   -7.9294208    540.34823  0.016168409  0.015838027          159 
 2786000   0.79959972   -7.9188157    541.46477  0.016196003  0.015831927          130 
 2787000   0.80088449   -7.9351622    540.39329  0.016158154  0.015825809          126 
 2788000   0.82745552    -7.938094    541.73135  0.016192352  0.015819669          156 
 2789000   0.80825113   -7.9099016    541.68017  0.016185018  0.015813549          153 
 2790000    0.8125426    -7.928073    540.14046  0.016133227  0.015807453          147 
 2791000   0.81680654   -7.9620752    539.78778  0.016116917  0.015801319          161 
 2792000   0.80061382   -7.9194574    540.50914  0.016132675  0.015795194          139 
 2793000   0.81056195   -7.9142589    541.12556  0.016145291  0.015789066          185 
 2794000   0.79757947   -7.9287901    540.96496  0.016134722   0.01578294          168 
 2795000   0.82878848   -7.9555301    541.41746  0.016142441  0.015776847          158 
 2796000   0.80815102   -7.8808498    540.91031  0.016121552  0.015770754          146 
 2797000    0.7955332   -7.9341058    541.51641  0.016133846  0.015764677          205 
 2798000     0.814035    -7.953811    540.29525   0.01609171  0.015758569          160 
 2799000   0.79372886   -7.9572689    541.07462  0.016109165  0.015752478          240 
 2800000    0.8040881   -7.9806508    541.31931  0.016110694  0.015746369          153 
 2801000   0.79264223   -7.9614052    540.47143  0.016079716  0.015740234          177 
 2802000   0.80382373   -7.9375411      540.162  0.016064775  0.015734145          187 
 2803000    0.8009788   -7.9408663     539.9774  0.016053556   0.01572805          186 
 2804000   0.80686421   -7.9425141    541.81604  0.016102474  0.015721955          179 
 2805000   0.80976071   -7.9520784    539.42967  0.016025837  0.015715845          164 
 2806000   0.80190618   -7.9321222    542.23211  0.016103353  0.015709752          144 
 2807000   0.79487682   -7.9524781    542.42377  0.016103306  0.015703697          228 
 2808000   0.80482244   -7.9500127    541.21996  0.016061846   0.01569764          153 
 2809000   0.81509879   -7.9185904    541.68442  0.016069907  0.015691583          187 
 2810000   0.78404216   -7.9588429    540.80241  0.016038031  0.015685511          257 
 2811000    0.7908626   -7.9581577    540.67139  0.016028441  0.015679421          183 
 2812000   0.81386612   -7.9492499    540.54078  0.016018871  0.015673325          203 
 2813000   0.80031588   -7.9278841    541.46143   0.01604045  0.015667241          165 
 2814000   0.80449185   -7.9552102    540.74549  0.016013548  0.015661146          222 
 2815000   0.81459752   -7.9425854    542.62244  0.016063423  0.015655067          192 
 2816000   0.80033069   -7.9817442    540.59952  0.015997855  0.015648977          187 
 2817000   0.80722764   -8.0024111    541.52545  0.016019567  0.015642891          187 
 2818000   0.78432481      -7.9932    540.51908  0.015984122  0.015636783          251 
 2819000   0.78931605   -7.9790442    541.56436  0.016009352  0.015630669          223 
 2820000   0.79995025   -8.0043243    540.58452   0.01597472  0.015624576          195 
 2821000   0.80172206   -7.9626821    540.38998   0.01596331  0.015618472          232 
 2822000   0.78956385   -7.9850983    540.61844    0.0159644  0.015612399          193 
 2823000   0.80362295    -7.997455    540.19306  0.015946188  0.015606331          285 
 2824000   0.78697015   -7.9548452    541.41981  0.015976741  0.015600262          244 
 2825000   0.79019399   -7.9725989    541.09534  0.015961514  0.015594203          256 
 2826000   0.80009557   -7.9842782    541.50249  0.015967873  0.015588144          262 
 2827000   0.81572397   -7.9610948    542.17853  0.015982152  0.015582088          235 
 2828000   0.79687541   -7.9828423    541.53385  0.015957504  0.015576037          243 
 2829000   0.80792744   -7.9592073    541.19916  0.015942004  0.015569985          352 
 2830000    0.7900334   -7.9994478    540.64948  0.015920185  0.015563919          359 
 2831000    0.8047393   -7.9573763    541.59927   0.01594252  0.015557872          273 
 2832000   0.79230432   -7.9784795     542.2503  0.015956047  0.015551825          351 
 2833000   0.80291979    -7.975392    540.21146  0.015890442  0.015545743          395 
 2834000   0.79021783   -8.0076802    539.89044  0.015875395  0.015539657          380 
 2835000   0.80103704    -8.022244       539.54  0.015859494  0.015533554          302 
 2836000   0.78548812      -8.0051    539.68631  0.015858202  0.015527458          316 
 2837000   0.79553217   -8.0225214    539.37135   0.01584336  0.015521373          411 
 2838000   0.78701373   -8.0018745     540.8259  0.015880488  0.015515289          347 
 2839000   0.79707255   -7.9974224    540.77514  0.015873405  0.015509216          445 
 2840000   0.79685199    -7.973335    541.58908  0.015891698  0.015503141          329 
 2841000   0.79322393   -8.0261715    539.86748  0.015835606  0.015497071          385 
 2842000   0.79528427   -8.0093575    541.01622  0.015863718   0.01549098          415 
 2843000   0.79515664    -7.984551    541.20359   0.01586363  0.015484918          321 
 2844000   0.79419111   -8.0239614    540.29726  0.015831495  0.015478826          479 
 2845000   0.79410108   -8.0056976    540.48494  0.015831428  0.015472742          357 
 2846000   0.77684186    -7.998706    540.66039  0.015831002  0.015466676          350 
 2847000    0.8123793   -8.0262076    539.33178  0.015786553  0.015460579          470 
 2848000   0.79576001   -8.0250082    539.65668  0.015790516   0.01545447          443 
 2849000   0.79610708   -8.0365348    539.43998  0.015778635  0.015448389          460 
 2850000   0.80314864   -8.0130758    539.66498  0.015779678  0.015442285          370 
 2851000   0.78661287   -8.0212094      539.967  0.015782971  0.015436205          466 
 2852000   0.80041353   -8.0224712    540.23283  0.015785204  0.015430109          441 
 2853000   0.77982986   -8.0505565    540.54743  0.015788861  0.015424003          451 
 2854000   0.79947613    -8.048942    538.91603  0.015735693  0.015417892          480 
 2855000   0.81060105   -8.0757801     539.4202  0.015744898  0.015411764          450 
 2856000   0.79140066   -8.0278264    540.31148  0.015765391   0.01540565          447 
 2857000   0.78178015   -8.0642574    539.54966  0.015737652  0.015399538          453 
 2858000   0.78277362   -8.0564538    539.21657  0.015722433  0.015393426          486 
 2859000   0.79762823   -8.0643069     538.9215  0.015708333  0.015387299          460 
 2860000   0.79789227   -8.0555209    539.52807  0.015720515   0.01538117          514 
 2861000   0.78254145   -8.0103345    540.29191  0.015737269  0.015375055          479 
 2862000    0.7908495   -8.0572941    539.90566  0.015720524  0.015368972          714 
 2863000   0.80052439   -8.0674043    540.49322  0.015732135   0.01536288          543 
 2864000   0.79621781   -8.0159645      540.506  0.015727014  0.015356807          573 
 2865000   0.77619415     -8.04457    540.21721  0.015713124  0.015350724          577 
 2866000   0.79716757   -8.0572399    540.15395  0.015705802  0.015344639          498 
 2867000   0.79662414   -8.0328643    540.81253  0.015719467  0.015338566          553 
 2868000   0.79441317   -8.0516076     540.3161  0.015699561  0.015332482          488 
 2869000   0.80845288   -8.0657377     538.7141  0.015647557  0.015326389          676 
 2870000   0.79067393   -8.0590324    539.02876  0.015651242  0.015320294          667 
 2871000   0.79061343    -8.026817    541.00683  0.015703205  0.015314218          604 
 2872000   0.79730245   -8.0532888     539.0779  0.015641768  0.015308144          515 
 2873000   0.79487437   -8.0145203    540.32748  0.015672569   0.01530207          565 
 2874000      0.78021   -8.0577842    538.67439  0.015619183  0.015296006          573 
 2875000   0.77619015    -8.049529    540.21568  0.015658426  0.015289946          672 
 2876000   0.78288131   -8.0350695    540.67321  0.015666238  0.015283856          686 
 2877000   0.79002175   -8.0230957    540.75692  0.015663217  0.015277791          572 
 2878000   0.79925035   -8.0544207    539.18759  0.015612335  0.015271751          668 
 2879000   0.78941663   -8.0615958    539.96953  0.015629545  0.015265679          652 
 2880000   0.78753822   -8.0445308    539.39218  0.015607413  0.015259626          639 
 2881000   0.78882588    -8.102054    539.41533  0.015602665  0.015253567          740 
 2882000    0.7886637   -8.0949585    539.53484  0.015600707  0.015247484          731 
 2883000   0.79326169   -8.0856846    539.39996  0.015591397  0.015241387          664 
 2884000   0.78463354    -8.090828     538.5353  0.015561006  0.015235312          742 
 2885000   0.77335432    -8.055935    539.13029  0.015572799  0.015229244          804 
 2886000   0.80030313   -8.0614725    539.88169  0.015589099   0.01522318          724 
 2887000   0.78659273   -8.0801355    540.40069  0.015598681  0.015217103          774 
 2888000   0.78704272   -8.0720341    538.88509  0.015549547  0.015211009          891 
 2889000   0.78779791   -8.0898497    538.98431  0.015547026  0.015204926          845 
 2890000   0.79753104   -8.0730106    539.78028  0.015564599  0.015198838          840 
 2891000   0.79303996   -8.0822364    540.25946  0.015573027  0.015192767          845 
 2892000   0.80296964   -8.1018057    538.93631  0.015529516  0.015186686          829 
 2893000   0.80438563   -8.0935718    539.31594  0.015535083  0.015180613          874 
 2894000   0.77276398    -8.068625    539.33355  0.015530222  0.015174555          886 
 2895000   0.78189323   -8.0967029    538.93041  0.015513253  0.015168481          872 
 2896000   0.80035773   -8.0980134    539.31997  0.015519106  0.015162372          955 
 2897000   0.78857073   -8.1189888     538.4783  0.015489538  0.015156303          881 
 2898000   0.77992156    -8.142158    538.46192  0.015483722  0.015150212          936 
 2899000   0.78293833   -8.1440118    538.12431  0.015468676  0.015144114          936 
 2900000   0.76408742   -8.1157744    539.65695  0.015507384  0.015138023          983 
 2901000   0.78756572   -8.1149188    538.69475  0.015474398  0.015131932         1029 
 2902000   0.78632315    -8.165931    538.60809  0.015466577  0.015125808         1035 
 2903000   0.77715632   -8.0963332    539.61421  0.015490131  0.015119704          939 
 2904000   0.78372146    -8.108839    539.40144  0.015478691  0.015113612         1057 
 2905000   0.78654789   -8.1214962    538.87473  0.015458254  0.015107506         1037 
 2906000   0.80168451   -8.1193276    539.00681  0.015456722  0.015101411         1030 
 2907000   0.79082886   -8.1333454    539.42248  0.015463321  0.015095311         1135 
 2908000    0.7864253    -8.145893    537.53151  0.015403815  0.015089201         1097 
 2909000   0.79708203   -8.1426567    537.21647  0.015389494  0.015083058         1221 
 2910000   0.77527276   -8.1621216    536.73507   0.01537042  0.015076916         1284 
 2911000   0.77440432   -8.1774343    536.86466   0.01536885   0.01507077         1201 
 2912000   0.78627904   -8.1616942    536.87738  0.015363936   0.01506461         1291 
 2913000    0.7866304   -8.1701602     537.2887  0.015370429   0.01505843         1293 
 2914000   0.79463285   -8.1576841    537.29006  0.015365193  0.015052252         1264 
 2915000   0.76625542   -8.1681348    536.36122  0.015333368  0.015046082         1354 
 2916000   0.76900929   -8.1970413     536.6291  0.015335765  0.015039917         1372 
 2917000    0.7927805   -8.1930085    538.29607   0.01537813  0.015033752         1359 
 2918000   0.78997363   -8.1710721    537.14195    0.0153399  0.015027575         1331 
 2919000   0.79312259   -8.1987626    537.01395  0.015330991  0.015021389         1323 
 2920000   0.77576342   -8.1860791    535.96119  0.015295696   0.01501521         1335 
 2921000   0.77575519   -8.1769668    535.62373  0.015280832  0.015009028         1394 
 2922000   0.79132625   -8.2062591    535.59592   0.01527481  0.015002835         1504 
 2923000   0.81012735   -8.1929097    536.82739  0.015304692  0.014996632         1512 
 2924000   0.76487147   -8.2104215     535.0687  0.015249336  0.014990441         1498 
 2925000   0.77349654   -8.1972393    535.84768  0.015266316  0.014984255         1608 
 2926000   0.79022324     -8.20475    536.10196   0.01526834  0.014978064         1593 
 2927000   0.76687806   -8.1812607    537.29311  0.015297037  0.014971867         1580 
 2928000   0.77966961   -8.2247305    535.69845  0.015246427  0.014965668         1675 
 2929000   0.78991815   -8.2158028    535.38354  0.015232262  0.014959455         1837 
 2930000   0.78739624   -8.1994923    536.42217  0.015256603  0.014953254         1713 
 2931000   0.78512425   -8.2213137    537.10509  0.015270815   0.01494706         1842 
 2932000   0.79281972   -8.2262521    536.07892   0.01523644  0.014940853         1806 
 2933000    0.8000368     -8.22635    535.05432  0.015202134  0.014934621         1848 
 2934000   0.77478469   -8.2235315    535.70507  0.015215436  0.014928397         1873 
 2935000   0.78876459   -8.2647553    534.63976  0.015180005  0.014922157         1874 
 2936000   0.76311085   -8.2293873    535.91802  0.015211115  0.014915915         1957 
 2937000    0.7817355   -8.2449941    535.48728  0.015193715  0.014909659         1915 
 2938000   0.77451651    -8.262366    534.57228   0.01516259   0.01490341         1937 
 2939000   0.79503254   -8.2599332    535.33278  0.015178994  0.014897162         1986 
 2940000   0.79244597   -8.2864423    534.41184  0.015147728  0.014890925         2051 
 2941000   0.76799243   -8.2549809     533.3726   0.01511313  0.014884668         2083 
 2942000   0.79349881   -8.2655672    534.32985  0.015135108  0.014878392         2108 
 2943000   0.78372609   -8.3241987    533.77468  0.015114245  0.014872114         2153 
 2944000   0.79986023    -8.296558    533.49953  0.015101323  0.014865834         2111 
 2945000   0.80811928   -8.2953094    533.06085  0.015083782  0.014859529         2196 
 2946000   0.78843774   -8.2892559     533.7536  0.015098258  0.014853239         2247 
 2947000   0.76505141   -8.3165252    532.58001  0.015059948  0.014846947         2231 
 2948000   0.77100129   -8.2859057    535.49354  0.015137199  0.014840649         2146 
 2949000   0.78708048   -8.3312232    533.73966  0.015082504  0.014834347         2247 
 2950000   0.79111654   -8.2857743    533.73746  0.015077329  0.014828033         2328 
 2951000    0.7772469   -8.3324899    531.89663  0.015020237  0.014821714         2344 
 2952000   0.79261861   -8.2862288     533.6413    0.0150644  0.014815417         2236 
 2953000    0.7699814   -8.3303878    532.71318  0.015033107  0.014809112         2300 
 2954000   0.78928938   -8.3241229     532.7689   0.01502959  0.014802803         2319 
 2955000   0.77733266   -8.3188337    533.71249  0.015051114   0.01479649         2361 
 2956000   0.79222281   -8.3270684    532.47139  0.015011034  0.014790176         2416 
 2957000    0.8094537   -8.3142622    533.14434  0.015024922  0.014783873         2328 
 2958000   0.77344192   -8.3559882    532.34837  0.014997419  0.014777553         2456 
 2959000   0.76912467    -8.324536    532.09319  0.014985164  0.014771228         2430 
 2960000   0.77308107    -8.339508    532.71517  0.014997612  0.014764916         2399 
 2961000   0.78196341   -8.3666423    531.76507  0.014965807  0.014758594         2468 
 2962000   0.77759878   -8.3465226    531.95311  0.014966045   0.01475227         2538 
 2963000   0.76297027   -8.3327549    531.93054  0.014960359   0.01474593         2594 
 2964000   0.76330916   -8.3608307    532.94707  0.014983892  0.014739593         2566 
 2965000   0.78604121   -8.3491914    532.34138  0.014961815  0.014733254         2595 
 2966000   0.76959459   -8.3665961    532.82954  0.014970486  0.014726907         2600 
 2967000   0.76961969   -8.3593629    533.59248  0.014986869  0.014720564         2556 
 2968000   0.78412392   -8.3673527     532.7176  0.014957255  0.014714226         2654 
 2969000     0.776395   -8.3788043     530.2625  0.014883308  0.014707865         2687 
 2970000   0.77761477   -8.3662844    531.76504  0.014920456  0.014701504         2786 
 2971000   0.76328424   -8.3884386    531.81453  0.014916822  0.014695147         2682 
 2972000   0.76514382    -8.383776    530.75262  0.014882027  0.014688784         2750 
 2973000   0.76198352   -8.3514487    531.54487  0.014899228  0.014682426         2828 
 2974000   0.78084238   -8.3764726    531.98822  0.014906641  0.014676078         2766 
 2975000   0.79551221   -8.3976738    531.69523  0.014893424  0.014669716         2815 
 2976000   0.78042364   -8.3533597    531.10011  0.014871755  0.014663352         2797 
 2977000   0.77210772   -8.3929304     531.4128  0.014875512  0.014656992         2867 
 2978000   0.77674188   -8.3962139    530.32011   0.01483994  0.014650636         2825 
 2979000   0.76876813   -8.4032996    530.82244  0.014849011  0.014644282         2886 
 2980000   0.77086355   -8.4205586    531.76901  0.014870498  0.014637905         2826 
 2981000    0.7670422   -8.3926006    530.83249  0.014839329  0.014631522         2894 
 2982000   0.79661207   -8.3836524    530.87426   0.01483552  0.014625157         3016 
 2983000   0.78510288   -8.3914581    530.99459  0.014833908  0.014618794         2937 
 2984000   0.76376621   -8.4061529    530.34548   0.01481081  0.014612407         2930 
 2985000   0.77107704   -8.3794582    530.66648   0.01481481  0.014606042         2845 
 2986000   0.77919225   -8.4088624    530.60974  0.014808265  0.014599674         2862 
 2987000   0.76276403   -8.4010111    531.41066  0.014825652  0.014593315         2919 
 2988000   0.77689005   -8.4358251    529.24505  0.014760293  0.014586948         2981 
 2989000   0.77016853   -8.4200021    530.91869  0.014802016  0.014580582         2984 
 2990000   0.78430074   -8.4123265    530.05866  0.014773095  0.014574216         3012 
 2991000   0.78581047   -8.4134859    529.65801  0.014756993  0.014567854         2956 
 2992000   0.75283717   -8.3995948    530.63472  0.014779265  0.014561487         2910 
 2993000   0.76852082   -8.4202762    529.62665  0.014746259  0.014555122         3019 
 2994000   0.77283443   -8.4236034    529.64097  0.014741733  0.014548757         3020 
 2995000   0.75903633   -8.4275415    530.15099  0.014751001  0.014542382         3050 
 2996000   0.76062127   -8.4319463    530.35514  0.014751756  0.014536005         3104 
 2997000   0.76883722   -8.4314749    529.47958  0.014722489  0.014529638         3058 
 2998000   0.77071637   -8.4195028    529.81582  0.014726924  0.014523256         3112 
 2999000   0.76942332   -8.4413757    528.90756  0.014696776  0.014516893         3045 
 3000000   0.78714949   -8.4498768    530.12335  0.014725649  0.014510524         3134 
 3001000   0.77688138   -8.4292048    529.97685  0.014716673  0.014504148         3093 
 3002000   0.78111239   -8.4454529    529.99006  0.014712138  0.014497779         3115 
 3003000   0.76825944   -8.4326328    530.68342   0.01472648  0.014491414         3093 
 3004000   0.77449468   -8.4504441    530.24393  0.014709385  0.014485037         3112 
 3005000    0.7671469   -8.4129618     529.0698   0.01467193  0.014478667         3158 
 3006000   0.76830883   -8.4586067    528.85306  0.014661041  0.014472302         3153 
 3007000   0.76507171   -8.4688173    529.67901  0.014679055  0.014465933         3210 
 3008000   0.75581118   -8.4550202      529.128   0.01465891  0.014459559         3200 
 3009000   0.76388693   -8.4630024    529.07499   0.01465257   0.01445319         3199 
 3010000   0.76771128   -8.4613211    528.05854  0.014619561  0.014446822         3255 
 3011000   0.76835992   -8.4450724    528.92267  0.014638622  0.014440453         3245 
 3012000   0.78167061   -8.4381805    529.66794  0.014654381  0.014434094         3238 
 3013000   0.76179646   -8.4554356    529.90299  0.014656018  0.014427735         3254 
 3014000   0.77720646   -8.4371078    528.63363  0.014616059  0.014421379         3257 
 3015000    0.7824276   -8.4625591     527.9272  0.014591686  0.014415013         3324 
 3016000   0.75864409   -8.4506473    528.60444   0.01460556  0.014408651         3179 
 3017000   0.77148416   -8.4722755    529.34217  0.014621096  0.014402278         3352 
 3018000   0.76961287   -8.4712048    528.46417  0.014592008  0.014395908         3276 
 3019000   0.76717186   -8.4840184    529.14427  0.014605948  0.014389539         3272 
 3020000   0.75823858   -8.4688687    529.35187   0.01460684  0.014383185         3288 
 3021000   0.75119425   -8.4766716    528.76434  0.014585798  0.014376833         3240 
 3022000   0.75469546   -8.4532706    527.64365  0.014550068  0.014370477         3259 
 3023000   0.76903711   -8.4779011    529.35845  0.014592525  0.014364133         3224 
 3024000   0.77784012   -8.4840454    528.67979  0.014568998  0.014357779         3304 
 3025000    0.7704597   -8.4869928    528.47166  0.014558448  0.014351435         3252 
 3026000   0.77492181   -8.4703861     528.7838  0.014562233  0.014345082         3281 
 3027000   0.77381382   -8.4520687    529.09343  0.014565946  0.014338731         3291 
 3028000   0.77396406   -8.4631139    529.45273  0.014571024  0.014332374         3257 
 3029000   0.77494708   -8.4757266     528.9107  0.014551301  0.014326018         3368 
 3030000   0.74359501   -8.4876893    527.63744  0.014511481  0.014319665         3350 
 3031000   0.76498245   -8.4999922    528.43594  0.014528647  0.014313327         3257 
 3032000   0.77516116   -8.4836649     528.3996  0.014522856  0.014306991         3230 
 3033000   0.76215334   -8.4791041    528.19643  0.014512486  0.014300647         3343 
 3034000   0.76167944   -8.4833054    529.08703  0.014532164  0.014294295         3304 
 3035000   0.77952667   -8.4935856    528.37369  0.014507789  0.014287956         3256 
 3036000   0.76086054   -8.4774899    529.13839     0.014524  0.014281611         3301 
 3037000    0.7781894   -8.4905116    527.85688  0.014484055  0.014275265         3372 
 3038000   0.77063824    -8.493984    528.21993  0.014489245  0.014268923         3316 
 3039000   0.76133355   -8.4578543    529.07859  0.014508023  0.014262605         3210 
 3040000   0.76323415   -8.4848481    528.22078  0.014479736  0.014256277         3328 
 3041000   0.76718471   -8.4970159    528.53796  0.014483667  0.014249956         3330 
 3042000   0.74518154   -8.4391798     529.8413  0.014514609   0.01424364         3274 
 3043000   0.77682957    -8.488244    527.69364  0.014451025  0.014237324         3206 
 3044000   0.77556183   -8.4768806    527.48023  0.014440436  0.014231013         3260 
 3045000   0.77670411   -8.5118655    528.65455  0.014467831  0.014224692         3315 
 3046000   0.77353296   -8.4986477    527.66454  0.014435996  0.014218378         3378 
 3047000   0.76382629   -8.4804441    527.98186  0.014439937  0.014212067         3376 
 3048000   0.75849979   -8.4547072    529.61108  0.014479743  0.014205772         3289 
 3049000   0.77234497   -8.4906902    528.74248  0.014451254  0.014199479         3314 
 3050000   0.78008069   -8.4784139     529.3562  0.014463284  0.014193174         3366 
 3051000    0.7546802   -8.5071474    528.01342  0.014421868  0.014186869         3276 
 3052000   0.75978303   -8.5103807    527.37326  0.014399663  0.014180571         3320 
 3053000   0.75003669   -8.4915102    528.05679  0.014413604  0.014174275         3305 
 3054000   0.77061602   -8.5186355    527.68912  0.014398852  0.014167975         3397 
 3055000   0.75669755   -8.4975176    528.58418  0.014418554  0.014161667         3306 
 3056000   0.76529674   -8.5010294    528.07566  0.014399969  0.014155366         3317 
 3057000    0.7511595   -8.5053335    527.87086  0.014389676  0.014149073         3395 
 3058000   0.76849805   -8.5168671    526.48626  0.014347238  0.014142784         3339 
 3059000   0.74490041    -8.484636    528.04155  0.014384917  0.014136491         3260 
 3060000   0.77362438   -8.5027076     528.7545  0.014399632  0.014130207         3345 
 3061000   0.75507816   -8.5044151    527.74708  0.014367502  0.014123919         3335 
 3062000   0.76726404   -8.4958166    528.29183  0.014377635  0.014117649         3297 
 3063000   0.75181034   -8.5137169    527.75751  0.014358404  0.014111374         3326 
 3064000   0.75729764   -8.5129464    527.95146  0.014358993  0.014105097         3389 
 3065000   0.74949613   -8.5085205    527.66802  0.014346602  0.014098815         3367 
 3066000   0.76447181   -8.5291979    527.06082  0.014325419  0.014092537         3435 
 3067000   0.75474033   -8.4987548    526.76682   0.01431276  0.014086268         3419 
 3068000   0.76588992   -8.4952545    528.43264  0.014353342      0.01408         3433 
 3069000   0.77286828   -8.5016854    528.12438  0.014340295  0.014073726         3358 
 3070000   0.74957158   -8.5271297    528.06638   0.01433405  0.014067455         3349 
 3071000   0.77561433    -8.538864    527.28072  0.014308062   0.01406119         3414 
 3072000   0.76503422   -8.5113467     528.0524  0.014324338  0.014054925         3349 
 3073000   0.75413389   -8.5079071    528.03089  0.014319093  0.014048676         3352 
 3074000   0.74166389   -8.4923412    527.40935  0.014297586  0.014042417         3440 
 3075000   0.76116292    -8.530616    527.04805  0.014283145  0.014036156         3434 
 3076000   0.75671747   -8.5220879    528.00407  0.014304402  0.014029905         3327 
 3077000   0.75060485    -8.509195    527.02107  0.014273131  0.014023658         3378 
 3078000   0.75471984   -8.5136655    527.79862  0.014289545  0.014017422         3336 
 3079000   0.75711987   -8.5135926    528.05806  0.014291925  0.014011183         3414 
 3080000   0.76307975   -8.4991368    526.99755  0.014258592  0.014004949         3421 
 3081000    0.7628281   -8.5177582    527.50057  0.014267569  0.013998719         3374 
 3082000   0.76658852   -8.5075422     527.6179  0.014266112   0.01399249         3316 
 3083000   0.75472333   -8.4938362    528.92583  0.014296838  0.013986273         3337 
 3084000   0.75530721   -8.5239095     528.1446  0.014271093  0.013980056         3326 
 3085000   0.76678227   -8.5104261     528.9974  0.014289503  0.013973834         3401 
 3086000   0.75293899   -8.4989654    527.61534  0.014247552  0.013967614         3384 
 3087000   0.76099539   -8.5144735    525.76923  0.014193101  0.013961396         3425 
 3088000   0.75708222   -8.5267132    528.32018  0.014257345   0.01395519         3356 
 3089000    0.7648353   -8.5025336    527.75853  0.014237578  0.013948981         3356 
 3090000   0.75045167   -8.5496552    527.42439  0.014223959   0.01394277         3365 
 3091000   0.75116427   -8.5157983    527.53623  0.014222372  0.013936556         3334 
 3092000   0.76346632   -8.4998296    527.12267  0.014206626  0.013930356         3294 
 3093000   0.77245953   -8.4995497    528.11345  0.014228728  0.013924156         3378 
 3094000   0.76333947   -8.5356839    526.91187  0.014191766  0.013917967         3337 
 3095000   0.76065402   -8.5515393    525.84671  0.014158501  0.013911768         3371 
 3096000   0.76239278   -8.4967526    527.11023  0.014187937  0.013905575         3357 
 3097000   0.75410244   -8.5309391     527.7791  0.014201353   0.01389938         3341 
 3098000   0.75523705   -8.5322037     528.0274  0.014203449  0.013893193         3331 
 3099000   0.75477649   -8.5213188    527.21034  0.014176894  0.013887007         3330 
 3100000   0.76551139   -8.5303303     526.7431  0.014159761   0.01388083         3312 
 3101000   0.73957684   -8.5110596     526.5632   0.01415036  0.013874648         3358 
 3102000   0.76177104   -8.5219788    527.56171  0.014172623  0.013868468         3356 
 3103000    0.7493428   -8.5321463     525.6979  0.014118001  0.013862291         3316 
 3104000   0.74680962   -8.5497415    527.16485  0.014152837  0.013856116         3349 
 3105000    0.7595941   -8.5200536    527.68033  0.014162113   0.01384994         3336 
 3106000   0.76035292   -8.5049984     529.0176  0.014193432  0.013843784         3262 
 3107000   0.75754959   -8.5333277    527.47721  0.014147549   0.01383763         3407 
 3108000   0.76090601   -8.5341212    527.82175  0.014152235  0.013831485         3325 
 3109000   0.75908465   -8.5262117    526.97969  0.014125112  0.013825321         3334 
 3110000   0.74595177   -8.5167259      526.945  0.014119641  0.013819166         3327 
 3111000   0.75870212   -8.5256057    526.41248  0.014100838  0.013813008         3333 
 3112000   0.76830053   -8.5283132    526.82266  0.014107291  0.013806859         3328 
 3113000   0.77602323   -8.5404978    527.44317   0.01411937  0.013800717         3379 
 3114000   0.75450898   -8.5094018    527.83579  0.014125342  0.013794572         3420 
 3115000   0.76539794   -8.5612463    526.17993   0.01407651  0.013788436         3398 
 3116000   0.75434139   -8.5118502    527.81981  0.014115848  0.013782295         3376 
 3117000   0.74054561    -8.527318    526.16645  0.014067117  0.013776153         3396 
 3118000    0.7481113   -8.5521751    526.57927  0.014073639  0.013770007         3409 
 3119000   0.75311244   -8.5341941    527.01993    0.0140809  0.013763865         3355 
 3120000   0.75715137   -8.5340503    526.72398  0.014068482  0.013757724         3406 
 3121000   0.75351242   -8.5378305    527.31975  0.014079882  0.013751586         3374 
 3122000   0.75322781   -8.5595585    527.17027  0.014071382  0.013745444         3451 
 3123000   0.74307912   -8.5185621    526.84442  0.014058182  0.013739309         3399 
 3124000   0.73240054   -8.5274312    527.80847  0.014079398  0.013733188         3359 
 3125000   0.75325053   -8.5565558    526.98116  0.014052831  0.013727067         3384 
 3126000   0.76666683   -8.5221745    527.75665  0.014069009  0.013720946         3458 
 3127000   0.76369079   -8.5567634    526.13394  0.014021265  0.013714842         3359 
 3128000   0.75627644   -8.5190986     527.5134  0.014053533  0.013708733         3390 
 3129000    0.7366994   -8.5692957    527.30495   0.01404349  0.013702626         3356 
 3130000   0.75027947   -8.5223077    526.52652  0.014018278  0.013696517         3396 
 3131000   0.74291354   -8.5350835    526.59182  0.014015539  0.013690411         3397 
 3132000   0.75912639   -8.5240183    527.24174  0.014028356  0.013684316         3451 
 3133000   0.76256465   -8.5498861    527.10545  0.014020254  0.013678216         3399 
 3134000   0.75377893   -8.5184082    527.56021  0.014027872  0.013672113         3408 
 3135000   0.75496361   -8.5528812    527.46362   0.01402083  0.013666028         3437 
 3136000   0.76670341   -8.5533715    526.53321  0.013991635  0.013659936         3452 
 3137000   0.76127366   -8.5349354    527.87485  0.014022815  0.013653853         3416 
 3138000   0.75403969   -8.5453572    527.10161  0.013997812  0.013647768         3443 
 3139000   0.76624042   -8.5525619    527.36628  0.014000379  0.013641701         3356 
 3140000   0.75424615   -8.5322677    526.45092  0.013971627  0.013635621         3483 
 3141000    0.7443457   -8.5533698    526.57562  0.013970488  0.013629543         3403 
 3142000   0.74692737   -8.5227038    526.40879  0.013961617  0.013623475         3405 
 3143000   0.75113083   -8.5428565    527.76464  0.013993123  0.013617414         3431 
 3144000   0.73465548   -8.5254097    527.14794  0.013972327  0.013611355         3427 
 3145000   0.73078877   -8.5135694    527.40881  0.013974796  0.013605304         3408 
 3146000   0.74166939   -8.5641795    526.72651  0.013952281  0.013599245         3391 
 3147000   0.75413963   -8.5558674    526.28723  0.013936215  0.013593187         3477 
 3148000   0.76607769   -8.5362982     526.3159  0.013932547  0.013587135         3453 
 3149000   0.75035701    -8.546285     526.7755  0.013940285  0.013581083         3456 
 3150000   0.74347059   -8.5471941    526.16505   0.01391971  0.013575032         3446 
 3151000   0.75580257    -8.549119    527.52825  0.013951345  0.013568981         3436 
 3152000   0.77134999   -8.5623577    527.52625  0.013946866  0.013562933         3373 
 3153000   0.75470403   -8.5365782    526.73098  0.013921423  0.013556894         3415 
 3154000   0.73581992   -8.5562659    527.09965   0.01392675  0.013550855         3412 
 3155000     0.758677   -8.5432762    526.52912  0.013907267  0.013544816         3421 
 3156000    0.7571784   -8.5603499    526.29347  0.013896638  0.013538782         3462 
 3157000   0.77430329   -8.5472104    526.84528  0.013906802  0.013532737         3496 
 3158000   0.75206154   -8.5347484    527.03681  0.013907452  0.013526689         3458 
 3159000   0.73528904   -8.5568763    527.31431   0.01391037  0.013520652         3456 
 3160000   0.74505955   -8.5614354    526.12788   0.01387468  0.013514614         3449 
 3161000   0.73222012   -8.5359086    527.50679  0.013906643  0.013508578         3476 
 3162000   0.73317367   -8.5717827    526.20782  0.013868011   0.01350255         3492 
 3163000   0.75341948   -8.5601321    525.59106  0.013847378  0.013496522         3491 
 3164000   0.74195974    -8.551502    526.29379   0.01386151  0.013490499         3459 
 3165000   0.74842523   -8.5626959    525.99076  0.013849151  0.013484482         3462 
 3166000   0.72932636   -8.5517236    526.81306  0.013866421  0.013478467         3422 
 3167000   0.75896879   -8.5702422    525.99501  0.013840517  0.013472457         3513 
 3168000   0.75038567   -8.5655242    525.52738  0.013823847  0.013466444         3458 
 3169000   0.76209693   -8.5652522    527.25164  0.013864827  0.013460443         3508 
 3170000   0.73191373   -8.5625149    524.65138  0.013792097  0.013454443         3517 
 3171000   0.75426146   -8.5738645    525.69981    0.0138153  0.013448443         3547 
 3172000   0.74503054   -8.5657026    526.54125  0.013833051  0.013442444         3482 
 3173000   0.74449125    -8.526039    526.41846  0.013825466  0.013436455         3504 
 3174000   0.75280801   -8.5557819    525.80887  0.013805106  0.013430464         3494 
 3175000    0.7476574   -8.5636648    526.61049  0.013821798  0.013424478         3519 
 3176000   0.73080094   -8.5648521    526.22703  0.013807384  0.013418485         3489 
 3177000   0.74947895   -8.5683213    527.16246  0.013827575  0.013412496         3486 
 3178000   0.74492025   -8.5611254    526.64568  0.013809673  0.013406517         3596 
 3179000   0.73518559    -8.547196    526.11104  0.013791314  0.013400529         3562 
 3180000   0.75426664   -8.5723892    526.84395  0.013806183   0.01339455         3480 
 3181000   0.73668934   -8.5705681    525.86005  0.013776067  0.013388582         3518 
 3182000   0.74698476   -8.5660121    525.56884  0.013764112  0.013382613         3556 
 3183000   0.73987572   -8.5756298    526.30737  0.013779123   0.01337665         3555 
 3184000   0.76345556   -8.5438397     525.5226  0.013754256  0.013370686         3473 
 3185000   0.74057207   -8.5625422    525.18154  0.013741014  0.013364733         3563 
 3186000    0.7366987   -8.5667553    526.77796  0.013778457   0.01335878         3523 
 3187000   0.74520226   -8.5623658    525.91921  0.013751679  0.013352822         3527 
 3188000   0.73351446   -8.5744708    525.93511  0.013747781  0.013346878         3474 
 3189000   0.73562638   -8.5662417    527.25664  0.013778003  0.013340937         3518 
 3190000   0.73123851   -8.5769135    527.05641  0.013768454  0.013334988         3546 
 3191000   0.75313385   -8.5722841    525.77086  0.013730567  0.013329047         3506 
 3192000   0.75469888     -8.58324     525.3512  0.013715309  0.013323105         3448 
 3193000   0.74450373    -8.575873    526.07034  0.013729782   0.01331717         3570 
 3194000   0.74777551   -8.5838776     526.4318  0.013734914  0.013311234         3534 
 3195000   0.72991015   -8.5778614    526.63394  0.013735888  0.013305301         3543 
 3196000   0.73842744    -8.544874    527.27744  0.013748369   0.01329937         3546 
 3197000   0.73838074   -8.5831805    526.37245  0.013720479  0.013293439         3582 
 3198000   0.73718139    -8.564755    525.85407   0.01370268  0.013287509         3571 
 3199000   0.74833392   -8.5912476    525.52185  0.013689743  0.013281588         3581 
 3200000   0.74123752   -8.5836806    526.34619  0.013706932  0.013275664         3511 
 3201000   0.72728112   -8.5928964    524.56977  0.013656403  0.013269747         3568 
 3202000   0.72582246   -8.5688843    527.13631  0.013718934  0.013263842         3473 
 3203000   0.73879943   -8.5665229    526.04982  0.013686383  0.013257929         3578 
 3204000   0.73180373    -8.576704    525.61044  0.013670683  0.013252019         3566 
 3205000   0.73892861   -8.5813731     525.5562  0.013665008  0.013246112         3552 
 3206000   0.73607805   -8.5642936    526.10103  0.013674907  0.013240206         3555 
 3207000   0.74199005    -8.548735     527.0507   0.01369532   0.01323431         3559 
 3208000   0.74328619   -8.5888362    525.18794  0.013642663  0.013228414         3573 
 3209000   0.74968518   -8.5905319    526.71021  0.013677942  0.013222515         3599 
 3210000   0.71782239    -8.582324    525.41173  0.013639972  0.013216628         3582 
 3211000   0.75225923   -8.5772393    524.55632  0.013613524  0.013210739         3585 
 3212000   0.74956837   -8.5840853    525.18677  0.013625643  0.013204845         3609 
 3213000   0.75540915   -8.5696451    525.95487  0.013641324  0.013198954         3583 
 3214000   0.75649464   -8.5652319    526.51951  0.013651719  0.013193066         3562 
 3215000   0.73934482   -8.5936967    525.89508  0.013631288  0.013187187         3568 
 3216000   0.73716402   -8.5867041    526.11725  0.013632806  0.013181297         3657 
 3217000   0.73822524   -8.5702126    526.45008   0.01363719  0.013175416         3664 
 3218000   0.73554852   -8.5896958    525.18337  0.013600149  0.013169525         3601 
 3219000   0.74253555   -8.6003138    525.81878  0.013612374  0.013163648         3607 
 3220000   0.72565076   -8.5777956    525.66549  0.013604179  0.013157765         3644 
 3221000   0.74908957   -8.5902418    526.45791  0.013620457  0.013151894         3537 
 3222000   0.74266037   -8.6006828    525.78115  0.013598726  0.013146026         3585 
 3223000   0.72568443   -8.5810531    526.19027  0.013605085  0.013140155         3617 
 3224000    0.7298417   -8.5989482    525.25389  0.013576662  0.013134286         3648 
 3225000    0.7163923   -8.5882061    524.43784  0.013551365  0.013128424         3602 
 3226000   0.73781897   -8.5755398    525.99355  0.013587351  0.013122559         3595 
 3227000   0.74420357   -8.5679307    525.99947  0.013583294  0.013116703         3570 
 3228000   0.74729768   -8.5990353    525.65459  0.013570182  0.013110849         3667 
 3229000   0.73461756   -8.5963434    525.48871  0.013561699  0.013104989         3658 
 3230000      0.73898   -8.5793315    526.03746  0.013571658  0.013099141         3604 
 3231000   0.73061106   -8.6039368    524.08839  0.013517187  0.013093291         3600 
 3232000   0.73811318   -8.6100052    525.26847  0.013543432  0.013087445         3607 
 3233000   0.73634745    -8.615647    524.87642  0.013529137  0.013081598         3586 
 3234000   0.73379375   -8.6010418    525.00962  0.013528386  0.013075752         3597 
 3235000   0.75097759   -8.5818019    524.80836   0.01351902  0.013069919         3594 
 3236000   0.73745087   -8.5840597    525.65589  0.013536668  0.013064088         3581 
 3237000   0.73958619   -8.6001751    524.92849   0.01351376  0.013058254         3621 
 3238000   0.72957721   -8.6016283    526.18956  0.013542041  0.013052426         3620 
 3239000   0.72050067    -8.614383    524.99002  0.013506999  0.013046595         3622 
 3240000   0.73993381   -8.6088478    524.42529  0.013488305  0.013040771         3615 
 3241000   0.71250141   -8.6108301    523.78115  0.013467581  0.013034941         3609 
 3242000   0.72941282   -8.6001847    525.56992  0.013509406  0.013029118         3630 
 3243000   0.74497358   -8.6281579     524.4665  0.013476886  0.013023299         3591 
 3244000   0.73201295   -8.6045968    525.09387  0.013488848  0.013017485         3584 
 3245000   0.73985381   -8.6097148    525.72617  0.013500929  0.013011673         3593 
 3246000   0.73486444   -8.6013606    524.78413  0.013472585  0.013005868         3616 
 3247000   0.72944049   -8.5989096    525.16325  0.013478166  0.013000059         3641 
 3248000   0.71988243   -8.6217254    524.29864  0.013451833  0.012994251         3663 
 3249000   0.73363322   -8.6027518    524.11457  0.013442971  0.012988452         3650 
 3250000   0.73593998   -8.6134828     525.5815  0.013476449  0.012982659         3616 
 3251000   0.73728678   -8.5984576    525.28783  0.013464776  0.012976869         3629 
 3252000   0.74722321   -8.5972135    526.14192  0.013482521  0.012971072         3609 
 3253000   0.73078647   -8.5942035    526.59949  0.013490099  0.012965289         3606 
 3254000   0.75762326     -8.60425     526.3542  0.013479671  0.012959508         3651 
 3255000   0.73839542   -8.5906045    524.88687  0.013437964  0.012953724         3641 
 3256000    0.7317307   -8.6110351    525.53449  0.013450412  0.012947952         3620 
 3257000   0.71270335   -8.6276176    524.55036  0.013421102  0.012942169         3637 
 3258000   0.72727894   -8.6217406    524.59598   0.01341815  0.012936388         3600 
 3259000   0.71923629   -8.6098442     525.7818  0.013444354  0.012930605         3627 
 3260000   0.73951713   -8.6079298    524.39764  0.013404848  0.012924831         3573 
 3261000    0.7329544   -8.5947859    524.98751  0.013415811  0.012919065         3622 
 3262000   0.74247005   -8.6141792    524.84254  0.013407995  0.012913299         3678 
 3263000    0.7170833   -8.6026076    524.42582  0.013393243  0.012907541         3649 
 3264000   0.72116499   -8.5942093    525.02384  0.013404408  0.012901778         3615 
 3265000   0.72463939   -8.6076642    525.19154  0.013404582   0.01289603         3591 
 3266000   0.72318643   -8.6152009    524.99681   0.01339551   0.01289027         3614 
 3267000   0.73320033   -8.6410478    524.85976  0.013387913  0.012884521         3591 
 3268000    0.7343673    -8.597128     525.0122  0.013387704  0.012878764         3620 
 3269000   0.73179858   -8.5885999    525.06901  0.013385057  0.012873021         3595 
 3270000    0.7247279   -8.5952496    525.06338   0.01338082  0.012867274         3598 
 3271000   0.71006813   -8.6237595    524.25912   0.01335624  0.012861533         3601 
 3272000   0.73823451   -8.6199661    524.87101  0.013367742  0.012855787         3670 
 3273000    0.7223091   -8.6025376    524.87601  0.013363785  0.012850046         3627 
 3274000   0.72652413   -8.5987002    525.78508  0.013382841  0.012844309         3582 
 3275000   0.72549236   -8.6212698    524.10849  0.013336094   0.01283858         3667 
 3276000   0.72051714   -8.6307358    524.77928  0.013349086  0.012832852         3602 
 3277000   0.71515344   -8.6271676        524.3  0.013332825  0.012827126         3537 
 3278000   0.74294347   -8.6203308    525.20225  0.013351694  0.012821406         3642 
 3279000    0.7293409   -8.6090058    524.66791  0.013334043  0.012815691         3613 
 3280000   0.72777456   -8.6038271    523.90708  0.013310647  0.012809969         3575 
 3281000   0.70591581    -8.613914    524.96848  0.013333549  0.012804258         3674 
 3282000   0.71330326   -8.6241256    525.10064  0.013332842  0.012798546         3636 
 3283000   0.71540454   -8.6215391     524.0279  0.013301551  0.012792837         3628 
 3284000   0.72558749   -8.6467711    524.97579  0.013321554  0.012787127         3691 
 3285000   0.72270349   -8.6187724    524.44397  0.013304007  0.012781417         3688 
 3286000   0.74447876   -8.6349292    524.70553  0.013306592  0.012775708         3664 
 3287000   0.72715247   -8.6177143    524.38917  0.013294523  0.012770008         3648 
 3288000   0.73376216   -8.6434772    524.01867  0.013281089  0.012764307         3638 
 3289000    0.7339142   -8.6196074    524.53475  0.013290127  0.012758605         3606 
 3290000   0.73941056   -8.6074339    524.99058  0.013297634  0.012752914         3630 
 3291000   0.74090357   -8.6086121    524.11693  0.013271471  0.012747229         3678 
 3292000   0.72889175     -8.59794    525.09929  0.013292307  0.012741552         3592 
 3293000   0.71671756   -8.6337653     525.1063  0.013288448   0.01273587         3628 
 3294000   0.73727462   -8.6204848    524.89429   0.01327905  0.012730193         3608 
 3295000   0.73638204   -8.6137515    524.64175  0.013268633  0.012724518         3625 
 3296000   0.72943498   -8.6249026    524.27551  0.013255348  0.012718847         3635 
 3297000   0.73545711   -8.6439416    523.93329  0.013242677  0.012713175         3612 
 3298000   0.72252853   -8.6410717    524.24843  0.013246625    0.0127075         3661 
 3299000   0.72360491    -8.613525    525.09048   0.01326388  0.012701832         3613 
 3300000    0.7235554   -8.6045276    525.95091  0.013281589   0.01269617         3643 
 3301000    0.7274065   -8.6260035    524.60184  0.013243508  0.012690511         3661 
 3302000   0.73523184   -8.6424137    523.78479  0.013218877   0.01268485         3672 
 3303000    0.7393456   -8.6346374    524.65321  0.013236785  0.012679199         3621 
 3304000   0.71797868   -8.6296707    524.29286   0.01322369  0.012673545         3648 
 3305000   0.72004099   -8.6170095    524.76447   0.01323158  0.012667891         3655 
 3306000   0.72595804   -8.6205858    524.53119  0.013221698  0.012662245         3605 
 3307000   0.71841951   -8.6483517    524.88632  0.013226648  0.012656598         3687 
 3308000   0.73418973   -8.6202027    524.31013  0.013208135  0.012650954         3619 
 3309000   0.73148207   -8.6340671    523.81725  0.013191731  0.012645316         3655 
 3310000    0.7130514   -8.6310132    524.80223  0.013212544  0.012639676         3699 
 3311000    0.7164164    -8.635153    525.06379  0.013215136  0.012634041         3653 
 3312000   0.73907835   -8.6459107    523.37838  0.013168739  0.012628402         3701 
 3313000     0.713425   -8.6159861    524.58602  0.013195141  0.012622774         3667 
 3314000   0.71785823   -8.6344335    523.42687  0.013162011  0.012617154         3693 
 3315000   0.72836869   -8.6400699    524.69013  0.013189797  0.012611522         3674 
 3316000   0.73030721   -8.6349937    523.04021  0.013144356  0.012605894         3618 
 3317000   0.71940374   -8.6329198    523.43015   0.01315019   0.01260028         3662 
 3318000   0.72611619   -8.6340934    525.45649  0.013197119   0.01259466         3669 
 3319000   0.72853123   -8.6561742    524.01398  0.013156924  0.012589049         3661 
 3320000   0.71741365   -8.6403821    523.75155  0.013146374  0.012583433         3675 
 3321000   0.74063854   -8.6587777    524.23115   0.01315445   0.01257782         3664 
 3322000    0.7072425   -8.6390767    523.13095  0.013122891  0.012572221         3663 
 3323000   0.72537109   -8.6576285    524.31185  0.013148557  0.012566617         3625 
 3324000   0.71657109   -8.6636779    523.88605  0.013133926  0.012561015         3675 
 3325000   0.71668823   -8.6094555    525.04743  0.013159083   0.01255542         3704 
 3326000   0.72241687    -8.642912    523.49762  0.013116296  0.012549832         3742 
 3327000   0.72849246   -8.6194863    523.28758  0.013107093  0.012544242         3678 
 3328000   0.70926817   -8.6077981    524.86848   0.01314274  0.012538659         3646 
 3329000   0.74112154   -8.6430018    524.20359  0.013122149  0.012533079         3638 
 3330000   0.71459867   -8.6112113    524.64933  0.013129362    0.0125275         3720 
 3331000   0.71979452   -8.6421864     524.2225  0.013114743  0.012521922         3687 
 3332000   0.72323013   -8.6309899    524.59345  0.013120084  0.012516348         3702 
 3333000   0.70693707   -8.6443344    523.86524  0.013097941  0.012510777         3634 
 3334000   0.72343249   -8.6119845    525.49247  0.013134685   0.01250521         3655 
 3335000    0.7123957   -8.6456268    523.78024  0.013087962  0.012499648         3654 
 3336000   0.71323629   -8.6560861    524.09147  0.013091813  0.012494087         3730 
 3337000   0.72479803   -8.6462618    524.95684    0.0131095  0.012488529         3669 
 3338000   0.70466445    -8.638472    523.51936  0.013069686  0.012482967         3672 
 3339000    0.7171674   -8.6566797    523.32787  0.013060993  0.012477411         3686 
 3340000   0.71802408   -8.6594166    523.45395  0.013060228  0.012471862         3668 
 3341000    0.7229337   -8.6506883    523.79852  0.013064914  0.012466314         3664 
 3342000   0.71125503   -8.6448085      524.318  0.013073958  0.012460767         3670 
 3343000   0.71710422   -8.6700933    523.64033  0.013053154  0.012455219         3664 
 3344000   0.72139206   -8.6617785    523.38952     0.013043  0.012449677         3683 
 3345000   0.71571911   -8.6422914    524.48564  0.013066409  0.012444141         3668 
 3346000   0.71302391   -8.6224845    525.07187  0.013077104  0.012438614         3640 
 3347000    0.7156717   -8.6611144    524.02345  0.013047093  0.012433084         3696 
 3348000   0.72663402    -8.647959    523.93413  0.013040973  0.012427557         3676 
 3349000   0.74575728   -8.6320344    523.72378  0.013031845   0.01242203         3676 
 3350000   0.70876561   -8.6615304    523.53285  0.013023205  0.012416503         3694 
 3351000   0.72265492   -8.6751152    524.42936  0.013041614  0.012410976         3670 
 3352000    0.6960546   -8.6370579    523.60959  0.013017343  0.012405453         3664 
 3353000   0.71243672   -8.6505444    523.57854  0.013012689  0.012399934         3724 
 3354000   0.72422643   -8.6721782    523.40805  0.013004573   0.01239442         3716 
 3355000   0.72801602    -8.625018    524.44541  0.013026463  0.012388911         3677 
 3356000     0.726211   -8.6735583    523.34269    0.0129952  0.012383403         3701 
 3357000   0.72612428   -8.6593352    524.15603  0.013011519  0.012377892         3723 
 3358000   0.71128781   -8.6437155    523.70152  0.012996365  0.012372389         3676 
 3359000   0.70690959   -8.6785908    523.28717  0.012982216  0.012366882         3691 
 3360000   0.72272798   -8.6397446    523.03489  0.012972095  0.012361382         3678 
 3361000   0.71256626   -8.6466972    523.47172  0.012979067  0.012355886         3694 
 3362000   0.71703181   -8.6531456    524.10023  0.012990785  0.012350393         3695 
 3363000   0.72423502    -8.662051     522.8722  0.012956492    0.0123449         3695 
 3364000   0.71746311   -8.6484704     524.8148  0.013000763  0.012339416         3699 
 3365000   0.71614658   -8.6578399    523.80519  0.012971897  0.012333928         3695 
 3366000   0.70726338   -8.6491216    524.07199  0.012974648  0.012328448         3724 
 3367000   0.70414481   -8.6558311    524.34098  0.012977452  0.012322967         3660 
 3368000   0.71583571   -8.6621081    523.89904  0.012962664   0.01231748         3694 
 3369000   0.72358456   -8.6523801    523.70862  0.012954107  0.012312008         3693 
 3370000   0.72486427    -8.675608    523.90652  0.012955156  0.012306539         3710 
 3371000   0.71267012   -8.6555776    524.40485  0.012963632  0.012301077         3680 
 3372000   0.70949661   -8.6666079    523.85442  0.012946185  0.012295611         3702 
 3373000    0.7070058   -8.6678688    524.14021  0.012949407  0.012290156         3656 
 3374000   0.70940186   -8.6728812    523.11467   0.01292024  0.012284701         3715 
 3375000   0.71549072   -8.6553097    523.25234  0.012919811  0.012279244         3615 
 3376000   0.72453585    -8.649922    523.31034  0.012917416  0.012273794         3681 
 3377000   0.70361641    -8.672816    524.16418   0.01293466  0.012268346         3662 
 3378000   0.71183107    -8.657458    523.42911  0.012912698  0.012262904         3651 
 3379000   0.72154803   -8.6531294    523.84884  0.012919228  0.012257459         3690 
 3380000   0.72292051   -8.6519526    524.72836   0.01293709  0.012252022         3693 
 3381000    0.7035659   -8.6785795    522.93487  0.012889058  0.012246583         3686 
 3382000   0.70194151    -8.672212    523.81472  0.012906927  0.012241143         3700 
 3383000   0.69929825   -8.6769624     522.5542  0.012872061   0.01223571         3668 
 3384000   0.70258563    -8.680547    522.70711  0.012872023  0.012230277         3650 
 3385000   0.71166692   -8.6411536    524.42131  0.012910421  0.012224853         3684 
 3386000   0.70712173   -8.6627135    523.41707  0.012881893  0.012219435         3671 
 3387000   0.71321826   -8.6464654    524.19429  0.012897212  0.012214018         3632 
 3388000   0.70789953   -8.6613136    523.45069  0.012875115  0.012208607         3686 
 3389000   0.69648766   -8.6651492    523.81504  0.012880275  0.012203193         3690 
 3390000   0.71134656   -8.6599744    523.81065  0.012876368   0.01219778         3705 
 3391000   0.68465048    -8.662441    524.49246  0.012889326  0.012192374         3666 
 3392000   0.71239195   -8.6668251    523.82472  0.012869121   0.01218697         3673 
 3393000   0.71189303   -8.6497699    522.33602  0.012828766  0.012181569         3701 
 3394000   0.71082896    -8.659688    524.45152  0.012876928  0.012176169         3686 
 3395000   0.70595079   -8.6634416    523.71504  0.012855057  0.012170775         3736 
 3396000   0.70685741    -8.659771    523.91912   0.01285628  0.012165379         3634 
 3397000    0.7076972   -8.6769567    523.29599  0.012837209  0.012159991         3691 
 3398000   0.70745778   -8.6620273    523.72837  0.012844035  0.012154608         3692 
 3399000   0.70884962   -8.6655484    523.27369  0.012829109  0.012149218         3722 
 3400000   0.69911028    -8.667647    523.31131  0.012826258  0.012143837         3736 
 3401000   0.71402313   -8.6805793    523.27978  0.012821714  0.012138456         3663 
 3402000   0.70673254    -8.676903    522.99176   0.01281089  0.012133082         3659 
 3403000   0.72187572   -8.6812602    523.89319  0.012829199  0.012127712         3718 
 3404000    0.7001488   -8.6422456    524.00455  0.012828157  0.012122339         3697 
 3405000   0.69452915   -8.6673588    523.45852  0.012811026  0.012116974         3726 
 3406000   0.70972123   -8.6598441    522.99105  0.012795827  0.012111609         3660 
 3407000   0.70433873   -8.6661923    522.63516  0.012783367  0.012106242         3691 
 3408000   0.72360119   -8.6655709     522.8177  0.012784079  0.012100883         3738 
 3409000   0.70431246   -8.6703596    523.43859  0.012795507  0.012095536         3651 
 3410000   0.71347323   -8.6706013    524.05828  0.012806898  0.012090189         3694 
 3411000   0.70719227   -8.6455951    523.32867  0.012785319  0.012084845         3690 
 3412000   0.70066134   -8.6704743    524.04925  0.012799171  0.012079501         3704 
 3413000   0.70882479   -8.6657206    524.05316  0.012795516   0.01207416         3650 
 3414000   0.69470484   -8.6714897    523.35077  0.012774623   0.01206882         3682 
 3415000   0.69847919   -8.6743711    523.63037  0.012777705   0.01206348         3689 
 3416000   0.70782124    -8.657135    523.98625  0.012782647  0.012058139         3670 
 3417000   0.71447082   -8.6563974    524.32815  0.012787244   0.01205281         3707 
 3418000   0.70957076   -8.6662416    523.57561  0.012765155  0.012047482         3692 
 3419000   0.69401085   -8.6921336    524.22193  0.012777175  0.012042155         3694 
 3420000   0.69596912   -8.6927657    523.60552  0.012758419  0.012036829         3710 
 3421000   0.69848341   -8.6565127      523.018  0.012740378  0.012031512         3705 
 3422000   0.70509892   -8.6675282    523.54907  0.012749588  0.012026194         3627 
 3423000   0.70297946   -8.6608227    523.88618   0.01275407   0.01202088         3707 
 3424000   0.69363961   -8.6691515    523.44999  0.012739729  0.012015565         3677 
 3425000   0.70219612   -8.6620413    522.92996  0.012723357  0.012010263         3704 
 3426000   0.71516339   -8.6750829    523.53546  0.012734371  0.012004952         3703 
 3427000    0.7042808   -8.6382155     523.4299  0.012728088  0.011999651         3565 
 3428000   0.71123124   -8.6806484    522.43877  0.012700281  0.011994353         3678 
 3429000   0.69772299    -8.660055    523.63741  0.012725708  0.011989056         3639 
 3430000   0.71931975   -8.6822428    523.22806  0.012712052  0.011983762         3711 
 3431000   0.69656113   -8.6822521    522.86841  0.012699612  0.011978469         3681 
 3432000   0.70945898   -8.6864076    522.04446  0.012675905  0.011973182         3706 
 3433000   0.71076448   -8.6715718    523.87593   0.01271667  0.011967893         3683 
 3434000   0.70198162   -8.6750499    522.32256  0.012675271  0.011962615         3674 
 3435000   0.69895521   -8.6863587    522.86918  0.012684842  0.011957337         3643 
 3436000   0.70951108   -8.6684689    523.33449  0.012692435   0.01195206         3675 
 3437000    0.6955964   -8.6608067    523.07485  0.012682447  0.011946785         3659 
 3438000   0.71680206   -8.6816456    523.22602  0.012682422   0.01194151         3707 
 3439000   0.69785035   -8.6550538     524.1212  0.012700427  0.011936245         3692 
 3440000    0.7080912   -8.6812168    523.54554  0.012682789  0.011930984         3673 
 3441000   0.69761049   -8.6799286    524.07148  0.012691841   0.01192572         3670 
 3442000   0.69117439   -8.6582128    524.01329  0.012686744  0.011920458         3713 
 3443000   0.70709372   -8.6761253    522.74178  0.012652284  0.011915195         3708 
 3444000   0.71187893   -8.6801889    522.14902  0.012634268  0.011909945         3697 
 3445000   0.68814724    -8.681901    523.07615  0.012653027  0.011904686         3686 
 3446000   0.69407425    -8.684083    523.40357  0.012657273  0.011899435         3717 
 3447000   0.71042578    -8.698834    522.98424  0.012643464  0.011894181         3703 
 3448000   0.71518374   -8.7038924     522.6903  0.012632693  0.011888933         3757 
 3449000   0.70668977   -8.6750497    523.13324  0.012639732  0.011883685         3729 
 3450000   0.70265955   -8.6991893    523.28949  0.012639843  0.011878438         3730 
 3451000   0.70930638   -8.6922742    523.25641  0.012635381  0.011873198         3690 
 3452000   0.70291352   -8.6893209    523.32646  0.012633412  0.011867968         3697 
 3453000   0.70813942   -8.6580028    524.13446  0.012649253  0.011862743         3721 
 3454000   0.70799355   -8.6909689    523.57329  0.012632052  0.011857519         3712 
 3455000   0.70814026   -8.6827321    522.73548  0.012608188  0.011852294         3690 
 3456000   0.69592973   -8.6998669     522.8036  0.012606182  0.011847072         3735 
 3457000   0.70055834   -8.6740815    522.09822  0.012585532  0.011841849         3667 
 3458000   0.68211581   -8.6900636    523.05999   0.01260507  0.011836629         3716 
 3459000   0.69640956   -8.6686557    523.62553  0.012615051  0.011831416         3639 
 3460000   0.68993733    -8.699993    523.07076  0.012598043  0.011826204         3706 
 3461000   0.71115078   -8.6986703     522.6074  0.012583247  0.011820997         3661 
 3462000   0.70025515   -8.6802507    523.49115  0.012600885  0.011815787         3720 
 3463000   0.69309088   -8.7139286    522.51583  0.012573776  0.011810575         3707 
 3464000   0.68122292   -8.6752071    522.98148  0.012581348  0.011805372         3679 
 3465000   0.69049364   -8.6964471    522.86578  0.012574935  0.011800169         3684 
 3466000   0.70491946   -8.6554748    523.70276   0.01259143  0.011794974         3688 
 3467000   0.70245294   -8.6694167    523.61469  0.012585681  0.011789777         3680 
 3468000   0.70202387   -8.6839402    523.70351  0.012584187  0.011784591         3672 
 3469000   0.70192322   -8.6855312    523.80949  0.012583105  0.011779405         3690 
 3470000   0.70467821   -8.6806185     523.3331  0.012568038  0.011774216         3713 
 3471000    0.6890987   -8.6635777    524.61105  0.012595099  0.011769031         3678 
 3472000   0.70656413   -8.6877383    522.81993  0.012548481  0.011763851         3683 
 3473000   0.70373843   -8.6794799    522.67641  0.012541425  0.011758669         3654 
 3474000   0.71143085   -8.6905232    521.72275  0.012514938  0.011753502         3726 
 3475000   0.68787214   -8.6950709    522.25218  0.012524033  0.011748326         3694 
 3476000   0.68708398   -8.6932791    522.79292  0.012533394  0.011743158         3703 
 3477000   0.68129658    -8.682719     522.3337  0.012518783  0.011737988         3666 
 3478000   0.69521934   -8.6635286    524.11687  0.012557908  0.011732828         3694 
 3479000   0.69575179   -8.6790303     523.2117  0.012532617  0.011727672         3671 
 3480000   0.69495995   -8.6858609    523.05194   0.01252519  0.011722524         3656 
 3481000   0.71429757   -8.6876194      524.268  0.012550704  0.011717376         3722 
 3482000   0.68667213   -8.6870169    522.80069  0.012511983  0.011712228         3688 
 3483000   0.67997562    -8.707912    523.01076  0.012513417   0.01170708         3656 
 3484000   0.70658693   -8.7021052    522.40836  0.012495416  0.011701938         3699 
 3485000   0.70621104   -8.6714536     522.8969  0.012503513    0.0116968         3698 
 3486000   0.69653373   -8.6931962    523.31894  0.012510015  0.011691658         3659 
 3487000   0.69208593   -8.6929545    522.83901  0.012494958  0.011686515         3644 
 3488000   0.70402961   -8.6624159    523.88851  0.012516449  0.011681382         3703 
 3489000   0.70379383   -8.6903985    523.24785   0.01249756  0.011676253         3660 
 3490000   0.70685313   -8.7031719    522.83054  0.012484015  0.011671115         3683 
 3491000   0.68733802   -8.6902701    522.33605  0.012468635  0.011665986         3720 
 3492000   0.69078553   -8.6581226    523.10652  0.012483451  0.011660863         3649 
 3493000   0.69252207   -8.6877183    523.01274   0.01247764   0.01165574         3705 
 3494000   0.69009843   -8.7073231    523.18388   0.01247815   0.01165062         3722 
 3495000   0.69603802   -8.6813422    522.97135  0.012469513    0.0116455         3644 
 3496000   0.70083362   -8.6893847    522.18897  0.012447296  0.011640387         3657 
 3497000   0.68298911   -8.7026429    523.56796  0.012476598  0.011635271         3652 
 3498000   0.69188889   -8.6818944    523.34746  0.012467778  0.011630155         3695 
 3499000   0.67323568   -8.6864944    522.42231  0.012442181  0.011625045         3675 
 3500000   0.68855889   -8.6801052    522.36749  0.012437321  0.011619935         3666 
 3501000   0.70493889    -8.687212     523.2636  0.012455099  0.011614829         3705 
 3502000   0.68195099    -8.701978    522.60781  0.012435937   0.01160973         3704 
 3503000   0.70723894   -8.7059242    522.26908  0.012424329  0.011604632         3723 
 3504000   0.70005889   -8.7194128    522.37613  0.012423329  0.011599542         3695 
 3505000   0.68885212   -8.7259745    521.60575  0.012401468   0.01159445         3674 
 3506000   0.69394606   -8.7091799    522.14112  0.012410656  0.011589361         3702 
 3507000   0.69189505   -8.6932824    522.83599  0.012423629   0.01158427         3693 
 3508000   0.69620742    -8.669885     522.8463  0.012420332  0.011579194         3722 
 3509000    0.6712962   -8.6953697    522.73092  0.012414052  0.011574115         3686 
 3510000   0.68582249   -8.7002231    522.98147  0.012416464  0.011569033         3728 
 3511000   0.70172753    -8.681623    522.00613  0.012389778  0.011563956         3717 
 3512000    0.6942942   -8.6921142    522.28741  0.012392925  0.011558881         3708 
 3513000   0.68988648   -8.6913493    521.37547  0.012367764  0.011553811         3690 
 3514000   0.68816234   -8.6940614    522.89657  0.012400317  0.011548738         3703 
 3515000    0.6829561   -8.6978226    522.95015   0.01239806  0.011543674         3674 
 3516000    0.6638638   -8.6933738    522.41195  0.012381777  0.011538611         3737 
 3517000   0.70495472   -8.6979529    523.31409  0.012399632  0.011533555         3686 
 3518000   0.68624507   -8.7027817    522.46129  0.012375907  0.011528499         3737 
 3519000   0.68841212   -8.7203603    522.88322  0.012382382  0.011523444         3684 
 3520000   0.69311145   -8.7200818    521.91501  0.012355943  0.011518392         3723 
 3521000   0.68643237   -8.7066146    522.23376  0.012359977  0.011513344         3730 
 3522000   0.67493854   -8.7164819    523.17078  0.012378639  0.011508298         3727 
 3523000   0.68966869   -8.7209289    522.84872  0.012367507  0.011503254         3737 
 3524000    0.6860727    -8.678825     522.7985   0.01236281   0.01149821         3729 
 3525000   0.69088364   -8.6960406    522.57901  0.012354114  0.011493172         3718 
 3526000   0.68998084   -8.7292281    522.38358  0.012345991  0.011488136         3734 
 3527000   0.67495527   -8.6905331    522.60606  0.012347747    0.0114831         3735 
 3528000   0.67989159    -8.713044     521.0781  0.012308156  0.011478068         3730 
 3529000   0.68416384   -8.7287333    521.52219  0.012315155  0.011473038         3740 
 3530000   0.67783274   -8.7008474    522.85106  0.012343037  0.011468004         3706 
 3531000   0.67550379   -8.7035607    521.60763  0.012310196  0.011462973         3748 
 3532000   0.68395202   -8.7080121    521.46962  0.012303455  0.011457954         3710 
 3533000   0.68314884   -8.7116189    522.40008  0.012321919  0.011452935         3726 
 3534000   0.68124737   -8.7139264    523.02065  0.012333066  0.011447918         3724 
 3535000    0.6909011    -8.702695    522.78959   0.01232413  0.011442905         3726 
 3536000   0.68528247   -8.7000405    522.94677  0.012324349  0.011437896         3705 
 3537000   0.69460005   -8.7336336    522.29488  0.012305506  0.011432888         3736 
 3538000   0.67079673   -8.7091336    521.95751  0.012294081  0.011427883         3719 
 3539000   0.68125333   -8.7159248    522.60192  0.012305781  0.011422882         3691 
 3540000   0.68695138   -8.7132655    523.07194   0.01231337  0.011417876         3739 
 3541000   0.68952079   -8.7119007    522.30437  0.012291828  0.011412873         3750 
 3542000   0.68581575   -8.7090742      522.377  0.012290067  0.011407876         3734 
 3543000    0.6999988   -8.6977867    522.66927  0.012293472  0.011402886         3732 
 3544000   0.69023438   -8.6864619    522.11992  0.012277086   0.01139789         3745 
 3545000   0.67750762   -8.7087191    521.92333  0.012269002  0.011392904         3751 
 3546000   0.69268903   -8.7129904    521.81086  0.012262898  0.011387921         3729 
 3547000   0.71110109   -8.7065697    522.89407   0.01228489  0.011382942         3732 
 3548000   0.69731903   -8.7236686    521.81617  0.012256111  0.011377963         3746 
 3549000   0.69617652    -8.719946    523.10556  0.012282933  0.011372985         3723 
 3550000   0.67499609   -8.7095924    521.77019  0.012248126  0.011368014         3686 
 3551000   0.69230731   -8.7023382    522.74204  0.012267484  0.011363039         3758 
 3552000   0.67119897   -8.7104101    520.65327  0.012215026  0.011358073         3758 
 3553000   0.68395082   -8.7386713     522.2609  0.012249294  0.011353101         3749 
 3554000   0.69396111   -8.7254041    521.16849  0.012220233  0.011348137         3701 
 3555000   0.68736905    -8.715388    522.07559  0.012238059  0.011343178         3743 
 3556000   0.68079314   -8.7321793    522.88062  0.012253483  0.011338221         3684 
 3557000   0.68054222   -8.6916464    523.02403  0.012253398  0.011333265         3720 
 3558000   0.68696636   -8.7194879    521.45334  0.012213166   0.01132831         3763 
 3559000   0.68446291   -8.7160978    522.63138  0.012237318  0.011323367         3693 
 3560000   0.68162287   -8.7149733     521.9886  0.012218834  0.011318417         3705 
 3561000   0.67398594   -8.6996274    522.29392  0.012222548  0.011313475         3736 
 3562000   0.66078209   -8.7350027    522.37518  0.012221018  0.011308532         3738 
 3563000    0.6790015   -8.7350677    522.12802  0.012211807   0.01130359         3753 
 3564000   0.67791538   -8.7083903    523.34073  0.012236736  0.011298653         3754 
 3565000   0.68775294   -8.7036285    522.70309  0.012218399  0.011293714         3692 
 3566000   0.68302518   -8.6919262    521.28346  0.012181797  0.011288782         3700 
 3567000   0.69854136    -8.707051    522.76452  0.012212983  0.011283858         3744 
 3568000   0.68313915   -8.7002492    522.62309  0.012206257  0.011278934         3724 
 3569000   0.69313813   -8.7133997    522.34178  0.012196268  0.011274011         3727 
 3570000   0.68092558   -8.7168938    521.95498  0.012183823  0.011269088         3761 
 3571000   0.67754456   -8.7341973    520.91997  0.012156258  0.011264166         3767 
 3572000   0.67342558    -8.719006    521.97608  0.012177494  0.011259254         3731 
 3573000   0.68179511   -8.7254872    520.51128  0.012139922  0.011254334         3728 
 3574000   0.67854073   -8.7356652    521.87636  0.012168354  0.011249425         3734 
 3575000   0.67453056    -8.723717     521.5141  0.012156506  0.011244518         3743 
 3576000   0.68480737    -8.731471    521.69387  0.012157296  0.011239604         3734 
 3577000   0.67628665   -8.7025647     522.0459  0.012162098  0.011234697         3719 
 3578000   0.68551096   -8.7048248    522.68213  0.012173517  0.011229796         3710 
 3579000   0.68043474   -8.7065361    521.95335  0.012153147  0.011224893         3739 
 3580000   0.65458689   -8.7187803    521.88677  0.012148202  0.011219995         3728 
 3581000   0.68380861   -8.7172633    521.28307  0.012130761  0.011215104         3760 
 3582000   0.67689429   -8.7154655    523.50173  0.012178991  0.011210211         3753 
 3583000   0.68768095   -8.6910182    520.93911   0.01211599  0.011205321         3741 
 3584000   0.67931484   -8.7435938    521.55029   0.01212682  0.011200438         3742 
 3585000   0.66132905   -8.7143665    522.15445  0.012137481  0.011195553         3749 
 3586000     0.662461   -8.7392591    521.98881  0.012130247  0.011190669         3736 
 3587000   0.69444242   -8.7243841    521.94264  0.012125793  0.011185791         3701 
 3588000   0.67567585   -8.7337002    521.58514   0.01211411  0.011180912         3689 
 3589000   0.67936969   -8.7296573    523.26193  0.012149669  0.011176039         3761 
 3590000   0.67566064   -8.7416659    521.96248  0.012116121  0.011171174         3773 
 3591000   0.67275489   -8.7316443    522.17118   0.01211759  0.011166306         3754 
 3592000    0.6757973   -8.7149515    521.75683  0.012104603  0.011161433         3742 
 3593000   0.67096733     -8.73075    520.82266  0.012079568  0.011156568         3733 
 3594000   0.68585024   -8.7163083    521.91474  0.012101529  0.011151714         3743 
 3595000   0.68805337   -8.7102167    522.04825  0.012101258  0.011146855         3729 
 3596000   0.67829552   -8.7306192    522.00756  0.012096949  0.011141999         3749 
 3597000   0.67434948   -8.7432293    521.86213  0.012090217  0.011137151         3709 
 3598000   0.68922752   -8.7269382    521.22811  0.012072172  0.011132304         3761 
 3599000   0.66800984   -8.7337083    521.44438  0.012073826  0.011127459         3737 
 3600000   0.68953674    -8.717713    521.81286  0.012079001  0.011122614         3744 
 3601000   0.67959417   -8.7435165    521.84528  0.012076397  0.011117775         3724 
 3602000   0.67703592    -8.716603     522.3846  0.012085522  0.011112933         3723 
 3603000    0.6852061    -8.728577    522.07414  0.012074987  0.011108095         3745 
 3604000   0.65922238   -8.7236649    521.03335  0.012047571  0.011103263         3719 
 3605000   0.67656566   -8.7310176    521.67366  0.012059031  0.011098434         3751 
 3606000    0.6714161   -8.7165184    521.89948  0.012060905  0.011093599         3725 
 3607000   0.66102472   -8.7333502    521.40506  0.012046138  0.011088777         3756 
 3608000   0.68369481   -8.7303596    520.79867  0.012028794  0.011083955         3725 
 3609000   0.67053519   -8.7315539    521.84825  0.012049696  0.011079137         3694 
 3610000   0.66724197   -8.7248739    522.46788  0.012060662  0.011074323         3761 
 3611000   0.65917099    -8.750107    521.46999  0.012034293  0.011069511         3737 
 3612000   0.67360153   -8.7389133    521.75744  0.012037593  0.011064697         3729 
 3613000   0.68985069   -8.7188032    522.46525  0.012050587  0.011059887         3700 
 3614000   0.67802129   -8.7054588    521.32735  0.012021014  0.011055079         3716 
 3615000   0.66035121   -8.7162361    521.59794  0.012023927  0.011050271         3729 
 3616000   0.66247048   -8.7160869     520.5904  0.011997382   0.01104547         3715 
 3617000   0.66483123    -8.735597    520.97946  0.012003029  0.011040665         3705 
 3618000   0.67203081   -8.7390194    520.48352  0.011988288  0.011035869         3690 
 3619000   0.66704433   -8.7430053    521.32001  0.012004237  0.011031078         3750 
 3620000   0.67131536   -8.7331582    521.20853  0.011998355  0.011026287         3711 
 3621000   0.68913409   -8.7496981    521.31314  0.011997449  0.011021497         3691 
 3622000   0.67593256   -8.7466781    521.89645  0.012007557  0.011016711         3736 
 3623000   0.67128479   -8.7297318    522.13198   0.01200966  0.011011927         3768 
 3624000   0.67729138   -8.7598629    520.36032  0.011965607  0.011007149         3812 
 3625000    0.6687866   -8.7365425    520.50307  0.011965588  0.011002371         3743 
 3626000   0.67642067   -8.7231791    522.28043  0.012003135  0.010997603         3753 
 3627000   0.67906207   -8.7227594    521.80099  0.011988811  0.010992831         3784 
 3628000   0.67356496   -8.7406013      522.341   0.01199791  0.010988068         3684 
 3629000   0.66709517   -8.7418434    520.60764    0.0119548  0.010983305         3732 
 3630000   0.66542303   -8.7366207    521.16669  0.011964341  0.010978545         3743 
 3631000   0.67085897   -8.7465695    520.69118  0.011950133  0.010973788         3725 
 3632000   0.66891672   -8.7441316    521.67655  0.011969451   0.01096903         3761 
 3633000   0.68821672   -8.7116618    521.52238   0.01196262  0.010964276         3750 
 3634000   0.67814192   -8.7214243    522.93842    0.0119918  0.010959526         3748 
 3635000   0.66672877   -8.7266419    522.79429  0.011985197  0.010954781         3729 
 3636000   0.67803883   -8.7326727    521.58773  0.011954248  0.010950035         3729 
 3637000   0.67901224   -8.7341106    522.18718  0.011964696  0.010945285         3774 
 3638000   0.67120486   -8.7359104    521.73099  0.011950957  0.010940544         3748 
 3639000   0.65957896   -8.7205045    521.17713   0.01193499  0.010935803         3690 
 3640000   0.66451631   -8.7464493    521.71508  0.011944027  0.010931065         3762 
 3641000   0.65488479   -8.7321561    522.16012  0.011950932  0.010926331         3741 
 3642000    0.6472407   -8.7511217     521.4797  0.011932082  0.010921601         3753 
 3643000   0.67490625   -8.7433242    521.31975  0.011925148  0.010916865         3723 
 3644000   0.67431151   -8.7392187    521.27032  0.011920745  0.010912135         3719 
 3645000   0.67841843   -8.7531868     520.7167  0.011904817  0.010907409         3744 
 3646000   0.66053387   -8.7318871    521.60683  0.011921897  0.010902686         3720 
 3647000    0.6565012   -8.7531538    521.45601  0.011915182  0.010897966         3745 
 3648000   0.66820843   -8.7279992    521.10158  0.011903819  0.010893247         3723 
 3649000   0.68111625   -8.7262071    521.55658  0.011910948  0.010888531         3698 
 3650000   0.68654578   -8.7479293      522.264  0.011923836   0.01088382         3736 
 3651000   0.65628466   -8.7289082    521.65798  0.011906738  0.010879112         3723 
 3652000   0.67103953   -8.7155399    521.98939  0.011911039  0.010874405         3727 
 3653000   0.66134961   -8.7306802    521.37761  0.011893823  0.010869699         3738 
 3654000   0.65349705   -8.7235188    522.75719   0.01192203  0.010864997         3714 
 3655000   0.66642297    -8.737358    521.55901   0.01189145  0.010860294         3725 
 3656000   0.66222209   -8.7339441    521.00089  0.011875476  0.010855595         3695 
 3657000   0.68634885   -8.7500006    520.57136  0.011862441  0.010850902         3747 
 3658000   0.65913055   -8.7517248    520.37516  0.011854728  0.010846207         3735 
 3659000   0.66675545   -8.7471397    521.74823   0.01188276  0.010841516         3728 
 3660000   0.67805599   -8.7464331    522.35248  0.011893272  0.010836827         3752 
 3661000   0.66181381   -8.7625008    521.34543    0.0118671  0.010832143         3730 
 3662000    0.6686165   -8.7238941    520.65767  0.011848208   0.01082746         3718 
 3663000   0.65318273   -8.7421801    520.71029  0.011846171  0.010822776         3684 
 3664000   0.66467501   -8.7458312     521.4494  0.011859748  0.010818106         3700 
 3665000   0.66793646   -8.7326059    520.81526  0.011842093  0.010813432         3724 
 3666000   0.66999102   -8.7516927    521.06924  0.011844636  0.010808762         3732 
 3667000   0.64990864   -8.7395657    520.92981  0.011838238  0.010804091         3742 
 3668000   0.66099641   -8.7159679    521.75748  0.011853814  0.010799428         3701 
 3669000   0.66427998   -8.7355244    521.32457  0.011840751  0.010794764         3717 
 3670000   0.66572479    -8.734539    521.04171  0.011831102  0.010790103         3748 
 3671000   0.67111259   -8.7475157     520.3781  0.011812814  0.010785448         3738 
 3672000    0.6700511   -8.7290946    521.65609    0.0118386  0.010780795         3744 
 3673000   0.65789189   -8.7427782    521.39537  0.011829462  0.010776139         3725 
 3674000   0.66588114   -8.7255254    521.94325  0.011838669  0.010771493         3743 
 3675000   0.66015257   -8.7248947    520.84699  0.011810589  0.010766847         3734 
 3676000   0.68442817    -8.739508    522.25801  0.011839364  0.010762204         3752 
 3677000   0.67877025   -8.7388567    521.49486  0.011818848  0.010757566         3752 
 3678000   0.66089257    -8.736929    521.47056  0.011815084  0.010752927         3755 
 3679000   0.64437953   -8.7301235    521.75892  0.011818404  0.010748287         3744 
 3680000   0.67265203   -8.7435145    520.75365  0.011792429  0.010743648         3752 
 3681000   0.66917408   -8.7434034    520.77117  0.011789622  0.010739015         3764 
 3682000   0.67740984   -8.7567026    519.89967  0.011766695   0.01073438         3768 
 3683000   0.66840087   -8.7473673    522.74135  0.011827798  0.010729758         3703 
 3684000    0.6609979   -8.7616641    521.02679  0.011785803  0.010725129         3774 
 3685000   0.66033669   -8.7397499    522.01805  0.011805021  0.010720505         3738 
 3686000   0.65785544   -8.7443824    520.22144  0.011761201  0.010715883         3738 
 3687000    0.6643721   -8.7691965    521.85429  0.011794917  0.010711266         3740 
 3688000   0.65646099   -8.7446253    521.93006  0.011793431  0.010706646         3716 
 3689000   0.65369424   -8.7353317    521.09891  0.011771458  0.010702032         3722 
 3690000   0.66695352   -8.7501452    520.89644  0.011763696  0.010697422         3673 
 3691000   0.65954155    -8.724384    522.41372  0.011794765  0.010692822         3696 
 3692000   0.65582644   -8.7610816    520.82321   0.01175567  0.010688218         3731 
 3693000    0.6774608    -8.743299    521.86443  0.011775982  0.010683618         3654 
 3694000   0.65488521   -8.7493472    521.41452  0.011762645  0.010679021         3713 
 3695000   0.66683166   -8.7654034    520.22317  0.011732593   0.01067442         3725 
 3696000   0.65855932   -8.7614394    520.86954  0.011743992  0.010669827         3754 
 3697000   0.65370576   -8.7518471    520.71196  0.011737264  0.010665237         3767 
 3698000   0.66100895    -8.753823    520.84294  0.011737041  0.010660644         3715 
 3699000   0.67268121   -8.7726589    520.44533  0.011724911  0.010656054         3696 
 3700000   0.65990894   -8.7533121    521.52881  0.011746144  0.010651467         3766 
 3701000   0.67410447   -8.7500966    520.69935  0.011724294  0.010646877         3700 
 3702000   0.66759385   -8.7611111     520.3919  0.011714206  0.010642301         3741 
 3703000   0.66045574   -8.7694279    521.14839  0.011728067   0.01063772         3765 
 3704000   0.66311614   -8.7446153    520.38282  0.011707677  0.010633143         3719 
 3705000   0.68139319    -8.747388    521.22013   0.01172335  0.010628575         3696 
 3706000   0.67108179   -8.7333328    521.85533   0.01173447  0.010624012         3742 
 3707000   0.64819496   -8.7649796    521.40673  0.011721219  0.010619444         3705 
 3708000   0.65733676   -8.7595334    521.51569  0.011720507  0.010614881         3672 
 3709000   0.65914541   -8.7434291    521.09119   0.01170781  0.010610321         3735 
 3710000   0.66006255   -8.7748334    520.80562  0.011698239  0.010605764         3733 
 3711000   0.66620274   -8.7532186    521.29282  0.011706028   0.01060121         3680 
 3712000   0.66938123   -8.7585706    521.36596  0.011704516  0.010596658         3740 
 3713000   0.66669976   -8.7623982    520.96476  0.011692359  0.010592105         3747 
 3714000   0.64834193   -8.7578648    521.03906  0.011690878   0.01058756         3680 
 3715000   0.65270472   -8.7406858    520.95671  0.011685884  0.010583014         3685 
 3716000    0.6762675   -8.7391368    521.05743  0.011684998  0.010578468         3746 
 3717000   0.67108009   -8.7584116    521.40708  0.011689693  0.010573931         3697 
 3718000   0.66905697   -8.7608216    521.53752  0.011689473  0.010569389         3758 
 3719000   0.66456314   -8.7499174    521.81868   0.01169263  0.010564855         3769 
 3720000   0.64845592   -8.7462116    521.30843  0.011678056   0.01056032         3735 
 3721000   0.64851354   -8.7594134    521.07614  0.011669716  0.010555793         3721 
 3722000   0.64893705   -8.7459184    521.76178  0.011681931  0.010551262         3749 
 3723000    0.6540645   -8.7602728    521.11645  0.011664349  0.010546733         3747 
 3724000   0.66279791   -8.7466942     520.7153   0.01165224  0.010542208         3706 
 3725000   0.63975466   -8.7494595    521.26459    0.0116614  0.010537684         3739 
 3726000    0.6482539   -8.7430761    522.09722  0.011676892  0.010533165         3768 
 3727000   0.66272823   -8.7649274       521.49  0.011660183  0.010528651         3737 
 3728000    0.6510574   -8.7553253     519.3857  0.011610017   0.01052413         3724 
 3729000   0.65343441   -8.7493145     520.7344  0.011637043  0.010519616         3765 
 3730000   0.64710571   -8.7654532    520.98138  0.011639441  0.010515107         3759 
 3731000   0.64409301   -8.7604672    520.13297  0.011617372  0.010510604         3713 
 3732000    0.6420876   -8.7527685    520.80275  0.011629215  0.010506101         3739 
 3733000   0.64991445   -8.7612584     520.1647  0.011611856  0.010501599         3716 
 3734000   0.64893543   -8.7525599    521.91872  0.011647891    0.0104971         3700 
 3735000   0.66339404   -8.7504565    520.94638  0.011623078  0.010492602         3726 
 3736000   0.65815537   -8.7542779     520.5752  0.011611688  0.010488112         3743 
 3737000   0.64474676   -8.7696459    520.88932  0.011615586  0.010483615         3760 
 3738000   0.65703839   -8.7527384    521.35913  0.011622952  0.010479125         3738 
 3739000   0.65934016   -8.7751523    520.28456  0.011595894   0.01047464         3725 
 3740000   0.65230543   -8.7835602    520.26109   0.01159227  0.010470152         3743 
 3741000   0.64806199   -8.7453108    521.25319  0.011611271  0.010465668         3741 
 3742000   0.65537656   -8.7519385    520.75923  0.011597168  0.010461187         3718 
 3743000   0.66131093   -8.7734279    520.76081  0.011594105  0.010456709         3759 
 3744000    0.6582769   -8.7643244    521.11543  0.011598901  0.010452229         3750 
 3745000    0.6639736   -8.7730546    520.42093   0.01158035   0.01044776         3747 
 3746000   0.65033365   -8.7523601    520.94569  0.011588932  0.010443293         3703 
 3747000   0.64718771   -8.7514125    521.47275  0.011597561  0.010438826         3725 
 3748000   0.65022563   -8.7516102    521.39542  0.011592748  0.010434361         3752 
 3749000   0.64793319   -8.7466975    521.01704  0.011581245  0.010429902         3727 
 3750000    0.6640453    -8.746769    519.95755  0.011554612  0.010425442         3699 
 3751000   0.65514823   -8.7669003    519.87533  0.011549705  0.010420986         3783 
 3752000    0.6546997   -8.7523518     520.9374  0.011570216  0.010416534         3743 
 3753000   0.64308905   -8.7637195    520.75454  0.011563073   0.01041208         3752 
 3754000   0.64743096   -8.7599489    519.48583  0.011531829  0.010407633         3750 
 3755000   0.65748125   -8.7529671    520.89188  0.011559962  0.010403181         3727 
 3756000   0.65531027   -8.7826784    521.34079  0.011566844  0.010398733         3743 
 3757000   0.64985648   -8.7689803    520.84014   0.01155266  0.010394291         3757 
 3758000   0.66762571   -8.7730032    519.43258  0.011518374  0.010389849         3749 
 3759000   0.64681561   -8.7810809    520.11037  0.011530335  0.010385411         3762 
 3760000   0.65510472   -8.7700835    521.12524  0.011549762  0.010380975         3736 
 3761000   0.64027352   -8.7652774     520.9299  0.011542362  0.010376543         3752 
 3762000   0.62513802   -8.7718873    520.51395   0.01153008   0.01037211         3758 
 3763000   0.63722944   -8.7712958    520.47176  0.011526082  0.010367676         3760 
 3764000   0.65567503   -8.7651024    520.37359  0.011520846  0.010363246         3706 
 3765000   0.65434862   -8.7658614    520.43667  0.011519183  0.010358819         3744 
 3766000   0.64744153   -8.7757868     521.1727  0.011532411  0.010354396         3742 
 3767000   0.64339414   -8.7576991      520.627  0.011517277  0.010349982         3745 
 3768000   0.64548641    -8.762958    521.66444  0.011537165  0.010345566         3727 
 3769000   0.65141082   -8.7599281    521.53815  0.011531311   0.01034115         3724 
 3770000   0.65685576   -8.7756826    520.66664  0.011508988  0.010336736         3756 
 3771000   0.64935752   -8.7916852     520.5135  0.011502552  0.010332323         3748 
 3772000   0.64378615    -8.774831    520.70006  0.011503624  0.010327913         3758 
 3773000   0.65806562   -8.7695138    520.58341  0.011497999  0.010323509         3749 
 3774000   0.65116026   -8.7812606    521.02577   0.01150472  0.010319105         3765 
 3775000   0.64933628   -8.7623023    519.78827  0.011474355  0.010314704         3788 
 3776000   0.63023177   -8.7642275    520.87212  0.011495236  0.010310303         3743 
 3777000   0.63298468   -8.7808318    520.40045  0.011481786  0.010305904         3773 
 3778000   0.65098301   -8.7788791    520.81677   0.01148793  0.010301514         3750 
 3779000   0.64681371   -8.7520976    520.80753  0.011484686  0.010297123         3731 
 3780000   0.65196277   -8.7792214    521.37384  0.011494132  0.010292734         3750 
 3781000   0.65542601   -8.7884233    521.27454  0.011488904  0.010288348         3730 
 3782000   0.64773803   -8.7848243    520.56217  0.011470169  0.010283963         3747 
 3783000   0.63385576   -8.7821639    520.77023  0.011471721  0.010279586         3738 
 3784000   0.64728533   -8.7555464    520.73684  0.011467954  0.010275202         3728 
 3785000   0.66464566   -8.7874534    520.13089  0.011451583  0.010270821         3777 
 3786000   0.64999523   -8.7796784    519.72649  0.011439657  0.010266447         3761 
 3787000   0.66191976   -8.7995861    519.81595  0.011438605  0.010262074         3732 
 3788000   0.65213575   -8.7716029    520.39133  0.011448243  0.010257705         3773 
 3789000   0.63278148   -8.7940237    520.87547  0.011455869  0.010253336         3766 
 3790000   0.64757084   -8.7766894    520.61594   0.01144714  0.010248972         3726 
 3791000   0.64612891   -8.8003895    520.73061  0.011446641   0.01024461         3767 
 3792000   0.66874254    -8.792406    519.63824  0.011419617  0.010240247         3791 
 3793000   0.64981362   -8.7583072    521.14045   0.01144961  0.010235889         3754 
 3794000   0.64416592   -8.7884392    520.26782  0.011427425  0.010231536         3780 
 3795000    0.6414975   -8.7850762    520.53659  0.011430316  0.010227185         3748 
 3796000   0.64785718   -8.7777467    521.06998  0.011439014  0.010222827         3754 
 3797000   0.63509951   -8.7983938     520.4831  0.011423121  0.010218478         3757 
 3798000   0.64802869   -8.7909479    519.46671  0.011397813  0.010214129         3740 
 3799000   0.65292279    -8.779838    520.06423  0.011407919  0.010209785         3742 
 3800000   0.64647681    -8.781572    520.11089   0.01140594  0.010205445         3714 
 3801000   0.65484319   -8.7661626    520.54572  0.011412473  0.010201106         3735 
 3802000   0.64179729   -8.7960356    520.18085  0.011401474  0.010196768         3716 
 3803000   0.63705767   -8.7985885    520.05627  0.011395746  0.010192433         3712 
 3804000   0.64115911   -8.7804109    521.01302   0.01141371    0.0101881         3763 
 3805000   0.62307009   -8.7646615    519.43276  0.011376101  0.010183767         3770 
 3806000   0.63578179   -8.7710069     521.9002  0.011427137  0.010179438         3711 
 3807000   0.63901699   -8.7860977    519.66156  0.011375133  0.010175113         3774 
 3808000   0.64154139   -8.7806214    520.57794  0.011392199  0.010170791         3735 
 3809000   0.64706368   -8.7790946     520.6141      0.01139  0.010166471         3733 
 3810000    0.6343249   -8.7995447    520.97881  0.011394987  0.010162156         3738 
 3811000   0.64285501   -8.7637492    521.03441  0.011393213  0.010157843         3735 
 3812000   0.63547345   -8.7626957    520.15931  0.011371094  0.010153532         3732 
 3813000   0.65383342   -8.7723041    520.03998  0.011365503  0.010149225         3766 
 3814000   0.63986224   -8.7782588    520.41173  0.011370646  0.010144917         3763 
 3815000   0.63203238   -8.8089387    519.51392  0.011348054  0.010140611         3773 
 3816000   0.64307504   -8.7710784    521.07701  0.011379215  0.010136312         3742 
 3817000   0.63568581   -8.7828735    519.74666  0.011347189  0.010132006         3774 
 3818000   0.64587786   -8.8067435    519.88062  0.011347141  0.010127703         3749 
 3819000   0.65415275   -8.8009404     519.9429  0.011345529  0.010123404         3709 
 3820000   0.63797507   -8.7792956    520.60437  0.011356989  0.010119111         3773 
 3821000   0.63841572    -8.759882    520.88297  0.011360093  0.010114819         3742 
 3822000   0.65547242   -8.7837352    521.63222  0.011373457  0.010110531         3720 
 3823000   0.63941472   -8.7806417    520.79939  0.011352328  0.010106245         3762 
 3824000   0.62334166   -8.7634203     520.8564  0.011350601   0.01010196         3742 
 3825000   0.63503373   -8.7817241    520.22491  0.011333876  0.010097678         3705 
 3826000   0.63375884   -8.7843051    520.30669  0.011332695  0.010093398         3743 
 3827000   0.63863697   -8.7854459    520.31789  0.011329977  0.010089125         3744 
 3828000   0.65186168   -8.7682466    520.63584  0.011333939  0.010084848         3730 
 3829000    0.6465622   -8.7836195    519.60549  0.011308555  0.010080573         3757 
 3830000   0.63686216   -8.7926041    520.64883  0.011328304    0.0100763         3722 
 3831000   0.62963632   -8.7889484    519.77149  0.011306262  0.010072033         3764 
 3832000   0.64072121   -8.7944478    519.04879  0.011287595  0.010067765         3740 
 3833000   0.62010195   -8.7745306    520.41306  0.011314311  0.010063504         3761 
 3834000    0.6453073   -8.7926344    520.03643  0.011303174  0.010059243         3787 
 3835000   0.64006159   -8.7814028    519.87658  0.011296753  0.010054982         3756 
 3836000    0.6420181   -8.7853944    520.61726  0.011309899  0.010050726         3740 
 3837000   0.64063949   -8.7876714     520.1892  0.011297654  0.010046473         3729 
 3838000   0.63723688   -8.7814101    520.35613  0.011298335  0.010042217         3712 
 3839000   0.63551876   -8.7938616    519.26162  0.011271634  0.010037964         3771 
 3840000    0.6427798   -8.7832784    519.55037  0.011274965  0.010033716         3753 
 3841000   0.65355019   -8.7633435     521.6003  0.011316504   0.01002947         3710 
 3842000   0.64624388   -8.7892611    520.57605  0.011291342  0.010025228         3761 
 3843000   0.63226835   -8.7832034    520.63905   0.01128977  0.010020985         3716 
 3844000   0.64920401   -8.7742356     519.6491  0.011265373  0.010016742         3733 
 3845000   0.63856137   -8.7947552    519.27147  0.011254258  0.010012504         3736 
 3846000   0.64852433    -8.791848    520.16015  0.011270587  0.010008269         3680 
 3847000   0.64602253   -8.7917342      519.334  0.011249762  0.010004036         3760 
 3848000   0.63386635   -8.7947652    519.91568  0.011259435 0.0099998078         3748 
 3849000   0.62942974   -8.8017334    520.77001  0.011275007 0.0099955818         3735 
 3850000   0.62978101    -8.806731    519.43109  0.011243097 0.0099913559         3717 
 3851000   0.63325849   -8.7487862    520.08838  0.011254401 0.0099871347         3708 
 3852000   0.64697574   -8.7989701    520.26245  0.011255245 0.0099829179         3712 
 3853000   0.63489628   -8.7757802    519.34789  0.011232544 0.0099786983         3725 
 3854000   0.63406721   -8.7725926    520.01651  0.011244087 0.0099744817         3721 
 3855000   0.63926618   -8.7910809     520.2637  0.011246513 0.0099702695         3751 
 3856000   0.63211333   -8.8136921    520.28953  0.011244155 0.0099660581         3732 
 3857000    0.6253473   -8.7937547    520.06903  0.011236475 0.0099618458         3732 
 3858000   0.62733958   -8.8043221    519.17377  0.011214225  0.009957637         3768 
 3859000   0.61543957   -8.7860655    520.63532  0.011242881 0.0099534326         3741 
 3860000   0.64067725    -8.804407    520.77465  0.011242976 0.0099492311         3726 
 3861000   0.63054717   -8.7972554    519.97038  0.011222705 0.0099450332         3716 
 3862000   0.62773524   -8.8124025    519.62627  0.011212374 0.0099408343         3703 
 3863000    0.6453133   -8.7841412    519.69324  0.011210916 0.0099366408         3743 
 3864000   0.62960039   -8.7943762    519.35594  0.011200741 0.0099324483         3760 
 3865000   0.63340003   -8.7828051    519.42035  0.011199231 0.0099282622         3762 
 3866000   0.62989923   -8.7695882    520.41189  0.011217708 0.0099240755         3753 
 3867000   0.63326766   -8.7852744    520.05063  0.011207022 0.0099198892         3738 
 3868000   0.63359366   -8.7786819     519.3939  0.011189975 0.0099157064         3753 
 3869000    0.6401178    -8.805157    519.41606  0.011187561 0.0099115283         3726 
 3870000   0.62496241   -8.7863533    520.77175  0.011213862 0.0099073453         3690 
 3871000   0.64293464   -8.7940896    520.75498  0.011210604 0.0099031665         3729 
 3872000   0.62386727   -8.8074132    520.26131  0.011197084 0.0098989926         3734 
 3873000   0.63917971   -8.7828101     520.3403  0.011195892 0.0098948225         3714 
 3874000   0.63152206   -8.7784184    519.96071  0.011184837  0.009890652         3707 
 3875000    0.6320493   -8.8136452    519.69003   0.01117613 0.0098864865         3784 
 3876000   0.63374124   -8.8070438    518.73703  0.011152757 0.0098823215         3745 
 3877000   0.62627646   -8.8071169     519.9943  0.011176904 0.0098781558         3745 
 3878000   0.63696795   -8.7866473    520.08085  0.011175882 0.0098739912         3732 
 3879000   0.63025573   -8.7743003    520.22042  0.011175999 0.0098698316         3725 
 3880000   0.63035708   -8.8203318    520.70208  0.011183464 0.0098656801         3774 
 3881000   0.64052643   -8.8246874    519.16934  0.011147671 0.0098615197         3754 
 3882000    0.6322885   -8.8003914    520.00807  0.011162804  0.009857367         3781 
 3883000   0.63280067   -8.8092363    519.30903  0.011144927 0.0098532155         3788 
 3884000   0.63245191   -8.7901978    520.74736  0.011172918 0.0098490699         3707 
 3885000   0.63410723    -8.810142    519.47915  0.011142839 0.0098449218         3740 
 3886000   0.63927009   -8.7979483    520.54218  0.011162768  0.009840775         3763 
 3887000   0.63041772   -8.7937462    519.91086  0.011146361 0.0098366301         3741 
 3888000   0.64549266   -8.8100822    519.71637  0.011139325 0.0098324916         3736 
 3889000   0.62845484   -8.7852664     521.2741   0.01116984 0.0098283503         3731 
 3890000   0.63279518   -8.8111481     519.4131  0.011127101 0.0098242167         3750 
 3891000   0.63279414   -8.7952736    519.45048  0.011125042 0.0098200863         3761 
 3892000   0.62103379   -8.7877437      520.382  0.011142129 0.0098159554         3734 
 3893000   0.61839188   -8.8088325    519.66035   0.01112382 0.0098118278         3758 
 3894000   0.62008421   -8.8024323    520.78808  0.011145097 0.0098077028         3747 
 3895000   0.62230313   -8.7941936    520.08019   0.01112709 0.0098035766         3775 
 3896000   0.62549007   -8.8070192    519.74605  0.011117087 0.0097994574         3755 
 3897000    0.6247247   -8.8014591    518.75543  0.011093051 0.0097953363         3763 
 3898000   0.62112578   -8.7998527    520.11262   0.01111922 0.0097912178         3751 
 3899000   0.63882764   -8.8071675    520.01553  0.011114293 0.0097871032         3768 
 3900000   0.63103142   -8.7909004    520.71765  0.011126446 0.0097829926         3713 
 3901000   0.62356957   -8.8197927    518.91969  0.011085185 0.0097788861         3767 
 3902000   0.63232476   -8.8011252    519.85794  0.011102382 0.0097747777         3743 
 3903000   0.62755306   -8.7948734    519.60571  0.011094152 0.0097706725         3784 
 3904000   0.64240579   -8.7995938    519.38049  0.011086503 0.0097665693         3709 
 3905000   0.61375577   -8.8189308    518.41373  0.011063033 0.0097624642         3760 
 3906000    0.6201401   -8.8160378    519.22308  0.011077468 0.0097583631         3765 
 3907000   0.62388589   -8.7979033    519.94619  0.011090056 0.0097542673         3783 
 3908000   0.61861968   -8.7984494    520.67595   0.01110278 0.0097501695         3732 
 3909000   0.63093365    -8.813376    519.34712  0.011071611  0.009746074         3753 
 3910000   0.63139162    -8.815336    519.55073  0.011073119 0.0097419865         3748 
 3911000   0.61417167   -8.8330198    519.02621  0.011059111 0.0097378973         3721 
 3912000   0.62280397   -8.7992494    519.10738  0.011058013 0.0097338114         3757 
 3913000   0.61173045     -8.82255    519.11014  0.011055246 0.0097297267         3730 
 3914000   0.64331169   -8.8045122     520.6836  0.011085922 0.0097256444         3736 
 3915000   0.63071238   -8.8048087    519.71784  0.011062534 0.0097215678         3762 
 3916000   0.62755842   -8.7966138    520.07668  0.011067345 0.0097174923         3768 
 3917000   0.63107057   -8.8210413    519.61632  0.011054726 0.0097134137         3777 
 3918000   0.61890547   -8.8052368    519.92722  0.011058517 0.0097093434         3755 
 3919000   0.62575839   -8.8143133    519.28297  0.011041996 0.0097052731         3760 
 3920000   0.63935769   -8.8106176    519.83644  0.011050945 0.0097012025         3778 
 3921000   0.62266494   -8.7971964     518.8254  0.011026639 0.0096971358         3761 
 3922000   0.64096853   -8.8131497    520.30668  0.011055301 0.0096930731         3771 
 3923000   0.63714171   -8.8142157    519.09634  0.011026772 0.0096890089         3775 
 3924000   0.63559303     -8.79985     519.9584   0.01104227 0.0096849502         3788 
 3925000   0.63621668   -8.8014095    519.46363  0.011028952 0.0096808929         3748 
 3926000    0.6260075   -8.8190948    519.78969  0.011033064 0.0096768402         3764 
 3927000   0.61487042   -8.8054334    519.56088  0.011025399 0.0096727902         3770 
 3928000   0.62718532   -8.7853828    520.33428  0.011038999 0.0096687401         3779 
 3929000     0.628292    -8.807444    519.52482  0.011019021  0.009664691         3751 
 3930000   0.62277122   -8.8085041    519.42722  0.011014148 0.0096606445         3750 
 3931000   0.63067146   -8.8087264    519.47845  0.011012432 0.0096565993         3775 
 3932000   0.62246882   -8.8121886    518.92856  0.010997977 0.0096525579         3749 
 3933000   0.62137786   -8.7993522    519.37382  0.011004615 0.0096485199         3744 
 3934000   0.62050661   -8.8055957    519.46535  0.011003757  0.009644485         3800 
 3935000   0.62730695   -8.8243257    519.52188  0.011002158 0.0096404429         3785 
 3936000   0.62405498   -8.8328815    520.17253  0.011013138 0.0096364115         3755 
 3937000   0.63059985    -8.805734    519.72634  0.011000896 0.0096323798         3749 
 3938000   0.61465341   -8.8146107    518.80074  0.010978516 0.0096283465         3772 
 3939000   0.62444434   -8.8110796    519.10072  0.010982075 0.0096243222         3737 
 3940000   0.62008285   -8.8028507     519.8163  0.010994423 0.0096202967         3727 
 3941000   0.60727112   -8.8378108    519.04604  0.010975346  0.009616273         3783 
 3942000   0.61186229   -8.7971468    519.81851  0.010988891 0.0096122528         3757 
 3943000   0.61153391   -8.8195639     519.2666   0.01097444 0.0096082344         3728 
 3944000    0.6150616   -8.8227222    519.20252  0.010970303 0.0096042177         3727 
 3945000    0.6269497   -8.8011156    519.86493  0.010981515 0.0096002056         3745 
 3946000   0.62738261   -8.8021194    519.26822  0.010966131 0.0095961938         3784 
 3947000    0.6276253    -8.815648    519.39356  0.010965999 0.0095921827         3783 
 3948000   0.61916699   -8.8089108     519.8157  0.010972132 0.0095881754         3766 
 3949000   0.61732418   -8.8296316    518.48632    0.0109413 0.0095841672         3779 
 3950000   0.63319586   -8.8206046       518.69  0.010942827 0.0095801617         3744 
 3951000   0.62493604   -8.8146291    519.08267  0.010948339 0.0095761583         3759 
 3952000   0.61567299     -8.82147    519.16254  0.010947253 0.0095721572         3775 
 3953000   0.61902426    -8.814585    519.65807   0.01095493 0.0095681576         3765 
 3954000    0.6339498   -8.8088982    519.64512  0.010951887 0.0095641658         3759 
 3955000   0.61780151   -8.8265902    519.58074  0.010947761 0.0095601746         3741 
 3956000   0.60263768     -8.80215    519.78215  0.010949236 0.0095561854         3743 
 3957000   0.61347001     -8.81238    519.93037  0.010949591  0.009552196         3753 
 3958000   0.62837563    -8.827106    519.76517  0.010943346 0.0095482062         3760 
 3959000   0.61172486   -8.8134579    519.09663   0.01092651 0.0095442187         3702 
 3960000   0.62410387    -8.801238    520.12331  0.010945356 0.0095402414         3763 
 3961000    0.6103699   -8.8211374    519.85326  0.010936911 0.0095362634         3784 
 3962000   0.62634223    -8.817059    519.03319  0.010916902 0.0095322861         3735 
 3963000    0.6108873   -8.8017455    519.64487   0.01092701 0.0095283085         3717 
 3964000    0.6380627   -8.8240521    519.00697  0.010910843 0.0095243361         3787 
 3965000   0.62867531   -8.8236193     519.0252  0.010908474 0.0095203676         3753 
 3966000   0.61792548   -8.8336457    518.63925  0.010897614 0.0095163991         3779 
 3967000   0.61494824    -8.829139    518.25324  0.010886758 0.0095124346         3771 
 3968000   0.62526345      -8.8379    518.51977  0.010889612 0.0095084699         3758 
 3969000   0.61644188   -8.8038806    518.99727  0.010896894 0.0095045068         3758 
 3970000   0.62236382   -8.8108687    519.40987   0.01090281 0.0095005496         3749 
 3971000    0.6187484   -8.8295013    519.10855  0.010893741 0.0094965912         3755 
 3972000    0.6115761   -8.8379777     518.6326  0.010881013 0.0094926364         3762 
 3973000   0.62863956   -8.8354128    518.48108  0.010875096 0.0094886808         3772 
 3974000   0.60581109   -8.8218876    519.54935  0.010894761 0.0094847319         3728 
 3975000   0.62178999   -8.8375131    519.86887  0.010898718 0.0094807828         3771 
 3976000   0.59397029   -8.8141785    519.36691  0.010885457 0.0094768371         3747 
 3977000    0.6187675   -8.8275738    519.36015  0.010882578 0.0094728904         3769 
 3978000   0.60430749   -8.8165751    519.57153   0.01088427 0.0094689477         3775 
 3979000   0.61328643   -8.8309496    517.79059  0.010844236 0.0094650083         3766 
 3980000   0.61665715   -8.8054999    519.57059  0.010878781 0.0094610716         3763 
 3981000    0.6118444   -8.8153645     519.7647  0.010880112 0.0094571352         3792 
 3982000   0.61987624   -8.8252695    520.25974  0.010887739 0.0094532035         3736 
 3983000   0.61250962   -8.8239999    518.22733  0.010842483 0.0094492752         3786 
 3984000   0.62460106   -8.8244625    519.80729   0.01087281 0.0094453481         3740 
 3985000   0.61977831   -8.8206159    519.87654  0.010871529 0.0094414175         3735 
 3986000   0.61794006   -8.8194775    520.09859  0.010873444 0.0094374922         3760 
 3987000   0.62804061   -8.8170501    519.59286  0.010860147 0.0094335712         3793 
 3988000    0.6195678   -8.7926932    520.08373  0.010867681 0.0094296514         3770 
 3989000   0.60620872    -8.824259     519.6237  0.010855346 0.0094257331         3780 
 3990000   0.59673845   -8.8339067    519.00277  0.010839657 0.0094218156         3745 
 3991000   0.60874022   -8.8168367    519.88675  0.010855399 0.0094179023         3770 
 3992000    0.6215465   -8.8219422    518.87476  0.010831554 0.0094139886         3786 
 3993000   0.62423427   -8.8273294    517.82833  0.010807003  0.009410077         3745 
 3994000   0.62061705   -8.8250333    519.66304  0.010842577 0.0094061686         3771 
 3995000   0.61062109    -8.829877    518.59619  0.010817609 0.0094022632         3794 
 3996000   0.60967643   -8.8332883    519.78882  0.010839774 0.0093983591         3756 
 3997000   0.61018329   -8.8232225    518.59979  0.010812272 0.0093944595         3738 
 3998000   0.61717899   -8.8089471    519.22031  0.010822501 0.0093905572         3733 
 3999000   0.60843593    -8.841903    518.22073  0.010798965 0.0093866635         3773 
 4000000   0.61987328    -8.818706    519.76109  0.010828356 0.0093827694         3777 
 4001000   0.61209997   -8.8018555    519.19889   0.01081394 0.0093788788         3771 
 4002000   0.59638682   -8.8158623    519.00975    0.0108073 0.0093749909         3775 
 4003000   0.61156113   -8.8103782    519.11419  0.010806774 0.0093711052         3763 
 4004000   0.61259163   -8.8436306      519.559  0.010813332 0.0093672195         3769 
 4005000   0.61097265   -8.8398594    518.68133   0.01079237 0.0093633414         3770 
 4006000     0.611303   -8.8112061    518.90757  0.010794383 0.0093594628         3716 
 4007000   0.60421636   -8.8089864     519.7251  0.010808691 0.0093555835         3771 
 4008000   0.61311902   -8.8223634     518.2973  0.010776308  0.009351706         3749 
 4009000   0.61916095    -8.837463    519.07798  0.010789847 0.0093478298         3753 
 4010000   0.61624916   -8.8291581     518.5294  0.010775756 0.0093439549         3778 
 4011000   0.60104952   -8.8530621    518.65329  0.010775644 0.0093400808         3764 
 4012000   0.59511708   -8.8314824      519.241  0.010785165 0.0093362091         3750 
 4013000   0.60601527   -8.8197276     518.6823  0.010770876 0.0093323443         3790 
 4014000    0.6211461   -8.8020205    519.49943  0.010785157 0.0093284772         3772 
 4015000   0.59780572   -8.8386599    519.47184  0.010781898 0.0093246155         3760 
 4016000   0.62306277   -8.8359798    519.28779  0.010775394  0.009320755         3765 
 4017000   0.62069763   -8.8344186    519.33369  0.010773664 0.0093168966         3775 
 4018000   0.60247162   -8.8270833    518.80078   0.01075993 0.0093130407         3709 
 4019000    0.5993982   -8.8426169    519.37995  0.010769262 0.0093091873         3742 
 4020000   0.61210578   -8.8325718     519.4718  0.010768487 0.0093053328         3779 
 4021000   0.61526273   -8.8121624    519.48965  0.010766179 0.0093014847         3749 
 4022000   0.61356619   -8.8179764     519.5141  0.010764008 0.0092976376         3720 
 4023000   0.59388611   -8.8487658    519.30693  0.010757041 0.0092937923         3789 
 4024000   0.61114821   -8.8143775     519.0843  0.010749758 0.0092899474         3776 
 4025000   0.60412819    -8.848322    519.54395  0.010756604 0.0092861061         3779 
 4026000   0.61599327   -8.8298938    519.23969  0.010747634 0.0092822652         3769 
 4027000   0.61652077   -8.8168743    519.16329  0.010743384  0.009278427         3752 
 4028000   0.60968029   -8.8389987    518.35418  0.010723978 0.0092745903         3765 
 4029000   0.60723973   -8.8411061    518.42228  0.010722724 0.0092707549         3714 
 4030000   0.60668198   -8.8311051    518.59054  0.010723543 0.0092669197         3740 
 4031000     0.617274   -8.8242577    518.57108   0.01072048  0.009263089         3758 
 4032000   0.61363723   -8.8311412    518.62199  0.010718874 0.0092592574         3776 
 4033000   0.59829359   -8.8364684    518.93757  0.010722737 0.0092554299         3765 
 4034000   0.60210116   -8.8390412     519.4034  0.010729702 0.0092516044         3769 
 4035000   0.60477447   -8.8227612    518.76355  0.010713828 0.0092477833         3774 
 4036000    0.5990439   -8.8428956    518.02679  0.010695961 0.0092439639         3732 
 4037000   0.59924283   -8.8283961    518.82336  0.010709755 0.0092401469         3780 
 4038000   0.59860911   -8.8279492    518.70942  0.010704751 0.0092363347         3744 
 4039000   0.61350545   -8.8366842     518.5067  0.010697918  0.009232521         3760 
 4040000   0.60713176   -8.8452478    518.54098  0.010695977 0.0092287069         3756 
 4041000   0.59237664   -8.8287115    518.41437   0.01069072  0.009224899         3743 
 4042000   0.61206347   -8.8401455    519.28602  0.010706045 0.0092210955         3758 
 4043000   0.60780689     -8.82608    518.62047  0.010689679 0.0092172931         3764 
 4044000   0.60209317   -8.8346746    518.93069  0.010693428 0.0092134871         3767 
 4045000   0.61888622   -8.8506647    518.56763  0.010683305 0.0092096919         3781 
 4046000   0.60547929   -8.8429249    518.76574  0.010684745 0.0092058919         3758 
 4047000   0.59431138   -8.8443649    518.46304  0.010675872 0.0092020937         3773 
 4048000   0.60875596    -8.829268    518.58196  0.010675683 0.0091982983         3761 
 4049000   0.59452239   -8.8223749    518.57217  0.010672844 0.0091945085         3768 
 4050000    0.6004779    -8.814457    519.56901   0.01069072 0.0091907182         3802 
 4051000   0.61038953   -8.8493105    519.15195  0.010679502 0.0091869273         3790 
 4052000   0.60844187   -8.8373995    518.49545  0.010663365 0.0091831393         3797 
 4053000   0.60136991   -8.8425968    519.56008  0.010682624 0.0091793519         3785 
 4054000   0.60768879   -8.8291118    519.13456  0.010671242 0.0091755712         3791 
 4055000   0.60807737   -8.8352671    518.53654   0.01065632  0.009171794         3774 
 4056000    0.6024696   -8.8509657    518.97844  0.010662772 0.0091680183         3785 
 4057000   0.60129271   -8.8597845    518.40214  0.010648306 0.0091642425         3779 
 4058000   0.59567472   -8.8439209    518.58248  0.010649386 0.0091604691         3768 
 4059000   0.61465262   -8.8475765    518.68079   0.01064878 0.0091566973         3785 
 4060000   0.59921526   -8.8486522    520.03731  0.010674001 0.0091529243         3763 
 4061000   0.58955368   -8.8327503     518.9582  0.010649228 0.0091491536         3771 
 4062000    0.6000179   -8.8507825    519.01997  0.010647874 0.0091453832         3811 
 4063000   0.59708345   -8.8467414    518.17625  0.010627948 0.0091416193         3735 
 4064000   0.61099831   -8.8382818    518.96542  0.010641515 0.0091378515         3745 
 4065000   0.57954525   -8.8351581    518.18489  0.010622896 0.0091340929         3758 
 4066000   0.59500225   -8.8418281    519.27741  0.010642675 0.0091303305         3772 
 4067000   0.59546518   -8.8526631     518.7735  0.010629733 0.0091265727         3809 
 4068000   0.59909862   -8.8499885    518.55828  0.010622711 0.0091228177         3780 
 4069000   0.60235085   -8.8330225    518.58938  0.010620738 0.0091190669         3755 
 4070000   0.61122744   -8.8591981    518.81779  0.010622805 0.0091153171         3782 
 4071000   0.59116218   -8.8434737    517.72479  0.010597822 0.0091115659         3775 
 4072000   0.61256297   -8.8410861    518.36304  0.010608281  0.009107819         3794 
 4073000   0.59759076   -8.8281506    517.98365  0.010597914 0.0091040737         3759 
 4074000   0.60180258   -8.8296694    518.58545  0.010607623  0.009100328         3781 
 4075000   0.59581556   -8.8435571    518.96636  0.010612809 0.0090965853         3742 
 4076000   0.59058616    -8.830135    519.40903  0.010619256 0.0090928434         3769 
 4077000   0.60290619   -8.8456607    517.42637  0.010576126 0.0090891071         3750 
 4078000   0.60176376   -8.8615169    518.12405  0.010587789 0.0090853745         3763 
 4079000   0.60442992   -8.8681349    518.88425  0.010600724 0.0090816419         3772 
 4080000   0.61051459   -8.8321257    518.61123   0.01059255 0.0090779123         3765 
 4081000   0.59612138   -8.8512042    518.94797   0.01059683 0.0090741845         3749 
 4082000   0.59522726   -8.8376622    518.86493  0.010592539 0.0090704564         3759 
 4083000   0.59469412   -8.8382229    517.45705   0.01056121 0.0090667312         3763 
 4084000   0.59970764   -8.8560576    517.83979  0.010566434 0.0090630053         3789 
 4085000    0.5966389   -8.8531672    518.83212  0.010584091 0.0090592809         3767 
 4086000   0.60869551   -8.8408003    517.61547  0.010556687 0.0090555622         3800 
 4087000   0.58851278   -8.8589228     517.6536  0.010554881 0.0090518429         3814 
 4088000   0.60155875    -8.852368     517.9623  0.010558592 0.0090481284         3789 
 4089000   0.58899609   -8.8276867    518.12602  0.010559347 0.0090444158         3808 
 4090000   0.59832353   -8.8602727    518.14029  0.010557056 0.0090407056         3786 
 4091000   0.59426363   -8.8542195    517.98581  0.010551328 0.0090369962         3791 
 4092000   0.59235429   -8.8343187     518.2139  0.010553395 0.0090332922         3779 
 4093000    0.5962656   -8.8519427    518.53044  0.010557261 0.0090295871         3773 
 4094000   0.59220322   -8.8346275    518.71977  0.010558536 0.0090258835         3756 
 4095000   0.59385886   -8.8365872    519.07522  0.010563191 0.0090221802         3766 
 4096000   0.59706664     -8.85861    517.98698  0.010538472 0.0090184822         3784 
 4097000   0.59299616   -8.8486513    518.21629  0.010540564 0.0090147854         3730 
 4098000   0.58097968   -8.8531734    518.34296  0.010540568 0.0090110876         3747 
 4099000   0.60238047   -8.8651629    518.23193  0.010535739 0.0090073944         3807 
 4100000   0.59652951   -8.8444423    518.43414  0.010537279 0.0090037004         3766 
 4101000   0.59303786   -8.8657555    518.13225  0.010528575 0.0090000091         3804 
 4102000   0.58810617   -8.8533391    517.72422  0.010517719 0.0089963239         3736 
 4103000   0.58801647   -8.8633897    518.28996  0.010526646 0.0089926386         3788 
 4104000   0.59854292   -8.8629049    518.45803  0.010527494 0.0089889533         3764 
 4105000   0.60360874   -8.8503972    518.55323  0.010526862 0.0089852707         3782 
 4106000    0.5828966   -8.8417795    517.76584  0.010508318 0.0089815915         3770 
 4107000   0.57375286   -8.8678153    517.75837  0.010505608 0.0089779129         3765 
 4108000   0.59680623   -8.8459256    518.19737  0.010511956 0.0089742379         3776 
 4109000   0.59801655   -8.8564714    518.66045  0.010518789 0.0089705616         3784 
 4110000   0.59567889   -8.8704146     517.6351   0.01049544   0.00896689         3781 
 4111000   0.59534775   -8.8641631    517.14124  0.010482876 0.0089632186         3758 
 4112000   0.59659451   -8.8645792    518.19711  0.010501725 0.0089595548         3756 
 4113000   0.59412904   -8.8658038     518.2123  0.010499479 0.0089558913         3755 
 4114000   0.60588856   -8.8535288    518.17221  0.010496115 0.0089522275         3784 
 4115000   0.60474457   -8.8462592    518.83857  0.010507059 0.0089485668         3738 
 4116000   0.58529514   -8.8499454    518.01293   0.01048779 0.0089449077         3735 
 4117000   0.58971456   -8.8574345    518.77015   0.01050057 0.0089412523         3754 
 4118000   0.56835273   -8.8572899    518.03476  0.010483138 0.0089375982         3750 
 4119000   0.58470742   -8.8689184    518.33611   0.01048669 0.0089339412         3729 
 4120000   0.57839517     -8.85038    517.84886  0.010474289 0.0089302904         3775 
 4121000   0.57487263   -8.8325153    518.67765  0.010488507 0.0089266383         3781 
 4122000   0.57301921   -8.8655482    518.17777  0.010475857 0.0089229898         3749 
 4123000    0.5981692   -8.8450204    518.21849  0.010474139 0.0089193446         3757 
 4124000   0.60202562   -8.8633514    517.65102  0.010460132 0.0089156974         3773 
 4125000   0.58311998   -8.8610635    518.86559  0.010482133  0.008912058         3769 
 4126000   0.59832692   -8.8711254    517.93149  0.010460727 0.0089084136         3788 
 4127000   0.58519314   -8.8439228    518.33717  0.010466383 0.0089047745         3770 
 4128000   0.58786995   -8.8718768    518.09982  0.010459056  0.008901137         3763 
 4129000   0.57713926   -8.8528142    518.94607  0.010473603 0.0088975047         3740 
 4130000    0.5952815   -8.8577794    517.70498  0.010446025 0.0088938722         3779 
 4131000   0.59765347   -8.8532967    517.52778  0.010439921 0.0088902411         3781 
 4132000   0.59557614   -8.8717714    517.67607  0.010440385 0.0088866087         3769 
 4133000    0.5844372   -8.8594136     518.0642  0.010445685 0.0088829787         3780 
 4134000   0.58070693   -8.8651253    519.04035  0.010462836 0.0088793549         3764 
 4135000   0.60098461   -8.8526446    518.52428  0.010449905 0.0088757329         3746 
 4136000    0.5913927   -8.8567092    518.48037  0.010446494 0.0088721114         3810 
 4137000   0.59157935   -8.8530709    519.51311  0.010464771 0.0088684945         3738 
 4138000   0.59456197   -8.8507557    518.28765  0.010437563 0.0088648804         3755 
 4139000   0.58565309   -8.8350279    517.83724  0.010425973 0.0088612686         3770 
 4140000   0.59795754   -8.8594061    517.66437  0.010419975 0.0088576546         3796 
 4141000   0.59142806   -8.8728732    517.34923  0.010411117 0.0088540436         3756 
 4142000   0.59590391   -8.8720365    518.29842    0.0104277 0.0088504327         3795 
 4143000   0.58802317    -8.856838    517.08101  0.010400696 0.0088468255         3766 
 4144000   0.59184494   -8.8668734    518.45395  0.010425795 0.0088432212         3769 
 4145000   0.58799328   -8.8599929    518.37724  0.010421738 0.0088396213         3773 
 4146000   0.59646485   -8.8590769    518.92311  0.010430196 0.0088360217         3777 
 4147000   0.58795587   -8.8551347    518.45542  0.010418283 0.0088324242         3735 
 4148000   0.60286766   -8.8327552    517.87958  0.010404202 0.0088288264         3736 
 4149000   0.58928318   -8.8420097     517.3337  0.010390731 0.0088252311         3781 
 4150000   0.58693854   -8.8614872    518.37297  0.010409096 0.0088216385         3785 
 4151000   0.58149981   -8.8660524     517.5677  0.010390422 0.0088180455         3802 
 4152000   0.58938311   -8.8639833    518.24194  0.010401452 0.0088144545         3769 
 4153000   0.59481492   -8.8782005    518.24153  0.010398939 0.0088108668         3793 
 4154000   0.58675252   -8.8661754     517.5623   0.01038281 0.0088072772         3773 
 4155000   0.59979117   -8.8592292    518.02464  0.010389584 0.0088036958         3788 
 4156000   0.57864077    -8.877446    518.46353  0.010395884 0.0088001141         3738 
 4157000   0.59275816   -8.8462063    517.89754  0.010382037  0.008796534         3766 
 4158000   0.59751421   -8.8681834    518.04397  0.010382475 0.0087929556         3765 
 4159000   0.59491993   -8.8724629    517.35787  0.010366231 0.0087893803         3759 
 4160000   0.59274822   -8.8556153    516.69084  0.010350377 0.0087858072         3827 
 4161000   0.58778176   -8.8587799    517.43683   0.01036283  0.008782234         3771 
 4162000   0.59325603   -8.8720199    517.68442  0.010365298 0.0087786675         3786 
 4163000   0.59280864   -8.8620397    519.19031  0.010392952    0.0087751         3783 
 4164000   0.58443714   -8.8718569    517.96336  0.010365901  0.008771536         3737 
 4165000   0.57371021   -8.8673927    517.41013  0.010352344 0.0087679685         3751 
 4166000   0.58023808   -8.8462826    517.96844  0.010361027 0.0087644062         3751 
 4167000   0.57442341   -8.8690559    517.69354  0.010353043  0.008760849         3767 
 4168000   0.59058163   -8.8615231    518.10928  0.010358871 0.0087572882         3760 
 4169000    0.5841757   -8.8701978    518.34343  0.010361066 0.0087537313         3779 
 4170000   0.58936856    -8.875473    516.90065  0.010329749 0.0087501775         3779 
 4171000   0.58462896   -8.8611309     518.6159  0.010361542 0.0087466251         3799 
 4172000   0.58452892   -8.8838239    519.26676  0.010372059 0.0087430742         3771 
 4173000   0.57191848   -8.8606594     517.5686  0.010335662 0.0087395221         3760 
 4174000   0.57652069   -8.8777392    517.34541   0.01032873 0.0087359713         3769 
 4175000   0.57543408   -8.8852135     517.5058  0.010329457  0.008732424         3801 
 4176000   0.57673725   -8.8748349    517.40096  0.010324892 0.0087288776         3803 
 4177000    0.5880828   -8.8620966    517.18711  0.010318153 0.0087253343         3789 
 4178000   0.59497833   -8.8768014    518.35935  0.010339065 0.0087217939         3794 
 4179000   0.57933437   -8.8572701    518.76471  0.010344674 0.0087182542         3812 
 4180000   0.58601702   -8.8630598    518.20455  0.010331032 0.0087147172         3764 
 4181000   0.58125236   -8.8816728    518.18543   0.01032818 0.0087111837         3793 
 4182000   0.58268072   -8.8697144     517.5476     0.010313 0.0087076482         3783 
 4183000   0.58742145   -8.8613511    517.54987   0.01031058 0.0087041168         3739 
 4184000   0.59276493   -8.8770936    518.03734  0.010317825 0.0087005883         3794 
 4185000   0.57679787   -8.8688452    518.02317  0.010315077 0.0086970649         3771 
 4186000   0.57836672   -8.8707458    517.80411  0.010308252  0.008693538         3784 
 4187000   0.56982519   -8.8779474    517.57432  0.010301216 0.0086900121         3801 
 4188000   0.58622783   -8.8731069    517.55901  0.010298452 0.0086864916         3769 
 4189000   0.57998438   -8.8607602    517.68389  0.010298478 0.0086829702         3768 
 4190000   0.57807219   -8.8705763    518.20727  0.010306429  0.008679452         3816 
 4191000   0.59035453   -8.8753956    517.40856  0.010288089 0.0086759331         3798 
 4192000   0.58043476   -8.8731327    517.47136  0.010286883 0.0086724198         3788 
 4193000   0.57618191    -8.878875    518.10895  0.010297101 0.0086689078         3774 
 4194000   0.57782238   -8.8924308    518.12278  0.010294921  0.008665397         3768 
 4195000   0.58088324   -8.8780797    517.90376  0.010288116 0.0086618848         3793 
 4196000   0.58393393   -8.8665981    517.93023   0.01028619 0.0086583756         3769 
 4197000   0.57867112   -8.8773188    517.39902  0.010273191 0.0086548665         3740 
 4198000   0.56302175   -8.8860465    517.81043  0.010278911 0.0086513633         3794 
 4199000   0.58890165    -8.879567    518.45806  0.010289316 0.0086478612         3759 
 4200000   0.58565738   -8.8849595    517.45307  0.010266926 0.0086443603         3832 
 4201000   0.58485671   -8.8801642    517.84298  0.010272217 0.0086408653         3817 
 4202000    0.5927014   -8.8841795     518.1334  0.010275532 0.0086373694         3804 
 4203000   0.57380129   -8.8864356    517.68271  0.010264151 0.0086338761         3778 
 4204000   0.57753128   -8.8741554    517.41483  0.010256399 0.0086303807         3800 
 4205000   0.57097987   -8.8810598    517.80508  0.010261694 0.0086268899         3793 
 4206000   0.58845991    -8.893386    517.14986  0.010246272 0.0086234016         3757 
 4207000   0.57543268   -8.8659827    517.22172   0.01024526 0.0086199141         3751 
 4208000   0.56868873   -8.8983953     517.2467   0.01024332 0.0086164262         3764 
 4209000   0.56876887   -8.8854049    518.18055  0.010259376 0.0086129449         3765 
 4210000   0.55899606   -8.8652369    518.69326  0.010267087  0.008609462         3784 
 4211000   0.56745073   -8.8887243    517.14347   0.01023398 0.0086059801         3798 
 4212000   0.57169572   -8.8859548    517.13755  0.010231433  0.008602503         3746 
 4213000   0.59114133   -8.8819389    517.19468  0.010230134 0.0085990252         3760 
 4214000   0.58839595   -8.8809743    517.89612  0.010241578 0.0085955519         3795 
 4215000   0.57845556   -8.8745679    517.76408  0.010236538  0.008592078         3785 
 4216000   0.57284273   -8.8732266    518.32759  0.010245248 0.0085886085         3761 
 4217000     0.569941   -8.8854299    518.54756  0.010247165 0.0085851389         3763 
 4218000     0.567277   -8.8889462    517.54086  0.010224847 0.0085816711         3780 
 4219000   0.57649276   -8.8829052    518.43878  0.010240159 0.0085782089         3781 
 4220000    0.5771837   -8.8866817    517.62405  0.010221644 0.0085747451         3781 
 4221000    0.5690976    -8.885981     518.0896  0.010228413 0.0085712835         3758 
 4222000   0.58193042   -8.8770016     517.3887  0.010212157  0.008567822         3782 
 4223000   0.58297975   -8.8743703    516.99104  0.010201891  0.008564363         3761 
 4224000   0.58185516     -8.88659    517.29192  0.010205412 0.0085609101         3804 
 4225000   0.58059924   -8.8920562    517.32559   0.01020366  0.008557457         3764 
 4226000   0.57908036    -8.878427    517.16214  0.010198023 0.0085540097         3765 
 4227000   0.57476578   -8.8960752    517.08588  0.010194107 0.0085505593         3724 
 4228000   0.56486388   -8.8818721    517.02918  0.010190578 0.0085471111         3773 
 4229000   0.56348435   -8.8807725    516.97873  0.010187175 0.0085436628         3795 
 4230000   0.55905606   -8.8574287    517.53057  0.010195638 0.0085402186         3740 
 4231000   0.57443897   -8.8712893    517.66434  0.010195863 0.0085367761         3774 
 4232000   0.55502227   -8.8812438    517.72095  0.010194568 0.0085333374         3744 
 4233000   0.57727548   -8.8852611    517.12192  0.010180367 0.0085298979         3766 
 4234000   0.56656074   -8.8780635    517.76706   0.01019066 0.0085264585         3743 
 4235000   0.57082086    -8.891825    517.80828  0.010189065  0.008523019         3734 
 4236000   0.57000139   -8.8941657    517.30476  0.010176754 0.0085195828         3770 
 4237000   0.55657366   -8.8884484     516.1981  0.010152586  0.008516149         3784 
 4238000   0.57312893   -8.8779855    516.63012  0.010158686 0.0085127157         3784 
 4239000   0.56861322     -8.90367    517.69363  0.010177196 0.0085092867         3805 
 4240000   0.55427758   -8.8838279    517.14246  0.010163963 0.0085058596         3774 
 4241000   0.55830668   -8.8983822    517.49777  0.010168549 0.0085024313         3780 
 4242000   0.56412821   -8.8844161    517.74925  0.010171092 0.0084990073         3777 
 4243000   0.57734791   -8.9116336    516.62853  0.010146683 0.0084955881         3741 
 4244000    0.5713358   -8.9018484     515.9854  0.010131664 0.0084921656         3795 
 4245000   0.57232098   -8.8842982    517.09649  0.010151089 0.0084887477         3800 
 4246000   0.57114073   -8.8883692    517.88533  0.010164181 0.0084853292         3764 
 4247000   0.57116028   -8.9021468    517.02981  0.010145001 0.0084819113         3763 
 4248000   0.56527408   -8.9021912    517.36399  0.010149168 0.0084785006         3775 
 4249000   0.56515096   -8.9057119    517.53609  0.010150155 0.0084750899         3753 
 4250000    0.5743738   -8.9022417    517.19968   0.01014117 0.0084716808         3771 
 4251000   0.57388028    -8.896731    517.07628  0.010136366 0.0084682735         3774 
 4252000   0.58622952    -8.887403    516.47035  0.010122106 0.0084648673         3803 
 4253000   0.56925887   -8.9090255    516.48818  0.010120076 0.0084614631         3790 
 4254000   0.57554533   -8.8951303    517.86067  0.010144583 0.0084580601         3777 
 4255000   0.56762179   -8.9118623    517.09677  0.010127238 0.0084546622         3769 
 4256000   0.58366767    -8.884847     517.0073  0.010123107  0.008451264         3743 
 4257000   0.56181346   -8.8735272    517.73793  0.010135031 0.0084478701         3782 
 4258000   0.55694177   -8.8814618    516.59385   0.01011026 0.0084444744         3764 
 4259000   0.57167346   -8.8909525     517.8636  0.010132731 0.0084410833         3771 
 4260000   0.57028773   -8.8878774    517.33786  0.010120068 0.0084376916         3790 
 4261000   0.54702942   -8.8961796    516.99292  0.010110947 0.0084343055         3735 
 4262000   0.57822103   -8.9077266     517.1287  0.010111229 0.0084309177         3782 
 4263000   0.56414028   -8.8950695     517.0323  0.010106973  0.008427534         3794 
 4264000   0.56850033   -8.8767339    517.40593  0.010111905 0.0084241502         3776 
 4265000   0.57377773   -8.8825525    517.94859  0.010120137 0.0084207706         3753 
 4266000    0.5621404   -8.8770223    516.96658  0.010098581 0.0084173904         3779 
 4267000   0.57666441   -8.9028441    517.49778  0.010106589 0.0084140123         3776 
 4268000   0.56493853   -8.8964163    517.17317  0.010097883 0.0084106371         3765 
 4269000   0.57330266    -8.893268    516.88458  0.010089884 0.0084072632         3784 
 4270000   0.56022226   -8.9028096     517.0489  0.010090728 0.0084038935         3806 
 4271000   0.57318993   -8.9141285    517.46209  0.010096427 0.0084005211         3794 
 4272000   0.56416504   -8.8932692    516.98083  0.010084676 0.0083971529         3786 
 4273000   0.58305764   -8.8963398    517.71061  0.010096548 0.0083937863         3772 
 4274000    0.5656957   -8.8953917     516.3685  0.010068018   0.00839042         3795 
 4275000   0.56361651   -8.8984707    516.38449  0.010065975 0.0083870563         3794 
 4276000   0.56766825   -8.9207587    516.71033  0.010069971 0.0083836914         3800 
 4277000   0.56211737   -8.8894517    516.90346  0.010071379 0.0083803306         3804 
 4278000   0.56583278   -8.8832231    517.84871  0.010087438 0.0083769754         3765 
 4279000   0.55615589   -8.9037092     516.8796  0.010066207 0.0083736192         3777 
 4280000   0.57121105   -8.9104056    516.99503  0.010066103 0.0083702649         3811 
 4281000   0.56082003    -8.916751    517.57345  0.010075011 0.0083669103         3791 
 4282000   0.57452075   -8.9075505    517.36186   0.01006854 0.0083635607         3766 
 4283000   0.58522241   -8.8903108    517.31165  0.010065212 0.0083602075         3766 
 4284000   0.56396546   -8.9111349    517.78127  0.010071998 0.0083568605         3779 
 4285000   0.55427217   -8.8960122    517.06193  0.010055658 0.0083535145         3779 
 4286000    0.5655036   -8.8952399    517.44787  0.010060816 0.0083501673         3806 
 4287000   0.54076588   -8.8963088     516.2777  0.010035722 0.0083468237         3800 
 4288000   0.57364629    -8.898326    516.80099  0.010043552 0.0083434809         3844 
 4289000   0.56173302   -8.8871793    517.25067  0.010049947 0.0083401402         3811 
 4290000   0.56105742   -8.9120222    516.80605  0.010038968 0.0083368024         3793 
 4291000   0.56815094    -8.884525    517.18715  0.010044029 0.0083334664         3781 
 4292000   0.56715605   -8.8930505    517.48408  0.010047454 0.0083301328         3758 
 4293000   0.56398046   -8.8959523    515.82207  0.010012852 0.0083267989         3794 
 4294000   0.56664706   -8.9059666    516.61418  0.010025892 0.0083234698         3799 
 4295000   0.57003784   -8.8977843     516.7136  0.010025487   0.00832014         3797 
 4296000   0.57142464   -8.9113484    517.34284  0.010035359 0.0083168115         3798 
 4297000   0.56121647   -8.9050474    517.18536   0.01002997 0.0083134846         3776 
 4298000   0.57362253     -8.89332    517.23558   0.01002861 0.0083101599         3737 
 4299000    0.5650551   -8.8920105     516.9362  0.010020474 0.0083068398         3778 
 4300000   0.56080512    -8.904738    516.33653  0.010006522 0.0083035207         3772 
 4301000   0.56292626   -8.9092489    517.33308  0.010023504 0.0083002058         3772 
 4302000   0.55805059   -8.8994609    517.07674  0.010016208 0.0082968907         3819 
 4303000   0.55667228   -8.8985634    517.31806  0.010018554 0.0082935772         3763 
 4304000   0.56420676   -8.8933962    517.15898  0.010013146 0.0082902647         3778 
 4305000   0.55641289   -8.8901716    516.40525 0.0099962302 0.0082869566         3803 
 4306000   0.56752164   -8.8908665    516.30977  0.009992061 0.0082836496         3798 
 4307000   0.55989867   -8.9098156     516.9973  0.010003043 0.0082803436         3794 
 4308000   0.56156292   -8.9049476    517.02538  0.010001265 0.0082770389         3759 
 4309000   0.55371525   -8.9160103    516.67927 0.0099922501 0.0082737376         3776 
 4310000   0.55391595   -8.9018636    517.06407 0.0099973718 0.0082704343         3787 
 4311000   0.55818862   -8.9100237      516.676 0.0099875512 0.0082671325         3762 
 4312000   0.57228549    -8.919735    517.03787 0.0099922284 0.0082638356         3766 
 4313000   0.56073688   -8.9056988    517.23778 0.0099937743 0.0082605382         3811 
 4314000   0.56288845   -8.9118358    517.33407 0.0099933176 0.0082572425         3788 
 4315000   0.55147966   -8.8826098      517.363 0.0099915605 0.0082539494         3781 
 4316000   0.55619765   -8.8923388    516.63941 0.0099752744 0.0082506558         3803 
 4317000   0.55744685   -8.9107727    517.16623 0.0099831332 0.0082473671         3776 
 4318000   0.54943127   -8.8882793    516.54752 0.0099688806 0.0082440793         3785 
 4319000   0.56311602    -8.898585    516.78658 0.0099711851 0.0082407914         3787 
 4320000   0.57049593   -8.9064221    516.50381 0.0099634223 0.0082375066         3761 
 4321000   0.56391225   -8.9023435    516.20958 0.0099554421 0.0082342245         3771 
 4322000   0.55650446   -8.9214535    516.11075  0.009951233 0.0082309441         3761 
 4323000   0.56199394   -8.8923068    516.18964 0.0099504518 0.0082276657         3767 
 4324000    0.5475669   -8.9029985       516.69 0.0099577937 0.0082243871         3799 
 4325000   0.56068725   -8.9118055    517.06897 0.0099627933 0.0082211125         3802 
 4326000   0.56100996   -8.9148736    517.14353 0.0099619265  0.008217836         3762 
 4327000   0.54762708   -8.8891473    517.44191 0.0099653708 0.0082145621         3794 
 4328000   0.55809217   -8.9151468     516.9483  0.009953564 0.0082112881         3827 
 4329000   0.55781992   -8.9147272    517.26944 0.0099574468 0.0082080205         3811 
 4330000   0.56177933   -8.9312398    516.41769 0.0099387546 0.0082047521         3788 
 4331000   0.55256118   -8.8916292    517.06605 0.0099489351  0.008201485         3718 
 4332000   0.55429369   -8.9072957    517.67446 0.0099583423  0.008198219         3759 
 4333000   0.55742745    -8.917956    516.65758  0.009936487 0.0081949546         3807 
 4334000   0.56709269   -8.9001901    516.45565 0.0099303116 0.0081916915         3776 
 4335000   0.56413046   -8.9119339    516.34416 0.0099258777 0.0081884325         3765 
 4336000   0.55965156   -8.9136755    517.06146 0.0099373744 0.0081851789         3776 
 4337000   0.55678468   -8.8890039    517.10936 0.0099360034 0.0081819258         3771 
 4338000   0.56049456   -8.9159906     515.5824 0.0099043798  0.008178671         3761 
 4339000   0.55795884   -8.9132855    516.67396 0.0099230614 0.0081754203         3788 
 4340000   0.56074096   -8.9150362    516.45392   0.00991655 0.0081721735         3752 
 4341000   0.55734089   -8.9175382    517.00434 0.0099248318  0.008168926         3802 
 4342000   0.55432475   -8.9153423    516.83684 0.0099193314 0.0081656796         3812 
 4343000   0.55724323   -8.9168705    516.45397 0.0099097008 0.0081624354         3780 
 4344000   0.54360348   -8.9089633    516.45255 0.0099073924  0.008159195         3746 
 4345000   0.55016098   -8.9197063    517.10495 0.0099176247  0.008155955         3782 
 4346000   0.55155597   -8.8979223    516.36644 0.0099011818 0.0081527154         3755 
 4347000   0.55971088   -8.9096003    517.06166 0.0099122318 0.0081494756         3805 
 4348000   0.55305619   -8.9116333    516.36378 0.0098965765 0.0081462387         3736 
 4349000   0.54314849   -8.9258058    516.75699 0.0099018356 0.0081430032         3777 
 4350000   0.55804045   -8.9170327    516.83715 0.0099010949 0.0081397691         3789 
 4351000   0.58223122   -8.9011936    516.99687 0.0099018783 0.0081365383         3772 
 4352000   0.55455942   -8.9184271    516.00923 0.0098806915 0.0081333101         3769 
 4353000   0.54133751   -8.9212808    515.04787 0.0098600175 0.0081300793         3806 
 4354000   0.55555472   -8.9208706    516.19532 0.0098797144 0.0081268525         3781 
 4355000   0.54925164   -8.9282745    516.13161 0.0098762267 0.0081236247         3805 
 4356000   0.54847692   -8.9120898    517.28867 0.0098960948 0.0081204002         3767 
 4357000   0.57046436    -8.915457    517.23727 0.0098928405 0.0081171808         3783 
 4358000   0.55051705   -8.9181513    516.02207 0.0098673334 0.0081139603         3733 
 4359000   0.54818586   -8.9299118    516.60298 0.0098761754 0.0081107427         3785 
 4360000   0.53767582    -8.919684    516.80113 0.0098776975 0.0081075255         3764 
 4361000   0.54930147   -8.9060659    516.91333 0.0098775765 0.0081043081         3782 
 4362000    0.5494891   -8.9136665    517.01083 0.0098771746 0.0081010977         3789 
 4363000   0.55233575   -8.9301608    516.66608 0.0098683261 0.0080978906         3774 
 4364000   0.56689208   -8.9028348    517.04625 0.0098733243 0.0080946821         3780 
 4365000   0.55411882    -8.925096    516.00422 0.0098511687 0.0080914754         3785 
 4366000    0.5430651   -8.9205566    516.46944 0.0098577921 0.0080882705         3797 
 4367000   0.54759512   -8.9208988     516.4607  0.009855368 0.0080850659         3793 
 4368000   0.54194222   -8.9078144    515.87406 0.0098419197 0.0080818618         3785 
 4369000    0.5371542   -8.9212602    515.30604 0.0098288327 0.0080786572         3780 
 4370000   0.55106931   -8.9151493     515.8216  0.009836415 0.0080754573         3785 
 4371000   0.56445773   -8.9087461    516.31509  0.009843573 0.0080722619         3799 
 4372000   0.55152581   -8.9119758    516.07408 0.0098367277 0.0080690642         3774 
 4373000   0.55397071   -8.9154647    516.71559  0.009846703 0.0080658705         3776 
 4374000   0.55782381   -8.9285575    516.41296 0.0098386862  0.008062678         3790 
 4375000   0.55242224   -8.9214744    515.68102 0.0098224957 0.0080594868         3795 
 4376000   0.54034217    -8.913866    516.73903  0.009840399 0.0080562997         3788 
 4377000    0.5499172   -8.9438657    516.47617 0.0098331462 0.0080531135         3803 
 4378000   0.55138093   -8.9143604    516.99479 0.0098407718 0.0080499278         3779 
 4379000   0.55182363   -8.9119501    517.16895 0.0098418388 0.0080467441         3797 
 4380000   0.55087293   -8.9119212    517.00017 0.0098363808 0.0080435612         3782 
 4381000   0.53965644   -8.9184052    516.63818 0.0098272499 0.0080403789         3788 
 4382000   0.54938027   -8.9159994    516.72111 0.0098265843  0.008037201         3795 
 4383000   0.55678345   -8.9249962    516.30396 0.0098164111  0.008034023         3788 
 4384000   0.53573831   -8.9200783     516.9335 0.0098261386 0.0080308442         3795 
 4385000   0.55363553   -8.9171997    516.02569 0.0098066456 0.0080276688         3788 
 4386000    0.5369344   -8.9216315    515.59772 0.0097962782 0.0080244944         3782 
 4387000   0.55391477   -8.9188222    516.91047 0.0098189817 0.0080213233         3787 
 4388000   0.53140062   -8.9468436    515.63187 0.0097924618 0.0080181516         3793 
 4389000   0.54225105   -8.9280928    515.66547 0.0097908687 0.0080149832         3793 
 4390000    0.5435728   -8.8989017    516.24343 0.0097996096 0.0080118146         3795 
 4391000   0.54650999   -8.9234848    516.33659 0.0097991458 0.0080086504         3796 
 4392000   0.54139279   -8.9012474     516.2197 0.0097946968 0.0080054874         3746 
 4393000   0.55633893   -8.9240291    516.70573 0.0098016869 0.0080023241         3757 
 4394000   0.54322399   -8.9122927    516.82768  0.009801769 0.0079991644         3763 
 4395000   0.55217035   -8.9282607    516.56074 0.0097944774 0.0079960082         3796 
 4396000   0.55195706   -8.9265704     516.4361 0.0097898866  0.007992854         3810 
 4397000   0.55423394   -8.9238822    516.46702 0.0097882462 0.0079896965         3787 
 4398000   0.55790768   -8.9391952    516.41544 0.0097850433 0.0079865424         3820 
 4399000   0.54953091    -8.922156    516.45598 0.0097835867 0.0079833926         3782 
 4400000   0.52598137   -8.9301775    516.10525 0.0097747207 0.0079802384         3803 
 4401000   0.55233517   -8.9249396    517.61819 0.0098011473 0.0079770889         3752 
 4402000    0.5403212   -8.9332734    516.43061 0.0097764389 0.0079739426         3817 
 4403000   0.56721854   -8.9352428    515.89633 0.0097641064 0.0079707984         3796 
 4404000   0.55138039   -8.9233593    515.81631 0.0097603752 0.0079676582         3817 
 4405000   0.54033113   -8.9234496    515.95642 0.0097608101 0.0079645148         3773 
 4406000    0.5495976   -8.9294544    516.39861 0.0097669581 0.0079613759         3790 
 4407000   0.53568936    -8.924861    516.38694 0.0097645212 0.0079582353         3759 
 4408000   0.55671796   -8.9309124    515.87849 0.0097526938 0.0079550954         3791 
 4409000   0.54414432   -8.9019705    516.25069 0.0097575166 0.0079519611         3777 
 4410000   0.55527676   -8.9294457    516.46142 0.0097592861 0.0079488282         3771 
 4411000   0.55723812   -8.9256415    517.16543 0.0097703739 0.0079456976         3798 
 4412000   0.55988754   -8.9300663    516.35806 0.0097529099 0.0079425659         3783 
 4413000   0.55180362    -8.908836    515.94734 0.0097429439 0.0079394371         3790 
 4414000   0.55710198    -8.920241    516.22801 0.0097460356 0.0079363067         3819 
 4415000    0.5448461   -8.9209781    515.79678 0.0097356885 0.0079331784         3790 
 4416000   0.55560729   -8.9440967    516.18023 0.0097407199 0.0079300527         3793 
 4417000   0.53958547   -8.9392606    515.74372 0.0097302793   0.00792693         3834 
 4418000   0.53335354   -8.9200533    516.41625 0.0097407623 0.0079238092         3772 
 4419000   0.55263107   -8.9551737     515.8171 0.0097272592 0.0079206886         3792 
 4420000   0.54006263   -8.9200097     516.8442 0.0097444231 0.0079175694         3796 
 4421000   0.54144041   -8.9390833    515.74356 0.0097214725 0.0079144518         3796 
 4422000   0.54412434   -8.9271872    516.14014 0.0097267478 0.0079113394         3791 
 4423000   0.53891176   -8.9173294     516.2164 0.0097259853 0.0079082245         3763 
 4424000    0.5441774   -8.9388128    515.59663 0.0097121125  0.007905111         3784 
 4425000   0.53463382   -8.9427298    515.99185 0.0097173606 0.0079020021         3806 
 4426000   0.54674741   -8.9394262    515.50462 0.0097059914  0.007898893         3807 
 4427000   0.53863979    -8.926934    516.33419 0.0097194147 0.0078957845         3774 
 4428000   0.55827966   -8.9225296    516.01329 0.0097111805 0.0078926782         3789 
 4429000   0.54044766   -8.9301722    515.59518 0.0097011211 0.0078895732         3800 
 4430000   0.54832561   -8.9301158    516.40374  0.009714141 0.0078864729         3806 
 4431000   0.53418649   -8.9303136     515.9018 0.0097025089 0.0078833728         3824 
 4432000   0.54908956    -8.934125    516.18502  0.009705645 0.0078802734         3802 
 4433000   0.53391375   -8.9395953    516.33913 0.0097063525 0.0078771758         3804 
 4434000   0.54292346   -8.9230026    516.17504 0.0097010796 0.0078740799         3766 
 4435000   0.54700284    -8.938068    515.79079 0.0096916721 0.0078709865         3793 
 4436000   0.55152143   -8.9520744    515.39285 0.0096820117 0.0078678962         3821 
 4437000   0.54335517   -8.9270581    516.02289 0.0096916628 0.0078648064         3785 
 4438000    0.5416134   -8.9245719    516.72366 0.0097026374 0.0078617188         3787 
 4439000   0.54339309   -8.9333728    516.75768 0.0097010903 0.0078586311         3807 
 4440000   0.56663937   -8.9472694     516.1006 0.0096865728 0.0078555469         3813 
 4441000   0.53618195   -8.9352328    516.17298 0.0096857498 0.0078524639         3814 
 4442000   0.52738703   -8.9395496    516.13239 0.0096828079 0.0078493834         3801 
 4443000   0.53574936   -8.9452728    516.55428 0.0096885416  0.007846302         3823 
 4444000    0.5514318   -8.9175425    516.67481 0.0096886215 0.0078432196         3799 
 4445000   0.55131881   -8.9306213    516.34672  0.009680291 0.0078401431         3790 
 4446000    0.5439114   -8.9381834     515.0189 0.0096532258 0.0078370642         3818 
 4447000   0.53913807   -8.9512705    515.92264 0.0096679904 0.0078339919         3810 
 4448000   0.54480951   -8.9370532    515.93629 0.0096660727 0.0078309204         3793 
 4449000   0.54592151   -8.9309428    516.44457 0.0096734205  0.007827848         3793 
 4450000   0.54565209   -8.9281828    516.32176 0.0096689468 0.0078247774         3788 
 4451000   0.53701414   -8.9548894     516.1088 0.0096627875 0.0078217124         3782 
 4452000   0.52986087    -8.938111    516.80883 0.0096737203 0.0078186455         3794 
 4453000   0.53853524   -8.9306991    515.98671 0.0096561627 0.0078155805         3773 
 4454000   0.53143697   -8.9285494    516.29457 0.0096597547 0.0078125182         3796 
 4455000   0.54392829   -8.9374413    516.21348 0.0096560697 0.0078094541         3789 
 4456000   0.52585749   -8.9339566    516.76802 0.0096642733 0.0078063943         3801 
 4457000   0.53661455   -8.9201848    516.08047 0.0096492496 0.0078033351         3779 
 4458000   0.54710078   -8.9333901    516.02762 0.0096460973 0.0078002773         3761 
 4459000   0.54525642   -8.9297825    516.32001 0.0096493983 0.0077972228         3793 
 4460000    0.5503904   -8.9324237     516.0065 0.0096413771  0.007794171         3789 
 4461000   0.52980928   -8.9395194    516.56106 0.0096495751  0.007791122         3795 
 4462000   0.53883748   -8.9286798    515.54873 0.0096285061 0.0077880744         3811 
 4463000    0.5315251   -8.9409529    515.08461 0.0096176827 0.0077850262         3824 
 4464000   0.52542133   -8.9599678    514.34652 0.0096017496 0.0077819769         3797 
 4465000   0.53355361   -8.9450669    515.78258 0.0096264013 0.0077789303         3836 
 4466000     0.538107     -8.93221    515.65549 0.0096218743 0.0077758859         3783 
 4467000   0.53654177   -8.9394102    515.06484 0.0096087017 0.0077728451         3821 
 4468000    0.5322359   -8.9482483    515.86919 0.0096215531 0.0077698063         3787 
 4469000   0.53804043   -8.9571539    515.04725 0.0096040734 0.0077667691         3796 
 4470000   0.54850742   -8.9221797    515.83864 0.0096166785  0.007763735         3790 
 4471000   0.53680115   -8.9447992    516.13597 0.0096200696 0.0077606984         3768 
 4472000   0.53627491   -8.9397655    514.90563 0.0095949916  0.007757665         3793 
 4473000   0.54338758   -8.9465454    515.75016 0.0096085804 0.0077546342         3780 
 4474000   0.55312558   -8.9403736    514.91974 0.0095909652 0.0077516075         3785 
 4475000   0.54606292   -8.9524857    515.77225 0.0096046974 0.0077485803         3806 
 4476000   0.53330588   -8.9470434    516.08866 0.0096084425 0.0077455529         3821 
 4477000   0.52256373   -8.9422702    516.29667 0.0096101682  0.007742527         3790 
 4478000   0.53943725   -8.9430186    515.89772 0.0096005978 0.0077395017         3804 
 4479000   0.52903279   -8.9529421    516.02976  0.009600911 0.0077364813         3826 
 4480000   0.54746023   -8.9343411    515.95406 0.0095973597 0.0077334604         3792 
 4481000   0.53617086   -8.9517125      515.927 0.0095947147 0.0077304406         3818 
 4482000   0.54289939   -8.9461771    516.13023 0.0095963527 0.0077274248         3781 
 4483000   0.53657212   -8.9360201    516.45692 0.0096002847 0.0077244066         3768 
 4484000   0.53899734   -8.9374831    516.07337 0.0095910156 0.0077213903         3800 
 4485000   0.54085332   -8.9345898    515.44398 0.0095771828 0.0077183772         3785 
 4486000   0.53164954   -8.9539837    515.60816 0.0095780979  0.007715365         3765 
 4487000   0.53932351   -8.9436003    515.62479  0.009576272 0.0077123546         3780 
 4488000    0.5465889   -8.9391397    516.31384 0.0095869326 0.0077093481         3793 
 4489000   0.52137667   -8.9359102    515.77169 0.0095747325 0.0077063407         3733 
 4490000   0.54142594   -8.9433847    515.89356 0.0095748619  0.007703335         3805 
 4491000   0.53896537   -8.9453508    516.06901 0.0095759856 0.0077003315         3792 
 4492000   0.51494038   -8.9658686    515.60771 0.0095652959 0.0076973242         3804 
 4493000   0.53308376   -8.9331337    515.86012 0.0095678485 0.0076943216         3782 
 4494000   0.54191609   -8.9385216    514.55011 0.0095414277 0.0076913194         3814 
 4495000   0.53857753   -8.9456105    515.44164 0.0095558331 0.0076883197         3812 
 4496000   0.53766714   -8.9550237    514.93623   0.00954434 0.0076853222         3804 
 4497000   0.52699902   -8.9582091    515.63976 0.0095552547 0.0076823256         3795 
 4498000   0.53320674   -8.9494397     514.9935 0.0095411571 0.0076793317         3786 
 4499000   0.53450051   -8.9647724    515.95395 0.0095568265 0.0076763411         3795 
 4500000   0.52776687   -8.9559545    514.99018 0.0095368552 0.0076733503         3800 
 4501000   0.52516005    -8.945254    515.55305 0.0095451576 0.0076703603         3825 
 4502000    0.5356721    -8.949231      515.721 0.0095461462 0.0076673733         3812 
 4503000   0.51819842   -8.9454168    516.15074 0.0095519791 0.0076643856         3782 
 4504000   0.53701586   -8.9558645    516.10107 0.0095489393 0.0076614001         3818 
 4505000   0.53792259   -8.9447149    516.09559 0.0095467182 0.0076584162         3809 
 4506000   0.53868242   -8.9552447    514.38964 0.0095130499 0.0076554349         3811 
 4507000   0.53427603   -8.9366214    515.45348 0.0095306094 0.0076524527         3777 
 4508000   0.52197186   -8.9439989    515.25569 0.0095248389 0.0076494741         3778 
 4509000    0.5396353   -8.9633803    515.83181 0.0095333741 0.0076464961         3795 
 4510000    0.5386796   -8.9687585    516.15766 0.0095372811 0.0076435222         3800 
 4511000   0.54090372   -8.9491604    516.15943 0.0095351998 0.0076405504         3807 
 4512000   0.52622855   -8.9617495    514.33251 0.0094993445  0.007637578         3832 
 4513000   0.54029749   -8.9530274    515.65248 0.0095216132  0.007634609         3797 
 4514000   0.52839475   -8.9526133    516.47569 0.0095347012 0.0076316423         3800 
 4515000   0.53260963   -8.9526161    515.52107 0.0095149699  0.007628676         3804 
 4516000   0.52308661   -8.9647586     515.6099 0.0095145021 0.0076257104         3805 
 4517000    0.5161957   -8.9574933    515.87164 0.0095172246 0.0076227471         3782 
 4518000   0.52976094   -8.9453465     515.1732 0.0095022355 0.0076197844         3791 
 4519000   0.54038168   -8.9499834    515.72801 0.0095103638 0.0076168228         3795 
 4520000   0.51914381   -8.9695219    514.77869 0.0094907575 0.0076138623         3786 
 4521000   0.53241597   -8.9564042    515.27814 0.0094978645 0.0076109019         3832 
 4522000   0.53673777   -8.9488645    515.24476 0.0094951489 0.0076079447         3770 
 4523000   0.51115729   -8.9510277     515.2348  0.009492866 0.0076049894         3788 
 4524000   0.53362996   -8.9559529    515.94661 0.0095038795 0.0076020354         3805 
 4525000   0.52545814   -8.9420589    515.43334 0.0094923266 0.0075990841         3808 
 4526000   0.52335347   -8.9545888     515.1464 0.0094849463 0.0075961321         3807 
 4527000   0.52339852   -8.9568405    515.61796 0.0094915315  0.007593183         3765 
 4528000   0.53307522   -8.9625064    515.87727 0.0094942078 0.0075902353         3816 
 4529000   0.52317367   -8.9655816    515.18312 0.0094793391 0.0075872874         3822 
 4530000   0.53245119   -8.9538316    515.50955 0.0094832514 0.0075843456         3777 
 4531000   0.52457873     -8.96141    515.45588 0.0094801714 0.0075814014         3790 
 4532000   0.52693374   -8.9577984    515.82779 0.0094849181 0.0075784607         3792 
 4533000   0.52071198   -8.9402043    514.90666 0.0094658919 0.0075755213         3811 
 4534000   0.53215671   -8.9592909    514.97867 0.0094651277  0.007572582         3796 
 4535000   0.52716541   -8.9370461    515.69765 0.0094762522 0.0075696464         3804 
 4536000   0.53180388    -8.947115     514.8297 0.0094582177 0.0075667098         3817 
 4537000   0.53852122    -8.961505    514.95637 0.0094584595 0.0075637765         3781 
 4538000   0.53123206   -8.9626714    514.78919 0.0094533052 0.0075608431         3795 
 4539000    0.5170631   -8.9703181     514.7719  0.009450905 0.0075579115         3776 
 4540000    0.5233945   -8.9589468    515.52647 0.0094626738 0.0075549828         3804 
 4541000   0.52084917    -8.929162    515.67889  0.009463387 0.0075520539         3787 
 4542000   0.51713986   -8.9587753    515.98312 0.0094668854 0.0075491277         3802 
 4543000   0.51435596   -8.9543707    515.65003 0.0094586916  0.007546203         3800 
 4544000     0.524075   -8.9691083    515.18447 0.0094480719 0.0075432815         3804 
 4545000   0.52909091   -8.9690717    514.72095 0.0094374944 0.0075403574         3819 
 4546000   0.54036527   -8.9678425    515.23651 0.0094448693 0.0075374378         3794 
 4547000     0.514427   -8.9622288    515.17615 0.0094416859 0.0075345199         3790 
 4548000   0.52449569   -8.9577575    515.01306 0.0094366216 0.0075316035         3805 
 4549000   0.52368888   -8.9643883    515.08474 0.0094358603 0.0075286895         3785 
 4550000   0.51898213   -8.9515066    516.07829 0.0094519833 0.0075257752         3790 
 4551000   0.52718617   -8.9474041    515.05638 0.0094311942 0.0075228631         3808 
 4552000   0.51886807   -8.9531851    515.23519 0.0094323958 0.0075199517         3786 
 4553000   0.52128361   -8.9580373    515.44729 0.0094342062 0.0075170419         3784 
 4554000   0.50874834   -8.9624581     515.4553 0.0094322812 0.0075141343         3803 
 4555000   0.52236726   -8.9672932    515.65345 0.0094338354 0.0075112258         3788 
 4556000   0.52133002   -8.9699275    514.86419 0.0094173287 0.0075083208         3821 
 4557000   0.51874672   -8.9641916    515.24748 0.0094222712 0.0075054189         3791 
 4558000   0.52183737   -8.9607476    514.94546 0.0094146822 0.0075025183         3795 
 4559000   0.51233795   -8.9662616    515.23473 0.0094179047 0.0074996147         3796 
 4560000   0.51408316   -8.9609358    514.97039 0.0094110086 0.0074967152         3787 
 4561000    0.5294156   -8.9653713    515.02834  0.009410004  0.007493818         3782 
 4562000   0.52346048   -8.9496505    514.62511 0.0094005756 0.0074909243         3807 
 4563000   0.53054038   -8.9640557    515.69881 0.0094181242 0.0074880305         3776 
 4564000   0.52311064   -8.9774496    514.41358 0.0093925938 0.0074851373         3821 
 4565000   0.53208269   -8.9706051    515.11434 0.0094033285 0.0074822468         3816 
 4566000   0.51990952   -8.9745679    515.86992 0.0094150592 0.0074793581         3808 
 4567000   0.52828341   -8.9622982    515.48398 0.0094059555 0.0074764679         3783 
 4568000   0.51641379   -8.9608458    514.29797 0.0093822601 0.0074735793         3817 
 4569000   0.51708265   -8.9687489     514.5065 0.0093840101 0.0074706934         3823 
 4570000    0.5286993    -8.957231    515.94854  0.009408252 0.0074678096         3795 
 4571000   0.51710699   -8.9638549    514.55248 0.0093807423  0.007464927         3817 
 4572000   0.52021352   -8.9652314    514.94465 0.0093858386 0.0074620456         3795 
 4573000   0.52241639   -8.9694106    514.77765 0.0093807429 0.0074591641         3811 
 4574000   0.50454828   -8.9469497    515.82028 0.0093976876 0.0074562866         3807 
 4575000   0.51279026   -8.9641935    514.93785 0.0093795601 0.0074534087         3825 
 4576000   0.50968294    -8.981565    515.33729 0.0093847846 0.0074505325         3803 
 4577000   0.51109944   -8.9765706    515.11189 0.0093786303 0.0074476588         3805 
 4578000   0.52973482   -8.9727178    515.27999 0.0093796416 0.0074447876         3815 
 4579000   0.51663146   -8.9640284    515.34684 0.0093788097 0.0074419186         3812 
 4580000   0.51360002   -8.9711953    515.59882 0.0093813467 0.0074390514         3806 
 4581000   0.51994988   -8.9940978    514.32389 0.0093561065 0.0074361842         3823 
 4582000   0.53078132   -8.9584638    515.49174 0.0093753044 0.0074333183         3804 
 4583000   0.53653331   -8.9715087    515.00695 0.0093644437 0.0074304531         3826 
 4584000   0.51913349   -8.9737349     514.8921 0.0093603131 0.0074275906         3836 
 4585000   0.51419887   -8.9623151    515.72791 0.0093734625 0.0074247281         3807 
 4586000   0.52013271   -8.9690257    515.22791 0.0093623331  0.007421868         3775 
 4587000   0.51520989   -8.9586337    514.74269 0.0093514767 0.0074190064         3826 
 4588000   0.50590557   -8.9638086    514.85023 0.0093513918 0.0074161505         3804 
 4589000   0.51850649   -8.9750626    515.62767 0.0093634719 0.0074132947         3792 
 4590000   0.51437812   -8.9710989    515.22171 0.0093540615 0.0074104409         3795 
 4591000   0.51339787     -8.96591    515.55425 0.0093580601 0.0074075867         3813 
 4592000   0.50759324   -8.9590902    514.52284 0.0093373047 0.0074047351         3776 
 4593000   0.50576395   -8.9947959    514.87643 0.0093416872 0.0074018845         3801 
 4594000   0.51433218    -8.978072    515.41644 0.0093494493 0.0073990339         3808 
 4595000   0.51882301   -8.9707638    515.26794 0.0093447214 0.0073961889         3776 
 4596000   0.51046335   -8.9698756    515.08637 0.0093393961 0.0073933435         3800 
 4597000   0.52079389   -8.9852142    514.66026   0.00932964 0.0073904977         3819 
 4598000   0.51565525   -8.9754983    514.94718  0.009332811 0.0073876541         3818 
 4599000   0.51826246   -8.9678811    516.01459  0.009350123 0.0073848107         3812 
 4600000    0.5145057   -8.9739584    514.60172 0.0093224949 0.0073819719         3802 
 4601000    0.5238019    -8.964879    515.63469 0.0093391778 0.0073791351         3823 
 4602000   0.51700766    -8.967934    514.51821 0.0093169312 0.0073762965         3809 
 4603000   0.51831686   -8.9807248    515.37339 0.0093303893 0.0073734596         3799 
 4604000   0.51361393   -8.9611082    514.78033 0.0093176284 0.0073706254         3769 
 4605000   0.51682595   -8.9796759    515.42326 0.0093272395 0.0073677931         3828 
 4606000    0.5171106   -8.9836081    514.81018 0.0093141226 0.0073649631         3810 
 4607000   0.50254434   -8.9665136    515.38864 0.0093225642 0.0073621337         3807 
 4608000   0.52019824   -8.9691214    514.99206 0.0093133692 0.0073593049         3807 
 4609000   0.51158266   -8.9842187    514.80067  0.009307888 0.0073564771         3797 
 4610000    0.5010969   -8.9788018    514.47306 0.0092999469 0.0073536495         3792 
 4611000   0.51990606   -8.9743031    514.92266 0.0093060555 0.0073508251         3802 
 4612000   0.51195049   -8.9773694    514.80995 0.0093020011 0.0073480012         3820 
 4613000   0.50874058   -8.9760973     515.8616 0.0093189826   0.00734518         3791 
 4614000   0.50510915   -8.9801299    513.99729 0.0092832916 0.0073423594         3812 
 4615000   0.50678636   -8.9802943    514.73872 0.0092946681 0.0073395406         3804 
 4616000   0.51146637   -8.9773682    515.70121 0.0093100306  0.007336723         3816 
 4617000   0.50955913    -8.977436     515.7629 0.0093091275 0.0073339086         3808 
 4618000   0.51562176   -8.9727864    514.34165 0.0092814648  0.007331094         3799 
 4619000   0.51440399   -8.9756596      514.836 0.0092883742 0.0073282788         3789 
 4620000    0.5118835   -8.9693384     514.5485 0.0092811779 0.0073254662         3803 
 4621000    0.5098254   -8.9877368     514.2375 0.0092735609 0.0073226544         3803 
 4622000   0.50870047   -8.9876315    514.01714 0.0092675815 0.0073198463         3827 
 4623000    0.5199704   -8.9586161    514.60691 0.0092762078 0.0073170396         3801 
 4624000    0.5037649   -8.9659718    515.24613 0.0092857218 0.0073142341         3820 
 4625000   0.51602144   -8.9863262    515.20377 0.0092829508 0.0073114295         3824 
 4626000   0.51814621   -8.9958775    514.66163 0.0092711779  0.007308626         3808 
 4627000   0.50653463   -8.9866063     514.6397 0.0092687793 0.0073058231         3818 
 4628000   0.51678655   -8.9764261    515.34571 0.0092794892 0.0073030239         3798 
 4629000   0.51196941   -8.9750268    514.18368  0.009256565 0.0073002261         3801 
 4630000   0.52154953   -8.9789356    514.88494 0.0092671875 0.0072974265         3788 
 4631000   0.51869646   -8.9729986    515.04204 0.0092680133 0.0072946298         3780 
 4632000   0.51665812   -8.9841616    514.92838 0.0092639678 0.0072918366         3826 
 4633000   0.51249647   -8.9685284     515.2715 0.0092681399 0.0072890446         3780 
 4634000   0.50877277    -8.975391     515.0711 0.0092625359 0.0072862532         3805 
 4635000   0.51299192   -8.9798842    514.56974 0.0092515235 0.0072834664         3795 
 4636000   0.51093265   -8.9769201    514.52174 0.0092486651  0.007280678         3807 
 4637000   0.50918242   -8.9997827    514.89689 0.0092534126 0.0072778899         3781 
 4638000   0.51803467   -8.9854924    514.66407 0.0092472343 0.0072751013         3794 
 4639000   0.49976679   -8.9770961    514.59115  0.009243931 0.0072723176         3802 
 4640000   0.51069156   -8.9988991     514.9438 0.0092482723 0.0072695358         3825 
 4641000   0.52330569   -8.9889798    514.65268 0.0092410523 0.0072667571         3811 
 4642000   0.51627151   -8.9994313    513.58412 0.0092198786 0.0072639754         3822 
 4643000   0.50622371   -8.9814121    514.40184 0.0092325695 0.0072611944         3795 
 4644000   0.50820357     -8.99031    514.36087 0.0092298462 0.0072584193         3827 
 4645000   0.50527763   -8.9818512    514.56263 0.0092314788 0.0072556434         3813 
 4646000   0.50700311   -8.9678211     515.3819 0.0092441867 0.0072528713         3802 
 4647000   0.52338862   -8.9716128    514.83041 0.0092323078 0.0072500992         3797 
 4648000   0.51236464   -9.0044749    514.38575 0.0092223492  0.007247329         3813 
 4649000   0.50618905   -8.9939324    514.99405 0.0092312692 0.0072445581         3811 
 4650000   0.49833101   -8.9879864    514.70788 0.0092241556 0.0072417906         3822 
 4651000   0.51301131   -8.9866248    515.18227  0.009230672  0.007239023         3795 
 4652000   0.49153362   -8.9864689    514.08904 0.0092091042 0.0072362575         3806 
 4653000   0.51425904   -8.9949217    513.56606 0.0091977588 0.0072334917         3786 
 4654000   0.51330706   -8.9957363    514.18937 0.0092069432 0.0072307303         3823 
 4655000   0.49597077   -8.9830113     514.8398 0.0092166094 0.0072279693         3798 
 4656000   0.50618985   -8.9804513    513.91267 0.0091980361 0.0072252082         3787 
 4657000   0.50211064   -8.9716659    515.00704 0.0092156439 0.0072224485         3809 
 4658000   0.50436933   -8.9904448    514.81095 0.0092101573 0.0072196916         3838 
 4659000   0.50313955    -8.975952     514.6631 0.0092055358 0.0072169336         3810 
 4660000   0.49790372   -8.9799451    513.85055 0.0091890298 0.0072141794         3820 
 4661000   0.50463802   -8.9738584    514.59734 0.0092004102 0.0072114267         3771 
 4662000    0.5159954    -8.975142    515.16185 0.0092085272 0.0072086749         3798 
 4663000   0.51996664   -8.9726429    514.68367 0.0091980068 0.0072059259         3803 
 4664000   0.48370769   -9.0066084    515.12622 0.0092039419 0.0072031772         3813 
 4665000   0.50407193   -8.9848713    514.50625 0.0091908941 0.0072004277         3818 
 4666000   0.49752265   -8.9990141    514.84374 0.0091949518 0.0071976827         3822 
 4667000   0.50323947   -9.0038083    514.72669 0.0091908915 0.0071949381         3808 
 4668000   0.51066174   -8.9923905    515.01739 0.0091941122 0.0071921948         3801 
 4669000   0.50101641   -8.9905856    515.04787 0.0091926871 0.0071894526         3800 
 4670000   0.49934081   -8.9814126    514.52716 0.0091814268 0.0071867125         3810 
 4671000   0.52274554   -8.9850667    514.61338 0.0091809994 0.0071839718         3827 
 4672000   0.50569559   -8.9997121    513.94812 0.0091671682 0.0071812349         3794 
 4673000   0.51887634   -8.9918321     513.5074 0.0091573471 0.0071784969         3796 
 4674000   0.51122885   -8.9817465     514.5398 0.0091737947 0.0071757632         3795 
 4675000   0.49636876   -8.9935705    515.05089 0.0091809428 0.0071730316         3793 
 4676000   0.50417534   -8.9871035    515.69576 0.0091904718 0.0071703003         3822 
 4677000   0.50832888   -9.0071817    514.17821 0.0091614677 0.0071675696         3806 
 4678000   0.49998902   -9.0088345    513.91936 0.0091548981 0.0071648413         3807 
 4679000   0.50863029   -8.9960213    514.23584 0.0091585781 0.0071621142         3812 
 4680000   0.50227335   -8.9895897    513.81265 0.0091490857 0.0071593889         3819 
 4681000   0.49831904   -9.0013937    514.25971 0.0091550898 0.0071566616         3814 
 4682000   0.50006373   -8.9781599     515.2474 0.0091707141  0.007153939         3794 
 4683000   0.50347393   -8.9879659     514.9272 0.0091630579 0.0071512161         3821 
 4684000   0.49974106   -9.0060407     513.9487  0.009143693 0.0071484949         3811 
 4685000    0.5143179   -9.0015707    513.72193 0.0091377077 0.0071457737         3831 
 4686000   0.50825263   -8.9987722    514.89117 0.0091565509 0.0071430544         3828 
 4687000   0.49883796   -9.0008481    515.54508 0.0091662236 0.0071403391         3844 
 4688000   0.50732861   -9.0012813    514.80988 0.0091511995 0.0071376232         3804 
 4689000   0.50378353    -9.001306    514.72837 0.0091477993 0.0071349105         3822 
 4690000    0.5076211   -8.9871138    514.19614 0.0091363919 0.0071321982         3794 
 4691000   0.50752964   -8.9828123    514.53518 0.0091404672  0.007129488         3810 
 4692000   0.49775095   -8.9973978    513.89616 0.0091271697 0.0071267774         3830 
 4693000   0.50297387   -8.9853785    514.80882 0.0091414309 0.0071240714         3808 
 4694000   0.50017411   -8.9867816    514.38387 0.0091319391 0.0071213641         3799 
 4695000   0.49627374   -8.9987007    514.02448 0.0091236152 0.0071186575         3825 
 4696000   0.50700396   -8.9829787    514.62049 0.0091322489 0.0071159521         3792 
 4697000   0.49437457   -8.9846338    514.26183 0.0091239413 0.0071132504         3812 
 4698000   0.50588719   -9.0097176    514.22466   0.00912134 0.0071105483         3816 
 4699000    0.4966105   -8.9856231    514.25171 0.0091198785 0.0071078484         3816 
 4700000   0.50423349   -9.0007359     514.6461 0.0091249309 0.0071051503         3790 
 4701000   0.50037234    -9.007459    515.29097 0.0091344212  0.007102453         3816 
 4702000   0.49445579   -9.0115168     514.2507 0.0091140419 0.0070997585         3815 
 4703000   0.49478484   -8.9856183    514.39741 0.0091147035 0.0070970637         3816 
 4704000   0.50662036    -8.994397    514.24626 0.0091100882 0.0070943717         3790 
 4705000    0.5039456   -8.9835219    514.26486 0.0091084814 0.0070916822         3823 
 4706000   0.51019717   -8.9999335    513.67151 0.0090960389 0.0070889927         3803 
 4707000   0.49788952   -9.0016206    514.26587 0.0091046291 0.0070863025         3803 
 4708000   0.49410909   -9.0021153    514.18928 0.0091013396 0.0070836149         3840 
 4709000    0.4959717   -8.9961572    514.34823 0.0091022196 0.0070809296         3803 
 4710000   0.48952827   -8.9878091    514.28363 0.0090991441 0.0070782449         3791 
 4711000   0.49276752   -9.0070791    514.26505  0.009096884 0.0070755624         3833 
 4712000   0.49202383   -9.0102949    514.57394 0.0091004163 0.0070728799         3827 
 4713000   0.49844962   -8.9926788    514.41259 0.0090956324 0.0070701987         3796 
 4714000   0.49829244   -8.9916739    514.35295 0.0090926487 0.0070675193         3816 
 4715000   0.49681271   -9.0071357     513.7502 0.0090800672 0.0070648423         3814 
 4716000   0.48515782   -8.9954372    513.81112 0.0090792182 0.0070621648         3794 
 4717000   0.49658627   -9.0022114    513.98803 0.0090804189   0.00705949         3807 
 4718000   0.50067996   -8.9952933    514.39467 0.0090856767 0.0070568172         3807 
 4719000   0.48815979   -8.9947949    514.35329 0.0090830206 0.0070541449         3831 
 4720000   0.49815779   -9.0014571    514.01589 0.0090751394 0.0070514741         3788 
 4721000   0.49714872   -8.9863285    514.28958 0.0090780481 0.0070488051         3812 
 4722000    0.4996377   -9.0128524    513.89762 0.0090692084 0.0070461369         3813 
 4723000   0.50223175   -8.9964934    513.63454 0.0090626463 0.0070434672         3799 
 4724000   0.50612801   -9.0059538    514.86085 0.0090823604  0.007040802         3813 
 4725000   0.48460586   -9.0024757    513.99718  0.009065206 0.0070381373         3814 
 4726000   0.48817778   -9.0024674    513.94462 0.0090623611 0.0070354719         3818 
 4727000   0.49675583   -9.0157853    514.40065 0.0090684834 0.0070328106         3831 
 4728000   0.50495005   -9.0038397    514.50985 0.0090684901 0.0070301469         3824 
 4729000   0.49412961   -9.0168831    513.46334  0.009048131 0.0070274861         3810 
 4730000   0.49061418   -9.0016988    514.68335 0.0090677123 0.0070248286         3796 
 4731000    0.4969785   -9.0118894    514.23592 0.0090579145 0.0070221734         3816 
 4732000   0.49046995   -9.0124383    514.36107 0.0090582042 0.0070195191         3793 
 4733000   0.49484822   -9.0155554     513.3974 0.0090393233 0.0070168625         3808 
 4734000   0.48309505   -9.0044787    514.60486 0.0090586688 0.0070142104         3805 
 4735000   0.49931649   -9.0007974    513.94637 0.0090451667 0.0070115581         3818 
 4736000   0.49483656   -9.0033241    513.36417 0.0090330126 0.0070089068         3797 
 4737000   0.49712633    -8.996657    514.12719 0.0090445286  0.007006258         3814 
 4738000    0.4810692   -9.0097479    513.13327 0.0090251385 0.0070036106         3777 
 4739000   0.48615331   -9.0221497    513.85525 0.0090359298 0.0070009634         3810 
 4740000   0.49778814   -9.0106251    514.07393 0.0090378679 0.0069983183         3794 
 4741000   0.49575573   -9.0059821    513.64774 0.0090284704 0.0069956757         3806 
 4742000   0.49959014   -9.0092259    513.62924 0.0090262413 0.0069930344         3806 
 4743000   0.50159576   -9.0021233    514.14388 0.0090333803 0.0069903946         3807 
 4744000   0.50412071   -9.0126092    514.68135 0.0090409175  0.006987755         3815 
 4745000   0.48978438   -9.0137631    514.40826  0.009034216 0.0069851176         3786 
 4746000   0.48251724   -8.9996621    513.45519 0.0090155778 0.0069824801         3800 
 4747000   0.49051889   -9.0056145    514.06493 0.0090243826 0.0069798458         3806 
 4748000   0.48998521   -8.9993524    513.54539 0.0090133634 0.0069772122         3809 
 4749000   0.49444883   -9.0108188    513.82626 0.0090163939 0.0069745788         3801 
 4750000   0.50251911   -8.9942915    514.33177 0.0090233643 0.0069719479         3835 
 4751000   0.47866969   -9.0077604    513.53534 0.0090074956 0.0069693172         3820 
 4752000   0.50281228   -9.0131926    514.10909 0.0090156616 0.0069666885         3800 
 4753000     0.494624   -9.0042085    513.45701  0.009002332 0.0069640587         3834 
 4754000   0.48081789    -9.004489    514.60107 0.0090204928 0.0069614347         3813 
 4755000   0.48912431   -9.0237214    514.03372 0.0090086527 0.0069588092         3831 
 4756000   0.48673477   -8.9973418    514.24377 0.0090104389 0.0069561844         3813 
 4757000   0.49184431    -9.016027    514.65881 0.0090158154 0.0069535606         3801 
 4758000   0.48643198   -9.0095652    513.92768 0.0090011154 0.0069509375         3816 
 4759000   0.49850407   -9.0113438    512.64772  0.008976811 0.0069483169         3807 
 4760000   0.48402271    -9.001156    514.22462 0.0090025318  0.006945699         3812 
 4761000    0.4913932    -8.999256     514.4077 0.0090038455 0.0069430812         3810 
 4762000   0.49442828   -9.0070083    513.65616 0.0089888031  0.006940466         3818 
 4763000   0.50084916   -9.0008046    514.35035 0.0089990614 0.0069378531         3809 
 4764000   0.48947469   -9.0121118    513.59992 0.0089840457 0.0069352411         3787 
 4765000   0.48457728   -9.0275063    513.82129 0.0089860317 0.0069326294         3824 
 4766000   0.49360008   -8.9996034    514.21041 0.0089909499 0.0069300182         3832 
 4767000   0.48393457   -9.0153028     513.6005 0.0089784018 0.0069274106         3781 
 4768000   0.49317288   -9.0068074    513.76083 0.0089793211 0.0069248058         3798 
 4769000   0.49246773   -9.0047858    513.43813 0.0089717992 0.0069222002         3808 
 4770000   0.48773394   -9.0209923    514.57165 0.0089897213  0.006919596         3799 
 4771000   0.48579818   -9.0047507    514.24704 0.0089821673 0.0069169914         3778 
 4772000   0.49010341   -9.0159424     514.2018 0.0089794949 0.0069143885         3820 
 4773000   0.48446938   -9.0225185    513.63698 0.0089677522  0.006911788         3826 
 4774000   0.49048703   -9.0361089    514.14719 0.0089747799 0.0069091879         3798 
 4775000   0.48472667   -9.0126336    514.34024 0.0089762695 0.0069065903         3793 
 4776000   0.50568479   -9.0142746    513.77594 0.0089645438 0.0069039949         3797 
 4777000   0.48949715   -9.0250981    513.25725 0.0089536188 0.0069014007         3821 
 4778000   0.48633621   -9.0094855    514.40002 0.0089716761 0.0068988062         3827 
 4779000   0.48850176   -9.0068115    514.07151 0.0089640704 0.0068962133         3803 
 4780000   0.48793835   -9.0132267    513.62803 0.0089544635 0.0068936211         3814 
 4781000   0.48944926   -9.0039139    513.73054 0.0089543774  0.006891029         3807 
 4782000   0.49059273   -9.0067266    513.79377 0.0089536068 0.0068884404         3802 
 4783000   0.49081369   -9.0196688    513.86673  0.008953006 0.0068858523         3803 
 4784000   0.49850624   -9.0083361    514.01004 0.0089536309 0.0068832655         3823 
 4785000   0.47589853   -9.0327595    513.16876 0.0089371084 0.0068806796         3804 
 4786000   0.48181885   -9.0279994    514.38651 0.0089564443 0.0068780927         3828 
 4787000   0.48159547   -9.0251303    512.65897 0.0089244999 0.0068755106         3837 
 4788000   0.47668153   -9.0165707     514.1343 0.0089483135 0.0068729284         3799 
 4789000   0.48455218   -9.0230006    513.65183 0.0089380495 0.0068703489         3804 
 4790000   0.48688486   -9.0093844    514.22784 0.0089462047 0.0068677691         3808 
 4791000    0.4946867   -9.0039636    514.61094 0.0089510009 0.0068651924         3813 
 4792000   0.48317345    -9.030536    513.74243 0.0089340294 0.0068626168         3834 
 4793000   0.47396131   -9.0090814    513.95354 0.0089358359 0.0068600417         3811 
 4794000   0.48017822   -9.0223849    513.98694 0.0089345525 0.0068574696         3823 
 4795000   0.49152434   -9.0115629    513.52067 0.0089245858  0.006854895         3811 
 4796000   0.47461792   -9.0069325    514.01981 0.0089313979 0.0068523227         3828 
 4797000   0.48572858    -9.028589    514.27255 0.0089339266 0.0068497529         3798 
 4798000   0.48146898   -8.9944391    514.40069 0.0089342901 0.0068471858         3826 
 4799000   0.49567832   -9.0116409    513.54509 0.0089175712  0.006844618         3826 
 4800000   0.48610843   -9.0188934    513.93691 0.0089225159 0.0068420517         3810 
 4801000   0.48014592   -9.0259961    513.86485 0.0089194065 0.0068394867         3824 
 4802000   0.47229863   -9.0048268    513.98907 0.0089197048 0.0068369227         3822 
 4803000   0.48017337   -9.0080802    513.81717 0.0089148651 0.0068343614         3817 
 4804000   0.48027149   -9.0190183    514.01069 0.0089163664 0.0068318009         3811 
 4805000   0.47734006   -9.0375633    512.70852 0.0088919272 0.0068292401         3814 
 4806000   0.49256659    -9.013495    514.28475  0.008917408 0.0068266828         3818 
 4807000   0.47651476   -9.0166219    513.70259 0.0089054606 0.0068241268         3816 
 4808000   0.49065071   -9.0292165    513.88215 0.0089067205 0.0068215704         3817 
 4809000   0.48104047   -9.0226268    514.25831 0.0089113868  0.006819017         3805 
 4810000   0.47459386   -9.0169147    514.83171 0.0089194684 0.0068164656         3796 
 4811000    0.4854796   -9.0237295    513.61555 0.0088965487 0.0068139133         3841 
 4812000   0.47847346   -9.0240155    513.45553 0.0088919287 0.0068113634         3797 
 4813000   0.47713428   -9.0140897    513.63441 0.0088931784 0.0068088146         3793 
 4814000   0.48979274   -9.0311147    513.80567 0.0088942957 0.0068062652         3817 
 4815000    0.4763029   -9.0320633    513.50673 0.0088872747 0.0068037181         3810 
 4816000   0.47035881   -9.0092244    514.56215 0.0089036917 0.0068011728         3801 
 4817000   0.48816684   -9.0109988    513.35901 0.0088810293 0.0067986294         3822 
 4818000   0.48016304   -9.0471799    513.84074  0.008887518 0.0067960858         3821 
 4819000   0.48544856   -9.0196079    513.26253 0.0088756749 0.0067935432         3843 
 4820000   0.47873762   -9.0379807    513.95018 0.0088857223 0.0067910032         3805 
 4821000   0.47244328   -9.0105364    513.62498 0.0088782579  0.006788465         3775 
 4822000   0.47903114   -9.0220692    512.99794 0.0088655804 0.0067859261         3826 
 4823000   0.48037726   -9.0342296    513.87746 0.0088789388 0.0067833899         3821 
 4824000   0.46946979   -9.0189866    513.91549 0.0088777552  0.006780855         3800 
 4825000    0.4814262   -9.0383363    513.61406 0.0088707092 0.0067783216         3808 
 4826000   0.47999355   -9.0257322    513.43128 0.0088657149 0.0067757884         3827 
 4827000   0.47822299   -9.0366819    514.17513 0.0088767199 0.0067732575         3853 
 4828000   0.46953221   -9.0319794    514.21901 0.0088756388 0.0067707276         3808 
 4829000   0.47513113   -9.0286684    513.61913 0.0088634488 0.0067682003         3801 
 4830000   0.49365976   -9.0270476     513.5188 0.0088598826  0.006765674         3822 
 4831000   0.47264687   -9.0215326    513.08239 0.0088505207 0.0067631485         3818 
 4832000   0.47713689   -9.0273305    513.88605 0.0088625492 0.0067606227         3809 
 4833000   0.48475136   -9.0332502    513.43176 0.0088528823 0.0067580989         3830 
 4834000   0.47914654    -9.039394     513.3526 0.0088496862  0.006755575         3796 
 4835000   0.48278878   -9.0380244    513.02084 0.0088421378 0.0067530542         3801 
 4836000   0.47394098   -9.0242516    514.25887 0.0088616431  0.006750536         3813 
 4837000   0.47105216   -9.0056788    513.35571 0.0088442511 0.0067480162         3811 
 4838000   0.47763387   -9.0339293    513.69892 0.0088483347 0.0067454992         3819 
 4839000   0.46952531   -9.0289589    513.92696 0.0088504333 0.0067429826         3781 
 4840000   0.47319683   -9.0134223     513.4646 0.0088406439 0.0067404679         3843 
 4841000   0.48272744   -9.0217724    513.38776  0.008837495 0.0067379543         3823 
 4842000   0.48097362   -9.0233714    514.07774 0.0088475447 0.0067354422         3804 
 4843000   0.46910225    -9.030058    513.54982  0.008836634 0.0067329321         3812 
 4844000   0.47666342   -9.0491364     513.4806  0.008833619 0.0067304213         3823 
 4845000   0.48561629   -9.0300864    513.32987 0.0088292032 0.0067279108         3823 
 4846000   0.47640948   -9.0185692    514.27878 0.0088436989 0.0067254049         3807 
 4847000   0.47187976      -9.0343    513.49199 0.0088283473 0.0067228978         3793 
 4848000   0.48091622    -9.021335    513.59226 0.0088282498 0.0067203929         3809 
 4849000   0.48686785   -9.0305161     513.5954  0.008826483 0.0067178891         3827 
 4850000   0.47752626    -9.011746    513.42829  0.008821792 0.0067153858         3824 
 4851000   0.47413756   -9.0508857    513.53578 0.0088218199 0.0067128863         3817 
 4852000   0.47635877   -9.0490836    513.88057 0.0088259234  0.006710386         3827 
 4853000    0.4708134   -9.0211931    514.02461 0.0088265782 0.0067078879         3800 
 4854000   0.47192322   -9.0441064     512.5485  0.008799418 0.0067053903         3794 
 4855000   0.47100521   -9.0401529    513.70221 0.0088174084 0.0067028943         3819 
 4856000   0.48055257   -9.0360066    513.38295 0.0088101138 0.0067004003         3791 
 4857000   0.47355504   -9.0451386     512.2573 0.0087889867  0.006697907         3822 
 4858000   0.47142014   -9.0501916    512.35301 0.0087888194 0.0066954139         3803 
 4859000   0.47230582   -9.0286513    512.64656 0.0087920449  0.006692922         3801 
 4860000   0.47674701   -9.0271751    512.99047 0.0087961329 0.0066904342         3788 
 4861000   0.48565342   -9.0265818     513.4989 0.0088030396 0.0066879455         3814 
 4862000    0.4750976   -9.0180552    513.57559 0.0088025434 0.0066854587         3814 
 4863000   0.46846053   -9.0334296    514.00931 0.0088081655 0.0066829735         3792 
 4864000   0.47026289   -9.0129696    513.08683 0.0087905501 0.0066804896         3810 
 4865000   0.48128941   -9.0374758     513.2813 0.0087920744  0.006678005         3829 
 4866000   0.46869223   -9.0184848     513.4274 0.0087927695 0.0066755222         3830 
 4867000   0.46290785   -9.0323189    513.24206 0.0087877895 0.0066730417         3804 
 4868000   0.47524242   -9.0275179    513.58067 0.0087917808 0.0066705622         3809 
 4869000   0.47432526   -9.0368071    512.97434 0.0087795978 0.0066680839         3798 
 4870000   0.47332423   -9.0487513    512.39579 0.0087678952 0.0066656074         3826 
 4871000   0.47185498   -9.0338065     512.4851  0.008767623 0.0066631301         3823 
 4872000   0.47812615    -9.037953     513.0478 0.0087754481 0.0066606557         3815 
 4873000   0.47382819   -9.0401783    513.34162  0.008778672 0.0066581813         3830 
 4874000   0.47569508   -9.0332062    513.58909  0.008781102 0.0066557088         3811 
 4875000   0.47175352   -9.0405401    513.75551 0.0087821454 0.0066532368         3791 
 4876000   0.47781013   -9.0336328    513.87804 0.0087824385 0.0066507669         3832 
 4877000   0.46934093   -9.0309327    513.80335 0.0087793615 0.0066482994         3830 
 4878000   0.46916839   -9.0496422    512.95353 0.0087630437 0.0066458315         3821 
 4879000   0.47960274   -9.0538404    513.23745 0.0087660971 0.0066433631         3789 
 4880000   0.47165009   -9.0516163    512.69954 0.0087551151 0.0066408973         3780 
 4881000   0.46360488   -9.0385276    514.11969 0.0087775677 0.0066384331         3814 
 4882000   0.46890621   -9.0389013    513.72487 0.0087690303 0.0066359709         3826 
 4883000   0.47460593   -9.0259644    512.10971 0.0087396701 0.0066335118         3819 
 4884000   0.46982717   -9.0175047    512.81633 0.0087499374 0.0066310501         3828 
 4885000    0.4669557   -9.0284052    513.82384 0.0087653334 0.0066285914         3803 
 4886000   0.46503061    -9.054093    513.98427 0.0087662755 0.0066261343         3816 
 4887000   0.46782274   -9.0482302    512.84853 0.0087451151 0.0066236777         3829 
 4888000   0.47959229   -9.0347162    513.58994 0.0087559659  0.006621223         3802 
 4889000   0.46058858   -9.0360843    513.03435 0.0087447049 0.0066187675         3836 
 4890000    0.4686802   -9.0354316    512.97022 0.0087418238 0.0066163139         3799 
 4891000   0.46922126   -9.0300284    513.28669 0.0087454284 0.0066138604         3825 
 4892000   0.46121228   -9.0397934    513.68788 0.0087504749 0.0066114084         3809 
 4893000   0.46579616   -9.0483826    513.48871 0.0087452945 0.0066089586         3813 
 4894000    0.4711294   -9.0235223    513.44198 0.0087427117 0.0066065106         3817 
 4895000   0.46502536   -9.0317147    513.72742 0.0087457851 0.0066040655         3803 
 4896000   0.46470553   -9.0418939    512.90177 0.0087299457 0.0066016202         3802 
 4897000   0.46519789   -9.0452789    513.15209 0.0087324228 0.0065991769         3815 
 4898000    0.4654246   -9.0554021    513.45002 0.0087357088  0.006596733         3808 
 4899000    0.4695699   -9.0347647    513.11307 0.0087281941 0.0065942903         3805 
 4900000   0.46442032   -9.0574373    513.29808 0.0087295591  0.006591849         3824 
 4901000   0.46691484   -9.0509582    513.11705 0.0087246999 0.0065894095         3814 
 4902000   0.45287387   -9.0412692    512.05363  0.008704842 0.0065869709         3801 
 4903000   0.46976321   -9.0345462    513.41071 0.0087261322 0.0065845341         3792 
 4904000   0.46383289   -9.0470487    513.13585 0.0087196821 0.0065820977         3819 
 4905000   0.46890178   -9.0328796    512.84994 0.0087130468 0.0065796636         3819 
 4906000   0.46070812   -9.0460982    513.03964 0.0087144932 0.0065772294         3816 
 4907000   0.48230407   -9.0637566     513.2246 0.0087158583 0.0065747968         3809 
 4908000   0.47350442   -9.0345443    512.73619 0.0087057897 0.0065723645         3816 
 4909000    0.4747401   -9.0509509     513.1254 0.0087106234 0.0065699327         3826 
 4910000   0.46420411   -9.0453511    512.35286 0.0086957375  0.006567504         3809 
 4911000   0.46799779   -9.0325623    513.04168 0.0087056554 0.0065650772         3827 
 4912000   0.45699322   -9.0362872    513.18033 0.0087062352  0.006562651         3825 
 4913000   0.45228908   -9.0413198    513.97307 0.0087179094 0.0065602253         3798 
 4914000   0.46383469   -9.0605266     512.4263 0.0086899048 0.0065578022         3818 
 4915000   0.46753108   -9.0366556    512.91781 0.0086964702 0.0065553793         3821 
 4916000   0.46146843   -9.0517174    512.78624 0.0086924708  0.006552957         3829 
 4917000   0.46471312   -9.0591692    513.47384 0.0087023565 0.0065505361         3856 
 4918000   0.47595293   -9.0466252     513.1467 0.0086950438 0.0065481183         3814 
 4919000   0.47291746   -9.0442892     512.7429 0.0086864352 0.0065457004         3848 
 4920000   0.46645599   -9.0508724    512.25891  0.008676472 0.0065432821         3808 
 4921000   0.47050577   -9.0542385    512.72656 0.0086826281  0.006540867         3828 
 4922000   0.46243462   -9.0610741    513.09157 0.0086870441 0.0065384532         3798 
 4923000   0.45262449   -9.0562501    513.03183 0.0086842682 0.0065360393         3830 
 4924000   0.45336021   -9.0554971     512.5327 0.0086740573  0.006533626         3833 
 4925000   0.46180951   -9.0537638    512.66745 0.0086745762 0.0065312135         3830 
 4926000   0.46077374   -9.0508383    513.01268 0.0086786554 0.0065288049         3807 
 4927000   0.46563253   -9.0506821    512.76499 0.0086727046 0.0065263948         3818 
 4928000   0.45637955   -9.0476647    513.30537 0.0086800828 0.0065239901         3820 
 4929000   0.46437442   -9.0560941     513.1111 0.0086750373 0.0065215843         3818 
 4930000   0.46249427   -9.0498041    512.74502 0.0086670896 0.0065191786         3816 
 4931000   0.46439354   -9.0479914    512.98071 0.0086693151 0.0065167742         3793 
 4932000    0.4629054   -9.0670949     512.3814  0.008657431  0.006514371         3829 
 4933000   0.47262532   -9.0429524    513.09649 0.0086677561 0.0065119705         3805 
 4934000   0.45764472   -9.0570583    512.99577 0.0086642982 0.0065095708         3817 
 4935000   0.45603981   -9.0516031    512.39611 0.0086524166 0.0065071707         3832 
 4936000   0.47302663   -9.0633834    512.81362 0.0086577123 0.0065047717         3816 
 4937000   0.46305194   -9.0630408    512.42211 0.0086493503 0.0065023745         3851 
 4938000   0.46382028    -9.054412    513.06662 0.0086584755 0.0064999773         3815 
 4939000   0.46882412   -9.0417163    513.27585 0.0086602525 0.0064975829         3826 
 4940000   0.46668626   -9.0358874    513.23181 0.0086577565 0.0064951917         3834 
 4941000   0.46368994   -9.0673571    513.23539 0.0086560647 0.0064928006         3807 
 4942000    0.4588816   -9.0386585    513.01955 0.0086506737 0.0064904096         3809 
 4943000   0.46286028   -9.0642352    512.84582 0.0086459946 0.0064880205         3843 
 4944000   0.46074433   -9.0544348    512.79733 0.0086434285 0.0064856317         3823 
 4945000   0.45155086   -9.0645396    513.25904 0.0086494614 0.0064832432         3829 
 4946000   0.47630677   -9.0504285    513.29356 0.0086482942 0.0064808574         3837 
 4947000   0.46742942   -9.0533846    512.49874 0.0086331572  0.006478473         3820 
 4948000    0.4534785   -9.0610247    513.01672 0.0086401361 0.0064760891         3823 
 4949000   0.47042002   -9.0753824    513.08661  0.008639567 0.0064737076         3808 
 4950000   0.45763149   -9.0537046    513.08701 0.0086378285 0.0064713261         3818 
 4951000    0.4639665   -9.0422026    512.51728 0.0086264944 0.0064689463         3832 
 4952000   0.45918684   -9.0509317    512.99242  0.008632748 0.0064665685         3805 
 4953000   0.46956527   -9.0680214    512.20653 0.0086177826 0.0064641887         3809 
 4954000   0.44536409   -9.0616943    511.86441 0.0086102882 0.0064618114         3826 
 4955000   0.46198661    -9.056822    512.77868 0.0086239268 0.0064594348         3825 
 4956000   0.46567936   -9.0462816    512.49651 0.0086174419   0.00645706         3811 
 4957000    0.4649046   -9.0619747    513.01632 0.0086244421 0.0064546868         3797 
 4958000   0.46657762    -9.037315    512.86261 0.0086201192 0.0064523151         3817 
 4959000   0.46134215   -9.0613937    512.84346 0.0086180591 0.0064499443         3844 
 4960000    0.4635984   -9.0483079    513.02443 0.0086193621 0.0064475757         3799 
 4961000   0.45669296   -9.0609899    513.06849 0.0086183647 0.0064452065         3839 
 4962000    0.4593623   -9.0737554    511.91118 0.0085971917 0.0064428385         3859 
 4963000   0.45172591   -9.0686377    513.22875 0.0086175825 0.0064404723         3850 
 4964000   0.45281226   -9.0540766     512.6691 0.0086064515 0.0064381068         3814 
 4965000   0.45419638    -9.061764    512.64301 0.0086042801 0.0064357419         3796 
 4966000   0.45645241   -9.0548677    512.54869 0.0086009648 0.0064333798         3837 
 4967000   0.45868472   -9.0600287    513.39413 0.0086134173 0.0064310191         3813 
 4968000   0.45110232   -9.0671849    512.22177 0.0085920185 0.0064286586         3824 
 4969000   0.44313429   -9.0573204    512.76715 0.0085994356 0.0064262998         3834 
 4970000    0.4540522   -9.0385273    512.32584 0.0085903059 0.0064239417         3801 
 4971000   0.45660551   -9.0548985    512.60857 0.0085933174 0.0064215848         3814 
 4972000   0.45337391    -9.060541    512.06116 0.0085824142 0.0064192287         3842 
 4973000   0.45393036   -9.0712812    512.35392 0.0085855942  0.006416873         3811 
 4974000   0.45624191   -9.0607854    511.93812 0.0085769018 0.0064145189         3823 
 4975000   0.46090514   -9.0517658    512.49187 0.0085844534 0.0064121674         3818 
 4976000   0.45148252   -9.0462785    512.36236 0.0085805594 0.0064098159         3823 
 4977000   0.46045902   -9.0603579    512.00466 0.0085728462 0.0064074676         3800 
 4978000   0.46608229   -9.0708164    511.91341 0.0085695964 0.0064051203         3806 
 4979000   0.45195306   -9.0665402    512.41217  0.008576223 0.0064027712         3841 
 4980000   0.44354625   -9.0609552    511.81707 0.0085645427 0.0064004239         3849 
 4981000   0.45265242   -9.0660792    513.19927 0.0085859477  0.006398079         3820 
 4982000   0.46166483   -9.0485054    512.35478 0.0085700987 0.0063957346         3844 
 4983000   0.45714037   -9.0711799    512.33123 0.0085679849 0.0063933914         3825 
 4984000    0.4712395   -9.0515213     512.0203 0.0085610671 0.0063910498         3814 
 4985000   0.45983111   -9.0521706    512.35729  0.008564983 0.0063887103         3829 
 4986000    0.4632759   -9.0624747    511.81788 0.0085542499 0.0063863707         3816 
 4987000   0.45099661   -9.0715711    512.76705 0.0085683954 0.0063840348         3828 
 4988000   0.45118569   -9.0544949    511.42856 0.0085443156 0.0063816972         3849 
 4989000    0.4550886   -9.0717049    512.15966 0.0085548148 0.0063793614         3832 
 4990000      0.44939   -9.0654396    512.75843    0.0085631  0.006377027         3822 
 4991000   0.45326601   -9.0643127    512.89618 0.0085636842 0.0063746933         3802 
 4992000   0.44889901   -9.0641151     512.1334 0.0085492355  0.006372359         3830 
 4993000   0.44422135   -9.0620405    512.42211 0.0085523418 0.0063700267         3821 
 4994000   0.44996166   -9.0690794    512.26902 0.0085480746 0.0063676955         3824 
 4995000   0.45871859   -9.0560181    512.37935  0.008548204 0.0063653674         3841 
 4996000   0.45746727   -9.0643235    512.31074 0.0085453487  0.006363041         3832 
 4997000   0.45241971   -9.0551118    512.26275 0.0085428383  0.006360715         3821 
 4998000   0.45133066   -9.0673971    512.43876 0.0085440636 0.0063583897         3820 
 4999000   0.44566211   -9.0678528    512.47578 0.0085429716 0.0063560661         3831 
 5000000    0.4521852   -9.0838155    511.95707 0.0085326178 0.0063537421         3844 
 5001000   0.45896673   -9.0629495    512.20236  0.008534999 0.0063514194         3830 
 5002000   0.44630774   -9.0766025    512.09555 0.0085315132 0.0063490981         3838 
 5003000   0.44625228   -9.0732404     512.5631 0.0085375958 0.0063467777         3839 
 5004000   0.45235156    -9.051249     512.5267 0.0085352834 0.0063444595         3819 
 5005000    0.4478548   -9.0760462    513.21222 0.0085449919 0.0063421407         3834 
 5006000   0.45255659   -9.0570085    512.66525 0.0085341799 0.0063398254         3830 
 5007000   0.44761178   -9.0671062    512.46533 0.0085291481 0.0063375092         3842 
 5008000   0.44726704   -9.0690474    512.96477 0.0085357557 0.0063351959         3830 
 5009000   0.44163223   -9.0569352    512.76248 0.0085306861 0.0063328814         3829 
 5010000   0.45867298   -9.0593368    513.80861 0.0085463841 0.0063305695         3794 
 5011000   0.45820118   -9.0696057    513.01707 0.0085315152 0.0063282611         3827 
 5012000   0.45793185   -9.0613777    512.45567 0.0085204787 0.0063259511         3825 
Loop time of 13385.3 on 48 procs for 5000000 steps with 4000 atoms

Performance: 64548.539 tau/day, 373.545 timesteps/s
99.4% CPU use with 48 MPI tasks x no OpenMP threads

MPI task timing breakdown:
Section |  min time  |  avg time  |  max time  |%varavg| %total
---------------------------------------------------------------
Pair    | 1013.7     | 1116.2     | 1246.7     | 172.6 |  8.34
Neigh   | 93.698     | 98.355     | 102.89     |  24.0 |  0.73
Comm    | 829.14     | 951.96     | 1060.2     | 186.2 |  7.11
Output  | 41.322     | 41.327     | 41.424     |   0.2 |  0.31
Modify  | 11010      | 11050      | 11108      |  21.3 | 82.56
Other   |            | 127.1      |            |       |  0.95

Nlocal:        83.3333 ave          91 max          75 min
Histogram: 1 2 1 7 6 12 14 2 2 1
Nghost:        2456.94 ave        2478 max        2437 min
Histogram: 3 6 6 2 9 4 7 5 4 2
Neighs:        17102.5 ave       19476 max       14146 min
Histogram: 1 0 6 11 5 6 2 8 5 4
FullNghs:      34205.0 ave       38111 max       30458 min
Histogram: 1 2 3 8 11 11 9 1 1 1

Total # of neighbors = 1641838
Ave neighs/atom = 410.45950
Neighbor list builds = 266034
Dangerous builds = 2

#clear
#
#next RN
#
#jump SELF
Total wall time: 3:43:08
