
units lj                  # Use reduced LJ style units
atom_style atomic         # Uncharged point particles
atom_modify map hash      # Needed for indexing of clusters etc
                          # Used to be able to find where atoms are in relation to each other.

lattice fcc 1.0 spacing 1 1 1
Lattice spacing in x,y,z = 1.5874011 1.5874011 1.5874011
region box block 0 10 0 10 0 10 units lattice
create_box 2 box
Created orthogonal box = (0.0000000 0.0000000 0.0000000) to (15.874011 15.874011 15.874011)
  3 by 4 by 4 MPI processor grid
create_atoms 1 box
Created 4000 atoms
  using lattice units in orthogonal box = (0.0000000 0.0000000 0.0000000) to (15.874011 15.874011 15.874011)
  create_atoms CPU = 0.023 seconds
set type 1 type/fraction 2 0.16 78393
Setting atom values ...
  677 settings made for type/fraction
mass 1 1.0
mass 2 1.0
pair_style lj/cut  3.5
pair_modify tail  yes
pair_coeff 1  1  1.0  1.0   # Intearaction between 1 and 1 set with epsilon = 1 and sigma = 1
pair_coeff 1  2  1.5  0.8
pair_coeff 2  2  0.5  0.88

write_data data.0
System init for write_data ...
Neighbor list info ...
  update every 1 steps, delay 10 steps, check yes
  max neighbors/atom: 2000, page size: 100000
  master list distance cutoff = 3.8
  ghost atom cutoff = 3.8
  binsize = 1.9, bins = 9 9 9
  1 neighbor lists, perpetual/occasional/extra = 1 0 0
  (1) pair lj/cut, perpetual
      attributes: half, newton on
      pair build: half/bin/atomonly/newton
      stencil: half/bin/3d
      bin: standard
WARNING: Not all mixed pair coeffs generated from mixing. Use write_data with 'pair ij' option to store all pair coeffs. (../write_data.cpp:312)


#############################
#   M E L T   S Y S T E M   #
#############################

velocity all create 2.4 9622624 mom yes dist gaussian # Assign velocities
                                                    # Temperature 2.4, random number seed, zero linear momentum
                                                                                # Gaussian distribution

timestep 0.002   # simulation timestep
thermo 1000       # output thermodynamic data every 1000 steps bf 100

# Define a fix  in this case with index 1 applied to all
# particles in the simulation. This fix is for simulations
# in the anisotropic NPT ensemble. Note that we use the MTK
# correction.
fix 1 all npt temp 2.4 2.4 0.1 iso 5.68 5.68 0.5 mtk yes tchain 5 pchain 5 # Use NPT ensemble
                                                                         # Set temperature and pressure and damping
                                                                         # Numbers of thermostats in chain and in barostat
run 10000          # run for 10000 steps
Per MPI rank memory allocation (min/avg/max) = 3.642 | 3.644 | 3.648 Mbytes
Step Temp E_pair E_mol TotEng Press Volume 
       0          2.4   -7.2871769            0   -3.6880769   -3.4159639         4000 
    1000      2.40568   -4.7455683            0   -1.1379504    5.8397788    4589.3608 
    2000    2.4111503   -4.7804658            0   -1.1646446    5.7039271    4597.3457 
    3000     2.373307   -4.7913011            0   -1.2322306    5.7664723    4575.4894 
    4000    2.4328437   -4.7947429            0   -1.1463896    5.7609802    4573.0218 
    5000    2.4336855   -4.7550964            0   -1.1054808     5.487885    4637.8439 
    6000    2.3620762     -4.80981            0   -1.2675814    5.5614602    4586.0368 
    7000    2.4440653   -4.7450647            0   -1.0798833    5.6903092     4619.661 
    8000    2.4202606   -4.7828914            0   -1.1534081    5.6825186    4584.8193 
    9000    2.3881515   -4.7794656            0   -1.1981338    5.6356235    4608.6917 
   10000     2.381719   -4.7324835            0   -1.1607982    5.8794548      4600.46 
Loop time of 2.21645 on 48 procs for 10000 steps with 4000 atoms

Performance: 779624.288 tau/day, 4511.715 timesteps/s
99.7% CPU use with 48 MPI tasks x no OpenMP threads

MPI task timing breakdown:
Section |  min time  |  avg time  |  max time  |%varavg| %total
---------------------------------------------------------------
Pair    | 0.91583    | 1.0003     | 1.059      |   3.0 | 45.13
Neigh   | 0.19394    | 0.20142    | 0.20898    |   0.9 |  9.09
Comm    | 0.69812    | 0.76726    | 0.86409    |   4.2 | 34.62
Output  | 0.00023749 | 0.00024346 | 0.00030293 |   0.0 |  0.01
Modify  | 0.21233    | 0.23291    | 0.2589     |   2.4 | 10.51
Other   |            | 0.01429    |            |       |  0.64

Nlocal:        83.3333 ave          95 max          74 min
Histogram: 2 6 6 7 8 8 6 2 1 2
Nghost:        1499.17 ave        1535 max        1466 min
Histogram: 2 3 7 7 8 5 6 6 3 1
Neighs:        8288.40 ave        9770 max        7090 min
Histogram: 1 5 7 6 10 8 4 5 0 2

Total # of neighbors = 397843
Ave neighs/atom = 99.460750
Neighbor list builds = 909
Dangerous builds = 204

# Equilibrate just above the melting temperature to avoid step fn in T

fix 1 all npt temp 1.25 1.25 0.1 iso 5.68 5.68 0.5 mtk yes tchain 5 pchain 5
run 2000
Per MPI rank memory allocation (min/avg/max) = 3.642 | 3.644 | 3.649 Mbytes
Step Temp E_pair E_mol TotEng Press Volume 
   10000     2.381719   -4.7324835            0   -1.1607982    5.8794548      4600.46 
   11000    1.2390299   -6.4303143            0    -4.572234    5.4954675    3784.7074 
   12000    1.2620507   -6.4251645            0   -4.5325618    5.7440279    3769.8038 
Loop time of 0.494215 on 48 procs for 2000 steps with 4000 atoms

Performance: 699290.304 tau/day, 4046.819 timesteps/s
99.6% CPU use with 48 MPI tasks x no OpenMP threads

MPI task timing breakdown:
Section |  min time  |  avg time  |  max time  |%varavg| %total
---------------------------------------------------------------
Pair    | 0.22021    | 0.23593    | 0.2572     |   1.9 | 47.74
Neigh   | 0.032059   | 0.033594   | 0.035754   |   0.5 |  6.80
Comm    | 0.14831    | 0.16967    | 0.19144    |   2.4 | 34.33
Output  | 5.0713e-05 | 5.1872e-05 | 6.6171e-05 |   0.0 |  0.01
Modify  | 0.040815   | 0.050418   | 0.058893   |   2.3 | 10.20
Other   |            | 0.004552   |            |       |  0.92

Nlocal:        83.3333 ave          92 max          76 min
Histogram: 2 6 3 12 3 7 7 5 2 1
Nghost:        1702.40 ave        1746 max        1675 min
Histogram: 4 10 3 7 14 2 5 1 1 1
Neighs:        10127.4 ave       11279 max        9135 min
Histogram: 3 4 9 3 10 5 4 4 3 3

Total # of neighbors = 486116
Ave neighs/atom = 121.52900
Neighbor list builds = 142
Dangerous builds = 12

#############################
# L I N E A R  Q U E N C H  #
#############################

# Define solid atoms. This closely follows ten Wolde  Ruiz-Montero and Frenkel  Faraday Discuss  1996  104  93-110
# Compute components of the per-atom q6 vector
compute q6 all orientorder/atom degrees 1 6 components 6 nnn NULL cutoff 1.3 # compute the Q6 parameter.
                                                                             # Use all neighbours within 1.3 unit cell.

# get number of connections
compute coord_number all coord/atom orientorder q6 0.5

# An atom is solid if it has 8 or more connections (of a possible 14)
variable is_solid atom c_coord_number>=8
group solid dynamic all var is_solid    # Must be dynamic to update
dynamic group solid defined

# do clustering
compute cluster solid cluster/atom 1.3 # Create a cluster where all atoms within are solid and max 1.3 units from another member

# define chunks one chunk per cluster
compute clus_chunks solid chunk/atom c_cluster nchunk every compress yes  # Says which atoms are in which chunk

# count the size of each chunk
compute size_chunks solid property/chunk clus_chunks count


# Find the maximum entry in the vector of chunk sizes
variable max_n equal max(c_size_chunks)


# Thermo style which includes this variable
# thermo_style custom step temp pe vol v_max_n

thermo ${N}  # Print the thermo information every 100 steps
thermo 1000  

# Reset the npt fix at a lower temperature (below freezing)
fix 1  all npt temp  ${temp} ${temp}  0.1  iso  5.68  5.68  0.5  mtk yes tchain  5  pchain  5
fix 1  all npt temp  0.45 ${temp}  0.1  iso  5.68  5.68  0.5  mtk yes tchain  5  pchain  5
fix 1  all npt temp  0.45 0.45  0.1  iso  5.68  5.68  0.5  mtk yes tchain  5  pchain  5

dump dmp2 all dcd ${N} traj.dcd
dump dmp2 all dcd 1000 traj.dcd


compute msd all msd com yes
variable twopoint equal c_msd[4]/6/(step*dt+1.0e-6)
fix 9 all vector 10 c_msd[4]
variable fit equal slope(f_9)/6/(10*dt)
thermo_style custom step temp pe c_msd[4] v_twopoint v_fit v_max_n

fix 1 all npt temp 1.25 ${temp} 0.1 iso 5.68 5.68 0.5 mtk yes tchain 5 pchain 5
fix 1 all npt temp 1.25 0.45 0.1 iso 5.68 5.68 0.5 mtk yes tchain 5 pchain 5
run 2000000 # 5000000  # Run for this many steps
Neighbor list info ...
  update every 1 steps, delay 10 steps, check yes
  max neighbors/atom: 2000, page size: 100000
  master list distance cutoff = 3.8
  ghost atom cutoff = 3.8
  binsize = 1.9, bins = 9 9 9
  4 neighbor lists, perpetual/occasional/extra = 1 3 0
  (1) pair lj/cut, perpetual
      attributes: half, newton on
      pair build: half/bin/atomonly/newton
      stencil: half/bin/3d
      bin: standard
  (2) compute orientorder/atom, occasional
      attributes: full, newton on
      pair build: full/bin/atomonly
      stencil: full/bin/3d
      bin: standard
  (3) compute coord/atom, occasional
      attributes: full, newton on
      pair build: full/bin/atomonly
      stencil: full/bin/3d
      bin: standard
  (4) compute cluster/atom, occasional
      attributes: full, newton on
      pair build: full/bin/atomonly
      stencil: full/bin/3d
      bin: standard
Per MPI rank memory allocation (min/avg/max) = 9.763 | 9.770 | 9.777 Mbytes
Step Temp PotEng c_msd[4] v_twopoint v_fit v_max_n 
   12000    1.2620507   -6.4251645 8.5058927e-31 5.9068697e-33 8.3333333e+20            2 
   13000    1.2662493   -6.4301349   0.56391281 0.0036148256  0.046718122            1 
   14000    1.2564592   -6.4745983    1.1081052 0.0065958642   0.04626802            3 
   15000     1.253427   -6.4596614    1.6059034 0.0089216855  0.045138992            3 
   16000    1.2634598   -6.4533148    2.0654292  0.010757443  0.043269928            2 
   17000     1.252595   -6.4137732    2.6036377   0.01276293  0.042535694            1 
   18000     1.249657   -6.4344968    3.2137232  0.014878348  0.043127647            2 
   19000    1.2584298   -6.4265461    3.7828875  0.016591611  0.043800791            2 
   20000     1.263434   -6.4729395    4.3344008  0.018060003  0.044458558            1 
   21000    1.2548434   -6.4043173    4.8721205  0.019333811  0.044839209            1 
   22000     1.246649   -6.3805962    5.3384145  0.020221267  0.044738617            1 
   23000    1.2429535   -6.4182486    5.8491781  0.021192674  0.044518555            2 
   24000    1.2408143   -6.4254323    6.3595687  0.022081835  0.044336854            3 
   25000    1.2492973   -6.4363857    6.8774117  0.022924705  0.044276779            2 
   26000    1.2433708    -6.475662    7.4770076  0.023964768  0.044234036            5 
   27000    1.2446343   -6.4532205    7.9177058  0.024437363  0.044150335            2 
   28000    1.2661372   -6.4370789    8.4749674  0.025223117  0.044135086            4 
   29000    1.2716471   -6.4554794    9.0891084  0.026118127  0.044210345            3 
   30000    1.2428472   -6.4566772    9.5556042  0.026543345  0.044254292            5 
   31000    1.2344334   -6.4314383    10.041624  0.026993614  0.044181949            1 
   32000    1.2200412   -6.4223894    10.522507  0.027402362  0.044080962            2 
   33000     1.221826   -6.4656558    11.049226  0.027902085  0.043954589            2 
   34000    1.2262426   -6.4473012    11.514049  0.028220709  0.043843935            3 
   35000      1.27468   -6.4426119    12.042175  0.028671844  0.043728525            3 
   36000    1.2242233   -6.4176579    12.568109  0.029092845  0.043669202            2 
   37000    1.2381598   -6.4384402    13.068355  0.029433231  0.043585863            4 
   38000    1.2421484   -6.4619167    13.680161  0.030000353  0.043551434            2 
   39000    1.2499642   -6.4322694    14.351281  0.030665129  0.043611311            6 
   40000    1.2465071   -6.4835557    14.708862  0.030643461  0.043665336            2 
   41000     1.239303    -6.452256    15.301842  0.031101304  0.043691823            5 
   42000    1.2385948   -6.4032363    15.775259  0.031300118  0.043699321            2 
   43000    1.2220784    -6.460167    16.222408  0.031438775  0.043658035            4 
   44000    1.2324708   -6.4639979    16.669763  0.031571521   0.04361836            3 
   45000    1.2379645   -6.4498127    17.171281  0.031798669  0.043522989            3 
   46000    1.2232936   -6.4336006    17.593811  0.031872846   0.04343494            1 
   47000    1.2216387   -6.4731782    18.053675  0.032010061  0.043338034            3 
   48000    1.2683314   -6.4266921    18.670561  0.032414169  0.043254432            1 
   49000    1.2372666   -6.4494283    19.260321  0.032755648   0.04318387            2 
   50000    1.2384504   -6.5199991    19.757958  0.032929929  0.043140326            2 
   51000     1.224976   -6.4849119    20.202357  0.033010387  0.043119186            2 
   52000     1.237763   -6.4731718    20.609813  0.033028547  0.043064134            2 
   53000    1.2111254   -6.5001957    20.985075    0.0329954  0.042984671            1 
   54000    1.2372559   -6.4309492    21.610671  0.033349801  0.042898355            1 
   55000    1.2443609    -6.437232    22.072073  0.033442535  0.042841459            1 
   56000    1.2290954   -6.4518147    22.494092  0.033473351  0.042779519            2 
   57000    1.2233282   -6.4177793    22.849217  0.033405288  0.042691403            1 
   58000    1.2425792   -6.4562632    23.560515  0.033851314  0.042611552            1 
   59000    1.2176256   -6.4556384    24.208154  0.034192308  0.042577442            2 
   60000    1.2140201   -6.4501669    24.565409  0.034118624  0.042557331            1 
   61000    1.2420153   -6.4995193     25.07589  0.034256679  0.042530822            1 
   62000    1.2246332   -6.4536592     25.62937  0.034448078  0.042497986            3 
   63000    1.2412034   -6.4425577    26.081386  0.034499188  0.042467592            1 
   64000    1.2343294   -6.4933198    26.489465  0.034491491  0.042418089            4 
   65000    1.2128067   -6.4673656    27.169173  0.034832273  0.042386177            1 
   66000    1.2485335   -6.4891867    27.457065  0.034668011  0.042351443            3 
   67000    1.2194281    -6.478269    27.964624   0.03478187  0.042305837            5 
   68000      1.24631   -6.4775963    28.669763  0.035134513  0.042273512            2 
   69000    1.2097687   -6.4608925    29.123702  0.035173552  0.042263045            3 
   70000    1.2345043   -6.4670622    29.764524  0.035433957  0.042272691            4 
   71000    1.2374868   -6.4870404    30.186093  0.035429687  0.042276772            1 
   72000    1.2132161   -6.4800426    30.716972  0.035552051  0.042271785            3 
   73000    1.2185925   -6.4708221    31.338086  0.035774071  0.042274425            1 
   74000    1.2311619   -6.4613027    31.845983  0.035862594    0.0422828            2 
   75000    1.2451084   -6.4612367    32.429726  0.036033028  0.042311902            2 
   76000    1.2087422   -6.4940199    32.814144  0.035980421  0.042320182            1 
   77000      1.19308   -6.4530662    33.153272  0.035880164  0.042313107            1 
   78000    1.2363202   -6.4869694    33.673185  0.035975625  0.042302708            1 
   79000    1.2338926   -6.4693989    34.092292  0.035962333  0.042278476            1 
   80000    1.2280095   -6.4977483    34.608863  0.036050899  0.042262573            2 
   81000    1.1880859   -6.4837896    35.342267  0.036360357  0.042257473            2 
   82000    1.2369923   -6.4531429     35.77601  0.036357734  0.042254623            2 
   83000    1.2152515   -6.4478475    36.323089  0.036468965  0.042247102            1 
   84000    1.2162306   -6.4854914    36.691155  0.036399955  0.042232477            2 
   85000    1.1989821    -6.499459    37.145055   0.03641672   0.04221459            3 
   86000    1.2257893   -6.4919567    37.625334  0.036458657  0.042201288            4 
   87000    1.2167754     -6.45843    38.188989  0.036579491  0.042190896            3 
   88000    1.2188622   -6.4966402    38.751535  0.036696529  0.042188394            2 
   89000    1.2217568   -6.4445437    39.347123  0.036841875  0.042186887            2 
   90000    1.2045166   -6.5099597    39.611428  0.036677248  0.042181706            2 
   91000    1.2140858   -6.4760639    40.386157   0.03698366  0.042176466            2 
   92000    1.2066336   -6.5317091    40.769263   0.03692868  0.042171645            3 
   93000     1.217427   -6.5265709     41.20332  0.036920537  0.042166376            3 
   94000     1.266133   -6.4904863    41.727732   0.03699267  0.042162803            2 
   95000    1.1942063   -6.4823048     42.44808  0.037235158  0.042166079            3 
   96000    1.1909623   -6.4821073    42.896165  0.037236254  0.042173312            2 
   97000    1.2140161   -6.5070529    43.122988  0.037047241  0.042170354            3 
   98000    1.1931414   -6.4937179    43.741128  0.037194837  0.042158061            1 
   99000    1.2557065   -6.4398914    43.966249  0.037008627  0.042143975            2 
  100000    1.2114146   -6.4870925    44.485953  0.037071627  0.042125542            1 
  101000    1.2110035    -6.516794     44.87483  0.037025437  0.042107133            3 
  102000    1.2091941    -6.489063    45.692158  0.037330194  0.042093175            4 
  103000    1.2335387   -6.5196809    46.153748   0.03734122  0.042084895            4 
  104000    1.2270118   -6.4846132    46.601177  0.037340687  0.042074071            1 
  105000    1.1867105   -6.4875303     47.19039  0.037452691  0.042063854            2 
  106000    1.2133048   -6.5303113    47.806634  0.037583832  0.042061037            2 
  107000    1.2213315   -6.4762555    48.374866  0.037675129  0.042066628            1 
  108000    1.1937915    -6.503631    48.782922  0.037641144  0.042064551            1 
  109000    1.2234654   -6.4729846    49.255965  0.037657465  0.042059149            4 
  110000    1.1747939   -6.5568052    49.760413  0.037697283  0.042055648            4 
  111000    1.2142384   -6.5422007    50.329973  0.037785265  0.042056552            2 
  112000    1.2035638   -6.4668013    50.834891  0.037823579  0.042056395            3 
  113000    1.2209637   -6.4916915    51.241821  0.037788953  0.042058701            1 
  114000    1.2124723   -6.5034303    52.034401  0.038036843   0.04205952            3 
  115000    1.2140684   -6.5339829    52.516746  0.038055613  0.042061575            2 
  116000    1.2216354   -6.4943394    52.925509  0.038021199  0.042068461            1 
  117000     1.196535    -6.524522    53.188761  0.037883732  0.042071512            1 
  118000    1.2039651    -6.499028    53.843958  0.038025394  0.042070841            3 
  119000    1.2294034   -6.5020696    54.396424  0.038092733  0.042071642            2 
  120000    1.2018173   -6.5333894    54.716998  0.037997915  0.042068479            2 
  121000    1.2157744   -6.4902404    55.157787  0.037987456  0.042058976            2 
  122000    1.1874333   -6.5253018    55.640892  0.038006074  0.042053925            4 
  123000     1.240685   -6.5095603    56.381947  0.038199151  0.042049459            2 
  124000      1.21768   -6.5490579     56.45783   0.03794209  0.042039348            2 
  125000    1.2387055   -6.5402581    56.987832  0.037991888  0.042028984            2 
  126000    1.2159422   -6.4935809    57.652566  0.038130004  0.042015996            2 
  127000    1.2047511   -6.5183274      57.9442  0.038021129  0.042002606            3 
  128000    1.2242588   -6.5167808    58.351861  0.037989493  0.041984027            2 
  129000    1.2265609    -6.508491    58.918444   0.03806101  0.041968194            3 
  130000     1.216288   -6.5072517    59.403595  0.038079227  0.041953193            3 
  131000    1.2236527   -6.5057975    59.874356  0.038088012  0.041936495            2 
  132000    1.2202294   -6.5031716    60.505026  0.038197617  0.041922186            2 
  133000    1.2212577   -6.5253703    60.909632   0.03816393  0.041909117            3 
  134000    1.1716161     -6.57022    61.316386  0.038132081  0.041892529            3 
  135000    1.2217362   -6.5338208    61.957796  0.038245553  0.041875673            3 
  136000    1.1969727   -6.5371886    62.545319  0.038324338  0.041862955            3 
  137000    1.2071658   -6.5162048    63.042614  0.038347089   0.04185806            2 
  138000    1.2506984   -6.5479416    63.413772   0.03829334  0.041851557            3 
  139000    1.1824892    -6.536952     64.24333  0.038515186  0.041850228            2 
  140000    1.1876461   -6.5648812    64.533632  0.038412876  0.041849432            2 
  141000    1.1905867    -6.517296    65.402505  0.038653963  0.041851153            2 
  142000    1.1834144   -6.5219059    65.662712  0.038534455  0.041854552            5 
  143000    1.2077258   -6.5194584    66.522767  0.038766181  0.041853615            4 
  144000    1.1913613   -6.5163533    66.774196  0.038642474  0.041852279            1 
  145000     1.184379   -6.5330155    67.117614  0.038573341  0.041852728            3 
  146000    1.2064119    -6.494047    67.902843   0.03875733  0.041849818            2 
  147000    1.2130344   -6.5348574    68.272489  0.038703225  0.041848953            3 
  148000    1.2123772   -6.4957499    68.741979  0.038706069  0.041846786            2 
  149000    1.1785782    -6.547291    68.765931  0.038459693  0.041840893            2 
  150000    1.1857629   -6.5238562    69.503596  0.038613109  0.041833473            3 
  151000     1.216999   -6.5758433    69.852874  0.038550151   0.04182604            4 
  152000    1.2008182   -6.5616896    70.410103   0.03860203  0.041815253            2 
  153000    1.2195846   -6.5216065    70.868478  0.038599389  0.041804615            2 
  154000    1.1780259   -6.5023883    71.562196  0.038724132   0.04179346            1 
  155000    1.1945877   -6.5505028    71.730628  0.038564853  0.041782884            2 
  156000    1.1816523   -6.4860381     72.71588  0.038843953  0.041773706            1 
  157000    1.2265731   -6.5505627    72.793912  0.038637957  0.041762674            2 
  158000    1.1865563   -6.5347899    73.276731  0.038648065  0.041751572            1 
  159000    1.1891653   -6.5547666    73.683643  0.038618261  0.041738296            3 
  160000    1.2085531   -6.5367535    74.011907  0.038547868  0.041725477            3 
  161000    1.1943649   -6.5530589    74.534811  0.038579094  0.041711453            4 
  162000     1.190615   -6.5168269    75.247721  0.038707676  0.041699429            1 
  163000    1.1894229   -6.4996625    75.862831  0.038784678   0.04168959            2 
  164000    1.1838473   -6.5424137    76.062112  0.038649447  0.041679688            1 
  165000    1.1718332   -6.5359389    77.002642  0.038890223  0.041671176            2 
  166000    1.1948696   -6.5587681    77.381373  0.038846071  0.041665763            2 
  167000    1.1973912   -6.5341815     77.90049    0.0388725  0.041658009            3 
  168000    1.1852157   -6.5271284    77.890833  0.038636326  0.041644936            1 
  169000    1.1770246    -6.538186    78.591418  0.038753164   0.04163274            2 
  170000    1.2001074   -6.5513962    78.802953  0.038628898  0.041621575            2 
  171000    1.1766377   -6.5393166    79.513573  0.038749304  0.041609878            3 
  172000    1.1704514   -6.5525994    79.763437  0.038645076  0.041595904            2 
  173000    1.2094992   -6.5788977    80.270877  0.038666125  0.041582125            3 
  174000    1.2012157   -6.5375002    81.057951  0.038820858  0.041568608            3 
  175000    1.1957579   -6.5509158    81.026364  0.038583983  0.041556401            3 
  176000    1.1785036   -6.5482267     81.97974  0.038816165  0.041543488            2 
  177000    1.1817578   -6.5291161    82.600103  0.038888937  0.041533135            3 
  178000    1.1942129   -6.5543401    82.882647  0.038802737  0.041522732            3 
  179000    1.1862254   -6.5807693    82.555744  0.038433773  0.041509706            3 
  180000    1.1920489   -6.5993511    83.481866  0.038649012  0.041493639            1 
  181000    1.1724623   -6.5242514    83.785732  0.038575383   0.04147714            2 
  182000    1.1841886   -6.5201325     84.57189  0.038723393  0.041462789            2 
  183000    1.1677968   -6.5436322    84.981843  0.038698471   0.04144907            2 
  184000    1.2004442   -6.5667868    85.246477  0.038608006  0.041433412            3 
  185000    1.1644722   -6.5872554    85.742372   0.03862269  0.041416491            1 
  186000    1.1848852   -6.5678872    86.149694  0.038597533  0.041398751            2 
  187000    1.1417979   -6.5489771     86.70393  0.038638115  0.041380446            3 
  188000    1.1933204   -6.5665626     87.12731  0.038620262  0.041365108            4 
  189000    1.1685391   -6.5503141    87.560964  0.038607127  0.041352199            4 
  190000    1.1733313   -6.5909473    87.937461  0.038569062  0.041336961            3 
  191000     1.204045   -6.5899481    88.579314   0.03864717  0.041319074            2 
  192000    1.1738565   -6.5672876    89.154495  0.038695527   0.04130174            2 
  193000    1.1932239    -6.571607    89.487665  0.038638888  0.041284797            2 
  194000     1.174837   -6.5668012    89.867085    0.0386027  0.041268363            2 
  195000    1.1683926    -6.566916    90.334016   0.03860428  0.041251776            1 
  196000    1.1541314   -6.5923923    90.504583   0.03847984  0.041233495            3 
  197000    1.1782653   -6.5383116    91.078757  0.038527393  0.041213343            2 
  198000    1.1743681   -6.5864433    91.079031  0.038332925  0.041191086            1 
  199000    1.1930364   -6.5915423    92.054602  0.038548828  0.041167947            2 
  200000    1.1642833   -6.5634631    92.560294  0.038566789  0.041147609            2 
  201000    1.1606796    -6.574726    92.574809  0.038380932  0.041127372            2 
  202000    1.1440295   -6.5813732    93.025172  0.038376721  0.041104766            2 
  203000    1.1585239   -6.5996369    93.576795  0.038414119  0.041082447            2 
  204000    1.1635471   -6.5826626    93.569631  0.038222889  0.041060134            2 
  205000    1.1849446   -6.5672911      94.3075  0.038336382  0.041034102            3 
  206000    1.1849243   -6.5735235    94.594652  0.038266445  0.041007706            2 
  207000    1.1863738   -6.5662906    95.289314  0.038361237   0.04098065            3 
  208000    1.1616162   -6.5516844    95.819923  0.038389392  0.040955338            2 
  209000    1.1726013   -6.5483324    96.347912  0.038416233  0.040934221            1 
  210000    1.1702597   -6.5928945    97.010062  0.038496056  0.040916371            1 
  211000     1.175129   -6.6121449    97.395163  0.038465704  0.040899271            2 
  212000    1.1722614   -6.6094955     98.06216  0.038546446  0.040883165            2 
  213000    1.1648023   -6.5726241    98.729643  0.038626621  0.040869608            3 
  214000    1.1900816   -6.6147638    98.776603  0.038464409  0.040855743            2 
  215000    1.1782116   -6.5927642    99.440254  0.038542734  0.040841415            3 
  216000    1.1523235    -6.594854    99.727478  0.038475107  0.040829367            1 
  217000    1.1794852   -6.5925077    100.48607  0.038589119  0.040815888            3 
  218000    1.1519085   -6.5646608    100.50231  0.038418313  0.040801112            2 
  219000    1.1669493   -6.5722945    100.71391  0.038323405  0.040782012            3 
  220000    1.1704588   -6.5600829    101.73692  0.038536712  0.040763067            2 
  221000    1.1861683   -6.5722237    101.90121  0.038424286  0.040745532            2 
  222000    1.1631894   -6.6153446    102.09005   0.03832209  0.040727424            4 
  223000    1.1535345   -6.5649596    102.86574  0.038440111   0.04070894            1 
  224000    1.1276314   -6.6082392    102.99593  0.038316938  0.040689491            2 
  225000    1.1213587   -6.5493512    103.60733  0.038373086  0.040667959            2 
  226000    1.1414417   -6.6077323    103.87512  0.038302037  0.040648255            4 
  227000    1.1601275   -6.6194803     104.4931  0.038360169  0.040629356           13 
  228000    1.1911195   -6.5876123    104.74039  0.038282305  0.040610314            2 
  229000    1.1540584   -6.5930087    105.18739    0.0382778  0.040589709            4 
  230000    1.1487633   -6.6221452    105.06767  0.038067996  0.040567615            2 
  231000    1.1447214   -6.5923847    106.21809  0.038318214   0.04054526            2 
  232000    1.1866547   -6.6225391    106.21027  0.038150241   0.04052327            3 
  233000    1.1606144   -6.5844371    106.21924  0.037989713  0.040499432            2 
  234000    1.1504487   -6.6092458    106.92718  0.038079479  0.040475146            1 
  235000    1.1580492    -6.539122    107.55264  0.038139234  0.040453786            4 
  236000    1.1677093   -6.6521863    108.02989  0.038146149  0.040432986            3 
  237000    1.1595106   -6.5778554    109.02461  0.038334955  0.040414321            3 
  238000    1.1505863   -6.5710814    109.05972  0.038186177  0.040397332            3 
  239000    1.1835067   -6.5965806    110.11293  0.038393629  0.040381898            3 
  240000    1.1899757   -6.5875453    110.42546  0.038342172  0.040366287            2 
  241000    1.1545664   -6.6302095    110.92998  0.038357531  0.040350907            1 
  242000    1.1630677   -6.6138025    110.81499  0.038159433  0.040334144            3 
  243000    1.1700617   -6.6051953    111.73986  0.038319568  0.040317893            6 
  244000    1.1435422   -6.6012776    112.59402  0.038454242  0.040303823            2 
  245000    1.1533586   -6.5941807    113.41244  0.038575661  0.040292415            3 
  246000    1.1293015   -6.6240227    113.43723  0.038427245  0.040282042            3 
  247000    1.1670624    -6.630599    113.79479  0.038392304   0.04026988            3 
  248000    1.1696489   -6.6098938    114.11916  0.038346492  0.040256697            2 
  249000    1.1389427   -6.5959389    114.40026  0.038286567  0.040244512            4 
  250000    1.1315789   -6.6119579    114.96731  0.038322437  0.040231166            2 
  251000    1.1292942    -6.624043    115.61679  0.038385387  0.040217303            2 
  252000    1.1547565   -6.6212081    116.25481  0.038444052  0.040205239            2 
  253000    1.1689623   -6.5982536     116.6189  0.038412024    0.0401927            2 
  254000    1.1634353   -6.5537294    117.07731  0.038411192  0.040180087            4 
  255000    1.1616224   -6.6270562    117.25818  0.038319667  0.040166718            3 
  256000    1.1592271   -6.6204753     117.8416  0.038359896  0.040154153            5 
  257000    1.1870354   -6.6211971    118.31747  0.038364938  0.040140326            1 
  258000    1.1572851   -6.5960402    118.82866   0.03838135  0.040126578            2 
  259000    1.1922834   -6.6215984    118.88121  0.038250069  0.040113992            5 
  260000    1.1297011   -6.6257336    119.46784  0.038290974  0.040101963            3 
  261000    1.1677048   -6.6011427    119.85033   0.03826639  0.040088998            1 
  262000    1.1449085   -6.6057677    120.10694  0.038201953  0.040075127            2 
  263000    1.1743837     -6.61168    120.40001  0.038149561  0.040059983            2 
  264000     1.144324   -6.6350727    120.75305  0.038116494  0.040044803            2 
  265000    1.1321971   -6.5807246    121.91124  0.038336867  0.040028811            3 
  266000    1.1457879   -6.6316648    121.64398  0.038109016  0.040012558            3 
  267000    1.1685467   -6.5959921    121.96098  0.038065225  0.039995083            1 
  268000    1.1663915   -6.5941903    122.51837  0.038096508  0.039976323            2 
  269000    1.1316086   -6.6422789    122.61328  0.037984289  0.039959229            3 
  270000    1.1587747   -6.6278727    122.86443  0.037921122  0.039940272            2 
  271000     1.136228   -6.6152795    123.85164  0.038084759   0.03992147            3 
  272000    1.1713112   -6.6342933    124.12459  0.038028367  0.039901834            3 
  273000    1.1565051   -6.6229242    123.88271  0.037815235  0.039881274            1 
  274000    1.1180834    -6.628955    124.44881  0.037849396  0.039859913            1 
  275000    1.1445131   -6.5780926    124.69049  0.037784996  0.039838395            2 
  276000    1.1369869   -6.6215873    125.22269  0.037808782  0.039816173            2 
  277000    1.1741846   -6.6041498    125.36579   0.03771534  0.039794365            2 
  278000    1.1530678   -6.5676509    125.77343  0.037701867   0.03977052            2 
  279000    1.1530141   -6.6516811    126.21674  0.037699147  0.039747102            2 
  280000    1.1551975   -6.6577771    126.45064   0.03763412  0.039722697            3 
  281000    1.1405481   -6.5949265    126.99952  0.037662964  0.039698701            1 
  282000    1.1369738   -6.6036984    127.27233  0.037610026    0.0396746            3 
  283000    1.1497448   -6.6404142    127.75662  0.037619735  0.039649851            3 
  284000    1.1567702   -6.6210531    128.24905  0.037631763  0.039627194            3 
  285000    1.1414109   -6.6067284     128.9115   0.03769342  0.039604849            2 
  286000    1.1410571   -6.6189695    128.93795  0.037569334  0.039581858            2 
  287000    1.1460584   -6.6483309     129.1114  0.037488793  0.039558575            2 
  288000    1.1341888   -6.6125957    129.24392  0.037396968   0.03953563            2 
  289000    1.1020028   -6.6690085    129.74718   0.03741268  0.039511428            2 
  290000    1.1434784   -6.6378269    130.19201  0.037411498  0.039488151            3 
  291000    1.1599362   -6.6810169    130.68261  0.037423427  0.039463148            3 
  292000    1.1363317   -6.6514027    130.86187  0.037346424  0.039437003            4 
  293000    1.1315724   -6.6752675    130.93944  0.037241022  0.039408469            1 
  294000     1.157682   -6.6294569     131.3179  0.037221626  0.039379693            2 
  295000    1.1010795   -6.6889976    131.83947  0.037242788  0.039350811            3 
  296000    1.1467655   -6.6247042    132.08804  0.037186948  0.039321705            3 
  297000    1.1548431   -6.6443181    132.47592  0.037170573  0.039292295            4 
  298000    1.1365417   -6.6430711    132.50632   0.03705434  0.039262856            3 
  299000    1.1461107   -6.6468709    133.33025  0.037160046  0.039232675            4 
  300000    1.1505733   -6.5988654    133.71866  0.037144072  0.039203762            3 
  301000    1.1497257   -6.6568589    133.84532  0.037055735  0.039175649            2 
  302000    1.1241118   -6.6212139     134.4964  0.037112693  0.039147154            4 
  303000    1.1630017   -6.6862775    134.62718  0.037026178  0.039118369            2 
  304000    1.1312175   -6.6156274     135.7159  0.037202824  0.039090388            2 
  305000    1.1028781   -6.6524312     135.9581  0.037147022  0.039065378            2 
  306000      1.12106   -6.6571521    136.06814  0.037055594  0.039039821            5 
  307000    1.1346756   -6.6494609    137.04313  0.037199546  0.039015153            3 
  308000    1.1259542   -6.6212761    137.73275  0.037265354   0.03898951            2 
  309000    1.1475735   -6.6419062    137.33333  0.037037035  0.038965372            2 
  310000    1.1207621   -6.6624231    137.94402  0.037081726  0.038941167            5 
  311000    1.1314006   -6.6357214    138.16772  0.037022433  0.038915904            1 
  312000    1.1378658   -6.6597388    138.95098  0.037112976  0.038891454            4 
  313000    1.1527392   -6.6635656    138.81133  0.036957224  0.038864972            2 
  314000    1.1417362   -6.6381562    139.17567  0.036936218  0.038837664            1 
  315000    1.1223513   -6.6537847    139.22195  0.036831203  0.038810179            2 
  316000     1.127061   -6.6558422    139.36092  0.036751297  0.038780969            4 
  317000    1.1274995   -6.6977087    139.43444  0.036654691  0.038751629            2 
  318000    1.1380673   -6.6266908    139.75556  0.036623574  0.038722171            2 
  319000    1.1333888   -6.6606319    140.34017  0.036661485  0.038692135            1 
  320000    1.1610882    -6.629846    140.49184  0.036586416  0.038662061            2 
  321000    1.0966572   -6.6508089    141.20193  0.036656782   0.03863285            2 
  322000    1.1319231   -6.6083093    141.63375  0.036654696  0.038603533            3 
  323000    1.1194046   -6.6377948    141.90257   0.03661057  0.038574661            2 
  324000    1.1338145   -6.6566382    142.30454  0.036600962  0.038546195            2 
  325000    1.1183229   -6.6920162    142.54162  0.036549133  0.038517298            4 
  326000    1.1463648   -6.6526503    142.99546  0.036553032  0.038488657            3 
  327000     1.114448   -6.6379594    143.26593  0.036510175  0.038460117            4 
  328000    1.1309726   -6.6408572    144.25243    0.0366495  0.038431894            2 
  329000    1.1263455   -6.6753064    144.12928  0.036506911  0.038403272            4 
  330000    1.1335773   -6.6614914    144.86395  0.036581805  0.038374193            4 
  331000    1.1483863   -6.6500502    145.20603   0.03655741  0.038346654            3 
  332000      1.13602   -6.6685202    144.84205  0.036355936  0.038318949            3 
  333000    1.1427626   -6.6794713    146.12622  0.036568123  0.038291003            3 
  334000    1.1273782   -6.6584714    146.18167  0.036472472  0.038264214            2 
  335000     1.119009   -6.6411989     146.8946  0.036540946  0.038238008            1 
  336000    1.1051322   -6.7001162    147.08224   0.03647873   0.03821113            1 
  337000    1.1277032   -6.6562691    147.49375  0.036472244  0.038184578            5 
  338000    1.1171382   -6.6275815     148.0459  0.036500468  0.038157395            5 
  339000    1.1215027   -6.6842916    147.86824  0.036349125  0.038129944            5 
  340000    1.1298411   -6.6968909    147.90228  0.036250558  0.038103007            3 
  341000    1.1178632   -6.6586541    148.52318  0.036295987  0.038075792            2 
  342000    1.1346022   -6.6686735    149.19543  0.036353662  0.038049662            4 
  343000     1.115894   -6.6151167    150.15818  0.036481579  0.038024318            2 
  344000    1.1282439   -6.6777294     150.2607  0.036400363  0.037999797            5 
  345000    1.1254416   -6.6566412    150.44427  0.036339197  0.037974564            4 
  346000    1.0986033   -6.7206173    150.42349  0.036229163  0.037948578            4 
  347000    1.1316864   -6.6818898    150.78816  0.036212335  0.037922889            5 
  348000    1.1317621   -6.6845544    150.74177  0.036097167  0.037894899            4 
  349000    1.1033875   -6.6787848    151.80374  0.036247312  0.037867489            3 
  350000    1.1014046    -6.643439    152.29422  0.036260528  0.037840888            2 
  351000    1.1199017   -6.6838345    152.82707  0.036283729  0.037815214            3 
  352000     1.108482   -6.6882747    152.64458  0.036137447  0.037789269            2 
  353000    1.1501196   -6.6403727    153.30792  0.036191671  0.037762466            1 
  354000    1.1102949   -6.7104895    152.71133  0.035948995  0.037736754            3 
  355000    1.1311673   -6.6949026     153.5517  0.036044999  0.037710361            3 
  356000    1.1125691   -6.6914125    154.47783  0.036160541  0.037684549            3 
  357000    1.1092494   -6.6983714    154.26561  0.036009714  0.037659085            2 
  358000    1.1044719   -6.6796687    154.56966  0.035979902  0.037632975            2 
  359000     1.119738   -6.6892203    154.78451  0.035929553  0.037606881            2 
  360000    1.1027405   -6.6926857    155.08208  0.035898629  0.037578949            3 
  361000    1.1169107   -6.7068488     155.3091  0.035851593  0.037550687            3 
  362000    1.1122486   -6.7219285    156.05979  0.035925365  0.037522642            2 
  363000    1.1126068   -6.6944779    155.79548  0.035765721  0.037494961            3 
  364000    1.0909525     -6.68116    156.55855  0.035842158  0.037466132            4 
  365000    1.0988409   -6.6824508    156.42991   0.03571459   0.03743832            4 
  366000    1.1117973    -6.687764    156.65536  0.035668343  0.037409233            1 
  367000    1.1418114   -6.6801863    156.91873  0.035630955  0.037380184            2 
  368000    1.1070013   -6.7246647    156.93521  0.035537865  0.037350729            1 
  369000    1.1178905   -6.7037867      157.975  0.035676378  0.037321716            1 
  370000    1.1359608   -6.7180417    157.64805  0.035506319  0.037292571            5 
  371000    1.0947914   -6.7021524    158.80787  0.035671131  0.037263709            4 
  372000    1.1272497   -6.6950152    158.86913  0.035588962  0.037234575            2 
  373000    1.1268789   -6.7065285    158.46563  0.035403403  0.037204746            5 
  374000    1.1055717   -6.7192122    159.26954  0.035487866  0.037175454            2 
  375000    1.1109774   -6.7022093    159.38703   0.03541934    0.0371464            3 
  376000    1.1097865   -6.7027351    160.08905   0.03548073  0.037116799            4 
  377000    1.1331232   -6.6850737    160.29564  0.035432281  0.037087762            2 
  378000    1.1117521   -6.6912711    160.76016  0.035440952  0.037059153            5 
  379000    1.1047706   -6.6685209    161.36445   0.03548031  0.037030958            2 
  380000    1.1039509   -6.6914145    161.43362   0.03540211  0.037002551            3 
  381000    1.1031784   -6.7032013     161.9658   0.03542559  0.036974509            5 
  382000    1.1097252    -6.730417    162.52375   0.03545457  0.036946784            4 
  383000    1.0978257   -6.7067773    162.45655  0.035347378  0.036919455            2 
  384000    1.1200469   -6.6783505      163.955  0.035580511  0.036893298            2 
  385000    1.1037863   -6.6819391    163.92186  0.035480922  0.036867749            2 
  386000    1.0766796   -6.7174779    163.83241  0.035369691  0.036841757            3 
  387000    1.1127138    -6.703132    164.12065  0.035340363  0.036814996            2 
  388000     1.090494     -6.67976    164.90456  0.035417645  0.036788644            1 
  389000    1.0985268   -6.6908038    164.91252  0.035328303  0.036762442            2 
  390000    1.0835785   -6.7296372     164.7441   0.03520173  0.036735801            4 
  391000    1.1048578   -6.7061738    165.26835  0.035223434  0.036709228            2 
  392000    1.1011381   -6.7491487    165.62798  0.035210029  0.036683475            3 
  393000    1.1103703   -6.6887927    166.41869  0.035288102  0.036657689            3 
  394000    1.1341361   -6.6989733    166.75174  0.035268981  0.036632376            3 
  395000     1.089842   -6.7001125    167.26283  0.035287517  0.036606862            2 
  396000    1.0953153   -6.7147285    166.76976  0.035094646   0.03658068            3 
  397000    1.0755623   -6.7156724    167.58063  0.035176456  0.036553932            3 
  398000    1.1041461   -6.7324925    167.49935  0.035071053  0.036527364            2 
  399000    1.0850738   -6.7134148    167.89967  0.035066764  0.036501185            3 
  400000    1.1133682   -6.6955667    168.69425  0.035144636  0.036476101            3 
  401000    1.0718991   -6.6983325    169.37325  0.035198099  0.036450255            4 
  402000    1.1035812   -6.7440008    169.15688  0.035065688  0.036424464            1 
  403000    1.1011204   -6.7657252    169.71268  0.035093606  0.036397856            1 
  404000    1.1011323   -6.7406114    169.87954  0.035041159  0.036372178            2 
  405000    1.0989643   -6.7556434    170.10576  0.035001185  0.036346181            2 
  406000    1.1148563   -6.7556228    170.78105  0.035053582  0.036321296            4 
  407000    1.0796314   -6.7286097    171.05484  0.035023514  0.036296951            7 
  408000     1.115144   -6.7667937    171.15042  0.034957194  0.036273066            3 
  409000    1.0825314   -6.7002529     172.5095  0.035148635  0.036249392            3 
  410000    1.0982052   -6.7619715    172.16508  0.034992903  0.036226217            2 
  411000    1.0951344   -6.7326181    172.57572  0.034991022  0.036203227            5 
  412000    1.0852677   -6.7507347    173.85748  0.035165348  0.036181404            4 
  413000    1.0928564   -6.6986616    174.59062  0.035228131  0.036159643            3 
  414000     1.095155   -6.7300449    174.60175   0.03514528   0.03613888            5 
  415000    1.0685044     -6.71959    175.00114  0.035140792  0.036117187            2 
  416000    1.1041806   -6.7069604     175.4399   0.03514421   0.03609535            3 
  417000    1.0937305   -6.7347207    175.47514  0.035066974  0.036073629            7 
  418000     1.085747   -6.7145827    176.18151  0.035123905  0.036052863            2 
  419000    1.1040199   -6.7649434    176.72755  0.035148676  0.036033259            4 
  420000    1.1064021   -6.7685492    176.85392  0.035090064  0.036013574            5 
  421000    1.0781568   -6.7284228    177.40342  0.035115482  0.035994293            2 
  422000    1.0894965   -6.7447925    177.71041  0.035092892  0.035975158            2 
  423000    1.0779252   -6.7620153    177.24428  0.034918102  0.035955062            2 
  424000    1.1051204   -6.7179278    178.45757  0.035074208  0.035934891            2 
  425000    1.1007331   -6.7647064    178.47869  0.034995822   0.03591459            3 
  426000     1.072988   -6.7404361    178.18087  0.034855413  0.035893841            4 
  427000    1.0943002   -6.7226991    178.46477   0.03482919  0.035872045            1 
  428000    1.0943916   -6.7323634    178.78918  0.034810978  0.035849631            5 
  429000    1.0828925   -6.7448391    178.89603  0.034750589  0.035827372            3 
  430000    1.0891687   -6.7588966    179.25065  0.034738498  0.035804618            6 
  431000    1.0673583   -6.7328488    180.19779  0.034841027  0.035782385            2 
  432000     1.078588   -6.7436164    179.91722  0.034706254  0.035760898            2 
  433000     1.084368   -6.7475529    180.40836  0.034720624   0.03573993            3 
  434000     1.092891   -6.7406321    181.43552   0.03483785  0.035719118            5 
  435000    1.0644453   -6.7250411    181.35183   0.03474173  0.035698415            4 
  436000    1.0567645     -6.71852    181.19263  0.034631618  0.035677701            4 
  437000    1.0860454   -6.7676391    182.00132  0.034706582  0.035656353            2 
  438000    1.0686827   -6.7401912    182.14976  0.034655585  0.035635211            2 
  439000     1.079062   -6.7606272    182.61859   0.03466564   0.03561363            2 
  440000    1.0797152   -6.7654673    182.64042  0.034590989  0.035592101            2 
  441000    1.0877759   -6.7729574    182.60881  0.034506578  0.035570239            8 
  442000    1.0822644   -6.7288304    183.49823  0.034596197  0.035548166            3 
  443000    1.1067083   -6.7589434     183.7021  0.034556452  0.035526024            2 
  444000    1.0578599   -6.7397249    183.86981  0.034510099  0.035503679            3 
  445000    1.0546425   -6.7669047    183.84378  0.034427675   0.03548108            1 
  446000    1.0820224   -6.7345864    184.85082  0.034538643  0.035458716            2 
  447000    1.0956927   -6.7433229    184.58659  0.034412116  0.035436476            3 
  448000     1.087819   -6.7584177    185.43733  0.034493552  0.035414247            5 
  449000    1.0702642    -6.736951    185.31341  0.034393728  0.035391977            2 
  450000    1.0862726   -6.7736129    185.49494  0.034350915   0.03536945            3 
  451000    1.0786697   -6.7732184    185.56835  0.034288313  0.035346596            9 
  452000    1.0653474   -6.7391037     186.2548  0.034339011  0.035323595            1 
  453000    1.0841046   -6.7330602     187.0989  0.034418488  0.035300945            3 
  454000     1.062561   -6.7949211    186.61299  0.034253485  0.035277963            2 
  455000    1.0772282   -6.7595487    186.79816  0.034212118  0.035254796            3 
  456000    1.0805056   -6.7341286    187.38674  0.034244652  0.035231546            5 
  457000     1.078997   -6.7562654    187.19127  0.034134075  0.035208665            2 
  458000    1.0724845   -6.7072168    188.00117  0.034206908  0.035185182            2 
  459000    1.0811303   -6.7198499    188.19842  0.034168196   0.03516227            4 
  460000    1.0696572   -6.7737853    188.22378   0.03409851  0.035138949            2 
  461000    1.0615763   -6.7338905    188.17592  0.034015894  0.035115312            3 
  462000    1.0872988   -6.7509237    188.88984  0.034071039  0.035091312            6 
  463000    1.0656788   -6.7447783    189.07932  0.034031554  0.035067649            2 
  464000    1.0827468   -6.7638053    189.18533  0.033977251  0.035044281            2 
  465000    1.0734361   -6.7572072    189.93526  0.034038576  0.035020803            3 
  466000    1.0817745   -6.8092699    190.35193  0.034040045  0.034997099            1 
  467000    1.0631963   -6.7334455    191.08083  0.034097221   0.03497426            2 
  468000     1.069721   -6.7988218    190.51792  0.033924131  0.034951292            2 
  469000    1.0698311    -6.782617    191.28784  0.033988601  0.034928802            2 
  470000    1.0570183   -6.7522401     192.1056  0.034061277  0.034906355            5 
  471000    1.0544043   -6.8049881    192.41938  0.034044475  0.034883584            1 
  472000    1.0605621    -6.757298    192.67392  0.034017288  0.034861811            2 
  473000    1.0737813   -6.7570457    192.71375  0.033952388  0.034840336            3 
  474000    1.0512693   -6.7640308     193.3165  0.033986726  0.034819103            3 
  475000    1.0574028   -6.7827392    193.45009  0.033938612  0.034798014            3 
  476000     1.040012   -6.7842923     193.6778  0.033907177  0.034776819            3 
  477000    1.0367458   -6.8111217    193.55217  0.033814146  0.034755133            9 
  478000    1.0797041   -6.7752986    193.50721  0.033735566  0.034732367            2 
  479000    1.0629667    -6.815927    193.87552  0.033729214  0.034709029            2 
  480000     1.040497   -6.7989902     194.1146  0.033700452  0.034686334            2 
  481000    1.0834751   -6.7745603    194.58297  0.033711534  0.034662896            5 
  482000    1.0677409   -6.7615456    194.99006  0.033711975  0.034639097            2 
  483000    1.0347439   -6.7703915    194.91167  0.033628652  0.034615674            2 
  484000    1.0515256   -6.7811729    194.42877  0.033476028  0.034592195            2 
  485000    1.0537688   -6.7939344     194.9413  0.033495068  0.034568115            3 
  486000    1.0696738    -6.776002    195.89184  0.033589135  0.034545225            2 
  487000    1.0336806   -6.7799397    196.86818   0.03368723     0.034523            5 
  488000    1.0772398   -6.7802749    197.24662  0.033682825  0.034500654            4 
  489000    1.0783293   -6.8062277    196.69168  0.033519372  0.034478578            4 
  490000    1.0537535   -6.7711351    198.14107  0.033697461  0.034456868            2 
  491000    1.0816144   -6.8041206    197.50706  0.033521225  0.034434977            2 
  492000    1.0608998    -6.815334    198.04212  0.033543719   0.03441241            3 
  493000    1.0595076   -6.7781904    198.08465  0.033482868  0.034389937            2 
  494000    1.0491719   -6.7916357    198.36354  0.033462136  0.034367417            2 
  495000    1.0659774   -6.7860813    198.62351  0.033438302  0.034344889            2 
  496000    1.0610141   -6.8007314    199.60371  0.033535569  0.034323328            4 
  497000    1.0576241   -6.7728616    200.15602  0.033560701  0.034302001            4 
  498000    1.0326663   -6.7630378      200.232  0.033506025  0.034281524            5 
  499000    1.0525016   -6.7795445    200.86427  0.033544468  0.034260574            3 
  500000    1.0599703   -6.7960503    201.43895  0.033573159  0.034239718            2 
  501000     1.026878   -6.7882772    200.98159  0.033430071  0.034218931            2 
  502000    1.0493093   -6.8013938    201.68706  0.033480587  0.034197699            2 
  503000    1.0576845   -6.8081454    201.12836  0.033321464   0.03417641            4 
  504000    1.0489296   -6.8438203    201.70964  0.033351461  0.034154758            2 
  505000    1.0582565   -6.7856647    202.39734    0.0333989  0.034133453            2 
  506000    1.0370615   -6.8067902    201.84131  0.033241322  0.034111893            3 
  507000    1.0372351   -6.8150848     202.3531  0.033259878  0.034090064            2 
  508000    1.0315091    -6.821753    202.96588  0.033294927  0.034068726            2 
  509000    1.0273432   -6.8281185    203.71315  0.033351858  0.034047683            4 
  510000    1.0541904   -6.8338028    203.76196  0.033294438  0.034026592            4 
  511000    1.0472626   -6.8440217    204.27056  0.033312224  0.034006104            7 
  512000    1.0466962   -6.8177818    204.74356  0.033324147  0.033985427            4 
  513000    1.0457882   -6.8186153     204.9996   0.03330078  0.033965027            4 
  514000    1.0452542   -6.7993047     204.4018  0.033139072  0.033944406            2 
  515000    1.0412787   -6.8330172    204.58494  0.033104359  0.033923483            1 
  516000    1.0381303    -6.800703    205.63761  0.033210209  0.033902191            6 
  517000    1.0788774   -6.7834356    205.84887  0.033180024   0.03388121            3 
  518000    1.0376168   -6.8411394    206.47473  0.033216656  0.033860625            3 
  519000    1.0430652   -6.8365094    206.99865  0.033236777  0.033840477            2 
  520000    1.0584691   -6.8197091     206.6588  0.033118398  0.033819708            3 
  521000    1.0629841   -6.8332313    206.98345  0.033106758  0.033798405            3 
  522000    1.0522555   -6.8304544    207.41411  0.033112087    0.0337782            2 
  523000    1.0487583   -6.8370655    207.66908  0.033089401  0.033758108            6 
  524000    1.0583667   -6.8081321    208.43738  0.033148438  0.033737757            1 
  525000    1.0394652   -6.8022477    208.04152  0.033022463    0.0337177            5 
  526000    1.0252296   -6.8047549     208.9894  0.033109855  0.033697366            3 
  527000    1.0383547   -6.8539362    207.98638  0.032888422  0.033677253            2 
  528000    1.0250072   -6.8186895    209.35784  0.033042588   0.03365731            4 
  529000    1.0528892    -6.845839    209.32918  0.032975611  0.033637325            1 
  530000    1.0467883   -6.7865351    210.27302  0.033061795  0.033617753            2 
  531000    1.0376707   -6.7989378    209.86101  0.032934873   0.03359778            4 
  532000    1.0384859   -6.7745327    210.53817  0.032979036  0.033577844            2 
  533000    1.0471483   -6.8377269    209.47384  0.032750756  0.033556701            6 
  534000    1.0259506   -6.8103216    210.00669   0.03277258  0.033535642            6 
  535000    1.0348068   -6.8301331     210.8775  0.032846962  0.033514844            2 
  536000    1.0219881   -6.8512604    210.96457  0.032799218  0.033493887            4 
  537000    1.0618498   -6.7932794     211.2431  0.032781362  0.033472979            4 
  538000    1.0372798   -6.8212496    211.39151  0.032743419  0.033452237            2 
  539000     1.025356   -6.8383923     212.1481  0.032799645  0.033431703            3 
  540000    1.0395876   -6.8547281    211.95902  0.032709725  0.033410787            3 
  541000     1.038498   -6.8029377    212.63686  0.032753676  0.033389785            3 
  542000    1.0236291   -6.8334709    212.28984  0.032639889  0.033368625            4 
  543000    1.0460307   -6.8281796    213.45583  0.032758722  0.033347496            2 
  544000     1.036353   -6.8361786    213.69245  0.032734751  0.033326578            3 
  545000    1.0368278   -6.8504736    213.28553  0.032612466  0.033305047            3 
  546000    1.0250672   -6.7708419    214.82793  0.032788145  0.033284041            3 
  547000    1.0208957   -6.8433492    213.58585  0.032538978  0.033263159            2 
  548000    1.0227366   -6.8135177    215.07178  0.032705562   0.03324263            2 
  549000    1.0265914   -6.8537221    214.62449  0.032578095  0.033222276            4 
  550000    1.0227877   -6.8082858    214.93618  0.032566088  0.033202144            2 
  551000    1.0260604   -6.8544873    215.48096  0.032589377  0.033181695            2 
  552000    1.0295349   -6.8229643    216.39139  0.032667782  0.033161889            4 
  553000    1.0153541   -6.8352078    216.36482  0.032604704  0.033142321            4 
  554000    1.0542608   -6.8366422    216.84521  0.032618113  0.033122613            3 
  555000    1.0144183   -6.8165665    217.12666    0.0326016  0.033103179            3 
  556000    1.0295928   -6.8505333    217.28561  0.032566787  0.033083775            2 
  557000    1.0362653   -6.8741516    217.42071  0.032528533  0.033064432            3 
  558000    1.0373034     -6.85125    217.89062  0.032540415  0.033045154            4 
  559000    1.0235735   -6.8407622    218.74761  0.032609959  0.033025989            3 
  560000    1.0187653   -6.8160366    219.00251  0.032589659  0.033007303            4 
  561000    1.0248223   -6.7999003    218.92292  0.032519744  0.032988457            2 
  562000    1.0423875   -6.8713202     218.9594  0.032467289  0.032969516            5 
  563000    1.0169362   -6.8352276    219.95094  0.032556385  0.032950646            3 
  564000    1.0123672   -6.8041212    219.71909  0.032464405  0.032931809            1 
  565000    1.0303526   -6.8639237    220.56988   0.03253243  0.032913401            2 
  566000   0.99449693   -6.8969871    220.38039  0.032447054  0.032894942            6 
  567000    1.0171497   -6.8797865    220.52349   0.03241086  0.032876477            3 
  568000    1.0258175   -6.8455556    221.10309  0.032438834  0.032857773            3 
  569000    1.0077602   -6.8368086    221.21313  0.032397939  0.032839484            3 
  570000    1.0168137   -6.8435818    221.56596  0.032392684  0.032820626            4 
  571000    1.0144031    -6.871135    221.50063   0.03232642  0.032801827            2 
  572000    1.0260277   -6.8566883    222.30411  0.032386962  0.032783074            4 
  573000    1.0142392   -6.8698684    222.20996  0.032316748  0.032764137            3 
  574000    1.0273057   -6.8719981    222.79178  0.032344916  0.032745644            4 
  575000    1.0512065   -6.8848993    222.35117  0.032224808   0.03272684            3 
  576000    1.0179792    -6.841423    223.35627  0.032314275  0.032708266            1 
  577000    1.0190685   -6.8546956    223.90919  0.032338126  0.032689532            2 
  578000    1.0290974   -6.9277323    223.81192  0.032268154  0.032670786            2 
  579000    1.0266816   -6.8728208    223.80637  0.032211625  0.032651924            1 
  580000    1.0190519   -6.8812902    224.50754   0.03225683  0.032633245            3 
  581000    1.0161239     -6.87689    225.07599  0.032282844  0.032614891            3 
  582000     1.028431   -6.8393032    225.24585  0.032251697  0.032596739            4 
  583000    1.0091655   -6.8550026    225.67067  0.032257099  0.032578851            4 
  584000    1.0251012    -6.867475    226.05546  0.032256773  0.032561002            8 
  585000    1.0149448   -6.8435553    227.26973  0.032374605  0.032544255            2 
  586000    1.0160897   -6.8251533    227.41133  0.032339496  0.032528235            1 
  587000     1.037835   -6.8626328    227.97567  0.032364518  0.032512134            2 
  588000    1.0208996   -6.8793539    228.67396  0.032408442  0.032495992            5 
  589000    1.0256241   -6.8862937     228.9628  0.032394284  0.032479795            2 
  590000    1.0227967   -6.8733477    229.50551  0.032416033  0.032464182            3 
  591000    1.0151944   -6.8883529    229.22124    0.0323211  0.032448631            3 
  592000    1.0305236   -6.8836595    229.33325   0.03228227  0.032433579            4 
  593000    1.0131254   -6.8376905    230.73972  0.032425481  0.032418093            3 
  594000    1.0140606   -6.9196233    229.45669  0.032190894  0.032402339            2 
  595000    1.0185915   -6.8740357    230.48297  0.032280528  0.032386147            3 
  596000    1.0151427   -6.8747647    230.31707  0.032203169  0.032370193            2 
  597000    1.0317381   -6.8710566    230.84165  0.032222452  0.032354204            2 
  598000    1.0061448   -6.8575643    230.80896  0.032164013  0.032338391            6 
  599000    0.9890497   -6.8876536     231.2303  0.032168934  0.032322509            2 
  600000    1.0216829   -6.8649102    231.30322  0.032125448  0.032306593            4 
  601000    1.0116148    -6.889183    231.47221  0.032095425  0.032290547            2 
  602000   0.99843848   -6.8649299    231.76496  0.032082636  0.032273876            3 
  603000   0.99661243   -6.8843357    231.96716  0.032057375  0.032257283            4 
  604000   0.99481697   -6.8994915     231.6304  0.031957836  0.032240267            4 
  605000    1.0207677   -6.8887363    231.93551   0.03194704  0.032223448            4 
  606000   0.98051533   -6.8886071    232.70013  0.031999467  0.032206664            4 
  607000    1.0090495   -6.9156279    232.00405  0.031851188  0.032190092            3 
  608000    1.0110137   -6.8905621    232.91335  0.031923431  0.032173476            2 
  609000     1.014509   -6.8658483    233.66282  0.031973566  0.032156659            4 
  610000    1.0064117   -6.8425121    233.99276  0.031966224  0.032140394            3 
  611000    1.0297209   -6.8890042    234.11259  0.031930249   0.03212421            1 
  612000    1.0065615    -6.911374    234.83262  0.031976119  0.032107778            2 
  613000   0.98938445   -6.8890152    234.53985  0.031884156  0.032090906            3 
  614000    1.0265346   -6.8701734    234.94528  0.031887252  0.032073907            5 
  615000    1.0122126   -6.8771805    235.06132  0.031851127    0.0320573            3 
  616000    1.0288234     -6.90775     234.7172  0.031752868  0.032040293            2 
  617000    1.0194208   -6.8780265    235.48698  0.031805373   0.03202293            6 
  618000    1.0166632   -6.9139206    235.12273  0.031704791   0.03200574            4 
  619000    0.9876535   -6.8977766    235.01062  0.031638479  0.031988389            2 
  620000   0.98894448   -6.8643205    235.00543  0.031586751  0.031970971            4 
  621000   0.98317318   -6.9255545    235.10008  0.031548589  0.031953003            1 
  622000   0.99282712   -6.9096008    235.32897  0.031528533  0.031934919            2 
  623000   0.99555512   -6.8787141    235.80181  0.031541173  0.031916741            3 
  624000    1.0071213   -6.9102348    236.03485  0.031521748  0.031898861            4 
  625000    0.9811198    -6.867364    235.87605   0.03145014  0.031881143            2 
  626000    1.0233454   -6.9108263    236.39479  0.031468955  0.031862703            3 
  627000    1.0219234   -6.9118095    236.83172  0.031476837  0.031844615            1 
  628000    1.0022558   -6.9006845    236.40866  0.031370576  0.031826092            4 
  629000    1.0027118   -6.9542429     236.8031  0.031372959  0.031807256            2 
  630000     1.024835   -6.8974868    236.98127  0.031346729  0.031788461            3 
  631000    1.0298679   -6.8986471    237.29343  0.031338276  0.031769504            3 
  632000   0.99448095    -6.934961    236.38946  0.031169497  0.031750389            4 
  633000    1.0006294   -6.9097138    237.02443  0.031203848  0.031731042            4 
  634000   0.97998603   -6.9295218    237.81544  0.031258601  0.031711498            4 
  635000    1.0083117   -6.9055873    238.12943  0.031250581  0.031692172            4 
  636000   0.99352784    -6.964105    238.74275  0.031281807  0.031673152            5 
  637000   0.98786035   -6.9277164    239.39105  0.031317511  0.031654235            4 
  638000    1.0199013   -6.8819314    239.46787  0.031278458  0.031635435            3 
  639000     1.011752    -6.877091    239.22291  0.031197562  0.031617292            3 
  640000    1.0044427   -6.8938483    239.89628  0.031236495  0.031598737            2 
  641000   0.99217821   -6.9113692     239.4943  0.031135504  0.031579813            4 
  642000    1.0132207   -6.9478346    239.88374  0.031137557  0.031560871            3 
  643000    1.0075998   -6.8990551    240.80607  0.031208667  0.031542236            7 
  644000   0.99055144   -6.9128468    240.67682  0.031143481  0.031523606            4 
  645000    1.0067962   -6.9223751    240.71732  0.031100429  0.031504861            3 
  646000    1.0114061   -6.9283975    241.20334  0.031114981  0.031485963            2 
  647000   0.98788505   -6.9292919    241.11328  0.031055291  0.031466954            2 
  648000   0.99216668   -6.9097764    241.15012  0.031012104  0.031447978            6 
  649000   0.98093612   -6.9236183    241.53029  0.031013134  0.031429292            2 
  650000   0.98121898   -6.8938067    241.68507  0.030985266  0.031410813            3 
  651000    1.0098974   -6.9245456    242.61805  0.031057098  0.031392286            3 
  652000    1.0194894   -6.9080284    242.30904   0.03096997     0.031374            2 
  653000   0.98824068   -6.9389937    242.81389  0.030986969  0.031355573            5 
  654000    1.0024715   -6.9386955    242.74742  0.030931119  0.031336725            3 
  655000    1.0071852   -6.9233499     243.5339  0.030983957  0.031318093            6 
  656000   0.98929624   -6.9554481    243.58063  0.030942661  0.031299508            6 
  657000    1.0071624   -6.9276238    243.88921  0.030934705   0.03128071            7 
  658000   0.97661661   -6.9467794     244.5977  0.030977419  0.031262083            3 
  659000   0.99971492   -6.9494549    244.05912  0.030862307  0.031243262            2 
  660000   0.99156524   -6.9559073    243.73007  0.030773999  0.031224293            3 
  661000   0.99372088   -6.9290544    244.32278  0.030802165  0.031205206            3 
  662000   0.99133707    -6.953904    243.72302  0.030680139  0.031185994            3 
  663000   0.98593213   -6.9163334     245.1255  0.030810144  0.031166879            5 
  664000   0.99085781   -6.8971578      245.784  0.030846385  0.031147862            6 
  665000   0.97633688   -6.9122802    244.84119  0.030681853  0.031129031            5 
  666000   0.99492202   -6.9677416    245.45757  0.030712909  0.031110157            7 
  667000   0.98344552   -6.9204014    245.89459  0.030721463  0.031091371            2 
  668000    1.0080504   -6.9440122    245.89574  0.030675616  0.031072404            4 
  669000   0.98289051   -6.9521632    245.83389  0.030622059   0.03105337            3 
  670000    1.0103906   -6.9177569    246.59706  0.030671277   0.03103431            3 
  671000    0.9793328   -6.9410366    245.56142  0.030496947   0.03101479            2 
  672000    1.0017134   -6.9334742    246.58835  0.030578913  0.030995081            3 
  673000   0.98409323   -6.9710921    246.14145  0.030478139  0.030975468            6 
  674000   0.98359298    -6.944515    246.46407  0.030472808  0.030955347            3 
  675000    0.9755921   -6.9400013      246.531  0.030435925  0.030935286            2 
  676000   0.97883003   -6.9551026    247.06045  0.030456169  0.030915541            2 
  677000    0.9807599   -6.8992586    247.34905  0.030446707  0.030895793            2 
  678000    1.0011418   -6.9464961       248.05  0.030487955  0.030876228            5 
  679000   0.97976137    -6.959774    248.07466   0.03044608   0.03085663            4 
  680000   0.97038687   -6.9502275    247.79529  0.030367069  0.030837073            3 
  681000   0.96652851   -6.9507596    248.43749  0.030401063   0.03081706            2 
  682000    1.0012472   -6.9514129    248.91495  0.030414828  0.030797468            3 
  683000   0.98608885   -6.9147784    249.13157  0.030396727  0.030777985            4 
  684000    0.9976586   -6.9338706    249.65513  0.030416073  0.030758824            2 
  685000   0.98041309   -6.9382807    249.81876  0.030391576  0.030740067            5 
  686000   0.96341526   -6.9346834    249.63227  0.030324619  0.030720944            3 
  687000   0.96942505   -6.9536719    250.71076    0.0304113  0.030702338            3 
  688000    0.9788408   -6.9221019    251.21684  0.030428397  0.030683609            6 
  689000    0.9742148   -6.9279689    250.02759  0.030240396   0.03066478            4 
  690000   0.96136086   -6.9892218    249.83742  0.030173602  0.030646083            3 
  691000    0.9903074   -6.9434287    250.45216  0.030204071  0.030627251            5 
  692000   0.97842838   -6.9507096    251.20775  0.030251414  0.030608341            7 
  693000   0.97545314   -6.9683876    252.13654  0.030319449  0.030589504            3 
  694000   0.97872095   -6.9632554    251.87534  0.030244397   0.03057081            2 
  695000   0.98707629   -6.9950677    252.61115  0.030289107  0.030552318            3 
  696000   0.96530258   -6.9225056    252.81375  0.030269846  0.030533982            2 
  697000   0.97445706   -6.9272147    252.29245   0.03016409  0.030515709            4 
  698000   0.98363802   -6.9833288    253.18761  0.030227748   0.03049735            8 
  699000   0.96535535   -6.9878372    252.65535  0.030121048  0.030478633            3 
  700000   0.97677099   -6.9286118    253.93282  0.030230098   0.03046009            2 
  701000   0.96777827    -6.977145    252.52852  0.030020033  0.030441535            4 
  702000   0.97684521   -6.9651496    253.48424  0.030090722  0.030422775            4 
  703000   0.96759382   -6.9603953    253.82942  0.030088836   0.03040402            3 
  704000   0.98069742   -6.9818858    254.52255  0.030128143  0.030385334            3 
  705000    0.9640876   -6.9705614    254.35172  0.030065215  0.030366508            6 
  706000   0.96162319     -6.98489    254.65543  0.030058478  0.030347675            4 
  707000   0.98807257   -6.9501331    253.81776  0.029917227  0.030328953            4 
  708000   0.97556814    -6.980176    254.11037  0.029909413  0.030310453            7 
  709000    0.9582433   -6.9761406    254.89214  0.029959114  0.030292085            2 
  710000    0.9729142   -7.0068862    255.51267   0.02998975  0.030273471            2 
  711000   0.97516332   -7.0018414    255.06446  0.029895038  0.030254507            2 
  712000   0.95494521   -6.9394061     255.4826  0.029901989  0.030235876            4 
  713000   0.97912618   -6.9751075    255.73076  0.029889055   0.03021728            2 
  714000   0.99433506    -6.969015    256.23433  0.029905968  0.030198612            3 
  715000   0.95117836   -6.9689695    256.71789    0.0299205  0.030180033            2 
  716000   0.96530937   -6.9626033    256.74327  0.029881665  0.030161373            3 
  717000   0.97071321   -6.9775383    256.61523  0.029825108   0.03014258            2 
  718000   0.97456631   -6.9602351    256.85152  0.029810994  0.030123955            4 
  719000   0.97437165    -6.998978    255.99534  0.029670299  0.030105335            4 
  720000   0.98194873   -6.9263564    257.76838  0.029834304   0.03008668            3 
  721000   0.96180337   -7.0112597    257.37675  0.029747659   0.03006798            3 
  722000   0.95824518   -6.9876014    257.91022  0.029768031  0.030049183            4 
  723000   0.95604064   -7.0013223    257.79596  0.029713688  0.030030461            5 
  724000    0.9613492   -6.9937706    257.45918  0.029633884  0.030011658            2 
  725000   0.94722102   -6.9961781    257.68961  0.029619495  0.029992648            3 
  726000   0.97321245   -6.9558439    257.76859  0.029587763  0.029973742            4 
  727000   0.95464353    -7.002475    258.55276  0.029636951  0.029954685           13 
  728000   0.93456281   -6.9821521    258.11812  0.029546488  0.029935348            2 
  729000   0.96410044   -6.9978698    258.30809  0.029527674  0.029916035            4 
  730000   0.94513843   -6.9806444    258.82287  0.029545989   0.02989703            2 
  731000   0.94712219   -6.9829312    258.52815  0.029471973  0.029878142            4 
  732000   0.97121068   -7.0198018     258.6589  0.029446596  0.029859018            4 
  733000   0.95211929   -6.9847759    258.77993  0.029420183  0.029839468            2 
  734000   0.95504839    -6.988078    259.60928  0.029474259  0.029820133            4 
  735000   0.95833975   -6.9794608    258.31763  0.029287713  0.029800674            4 
  736000   0.95873421   -7.0057557     259.4628  0.029377582  0.029781209            6 
  737000   0.96839111   -6.9893156    259.19472  0.029307409  0.029761663            3 
  738000   0.95692556   -7.0029884     259.0948  0.029256413  0.029742035            3 
  739000    0.9604018   -6.9913282    260.39163  0.029363062  0.029722165            4 
  740000   0.96878002   -7.0114125    259.65838  0.029240808  0.029702109            3 
  741000   0.96774274   -6.9757811    260.07792  0.029248529  0.029682391            4 
  742000   0.96357733    -6.976585    261.50678  0.029369585  0.029662923            3 
  743000   0.96851025   -7.0079714    259.61242  0.029117589  0.029643091            3 
  744000   0.96599561   -6.9879495     260.7288  0.029203495  0.029623612            3 
  745000   0.96893931   -6.9755035    261.42386  0.029242042  0.029604261            4 
  746000   0.93935005    -7.013703    261.72376  0.029236345  0.029584886            4 
  747000   0.95519248   -7.0136388    261.70886  0.029195545  0.029565737            3 
  748000   0.96429946   -7.0027636    262.18466  0.029209521  0.029546566            7 
  749000   0.96026722   -7.0022411    262.46837  0.029202089  0.029527638            2 
  750000   0.96756146   -7.0535303    262.04489  0.029116099   0.02950852            3 
  751000   0.95306672   -7.0145268    262.57441  0.029136086  0.029489566            3 
  752000   0.96203579   -6.9931356    262.40014   0.02907803  0.029470589            7 
  753000   0.97058001   -7.0055867    263.36902  0.029146637  0.029451487            4 
  754000   0.95194534   -7.0090216    263.14165  0.029082853  0.029432476            5 
  755000   0.95889463   -6.9879065    264.09375  0.029149421  0.029413525            5 
  756000   0.95567412   -6.9562169    264.51828  0.029157659  0.029394808            4 
  757000    0.9632478   -6.9924585    264.11225  0.029074444   0.02937617            3 
  758000   0.95178383   -6.9936125    263.95889  0.029019228  0.029356915           10 
  759000   0.92718568   -7.0012601    264.60468  0.029051897  0.029337974            7 
  760000   0.97287245   -7.0185703    263.78695  0.028924008  0.029318725            3 
  761000   0.95397451   -7.0070398    263.82895  0.028890599  0.029299592            3 
  762000   0.94774401   -6.9979943    264.68377  0.028946169  0.029280458            3 
  763000   0.94688658   -7.0222432    265.04131  0.028947282  0.029261202            4 
  764000   0.93631184   -7.0380642    263.94283  0.028789576  0.029241699            3 
  765000   0.94762654   -7.0337296    265.31938  0.028901894  0.029222405            4 
  766000   0.95484909   -7.0069857    265.65752  0.028900948  0.029203188            3 
  767000   0.95428525   -7.0188194    265.47417  0.028843348  0.029184056            6 
  768000   0.95518812   -7.0237366    266.00704  0.028863611  0.029165236            3 
  769000   0.94961916   -6.9953672    265.71293  0.028794205   0.02914613            3 
  770000   0.93369913   -6.9921207     265.9414  0.028781537  0.029127096            3 
  771000   0.95726974   -7.0403501    266.83003  0.028840254  0.029108052            5 
  772000   0.96093333   -7.0231506    266.87243  0.028807473  0.029089034            3 
  773000   0.92450289   -7.0324838    266.50505    0.0287306  0.029069962            2 
  774000   0.95740794   -6.9980686     266.8974  0.028735723  0.029051019            3 
  775000   0.93669106   -6.9760529    268.10986  0.028829018  0.029032229            2 
  776000    0.9493869   -7.0001176    267.96203  0.028775991  0.029013625            3 
  777000   0.94206543   -7.0224876    267.10306  0.028646832  0.028994881            2 
  778000   0.96050678    -7.027632    267.11906  0.028611724  0.028975923            2 
  779000   0.95685684   -7.0246073    268.82217  0.028757185  0.028956851            2 
  780000    0.9536544   -7.0417839    268.06939  0.028639892  0.028938134            5 
  781000   0.95659605   -7.0325115    268.18239  0.028615278  0.028919282            5 
  782000   0.93018903   -7.0292192    268.62827  0.028626201  0.028900419            4 
  783000   0.92855895    -7.049627    268.19258  0.028543272  0.028881596            4 
  784000     0.947568   -7.0248107    269.25028   0.02861929  0.028863054            2 
  785000   0.92164727   -7.0289981    270.08174  0.028671097  0.028844588            2 
  786000   0.93270974   -7.0163393    270.11077  0.028637698  0.028826292            3 
  787000   0.95086155   -7.0642633    270.20955  0.028611769   0.02880793            7 
  788000   0.94959953    -7.054702    270.20388  0.028574861  0.028789506            5 
  789000   0.92762268   -7.0172025    270.45707  0.028565386  0.028771225            4 
  790000   0.95267784   -7.0032895    270.93387  0.028579522  0.028753103            4 
  791000   0.92536114   -7.0716841    271.52845  0.028606031  0.028734938            4 
  792000   0.92764278   -7.0388386    270.40393  0.028451592   0.02871689            4 
  793000   0.94286491   -7.0236567    271.31486   0.02851144  0.028699101            2 
  794000   0.94071645   -7.0512755    271.98469  0.028545832  0.028681137            4 
  795000    0.9512596   -7.0380722    272.78623  0.028593945  0.028663374            2 
  796000   0.92609992   -7.0427531    272.39284  0.028516838  0.028645628            3 
  797000   0.94411911   -7.0386244    272.43033  0.028484978  0.028628085            3 
  798000   0.92802841   -7.0469249    273.48587   0.02855951  0.028610481            3 
  799000   0.94186598   -7.0484513    273.26337   0.02850056  0.028593064            2 
  800000   0.92573598   -7.0208931    273.70243   0.02851067  0.028575631            2 
  801000   0.94515609   -7.0544077    273.03183  0.028405309  0.028558139            5 
  802000   0.93012202   -7.0696015    273.32244  0.028400087  0.028540442            4 
  803000   0.91036034   -7.0344057    273.97512  0.028432454  0.028522919            4 
  804000   0.95847054   -7.0397714    274.12267  0.028412383  0.028505232            4 
  805000   0.94271205   -7.0361461    273.96523  0.028360789  0.028487505            3 
  806000   0.92529872   -7.0459431    274.44957   0.02837568  0.028469846            3 
  807000   0.94091097   -7.0348503    274.67579  0.028363878   0.02845237            5 
  808000   0.93554577    -7.032927    274.56693  0.028317546   0.02843505            3 
  809000   0.92436335   -7.0535498    275.17289  0.028344962  0.028417494            9 
  810000   0.92574481   -7.0586323     274.1108    0.0282007  0.028399946            4 
  811000   0.91292718   -7.0496421      274.758  0.028232429  0.028382173            1 
  812000   0.95795307   -7.0718274    274.44591  0.028165631  0.028364463            3 
  813000   0.93115863   -7.0262702    275.32311  0.028220901  0.028346842            2 
  814000   0.93251477   -7.0461523    276.11847  0.028267656  0.028329453            2 
  815000   0.91420699   -7.0580055    275.71631  0.028191852   0.02831193            8 
  816000   0.94337524   -7.0481994    275.95069  0.028181239  0.028294566            3 
  817000    0.9308908   -7.0728466    276.02624  0.028154451  0.028277084            5 
  818000   0.93939443   -7.0597458    276.87426  0.028206424  0.028259577            3 
  819000   0.92467926   -7.0362923    276.23765  0.028107209  0.028242218            9 
  820000   0.93723852   -7.0369605    277.26373  0.028177208  0.028224761            4 
  821000   0.92654711   -7.0585743    276.70002   0.02808567  0.028207093            2 
  822000   0.92215475   -7.0681275     277.2033  0.028102524  0.028189576            3 
  823000   0.93171408   -7.0310523    277.21587   0.02806965  0.028172209            4 
  824000   0.93269678   -7.0709408    277.76907  0.028091532  0.028154685            1 
  825000   0.93296625   -7.0644633    277.12441  0.027992365  0.028137198            4 
  826000   0.91631691   -7.0503112    278.36122  0.028083255  0.028119849            3 
  827000   0.90967056   -7.0911198    278.36718  0.028049897  0.028102394            2 
  828000   0.94431416   -7.0687141    278.73737  0.028053278  0.028085082            8 
  829000   0.91680586   -7.0392192     278.7466  0.028020366  0.028067794            3 
  830000    0.9392695   -7.0890537    278.73441  0.027985382  0.028050605            3 
  831000   0.92479262   -7.0730077    278.55826  0.027934041  0.028033479            8 
  832000   0.92861814   -7.0526487    278.92493  0.027937193  0.028016215            3 
  833000   0.92001998   -7.0891229    278.81097  0.027892254  0.027998898            7 
  834000    0.9219859   -7.0950945    279.56067   0.02793372  0.027981492            5 
  835000   0.93967924   -7.0580298    280.37893  0.027981929  0.027964134            5 
  836000   0.94250229   -7.0441847     280.3727  0.027947837  0.027946983            2 
  837000   0.92695871   -7.0564713    280.24022  0.027901256  0.027929663            8 
  838000   0.92731978   -7.0604285    280.85522  0.027929119  0.027912525            3 
  839000   0.92509887   -7.0585176    280.00066  0.027810952  0.027895282            3 
  840000   0.91170732   -7.0847282     280.1226  0.027789941  0.027877875            2 
  841000   0.94366808    -7.067025    280.43428  0.027787781   0.02786039            4 
  842000   0.90733716    -7.097797    280.12707  0.027724374  0.027843152            2 
  843000   0.89615398   -7.0729443    281.11454    0.0277891  0.027825862            9 
  844000   0.92695269   -7.0866967    280.65049  0.027710357  0.027808689            1 
  845000   0.93068596   -7.0854992    280.94956  0.027707057  0.027791223            4 
  846000   0.90037034   -7.0761865    280.89859  0.027669285  0.027773779            2 
  847000   0.91630601   -7.0895217    281.61563  0.027707165   0.02775623            4 
  848000   0.92845978   -7.0533773    281.22536   0.02763614  0.027738669            3 
  849000   0.90935518     -7.06751    281.78458  0.027658479  0.027721118            3 
  850000   0.93215088   -7.0755342    282.02768  0.027649773  0.027703627            3 
  851000   0.89501688   -7.0980496    281.22516  0.027538695  0.027686106            2 
  852000   0.91943476   -7.0760527     281.6713   0.02755001  0.027668352            6 
  853000   0.93048707   -7.0825185    282.04787  0.027554501  0.027650646            3 
  854000   0.91136429   -7.0793804    282.10815  0.027528118  0.027633113            9 
  855000   0.88792629   -7.0685144    282.17173  0.027502117  0.027615425            4 
  856000   0.92002964   -7.1029121    282.39745  0.027491963  0.027597961            3 
  857000    0.9007432   -7.0927122    283.19067  0.027537016  0.027580606            4 
  858000   0.92067063   -7.1140482    282.49416  0.027437272  0.027563418            2 
  859000   0.91776572   -7.0868435    284.00449  0.027551852  0.027546259            2 
  860000   0.91128698   -7.1060937    284.33876  0.027552206  0.027529052            9 
  861000   0.91217335   -7.0791491     283.2846  0.027418177  0.027511802            3 
  862000   0.92084978   -7.0754783    284.63613  0.027517027  0.027494731            2 
  863000   0.92259292   -7.0767702    284.02643  0.027426267  0.027477801            7 
  864000   0.90308095    -7.066324    284.98569  0.027487046   0.02746082            5 
  865000   0.90696563   -7.0844349    284.34978  0.027394006  0.027443776            6 
  866000   0.91641428    -7.088697    284.74085  0.027400005  0.027426768            3 
  867000    0.9176681   -7.1187874    284.87302  0.027381105  0.027409575            2 
  868000   0.89748388   -7.0802127    285.54053  0.027413646  0.027392396            4 
  869000    0.9031287   -7.0978708    284.80905  0.027311954  0.027375331            3 
  870000   0.89869769   -7.1114583    284.77266  0.027277075  0.027358025            5 
  871000   0.89783169   -7.1152517    284.77989   0.02724645  0.027340604            8 
  872000   0.92443225   -7.0971009    285.43652  0.027277955  0.027323315            4 
  873000   0.93060754   -7.1133332    285.31917  0.027235507  0.027306171            3 
  874000   0.91298133    -7.130139    285.22142  0.027195025  0.027288778            5 
  875000   0.90495106   -7.1087027    285.22946   0.02716471  0.027271287            3 
  876000   0.90299222    -7.092561    286.22301  0.027228216  0.027253956            3 
  877000   0.92682966   -7.0747388    286.53572  0.027226883  0.027236709            2 
  878000   0.88577749   -7.0900303     286.0617  0.027150883  0.027219558            4 
  879000   0.89498741    -7.117945    286.51252  0.027162734  0.027202286            2 
  880000   0.90554682   -7.0918818    287.33335  0.027209598  0.027185208            3 
  881000   0.90117115   -7.1304653    286.81404  0.027129592  0.027168427            2 
  882000    0.9290475   -7.1206306    287.37667  0.027151991  0.027151559            4 
  883000   0.90666351   -7.1263606    287.58271  0.027140686  0.027134857            2 
  884000   0.88638709   -7.1063775    288.02944  0.027152097  0.027117968            2 
  885000   0.91321829   -7.0836294    288.43131  0.027159257  0.027101233            4 
  886000   0.90241038   -7.0793258    289.22614  0.027203362  0.027084708           12 
  887000   0.90114335   -7.1622226    288.64413  0.027118013  0.027068276            3 
  888000   0.89565004   -7.1115673    289.21568  0.027141111  0.027051572            4 
  889000   0.91261811   -7.1324449    289.04594   0.02709467  0.027034923            3 
  890000   0.87254181    -7.080054    289.03614  0.027063309  0.027018327            3 
  891000   0.91174034   -7.1061311    288.64171  0.026996044  0.027001892            4 
  892000    0.8949351   -7.1100317    289.88065  0.027081525  0.026985462            4 
  893000    0.8840492   -7.1402101    289.53085  0.027018557  0.026968867            3 
  894000   0.90681011    -7.089631    290.32834  0.027062672  0.026952439            6 
  895000   0.89251897   -7.0711135    289.93676  0.026995974  0.026935949            3 
  896000   0.90856029   -7.0768411    290.16394  0.026986974  0.026919549            3 
  897000   0.92430569   -7.1393773    289.86414  0.026929035  0.026902968            5 
  898000   0.90099679   -7.1291841    290.06479  0.026917668  0.026886222            7 
  899000   0.89488256    -7.132223     290.2836  0.026908009  0.026869448            4 
  900000   0.91583702   -7.1267045    290.78302  0.026924354  0.026852707            5 
  901000   0.88500473   -7.1175327    291.11713  0.026925373  0.026836036            5 
  902000   0.90633026   -7.1415814    290.61407  0.026849045  0.026819353            6 
  903000   0.89370537   -7.1399666    289.69798  0.026734771  0.026802501            2 
  904000   0.91253252   -7.1582092    290.58686  0.026787137  0.026785433            2 
  905000    0.8949889   -7.1335815    291.09185  0.026804038  0.026768663            4 
  906000    0.9152981   -7.1272108    292.44125   0.02689857  0.026752129            5 
  907000   0.90523433   -7.1363065    291.31009  0.026764984  0.026735528            4 
  908000   0.87123166   -7.1348738    291.63175  0.026765029   0.02671885            7 
  909000   0.88550685   -7.1509015    291.57655  0.026730524  0.026702485            4 
  910000   0.89532599   -7.1482784    291.84777  0.026725986  0.026685968            6 
  911000   0.87591332   -7.1543027    292.47959  0.026754444  0.026669708            4 
  912000   0.90152539   -7.1033112    293.17608   0.02678875  0.026653504            4 
  913000   0.87849885   -7.1175144    293.73459  0.026810386  0.026637408            2 
  914000   0.88198531   -7.1476489    292.75903  0.026692107  0.026621183            4 
  915000   0.88450465   -7.1752624    293.22093  0.026705003  0.026604663            3 
  916000    0.8866118   -7.1644762    292.66149  0.026624953  0.026588194            3 
  917000    0.8940172   -7.1316219    293.92046  0.026710329  0.026571647            3 
  918000   0.88815541   -7.1569355      293.693  0.026660585   0.02655511            4 
  919000   0.89293513    -7.126331    293.79448  0.026640776  0.026538345            5 
  920000   0.90192719    -7.137978    293.75436  0.026608185  0.026521772            5 
  921000   0.89698513    -7.102742    294.01717  0.026603074  0.026505224            3 
  922000   0.90241852   -7.0949497     294.2755  0.026597568  0.026488785            4 
  923000   0.88096443   -7.1426596      294.499  0.026588931  0.026472383            4 
  924000   0.87579965   -7.1780974    293.48199  0.026468434  0.026455847            4 
  925000   0.88800986   -7.1657001    293.53858  0.026444917  0.026439215            4 
  926000   0.88535234   -7.1633651     293.6795  0.026429041  0.026422363            2 
  927000   0.88672079   -7.1349029    294.13728  0.026441683  0.026405569            6 
  928000   0.87613277   -7.1135652    294.66041  0.026460166  0.026388913            8 
  929000    0.9029848   -7.1641798    293.61386  0.026337806  0.026372019            3 
  930000   0.87537648   -7.1935218    293.53769   0.02630266  0.026355054            8 
  931000    0.9096535   -7.1609133    293.57503  0.026277751  0.026337957           11 
  932000   0.87824328   -7.1567623    294.90294  0.026368289  0.026320933            4 
  933000   0.88749316   -7.1493058    294.75668  0.026326963  0.026304006            3 
  934000   0.89302559   -7.1475395    294.84655  0.026306794  0.026287041            4 
  935000   0.86675512   -7.1442355    294.47784  0.026245797  0.026270035            5 
  936000    0.8840185   -7.1498347    295.10855   0.02627391   0.02625295            4 
  937000   0.89974272   -7.1529413    295.51269  0.026281811  0.026235768            9 
  938000   0.87530428   -7.1832607    294.60419   0.02617308  0.026218812            3 
  939000   0.87702881   -7.1874701    295.24039  0.026201667  0.026201802            5 
  940000    0.8663911    -7.179605    295.49956   0.02619677  0.026184699            3 
  941000   0.89118373   -7.1474605    295.49036  0.026168116  0.026167518            6 
  942000   0.87790243   -7.1872857    294.93171  0.026090915  0.026150435            4 
  943000   0.85776663   -7.1802745    295.76115  0.026136546  0.026133267            5 
  944000   0.87868975   -7.1867167    295.48546  0.026084522  0.026116219            5 
  945000   0.87706136   -7.1923611    295.92245  0.026095454  0.026099126            2 
  946000   0.87918239   -7.1575874    295.88815  0.026064847  0.026082057            6 
  947000   0.87784144   -7.1359341    296.89512  0.026125934  0.026065072            2 
  948000   0.89039225   -7.1674184    296.11192  0.026029529  0.026048012            6 
  949000   0.84961597   -7.1728067    296.39792  0.026027215  0.026030999            6 
  950000   0.90431866   -7.1851818    296.48701  0.026007632  0.026013889            1 
  951000    0.8981947   -7.1413127    296.57348  0.025987862  0.025996926            5 
  952000   0.87972371   -7.1188033    297.39378  0.026032369  0.025979941            3 
  953000   0.88032059   -7.1766382    296.39611  0.025917813   0.02596287            4 
  954000   0.84905191   -7.1760562    297.06062  0.025948691  0.025945753            2 
  955000   0.86455388   -7.1649299    297.05583  0.025921102  0.025928618            5 
  956000   0.85761529   -7.1593173    296.67892  0.025861133   0.02591145            4 
  957000   0.84202363   -7.2000488    296.99648  0.025861762  0.025894325            4 
  958000   0.88527073   -7.1552836    296.93861  0.025829733  0.025877231            2 
  959000   0.88023652   -7.1557745     297.7141  0.025870186  0.025860102            6 
  960000   0.87130394   -7.1708401    297.30525  0.025807747  0.025842977            4 
  961000   0.89157583   -7.1607399    297.03589  0.025757535  0.025825796            5 
  962000   0.86286848   -7.1693121    297.76366  0.025793803  0.025808662           11 
  963000   0.85919491   -7.1871861    298.54889  0.025834968  0.025791545            4 
  964000    0.8833844   -7.1616055    298.56958  0.025809957  0.025774354            5 
  965000   0.87895259    -7.216235     296.8096  0.025631226  0.025757114            5 
  966000   0.87416067   -7.2080074    296.94899  0.025616718  0.025739772            5 
  967000   0.86898755   -7.1624501    297.79079   0.02566277  0.025722499            2 
  968000   0.86815106   -7.1886647     297.6456   0.02562376  0.025705181            5 
  969000   0.87502266   -7.1789278    298.44072  0.025665697  0.025687826            4 
  970000   0.86001885   -7.1858267    297.90675  0.025593364  0.025670529            4 
  971000   0.86719337   -7.1906597    298.32354  0.025602775  0.025653123            3 
  972000   0.86907904   -7.1897332    298.52729  0.025593904  0.025635857            9 
  973000   0.84833751   -7.1878795    298.87199  0.025597122  0.025618796            9 
  974000   0.85698797   -7.1706398     299.2843  0.025606118   0.02560163            3 
  975000   0.86757593   -7.2181665    298.45675  0.025509124  0.025584498            4 
  976000   0.86939766   -7.2041172    299.51631  0.025573455  0.025567327           10 
  977000   0.88529538   -7.2237376    298.35267  0.025448027   0.02555015            6 
  978000   0.84592271   -7.1902614    299.45364  0.025515818  0.025533118            9 
  979000   0.84976815   -7.1899535    300.66355  0.025592744  0.025516236            5 
  980000   0.83879458   -7.2077646    300.11084  0.025519629  0.025499359            5 
  981000   0.87407821   -7.1927143    300.63846  0.025538435  0.025482548            7 
  982000   0.84495756   -7.2184088    300.08897  0.025465798  0.025465639            6 
  983000   0.86898878   -7.1989312    300.67801  0.025489828  0.025448961            7 
  984000   0.87122482    -7.219648    300.74004  0.025469177  0.025432182            2 
  985000   0.86808385    -7.203417    301.26266  0.025487535  0.025415296            4 
  986000   0.85770961   -7.1678502     301.6669   0.02549585  0.025398902            5 
  987000   0.86578234    -7.180582    301.75688  0.025477615  0.025382545            4 
  988000    0.8608886   -7.1576629    302.26575   0.02549475  0.025366228            3 
  989000   0.84490363   -7.2120911    302.39509  0.025479869  0.025349812            4 
  990000   0.85343281   -7.2014266    302.76905   0.02548561  0.025333512            5 
  991000   0.85629382   -7.1925784    302.50873  0.025438003  0.025317329            3 
  992000   0.85309427   -7.2330017    303.00033  0.025453657  0.025301107           13 
  993000   0.84937362    -7.202888    302.85517  0.025415842  0.025284918            6 
  994000   0.86911755    -7.248924    302.97339  0.025400183  0.025268692            6 
  995000   0.86113999   -7.2490328    302.95444  0.025373069  0.025252316            3 
  996000   0.85454201   -7.1739353     303.2013  0.025368248  0.025236054            6 
  997000   0.84591844    -7.198667    304.06039   0.02541461  0.025219886            2 
  998000   0.86672081   -7.2406211    303.53255  0.025345069  0.025203712            6 
  999000   0.84695538   -7.1965248    304.00753   0.02535932  0.025187509           11 
 1000000   0.84267581   -7.1913022    303.69374  0.025307812  0.025171481            3 
 1001000   0.86751129   -7.1863803    303.50049  0.025266441  0.025155343            5 
 1002000   0.85687548   -7.2104175    303.21647  0.025217604  0.025139082            5 
 1003000   0.85087531    -7.210218    304.08628  0.025264729  0.025122801           11 
 1004000   0.87347173   -7.2148772    304.20162  0.025249138  0.025106654            4 
 1005000   0.85726035   -7.2244038    303.92672   0.02520122  0.025090459            5 
 1006000   0.84033463    -7.232227    304.65243  0.025236285   0.02507421            6 
 1007000   0.86114052   -7.2274974    304.43887  0.025193551  0.025057861            5 
 1008000   0.84807785   -7.2131583    304.20806  0.025149476  0.025041592            3 
 1009000   0.84038202    -7.175732    305.26064  0.025211484  0.025025479            3 
 1010000   0.86349718   -7.2221407     304.5688  0.025129439  0.025009298            3 
 1011000   0.86391459   -7.2376652    304.24597  0.025077973  0.024992915            2 
 1012000    0.8503043   -7.2351679    304.58059  0.025080747  0.024976479            4 
 1013000   0.86044305   -7.2137245    304.79131  0.025073323  0.024960088            4 
 1014000   0.85642163    -7.217142     305.0233  0.025067661  0.024943804            3 
 1015000   0.84451563   -7.2210356     305.1817  0.025055969  0.024927653            6 
 1016000   0.85112557    -7.223261    305.07646  0.025022675  0.024911455            8 
 1017000   0.84923567   -7.2048357    305.29436  0.025015926  0.024895262            3 
 1018000   0.84101351   -7.2155499     305.6063  0.025016888  0.024879047            8 
 1019000   0.84439119   -7.1934307    306.22313  0.025042781  0.024862877            2 
 1020000   0.85635963   -7.2006585    305.63733   0.02497037  0.024846633            2 
 1021000    0.8384324   -7.2109954    305.80949  0.024959965   0.02483023            9 
 1022000   0.84013355   -7.2529535    305.53628  0.024913265  0.024813906            3 
 1023000   0.85350742   -7.2696783     306.0371  0.024929708  0.024797594            8 
 1024000   0.85115498   -7.2397327     306.6615  0.024956177  0.024781398            2 
 1025000   0.84381689   -7.2267042    306.68686  0.024933891  0.024765233            4 
 1026000   0.83327741    -7.200102    306.72741  0.024912882  0.024749074            4 
 1027000   0.81937897   -7.2493979     306.0456  0.024833301  0.024732813            5 
 1028000   0.85007459   -7.2121812    307.31769  0.024912264  0.024716676            4 
 1029000   0.85546467   -7.2488328    306.57463  0.024827877  0.024700512           14 
 1030000   0.83821726   -7.2544645    307.36298  0.024867555  0.024684333            7 
 1031000   0.83882976   -7.2129924    307.68251  0.024869262  0.024668242            5 
 1032000   0.85184425   -7.2402431    307.35861  0.024819009  0.024652096            4 
 1033000   0.86644727   -7.2280707     307.3057  0.024790715  0.024635945            5 
 1034000   0.84852195   -7.2260271    306.97101  0.024739765  0.024619868            8 
 1035000    0.8507467   -7.2280436     307.2283  0.024736578  0.024603669            5 
 1036000   0.84374096   -7.2603261    307.93074  0.024769204  0.024587481            3 
 1037000   0.83117482   -7.2218394    308.24345  0.024770447  0.024571236            3 
 1038000   0.84222063   -7.2672697     307.4388  0.024681985  0.024554968            2 
 1039000   0.84731194   -7.2417643       307.68  0.024677575  0.024538774            5 
 1040000   0.84720593   -7.2527597    307.72762  0.024657662  0.024522718            5 
 1041000    0.8600593   -7.2685681    307.93412  0.024650506  0.024506597            7 
 1042000   0.84140811   -7.2313864    308.40763  0.024664718  0.024490421            3 
 1043000    0.8402651   -7.2645946    308.24334  0.024627943   0.02447423            2 
 1044000   0.83161991   -7.2593591    308.67812  0.024639058  0.024458041            5 
 1045000   0.84930869   -7.2025428    308.50683   0.02460182  0.024441966            4 
 1046000   0.83869223   -7.2347797    308.09094  0.024545167  0.024425808            6 
 1047000   0.84848337   -7.2363675     309.1137  0.024603128   0.02440972            5 
 1048000   0.82322294   -7.2701687     308.5255   0.02453288  0.024393528            3 
 1049000   0.84257081    -7.256401    308.35764  0.024496159  0.024377373            6 
 1050000   0.83227568   -7.2810226    308.65804   0.02449667   0.02436118            8 
 1051000   0.83798114    -7.293928    308.88469  0.024491333  0.024345086            4 
 1052000   0.83026411   -7.2560144     308.8466  0.024465035  0.024328858            4 
 1053000   0.84063032   -7.2696172    308.67315  0.024428075  0.024312569            2 
 1054000   0.82696969   -7.2859926     309.0927   0.02443807  0.024296427            3 
 1055000   0.84049377   -7.2533298    309.76455  0.024467974  0.024280285            5 
 1056000   0.83705378   -7.2497619    309.55896   0.02442858  0.024264116            7 
 1057000   0.82679422   -7.2825691    309.59312  0.024408162  0.024248132            4 
 1058000   0.82703625   -7.2556022     310.1988  0.024432798  0.024232227            9 
 1059000   0.84446187   -7.2752169    310.28031   0.02441614  0.024216225            7 
 1060000   0.83423824   -7.2400247    310.58671  0.024417194  0.024200281            5 
 1061000   0.84164525   -7.2357777    310.17632  0.024361948  0.024184265            7 
 1062000   0.83888386   -7.2739573     309.6762  0.024299765  0.024168145            3 
 1063000   0.81379744   -7.2457922    310.28656  0.024324754  0.024152173            3 
 1064000   0.82767316    -7.276448    309.96325  0.024276571  0.024136171            5 
 1065000   0.85555243   -7.2577755    309.71585  0.024234417  0.024120157            3 
 1066000   0.83383079   -7.2606817    310.86482  0.024301503  0.024104195            3 
 1067000   0.81065452   -7.2529951    310.37261  0.024240285  0.024088261            3 
 1068000   0.82272059   -7.2641398    310.41265  0.024220712  0.024072189            7 
 1069000   0.82087375   -7.2582389    310.45177  0.024201105  0.024056152            3 
 1070000   0.82415207   -7.2426828    311.37536  0.024250418   0.02404027            4 
 1071000   0.83548208   -7.2388222    311.47245  0.024235329   0.02402447            4 
 1072000   0.82520099   -7.2751197    311.92583  0.024247966  0.024008751            4 
 1073000   0.83182552   -7.2855151    312.33512  0.024257154  0.023992958            6 
 1074000   0.81184981   -7.2762061    311.25323  0.024150623   0.02397715            7 
 1075000   0.83642317   -7.2477686    312.09093  0.024193095  0.023961431            3 
 1076000   0.80967746   -7.2651759    312.22647  0.024181108  0.023945693           12 
 1077000   0.80805233   -7.2759317    311.64946   0.02411401  0.023930055            8 
 1078000   0.81509042    -7.269095    311.38019  0.024070824  0.023914266            6 
 1079000    0.8304999    -7.282166    312.54789    0.0241387  0.023898473            5 
 1080000   0.82212618   -7.2658179    312.96823  0.024148783  0.023882786           10 
 1081000    0.8334615   -7.2853753    311.97991  0.024050256  0.023867114            7 
 1082000   0.83364161   -7.2889529    312.02544  0.024031534  0.023851356            5 
 1083000   0.81739732   -7.3128599    312.43292  0.024040698  0.023835528            7 
 1084000   0.82177923   -7.2945603    312.47157  0.024021492  0.023819664            7 
 1085000   0.81334208   -7.3101204    312.16711  0.023975968  0.023803843           10 
 1086000   0.81654406   -7.3156153    312.76369   0.02399967  0.023787973            4 
 1087000   0.82557182   -7.2873497     313.3706  0.024024118  0.023772269            6 
 1088000   0.84534087   -7.2552141    313.80506  0.024035314  0.023756704            5 
 1089000   0.83252881   -7.2897575    313.62596  0.023999537  0.023741096            5 
 1090000   0.81734665   -7.2815649    312.91999  0.023923547  0.023725422           10 
 1091000    0.8006649   -7.2699084    313.77413   0.02396686  0.023709752            3 
 1092000   0.80430838   -7.2998178    313.25538  0.023905325  0.023694061            7 
 1093000   0.82926239   -7.3018505    313.71993  0.023918872  0.023678288            4 
 1094000   0.79832309   -7.3024535     314.8391   0.02398226  0.023662586           14 
 1095000    0.8136508   -7.2915645    313.40141  0.023850944  0.023646864            9 
 1096000   0.82685725   -7.3083176    314.06343  0.023879519  0.023631146            5 
 1097000   0.84358767   -7.2996511    313.29912   0.02379969    0.0236154            3 
 1098000   0.80425398   -7.3158006    313.38105  0.023784233  0.023599598            6 
 1099000   0.82406421   -7.3000431    314.26715  0.023829781  0.023583859            7 
 1100000   0.81676801   -7.2926991    314.14733   0.02379904  0.023568118            2 
 1101000   0.82521024   -7.3219602    313.43885    0.0237238  0.023552388            5 
 1102000   0.81227096   -7.2545637    314.09542  0.023751922  0.023536709            4 
 1103000   0.80880843   -7.2978429    314.76863  0.023781251  0.023521166            4 
 1104000   0.81003496    -7.284941    315.22696  0.023794305  0.023505544            4 
 1105000   0.80246343   -7.2865716    314.72471  0.023734895  0.023489888            5 
 1106000   0.81822539   -7.2900059    314.68359  0.023710337  0.023474258            4 
 1107000   0.80884866   -7.3091565    314.51192  0.023675995  0.023458589            5 
 1108000   0.82611919   -7.3325724    314.78005  0.023674793  0.023442904            3 
 1109000   0.80647655   -7.2833662    315.31881  0.023693929  0.023427234            3 
 1110000   0.82104266   -7.2923441    314.84957  0.023637355  0.023411535           10 
 1111000   0.79489514   -7.3065022    314.39646  0.023582093  0.023395879            4 
 1112000   0.79299188   -7.3243663    315.17474   0.02361921  0.023380181            3 
 1113000   0.81859325   -7.3055061    314.96116  0.023581998  0.023364432            7 
 1114000   0.81322698   -7.3016121    314.19213  0.023503301  0.023348773            4 
 1115000    0.8067793   -7.3097663     315.1383  0.023552938     0.023333            8 
 1116000   0.79765672   -7.3486685    314.42495  0.023478565  0.023317224            6 
 1117000   0.82688675   -7.3240137    315.37602  0.023528501  0.023301546            6 
 1118000   0.80731012   -7.3190405    315.58372  0.023522937  0.023285873            6 
 1119000   0.80134617   -7.3564632     315.4147  0.023489328  0.023270158            4 
 1120000   0.81116141   -7.3103595    315.83206  0.023499409  0.023254499            3 
 1121000    0.8170381   -7.3049769    316.39022  0.023519939  0.023238935            5 
 1122000   0.80235343   -7.2870884    316.52823  0.023509227  0.023223483            3 
 1123000   0.78893854   -7.3013469    316.92332   0.02351761  0.023208064           10 
 1124000    0.8069434   -7.3306304    316.28697  0.023449509  0.023192651            4 
 1125000   0.80310417   -7.3222075    316.97712  0.023479787  0.023177112            5 
 1126000   0.81674826   -7.3300317    316.19195  0.023400825  0.023161574            6 
 1127000   0.80815195    -7.322245    316.63395  0.023412744  0.023146078            6 
 1128000   0.80232396   -7.3200738     316.3126  0.023368248  0.023130626            2 
 1129000   0.80772179   -7.3333644    316.89419  0.023390477  0.023115214            4 
 1130000   0.79656226   -7.3157202    317.18242  0.023391034  0.023099761            4 
 1131000   0.78404349   -7.3334265    316.45701  0.023316903   0.02308428            5 
 1132000   0.79356421    -7.321353    316.93861  0.023331758  0.023068796            4 
 1133000   0.81266954   -7.3270388    317.33565  0.023340368  0.023053308            8 
 1134000   0.81067115   -7.3384424    316.80103  0.023280499  0.023037776            2 
 1135000   0.78687741   -7.3216598    316.77575  0.023258131  0.023022276            4 
 1136000   0.80224721   -7.3419004    316.94718  0.023250233  0.023006757            7 
 1137000   0.80243923   -7.3764896    316.51316  0.023197974  0.022991124            6 
 1138000   0.80234523   -7.3562906    316.94039  0.023208874   0.02297541            6 
 1139000    0.8011843   -7.3166863    317.89174  0.023258102  0.022959835            5 
 1140000   0.77678941   -7.3312467     317.0902  0.023179108  0.022944306            4 
 1141000    0.8170547   -7.3240379    317.62846  0.023198106  0.022928708           11 
 1142000   0.79632027   -7.2983779    317.94499   0.02320089  0.022913341            4 
 1143000    0.7931812   -7.3329706    317.50312  0.023148376  0.022897879            6 
 1144000   0.80245437   -7.3651487    317.52876  0.023130009   0.02288225            4 
 1145000   0.80301811   -7.3542518     317.4352  0.023102999  0.022866669            3 
 1146000   0.78289572   -7.3348527    317.85648  0.023113473  0.022851075            4 
 1147000    0.7995177   -7.3673483    318.16852  0.023115993  0.022835664           12 
 1148000   0.81738824   -7.3542163    317.43987  0.023042964  0.022820178            4 
 1149000   0.79548342   -7.3504371    317.59304  0.023034018  0.022804702            8 
 1150000   0.80309458   -7.3307408     318.9848  0.023114841  0.022789298            3 
 1151000   0.79783798   -7.3490341    318.80081  0.023081437  0.022773893            5 
 1152000   0.77904888   -7.3341022    318.01255   0.02300438  0.022758522           11 
 1153000   0.78735819   -7.3467586    318.40969  0.023013132  0.022743097           10 
 1154000   0.79362152   -7.3535636     319.1988  0.023050173  0.022727707            6 
 1155000   0.79788705   -7.3252877    319.18157  0.023028974  0.022712264            4 
 1156000   0.78802202   -7.3583591    318.62526  0.022968949  0.022696844            6 
 1157000   0.78892375   -7.3310021     318.8939  0.022968446  0.022681429            6 
 1158000   0.79874523   -7.3272306     319.2484  0.022974122  0.022666093           13 
 1159000   0.77803678    -7.338612    319.41089  0.022965983  0.022650735           12 
 1160000   0.79461914   -7.3573283    319.51822  0.022953895  0.022635447           14 
 1161000   0.78670736   -7.3587965    319.05611  0.022900956  0.022620131            3 
 1162000   0.79225888   -7.3542919    319.57985  0.022918807  0.022604845            4 
 1163000   0.79311077   -7.3817932    319.74607  0.022911011  0.022589614            5 
 1164000     0.778911   -7.3639405    320.72966  0.022961745  0.022574327            6 
 1165000   0.79397049   -7.3368649    320.04627  0.022893152  0.022559084           11 
 1166000    0.7980961   -7.3410625    320.09112  0.022876724  0.022543912           12 
 1167000   0.80179662   -7.3579533    319.27669  0.022798964  0.022528636            9 
 1168000   0.78612017    -7.362955    319.68133  0.022808314  0.022513363            6 
 1169000   0.78645319   -7.3625353    319.62129  0.022784523  0.022498059            8 
 1170000   0.79159012   -7.3171396     320.1225  0.022800748  0.022482911            5 
 1171000   0.77491535   -7.3442551    320.80479  0.022829831  0.022467751            4 
 1172000   0.77507702   -7.3292004     320.1845  0.022766247  0.022452608            3 
 1173000    0.7685395   -7.3691591     320.6602  0.022780634  0.022437407            7 
 1174000   0.78184702   -7.3372468    320.08823   0.02272063  0.022422178            2 
 1175000   0.78818175   -7.3833033    319.88207  0.022686672  0.022406996            5 
 1176000    0.7708379   -7.3545347    320.19945   0.02268987   0.02239169            5 
 1177000   0.78754776   -7.3931266    319.88521  0.022648344  0.022376371            4 
 1178000    0.7798969   -7.3842825    319.45068  0.022598379  0.022361049            8 
 1179000   0.79092763   -7.3688911    320.51795  0.022654647  0.022345737            4 
 1180000   0.78805164   -7.4081074    320.66101  0.022645551  0.022330466            7 
 1181000   0.77702957   -7.3635647    320.85564   0.02264011  0.022315182            2 
 1182000   0.78713796   -7.3824214    320.25209  0.022578405  0.022299998            5 
 1183000   0.79673865   -7.3812384    320.39011  0.022569041  0.022284802            4 
 1184000   0.77518169    -7.349873    321.57888  0.022633649  0.022269522            6 
 1185000   0.78611721   -7.3599799    320.42454  0.022533371  0.022254207            9 
 1186000   0.75976481   -7.3605998    320.46744  0.022517386  0.022238822            7 
 1187000   0.77844524   -7.4063378    320.85501  0.022525626  0.022223416            6 
 1188000   0.79009895   -7.3649542    320.58753  0.022487902  0.022208031            5 
 1189000   0.79559809   -7.4006744    320.75731  0.022480888  0.022192707            8 
 1190000   0.77695902   -7.4052539    320.31055   0.02243071  0.022177351            9 
 1191000    0.8003494   -7.4390373    321.05238  0.022463783  0.022162069            5 
 1192000   0.77834646   -7.4067379    321.19954  0.022455225  0.022146766           10 
 1193000   0.80306032   -7.3662271    321.63728   0.02246698  0.022131529            5 
 1194000   0.77001414   -7.4010748    321.26919  0.022422472  0.022116289            6 
 1195000   0.78128075    -7.397438    321.36823  0.022410616   0.02210108            7 
 1196000   0.77764921   -7.3999517    321.22827  0.022382126  0.022085897            6 
 1197000   0.76518992   -7.3940783    321.59185  0.022388739   0.02207068            7 
 1198000   0.79240466   -7.3809271    321.14605  0.022339041  0.022055419            5 
 1199000   0.77520422   -7.3825421    321.65874  0.022356043  0.022040202            3 
 1200000   0.77264842   -7.3641631    321.97945  0.022359684  0.022025017           11 
 1201000   0.76122863   -7.3841776    322.36498  0.022367817  0.022009853            5 
 1202000   0.79133868   -7.4032678    321.89599  0.022316694  0.021994706            3 
 1203000   0.77730274   -7.3887892    321.54711  0.022273976  0.021979577            6 
 1204000   0.78520483   -7.3582894    322.58858   0.02232756  0.021964514            5 
 1205000   0.76104068   -7.3922576    322.16289  0.022279591   0.02194945            6 
 1206000   0.76927495   -7.4056383    322.49685  0.022284194  0.021934306            4 
 1207000   0.77952802   -7.3880152    322.07233  0.022236422  0.021919182            4 
 1208000   0.78065678   -7.3971593    321.41928  0.022172964  0.021903999            3 
 1209000   0.76169521   -7.4023414    321.53563  0.022162643  0.021888814           19 
 1210000   0.78222855   -7.3944523    321.51074  0.022142613    0.0218736            4 
 1211000   0.77468305   -7.4071606    322.43712  0.022188076  0.021858465            6 
 1212000   0.77717484   -7.3971729     322.2172  0.022154648  0.021843364            2 
 1213000   0.77871256   -7.3927511    322.48618  0.022154862  0.021828219            5 
 1214000   0.77658609   -7.4251135     321.7954  0.022089195  0.021813046            7 
 1215000    0.7845359   -7.4020489    322.90359  0.022147023  0.021797878            5 
 1216000   0.76306154    -7.415663    322.37032  0.022092265  0.021782814            4 
 1217000   0.77037376   -7.4126853    322.80622  0.022103959  0.021767725            7 
 1218000   0.77305646    -7.387212    322.29009  0.022050499  0.021752527            6 
 1219000   0.77850939   -7.4050301    322.46555  0.022044405  0.021737308            4 
 1220000   0.77185962   -7.4056812    322.60483  0.022035849  0.021722136           10 
 1221000   0.75971189   -7.4028138     322.4912  0.022010046  0.021706957            6 
 1222000   0.75895325   -7.4181257    322.19454  0.021971805  0.021691735            3 
 1223000   0.77002639   -7.3995498    323.79133  0.022062642  0.021676531            6 
 1224000   0.76339106   -7.4114811    323.21598  0.022005445   0.02166138            4 
 1225000   0.75827201    -7.415262    322.59854  0.021945479  0.021646262            7 
 1226000   0.76105674   -7.4121864    323.12587  0.021963422  0.021631031            4 
 1227000   0.77793032   -7.4139337    322.52583   0.02190477  0.021615834            5 
 1228000   0.74678914   -7.4333069    323.10702  0.021926372  0.021600645            6 
 1229000   0.76068844   -7.4169106    323.27046  0.021919613  0.021585476           13 
 1230000   0.75918066   -7.4112486    323.82716  0.021939509  0.021570336            6 
 1231000   0.78003054   -7.4025232    323.29427  0.021885613  0.021555236           11 
 1232000   0.76200039   -7.4185403     323.1515  0.021858192  0.021540083            7 
 1233000   0.76918663   -7.4099639    323.19858  0.021843646  0.021524879           11 
 1234000   0.74299069   -7.4156085    323.18037  0.021824714   0.02150968            7 
 1235000    0.7666118   -7.4456838    322.19435  0.021740509  0.021494433           11 
 1236000   0.75663068   -7.4315174    323.14232  0.021786834  0.021479146            3 
 1237000   0.76686692    -7.402427    323.12971  0.021768372  0.021463917            5 
 1238000    0.7659723   -7.4074789    323.19842  0.021755413  0.021448792            6 
 1239000   0.76177103    -7.407319    322.80035  0.021711081  0.021433633            5 
 1240000   0.75875161   -7.4252604    323.31496  0.021728156  0.021418442            5 
 1241000   0.76859481   -7.4288429    322.95441  0.021686437  0.021403215            7 
 1242000    0.7457059   -7.4389322    323.76058  0.021723066  0.021387923            6 
 1243000   0.75900451   -7.4132525    323.31078  0.021675435  0.021372752            3 
 1244000    0.7627348   -7.4403273    323.09732  0.021643711  0.021357581            7 
 1245000   0.74816951   -7.4129955    324.23397  0.021702407  0.021342471            6 
 1246000    0.7429367   -7.4115532    323.94806  0.021665868  0.021327356            6 
 1247000   0.75725393   -7.4272804    323.00199   0.02158527    0.0213123            6 
 1248000   0.75473967   -7.4392444    324.15985  0.021645289  0.021297232            4 
 1249000   0.74462005   -7.4286431     323.9945  0.021616927  0.021282097            4 
 1250000   0.76065907   -7.4319616    323.48311  0.021565541  0.021266865            5 
 1251000   0.75603118   -7.4288526    324.05896  0.021586661  0.021251759            9 
 1252000   0.74435594   -7.4480619    323.98818  0.021564709  0.021236636            3 
 1253000    0.7642929   -7.4334594    324.62276  0.021589702  0.021221513            4 
 1254000   0.76667934   -7.4465802      324.068  0.021535619  0.021206388            5 
 1255000   0.75754091   -7.4468595    324.15799  0.021524435  0.021191245            6 
 1256000   0.74267813   -7.4476891    324.65778  0.021540458  0.021176118            6 
 1257000    0.7659298   -7.4420362    324.55852  0.021516741  0.021161017            7 
 1258000   0.73718344   -7.4329409    323.72122  0.021444172  0.021145943            6 
 1259000   0.76539374   -7.4461877    324.25485   0.02146246  0.021130834            5 
 1260000    0.7559261   -7.4566344    324.42562  0.021456721  0.021115753            4 
 1261000     0.750979   -7.4328854    324.74743  0.021460972  0.021100692            6 
 1262000   0.74388458    -7.455585    323.80906  0.021382003  0.021085612            6 
 1263000   0.74906686     -7.45127     323.7869  0.021363612  0.021070468            3 
 1264000   0.74931283   -7.4389079    324.00607   0.02136116  0.021055281            5 
 1265000   0.75565155   -7.4211039    324.45309  0.021373721  0.021040123            7 
 1266000   0.74787416   -7.4534952    324.46884  0.021357875  0.021024951            8 
 1267000   0.75308675   -7.4261879    324.27613  0.021328343  0.021009795           14 
 1268000   0.74676186   -7.4490671    324.80832  0.021346499  0.020994692            3 
 1269000    0.7428119   -7.4579905    323.96831  0.021274515  0.020979633           11 
 1270000   0.75006425   -7.4618694    324.08619  0.021265498  0.020964483            3 
 1271000   0.74998362   -7.4583822    323.60677  0.021217334   0.02094933            6 
 1272000   0.73014604   -7.4565666    324.19899  0.021239452  0.020934201            4 
 1273000    0.7407012   -7.4438745    324.86125   0.02126612  0.020919115            4 
 1274000   0.76405389   -7.4465917    324.30519  0.021213056  0.020903959           13 
 1275000   0.75543492   -7.4357954    325.08957  0.021247684  0.020888881           10 
 1276000   0.73857884   -7.4599306    324.03636  0.021162249  0.020873767           14 
 1277000   0.74685539   -7.4511662    324.90478  0.021202348  0.020858641           12 
 1278000   0.74567747   -7.4525216    324.81464   0.02117988  0.020843495            5 
 1279000   0.73959155   -7.4475186    324.76582  0.021160139  0.020828411            4 
 1280000   0.73550459   -7.4857768    324.68066  0.021138064  0.020813351            4 
 1281000   0.73268384   -7.4501046    324.58411  0.021115282   0.02079818            3 
 1282000   0.73702223    -7.499206    324.12089  0.021068701  0.020783045            7 
 1283000   0.73185038   -7.4769908    325.02269  0.021110853  0.020767968            9 
 1284000   0.75562278   -7.4717773    324.05126  0.021031364  0.020752826            7 
 1285000   0.73667477   -7.4611318    324.52301  0.021045591  0.020737741            7 
 1286000   0.73714303   -7.4712902    324.50616  0.021028134  0.020722616            3 
 1287000   0.72222384   -7.4792717    324.50779  0.021011901  0.020707473            2 
 1288000   0.73883133   -7.4371488    324.51681   0.02099617  0.020692245            5 
 1289000   0.72802841   -7.4723909    324.68024  0.020990447  0.020677095            5 
 1290000   0.73337935   -7.4764295    323.93811  0.020926235  0.020661849           17 
 1291000   0.74376856   -7.4797499    324.81704   0.02096676  0.020646676            3 
 1292000   0.71951995   -7.4924119    324.82247  0.020950882  0.020631505            8 
 1293000   0.73667022   -7.4711489    324.10458  0.020888411  0.020616345            5 
 1294000   0.72250762   -7.4784009    324.29662  0.020884636  0.020601203            6 
 1295000   0.73456645   -7.4660444    324.41454  0.020876097  0.020586069            8 
 1296000   0.72716019   -7.4744154    324.73686  0.020880713  0.020570888            4 
 1297000   0.73069392   -7.4642579    324.16056  0.020827587   0.02055572            5 
 1298000   0.73527325   -7.4550858    324.50883    0.0208339  0.020540596            6 
 1299000   0.73078058   -7.4726247    324.91829   0.02084413  0.020525451            8 
 1300000   0.73630259   -7.4629635    324.62696  0.020809421  0.020510289            7 
 1301000   0.75355189   -7.4644388    324.15776  0.020763372  0.020495134            7 
 1302000   0.74008916   -7.4844518    324.58799  0.020774961  0.020479962            6 
 1303000    0.7323319   -7.4984167    325.20599  0.020798541  0.020464738            4 
 1304000   0.71215445   -7.5137921    324.69772   0.02075011  0.020449484            5 
 1305000   0.74263077   -7.4954735     324.0512  0.020692925  0.020434207            6 
 1306000   0.73885276   -7.5025205    324.57908  0.020710763  0.020418907            8 
 1307000      0.72857    -7.480591    325.20336  0.020734721  0.020403673            6 
 1308000   0.73969792   -7.4849987    325.43235  0.020733457  0.020388509            4 
 1309000   0.72854328   -7.4981122    325.28185  0.020708037  0.020373379            5 
 1310000   0.72783528    -7.463847    325.60968  0.020713084    0.0203583            4 
 1311000   0.72898475   -7.4850966    325.51127  0.020691029  0.020343231            7 
 1312000   0.73353318   -7.5201671    324.69575   0.02062346   0.02032818            5 
 1313000   0.73481439   -7.5151841    324.76366  0.020612063  0.020313064            7 
 1314000   0.72250274   -7.4968504    325.52059   0.02064438   0.02029793            5 
 1315000   0.71803887   -7.5041826    324.77918  0.020581697    0.0202828            6 
 1316000   0.72960585   -7.4983279     324.3141  0.020536607  0.020267688            4 
 1317000   0.73086392   -7.4939553      324.765  0.020549544   0.02025249            6 
 1318000   0.73436572   -7.5107954     324.8675  0.020540434  0.020237328            4 
 1319000   0.72945176   -7.4919012    324.88075  0.020525698  0.020222203            5 
 1320000   0.71456051   -7.5035147    325.74996  0.020565023  0.020207097           12 
 1321000   0.72636532   -7.5001314    325.09649  0.020508232  0.020191989           11 
 1322000   0.72518175   -7.4807135    325.06116  0.020490492  0.020176892            8 
 1323000   0.72294753   -7.4825785    325.34526  0.020492899   0.02016183            7 
 1324000   0.72721886   -7.5127451    324.86872  0.020447427  0.020146823           14 
 1325000   0.72834169    -7.489129     325.1099  0.020447163  0.020131764            8 
 1326000    0.7248858   -7.5302286    325.30584  0.020444058  0.020116734           13 
 1327000   0.72816632   -7.5055953    325.80479  0.020459985  0.020101678            9 
 1328000   0.71634834    -7.524654    325.64364  0.020434466  0.020086659           10 
 1329000   0.73570954   -7.4926205    325.41602  0.020404817  0.020071599            5 
 1330000   0.71686585   -7.5071254    324.99095  0.020362841  0.020056537            5 
 1331000   0.72016759    -7.510543    325.74262  0.020394604  0.020041525            5 
 1332000   0.72003052   -7.4933297     325.7744  0.020381282  0.020026516            9 
 1333000   0.71671618   -7.5006184    325.89635  0.020373615  0.020011566            8 
 1334000   0.73220057   -7.5063953    325.53004   0.02033546  0.019996641            9 
 1335000    0.7045198   -7.5306186    325.46983  0.020316469  0.019981696           17 
 1336000   0.72490155    -7.486309    325.79885  0.020321784  0.019966713            6 
 1337000   0.72678795   -7.5209342    324.85352  0.020247664   0.01995173           16 
 1338000    0.7168062   -7.5152437    325.09694  0.020247692  0.019936702           12 
 1339000   0.71033094   -7.4972524    325.87383  0.020280921  0.019921707           13 
 1340000   0.70725494   -7.5027383    325.55394  0.020245892  0.019906721            9 
 1341000    0.7293199   -7.4969616    326.00564  0.020258864  0.019891697            6 
 1342000   0.70414538   -7.5269032    325.61373  0.020219432  0.019876741            5 
 1343000   0.70717447   -7.5029879     325.3105  0.020185561  0.019861791           12 
 1344000   0.70727242   -7.5288292    326.10956  0.020220087  0.019846861            5 
 1345000   0.71173665   -7.5291738    325.89794  0.020191942  0.019831925            5 
 1346000   0.70762177   -7.5167144    326.08264  0.020188375  0.019816988            5 
 1347000   0.69241935   -7.5230356    325.14485  0.020115371  0.019802071            7 
 1348000   0.71981478   -7.5422361    325.57428  0.020126995  0.019787116            4 
 1349000   0.71382392   -7.5271827    326.58905  0.020174762  0.019772247            5 
 1350000   0.72246566   -7.5245284    325.38565  0.020085534  0.019757359            6 
 1351000   0.71084477   -7.5340906    326.13225  0.020116719  0.019742491            5 
 1352000   0.70594877    -7.544191    325.85928  0.020085015  0.019727632           11 
 1353000   0.70122666   -7.5480378    326.17482  0.020089604  0.019712798            6 
 1354000   0.71815762   -7.5640973    325.72199  0.020046897  0.019697913            7 
 1355000      0.71271   -7.5408234    326.22324   0.02006293  0.019683082           12 
 1356000   0.71401057   -7.5516863     326.1919  0.020046208  0.019668221            6 
 1357000   0.72057128   -7.5887513    325.55803   0.01999251  0.019653333            5 
 1358000   0.70805807   -7.5522821    326.22629  0.020018795  0.019638456            8 
 1359000   0.73045417   -7.5398513    326.51396  0.020021704  0.019623641            8 
 1360000   0.69874149    -7.542131    326.92058  0.020031898  0.019608809           10 
 1361000   0.70698842   -7.5524131    325.98055  0.019959622  0.019593969            9 
 1362000   0.69731488   -7.5343919    326.36096  0.019968243  0.019579183            6 
 1363000   0.71743228   -7.5035868    326.64774  0.019971126  0.019564458            5 
 1364000   0.70792311    -7.519991    326.35388  0.019938531  0.019549747            5 
 1365000   0.70883814   -7.5442947    326.35871  0.019924219  0.019534978            4 
 1366000   0.69726285   -7.5324324    326.41838  0.019913273  0.019520248           10 
 1367000   0.71313375   -7.5231028    326.91132  0.019928756  0.019505503            7 
 1368000   0.71229458   -7.5197903     326.3298  0.019878765  0.019490812            5 
 1369000   0.71255696    -7.551346    326.85063  0.019895948  0.019476082           10 
 1370000    0.7019043   -7.5513668    326.39144  0.019853494  0.019461338            7 
 1371000   0.70245491    -7.553792     326.0335  0.019817256  0.019446584            3 
 1372000   0.71089135   -7.5644075    326.48731  0.019830376  0.019431855            8 
 1373000   0.70035607   -7.5629484    326.37363  0.019809033  0.019417113            6 
 1374000   0.69423783   -7.5427992    326.47533  0.019800784  0.019402385            4 
 1375000   0.71318263     -7.56094    326.41604   0.01978279   0.01938773            9 
 1376000   0.69637707   -7.5935092    326.64658  0.019782375   0.01937303            8 
 1377000   0.67336548   -7.5526119    326.21509  0.019741896  0.019358327           16 
 1378000   0.70599342   -7.5305401    327.04719   0.01977789  0.019343652            9 
 1379000   0.68073499   -7.5452331     326.6452  0.019739255  0.019328981            7 
 1380000   0.70674386   -7.5498353    327.02267  0.019747746  0.019314309            8 
 1381000   0.70588751   -7.5589601    326.97557  0.019730604  0.019299614            8 
 1382000   0.69456591   -7.5639588    326.61227   0.01969442  0.019284925            4 
 1383000   0.69891266   -7.5716428    326.47577  0.019671955  0.019270189            5 
 1384000   0.68728479   -7.5717024    326.46428  0.019657049  0.019255506            5 
 1385000   0.72685695   -7.5690221    326.20777  0.019627423  0.019240826            6 
 1386000   0.70176496   -7.5816399    326.84516  0.019651585  0.019226111            4 
 1387000   0.70174765   -7.5618156    326.97867  0.019645438  0.019211445            8 
 1388000   0.70600103   -7.5726742    327.21415  0.019645422  0.019196791            7 
 1389000   0.68790125   -7.5608251    326.73677  0.019602638  0.019182189            6 
 1390000   0.70233293   -7.5497034    326.64227   0.01958287  0.019167628            6 
 1391000   0.69840884   -7.5707352    326.82749  0.019579888  0.019153048            5 
 1392000   0.67689894   -7.5610876    327.33591  0.019596259  0.019138482            5 
 1393000   0.69295768   -7.5624276     327.1393  0.019570429  0.019123955           15 
 1394000   0.67060836   -7.5689742    326.94397  0.019544714  0.019109424           17 
 1395000   0.70069664   -7.5511173    326.33364  0.019494244  0.019094893            5 
 1396000     0.716378   -7.5775152    326.83631  0.019510286  0.019080314           10 
 1397000   0.68973557   -7.5847455    326.84311  0.019496726  0.019065721            8 
 1398000   0.68734448   -7.5812057     326.5933  0.019467889  0.019051152            7 
 1399000   0.69387537   -7.5694106    327.00263  0.019478355  0.019036629            7 
 1400000   0.69273141   -7.5845078    327.14353  0.019472829  0.019022152            8 
 1401000   0.69587633   -7.5673023    326.70553  0.019432877  0.019007722            6 
 1402000    0.6919071   -7.5705187    326.62726  0.019414364  0.018993296            3 
 1403000   0.67868702   -7.5582925    327.07216  0.019426952  0.018978867            5 
 1404000   0.68025952   -7.5795444    326.67283  0.019389413  0.018964435            5 
 1405000   0.69875364   -7.5842574    327.27279  0.019411197   0.01895004           10 
 1406000   0.70981127   -7.5659972    327.16407  0.019390948  0.018935664            3 
 1407000   0.70223559   -7.5732446    327.18495  0.019378403  0.018921239            4 
 1408000    0.6877379   -7.5624808    327.05518  0.019356959  0.018906835            5 
 1409000   0.69219614   -7.5917293    327.53931  0.019371854  0.018892449            6 
 1410000   0.69171149   -7.5703963    327.58809  0.019360998  0.018878044            7 
 1411000    0.7013543   -7.5564058     328.0689  0.019375673  0.018863667            5 
 1412000   0.69508186   -7.5739986    326.94627  0.019295696  0.018849295            9 
 1413000   0.69556632   -7.5732195    327.34677   0.01930566   0.01883491            6 
 1414000   0.69875966   -7.5687669     327.4886  0.019300365  0.018820544            5 
 1415000   0.67835685   -7.5755499    328.12975  0.019324485  0.018806234           12 
 1416000   0.68649141   -7.5890429     327.6693  0.019283739  0.018791934            5 
 1417000   0.68565008   -7.5893593    327.69828  0.019271835  0.018777623            8 
 1418000   0.70011401   -7.5692926    328.11606  0.019282796  0.018763335            8 
 1419000   0.68105032   -7.5631567    328.04544   0.01926506   0.01874913            6 
 1420000    0.6902567    -7.583835    328.15973    0.0192582  0.018734989            9 
 1421000   0.68789905   -7.6013028    327.72415  0.019219103  0.018720854            4 
 1422000   0.68020588   -7.5809961    327.97239  0.019220136   0.01870671            6 
 1423000   0.67946612   -7.5939451    328.60779  0.019243838  0.018692545            5 
 1424000   0.68513659   -7.5684191    327.93765  0.019191108  0.018678347            3 
 1425000   0.69034255    -7.579615    328.11508  0.019188017  0.018664196            7 
 1426000   0.70173392   -7.5818307    328.25774  0.019182897  0.018650039            3 
 1427000   0.69263455   -7.5797161    327.99172   0.01915392  0.018635889            7 
 1428000   0.67969949   -7.5804128    327.91837  0.019136226  0.018621811            8 
 1429000   0.67548477   -7.5833158    328.82996  0.019175995  0.018607708            6 
 1430000   0.67520123   -7.5965662    328.17453   0.01912439  0.018593654            8 
 1431000   0.68126482   -7.5917219    329.03958  0.019161401   0.01857957            8 
 1432000   0.68262644   -7.6026718    327.93258    0.0190836  0.018565487            4 
 1433000   0.68027523   -7.5977928    327.52064  0.019046327  0.018551412            9 
 1434000   0.69079129   -7.5778689    328.33647  0.019080455  0.018537345            7 
 1435000   0.69710456   -7.5968201    328.23597  0.019061322  0.018523319            7 
 1436000    0.6704907   -7.5966724    327.88283  0.019027555  0.018509268           15 
 1437000   0.68082485   -7.6043432     328.2637  0.019036401  0.018495215            9 
 1438000   0.68853733   -7.5793015    328.64115  0.019045037  0.018481178            9 
 1439000   0.69216803   -7.6175632    328.60177  0.019029521   0.01846717            7 
 1440000   0.69710555   -7.5913705    327.93508  0.018977724   0.01845315           11 
 1441000   0.67447997   -7.5959104    328.50583  0.018997561  0.018439104           10 
 1442000   0.68141248   -7.6210055    328.02796  0.018956771  0.018425079            5 
 1443000   0.66919493   -7.5878026    328.62782  0.018978275  0.018411054            9 
 1444000   0.67587674   -7.6103697    327.86449  0.018921081  0.018396996            8 
 1445000   0.69398825   -7.6113275    328.80387  0.018962161  0.018382977            8 
 1446000   0.67615818   -7.6410346    328.31001  0.018920586  0.018368998           11 
 1447000   0.68362671   -7.6102848    328.58802  0.018923521  0.018354966           11 
 1448000   0.68242583   -7.6286046    328.09199  0.018881905  0.018340968            5 
 1449000   0.67470797   -7.6074465    328.00671   0.01886397  0.018326948           17 
 1450000   0.68474704   -7.6193146    328.18674  0.018861307  0.018312963            9 
 1451000   0.67038042   -7.6208476    328.28012  0.018853671  0.018298994            5 
 1452000   0.67621324   -7.6058179    328.57321  0.018857507  0.018285006           11 
 1453000   0.66745657   -7.6079839    328.45337  0.018837656  0.018271087           17 
 1454000   0.67518447   -7.6255924    329.01543  0.018856914  0.018257185           12 
 1455000    0.6689883   -7.6397607     328.4024  0.018808843  0.018243325            7 
 1456000   0.66281511   -7.6175042    328.94296  0.018826863    0.0182295           10 
 1457000   0.66517321   -7.6225119    329.15196  0.018825896  0.018215697            7 
 1458000   0.66520361   -7.6124269    328.79433  0.018792543   0.01820185            5 
 1459000   0.67694398   -7.6089224    329.01002  0.018791982  0.018188017           11 
 1460000   0.67496253   -7.6345511    328.84288  0.018769571  0.018174178           11 
 1461000   0.68201807   -7.6406049    328.23897  0.018722277  0.018160325            4 
 1462000   0.66266057   -7.6239213    328.39694  0.018718476  0.018146461            6 
 1463000   0.66035025   -7.6249949    328.16671  0.018692567  0.018132613           16 
 1464000   0.66964818   -7.6420865    328.33908  0.018689611  0.018118774            4 
 1465000   0.67635157   -7.6247096    328.61648  0.018692632  0.018104938           11 
 1466000   0.67453957   -7.6230393    328.37271  0.018666025  0.018091089            8 
 1467000   0.66060343   -7.6567391    328.46449  0.018658514  0.018077252            5 
 1468000   0.67872206   -7.6555739    328.59885  0.018653431  0.018063418            4 
 1469000   0.66505537   -7.6499465    328.43811  0.018631615  0.018049574            6 
 1470000   0.66088929   -7.6487074    328.20852  0.018605925  0.018035695            5 
 1471000   0.66297349   -7.6760667    328.91057  0.018633048  0.018021847            8 
 1472000   0.65819701   -7.6574809    327.83665  0.018559593  0.018007972            6 
 1473000   0.66682098   -7.6466163     328.3342  0.018575141   0.01799412            8 
 1474000   0.65345075   -7.6728371    328.28665  0.018559851  0.017980266            6 
 1475000   0.66988086   -7.6163626     328.2033   0.01854256  0.017966504            5 
 1476000   0.66932761   -7.6480588    327.84271  0.018509638  0.017952694            5 
 1477000   0.67052112   -7.6469477    328.25956  0.018520625  0.017938925            6 
 1478000   0.66672369    -7.658287     328.2392  0.018506946  0.017925139            5 
 1479000   0.65859098   -7.6417243     328.7368   0.01852247  0.017911394            4 
 1480000   0.67410963   -7.6471849    328.75545  0.018511005  0.017897675            5 
 1481000   0.65269585   -7.6600557    328.20111  0.018467314  0.017883934           10 
 1482000   0.64248192   -7.6485256    329.52564  0.018529332   0.01787021            8 
 1483000   0.66836238   -7.6590878    328.11862  0.018437774  0.017856497           12 
 1484000   0.66415042   -7.6322044    328.53936  0.018448976  0.017842779            6 
 1485000   0.66075976    -7.664549    328.55334  0.018437337  0.017829026            6 
 1486000   0.64912971   -7.6556709    328.18088  0.018404042  0.017815294            4 
 1487000   0.65314595   -7.6798793    328.96295  0.018435494  0.017801545            8 
 1488000   0.66119875   -7.6689379    328.97395   0.01842372  0.017787831            5 
 1489000   0.66354621    -7.663269    328.93786  0.018409328  0.017774216            7 
 1490000   0.68061257   -7.6740727    329.15842  0.018409308  0.017760549           13 
 1491000   0.65931869   -7.6580524    329.16265  0.018397197  0.017746904           16 
 1492000   0.65199144   -7.6716999    329.53152  0.018405469  0.017733298           12 
 1493000   0.65552509   -7.6403163    328.92684   0.01835939   0.01771972           10 
 1494000   0.67397379   -7.6569696    329.32541  0.018369333  0.017706151            6 
 1495000   0.66084583   -7.6426814    329.66021  0.018375709  0.017692623           10 
 1496000   0.65155206   -7.6433336    328.58407   0.01830348  0.017679116            7 
 1497000   0.64503649   -7.6498348     329.6119  0.018348469  0.017665602            5 
 1498000   0.66396013    -7.658075    329.15895  0.018311023  0.017652124            6 
 1499000   0.66028027   -7.6665564    329.33953  0.018308846  0.017638649           10 
 1500000   0.64883293   -7.6721037    329.31446  0.018295248  0.017625199            7 
 1501000   0.66014372   -7.6603396    328.81596  0.018255383   0.01761173            8 
 1502000   0.65240995   -7.6545436    328.99383  0.018253098  0.017598268           12 
 1503000   0.65592173   -7.6606055    328.40027  0.018208044    0.0175848            3 
 1504000   0.66057867   -7.6668877    329.11537  0.018235559  0.017571362            9 
 1505000   0.65965623   -7.6771812    328.69295  0.018200053  0.017557955            7 
 1506000   0.65674578   -7.6751675    329.34607  0.018224108  0.017544585            4 
 1507000   0.64544314   -7.6599946    330.02589  0.018249607  0.017531177            6 
 1508000   0.65849566   -7.6672474    328.82087  0.018170915  0.017517834            6 
 1509000   0.65307408    -7.654369    329.50462  0.018196633   0.01750449            8 
 1510000   0.65066636   -7.6681481    329.84177  0.018203188  0.017491137            8 
 1511000   0.64753784   -7.6672711    329.54966  0.018175031  0.017477803            6 
 1512000   0.65394516   -7.6723126    329.20429  0.018143975  0.017464448           10 
 1513000   0.66716714   -7.6719179    329.23032  0.018133417  0.017451077            3 
 1514000   0.64776709   -7.6857783    329.75859  0.018150517  0.017437733           12 
 1515000   0.64867942   -7.6470832    329.59805  0.018129706  0.017424425            8 
 1516000   0.64457873   -7.6798498    329.81318  0.018129572  0.017411124            7 
 1517000   0.64199413   -7.6556772     329.1009  0.018078494  0.017397787            5 
 1518000   0.64143961   -7.6675291    329.42494  0.018084373  0.017384487           11 
 1519000   0.64509294   -7.6969378     329.5877  0.018081397  0.017371204            8 
 1520000   0.64045648   -7.6809419     329.2922    0.0180533  0.017357923            8 
 1521000   0.64134529   -7.6710276    329.40966  0.018047867  0.017344669            6 
 1522000   0.64348445   -7.6949184    329.68517  0.018051093  0.017331414            7 
 1523000   0.63959369   -7.6735836    329.63213  0.018036339  0.017318139            8 
 1524000   0.64228092   -7.6929589     329.0624  0.017993351  0.017304897            4 
 1525000   0.64871907   -7.6728082    329.33876  0.017996654   0.01729166            5 
 1526000   0.63904814   -7.7105086    329.36086  0.017986067  0.017278349            7 
 1527000   0.66217625   -7.6723494    328.96195  0.017952519  0.017265085            6 
 1528000   0.63728821    -7.683569    329.21226  0.017954421  0.017251822            6 
 1529000   0.63024478   -7.6718757    329.39284   0.01795252  0.017238627            9 
 1530000    0.6405277   -7.6977238    329.70587  0.017957836  0.017225414            6 
 1531000   0.64837592   -7.6751777    329.60285  0.017940499  0.017212252            4 
 1532000   0.64579504   -7.6929776     329.5241  0.017924505  0.017199102            8 
 1533000   0.62941671   -7.6909462    328.94287  0.017881217  0.017185918            5 
 1534000   0.64430852   -7.7043593    329.50351  0.017900017  0.017172744           12 
 1535000   0.63694376   -7.6959279     329.4802   0.01788709  0.017159555           12 
 1536000   0.64514988    -7.670029    330.09405  0.017908748  0.017146387            8 
 1537000   0.63098858   -7.7015988    329.41798  0.017860441  0.017133242            7 
 1538000   0.64074718   -7.7096865    329.58454  0.017857853  0.017120133           13 
 1539000   0.64968758   -7.7062797    329.67185  0.017850977  0.017106982           15 
 1540000   0.62540831   -7.6937091     329.2679  0.017817527  0.017093828           11 
 1541000   0.64394001   -7.7001896    329.12337  0.017798149   0.01708068            8 
 1542000   0.64477262   -7.6791978    329.46915  0.017805293  0.017067522            7 
 1543000   0.64951638   -7.6938286    329.49465  0.017795131  0.017054398           12 
 1544000   0.63433757   -7.7126287    329.54864   0.01778652  0.017041287           12 
 1545000   0.64978344   -7.6903497    329.43128  0.017768677  0.017028227            6 
 1546000   0.64715997   -7.6988475    329.77327  0.017775618  0.017015149            9 
 1547000   0.63021928   -7.6979665    329.66353  0.017758217  0.017002141            7 
 1548000   0.65041276   -7.7029011     330.2218  0.017776798  0.016989145           10 
 1549000   0.65164329   -7.6989895     330.0102  0.017753938   0.01697614            7 
 1550000   0.63071313   -7.7285846    329.35993  0.017707523  0.016963113            5 
 1551000   0.64277922   -7.7151642    329.33075  0.017694539  0.016950087           20 
 1552000   0.63433312   -7.7147593    329.73441  0.017704812  0.016937061            7 
 1553000   0.63398002   -7.7344505    329.09752  0.017659236  0.016924047            7 
 1554000   0.63552423   -7.7012111    328.85247  0.017634732  0.016911009            5 
 1555000   0.62265655   -7.7074374    329.02942  0.017632873  0.016897992           12 
 1556000   0.64693863   -7.7116387     329.2395  0.017632793  0.016884981           15 
 1557000   0.62482279   -7.7076836     329.3584  0.017627831   0.01687195           14 
 1558000   0.62615787   -7.7312254    328.79652  0.017586463  0.016858943           11 
 1559000   0.63468406   -7.7441658    329.35816  0.017605204  0.016845914           13 
 1560000   0.61842975   -7.6956821    329.68566  0.017611413  0.016832928           11 
 1561000   0.61680991   -7.7075179     329.6466  0.017598046   0.01681997           13 
 1562000   0.64632943   -7.7007229    329.22004  0.017564023   0.01680703           10 
 1563000   0.62752133   -7.6899009    329.72639  0.017579782  0.016794103           12 
 1564000   0.63475041   -7.7234263    329.68759  0.017566475  0.016781165           10 
 1565000   0.65129346   -7.7016366    329.48411  0.017544415  0.016768205           10 
 1566000   0.62958053   -7.7299381    329.40404  0.017528951  0.016755296            9 
 1567000   0.63530426   -7.7084138    329.30268  0.017512374   0.01674238           17 
 1568000   0.63468707   -7.7395556    329.96747  0.017536536  0.016729454           11 
 1569000   0.62494486   -7.7259191    329.84045  0.017518613   0.01671656           10 
 1570000    0.6258495   -7.7441934    329.42491  0.017485399  0.016703666            6 
 1571000   0.62315093   -7.7182987    329.18065  0.017461312  0.016690756           15 
 1572000   0.61437769   -7.7217293     329.0057   0.01744093  0.016677857           22 
 1573000   0.62525464   -7.7323779    328.92161  0.017425387  0.016664972           11 
 1574000   0.63366562   -7.7233678     329.0898  0.017423221  0.016652093           13 
 1575000   0.62178045    -7.727964    328.87923  0.017401017  0.016639232           12 
 1576000    0.6297752    -7.708892    329.60094  0.017428138  0.016626363            7 
 1577000   0.62516814   -7.7158307    329.63043  0.017418645  0.016613558            9 
 1578000   0.62526962   -7.7308595    328.74141  0.017360657  0.016600765            9 
 1579000   0.61789672   -7.7112727    329.29529  0.017378894  0.016587961            9 
 1580000   0.63431428   -7.7167107    328.55261  0.017328724  0.016575189            8 
 1581000   0.62628998   -7.7061612    329.80629  0.017383844  0.016562458           10 
 1582000   0.60990807   -7.7367028    329.58863   0.01736139  0.016549752           13 
 1583000   0.63513655   -7.7143895     329.9929  0.017371705  0.016537043           12 
 1584000   0.62167217   -7.7378609    329.95488  0.017358738  0.016524305           11 
 1585000   0.61477399   -7.7282362    329.47899  0.017322765  0.016511596           18 
 1586000    0.6317998   -7.7103468    329.86426  0.017332086  0.016498914           11 
 1587000   0.61831513   -7.7044513    329.49806  0.017301935   0.01648629            9 
 1588000    0.6144725   -7.6982233    329.68932  0.017301077  0.016473645            6 
 1589000   0.62530444   -7.7349686    329.57388  0.017284135  0.016461003            7 
 1590000   0.61333539   -7.7095288     329.8826  0.017289444  0.016448368            4 
 1591000   0.62025495   -7.7291675    329.64649  0.017266211  0.016435716           17 
 1592000   0.61386948   -7.7203412    330.06818  0.017277438  0.016423064            9 
 1593000   0.61767638   -7.7253613    329.55074  0.017239524  0.016410422            7 
 1594000   0.61136094   -7.7344897    329.44656  0.017223262  0.016397757            9 
 1595000   0.63009629   -7.7384084    329.02464   0.01719042  0.016385108            5 
 1596000   0.61419399   -7.7340388    329.33806  0.017196014  0.016372458            9 
 1597000   0.61514601   -7.7450916    328.94598  0.017164787  0.016359813            4 
 1598000   0.61049824    -7.720622    330.29084  0.017224178  0.016347181           10 
 1599000    0.6207478   -7.7463059    329.28758   0.01716112  0.016334564            4 
 1600000   0.60724653    -7.748461     329.8403  0.017179182  0.016321968           10 
 1601000   0.61586758   -7.7436431     329.8854  0.017170799  0.016309379            6 
 1602000   0.60747128   -7.7369091    329.11522  0.017120018  0.016296813            7 
 1603000   0.62425613    -7.716114    329.39013  0.017123629  0.016284235            8 
 1604000   0.61368832   -7.7408154    329.34957  0.017110846  0.016271652            7 
 1605000   0.61599013   -7.7363547    329.30947  0.017098103  0.016259079            4 
 1606000    0.6226407   -7.7431182    329.62551  0.017103856  0.016246508            6 
 1607000   0.61095232     -7.73555    329.37316  0.017080126  0.016233946            8 
 1608000   0.61740755   -7.7424959    329.06565  0.017053568    0.0162214            7 
 1609000   0.60468262   -7.7533716    329.27177  0.017053645  0.016208864           11 
 1610000   0.59791444   -7.7577943    329.87586   0.01707432   0.01619633            5 
 1611000   0.61134675   -7.7356697    329.72777  0.017056061  0.016183785           11 
 1612000   0.61263861   -7.7451297    328.87107  0.017001193  0.016171222           11 
 1613000   0.61163387   -7.7420504     329.0231  0.016998507  0.016158691           10 
 1614000   0.60199655   -7.7420011    328.93939  0.016983653  0.016146176            5 
 1615000   0.59480158   -7.7429719    329.07236  0.016979998   0.01613366           13 
 1616000   0.62740577   -7.7576673    329.65069  0.016999314  0.016121162            7 
 1617000   0.61012335   -7.7575952    328.99404   0.01695496  0.016108646            5 
 1618000   0.62444329   -7.7545821    329.34822  0.016962723  0.016096143            6 
 1619000   0.60938334   -7.7602748    329.45755  0.016957873  0.016083643            8 
 1620000   0.61556036   -7.7616772    329.31695  0.016940173  0.016071164           13 
 1621000   0.60809859   -7.7815901    328.58239  0.016891959  0.016058674           19 
 1622000   0.62505392   -7.7637842    328.97539  0.016901736   0.01604618           12 
 1623000   0.60634295   -7.7805481    329.44204  0.016915282  0.016033709            9 
 1624000   0.59882765   -7.7750847    329.39797  0.016902605  0.016021245           12 
 1625000   0.61582075   -7.7792602    329.63739  0.016904481  0.016008804            8 
 1626000   0.61143712   -7.7825849    329.07804  0.016865418   0.01599634            8 
 1627000   0.61527411   -7.7874804    328.59172  0.016830143   0.01598389            9 
 1628000   0.60006832   -7.7648888    328.92772  0.016837005  0.015971472            4 
 1629000   0.61403733   -7.7769784    329.22601  0.016841928  0.015959085            5 
 1630000   0.60443774   -7.7668963    329.58401  0.016849898  0.015946702           11 
 1631000   0.59864605   -7.7823041    329.82467  0.016851864  0.015934309            8 
 1632000   0.60739619   -7.7711031    329.39392  0.016819542  0.015921938            8 
 1633000   0.60334642   -7.7895764    329.05297  0.016791844  0.015909609            7 
 1634000    0.6096846   -7.7867624    329.28026  0.016793159  0.015897269           12 
 1635000   0.60318162   -7.7685491    329.30071   0.01678393   0.01588493            7 
 1636000   0.59690076   -7.7668728    328.41332   0.01672847  0.015872597           11 
 1637000    0.6080085   -7.8034701    328.91402  0.016743739  0.015860268            6 
 1638000   0.60232159   -7.7825476    328.80295  0.016727867  0.015847932            7 
 1639000   0.59585289   -7.7972267    329.21575  0.016738649  0.015835626           14 
 1640000   0.59382475   -7.7871901    329.19999  0.016727642  0.015823308            8 
 1641000   0.59608584   -7.7720513    329.24495  0.016719732  0.015811016            9 
 1642000   0.58805616    -7.801339    329.15533     0.016705  0.015798704            9 
 1643000     0.590376   -7.7724953    329.14681  0.016694401  0.015786411            4 
 1644000    0.6026203   -7.7885001    329.27705  0.016690848  0.015774141            6 
 1645000   0.59448299   -7.8015798    329.11033  0.016672256  0.015761847            5 
 1646000   0.59593195   -7.7996898    329.31235  0.016672355  0.015749576            5 
 1647000   0.59320653   -7.8033933     329.4123  0.016667289  0.015737341            8 
 1648000   0.58364698   -7.7998764    328.82324  0.016627388  0.015725102            5 
 1649000   0.58095457   -7.7872957    329.27117  0.016639942  0.015712883            7 
 1650000    0.5885913   -7.7879893     329.7437  0.016653722  0.015700677            6 
 1651000   0.59645063   -7.8188951      329.422  0.016627397  0.015688457           10 
 1652000   0.58479044   -7.7999082    328.71414  0.016581625  0.015676246            6 
 1653000   0.59927483   -7.8005626    329.04028  0.016588036  0.015664051            8 
 1654000   0.58762636   -7.8105281    329.19074  0.016585587  0.015651845           10 
 1655000   0.59454115   -7.8162714    328.70916  0.016551317  0.015639646            9 
 1656000   0.60236888    -7.805931    328.91704  0.016551783  0.015627464            6 
 1657000   0.58384487   -7.8140441    328.91773  0.016541829  0.015615277           10 
 1658000   0.59339721   -7.8118434    329.18391  0.016545231  0.015603098           12 
 1659000   0.58712989   -7.8158175    329.13574  0.016532838  0.015590934           11 
 1660000    0.6041098   -7.8107336    329.43962  0.016538133   0.01557878            7 
 1661000   0.58750814    -7.806035    329.09867  0.016511071  0.015566619           15 
 1662000    0.5957369   -7.8245152    329.69073  0.016530823  0.015554482            6 
 1663000   0.59516696   -7.7937955    328.35213  0.016453805   0.01554238            5 
 1664000   0.59309709   -7.8221592     328.8084  0.016466767  0.015530281           10 
 1665000   0.58536004   -7.8020484    329.42991  0.016487983  0.015518196            7 
 1666000   0.60011654   -7.8104163    329.43733  0.016478458  0.015506103            8 
 1667000   0.59672341   -7.7978435     329.6776  0.016480584  0.015494038           14 
 1668000   0.58444401   -7.8237218    328.93628  0.016433667  0.015481971            6 
 1669000   0.59145039   -7.8190781    329.16058   0.01643502   0.01546991           12 
 1670000    0.5860763   -7.8235549    329.11512   0.01642291  0.015457855            7 
 1671000    0.5813836      -7.8172    328.85521   0.01640012  0.015445805            7 
 1672000   0.58872133   -7.8349273    329.21743  0.016408365  0.015433758           16 
 1673000   0.57953652   -7.8345627    328.82634  0.016379077  0.015421709           14 
 1674000   0.58887479   -7.8395835    328.92205  0.016374057    0.0154097           13 
 1675000   0.57546124   -7.8105824    328.95609  0.016365975  0.015397698            5 
 1676000   0.57900465   -7.8143761    328.78304  0.016347605  0.015385702           11 
 1677000   0.59478329   -7.8014185    328.33979  0.016315831  0.015373723           12 
 1678000   0.58153157   -7.8306624    328.69411  0.016323704   0.01536175            6 
 1679000   0.58733862   -7.8349595    328.98395  0.016328368  0.015349769           18 
 1680000   0.58113933   -7.8227817    328.75393  0.016307239  0.015337803           10 
 1681000   0.59000871   -7.8361152    328.32246  0.016276148  0.015325828           13 
 1682000   0.58976819   -7.8211018    328.63351  0.016281882  0.015313881           12 
 1683000   0.57560904   -7.8350241    328.98864  0.016289792  0.015301934            8 
 1684000   0.59321412   -7.8313978    328.48774  0.016255332  0.015290005           11 
 1685000    0.5773458   -7.8228297    328.27563  0.016235194  0.015278084           11 
 1686000   0.58454619   -7.8370172    328.55532  0.016239389  0.015266162           12 
 1687000   0.56944402   -7.8224088    329.24493  0.016263828  0.015254241            9 
 1688000   0.57964875   -7.8440496    328.70569  0.016227572  0.015242337           11 
 1689000   0.58788604   -7.8161479    328.75179  0.016220238  0.015230445           26 
 1690000   0.58308174   -7.8158487    328.81662  0.016213837  0.015218559           10 
 1691000   0.57562103   -7.8255071    328.88657  0.016207696  0.015206681           10 
 1692000   0.58870596   -7.8379089    328.66485  0.016187197  0.015194819           15 
 1693000   0.56621351   -7.8223126    329.00801  0.016194527  0.015182965           15 
 1694000   0.57074082   -7.8292003    329.47922  0.016208147   0.01517112            8 
 1695000   0.57596996   -7.8397528    328.87843  0.016169048  0.015159261            9 
 1696000   0.57378393   -7.8270467    328.41255  0.016136623  0.015147428            8 
 1697000   0.56803611   -7.8290682    328.60045  0.016136341    0.0151356            7 
 1698000    0.5688265   -7.8277995    329.44438  0.016168256   0.01512379           12 
 1699000   0.55801956   -7.8192176    329.30528  0.016151917  0.015111974           16 
 1700000   0.57645973   -7.8230534    328.86568  0.016120867  0.015100154            9 
 1701000   0.55963827   -7.8342395    328.53866  0.016095368  0.015088345            8 
 1702000   0.58778737   -7.8304982     328.4447  0.016081311  0.015076575           11 
 1703000   0.56867648   -7.8383945    328.72899  0.016085779  0.015064801           19 
 1704000   0.58116338   -7.8392398    328.44516  0.016062459  0.015053028           15 
 1705000   0.57053169   -7.8395115    328.34187   0.01604799  0.015041252           11 
 1706000    0.5788481   -7.8491572    328.36969  0.016039942  0.015029475           23 
 1707000   0.56426839   -7.8303713    328.57315  0.016040478  0.015017727           14 
 1708000   0.55810284   -7.8359267    328.69291   0.01603693  0.015005984           21 
 1709000   0.56524985   -7.8315322    327.95109  0.015991374  0.014994259           22 
 1710000   0.56670963   -7.8453718    328.30999  0.015999512  0.014982538           34 
 1711000   0.56851696   -7.8371542    328.65118  0.016006778  0.014970835           28 
 1712000   0.57587222   -7.8184377    329.01157  0.016014971  0.014959143           32 
 1713000   0.57542489   -7.8591485    328.82952  0.015996766  0.014947443           28 
 1714000   0.57565387   -7.8484152     328.8839  0.015990077   0.01493575           20 
 1715000   0.56648784   -7.8433365    328.94565  0.015983754  0.014924062           24 
 1716000   0.56661336   -7.8604522    327.98318  0.015927699  0.014912386           25 
 1717000   0.55923682   -7.8488203    328.73034  0.015954685  0.014900715           17 
 1718000   0.56504647   -7.8468887    328.04361  0.015912088  0.014889038           20 
 1719000    0.5632586   -7.8415709    327.99612   0.01590053   0.01487738           16 
 1720000    0.5533657   -7.8587851    328.18868  0.015900614  0.014865728           17 
 1721000   0.56959661   -7.8558563    328.36967  0.015900139  0.014854051           20 
 1722000   0.57220951   -7.8642919    328.78943  0.015911219  0.014842376           15 
 1723000   0.57133109   -7.8678499    328.30076   0.01587835  0.014830715           28 
 1724000   0.56541168   -7.8590777    328.28983  0.015868611  0.014819069           10 
 1725000    0.5876604    -7.858778     328.1504  0.015852676  0.014807426           21 
 1726000   0.56583761    -7.849739    328.08634  0.015840399  0.014795798           29 
 1727000    0.5696136   -7.8562664    328.33398  0.015843176  0.014784181           25 
 1728000   0.58281748   -7.8614048    327.94218  0.015815113   0.01477258           17 
 1729000   0.55694272   -7.8607916      328.215  0.015819115  0.014760989           10 
 1730000   0.55656564   -7.8597034    328.00302   0.01579976  0.014749386           24 
 1731000   0.55501533   -7.8407993    327.64436  0.015773366  0.014737801           30 
 1732000   0.56549166   -7.8587436    327.70825  0.015767333  0.014726208           13 
 1733000   0.56237438   -7.8858175    327.99239  0.015771898  0.014714629           32 
 1734000   0.56573381   -7.8650715    328.07798  0.015766915  0.014703069           10 
 1735000   0.56753262   -7.8578516    328.60774  0.015783273  0.014691493           14 
 1736000   0.56568173    -7.856896    327.73602  0.015732336  0.014679953           16 
 1737000   0.56009988   -7.8735272    327.76159  0.015724505  0.014668407            8 
 1738000   0.55254351    -7.869726    327.85403   0.01571989  0.014656885           11 
 1739000   0.55283173   -7.8650981    327.79831   0.01570818  0.014645351            7 
 1740000   0.55357686   -7.8729639    327.50037  0.015684884  0.014633822           12 
 1741000   0.56800233   -7.8585256    327.96723  0.015698221  0.014622296           22 
 1742000   0.56694873   -7.8553807    327.69388  0.015676133  0.014610792           22 
 1743000   0.55765209   -7.8845968    327.71034  0.015667926  0.014599305           16 
 1744000   0.54869913   -7.8738336    328.16198  0.015680523  0.014587817           13 
 1745000   0.57036643   -7.8844353    328.17483   0.01567215  0.014576338           14 
 1746000   0.55511644   -7.8738033    327.86965  0.015648609  0.014564853           13 
 1747000    0.5578869     -7.86385     327.8127  0.015636935  0.014553387           11 
 1748000   0.54862679      -7.8798    327.65272  0.015620362  0.014541924           11 
 1749000   0.57611261   -7.8878917    327.98968  0.015627486  0.014530472            7 
 1750000   0.57179715   -7.8690866    327.63465   0.01560165  0.014519028            8 
 1751000   0.54988949    -7.884838    327.77529  0.015599433  0.014507611           15 
 1752000   0.54848862   -7.8710375    327.36085  0.015570817  0.014496201           10 
 1753000   0.55876245   -7.8798734    327.95115  0.015589996    0.0144848           18 
 1754000   0.54241692   -7.8642744    327.51526  0.015560398  0.014473427           15 
 1755000   0.53916124   -7.8980917     327.7354  0.015561985  0.014462037           15 
 1756000   0.53703584   -7.8781238    327.91982  0.015561874  0.014450659           10 
 1757000   0.54944633   -7.8710378    327.72362  0.015543712  0.014439308            8 
 1758000   0.54671252   -7.8449146    328.30026  0.015562204  0.014427961           17 
 1759000   0.54971341   -7.8776078    328.11951  0.015544794  0.014416614           12 
 1760000   0.55355999   -7.8633034    328.07065  0.015533648  0.014405294           18 
 1761000   0.55627688   -7.8784525    328.17061  0.015529557  0.014393981            9 
 1762000   0.54865206   -7.8952084    327.94216  0.015509939  0.014382656            5 
 1763000   0.55280285   -7.8859491    328.08283  0.015507791   0.01437136           14 
 1764000   0.55248251   -7.8779778    328.07902   0.01549882  0.014360056           11 
 1765000   0.54977189   -7.8963344      328.146  0.015493201  0.014348772           13 
 1766000   0.53464159   -7.8744847    327.24247  0.015441793  0.014337479            9 
 1767000   0.56680238   -7.9094309     327.8529  0.015461842  0.014326206            9 
 1768000   0.55122167   -7.8887173    327.89392   0.01545503  0.014314943           16 
 1769000   0.54790294   -7.8943619    327.59097  0.015432023  0.014303688           10 
 1770000   0.54267087   -7.8951778    327.27603  0.015408476  0.014292443            6 
 1771000   0.53929081   -7.8824671    328.01676   0.01543463  0.014281199           11 
 1772000   0.54238248    -7.880789    327.36898  0.015395456  0.014269973            6 
 1773000   0.55172046   -7.8710347    327.57914  0.015396651  0.014258755           12 
 1774000   0.55377084   -7.8767445    327.82339  0.015399445  0.014247559            7 
 1775000    0.5490374   -7.8895141     328.3198  0.015414075   0.01423638            7 
 1776000   0.53932785   -7.9049849    327.61693  0.015372416  0.014225197           10 
 1777000   0.54328116   -7.9087182    327.82858  0.015373691  0.014214013            6 
 1778000   0.53957042   -7.9043776    327.71585  0.015359761  0.014202847           11 
 1779000   0.55919414   -7.8874125    327.85199  0.015357504  0.014191685           13 
 1780000   0.54824764   -7.8911535    327.19642  0.015318185   0.01418054           10 
 1781000   0.53613182   -7.8962555    327.47182   0.01532247  0.014169402           11 
 1782000   0.53538997   -7.8985017    327.17621  0.015300047  0.014158276           13 
 1783000   0.53292711   -7.8919086    326.64068  0.015266437  0.014147127           19 
 1784000   0.54620514    -7.887457    327.39301  0.015293022  0.014136016           23 
 1785000   0.54321657   -7.8848875    327.30558  0.015280372  0.014124911           10 
 1786000   0.54084617   -7.8886311    327.67706   0.01528915    0.0141138           19 
 1787000    0.5260112   -7.9038682    327.86227  0.015289231  0.014102717           11 
 1788000   0.54512106   -7.8881026    327.97077  0.015285737  0.014091628            7 
 1789000   0.54054423   -7.9127569    327.34958  0.015248257  0.014080566           13 
 1790000   0.53542528    -7.919013    327.65369  0.015253896   0.01406952           14 
 1791000   0.54361981   -7.9069452    327.55391  0.015240736  0.014058462           13 
 1792000   0.54082726   -7.8968488    327.51503  0.015230424  0.014047415            9 
 1793000   0.54382128   -7.9155629    327.51384  0.015221874  0.014036388           14 
 1794000   0.53593341   -7.8979297    327.01669  0.015190296  0.014025341            9 
 1795000   0.53670467   -7.8961867    327.69481  0.015213315  0.014014331           13 
 1796000    0.5371671   -7.9062291    327.83104  0.015211165  0.014003321           21 
 1797000   0.53254717   -7.9009373    327.19629  0.015173265  0.013992306           18 
 1798000   0.54367515   -7.9043493    326.89629  0.015150922  0.013981309           16 
 1799000   0.52448137   -7.9047209     327.8242  0.015185483  0.013970334           10 
 1800000   0.52888307   -7.9017318    327.45016   0.01515973  0.013959353           10 
 1801000   0.53968474   -7.9299413    327.69254  0.015162527  0.013948388           14 
 1802000   0.54022889   -7.9188552    327.77187  0.015157782  0.013937434           12 
 1803000   0.53501605   -7.9064244    327.83979  0.015152514  0.013926494            8 
 1804000   0.53986444   -7.9257824    327.53328  0.015129956  0.013915539           13 
 1805000   0.53664131   -7.9088965    327.05294  0.015099397  0.013904604            9 
 1806000   0.53002167   -7.9105952    327.34811  0.015104656  0.013893654           13 
 1807000   0.53500553   -7.9128941    326.67484  0.015065248  0.013882734           12 
 1808000   0.52712117   -7.9079648    327.09928  0.015076479  0.013871828           14 
 1809000   0.53179819    -7.920574    327.21085  0.015073284  0.013860933           11 
 1810000   0.54947391   -7.9290997    327.15771   0.01506251  0.013850045            7 
 1811000   0.52436413   -7.8942078    327.31325   0.01506135  0.013839175            6 
 1812000   0.52128773   -7.9150406    326.98747  0.015038055  0.013828305           10 
 1813000     0.529207   -7.9136084     327.7437   0.01506452   0.01381746            8 
 1814000   0.52058734   -7.9278492    327.65744  0.015052253  0.013806618            6 
 1815000    0.5200525   -7.9179885    327.36338  0.015030458  0.013795783            8 
 1816000   0.52269124   -7.9372402    327.53276  0.015029954  0.013784947           17 
 1817000   0.53997926   -7.9105582     327.3361  0.015012663  0.013774143            9 
 1818000    0.5326739   -7.9167463     327.1712  0.014996846  0.013763348           10 
 1819000   0.52417896   -7.9268847    327.59787  0.015008149  0.013752553            5 
 1820000   0.52976567   -7.9114555    327.22598  0.014982875  0.013741763           17 
 1821000    0.5322911   -7.9390153    327.60701  0.014992084  0.013730988           23 
 1822000   0.52307598   -7.9102944    327.16762  0.014963759  0.013720214           12 
 1823000    0.5213895   -7.9375307    326.91336  0.014943928  0.013709454           12 
 1824000   0.52934842   -7.9308001    327.08374  0.014943519  0.013698696           10 
 1825000   0.53053478   -7.9311486    327.51861  0.014955187  0.013687949           10 
 1826000   0.52366225   -7.9391432    326.64922  0.014907321  0.013677211           12 
 1827000    0.5224567   -7.9235744    327.64516  0.014944588  0.013666487            9 
 1828000    0.5245503   -7.9165293    326.99731   0.01490688  0.013655768           10 
 1829000   0.51977885   -7.9240522    327.10234  0.014903514  0.013645058            9 
 1830000   0.53553084   -7.9200619    326.42192  0.014864386  0.013634353            7 
 1831000   0.51517805   -7.9275681    327.12371  0.014888208  0.013623652           19 
 1832000   0.51326338   -7.9364006    327.26763  0.014886628  0.013612971           11 
 1833000   0.52453114   -7.9221897    326.62845  0.014849448  0.013602294           11 
 1834000   0.52030896   -7.9235541    327.20022  0.014867331  0.013591623           11 
 1835000   0.51936028   -7.9283653    327.10914  0.014855092  0.013580953           12 
 1836000   0.51645668   -7.9226808    327.36615  0.014858667  0.013570316           16 
 1837000   0.51873767    -7.924163    326.88341  0.014828679  0.013559692            8 
 1838000   0.52278215     -7.91759    327.00312  0.014826039  0.013549079           21 
 1839000    0.5325611   -7.9314631    327.34987   0.01483369  0.013538474           21 
 1840000   0.51661145   -7.9180668    327.17801  0.014817845  0.013527881           22 
 1841000   0.52534634   -7.9148911    327.03448  0.014803299  0.013517293           13 
 1842000   0.52050178   -7.9342657    326.99315  0.014793392  0.013506711           18 
 1843000   0.50880014   -7.9345741    327.14872    0.0147924  0.013496135           20 
 1844000   0.52014799   -7.9285735    327.11929  0.014783048  0.013485566           20 
 1845000   0.51385478   -7.9258254     327.0957   0.01477397     0.013475           11 
 1846000   0.51759463   -7.9328055    326.40936  0.014734984  0.013464439           15 
 1847000    0.5181247    -7.941488     326.5008  0.014731132  0.013453888            9 
 1848000   0.51418504   -7.9358526    326.72311  0.014733185  0.013443337           15 
 1849000   0.51823255   -7.9339533    326.83524   0.01473027  0.013432809           11 
 1850000    0.5194166   -7.9406592    327.05878  0.014732378   0.01342229            7 
 1851000   0.51196623   -7.9200148    327.34435  0.014737275  0.013411781           14 
 1852000   0.51285711   -7.9324349    327.05672  0.014716375  0.013401283            9 
 1853000   0.51824667   -7.9405465    327.17872   0.01471392  0.013390789           17 
 1854000   0.51509726   -7.9379286    326.85265  0.014691327    0.0133803           11 
 1855000   0.50900597   -7.9320913      327.044  0.014692004  0.013369818           11 
 1856000   0.50910235   -7.9468135    326.97092  0.014680806  0.013359346           15 
 1857000   0.51160908   -7.9531657    327.07166  0.014677421  0.013348875           11 
 1858000   0.50974898   -7.9514984    326.44709  0.014641509  0.013338403           10 
 1859000   0.50422198   -7.9562619    326.59279  0.014640164  0.013327948           16 
 1860000   0.50572691   -7.9401863    326.17122  0.014613406  0.013317504           12 
 1861000   0.50158199   -7.9413182    326.25979  0.014609519   0.01330706            9 
 1862000   0.51076122   -7.9384082    326.40957  0.014608377  0.013296618           16 
 1863000   0.50306528   -7.9493372    326.47122  0.014603293    0.0132862           10 
 1864000    0.5110741   -7.9353404    327.12508   0.01462469  0.013275781            8 
 1865000   0.50912161   -7.9657277    327.11697  0.014616486  0.013265384           19 
 1866000   0.50196446   -7.9424846    326.94638  0.014601035  0.013254978           19 
 1867000   0.50629206   -7.9743369     326.3114  0.014564872  0.013244561           10 
 1868000   0.50997087   -7.9575334    326.17942  0.014551188  0.013234168           10 
 1869000   0.52671362   -7.9548214    326.45909  0.014555872  0.013223799           15 
 1870000   0.51455134   -7.9614992    326.19665  0.014536392   0.01321343           17 
 1871000   0.49842241   -7.9689271    326.51063  0.014542608  0.013203059            8 
 1872000    0.5010186   -7.9472874    326.55368  0.014536756  0.013192704           14 
 1873000   0.50496362   -7.9597817    326.33143  0.014519106  0.013182369           15 
 1874000   0.50918711   -7.9671228    326.39345  0.014514116  0.013172044           11 
 1875000   0.50114054   -7.9574031     326.2969  0.014502084  0.013161712           12 
 1876000   0.49866319   -7.9635915    326.79252   0.01451637  0.013151396           11 
 1877000   0.50896772    -7.959795    326.18108   0.01448149  0.013141086           14 
 1878000   0.50254126   -7.9642853    325.71854  0.014453254  0.013130778            9 
 1879000   0.49627354   -7.9519801    325.75797  0.014447311  0.013120472           11 
 1880000   0.50547985   -7.9538917    325.78883  0.014440994  0.013110171            8 
 1881000   0.49844236   -7.9722134    325.66343  0.014427761  0.013099876           13 
 1882000   0.50643905   -7.9781004    326.36688  0.014451243  0.013089586           10 
 1883000   0.50142941   -7.9746286    326.32528  0.014441728  0.013079313           17 
 1884000   0.49506413   -7.9731511    325.95775  0.014417806   0.01306905           14 
 1885000   0.49522073   -7.9468844    326.59717  0.014438425  0.013058795           13 
 1886000   0.50069528   -7.9653944    326.38959  0.014421597  0.013048546           19 
 1887000     0.511885   -7.9727886    326.27534  0.014408909  0.013038304           12 
 1888000   0.49872602   -7.9644373    326.07534  0.014392449  0.013028073           17 
 1889000   0.50287993   -7.9800653    325.77384   0.01437153  0.013017848           17 
 1890000   0.49017346   -7.9712758    326.00404  0.014374076   0.01300763           20 
 1891000   0.50647376   -7.9691043    326.39991   0.01438392  0.012997417           15 
 1892000   0.50293284    -7.978259    326.04936  0.014360877  0.012987225           25 
 1893000    0.4958605   -7.9620005    326.21633  0.014360641  0.012977034           19 
 1894000   0.50490073   -7.9624281    325.49389  0.014321273  0.012966838           15 
 1895000   0.50000287   -7.9787788    326.25511   0.01434719  0.012956657           14 
 1896000   0.49739468   -7.9654628    326.34869  0.014343736  0.012946495            9 
 1897000   0.49401903   -7.9850548    326.19893  0.014329596  0.012936345           16 
 1898000   0.50073881   -7.9839236    326.39214  0.014330529  0.012926201           14 
 1899000   0.50612266   -7.9736978    325.93843  0.014303073  0.012916069           12 
 1900000   0.49215196   -7.9771144    325.99365  0.014297967   0.01290595           16 
 1901000   0.49419257   -7.9836923    326.12155  0.014296052  0.012895831           14 
 1902000   0.50810168   -7.9856209    325.52736  0.014262502  0.012885726            7 
 1903000    0.4997937   -7.9918104    325.86143  0.014269637  0.012875613           21 
 1904000   0.49810811   -7.9837108    325.77035  0.014258156  0.012865502           16 
 1905000   0.49245773   -7.9741129    325.29826   0.01423002  0.012855407           16 
 1906000   0.49694286   -7.9924294    325.88262  0.014248103  0.012845323           17 
 1907000   0.46650298   -7.9769523    325.74307  0.014234534  0.012835244            8 
 1908000   0.48427835   -7.9960238    326.03465  0.014239808  0.012825174           12 
 1909000   0.49547215   -7.9745288    325.90801  0.014226821  0.012815114           24 
 1910000   0.49804323   -7.9722173    325.55264  0.014203868  0.012805074           15 
 1911000   0.47863178   -7.9970348    326.05498   0.01421834  0.012795034           17 
 1912000     0.492136   -7.9966159    325.46315  0.014185109  0.012784988           15 
 1913000   0.49347485   -7.9828213    325.43518  0.014176476  0.012774964           10 
 1914000   0.49623405    -7.994475    325.91507  0.014189963   0.01276496           10 
 1915000   0.48845211   -7.9985446    325.57924  0.014167939  0.012754954           13 
 1916000   0.49720428   -7.9826276    325.72644  0.014166947   0.01274495           18 
 1917000    0.4881644    -7.978801    325.64427  0.014155985  0.012734956           16 
 1918000   0.48741754   -7.9821595    325.21217   0.01412983  0.012724978           12 
 1919000   0.48337767   -8.0117733    325.75561  0.014146066  0.012714995           15 
 1920000   0.48273514   -7.9933984    326.10236  0.014153748  0.012705027           20 
 1921000   0.48607632   -7.9871823    325.78896  0.014132785  0.012695067           11 
 1922000   0.48968535   -7.9900522     325.6087  0.014117616  0.012685114           15 
 1923000   0.48182754    -7.989701    325.65902  0.014112455  0.012675168           12 
 1924000   0.48899575   -8.0023416    326.13527  0.014125748   0.01266524           27 
 1925000    0.4912695   -7.9927116    325.44907  0.014088704  0.012655322           15 
 1926000   0.47858714   -7.9964054     325.7433   0.01409412  0.012645411           10 
 1927000   0.48349698   -8.0031168    325.74278  0.014086783   0.01263551           16 
 1928000   0.49186093    -7.996045    325.07485  0.014050607  0.012625628           21 
 1929000   0.48755008   -8.0007612    325.48371  0.014060986   0.01261576           13 
 1930000    0.4826808   -8.0093362      325.552   0.01405665  0.012605895           22 
 1931000   0.48673684   -8.0028695    326.21803  0.014078113  0.012596034           21 
 1932000   0.47449298   -7.9892726    325.29409  0.014030974  0.012586191           11 
 1933000   0.47818019    -7.989131    325.37269  0.014027103  0.012576347           21 
 1934000    0.4741872   -7.9856404     325.9403  0.014044308  0.012566515           10 
 1935000   0.48298996    -8.019423    325.77847  0.014030081  0.012556702           14 
 1936000   0.47143752   -8.0023922    325.56804  0.014013776  0.012546893           20 
 1937000   0.47903721   -8.0028213    325.70548  0.014012454  0.012537096           14 
 1938000   0.47682279   -8.0083145    325.67013  0.014003703   0.01252731           24 
 1939000   0.48858221   -7.9804084    325.75232  0.014000014  0.012517523           13 
 1940000   0.47519325   -8.0028234    325.72229  0.013991507  0.012507749           18 
 1941000   0.46822545   -8.0095604    325.67405  0.013982228  0.012497979           18 
 1942000   0.48181305   -8.0000831    325.38138  0.013962469  0.012488228           15 
 1943000   0.47118087   -8.0102085    325.39689  0.013955948  0.012478474           12 
 1944000   0.47653555    -8.009484    325.48058  0.013952357   0.01246873           12 
 1945000   0.48642238   -8.0086613    325.27072  0.013936192  0.012458996            9 
 1946000   0.48080623   -7.9947041    325.26493  0.013928782  0.012449268           11 
 1947000   0.47073066   -8.0122592    325.40498  0.013927623  0.012439546           27 
 1948000   0.48138038   -8.0084082    324.99538  0.013902951  0.012429836           20 
 1949000   0.47928349   -8.0135089    325.31271  0.013909385  0.012420141           24 
 1950000   0.47344664    -8.012577     325.4002  0.013905991  0.012410454           21 
 1951000   0.47410674   -7.9968176    325.44761  0.013900889  0.012400767           21 
 1952000   0.46648372   -7.9974301    325.23528  0.013884703  0.012391091           10 
 1953000   0.46960556   -8.0086724    325.28191  0.013879583  0.012381433           11 
 1954000   0.46534452   -8.0090546    325.56707  0.013884641  0.012371775           14 
 1955000   0.46884143   -8.0223586    325.67225  0.013882023  0.012362131           22 
 1956000    0.4670523   -8.0199629    325.47057  0.013866333    0.0123525           24 
 1957000   0.47123611     -7.99563    325.42407  0.013857267  0.012342867           23 
 1958000   0.47494365   -8.0071182     325.1276  0.013837572  0.012333257           13 
 1959000   0.47105848   -8.0070977    325.62796  0.013851794  0.012323644           19 
 1960000   0.46925152   -8.0237638    324.84488  0.013811432  0.012314028           13 
 1961000   0.46342742   -8.0127965    325.42876  0.013829201  0.012304436           17 
 1962000   0.46856468   -8.0188881    325.35513  0.013819025  0.012294849           11 
 1963000    0.4802843   -8.0189892    325.27181  0.013808449  0.012285275           21 
 1964000   0.45661388   -8.0123045    325.55038  0.013813238  0.012275706           21 
 1965000   0.46594001   -8.0122452    325.11014  0.013787538  0.012266143           12 
 1966000   0.47145968   -8.0048209    325.26116  0.013786926  0.012256593           19 
 1967000     0.475028   -8.0141924    324.97473  0.013767782  0.012247052           20 
 1968000   0.47545734   -8.0387025     325.4544  0.013781098  0.012237526           14 
 1969000   0.46240688   -8.0102596    324.76935  0.013745105  0.012228002           21 
 1970000    0.4698076   -8.0193733    325.07078  0.013750879  0.012218478           23 
 1971000   0.47279733   -8.0337107    325.19008  0.013748946  0.012208969           19 
 1972000   0.46268171   -8.0226092    325.02066  0.013734815  0.012199474           20 
 1973000   0.46410419    -8.027589    325.24405  0.013737289  0.012189978           10 
 1974000   0.46799393   -8.0298441    325.55991  0.013743664  0.012180484           11 
 1975000   0.47043858   -8.0316182    325.48117  0.013733383  0.012171013           16 
 1976000   0.46373358    -8.027521    325.05648  0.013708522  0.012161542           17 
 1977000   0.45696511   -8.0254656    325.04496  0.013701103   0.01215208            9 
 1978000   0.46748571   -8.0123312     324.5229  0.013672182   0.01214263           10 
 1979000   0.44792763   -8.0367347    324.75861  0.013675198  0.012133181           14 
 1980000   0.46282996   -8.0314386    324.87368  0.013673135   0.01212375           29 
 1981000   0.46046337   -8.0313047    325.18246  0.013679222  0.012114333           10 
 1982000   0.45651841    -7.996581    325.21626  0.013673741  0.012104927           10 
 1983000   0.46477772   -8.0385167    325.18967  0.013665728  0.012095527           16 
 1984000     0.452153   -8.0454488    325.61368   0.01367665  0.012086133           18 
 1985000   0.47037234    -8.030964     325.4228  0.013661746  0.012076755            9 
 1986000   0.46785793    -8.030486    324.71872  0.013625324  0.012067371           11 
 1987000   0.46299268   -8.0585393      325.053  0.013632486  0.012058005           26 
 1988000   0.45056311   -8.0251287    324.75244   0.01361303  0.012048645           16 
 1989000   0.46259444   -8.0346121    324.78012  0.013607346  0.012039294            9 
 1990000   0.45571142   -8.0395018     325.1634  0.013616558  0.012029945            9 
 1991000   0.45250878   -8.0352947    325.19354   0.01361098  0.012020611           16 
 1992000   0.45404898   -8.0284779    324.73495  0.013584963  0.012011278            9 
 1993000   0.46338799   -8.0181307    324.78463  0.013580223  0.012001957           24 
 1994000   0.45390824   -8.0372806    325.39512  0.013598927  0.011992641            9 
 1995000   0.45673466   -8.0368084    324.93246  0.013572784  0.011983336           19 
 1996000   0.45719796   -8.0338197    324.98288  0.013568089  0.011974051           13 
 1997000   0.45555434   -8.0382838    324.94998  0.013559922  0.011964774           12 
 1998000   0.45651302   -8.0508782    325.02517  0.013556272  0.011955513           14 
 1999000   0.46063695   -8.0590618    325.56598  0.013572035  0.011946256           16 
 2000000   0.46388269   -8.0369362    324.82703   0.01353446  0.011937002           10 
 2001000   0.45519684   -8.0449173    325.07208  0.013537901  0.011927763           27 
 2002000    0.4501475   -8.0453524    325.11894  0.013533089  0.011918541           20 
 2003000   0.44127783   -8.0533267    325.11994  0.013526375  0.011909319            9 
 2004000   0.46016207   -8.0343084    324.73867   0.01350377  0.011900094           10 
 2005000   0.45136506   -8.0230054    324.65793  0.013493679  0.011890888           13 
 2006000   0.44149425   -8.0317025     325.0363  0.013502671  0.011881686           17 
 2007000   0.43840889   -8.0353782    324.95847  0.013492712    0.0118725           14 
 2008000    0.4472754   -8.0527656    324.83044  0.013480679  0.011863315           13 
 2009000   0.45527672   -8.0515461    324.95843  0.013479278  0.011854146            8 
 2010000   0.45178734   -8.0520532    325.07943  0.013477588   0.01184498           11 
 2011000   0.45190738   -8.0406002    324.75956  0.013457631  0.011835824            8 
 2012000   0.45941692   -8.0571621    324.91969  0.013457575  0.011826671           13 
Loop time of 4469.66 on 48 procs for 2000000 steps with 4000 atoms

Performance: 77321.371 tau/day, 447.462 timesteps/s
99.4% CPU use with 48 MPI tasks x no OpenMP threads

MPI task timing breakdown:
Section |  min time  |  avg time  |  max time  |%varavg| %total
---------------------------------------------------------------
Pair    | 279.29     | 296.77     | 317.28     |  50.6 |  6.64
Neigh   | 28.569     | 29.46      | 30.409     |   8.8 |  0.66
Comm    | 261.15     | 281.69     | 301.93     |  59.5 |  6.30
Output  | 3.8841     | 3.8857     | 3.9214     |   0.3 |  0.09
Modify  | 3801.8     | 3812.4     | 3823       |   9.1 | 85.30
Other   |            | 45.42      |            |       |  1.02

Nlocal:        83.3333 ave          90 max          73 min
Histogram: 1 0 2 2 9 11 8 4 9 2
Nghost:        1882.10 ave        1917 max        1852 min
Histogram: 1 4 4 7 12 7 7 4 0 2
Neighs:        11774.2 ave       13367 max        9106 min
Histogram: 1 0 1 2 7 9 13 7 5 3
FullNghs:      23548.5 ave       25526 max       19998 min
Histogram: 1 0 1 2 8 7 12 6 5 6

Total # of neighbors = 1130326
Ave neighs/atom = 282.58150
Neighbor list builds = 107575
Dangerous builds = 0

#clear
#
#next RN
#
#jump SELF
Total wall time: 1:14:32
