
units lj                  # Use reduced LJ style units
atom_style atomic         # Uncharged point particles
atom_modify map hash      # Needed for indexing of clusters etc
                          # Used to be able to find where atoms are in relation to each other.

lattice fcc 1.0 spacing 1 1 1
Lattice spacing in x,y,z = 1.5874011 1.5874011 1.5874011
region box block 0 10 0 10 0 10 units lattice
create_box 2 box
Created orthogonal box = (0.0000000 0.0000000 0.0000000) to (15.874011 15.874011 15.874011)
  3 by 4 by 4 MPI processor grid
create_atoms 1 box
Created 4000 atoms
  using lattice units in orthogonal box = (0.0000000 0.0000000 0.0000000) to (15.874011 15.874011 15.874011)
  create_atoms CPU = 0.002 seconds
set type 1 type/fraction 2 0.45 78393
Setting atom values ...
  1799 settings made for type/fraction
mass 1 1.0
mass 2 1.0
pair_style lj/cut  3.5
pair_modify tail  yes
pair_coeff 1  1  1.0  1.0   # Intearaction between 1 and 1 set with epsilon = 1 and sigma = 1
pair_coeff 1  2  1.5  0.8
pair_coeff 2  2  0.5  0.88

write_data data.0
System init for write_data ...
Neighbor list info ...
  update every 1 steps, delay 10 steps, check yes
  max neighbors/atom: 2000, page size: 100000
  master list distance cutoff = 3.8
  ghost atom cutoff = 3.8
  binsize = 1.9, bins = 9 9 9
  1 neighbor lists, perpetual/occasional/extra = 1 0 0
  (1) pair lj/cut, perpetual
      attributes: half, newton on
      pair build: half/bin/atomonly/newton
      stencil: half/bin/3d
      bin: standard
WARNING: Not all mixed pair coeffs generated from mixing. Use write_data with 'pair ij' option to store all pair coeffs. (../write_data.cpp:312)


#############################
#   M E L T   S Y S T E M   #
#############################

velocity all create 2.4 3143649 mom yes dist gaussian # Assign velocities
                                                    # Temperature 2.4, random number seed, zero linear momentum
                                                                                # Gaussian distribution

timestep 0.002   # simulation timestep
thermo 1000       # output thermodynamic data every 1000 steps bf 100

# Define a fix  in this case with index 1 applied to all
# particles in the simulation. This fix is for simulations
# in the anisotropic NPT ensemble. Note that we use the MTK
# correction.
fix 1 all npt temp 2.4 2.4 0.1 iso 5.68 5.68 0.5 mtk yes tchain 5 pchain 5 # Use NPT ensemble
                                                                         # Set temperature and pressure and damping
                                                                         # Numbers of thermostats in chain and in barostat
run 10000          # run for 10000 steps
Per MPI rank memory allocation (min/avg/max) = 3.642 | 3.644 | 3.648 Mbytes
Step Temp E_pair E_mol TotEng Press Volume 
       0          2.4   -5.5879345            0   -1.9888345   -4.1997978         4000 
    1000    2.4040681   -4.9369476            0    -1.331747     5.725192    3815.7213 
    2000     2.468207   -4.9987336            0   -1.2973486    5.8878841    3772.5056 
    3000    2.4597573   -4.9549494            0   -1.2662359    5.5891245    3823.5978 
    4000    2.4222919   -5.0252696            0   -1.3927401    5.5597251    3773.9891 
    5000    2.4915739   -4.9965579            0   -1.2601315    5.5177161    3806.6098 
    6000    2.4140016   -4.9794451            0    -1.359348    5.7750426    3783.8299 
    7000    2.4304949   -4.9897509            0     -1.34492    5.6408179    3789.8189 
    8000      2.42318   -4.9573053            0   -1.3234441    5.8178519    3796.4355 
    9000    2.4108507   -5.0225493            0   -1.4071773    5.3310608    3809.4494 
   10000    2.3629209   -4.9502662            0   -1.4067709    5.8015278    3797.2899 
Loop time of 2.58535 on 48 procs for 10000 steps with 4000 atoms

Performance: 668382.009 tau/day, 3867.951 timesteps/s
99.6% CPU use with 48 MPI tasks x no OpenMP threads

MPI task timing breakdown:
Section |  min time  |  avg time  |  max time  |%varavg| %total
---------------------------------------------------------------
Pair    | 1.1423     | 1.2194     | 1.3011     |   2.9 | 47.17
Neigh   | 0.21124    | 0.22036    | 0.23229    |   0.9 |  8.52
Comm    | 0.78758    | 0.87323    | 0.94032    |   3.6 | 33.78
Output  | 0.00025197 | 0.00025629 | 0.00032234 |   0.0 |  0.01
Modify  | 0.22839    | 0.25649    | 0.29326    |   3.7 |  9.92
Other   |            | 0.01563    |            |       |  0.60

Nlocal:        83.3333 ave          91 max          74 min
Histogram: 1 1 4 3 15 5 4 8 4 3
Nghost:        1699.75 ave        1743 max        1665 min
Histogram: 2 4 8 8 7 4 6 6 2 1
Neighs:        10055.3 ave       11259 max        8744 min
Histogram: 1 3 3 10 7 9 5 4 2 4

Total # of neighbors = 482653
Ave neighs/atom = 120.66325
Neighbor list builds = 905
Dangerous builds = 207

# Equilibrate just above the melting temperature to avoid step fn in T

fix 1 all npt temp 1.25 1.25 0.1 iso 5.68 5.68 0.5 mtk yes tchain 5 pchain 5
run 2000
Per MPI rank memory allocation (min/avg/max) = 3.643 | 3.645 | 3.649 Mbytes
Step Temp E_pair E_mol TotEng Press Volume 
   10000    2.3629209   -4.9502662            0   -1.4067709    5.8015278    3797.2899 
   11000    1.2458356   -7.0548682            0    -5.186582    5.5337985    2982.8617 
   12000    1.2375631   -7.1653817            0   -5.3095011     5.540419    2954.9696 
Loop time of 0.632613 on 48 procs for 2000 steps with 4000 atoms

Performance: 546305.982 tau/day, 3161.493 timesteps/s
99.6% CPU use with 48 MPI tasks x no OpenMP threads

MPI task timing breakdown:
Section |  min time  |  avg time  |  max time  |%varavg| %total
---------------------------------------------------------------
Pair    | 0.27844    | 0.30685    | 0.34909    |   2.4 | 48.51
Neigh   | 0.039841   | 0.042398   | 0.04715    |   0.6 |  6.70
Comm    | 0.18897    | 0.23445    | 0.26794    |   3.1 | 37.06
Output  | 5.287e-05  | 5.4085e-05 | 6.9741e-05 |   0.0 |  0.01
Modify  | 0.038658   | 0.044013   | 0.04794    |   1.2 |  6.96
Other   |            | 0.004845   |            |       |  0.77

Nlocal:        83.3333 ave          90 max          75 min
Histogram: 1 0 3 4 11 10 9 3 3 4
Nghost:        2018.65 ave        2038 max        1999 min
Histogram: 2 4 6 6 7 6 4 5 6 2
Neighs:        12929.9 ave       14609 max       11337 min
Histogram: 2 4 4 9 8 8 2 3 4 4

Total # of neighbors = 620635
Ave neighs/atom = 155.15875
Neighbor list builds = 142
Dangerous builds = 14

#############################
# L I N E A R  Q U E N C H  #
#############################

# Define solid atoms. This closely follows ten Wolde  Ruiz-Montero and Frenkel  Faraday Discuss  1996  104  93-110
# Compute components of the per-atom q6 vector
compute q6 all orientorder/atom degrees 1 6 components 6 nnn NULL cutoff 1.3 # compute the Q6 parameter.
                                                                             # Use all neighbours within 1.3 unit cell.

# get number of connections
compute coord_number all coord/atom orientorder q6 0.5

# An atom is solid if it has 8 or more connections (of a possible 14)
variable is_solid atom c_coord_number>=8
group solid dynamic all var is_solid    # Must be dynamic to update
dynamic group solid defined

# do clustering
compute cluster solid cluster/atom 1.3 # Create a cluster where all atoms within are solid and max 1.3 units from another member

# define chunks one chunk per cluster
compute clus_chunks solid chunk/atom c_cluster nchunk every compress yes  # Says which atoms are in which chunk

# count the size of each chunk
compute size_chunks solid property/chunk clus_chunks count


# Find the maximum entry in the vector of chunk sizes
variable max_n equal max(c_size_chunks)


# Thermo style which includes this variable
# thermo_style custom step temp pe vol v_max_n

thermo ${N}  # Print the thermo information every 100 steps
thermo 1000  

# Reset the npt fix at a lower temperature (below freezing)
fix 1  all npt temp  ${temp} ${temp}  0.1  iso  5.68  5.68  0.5  mtk yes tchain  5  pchain  5
fix 1  all npt temp  0.45 ${temp}  0.1  iso  5.68  5.68  0.5  mtk yes tchain  5  pchain  5
fix 1  all npt temp  0.45 0.45  0.1  iso  5.68  5.68  0.5  mtk yes tchain  5  pchain  5

dump dmp2 all dcd ${N} traj.dcd
dump dmp2 all dcd 1000 traj.dcd


compute msd all msd com yes
variable twopoint equal c_msd[4]/6/(step*dt+1.0e-6)
fix 9 all vector 10 c_msd[4]
variable fit equal slope(f_9)/6/(10*dt)
thermo_style custom step temp pe c_msd[4] v_twopoint v_fit v_max_n

fix 1 all npt temp 1.25 ${temp} 0.1 iso 5.68 5.68 0.5 mtk yes tchain 5 pchain 5
fix 1 all npt temp 1.25 0.45 0.1 iso 5.68 5.68 0.5 mtk yes tchain 5 pchain 5
run 500000 # 5000000  # Run for this many steps
Neighbor list info ...
  update every 1 steps, delay 10 steps, check yes
  max neighbors/atom: 2000, page size: 100000
  master list distance cutoff = 3.8
  ghost atom cutoff = 3.8
  binsize = 1.9, bins = 8 8 8
  4 neighbor lists, perpetual/occasional/extra = 1 3 0
  (1) pair lj/cut, perpetual
      attributes: half, newton on
      pair build: half/bin/atomonly/newton
      stencil: half/bin/3d
      bin: standard
  (2) compute orientorder/atom, occasional
      attributes: full, newton on
      pair build: full/bin/atomonly
      stencil: full/bin/3d
      bin: standard
  (3) compute coord/atom, occasional
      attributes: full, newton on
      pair build: full/bin/atomonly
      stencil: full/bin/3d
      bin: standard
  (4) compute cluster/atom, occasional
      attributes: full, newton on
      pair build: full/bin/atomonly
      stencil: full/bin/3d
      bin: standard
Per MPI rank memory allocation (min/avg/max) = 9.833 | 9.838 | 9.843 Mbytes
Step Temp PotEng c_msd[4] v_twopoint v_fit v_max_n 
   12000    1.2375631   -7.1653817 9.6655182e-31 6.7121652e-33 8.3333333e+20            1 
   13000    1.2169442   -7.1672847   0.44978559 0.0028832409  0.035859662            3 
   14000    1.2315027   -7.1235715   0.83669498 0.0049803271  0.034562099            2 
   15000    1.2518704   -7.1596972    1.1953422   0.00664079  0.032379182            1 
   16000    1.2252787   -7.1830788    1.5811715  0.008235268  0.032175456            2 
   17000    1.2467536   -7.1567848    1.9613473 0.0096144472  0.031773846            4 
   18000    1.2775334   -7.1680177    2.3935608    0.0110813  0.031935283            1 
   19000    1.2406837   -7.1783552    2.8564512  0.012528294  0.032616734            2 
   20000    1.2488463   -7.1707214    3.1333079  0.013055449  0.032940243            1 
   21000    1.1994241   -7.1615764    3.4605411  0.013732306  0.032356043            2 
   22000    1.2305646   -7.1306422    3.8480651  0.014576004  0.032030331            2 
   23000    1.2225064   -7.2052725    4.1511545  0.015040414  0.031712544            1 
   24000     1.254136    -7.199125    4.5553199  0.015817082  0.031382691            3 
   25000    1.1984828    -7.189444    4.9249488  0.016416496  0.031266324            1 
   26000    1.2354891   -7.2132032    5.2231799  0.016740961  0.031019669            2 
   27000     1.252528   -7.2250008    5.6341421  0.017389327  0.030849989            2 
   28000    1.2327302    -7.183961     5.986247  0.017816211  0.030755806            2 
   29000    1.2166837   -7.1838694    6.3075212  0.018125061  0.030633121            2 
   30000    1.2149956   -7.2042065     6.596326  0.018323128  0.030454184            3 
   31000    1.1936303   -7.2298602    7.0597255  0.018977756  0.030340224            2 
   32000    1.2335377   -7.2198569    7.4599756  0.019427019  0.030360145            1 
   33000    1.2183551   -7.2543425    7.7643499  0.019606944  0.030358211            4 
   34000    1.1991933    -7.269727     8.185119  0.020061566  0.030360502            1 
   35000    1.2037738   -7.2444218    8.4810569  0.020192992  0.030344768            2 
   36000    1.2421285   -7.2437714     8.795481  0.020359909  0.030308588            1 
   37000    1.2426033   -7.1932292    9.2020334    0.0207253  0.030241199            1 
   38000    1.2064774   -7.2791692    9.4928507  0.020817655  0.030179206            1 
   39000    1.2077039   -7.1836831    9.8631854  0.021075182  0.030109868            1 
   40000    1.2034933   -7.1929455    10.290946   0.02143947  0.030087391            4 
   41000    1.1991425   -7.2868846    10.549714  0.021442509  0.030058773            3 
   42000    1.1911656   -7.3087747    10.859763  0.021547148   0.02999191            1 
   43000    1.2280151    -7.179323     11.29631  0.021892074  0.029962912            2 
   44000    1.1828924   -7.2348911     11.65595  0.022075663  0.029944065            2 
   45000    1.1982735   -7.2649525    11.963887  0.022155346   0.02992355            1 
   46000    1.2150803   -7.2966472    12.374445  0.022417472  0.029904328            2 
   47000    1.2130399   -7.3041391    12.569324  0.022286036  0.029860962            3 
   48000    1.1917194   -7.2651117    12.914522  0.022421045  0.029802975            2 
   49000    1.1908674   -7.2597227    13.279586   0.02258433  0.029738972            3 
   50000    1.1884295   -7.2795551    13.553085  0.022588475  0.029669332            1 
   51000    1.2044625   -7.3092916    13.902359  0.022716273  0.029607948            2 
   52000    1.1931466   -7.3074233    14.235412  0.022813161  0.029544589            3 
   53000    1.1731463   -7.3102377    14.604649  0.022963284  0.029485389            5 
   54000    1.1729045   -7.3204744    14.841611  0.022903721  0.029426468            2 
   55000    1.1783037   -7.2653308    15.202939  0.023034756  0.029369763            4 
   56000    1.1853822   -7.3205656    15.569938  0.023169551  0.029316337            2 
   57000    1.1718871   -7.2842463    15.905206  0.023253225  0.029259258            5 
   58000    1.1731541    -7.273727    16.164826  0.023225324  0.029201345            1 
   59000    1.1851118   -7.3285669    16.418346  0.023189754  0.029126119            2 
   60000     1.193596   -7.3011371    16.880313  0.023444879   0.02906553            1 
   61000    1.1941273   -7.3134659    17.032012  0.023267776  0.029011171            1 
   62000    1.1698127   -7.3535543    17.371741  0.023349114  0.028933686            1 
   63000    1.1813067   -7.2770372    17.866939  0.023633518  0.028878946            2 
   64000    1.1772523    -7.348051    18.128888  0.023605323  0.028833996            3 
   65000    1.1502887   -7.3382623    18.440496  0.023641662  0.028791211            1 
   66000    1.1542932   -7.3694269    18.657859  0.023557902  0.028731285            2 
   67000    1.1551631    -7.355003    18.955148  0.023576055  0.028668682            1 
   68000    1.1562926   -7.3180944     19.19124  0.023518676  0.028599114            1 
   69000    1.1611172   -7.3865778    19.510729  0.023563682  0.028525804            2 
   70000    1.1378288   -7.3609671    19.827128  0.023603723  0.028451563            1 
   71000    1.1666899   -7.3784128    19.987162   0.02345911  0.028378839            1 
   72000    1.1869021    -7.381522    20.201905  0.023381834  0.028289583            2 
   73000    1.1440772   -7.3667049    20.516627  0.023420807  0.028199924            2 
   74000    1.1508029   -7.4226312    20.845251  0.023474382  0.028114227            1 
   75000    1.1375739   -7.4120519    21.165109  0.023516788  0.028045276            1 
   76000    1.1292031    -7.382418    21.552152  0.023631745  0.027980571            1 
   77000    1.1472556    -7.419271    21.869717  0.023668525  0.027912124            2 
   78000    1.1457979   -7.4118824    22.143243  0.023657311  0.027853159            2 
   79000    1.1387022   -7.4226007    22.389637  0.023617761  0.027789796            1 
   80000    1.1369988   -7.4031151    22.633434  0.023576493  0.027721566            2 
   81000    1.1255716   -7.3700371    23.026389    0.0236897  0.027655311            1 
   82000    1.1334892   -7.4275583    23.221633  0.023599221  0.027594516            3 
   83000    1.1748593    -7.441067    23.483303  0.023577614  0.027528396            6 
   84000    1.1310099   -7.4178888    23.776566  0.023587863  0.027456972            2 
   85000      1.13236   -7.4049996    23.847296  0.023379702  0.027382734            3 
   86000    1.1287941   -7.4468073    24.055878  0.023309959  0.027302149            1 
   87000    1.1252455   -7.4304094    24.370851  0.023343727  0.027217533            3 
   88000    1.1116793   -7.4181403    24.695666  0.023386047  0.027142497            2 
   89000    1.1435901   -7.4513051    24.928976  0.023341738  0.027066411            2 
   90000    1.1372965   -7.4665363    25.234908  0.023365655  0.026987456            2 
   91000    1.1237814   -7.4452361    25.533223  0.023382072  0.026910913            4 
   92000    1.0996302   -7.4649507    25.791236  0.023361627  0.026834239            1 
   93000    1.1218312   -7.4435886     26.03127  0.023325511   0.02676351            3 
   94000    1.0989929   -7.4106749    26.386085  0.023391919  0.026693149            2 
   95000    1.1104022   -7.5142554     26.46041  0.023210886  0.026623219            2 
   96000    1.1167842   -7.4441905    26.943628  0.023388566  0.026556221            2 
   97000    1.1117966   -7.5026252    27.038683  0.023229109  0.026491076            1 
   98000    1.1013794   -7.4495309    27.360078  0.023265373  0.026424696            2 
   99000    1.0887201   -7.4879159    27.559437  0.023198179  0.026357254            3 
  100000    1.1152981   -7.4863574    27.794276  0.023161897  0.026290723            2 
  101000    1.0811467   -7.4712701    27.998184  0.023100812  0.026221927            2 
  102000    1.0946456   -7.4643546    28.240159  0.023072026   0.02615467            4 
  103000    1.0740163    -7.525011    28.637001  0.023169095  0.026089941            1 
  104000    1.1176883   -7.4951836    28.891969  0.023150616  0.026030521            2 
  105000    1.0658878   -7.5411543    29.183946  0.023161862  0.025972414            6 
  106000    1.1238273   -7.5821604    29.522928  0.023209849  0.025916285            3 
  107000    1.1096676   -7.5155134    29.710335   0.02313889  0.025863054            1 
  108000    1.0999967   -7.5027495    30.026584   0.02316866  0.025810902            4 
  109000    1.0845293   -7.5151214    30.418538  0.023255763  0.025761541            1 
  110000    1.1120712   -7.5212531    30.748395  0.023294239  0.025714382            2 
  111000    1.1064453   -7.5034101    30.954351  0.023239002   0.02567153            4 
  112000    1.0958192   -7.5365189    31.217129   0.02322703  0.025627693            4 
  113000    1.0757145   -7.5395284    31.322241  0.023098998  0.025582747            2 
  114000    1.0837735   -7.5485389     31.47647  0.023009115  0.025533062            5 
  115000    1.0830142   -7.5684743    31.714394  0.022981445  0.025475799            2 
  116000    1.0898801   -7.5884979    31.893421   0.02291194   0.02541668            2 
  117000    1.0857625   -7.5622068    32.113113  0.022872587  0.025358114            7 
  118000     1.084082   -7.5224339    32.430731  0.022903059  0.025299673            1 
  119000    1.0846169   -7.5591912    32.713132  0.022908355  0.025245076            3 
  120000    1.0895474    -7.545932    33.060836  0.022958914  0.025197322            2 
  121000    1.0736796   -7.5737957    33.368594  0.022981125  0.025151488            2 
  122000    1.0532995    -7.615606    33.539118  0.022909233  0.025107276            3 
  123000    1.0745034   -7.5819513    33.780737  0.022886678  0.025061503            6 
  124000    1.0574032   -7.5638498    33.982615  0.022837779  0.025014194            3 
  125000    1.0629641   -7.6036253    34.273862  0.022849241  0.024966144            4 
  126000    1.0544254   -7.5801356    34.525378  0.022834245  0.024917305            1 
  127000    1.0597346   -7.6320131    34.568323  0.022682627  0.024865641            3 
  128000     1.038104   -7.6245224    34.773885  0.022639248  0.024811437            3 
  129000    1.0404223   -7.6322244    34.876891  0.022530292  0.024755609            5 
  130000    1.0575603   -7.6214714    34.995299  0.022432884  0.024697018            1 
  131000    1.0633413   -7.6166397     35.27156  0.022437379  0.024636695            2 
  132000    1.0572203   -7.6145861      35.4316  0.022368434  0.024574518            1 
  133000     1.037933   -7.6573361    35.549472  0.022274105  0.024509589            2 
  134000    1.0473607   -7.6197445     35.87893  0.022312768  0.024446682            1 
  135000    1.0531515   -7.6327377    35.999414  0.022221861  0.024385677            3 
  136000    1.0575355   -7.5847065    36.537947  0.022388448  0.024328376            2 
  137000    1.0498262   -7.6611247    36.648941  0.022292543  0.024274975            2 
  138000    1.0768622   -7.6825828    36.924991    0.0222977  0.024219613            3 
  139000    1.0502883   -7.6697106    36.992084  0.022177508  0.024163375            2 
  140000    1.0590771    -7.658598      37.3598  0.022237976  0.024108425            2 
  141000    1.0342855    -7.636788    37.445324  0.022130806  0.024054348            3 
  142000    1.0319174    -7.710315    37.608329  0.022070616   0.02400159            1 
  143000    1.0466947   -7.6550558    37.884624  0.022077287  0.023945655            1 
  144000    1.0485475   -7.6487646    38.105038  0.022051527  0.023890504            1 
  145000    1.0363856   -7.6464003    38.120375  0.021908261  0.023832649            2 
  146000    1.0238751   -7.7012245    38.354987  0.021892116  0.023774851            5 
  147000    1.0195969   -7.7045181    38.548308  0.021852782  0.023717437            4 
  148000    1.0441816   -7.6761038    38.870421  0.021886498  0.023658631            2 
  149000    1.0199164    -7.664955    38.915825  0.021765003  0.023600759            1 
  150000    1.0086232   -7.6829494    38.926354  0.021625752  0.023541197            6 
  151000    1.0158442   -7.6391281    39.331792  0.021706287  0.023481998            5 
  152000    1.0177406   -7.7112813    39.409975  0.021606346   0.02342185            2 
  153000    1.0381308   -7.7108251    39.594289  0.021565517  0.023362237            1 
  154000   0.99098319   -7.7252019    39.741217  0.021504988  0.023302383            3 
  155000    1.0410896   -7.7482284    39.714405  0.021351831  0.023239419            3 
  156000     1.030728   -7.7304642    40.064635  0.021402048  0.023176416            5 
  157000    1.0068601   -7.7214672    40.286672  0.021383584   0.02311566            3 
  158000    1.0293276   -7.7344219    40.335861  0.021274188  0.023053262            3 
  159000    1.0303794   -7.7506683    40.501216  0.021227052  0.022990811            2 
  160000    1.0182644   -7.7398749    40.752501  0.021225261  0.022929305            2 
  161000     1.006101    -7.722432    40.825737  0.021131334  0.022867229            4 
  162000    1.0132684   -7.7391379    41.081498  0.021132458  0.022805453            1 
  163000    1.0067741   -7.7599922    41.284964  0.021106832  0.022746496            5 
  164000    1.0140761   -7.7519589    41.394289  0.021033683  0.022686531            2 
  165000    1.0198754   -7.7547222    41.616126  0.021018245   0.02262671            2 
  166000    1.0073816   -7.7428365    41.854876  0.021011484  0.022566974            4 
  167000   0.98764392   -7.7298234    42.117728   0.02101683  0.022509693            1 
  168000   0.98483995   -7.7531583    42.195691  0.020930402  0.022451841            4 
  169000   0.96955434   -7.7063181    42.314429  0.020865103  0.022392714            2 
  170000   0.98291227   -7.7810097    42.497892    0.0208323  0.022334781            4 
  171000    1.0108418    -7.773739    42.717579  0.020817534  0.022276818            2 
  172000    1.0239347   -7.7871335    42.633502  0.020655766  0.022217624            4 
  173000   0.98848891   -7.8339426    42.822933  0.020627617  0.022156609            3 
  174000    1.0158811   -7.8201079    43.088174  0.020636099  0.022094841            1 
  175000   0.99572341   -7.7894249    42.928533  0.020442159  0.022033292            3 
  176000   0.98466704   -7.8124021    43.177886  0.020444075  0.021970276            4 
  177000   0.99973204   -7.8222424    43.217309  0.020347132  0.021907376            1 
  178000   0.96977665   -7.7850979    43.262714   0.02025408  0.021842095            3 
  179000    0.9650348   -7.8123383    43.337808  0.020175888  0.021776611            2 
  180000   0.97580842   -7.8116704    43.610172  0.020189895  0.021710906            3 
  181000    1.0139686    -7.794391    43.632964  0.020088841  0.021646048            1 
  182000    0.9834999   -7.8380752    43.670167  0.019995498  0.021579636            3 
  183000   0.97275896   -7.8277391    43.956992  0.020016845  0.021513064            2 
  184000   0.97444403   -7.8127486    44.174991  0.020006789  0.021448541            1 
  185000    0.9902322   -7.8562033    44.064749  0.019848986   0.02138315            3 
  186000   0.98525901   -7.8191716    44.379952  0.019883491  0.021317459            6 
  187000   0.97382537   -7.8697705    44.527693  0.019843001  0.021252641            3 
  188000    0.9668768   -7.8774247    44.593838  0.019766772  0.021187788            7 
  189000   0.96976232   -7.8690876     44.84377  0.019772385  0.021123774            5 
  190000   0.95903308   -7.8612859    45.039633  0.019754225  0.021063012            2 
  191000   0.98325508   -7.8647784    45.297509  0.019763311  0.021003772            3 
  192000   0.96608319   -7.8571104    45.308986  0.019665359   0.02094338            2 
  193000   0.94899077   -7.8653258    45.462327  0.019629675  0.020883748            5 
  194000    0.9785712   -7.8689374    45.646094  0.019607429  0.020824606            3 
  195000   0.94579728   -7.8780314    45.813701  0.019578505  0.020765409            4 
  196000   0.96422292   -7.8903794     45.83015  0.019485608  0.020705621            3 
  197000    0.9428076   -7.8763118    45.993518  0.019455803  0.020645367            5 
  198000   0.96538712   -7.9039338    46.080311   0.01939407  0.020584538            3 
  199000   0.95020898   -7.8938605    46.282012  0.019381077   0.02052438            3 
  200000    0.9535182   -7.8873107    46.386914  0.019327881  0.020465747            5 
  201000   0.95740355   -7.8855356    46.572865  0.019308816  0.020407532            4 
  202000   0.92421417   -7.9127773    46.617219  0.019231526  0.020350067            4 
  203000   0.94020809   -7.9299427    46.763525  0.019196849  0.020291829            3 
  204000   0.94152483   -7.9241061    46.864352  0.019143935  0.020234705            2 
  205000   0.95359404   -7.9476355    47.029746  0.019117783  0.020178025            5 
  206000   0.90749559   -7.9359093    47.149458  0.019073405  0.020121495            3 
  207000   0.92281266   -7.9233399     47.21751   0.01900866  0.020064383            7 
  208000   0.91725548   -7.9635038    47.365906  0.018976725  0.020007577            7 
  209000   0.93475101   -7.8948661    47.606491  0.018981854  0.019951273            2 
  210000   0.92920275   -7.9550231    47.591407  0.018885479  0.019895421            2 
  211000   0.92252606   -7.9617516    47.689723  0.018834804  0.019839722            3 
  212000   0.91004314   -7.9224392    47.952956  0.018849432  0.019784254            2 
  213000   0.92820396    -7.936301    47.983885  0.018773038  0.019727877            6 
  214000   0.94537673   -7.9420494     48.18567   0.01876389  0.019671896            3 
  215000   0.90558934   -7.9801524    48.109536  0.018647107  0.019616572            6 
  216000   0.92743671   -7.9840281    48.294005  0.018631946  0.019561518            5 
  217000   0.91962603   -7.9892864    48.552904  0.018645508  0.019506925            2 
  218000   0.92782507   -7.9952753    48.535703  0.018553403  0.019452387            3 
  219000   0.92773657   -8.0000058    48.724582  0.018540556  0.019397413            3 
  220000   0.92148127   -7.9996809    48.643486  0.018425563  0.019342266            3 
  221000   0.90836334   -8.0060761    48.898596  0.018438385  0.019286971            4 
  222000   0.91937485   -8.0730822    48.821907  0.018326542  0.019231594            3 
  223000   0.92479237   -7.9716047    49.149562  0.018366802  0.019176665            2 
  224000   0.92137277   -8.0248326    49.117136  0.018272744  0.019122179            8 
  225000   0.91788822   -8.0002894    49.239146  0.018236721   0.01906708            2 
  226000   0.91344476   -7.9967139     49.45488  0.018235575  0.019012535            6 
  227000   0.89331809   -8.0289513    49.340717  0.018113332  0.018958323            4 
  228000   0.90409709   -8.0448599    49.350813  0.018037578  0.018903172            6 
  229000   0.91705428    -8.033955    49.547605  0.018030424  0.018846843            6 
  230000    0.9149904   -8.0971941    49.436799  0.017911884  0.018790945            4 
  231000   0.91694533   -8.0623741    49.520931  0.017864694  0.018734767            3 
  232000   0.90161493   -8.0772684    49.656666  0.017836446  0.018678642            2 
  233000   0.89573882   -8.0609874    49.698011  0.017774682  0.018622062            5 
  234000   0.90237792   -8.0723086    49.697732  0.017698622  0.018566062            5 
  235000   0.88756299     -8.07439    49.904954  0.017696792  0.018509166            5 
  236000   0.89660503   -8.0908121    49.954508  0.017639304  0.018452358            3 
  237000   0.89504969   -8.0544325    49.987509   0.01757648  0.018395671            3 
  238000   0.89503601   -8.0514954    50.180369  0.017570157  0.018339277            5 
  239000   0.89813606   -8.0870539    50.357146   0.01755828  0.018283326            2 
  240000   0.88042687   -8.0837838    50.324535  0.017473797   0.01822787            4 
  241000   0.88612003   -8.1157503    50.140031  0.017337493  0.018170837            2 
  242000   0.87414649   -8.1127163    50.347908  0.017337434  0.018114366            3 
  243000   0.89723387   -8.1470799    50.264308  0.017237417  0.018057879            3 
  244000   0.88487426   -8.1148497    50.449129  0.017229894  0.018001284            1 
  245000   0.86630017   -8.1016164    50.479921  0.017170041  0.017943993            4 
  246000   0.85984649   -8.1189155    50.494992   0.01710535  0.017886584            8 
  247000   0.86405481   -8.1413561    50.410405  0.017007559  0.017828448            4 
  248000   0.87678948   -8.1533327    50.447507  0.016951447  0.017769851            4 
  249000   0.87452324   -8.1166911    50.443112  0.016881898  0.017711069            4 
  250000   0.86055492   -8.1405949    50.546994  0.016848998  0.017652524           10 
  251000   0.86486667   -8.1572324    50.526287  0.016774996  0.017594153            4 
  252000   0.87040835   -8.1633374    50.704638  0.016767407  0.017535151            5 
  253000   0.87764317    -8.163664    50.661903  0.016687056  0.017476716            5 
  254000   0.85320956   -8.1760928    50.715523  0.016638951  0.017417907            3 
  255000   0.84740652   -8.1610584    50.775096  0.016593169  0.017358643            2 
  256000   0.88079535   -8.1758217    50.776015  0.016528651  0.017300283            6 
  257000   0.85996163   -8.1745127    50.888135  0.016500692  0.017242661            5 
  258000   0.85401974   -8.1911794     50.91153  0.016444293  0.017185349            2 
  259000   0.84547944   -8.1409039    51.029642  0.016418804  0.017127582            3 
  260000   0.85054265   -8.1824651    51.053253  0.016363222  0.017069925            2 
  261000   0.85415861   -8.1653383    51.048324  0.016298954  0.017012124            2 
  262000   0.85614118   -8.1760015    51.128343  0.016262196  0.016954383           14 
  263000   0.86686339   -8.1699372    51.091487  0.016188684  0.016896826            3 
  264000   0.85160389   -8.1700055    51.238949  0.016173911  0.016839171            4 
  265000   0.83038925    -8.212045    51.252309  0.016117078  0.016781722           10 
  266000   0.83060654   -8.1981393    51.349981  0.016087087  0.016724585            5 
  267000   0.84878907   -8.2043963    51.317848  0.016016807  0.016667786            3 
  268000   0.84146367   -8.2033356    51.421497  0.015989271  0.016610946            7 
  269000   0.82678942   -8.2273194    51.466556  0.015943791  0.016554414            6 
  270000   0.83905308   -8.2233011    51.354454   0.01585014  0.016498128            5 
  271000   0.82913981   -8.2119322      51.5213  0.015842958    0.0164419            4 
  272000   0.81469474   -8.2065979    51.538657   0.01579003  0.016385922            3 
  273000   0.84547318   -8.2322163    51.529401  0.015729365  0.016329738            6 
  274000   0.82380062   -8.2654103    51.582847  0.015688214  0.016273678            3 
  275000    0.8364575   -8.2714256    51.541778  0.015618721  0.016218057            2 
  276000   0.82673368   -8.2500055    51.617015  0.015584848  0.016162164            5 
  277000   0.83191377   -8.2379433    51.709842  0.015556511  0.016106288           12 
  278000   0.82145489   -8.2473458    51.505595  0.015439327  0.016050457            6 
  279000   0.81989076   -8.2367101    51.718773  0.015447662  0.015995066            3 
  280000   0.83770144    -8.266893    51.771917  0.015408309  0.015939845            5 
  281000   0.83991674   -8.2761216    51.766333  0.015351819  0.015884565            3 
  282000   0.82226376   -8.2959628    51.633508  0.015258129  0.015828693            3 
  283000   0.83868455   -8.3161343    51.677285  0.015217104  0.015772591            2 
  284000   0.81015646   -8.3195775    51.694974  0.015168713  0.015716903            9 
  285000   0.82082837   -8.3022399    51.795088  0.015144763  0.015661158            4 
  286000   0.80288056   -8.3331062    51.795984   0.01509207  0.015605265           14 
  287000   0.81005707   -8.3215865    51.749128  0.015025879  0.015549527            8 
  288000   0.80213954    -8.347918    51.893867  0.015015587  0.015494384           11 
  289000   0.81073648   -8.3294065    52.065982  0.015013259    0.0154398            4 
  290000   0.82293716    -8.339889    52.066545  0.014961651  0.015385273           11 
  291000   0.79996421   -8.3335571    51.997164  0.014890368  0.015331123           14 
  292000   0.81088805    -8.366877    52.087577  0.014865176  0.015277312            9 
  293000   0.80649319   -8.3537552    52.168101  0.014837344  0.015223555           17 
  294000   0.78940748   -8.3531957    52.102396  0.014768253  0.015169895            8 
  295000   0.80542264   -8.3683393    52.261827  0.014763228  0.015116311           12 
  296000   0.79269061   -8.3744602    52.132886  0.014677051  0.015063139           13 
  297000   0.80472448   -8.3595952     52.21423  0.014650457  0.015009905           26 
  298000   0.79605899   -8.3696361    52.224273  0.014604103  0.014956477           25 
  299000   0.78068177   -8.3816986     52.15919  0.014537121  0.014903251           16 
  300000   0.77935412    -8.352222    52.417762   0.01456049  0.014850462           34 
  301000   0.79802173   -8.3799812    52.384611  0.014502938  0.014798134           17 
  302000    0.7843083   -8.3668379    52.419205   0.01446446  0.014746258           14 
  303000   0.77442029   -8.3946947    52.392867  0.014409479   0.01469429           13 
  304000   0.79375969   -8.3974874    52.359518  0.014352938  0.014642362            6 
  305000   0.77189162   -8.3773373    52.399824  0.014316892  0.014590968            8 
  306000   0.75276594    -8.389276    52.527424  0.014304854  0.014539852            9 
  307000   0.77466318   -8.3768964    52.584531   0.01427376  0.014488361            7 
  308000   0.77689903   -8.3943216    52.475095  0.014197807  0.014437278            7 
  309000   0.78225776   -8.3951565    52.482697   0.01415391  0.014386231            4 
  310000   0.77642656    -8.415508    52.516321  0.014117291  0.014335213            3 
  311000   0.77558497   -8.4226324    52.450672  0.014054306  0.014284653            3 
  312000    0.7538086   -8.4045319     52.58198  0.014044332  0.014234206            3 
  313000   0.77814551   -8.4424222    52.448382  0.013963893   0.01418345            4 
  314000   0.76560502   -8.4432725    52.558855  0.013948741  0.014132847            6 
  315000   0.78593171   -8.4198336    52.474955  0.013882263  0.014082139            6 
  316000   0.76144555   -8.4208303    52.529162  0.013852627  0.014031432            3 
  317000   0.76170475   -8.3965451    52.623897  0.013833832  0.013981176            6 
  318000   0.75829068   -8.4313058     52.54443  0.013769505   0.01393092           15 
  319000   0.74493186   -8.4076224    52.608435   0.01374306   0.01388069            6 
  320000   0.75075339   -8.4351097     52.64693  0.013710138  0.013830892            8 
  321000   0.76511615   -8.4465625    52.500182  0.013629331  0.013781187            6 
  322000   0.74873408   -8.4445081    52.684861  0.013634798  0.013731662            8 
  323000   0.74824114   -8.4447264    52.557584  0.013559748  0.013682113           16 
  324000   0.74709196   -8.4361575    52.673057  0.013547597  0.013632749            4 
  325000    0.7557251    -8.441986    52.569013  0.013479234  0.013583651            4 
  326000   0.75335617   -8.4562529    52.596026  0.013444792  0.013534655           10 
  327000   0.76348971   -8.4700705    52.642847  0.013415608  0.013485728            4 
  328000   0.74525672   -8.4661484    52.630694  0.013371619  0.013437336            3 
  329000    0.7400912   -8.4828627    52.801694  0.013374289  0.013388941            5 
  330000   0.74422137   -8.4829384    52.700343  0.013308167  0.013340678            4 
  331000    0.7422013    -8.502031    52.683641  0.013263757  0.013292376            4 
  332000    0.7345478   -8.4838435    52.709621  0.013230326  0.013244339            5 
  333000   0.74788018   -8.4974413    52.711357   0.01319103  0.013196418           13 
  334000    0.7525968   -8.4840926    52.676738  0.013142899  0.013148574            6 
  335000   0.74687994   -8.4974231    52.711982  0.013112433  0.013100847            4 
  336000   0.73484099   -8.4952394     52.73364   0.01307878   0.01305319            6 
  337000   0.73755868   -8.5056619    52.742893  0.013042258  0.013005852           10 
  338000   0.74109948   -8.4874634    52.778129  0.013012359  0.012958953            8 
  339000    0.7440022   -8.5214443    52.839145  0.012988974  0.012912159            3 
  340000   0.70825591   -8.4999379    52.680525  0.012911893  0.012865491            2 
  341000   0.71205982   -8.5388103    52.794581  0.012901902  0.012818808            6 
  342000   0.72544763   -8.5245425    52.739347  0.012850718  0.012772288            5 
  343000   0.72129051   -8.5345426    52.734748  0.012812135  0.012725819            2 
  344000   0.72114676   -8.5124017    52.702611  0.012767105  0.012679439            4 
  345000   0.71364016   -8.5475523    52.778751   0.01274849  0.012633357            5 
  346000   0.70620897   -8.5492462    52.753185  0.012705488  0.012587438            5 
  347000   0.71319336   -8.5240916    52.687918  0.012653198  0.012541521            5 
  348000   0.72054714   -8.5284384    52.756296  0.012633213  0.012495838            6 
  349000   0.71648541   -8.5652593    52.703952  0.012584516  0.012450235            1 
  350000   0.71750029   -8.5565591    52.711753  0.012550417  0.012404867            6 
  351000   0.71480208   -8.5502985    52.769117   0.01252828  0.012359635           10 
  352000   0.70183875   -8.5689343    52.797797  0.012499478  0.012314761            5 
  353000   0.70751957   -8.6079999    52.653023  0.012429892  0.012270016            6 
  354000   0.72382675   -8.5819607     52.64206  0.012392199  0.012225333            4 
  355000   0.71164855   -8.5983012    52.850283   0.01240617  0.012180858            3 
  356000   0.70499003   -8.6275098    52.657353  0.012326159  0.012136613            6 
  357000   0.68684713    -8.583497    52.797835  0.012324425  0.012092537            3 
  358000    0.7046681   -8.6003931    52.815905  0.012294205  0.012048638            5 
  359000   0.68442211   -8.6258337    52.737899  0.012241852  0.012004861            7 
  360000   0.69299822   -8.6234208    52.767273  0.012214646  0.011961204            8 
  361000   0.68861368   -8.6442127    52.744715  0.012175604  0.011917696            4 
  362000   0.67955917   -8.6263102    52.747121  0.012142523  0.011874138            9 
  363000   0.67914258   -8.6345725    52.718698  0.012102548  0.011830695            3 
  364000   0.68359922   -8.6314144    52.726964  0.012071191   0.01178751            3 
  365000   0.69612137   -8.6642942    52.508305  0.011988198  0.011744405            4 
  366000    0.6922378    -8.655214    52.611237  0.011978879  0.011701383           19 
  367000   0.68085948   -8.6267308    52.748265  0.011977354  0.011658698            8 
  368000   0.68582956   -8.6346115    52.762338  0.011947993   0.01161618            9 
  369000   0.66612543   -8.6484342    52.565918  0.011871255  0.011573756            6 
  370000   0.68538866   -8.6293719    52.716542  0.011873095  0.011531552           11 
  371000   0.67889563   -8.6312834    52.742321  0.011846883   0.01148954            6 
  372000   0.69058476    -8.623131    52.729772  0.011812225   0.01144763           19 
  373000   0.67990336   -8.6570281    52.707722   0.01177563  0.011405912            7 
  374000   0.66008152   -8.6284761    52.659938  0.011733498  0.011364454           10 
  375000   0.67157307   -8.6693652    52.586465  0.011685881  0.011323002            5 
  376000   0.66638481   -8.6565356    52.710715  0.011682339  0.011281699           13 
  377000   0.66876474   -8.6866615    52.555016  0.011616935  0.011240516           11 
  378000   0.67205562   -8.6722453    52.608751  0.011598049   0.01119944           10 
  379000   0.65079461   -8.6856887    52.590763  0.011563492  0.011158526            6 
  380000   0.66334367    -8.659516    52.658498  0.011547916   0.01111781            4 
  381000   0.65588895   -8.7088145    52.668128  0.011519713  0.011077388            4 
  382000   0.65766453   -8.6832915    52.721268  0.011501149  0.011037003            5 
  383000   0.64147247   -8.6870704    52.612702  0.011447498  0.010996808            5 
  384000   0.65753014   -8.7131926      52.6723  0.011430621  0.010956582            5 
  385000    0.6618046   -8.7073073     52.71357  0.011409864  0.010916686            6 
  386000   0.65552271   -8.7126921    52.613656  0.011358734   0.01087694            7 
  387000   0.66744044   -8.7122859    52.717562  0.011351757  0.010837321            5 
  388000   0.64725909   -8.7116834     52.66226  0.011310623  0.010797936            6 
  389000    0.6484963   -8.7093696    52.708323  0.011291414  0.010758774            6 
  390000   0.64344575   -8.6956041    52.544707  0.011227501  0.010719761            6 
  391000   0.63536272   -8.7054617    52.631944  0.011217379  0.010680775            6 
  392000   0.65277747   -8.7235084       52.533   0.01116773  0.010642008            5 
  393000   0.63147334   -8.7484788    52.571184   0.01114741  0.010603337            2 
  394000   0.64229321   -8.7348942    52.488812  0.011101695  0.010564706            5 
  395000   0.64948377    -8.735151     52.58893  0.011094711  0.010526236            9 
  396000   0.63848156   -8.7285017    52.577818  0.011064356  0.010487982            4 
  397000   0.63195524   -8.7388484     52.52277  0.011024931   0.01044994            3 
  398000   0.63980856   -8.7475625    52.435904  0.010979042  0.010412144            6 
  399000   0.64075779   -8.7572975    52.592698  0.010984273  0.010374393            9 
  400000   0.63498973   -8.7499986    52.622342  0.010962988  0.010336835           11 
  401000   0.62665675   -8.7563004    52.577059  0.010926238  0.010299294            6 
  402000   0.62292229   -8.7517343    52.510614  0.010885285  0.010261959            8 
  403000   0.61778969   -8.7431176     52.60255  0.010877285  0.010224695            6 
  404000   0.62232672   -8.7664079    52.505095  0.010830259  0.010187578            9 
  405000   0.61318257   -8.7983381    52.462557  0.010794765  0.010150586            7 
  406000   0.61123404   -8.7477911    52.467634  0.010769219  0.010113885            9 
  407000   0.61499975   -8.7655835    52.459663  0.010741127  0.010077252            9 
  408000    0.6237407   -8.7595442    52.448156   0.01071245  0.010040704            5 
  409000   0.59965744   -8.7795889    52.448897  0.010686409  0.010004304            7 
  410000   0.59845931   -8.8023336    52.473434  0.010665332  0.009967954            8 
  411000    0.6131699   -8.7814438    52.523537  0.010649541 0.0099318549            7 
  412000   0.61462647   -8.7821888    52.432924  0.010605365 0.0098959317            6 
  413000   0.60449018   -8.7927664    52.398846   0.01057281 0.0098601806            6 
  414000   0.61565543   -8.7980182    52.411891  0.010549897 0.0098244391            7 
  415000   0.60386834   -8.8017874    52.425444  0.010527198 0.0097889078            6 
  416000   0.61385556    -8.776651    52.461212  0.010509057 0.0097534443           13 
  417000   0.60430884   -8.7992546    52.438886  0.010479394 0.0097180926           11 
  418000    0.5997423   -8.8130758    52.345668  0.010435739 0.0096829438           11 
  419000   0.59721065   -8.8414109    52.353995  0.010412489 0.0096479092            8 
  420000    0.5954642   -8.8088121    52.370779  0.010391028 0.0096129795            8 
  421000   0.59848865   -8.8081337    52.364848  0.010365172 0.0095783317            8 
  422000   0.59986534   -8.8295781    52.381298  0.010343858 0.0095437681            8 
  423000   0.59128471   -8.8315282     52.34354  0.010311966 0.0095093689           10 
  424000   0.59717376   -8.8239067    52.433049  0.010305238 0.0094750812            8 
  425000   0.58903209   -8.8256893    52.356125  0.010265907 0.0094409355           13 
  426000   0.59002746   -8.8310828    52.388677  0.010248176 0.0094069665           10 
  427000   0.59592255    -8.862694    52.362469  0.010219061 0.0093731737            8 
  428000   0.58873881   -8.8581978    52.359597  0.010194626 0.0093394857           12 
  429000    0.5841036   -8.8381255    52.296627   0.01015863 0.0093058978            6 
  430000   0.58234014   -8.8529275    52.245857  0.010125166 0.0092724184           12 
  431000   0.58395157   -8.8447982    52.257186  0.010103864 0.0092391329            8 
  432000   0.58302625   -8.8650125    52.297496  0.010088252 0.0092060191           15 
  433000   0.57463842   -8.8512418    52.365834  0.010078105 0.0091730266           17 
  434000   0.60315379    -8.859179    52.205525  0.010024102 0.0091401407            9 
  435000   0.57767757   -8.8644983    52.321717  0.010023317 0.0091074283            6 
  436000   0.56272907   -8.8732845     52.21071 0.0099791113 0.0090748531           12 
  437000   0.57489356   -8.8643438    52.193587 0.0099530104 0.0090423866           11 
  438000     0.575288   -8.8663993    52.342664 0.0099586499 0.0090100738           11 
  439000   0.57453397   -8.8706741    52.264991 0.0099212208 0.0089779384           16 
  440000   0.55714531   -8.8964998      52.3762 0.0099197349 0.0089459173           15 
  441000   0.56765277   -8.8885029    52.270757 0.0098773161 0.0089140368           16 
  442000    0.5581161    -8.879885    52.212744 0.0098440316 0.0088822677            8 
  443000    0.5429355   -8.8880869    52.136071 0.0098073873 0.0088506307            9 
  444000   0.56188977   -8.8966374    52.214869 0.0098000879 0.0088191471            9 
  445000   0.55507584   -8.9119091    52.245796 0.0097838569 0.0087877097           10 
  446000   0.57040644   -8.8963219    52.265233 0.0097655517 0.0087565284           16 
  447000   0.55910435   -8.9007207    52.200004 0.0097315444 0.0087254997            9 
  448000   0.56529399   -8.8989323     52.18479 0.0097069922 0.0086945305            5 
  449000   0.54939044      -8.9119    52.097337  0.009669142 0.0086637122           13 
  450000   0.54924484   -8.9179895    52.150679  0.009657533 0.0086330723           11 
  451000   0.53944625   -8.9293433    52.231527 0.0096510581 0.0086025692           11 
  452000   0.54347275   -8.9356266    52.176331   0.00961953 0.0085720808            6 
  453000   0.54280207   -8.9133433    52.197703 0.0096022264 0.0085417735            8 
  454000   0.52888138   -8.9304648    52.200639  0.009581615 0.0085116419           13 
  455000   0.54196074   -8.9156505    52.188566 0.0095583455 0.0084816334           12 
  456000     0.541622   -8.9201563    52.096262 0.0095205157 0.0084516886            8 
  457000   0.53165921   -8.9317071    52.078624 0.0094964668 0.0084218922            8 
  458000   0.53341484    -8.929519    52.099598 0.0094795484 0.0083921737            7 
  459000   0.53422767   -8.9609024    52.130408 0.0094644894 0.0083625676            8 
  460000   0.53393111   -8.9372641    52.165599 0.0094502896 0.0083331488            8 
  461000    0.5309868   -8.9399965    52.070475 0.0094125949 0.0083038538            8 
  462000   0.53417734   -8.9414291    52.041857 0.0093870593 0.0082746618            7 
  463000   0.51667514    -8.953091     52.09644  0.009376609 0.0082456139            8 
  464000   0.52670708   -8.9421356    52.051971 0.0093484143 0.0082166902            7 
  465000    0.5204431   -8.9537359    52.034217 0.0093251284 0.0081878323            7 
  466000   0.52441764   -8.9568934    52.025393 0.0093035395 0.0081591137            8 
  467000   0.51952384   -8.9625552    51.976422 0.0092748791 0.0081305349           10 
  468000   0.51227214   -8.9649035    52.077128 0.0092729928 0.0081020739            7 
  469000   0.51583246   -8.9644738    52.066971 0.0092514163 0.0080737082            7 
  470000   0.51816679   -8.9546719    52.015781 0.0092226562  0.008045467           10 
  471000   0.51968788   -8.9458243    51.958827 0.0091929983 0.0080173707           12 
  472000   0.51665591   -8.9816063    51.971028 0.0091756758 0.0079893962           14 
  473000   0.50965578   -8.9865692    52.046751 0.0091696178 0.0079615772           12 
  474000   0.50989776   -8.9936685    51.993682 0.0091409427 0.0079338733            9 
  475000   0.51504668   -8.9688998    52.098964 0.0091401692 0.0079063347           10 
  476000   0.50242695   -8.9696147     52.05087 0.0091125473 0.0078788725            8 
  477000    0.5097848   -8.9741441    51.954073 0.0090765327 0.0078515206            9 
  478000   0.50908832   -8.9991291    51.950908 0.0090569922 0.0078242611            6 
  479000   0.50404845   -8.9844003    52.005076  0.009047508 0.0077971449            9 
  480000    0.5023541   -9.0022426    51.969304 0.0090224486 0.0077701887            8 
  481000   0.49688944   -9.0015523    51.992191 0.0090076561 0.0077433504            7 
  482000   0.49488523   -8.9904309    51.982104 0.0089872241 0.0077166731            6 
  483000   0.49447448    -9.016295    51.972786 0.0089670094 0.0076900581            9 
  484000   0.49160458   -9.0002437    51.915126 0.0089385547 0.0076635412            9 
  485000   0.49443551   -9.0224696    51.881174 0.0089142911 0.0076370949            8 
  486000   0.47979028   -9.0081998    51.878487 0.0088954881  0.007610768            7 
  487000   0.48387655   -9.0268613    51.855285  0.008873252 0.0075845496            7 
  488000   0.48535154   -9.0214325     51.89421 0.0088617161  0.007558454           10 
  489000   0.47604212     -9.01236    51.818946 0.0088307679 0.0075324723            7 
  490000   0.49293016   -9.0198448    51.811611 0.0088114984 0.0075066082            7 
  491000   0.49004101   -9.0193306    51.928377 0.0088133702 0.0074808506           10 
  492000   0.49828865   -9.0148056       51.827 0.0087782859   0.00745522           11 
  493000   0.47545693    -9.023594    51.904031 0.0087735009  0.007429718            8 
  494000   0.46630731   -9.0222473    51.768326 0.0087328486 0.0074042816           12 
  495000   0.46582466   -9.0397091    51.870858 0.0087324677 0.0073789438           13 
  496000   0.48419085   -9.0312215    51.756392 0.0086956304 0.0073537285            8 
  497000   0.47339866   -9.0399889    51.857951 0.0086951629 0.0073286489            8 
  498000   0.48154813   -9.0421886     51.77732 0.0086642102 0.0073036198           10 
  499000   0.47690192   -9.0352497    51.752254  0.008642661   0.00727872            8 
  500000   0.46245744   -9.0431165    51.789507 0.0086315845 0.0072539586           11 
  501000   0.47078893   -9.0578618    51.811303 0.0086179812 0.0072293016           12 
  502000   0.46040398   -9.0581573    51.758984 0.0085921288 0.0072047505           11 
  503000   0.46083518   -9.0527992    51.770554 0.0085769639 0.0071803062            7 
  504000    0.4660248   -9.0402376    51.725551 0.0085525052 0.0071559658            7 
  505000   0.45841409   -9.0487794    51.857373 0.0085573222  0.007131717           17 
  506000   0.45240855   -9.0720196    51.698812 0.0085142971  0.007107555            5 
  507000   0.45789413   -9.0644205    51.788152  0.008512188 0.0070835043           10 
  508000   0.43848748    -9.055572    51.730246 0.0084859328 0.0070595783            6 
  509000   0.45684072   -9.0679765    51.756348 0.0084735344 0.0070357614           10 
  510000   0.45028586   -9.0616395    51.722738 0.0084514277 0.0070120001            7 
  511000   0.44518784   -9.0646537    51.783786 0.0084448444  0.006988405            8 
  512000   0.44290316   -9.0642363    51.728425   0.00841934 0.0069648909            9 
Loop time of 1256.28 on 48 procs for 500000 steps with 4000 atoms

Performance: 68774.595 tau/day, 398.001 timesteps/s
99.4% CPU use with 48 MPI tasks x no OpenMP threads

MPI task timing breakdown:
Section |  min time  |  avg time  |  max time  |%varavg| %total
---------------------------------------------------------------
Pair    | 84.364     | 91.222     | 97.902     |  37.3 |  7.26
Neigh   | 8.311      | 8.6882     | 9.0949     |   6.2 |  0.69
Comm    | 80.641     | 86.774     | 95.354     |  40.6 |  6.91
Output  | 0.85489    | 0.85565    | 0.8772     |   0.3 |  0.07
Modify  | 1052.4     | 1056.8     | 1060       |   5.9 | 84.12
Other   |            | 11.95      |            |       |  0.95

Nlocal:        83.3333 ave          91 max          78 min
Histogram: 4 4 3 16 3 7 9 1 0 1
Nghost:        2249.10 ave        2265 max        2222 min
Histogram: 2 1 1 5 4 7 11 2 7 8
Neighs:        15146.8 ave       16588 max       13558 min
Histogram: 1 2 3 9 6 12 5 5 2 3
FullNghs:      30292.2 ave       33355 max       28218 min
Histogram: 5 3 7 10 5 9 8 0 0 1

Total # of neighbors = 1454026
Ave neighs/atom = 363.50650
Neighbor list builds = 26630
Dangerous builds = 0

#clear
#
#next RN
#
#jump SELF
Total wall time: 0:20:59
