
units lj                  # Use reduced LJ style units
atom_style atomic         # Uncharged point particles
atom_modify map hash      # Needed for indexing of clusters etc
                          # Used to be able to find where atoms are in relation to each other.

lattice fcc 1.0 spacing 1 1 1
Lattice spacing in x,y,z = 1.5874011 1.5874011 1.5874011
region box block 0 10 0 10 0 10 units lattice
create_box 2 box
Created orthogonal box = (0.0000000 0.0000000 0.0000000) to (15.874011 15.874011 15.874011)
  3 by 4 by 4 MPI processor grid
create_atoms 1 box
Created 4000 atoms
  using lattice units in orthogonal box = (0.0000000 0.0000000 0.0000000) to (15.874011 15.874011 15.874011)
  create_atoms CPU = 0.015 seconds
set type 1 type/fraction 2 0.01 78393
Setting atom values ...
  36 settings made for type/fraction
mass 1 1.0
mass 2 1.0
pair_style lj/cut  3.5
pair_modify tail  yes
pair_coeff 1  1  1.0  1.0   # Intearaction between 1 and 1 set with epsilon = 1 and sigma = 1
pair_coeff 1  2  1.5  0.8
pair_coeff 2  2  0.5  0.88

write_data data.0
System init for write_data ...
Neighbor list info ...
  update every 1 steps, delay 10 steps, check yes
  max neighbors/atom: 2000, page size: 100000
  master list distance cutoff = 3.8
  ghost atom cutoff = 3.8
  binsize = 1.9, bins = 9 9 9
  1 neighbor lists, perpetual/occasional/extra = 1 0 0
  (1) pair lj/cut, perpetual
      attributes: half, newton on
      pair build: half/bin/atomonly/newton
      stencil: half/bin/3d
      bin: standard
WARNING: Not all mixed pair coeffs generated from mixing. Use write_data with 'pair ij' option to store all pair coeffs. (../write_data.cpp:312)


#############################
#   M E L T   S Y S T E M   #
#############################

velocity all create 2.4 8172548 mom yes dist gaussian # Assign velocities
                                                    # Temperature 2.4, random number seed, zero linear momentum
                                                                                # Gaussian distribution

timestep 0.002   # simulation timestep
thermo 1000       # output thermodynamic data every 1000 steps bf 100

# Define a fix  in this case with index 1 applied to all
# particles in the simulation. This fix is for simulations
# in the anisotropic NPT ensemble. Note that we use the MTK
# correction.
fix 1 all npt temp 2.4 2.4 0.1 iso 5.68 5.68 0.5 mtk yes tchain 5 pchain 5 # Use NPT ensemble
                                                                         # Set temperature and pressure and damping
                                                                         # Numbers of thermostats in chain and in barostat
run 10000          # run for 10000 steps
Per MPI rank memory allocation (min/avg/max) = 3.642 | 3.644 | 3.648 Mbytes
Step Temp E_pair E_mol TotEng Press Volume 
       0          2.4   -8.3261558            0   -4.7270558   -2.3168672         4000 
    1000    2.3878887   -4.4982132            0  -0.91727558    5.4941097    5146.1132 
    2000    2.4504448   -4.3596398            0  -0.68489154    5.8967121    5182.4926 
    3000    2.3205325   -4.3789456            0  -0.89901705    5.4069294    5227.9868 
    4000    2.3553024   -4.3745959            0  -0.84252555    5.6762242    5188.6405 
    5000    2.3469389   -4.3515988            0  -0.83207043    5.8345001    5190.3704 
    6000    2.4134988   -4.3928411            0  -0.77349795      5.79603    5178.4438 
    7000    2.4370463   -4.4052545            0  -0.75059897     5.590584    5196.4049 
    8000    2.3927561    -4.420058            0  -0.83182113     5.515846    5196.6056 
    9000     2.394657   -4.3846015            0  -0.79351398    5.6112738    5202.8881 
   10000    2.3896349   -4.3872071            0  -0.80365086    5.5659739    5208.9535 
Loop time of 2.07324 on 48 procs for 10000 steps with 4000 atoms

Performance: 833476.421 tau/day, 4823.359 timesteps/s
99.6% CPU use with 48 MPI tasks x no OpenMP threads

MPI task timing breakdown:
Section |  min time  |  avg time  |  max time  |%varavg| %total
---------------------------------------------------------------
Pair    | 0.84948    | 0.91114    | 1.0006     |   3.6 | 43.95
Neigh   | 0.16691    | 0.17417    | 0.18763    |   1.1 |  8.40
Comm    | 0.64486    | 0.73212    | 0.80945    |   4.7 | 35.31
Output  | 0.00024414 | 0.00024877 | 0.0003129  |   0.0 |  0.01
Modify  | 0.18938    | 0.24133    | 0.30049    |   6.5 | 11.64
Other   |            | 0.01425    |            |       |  0.69

Nlocal:        83.3333 ave          91 max          75 min
Histogram: 2 3 4 6 6 8 7 4 6 2
Nghost:        1379.33 ave        1400 max        1358 min
Histogram: 1 2 7 5 5 11 7 7 2 1
Neighs:        7308.42 ave        8058 max        6242 min
Histogram: 1 2 2 5 8 7 5 8 4 6

Total # of neighbors = 350804
Ave neighs/atom = 87.701000
Neighbor list builds = 903
Dangerous builds = 199

# Equilibrate just above the melting temperature to avoid step fn in T

fix 1 all npt temp 1.25 1.25 0.1 iso 5.68 5.68 0.5 mtk yes tchain 5 pchain 5
run 2000
Per MPI rank memory allocation (min/avg/max) = 3.642 | 3.644 | 3.648 Mbytes
Step Temp E_pair E_mol TotEng Press Volume 
   10000    2.3896349   -4.3872071            0  -0.80365086    5.5659739    5208.9535 
   11000    1.2463426   -5.8333419            0   -3.9642954    5.9364259    4304.0128 
   12000    1.2574672   -5.8560394            0   -3.9703101    5.8146118    4308.7455 
Loop time of 0.452622 on 48 procs for 2000 steps with 4000 atoms

Performance: 763551.196 tau/day, 4418.699 timesteps/s
99.6% CPU use with 48 MPI tasks x no OpenMP threads

MPI task timing breakdown:
Section |  min time  |  avg time  |  max time  |%varavg| %total
---------------------------------------------------------------
Pair    | 0.19997    | 0.20987    | 0.22422    |   1.2 | 46.37
Neigh   | 0.031335   | 0.032296   | 0.033758   |   0.3 |  7.14
Comm    | 0.13998    | 0.15654    | 0.17113    |   1.6 | 34.58
Output  | 5.0649e-05 | 5.2052e-05 | 6.6008e-05 |   0.0 |  0.01
Modify  | 0.044745   | 0.049384   | 0.056472   |   1.3 | 10.91
Other   |            | 0.00448    |            |       |  0.99

Nlocal:        83.3333 ave          92 max          76 min
Histogram: 2 3 5 7 10 10 5 3 2 1
Nghost:        1563.65 ave        1582 max        1540 min
Histogram: 2 0 2 6 8 12 6 6 0 6
Neighs:        8838.73 ave        9833 max        8017 min
Histogram: 3 3 6 10 8 5 4 6 2 1

Total # of neighbors = 424259
Ave neighs/atom = 106.06475
Neighbor list builds = 142
Dangerous builds = 10

#############################
# L I N E A R  Q U E N C H  #
#############################

# Define solid atoms. This closely follows ten Wolde  Ruiz-Montero and Frenkel  Faraday Discuss  1996  104  93-110
# Compute components of the per-atom q6 vector
compute q6 all orientorder/atom degrees 1 6 components 6 nnn NULL cutoff 1.3 # compute the Q6 parameter.
                                                                             # Use all neighbours within 1.3 unit cell.

# get number of connections
compute coord_number all coord/atom orientorder q6 0.5

# An atom is solid if it has 8 or more connections (of a possible 14)
variable is_solid atom c_coord_number>=8
group solid dynamic all var is_solid    # Must be dynamic to update
dynamic group solid defined

# do clustering
compute cluster solid cluster/atom 1.3 # Create a cluster where all atoms within are solid and max 1.3 units from another member

# define chunks one chunk per cluster
compute clus_chunks solid chunk/atom c_cluster nchunk every compress yes  # Says which atoms are in which chunk

# count the size of each chunk
compute size_chunks solid property/chunk clus_chunks count


# Find the maximum entry in the vector of chunk sizes
variable max_n equal max(c_size_chunks)


# Thermo style which includes this variable
# thermo_style custom step temp pe vol v_max_n

thermo ${N}  # Print the thermo information every 100 steps
thermo 1000  

# Reset the npt fix at a lower temperature (below freezing)
fix 1  all npt temp  ${temp} ${temp}  0.1  iso  5.68  5.68  0.5  mtk yes tchain  5  pchain  5
fix 1  all npt temp  0.45 ${temp}  0.1  iso  5.68  5.68  0.5  mtk yes tchain  5  pchain  5
fix 1  all npt temp  0.45 0.45  0.1  iso  5.68  5.68  0.5  mtk yes tchain  5  pchain  5

dump dmp2 all dcd ${N} traj.dcd
dump dmp2 all dcd 1000 traj.dcd


compute msd all msd com yes
variable twopoint equal c_msd[4]/6/(step*dt+1.0e-6)
fix 9 all vector 10 c_msd[4]
variable fit equal slope(f_9)/6/(10*dt)
thermo_style custom step temp pe c_msd[4] v_twopoint v_fit v_max_n

fix 1 all npt temp 1.25 ${temp} 0.1 iso 5.68 5.68 0.5 mtk yes tchain 5 pchain 5
fix 1 all npt temp 1.25 0.45 0.1 iso 5.68 5.68 0.5 mtk yes tchain 5 pchain 5
run 500000 # 5000000  # Run for this many steps
Neighbor list info ...
  update every 1 steps, delay 10 steps, check yes
  max neighbors/atom: 2000, page size: 100000
  master list distance cutoff = 3.8
  ghost atom cutoff = 3.8
  binsize = 1.9, bins = 9 9 9
  4 neighbor lists, perpetual/occasional/extra = 1 3 0
  (1) pair lj/cut, perpetual
      attributes: half, newton on
      pair build: half/bin/atomonly/newton
      stencil: half/bin/3d
      bin: standard
  (2) compute orientorder/atom, occasional
      attributes: full, newton on
      pair build: full/bin/atomonly
      stencil: full/bin/3d
      bin: standard
  (3) compute coord/atom, occasional
      attributes: full, newton on
      pair build: full/bin/atomonly
      stencil: full/bin/3d
      bin: standard
  (4) compute cluster/atom, occasional
      attributes: full, newton on
      pair build: full/bin/atomonly
      stencil: full/bin/3d
      bin: standard
Per MPI rank memory allocation (min/avg/max) = 9.729 | 9.735 | 9.739 Mbytes
Step Temp PotEng c_msd[4] v_twopoint v_fit v_max_n 
   12000    1.2574672   -5.8560394            0            0 8.3333333e+20            8 
   13000     1.241799   -5.9237208   0.55414135  0.003552188  0.045527683            4 
   14000    1.2280853   -5.8724799      1.10903 0.0066013687  0.046770928            1 
   15000    1.2441894   -5.8963987    1.6214477 0.0090080427   0.04513358            4 
   16000    1.2506259   -5.8983003    2.1728183  0.011316762  0.044536594            4 
   17000    1.2465688   -5.9094939    2.7340593  0.013402251  0.044739259            1 
   18000    1.2254542   -5.8755909    3.2883446  0.015223817   0.04517254            2 
   19000    1.2220597     -5.88992    3.7946044  0.016643001  0.045221233            3 
   20000    1.2286841    -5.882887     4.369978  0.018208241  0.045190894            3 
   21000    1.2484148   -5.8604312    5.0164697  0.019906625  0.045428299            6 
   22000    1.2355964   -5.9163055    5.5747924  0.021116637  0.045954486            3 
   23000    1.2385092   -5.8781935    6.1009198  0.022104782  0.046220695            6 
   24000    1.2241516    -5.914018      6.58539  0.022865937  0.046123346            2 
   25000    1.2396592   -5.9011417    7.0620427  0.023540142   0.04593617            1 
   26000    1.2196681   -5.8835942    7.4915548  0.024011393  0.045600909            4 
   27000    1.2291044   -5.9488301     7.928001  0.024469138  0.045186661            5 
   28000    1.2314013   -5.8894966    8.5003008  0.025298514  0.044765772            3 
   29000    1.2345947   -5.9418047    8.9680159   0.02577016  0.044456292            2 
   30000    1.2194859   -5.9119423    9.4997732  0.026388258  0.044212439            2 
   31000    1.2455494   -5.9425888    10.029106  0.026959962  0.044028755            6 
   32000    1.2182663   -5.8839197    10.523859  0.027405881   0.04380873            2 
   33000    1.2244142   -5.9007079    10.966544  0.027693294  0.043616548            1 
   34000    1.2131867   -5.9396212    11.447316  0.028057147  0.043422544            4 
   35000    1.1987907   -5.9048335     11.95853  0.028472689  0.043295966            3 
   36000     1.206647   -5.9332452    12.622199  0.029218052  0.043213509            4 
   37000    1.2307416   -5.9693941    13.177869  0.029679884  0.043218138            6 
   38000    1.1947155   -5.9544711    13.613281  0.029853687  0.043214948            2 
   39000    1.2198579    -5.932211    14.034115  0.029987426  0.043149161            5 
   40000    1.1723351   -5.9535431    14.470308  0.030146474  0.043042331            4 
   41000    1.1986993   -5.9414489    14.980986  0.030449158  0.042898698            8 
   42000    1.2064701    -5.956569    15.425114  0.030605386  0.042776969            4 
   43000    1.1781843   -5.9475595    15.870393  0.030756575  0.042644939            3 
   44000    1.2048029    -5.944618    16.376102  0.031015344  0.042522452            4 
   45000    1.1741053   -5.9679911    16.663057  0.030857513  0.042386312            1 
   46000    1.2060339   -5.9934992    17.208393  0.031174625  0.042216274            2 
   47000    1.1770478   -5.9632015    17.795277  0.031551908  0.042100261            4 
   48000    1.1836532   -5.9964332    18.019455  0.031283775  0.041967753            5 
   49000    1.2192904   -5.9752781    18.513746  0.031485962  0.041821281            5 
   50000    1.1867468    -5.974593    19.001599  0.031669331  0.041685319            4 
   51000    1.1815666   -5.9721174    19.411443  0.031718044   0.04155457            2 
   52000    1.2073505   -5.9815107    19.869465  0.031842092  0.041422197            3 
   53000    1.1629841   -6.0172599    20.285659  0.031895689   0.04129185            4 
   54000    1.1703807   -6.0249228    20.735435  0.031999127   0.04115953            5 
   55000    1.1745617   -5.9552599    21.398019  0.032421241  0.041066576            3 
   56000    1.2127749   -5.9655427    21.923032  0.032623559  0.041005824            4 
   57000    1.1711193   -6.0037551    22.326978  0.032641781   0.04094409            4 
   58000    1.1968428   -5.9825545    22.709429  0.032628489  0.040854331            4 
   59000    1.1867163    -6.014009    23.179364  0.032739214  0.040774036            6 
   60000    1.1723488   -5.9961232    23.614907  0.032798482  0.040701353            4 
   61000    1.1597936   -5.9880894    24.211821  0.033076258  0.040639386            6 
   62000    1.1581217   -5.9708533    24.660863   0.03314632   0.04059102            5 
   63000    1.1600788   -6.0375444    25.180846  0.033307996  0.040540052            9 
   64000    1.1621545   -6.0187463    25.294457  0.032935491  0.040473706            6 
   65000    1.1857304   -6.0353718    25.792706  0.033067571  0.040390731            7 
   66000    1.1800318   -6.0051716    26.389413  0.033319966  0.040315627            2 
   67000    1.1680091   -5.9893459    26.914879  0.033476217  0.040257475            3 
   68000    1.1706071   -5.9975251    27.277439  0.033428234  0.040200919            5 
   69000    1.1660134   -6.0104483    27.591908   0.03332356  0.040135493            4 
   70000    1.1717211   -6.0174798    28.096873  0.033448658  0.040060004            3 
   71000    1.1596587   -6.0586246    28.516207  0.033469727  0.039992599            3 
   72000    1.1374443   -6.0576299    28.973509  0.033534153   0.03992746            5 
   73000     1.152154   -6.0219392    29.515945  0.033694001  0.039876012            2 
   74000    1.1688972   -6.0766476    29.952613   0.03373042  0.039823031            5 
   75000    1.1466478   -6.0585581      30.2796     0.033644  0.039766817            5 
   76000    1.1476719   -6.0606145    30.585621  0.033536864  0.039697998            4 
   77000    1.1296798   -6.0624749    31.087758  0.033644759  0.039625699            3 
   78000    1.1395293   -6.0650438    31.539039  0.033695554  0.039552979            4 
   79000    1.1426251   -6.0595556    31.977336  0.033731367  0.039486738            3 
   80000    1.1276304   -6.0300835    32.485134  0.033838681  0.039418442            4 
   81000    1.1451148   -6.0371541    33.111585  0.034065416  0.039369498            1 
   82000    1.1271711   -6.0412555    33.455726  0.033999721  0.039322117            4 
   83000    1.1435954    -6.088209    33.643185  0.033778298  0.039269712            9 
   84000    1.1450876   -6.0516089    34.122039  0.033851229  0.039209042            4 
   85000    1.1128674    -6.082674    34.623359  0.033944469  0.039148013            3 
   86000    1.1167576   -6.0847391    34.921214  0.033838385  0.039082317            4 
   87000     1.111116   -6.0926678    35.272033  0.033785472   0.03900744            6 
   88000     1.141017   -6.0646397    35.571824   0.03368544  0.038928442            2 
   89000    1.0943036    -6.075851     36.06447   0.03376823  0.038855365            4 
   90000    1.1234402   -6.0679497    36.463223  0.033762243  0.038789141            5 
   91000     1.127853   -6.0526612    36.939958    0.0338278  0.038725226            8 
   92000    1.1152771   -6.0856132    37.306921  0.033792501  0.038658814            4 
   93000    1.1198357   -6.0953124    37.556808  0.033653053  0.038587528            2 
   94000    1.1077077   -6.1069204    37.793121  0.033504539  0.038498389            8 
   95000    1.0929093   -6.1003646    38.229308   0.03353448  0.038411077            6 
   96000    1.0953736   -6.0833741    38.876815  0.033747235  0.038331204            4 
   97000    1.1195553    -6.105645    39.165189   0.03364707  0.038254802            5 
   98000    1.1017615   -6.0615399    39.523013  0.033608004  0.038181478            3 
   99000    1.1164591   -6.0940703    39.991758  0.033663096  0.038107393            5 
  100000    1.1093518   -6.1194036    40.446291  0.033705242  0.038037242            3 
  101000    1.1198169   -6.1140081    40.921129  0.033763307  0.037970676            2 
  102000    1.1287762   -6.1412412    41.185708  0.033648454  0.037909119            3 
  103000    1.1041333   -6.1100543    41.631054  0.033682083  0.037851348            3 
  104000    1.1087768   -6.0995577    42.371993  0.033951917  0.037798072            4 
  105000    1.1038778   -6.1071687    42.694249  0.033884324  0.037752745            6 
  106000    1.1090586   -6.1146262     43.02412  0.033823994  0.037701985            9 
  107000    1.1188405   -6.0955022    43.551705  0.033918774   0.03764917            4 
  108000    1.1019373   -6.1476401    43.863346  0.033845174  0.037599548            4 
  109000    1.0709786   -6.1330095    44.141573  0.033747379  0.037547747            2 
  110000      1.12026   -6.1783451    44.433265  0.033661565  0.037490933            6 
  111000    1.1137616   -6.1351968    45.007595  0.033789485  0.037435337            4 
  112000    1.0713797    -6.144287    45.524083  0.033872085  0.037387276            4 
  113000    1.0872745   -6.1783666    45.740505  0.033731936  0.037339565            5 
  114000    1.0864561   -6.1904602    46.168374  0.033748811  0.037289392            5 
  115000    1.0783732   -6.1670284    46.552628  0.033733788  0.037239137            2 
  116000    1.0878349   -6.1367116    47.170175   0.03388662  0.037193631            3 
  117000    1.0705156   -6.1221424    47.453657  0.033798901  0.037144305            7 
  118000    1.1280787   -6.1638149    47.711827  0.033694793   0.03709304            4 
  119000      1.09057   -6.1455505     47.95586  0.033582535  0.037045243            2 
  120000     1.102346   -6.1584821    48.374142  0.033593154  0.036995054            6 
  121000    1.0680741   -6.1668439    48.590882  0.033464795  0.036936738            4 
  122000    1.0555178   -6.1574914    48.928062  0.033420807  0.036877876            3 
  123000    1.0577229   -6.1807496    49.354367  0.033437918  0.036822394            5 
  124000    1.0360283   -6.1805653     49.82751   0.03348623  0.036765392            2 
  125000    1.0895978    -6.128273    50.315491   0.03354366  0.036708934            3 
  126000    1.0666294   -6.2007248    50.624173  0.033481596  0.036655961            6 
  127000    1.0652963   -6.1567874    51.006941  0.033469121   0.03660212            8 
  128000    1.0572595   -6.1706229    51.428076   0.03348182  0.036549042            7 
  129000    1.0741636   -6.1898572    51.633635  0.033355061  0.036493975            3 
  130000    1.0417826   -6.2163313    52.007004  0.033337823  0.036433824            5 
  131000    1.0433391   -6.1602548    52.390006  0.033326976  0.036375998            3 
  132000    1.0614599    -6.226873    52.313525  0.033026215  0.036314072            6 
  133000    1.0464601   -6.1983148    52.600907  0.032957962  0.036243684            3 
  134000    1.0481287   -6.2293331    52.686566  0.032765277  0.036172916            2 
  135000    1.0701945   -6.1582658    53.305751  0.032904784  0.036097774            5 
  136000    1.0637346    -6.233991    53.311588  0.032666414  0.036024975            8 
  137000    1.0623654   -6.2018712    53.716005  0.032673969  0.035950165            7 
  138000    1.0342258   -6.1858248    54.043167  0.032634763  0.035873336            6 
  139000    1.0526619   -6.2475405    54.321341  0.032566751   0.03579401           10 
  140000     1.044231   -6.2042005    54.534771  0.032461173  0.035712529            7 
  141000    1.0388134   -6.2708131    54.577186   0.03225602  0.035629831            6 
  142000    1.0516035   -6.2338321    55.050245  0.032306482  0.035545343            7 
  143000    1.0229023   -6.2336736     55.33409  0.032245973  0.035461453            6 
  144000    1.0414248   -6.2291472    55.451529  0.032090005  0.035379966            5 
  145000    1.0188119   -6.2314636    55.921799  0.032138965  0.035297731           10 
  146000    1.0250439   -6.2154247    56.211399  0.032084132  0.035215248            6 
  147000    1.0030383   -6.2766377     56.28312   0.03190653  0.035133279            3 
  148000    1.0633603   -6.2321784    56.923213  0.032051359   0.03505305            6 
  149000    1.0089449   -6.2250698    57.098724  0.031934409  0.034973411            6 
  150000    1.0203163   -6.2488816    57.400132  0.031888962  0.034892637            8 
  151000    1.0196612   -6.2616585    57.749311  0.031870481  0.034811565            3 
  152000    1.0222624   -6.2724049    58.255791  0.031938482  0.034731979            8 
  153000    1.0248981   -6.2357089    58.272307  0.031738729   0.03465239           15 
  154000    1.0052111   -6.2424339    58.662979  0.031744036  0.034572162            8 
  155000     1.030567   -6.2889861     59.15806  0.031805408  0.034495328            6 
  156000    1.0067111   -6.2576929    59.523403  0.031796689  0.034420235            5 
  157000    1.0051442   -6.2574811    59.859924  0.031772783  0.034345911            5 
  158000    1.0223444   -6.2720152    59.844801  0.031563713  0.034272659            7 
  159000    1.0234539   -6.2717375    60.289585  0.031598315   0.03419658            7 
  160000     0.995183   -6.2845733    60.510917  0.031516103   0.03412239            2 
  161000    1.0278811   -6.2831269    60.718467  0.031427778   0.03404767            5 
  162000    1.0185139   -6.2797915      61.2595  0.031512088  0.033974278            6 
  163000   0.99758496   -6.3103127    61.328238  0.031353905  0.033900482            2 
  164000    1.0185019   -6.2751242    61.787351  0.031396012  0.033828263            6 
  165000    1.0259932   -6.2915121    62.122145  0.031374821  0.033756815            6 
  166000     1.012919   -6.3101778     62.22563  0.031237766  0.033684204            5 
  167000    1.0280415    -6.293308    62.559929  0.031217529  0.033611998            8 
  168000    1.0046757   -6.3349335    62.627446  0.031065201  0.033538504            4 
  169000   0.98941447   -6.3018567    62.978142  0.031054311  0.033463928            6 
  170000   0.98225585   -6.3185084    63.154282  0.030957981  0.033391509            4 
  171000    1.0011428   -6.3272026    63.635138  0.031011276  0.033319735            7 
  172000   0.97686274   -6.3335931    64.013445  0.031014266  0.033250032            7 
  173000   0.99779853   -6.3315486     64.28009  0.030963434  0.033183201            6 
  174000   0.98806563   -6.3003727    64.796072  0.031032601  0.033116829            4 
  175000   0.97176818   -6.3055344    64.898182  0.030903896  0.033049114            9 
  176000   0.95937801   -6.3287337    65.037653  0.030794343   0.03297999            5 
  177000   0.99034358   -6.3201015    65.059395    0.0306306  0.032907562            9 
  178000   0.98663457   -6.3456131    65.241039  0.030543557  0.032832721            4 
  179000   0.97775453   -6.3475184    65.481871  0.030485042  0.032758031            6 
  180000    1.0114473   -6.3355429    65.591469  0.030366421  0.032682873            3 
  181000    0.9959683   -6.3415013    65.751394  0.030272281  0.032606552            9 
  182000   0.96440288   -6.3528777    66.037617  0.030237004  0.032529524            3 
  183000   0.98446522   -6.3107225    66.577524  0.030317634   0.03245258            7 
  184000   0.95447928    -6.366108    66.724386  0.030219378  0.032379354            6 
  185000   0.98709671   -6.3645746     66.92365  0.030145788  0.032305727            7 
  186000   0.98073392   -6.3859959    67.045247  0.030038193  0.032231799           18 
  187000   0.97396442   -6.3657049    67.181397  0.029938234  0.032155586            9 
  188000   0.95814935   -6.3619238     67.69572  0.030006968  0.032080538            5 
  189000   0.97071636   -6.3801338    67.826437  0.029905836  0.032006226            9 
  190000    0.9588624   -6.3650709    68.233562  0.029927001  0.031933132            4 
  191000   0.95855208   -6.3641415    68.629742  0.029943168  0.031862213            4 
  192000   0.95584389    -6.369678    68.932209  0.029918494  0.031792511            9 
  193000   0.96260847   -6.3475934    69.026942  0.029804379  0.031722791            8 
  194000    0.9577703   -6.3810811    69.329139  0.029780558  0.031653623           14 
  195000   0.94067504   -6.4080593    69.719028  0.029794456  0.031585902            7 
  196000   0.95834304   -6.3893842    69.757984  0.029659007  0.031518343            8 
  197000   0.93666438   -6.3957987    70.213601  0.029701185  0.031450904           11 
  198000   0.95657274   -6.4075722     70.01857  0.029469095  0.031381556            7 
  199000   0.95113067   -6.4122587    70.462558  0.029506934  0.031309407            7 
  200000   0.96828912   -6.4289563    70.272095  0.029280039  0.031236415           10 
  201000   0.93465984   -6.4041921    70.440004  0.029203982  0.031162499            8 
  202000   0.96177013   -6.4033321    70.829598  0.029220131  0.031088761           13 
  203000   0.93834147   -6.4184048    71.025091  0.029156441  0.031014339            6 
  204000   0.96775948     -6.43309    71.162678  0.029069721  0.030939294           14 
  205000   0.95085295   -6.4158469     71.31815  0.028991118  0.030864728            9 
  206000   0.92001068   -6.4274303    71.646743   0.02898331  0.030791085            8 
  207000    0.9466991   -6.4353653    71.897167  0.028944109  0.030718469           27 
  208000    0.9387893   -6.4494417    72.059182  0.028869865  0.030646361           13 
  209000   0.92653182   -6.4439732    72.221725  0.028796541  0.030574721            8 
  210000   0.92630136   -6.4603589      72.7114   0.02885373   0.03050333           10 
  211000   0.93939707   -6.4180393    72.807079  0.028754771  0.030432837            5 
  212000    0.9484546   -6.4027575    72.845369  0.028634186  0.030362079            3 
  213000   0.92912429   -6.4375884    73.092468  0.028596427  0.030289928           10 
  214000   0.93162033   -6.4464384    73.309818  0.028547437   0.03021907           13 
  215000   0.93664057   -6.4762459    73.622019  0.028535666  0.030149069           11 
  216000   0.93786924    -6.451389    73.875008   0.02850116  0.030078921           13 
  217000   0.91857598   -6.4498132     73.87277  0.028368959  0.030007983           15 
  218000   0.91880915   -6.4418339    74.263763  0.028388289  0.029938675           10 
  219000   0.92616886   -6.4740474    74.557373  0.028370385  0.029869029           15 
  220000   0.94187724      -6.4428    74.548855  0.028238203  0.029798495           11 
  221000   0.92122916   -6.4603499    74.823952   0.02821416  0.029727611            6 
  222000   0.92711634   -6.4577619    74.841616    0.0280937   0.02965778            6 
  223000    0.9096797   -6.4531486    75.109848  0.028067955  0.029589356            4 
  224000   0.91024447   -6.4802018    75.359431  0.028035503   0.02952011           11 
  225000   0.91024998   -6.4655871    75.496295  0.027961591  0.029450625           15 
  226000   0.90900317   -6.5074187    75.715383  0.027918651  0.029381607            6 
  227000   0.91654159   -6.5017796    75.726428  0.027799717  0.029310953           14 
  228000   0.89022957   -6.4839293    76.079873  0.027806971  0.029240679            5 
  229000   0.91056935   -6.4907819    76.111456  0.027697036    0.0291709            8 
  230000   0.91396943   -6.4753499     76.18928  0.027604812  0.029100221           11 
  231000   0.90137811   -6.5080331    76.335224   0.02753796  0.029028943            8 
  232000   0.91951324   -6.4832295    76.501142  0.027478858  0.028957557            8 
  233000   0.87860672   -6.4835082    76.435666  0.027337506  0.028886081            6 
  234000   0.90164369   -6.5016971    76.638376  0.027292869    0.0288132            5 
  235000   0.88299914   -6.5093399    76.735528   0.02721118  0.028739825            8 
  236000   0.90233954   -6.5189667    76.904361  0.027155495  0.028667527           14 
  237000    0.8892332   -6.5277403    77.048317  0.027091532  0.028594175            8 
  238000   0.88971746   -6.5228161    77.358254  0.027086223  0.028520829           16 
  239000   0.88071803   -6.5142381    77.308068  0.026955393  0.028448319           18 
  240000   0.90645485    -6.516235    77.505891  0.026911768  0.028375515           16 
  241000   0.88886162   -6.5338635    77.677357   0.02685939   0.02830396            6 
  242000   0.88915048   -6.4996935    78.065216  0.026881961  0.028232223            6 
  243000   0.88379145   -6.5314823    77.755717  0.026665198  0.028158868            8 
  244000   0.88040803   -6.5159801    78.144229  0.026688603  0.028085446            8 
  245000   0.87817302   -6.5480308    78.288486  0.026628737  0.028012584            7 
  246000   0.87541611   -6.5536906       78.637   0.02663855  0.027939846            9 
  247000   0.85663513   -6.5293694    78.563653  0.026505956  0.027867865           10 
  248000    0.8632141   -6.5498239    78.996997   0.02654469  0.027796194           13 
  249000   0.87121232   -6.5622158    78.961992  0.026426369  0.027725342            9 
  250000    0.8619163   -6.5194092    79.303232  0.026434411  0.027654765           15 
  251000   0.87608926   -6.5523818    79.253179  0.026312476  0.027583844            9 
  252000   0.85940545   -6.5311564    79.363758  0.026244629  0.027513452           21 
  253000   0.87981706   -6.5468524     79.67691  0.026244041  0.027443389            5 
  254000   0.86792074   -6.5724695     79.62476  0.026123609   0.02737286            6 
  255000   0.84796327   -6.5771264     79.83792  0.026090824   0.02730141            8 
  256000   0.86390533   -6.6081076    79.542263  0.025892664  0.027229428           18 
  257000   0.88429204   -6.5708723    79.776792  0.025867961  0.027156463            5 
  258000   0.85304975   -6.5711441    79.997443  0.025838967  0.027084693           17 
  259000   0.87337671   -6.5735803    80.121244  0.025779036  0.027012708            9 
  260000   0.86176409   -6.5919025     80.20268  0.025705987  0.026940638           12 
  261000   0.85966303   -6.5809743    80.144681  0.025588979  0.026868323           20 
  262000   0.84601231   -6.5780695    80.035601  0.025456616  0.026795474           16 
  263000   0.83767867   -6.5513019    80.280153  0.025437311  0.026722183            9 
  264000   0.85185092   -6.5978865    80.221971  0.025322592  0.026648355           19 
  265000   0.84670578   -6.6084341    80.566444   0.02533536  0.026574554           15 
  266000    0.8365587   -6.6357416    80.605368  0.025252308  0.026501195           20 
  267000   0.83621231   -6.6103328    80.584408  0.025151188  0.026427373           10 
  268000   0.86600123   -6.6162322      80.6754  0.025085634  0.026353932           12 
  269000   0.84019545   -6.6083216    80.962062  0.025081184   0.02628111           10 
  270000   0.84157073   -6.6015244    81.043552  0.025013442  0.026208545           10 
  271000    0.8421999   -6.6484363    80.835587  0.024857192  0.026134686            9 
  272000   0.82313362   -6.6121064    81.157661  0.024864479  0.026060813            9 
  273000   0.84123314   -6.6134209    81.161053  0.024774436   0.02598793           16 
  274000   0.81734995    -6.609655    81.400526  0.024756851  0.025915019           14 
  275000   0.82437196   -6.6170241    81.368887  0.024657238  0.025841925           21 
  276000   0.82866507   -6.6136148    81.897796  0.024727595  0.025768942           19 
  277000   0.82982988   -6.6303843    81.754661  0.024595265   0.02569657           16 
  278000   0.82550478   -6.6239717    81.653319  0.024476415  0.025624362           28 
  279000   0.81644552   -6.6291918    81.718556  0.024408171  0.025551805            8 
  280000   0.80930765   -6.6394717     82.20886  0.024466923  0.025479955           11 
  281000   0.81777017   -6.6291425    82.301707  0.024407386  0.025408443           10 
  282000   0.81404988   -6.6381335     82.17754  0.024284143  0.025337641           15 
  283000   0.82216389   -6.6312082    82.319734  0.024240204  0.025265992           10 
  284000    0.8143932   -6.6382009    82.543085  0.024220389   0.02519498           25 
  285000   0.81174367   -6.6750261    82.294205  0.024062633  0.025123271            9 
  286000   0.80506443   -6.6572384    82.572808  0.024059676  0.025051816            8 
  287000   0.81034164   -6.6382916    82.554583  0.023970553  0.024980641           10 
  288000   0.82475195   -6.6525456    82.734234  0.023939304  0.024909953           12 
  289000   0.80503425   -6.6691987    82.529743  0.023797504  0.024838402           13 
  290000   0.79659203   -6.7125568    82.827076  0.023800884  0.024767231           24 
  291000   0.82486843    -6.670429    83.014033  0.023772633  0.024696739           15 
  292000   0.77833656   -6.6968936    83.054779  0.023702848  0.024627122           16 
  293000   0.79742053   -6.6843486    83.398946  0.023719837  0.024557666           20 
  294000   0.81520602   -6.6800248     83.66618  0.023714904  0.024489171           10 
  295000   0.80026337   -6.6886646    83.556956   0.02360366  0.024421131           10 
  296000   0.79679864   -6.6953046    83.844039  0.023604741  0.024353215           23 
  297000   0.79203902   -6.6805247    83.472003  0.023420876  0.024285424           39 
  298000   0.77833169   -6.6796194    83.792933  0.023432028  0.024217885           32 
  299000   0.79944534   -6.6863529    83.809989  0.023358414   0.02415044           37 
  300000   0.78621512    -6.700079    83.959438  0.023322066  0.024082823           34 
  301000   0.78158773   -6.6983934    84.157064  0.023299298  0.024016364           13 
  302000   0.79153645   -6.7033272    84.349619  0.023275281  0.023950245           18 
  303000   0.77886126   -6.6655493    84.721778  0.023300819  0.023884356           29 
  304000   0.78001634   -6.6727521    84.509139  0.023165882  0.023819111           16 
  305000   0.77067518   -6.7393596    84.597197  0.023113988  0.023752917           16 
  306000   0.75302608   -6.7415572    84.666161  0.023057233  0.023687195           11 
  307000   0.77306625    -6.729339    84.606166  0.022965843  0.023620682           12 
  308000   0.78099343   -6.7325518    84.731694  0.022925242  0.023554616           34 
  309000   0.75677861   -6.7313194    84.811097  0.022872464  0.023489385           34 
  310000   0.78238892   -6.7244537    85.185619   0.02289936  0.023424743           31 
  311000    0.7855513   -6.7460172    85.013104  0.022779503  0.023360839           16 
  312000   0.77544801   -6.7605782    85.372544  0.022802496  0.023297043           33 
  313000   0.75656815   -6.7113029    85.465169  0.022754305  0.023233854           20 
  314000   0.77894793   -6.7705107    85.286372  0.022634387  0.023170879           20 
  315000   0.76335838   -6.7691205    85.626522  0.022652519  0.023107998           22 
  316000   0.75969773   -6.7550564    85.600527  0.022573979  0.023044797           36 
  317000   0.76648529   -6.7805354    85.547219  0.022488754  0.022981563           30 
  318000   0.76514094   -6.7587179    85.648117  0.022444475  0.022918798           30 
  319000   0.76652254   -6.7355896    85.690515  0.022385192  0.022855714           18 
  320000   0.75613403   -6.7649141    85.727532  0.022324878  0.022792304           53 
  321000   0.76419162   -6.7829962    85.580331  0.022217116  0.022729063           64 
  322000    0.7566679   -6.7962542    85.852184  0.022218474  0.022665879           72 
  323000   0.74337162   -6.7959671    86.053977  0.022201748  0.022603218           29 
  324000   0.75456452   -6.7750334    85.991909   0.02211726  0.022541156           43 
  325000   0.73893455   -6.7928449     86.09016    0.0220744  0.022479296           22 
  326000   0.73899297    -6.774618    86.104543  0.022010364  0.022417556           98 
  327000   0.73802981    -6.794492    86.468222  0.022035734  0.022356245           40 
  328000   0.74748861   -6.8048446     86.14594  0.021886672  0.022294561           53 
  329000   0.75622193   -6.7839379    86.286755  0.021855814  0.022232846           30 
  330000   0.74568305   -6.8176838    86.342337  0.021803621  0.022171159           43 
  331000   0.72638575   -6.7817057     86.51809  0.021781997  0.022109272           46 
  332000   0.74413718   -6.7928483    86.140954  0.021621725  0.022046932           44 
  333000   0.74448166   -6.8186024    86.209595  0.021573973  0.021984531           33 
  334000   0.73480582   -6.8408676    86.277917  0.021526426  0.021922163           70 
  335000   0.73508078   -6.8276378    86.360968  0.021482828  0.021859387           79 
  336000   0.73951582    -6.807279    86.145272  0.021365395  0.021796323           70 
  337000   0.73555794   -6.8131846    86.406464  0.021366584  0.021733714           72 
  338000   0.73000769   -6.8507444     86.32774  0.021283959  0.021671189           36 
  339000   0.73299717   -6.8319798    86.355545   0.02122801  0.021608797           24 
  340000   0.73833383   -6.8363081    86.421843  0.021181824  0.021546579           80 
  341000   0.73084681   -6.8266164    86.667127   0.02117965   0.02148479           96 
  342000   0.73073408   -6.8466997    86.433823  0.021060873  0.021422894          144 
  343000   0.70402153   -6.8522553    86.449473  0.021003273  0.021360722          194 
  344000   0.71829586   -6.8586581    86.635479  0.020987277  0.021298228          233 
  345000   0.73535004   -6.8669611    86.510138  0.020896169  0.021235557          158 
  346000    0.7172414   -6.8624213    86.642311  0.020867608  0.021172973          182 
  347000   0.71173769   -6.8909668    86.708116  0.020823275  0.021110728          165 
  348000   0.71496118   -6.8749813    86.588874  0.020734884  0.021048776          226 
  349000   0.70183158   -6.8837427    86.535763   0.02066279  0.020986755          207 
  350000    0.7150347   -6.8658068    86.662084  0.020633829  0.020924505          274 
  351000    0.7127395    -6.864307    86.579793  0.020555506  0.020862764          357 
  352000   0.71070151   -6.8967239    86.873097  0.020566548   0.02080129          226 
  353000   0.70895477   -6.8580194    86.755941  0.020480628  0.020739895          293 
  354000   0.70172003   -6.9035374    86.685184  0.020406117  0.020678784          288 
  355000   0.70939208   -6.8867544    86.952401  0.020411362  0.020617883          240 
  356000   0.69445192   -6.8895955    86.843817  0.020328609  0.020556945          394 
  357000   0.69915625   -6.8858936    86.910672  0.020287272  0.020496082          455 
  358000   0.70214751   -6.9087376    86.822127  0.020209992  0.020435338          530 
  359000   0.69289247   -6.9206518    86.714497  0.020128713  0.020374499          649 
  360000    0.6940258   -6.9320321     86.69568  0.020068444  0.020313746          743 
  361000    0.7132851   -6.9294057    86.988085  0.020080352  0.020253292          760 
  362000   0.70257162    -6.927194    86.948825  0.020015844  0.020192928          643 
  363000   0.68462494    -6.913006    86.855886  0.019939368   0.02013259          663 
  364000   0.67434377   -6.9548857    86.778622  0.019866901   0.02007223          815 
  365000   0.67354353   -6.9561951    86.995322  0.019861946   0.02001187          781 
  366000   0.67969708   -6.9807544    86.712161  0.019743206  0.019951564         1019 
  367000   0.68418025    -6.980842    86.759118  0.019700072  0.019891295         1145 
  368000   0.68200303   -6.9855623    86.821594  0.019660687   0.01983082         1271 
  369000   0.67235145   -7.0201177     86.46059  0.019525878  0.019769913         1405 
  370000   0.68008071   -7.0327289    86.573726  0.019498587  0.019709189         1603 
  371000   0.68966692   -7.0668135    86.561837   0.01944336  0.019648642         1793 
  372000    0.6690024   -7.0601094    86.572509  0.019393483  0.019588181         1897 
  373000   0.66545894   -7.0660796    86.523633   0.01933057  0.019527442         1968 
  374000   0.67278934   -7.1088109    86.556865  0.019286289  0.019466645         2000 
  375000   0.67406684    -7.084881    86.694733  0.019265496  0.019406064         2128 
  376000   0.67998091   -7.1229212     86.55449  0.019183176  0.019345453         2257 
  377000   0.66932748    -7.143083    86.460327  0.019111478   0.01928464         2388 
  378000   0.67192829   -7.1635771    86.203855  0.019004377  0.019223811         2404 
  379000   0.65451393   -7.1714789    86.239247  0.018962016  0.019163025         2637 
  380000   0.66502031   -7.1729533    86.426071  0.018953086   0.01910233         2740 
  381000   0.65893769   -7.1969096     86.49241   0.01891785  0.019041469         2849 
  382000     0.659981   -7.2178314    86.183633  0.018800967  0.018980655         2974 
  383000   0.66004226   -7.2264573    86.245931  0.018765433  0.018919563         3062 
  384000   0.65534167   -7.2409798    86.112979  0.018687712  0.018858531         3158 
  385000   0.63727457   -7.2591081    86.119423  0.018640568  0.018797661         3329 
  386000   0.64777633   -7.2463539    86.239645  0.018618231  0.018736965         3304 
  387000    0.6568342   -7.2546564    86.110373  0.018542285  0.018676051         3372 
  388000   0.64516299   -7.2906611    86.193834  0.018512421    0.0186153         3444 
  389000   0.64642633   -7.2913608    85.809014  0.018382394  0.018554407         3485 
  390000   0.65221404   -7.3036294    85.959326  0.018367377  0.018493782         3526 
  391000   0.63447091   -7.3298611     85.75033  0.018275859  0.018433163         3626 
  392000   0.61771398     -7.32487    85.828112  0.018245772   0.01837263         3645 
  393000   0.62614787   -7.3394825    85.899042  0.018214385  0.018312156         3644 
  394000   0.63713092   -7.3675278    85.728759   0.01813214  0.018251596         3665 
  395000   0.63692384   -7.3673509    85.852825   0.01811241  0.018191111         3698 
  396000   0.63864273   -7.3550591    85.498977  0.017992209  0.018130924         3672 
  397000   0.62900117   -7.4028991    85.695296  0.017988097  0.018070788         3729 
  398000   0.63898297   -7.3749663    85.573196  0.017917336  0.018010719         3730 
  399000   0.62440322   -7.4070151    85.729409  0.017905056  0.017950938         3747 
  400000   0.62651976   -7.4235772    85.542298  0.017821312   0.01789118         3778 
  401000   0.62820938   -7.4522675    85.500138  0.017768109  0.017831422         3821 
  402000   0.62681191   -7.4586219    85.423794  0.017708083  0.017771743         3849 
  403000   0.63132169   -7.4601328    85.434393  0.017666334  0.017712159         3827 
  404000   0.62110292   -7.4479285    85.312106  0.017597382   0.01765271         3852 
  405000   0.63469924    -7.489049    85.334065   0.01755845  0.017593374         3870 
  406000   0.62668147   -7.5172944    85.362977  0.017521136  0.017534209         3893 
  407000   0.61129821   -7.5033241    85.281219  0.017461347   0.01747515         3912 
  408000   0.62367041   -7.5189514    85.386933  0.017440141  0.017416146         3916 
  409000    0.6176668   -7.5195656    85.458712  0.017412125  0.017357304         3912 
  410000   0.60741784    -7.524754    85.285459  0.017334443  0.017298746         3906 
  411000   0.61655659   -7.5369103     85.21707    0.0172784   0.01724042         3919 
  412000   0.61721657   -7.5511072    85.351446  0.017263642  0.017182254         3923 
  413000   0.61072609   -7.5638534    85.296875   0.01721083  0.017124204         3926 
  414000   0.60887767   -7.5669034    85.077788  0.017125159  0.017066345         3925 
  415000   0.59963264   -7.5555411     85.15104  0.017098602   0.01700858         3925 
  416000   0.61322651    -7.568197    84.990581  0.017025357  0.016951027         3924 
  417000   0.60059604   -7.5657824    85.090166   0.01700443  0.016893578         3916 
  418000   0.60396001   -7.5741328    85.117093  0.016969117  0.016836399         3928 
  419000   0.60602675   -7.5678631    85.178281  0.016940788  0.016779373         3929 
  420000   0.61504103   -7.5605494    85.163367  0.016897493  0.016722546         3940 
  421000    0.5969488   -7.5402467    85.224281  0.016869414  0.016665953         3924 
  422000   0.59035347   -7.5749334    85.217371  0.016828075  0.016609598         3932 
  423000   0.59653171   -7.5782272    85.075089  0.016760262  0.016553447         3911 
  424000   0.59802082   -7.5514196    85.140366  0.016733563  0.016497434         3915 
  425000   0.57599764   -7.5799237     85.07863  0.016682084  0.016441536         3933 
  426000   0.58791688   -7.5808967     85.08265  0.016643711  0.016385907         3929 
  427000    0.5933952   -7.5758349    85.090604  0.016606285  0.016330517         3922 
  428000   0.58901787   -7.5680257    85.019377  0.016553617  0.016275338         3934 
  429000   0.57222452   -7.6028119    85.015824   0.01651434  0.016220377         3939 
  430000   0.58448509   -7.6057542    85.039449  0.016480513  0.016165544         3924 
  431000      0.58169   -7.6238574    85.109663  0.016455851  0.016110944         3928 
  432000   0.55914812   -7.5940788    84.930027  0.016383107  0.016056613         3914 
  433000   0.57398046   -7.6018226    85.192597  0.016395804  0.016002479         3908 
  434000   0.56697893   -7.6063713    84.930957  0.016307787  0.015948523         3920 
  435000   0.56895475   -7.6120019    85.028505  0.016288986  0.015894794         3924 
  436000   0.57076219   -7.6024655    85.052418  0.016256196  0.015841211         3906 
  437000   0.58640504   -7.6152781    85.075773   0.01622345  0.015787945         3913 
  438000   0.56715764   -7.5916055    85.037075  0.016179048  0.015734817         3916 
  439000    0.5575941   -7.6275391    85.044366  0.016143577  0.015682012         3923 
  440000   0.55555936   -7.6150666    84.983057  0.016095276  0.015629316         3921 
  441000   0.57360265   -7.6147554    84.867764  0.016036992  0.015576814         3929 
  442000   0.55759782   -7.6450634    85.048742  0.016034831  0.015524581         3936 
  443000   0.55742204   -7.6347882    84.963883  0.015982672   0.01547251         3919 
  444000   0.55508931   -7.6250269    84.968255  0.015947495  0.015420625         3925 
  445000   0.56576719   -7.6363202    84.815483  0.015883049  0.015368908         3942 
  446000   0.55565789   -7.6274269    84.828669  0.015849901  0.015317368         3951 
  447000   0.55272216   -7.6379115     84.87212  0.015822543  0.015266006         3944 
  448000   0.54180979   -7.6471125     84.91637  0.015795456  0.015214822         3942 
  449000   0.55958229   -7.6396257    84.765219  0.015732223  0.015163919         3938 
  450000   0.56469971   -7.6538295    84.833274  0.015709865   0.01511319         3936 
  451000   0.55388843   -7.6504662    84.793837  0.015667745  0.015062666         3938 
  452000   0.54583423   -7.6413903    84.793346  0.015632991  0.015012278         3936 
  453000   0.54743057   -7.6593328    84.824957  0.015604297  0.014962115         3939 
  454000   0.53672021   -7.6415285    84.935523  0.015590221   0.01491213         3934 
  455000   0.54975467   -7.6516628    84.874332  0.015544749  0.014862363         3935 
  456000   0.54284763   -7.6696603     84.75686  0.015489192  0.014812785         3940 
  457000   0.54165303   -7.6507107    84.751417  0.015454307    0.0147634         3944 
  458000   0.54540721   -7.6638671    84.712769  0.015413531  0.014714175         3942 
  459000   0.50817292   -7.6603955    84.752731  0.015387206  0.014665165         3945 
  460000   0.54499777   -7.6530801    84.575869  0.015321715  0.014616352         3946 
  461000   0.52781048   -7.6605187    84.735222  0.015317285  0.014567742         3932 
  462000   0.53595112    -7.667444    84.732667   0.01528367  0.014519326         3940 
  463000   0.53320322   -7.6772265    84.755349  0.015254742  0.014471101         3948 
  464000   0.51877094    -7.685422    84.744644  0.015219943  0.014423119         3939 
  465000   0.53049773   -7.6643817    84.749281  0.015188043  0.014375374         3947 
  466000   0.53484234   -7.6721105    84.715807  0.015149465    0.0143278         3942 
  467000   0.51763952   -7.6648568    84.679458  0.015110539  0.014280385         3936 
  468000   0.52100957   -7.6954886    84.709703  0.015083637  0.014233172         3943 
  469000   0.52141679   -7.6669877    84.702305  0.015050161  0.014186138         3947 
  470000   0.51445068   -7.6932332    84.754588  0.015027409  0.014139301         3951 
  471000   0.52275261   -7.6819854    84.606209  0.014969251  0.014092689         3949 
  472000   0.50807369   -7.6833852    84.698101  0.014953761  0.014046186         3951 
  473000   0.50616376   -7.7127689     84.68287  0.014919463  0.013999882         3943 
  474000   0.49898615   -7.6767438    84.488045  0.014853735  0.013953784         3945 
  475000   0.50302635    -7.684355    84.459573  0.014817469  0.013907856         3945 
  476000   0.50926884   -7.6917704     84.67353  0.014823797    0.0138621         3940 
  477000   0.49280173   -7.6968106    84.736352  0.014803695  0.013816551         3951 
  478000   0.51240402    -7.705482    84.585885  0.014746493   0.01377117         3950 
  479000   0.50009548   -7.7190258    84.595755  0.014717424  0.013725971         3948 
  480000   0.50421584   -7.7034131    84.589347  0.014685651  0.013680902         3946 
  481000    0.5023196   -7.7056334    84.515069   0.01464225  0.013636121         3935 
  482000   0.48866342   -7.7089667    84.622048  0.014630368  0.013591446         3951 
  483000   0.49230491   -7.7108949     84.52209  0.014582831  0.013547014         3934 
  484000   0.50465196   -7.7139772     84.60973  0.014567791  0.013502735         3936 
  485000   0.49608356   -7.7046474    84.512494  0.014521047  0.013458613         3949 
  486000   0.48551961   -7.7107416    84.512244  0.014491125  0.013414686         3955 
  487000   0.50052738    -7.711539    84.615838  0.014479096  0.013370895         3941 
  488000   0.50083548   -7.7142369    84.459225  0.014422682   0.01332734         3942 
  489000    0.4872062   -7.7361167    84.445062  0.014390774  0.013283917         3943 
  490000   0.47217771   -7.7200076    84.496935  0.014370227  0.013240706         3947 
  491000   0.47469661   -7.7268315    84.617108  0.014361356  0.013197619         3948 
  492000   0.49020667   -7.7330849    84.429876  0.014300453   0.01315477         3945 
  493000   0.47312876   -7.7254983    84.393992  0.014265381  0.013112066         3956 
  494000   0.49115111    -7.744748    84.437319  0.014243812  0.013069551         3951 
  495000   0.48340901   -7.7305612    84.452081  0.014217522  0.013027201         3953 
  496000   0.46673733   -7.7352438    84.421682   0.01418375  0.012985006         3948 
  497000   0.48087065   -7.7420381    84.374471  0.014147296  0.012942988         3954 
  498000   0.48183256   -7.7452766     84.47605  0.014135885  0.012901154         3957 
  499000   0.46846366   -7.7456293    84.534298  0.014117284  0.012859439         3947 
  500000   0.47693218   -7.7381714    84.413841  0.014068973  0.012817922         3954 
  501000   0.46316823   -7.7514487    84.339199  0.014028476  0.012776568         3945 
  502000   0.46334713   -7.7473233    84.466258  0.014021623  0.012735405         3950 
  503000   0.46315097   -7.7494203    84.440387  0.013989461   0.01269438         3951 
  504000   0.45698823   -7.7565485    84.338197  0.013944808  0.012653516         3945 
  505000    0.4609751   -7.7550866      84.3873  0.013925297  0.012612888         3944 
  506000   0.45952617   -7.7574723    84.270872  0.013878602   0.01257238         3949 
  507000   0.45470913    -7.767622     84.42111  0.013875922  0.012532044         3945 
  508000   0.45503195   -7.7570324    84.254306  0.013821244  0.012491863         3947 
  509000   0.46072367   -7.7708337    84.353849  0.013810388  0.012451834         3957 
  510000   0.46234386   -7.7712654    84.373939  0.013786591  0.012411971         3946 
  511000    0.4658658   -7.7651739    84.336777  0.013753551  0.012372324         3950 
  512000   0.45698958   -7.7849531    84.384064  0.013734385  0.012332779         3961 
Loop time of 1060.94 on 48 procs for 500000 steps with 4000 atoms

Performance: 81437.104 tau/day, 471.280 timesteps/s
99.4% CPU use with 48 MPI tasks x no OpenMP threads

MPI task timing breakdown:
Section |  min time  |  avg time  |  max time  |%varavg| %total
---------------------------------------------------------------
Pair    | 63.938     | 66.622     | 69.091     |  14.3 |  6.28
Neigh   | 6.6264     | 6.7563     | 6.9068     |   2.5 |  0.64
Comm    | 57.871     | 60.823     | 64.409     |  21.4 |  5.73
Output  | 0.91527    | 0.91574    | 0.92456    |   0.1 |  0.09
Modify  | 906.69     | 913.71     | 918.01     |   8.3 | 86.12
Other   |            | 12.11      |            |       |  1.14

Nlocal:        83.3333 ave          88 max          77 min
Histogram: 2 1 4 6 7 3 8 6 6 5
Nghost:        1750.73 ave        1765 max        1739 min
Histogram: 2 3 6 11 4 10 7 2 2 1
Neighs:        10457.0 ave       11268 max        9509 min
Histogram: 1 2 4 10 6 8 2 6 5 4
FullNghs:      20927.5 ave       22267 max       19581 min
Histogram: 4 5 2 8 5 4 6 7 4 3

Total # of neighbors = 1004518
Ave neighs/atom = 251.12950
Neighbor list builds = 27010
Dangerous builds = 0

#clear
#
#next RN
#
#jump SELF
Total wall time: 0:17:43
