
units lj                  # Use reduced LJ style units
atom_style atomic         # Uncharged point particles
atom_modify map hash      # Needed for indexing of clusters etc
                          # Used to be able to find where atoms are in relation to each other.

lattice fcc 1.0 spacing 1 1 1
Lattice spacing in x,y,z = 1.5874011 1.5874011 1.5874011
region box block 0 10 0 10 0 10 units lattice
create_box 2 box
Created orthogonal box = (0.0000000 0.0000000 0.0000000) to (15.874011 15.874011 15.874011)
  3 by 4 by 4 MPI processor grid
create_atoms 1 box
Created 4000 atoms
  using lattice units in orthogonal box = (0.0000000 0.0000000 0.0000000) to (15.874011 15.874011 15.874011)
  create_atoms CPU = 0.006 seconds
set type 1 type/fraction 2 0.29 78393
Setting atom values ...
  1200 settings made for type/fraction
mass 1 1.0
mass 2 1.0
pair_style lj/cut  3.5
pair_modify tail  yes
pair_coeff 1  1  1.0  1.0   # Intearaction between 1 and 1 set with epsilon = 1 and sigma = 1
pair_coeff 1  2  1.5  0.8
pair_coeff 2  2  0.5  0.88

write_data data.0
System init for write_data ...
Neighbor list info ...
  update every 1 steps, delay 10 steps, check yes
  max neighbors/atom: 2000, page size: 100000
  master list distance cutoff = 3.8
  ghost atom cutoff = 3.8
  binsize = 1.9, bins = 9 9 9
  1 neighbor lists, perpetual/occasional/extra = 1 0 0
  (1) pair lj/cut, perpetual
      attributes: half, newton on
      pair build: half/bin/atomonly/newton
      stencil: half/bin/3d
      bin: standard
WARNING: Not all mixed pair coeffs generated from mixing. Use write_data with 'pair ij' option to store all pair coeffs. (../write_data.cpp:312)


#############################
#   M E L T   S Y S T E M   #
#############################

velocity all create 2.4 3143649 mom yes dist gaussian # Assign velocities
                                                    # Temperature 2.4, random number seed, zero linear momentum
                                                                                # Gaussian distribution

timestep 0.002   # simulation timestep
thermo 1000       # output thermodynamic data every 1000 steps bf 100

# Define a fix  in this case with index 1 applied to all
# particles in the simulation. This fix is for simulations
# in the anisotropic NPT ensemble. Note that we use the MTK
# correction.
fix 1 all npt temp 2.4 2.4 0.1 iso 5.68 5.68 0.5 mtk yes tchain 5 pchain 5 # Use NPT ensemble
                                                                         # Set temperature and pressure and damping
                                                                         # Numbers of thermostats in chain and in barostat
run 10000          # run for 10000 steps
Per MPI rank memory allocation (min/avg/max) = 3.642 | 3.644 | 3.648 Mbytes
Step Temp E_pair E_mol TotEng Press Volume 
       0          2.4   -6.4756105            0   -2.8765105   -3.9602485         4000 
    1000    2.4029301   -5.0317153            0   -1.4282212    5.2794903    4178.2246 
    2000    2.4043117   -4.9556676            0   -1.3501016    5.9962301    4157.0194 
    3000    2.3810216   -4.9481221            0   -1.3774826    5.3955962    4208.8096 
    4000    2.3678863   -4.9272419            0   -1.3763005     5.761806    4184.4948 
    5000    2.3704555   -4.9380235            0   -1.3832292    5.5237941    4208.8048 
    6000    2.4318517   -4.9782734            0   -1.3314077    5.7997253    4163.2747 
    7000     2.418077   -4.9941707            0    -1.367962    5.9319492    4142.4635 
    8000    2.4068925   -4.9645554            0   -1.3551192    5.7763145    4176.5086 
    9000    2.3406464   -5.0044597            0   -1.4943679    5.8119694    4157.0736 
   10000    2.3962523   -5.0000385            0   -1.4065586    5.6330823    4173.8736 
Loop time of 2.48481 on 48 procs for 10000 steps with 4000 atoms

Performance: 695426.063 tau/day, 4024.456 timesteps/s
99.6% CPU use with 48 MPI tasks x no OpenMP threads

MPI task timing breakdown:
Section |  min time  |  avg time  |  max time  |%varavg| %total
---------------------------------------------------------------
Pair    | 1.0438     | 1.114      | 1.2554     |   3.8 | 44.83
Neigh   | 0.20181    | 0.21094    | 0.23806    |   1.5 |  8.49
Comm    | 0.71212    | 0.87003    | 0.96544    |   5.1 | 35.01
Output  | 0.0002439  | 0.00024783 | 0.00032121 |   0.0 |  0.01
Modify  | 0.24295    | 0.27428    | 0.32706    |   4.1 | 11.04
Other   |            | 0.0153     |            |       |  0.62

Nlocal:        83.3333 ave          94 max          74 min
Histogram: 1 2 4 10 11 8 4 4 2 2
Nghost:        1596.23 ave        1637 max        1566 min
Histogram: 2 2 5 12 12 9 3 2 0 1
Neighs:        9121.35 ave       10123 max        8098 min
Histogram: 4 4 2 7 8 5 7 1 6 4

Total # of neighbors = 437825
Ave neighs/atom = 109.45625
Neighbor list builds = 902
Dangerous builds = 187

# Equilibrate just above the melting temperature to avoid step fn in T

fix 1 all npt temp 1.25 1.25 0.1 iso 5.68 5.68 0.5 mtk yes tchain 5 pchain 5
run 2000
Per MPI rank memory allocation (min/avg/max) = 3.643 | 3.645 | 3.649 Mbytes
Step Temp E_pair E_mol TotEng Press Volume 
   10000    2.3962523   -5.0000385            0   -1.4065586    5.6330823    4173.8736 
   11000    1.2634619   -6.8140985            0   -4.9193795    5.7006126    3367.7449 
   12000    1.2486441    -6.848229            0   -4.9757311    5.5924822    3365.4615 
Loop time of 0.583952 on 48 procs for 2000 steps with 4000 atoms

Performance: 591829.205 tau/day, 3424.938 timesteps/s
99.6% CPU use with 48 MPI tasks x no OpenMP threads

MPI task timing breakdown:
Section |  min time  |  avg time  |  max time  |%varavg| %total
---------------------------------------------------------------
Pair    | 0.24722    | 0.27223    | 0.32875    |   2.4 | 46.62
Neigh   | 0.03747    | 0.039748   | 0.048213   |   0.8 |  6.81
Comm    | 0.16345    | 0.22034    | 0.25053    |   3.1 | 37.73
Output  | 5.3768e-05 | 5.4872e-05 | 7.1399e-05 |   0.0 |  0.01
Modify  | 0.038765   | 0.046762   | 0.051768   |   1.8 |  8.01
Other   |            | 0.004816   |            |       |  0.82

Nlocal:        83.3333 ave          92 max          78 min
Histogram: 9 6 6 5 4 8 3 3 3 1
Nghost:        1851.44 ave        1883 max        1829 min
Histogram: 2 5 13 6 6 4 7 2 0 3
Neighs:        11352.7 ave       13038 max        9983 min
Histogram: 2 4 8 6 9 8 3 3 3 2

Total # of neighbors = 544931
Ave neighs/atom = 136.23275
Neighbor list builds = 143
Dangerous builds = 11

#############################
# L I N E A R  Q U E N C H  #
#############################

# Define solid atoms. This closely follows ten Wolde  Ruiz-Montero and Frenkel  Faraday Discuss  1996  104  93-110
# Compute components of the per-atom q6 vector
compute q6 all orientorder/atom degrees 1 6 components 6 nnn NULL cutoff 1.3 # compute the Q6 parameter.
                                                                             # Use all neighbours within 1.3 unit cell.

# get number of connections
compute coord_number all coord/atom orientorder q6 0.5

# An atom is solid if it has 8 or more connections (of a possible 14)
variable is_solid atom c_coord_number>=8
group solid dynamic all var is_solid    # Must be dynamic to update
dynamic group solid defined

# do clustering
compute cluster solid cluster/atom 1.3 # Create a cluster where all atoms within are solid and max 1.3 units from another member

# define chunks one chunk per cluster
compute clus_chunks solid chunk/atom c_cluster nchunk every compress yes  # Says which atoms are in which chunk

# count the size of each chunk
compute size_chunks solid property/chunk clus_chunks count


# Find the maximum entry in the vector of chunk sizes
variable max_n equal max(c_size_chunks)


# Thermo style which includes this variable
# thermo_style custom step temp pe vol v_max_n

thermo ${N}  # Print the thermo information every 100 steps
thermo 1000  

# Reset the npt fix at a lower temperature (below freezing)
fix 1  all npt temp  ${temp} ${temp}  0.1  iso  5.68  5.68  0.5  mtk yes tchain  5  pchain  5
fix 1  all npt temp  0.45 ${temp}  0.1  iso  5.68  5.68  0.5  mtk yes tchain  5  pchain  5
fix 1  all npt temp  0.45 0.45  0.1  iso  5.68  5.68  0.5  mtk yes tchain  5  pchain  5

dump dmp2 all dcd ${N} traj.dcd
dump dmp2 all dcd 1000 traj.dcd


compute msd all msd com yes
variable twopoint equal c_msd[4]/6/(step*dt+1.0e-6)
fix 9 all vector 10 c_msd[4]
variable fit equal slope(f_9)/6/(10*dt)
thermo_style custom step temp pe c_msd[4] v_twopoint v_fit v_max_n

fix 1 all npt temp 1.25 ${temp} 0.1 iso 5.68 5.68 0.5 mtk yes tchain 5 pchain 5
fix 1 all npt temp 1.25 0.45 0.1 iso 5.68 5.68 0.5 mtk yes tchain 5 pchain 5
run 5000000 # 5000000  # Run for this many steps
Neighbor list info ...
  update every 1 steps, delay 10 steps, check yes
  max neighbors/atom: 2000, page size: 100000
  master list distance cutoff = 3.8
  ghost atom cutoff = 3.8
  binsize = 1.9, bins = 8 8 8
  4 neighbor lists, perpetual/occasional/extra = 1 3 0
  (1) pair lj/cut, perpetual
      attributes: half, newton on
      pair build: half/bin/atomonly/newton
      stencil: half/bin/3d
      bin: standard
  (2) compute orientorder/atom, occasional
      attributes: full, newton on
      pair build: full/bin/atomonly
      stencil: full/bin/3d
      bin: standard
  (3) compute coord/atom, occasional
      attributes: full, newton on
      pair build: full/bin/atomonly
      stencil: full/bin/3d
      bin: standard
  (4) compute cluster/atom, occasional
      attributes: full, newton on
      pair build: full/bin/atomonly
      stencil: full/bin/3d
      bin: standard
Per MPI rank memory allocation (min/avg/max) = 9.809 | 9.815 | 9.821 Mbytes
Step Temp PotEng c_msd[4] v_twopoint v_fit v_max_n 
   12000    1.2486441    -6.848229 4.8688495e-30 3.3811454e-32 8.3333333e+20            2 
   13000    1.2741788   -6.8389281   0.47089063 0.0030185296  0.038301385            2 
   14000    1.2396535   -6.8620243    0.9547968 0.0056833141   0.03871379            1 
   15000    1.2614487   -6.8436991    1.4337151 0.0079650835  0.038935718            1 
   16000    1.2632344   -6.8862251    1.8962194 0.0098761422  0.039292168            1 
   17000    1.2877922   -6.8726116    2.4572425  0.012045306  0.039875217            1 
   18000    1.2811171   -6.8209955      2.93646  0.013594722  0.040631096            2 
   19000    1.2546524   -6.8658524      3.47111  0.015224166  0.040976127            1 
   20000    1.2497471   -6.8837402    3.9716377   0.01654849  0.041490826            1 
   21000    1.2689576   -6.8950845    4.5332462  0.017989072  0.041841831            1 
   22000    1.2340881   -6.8578299    5.0412829  0.019095768  0.042192933            1 
   23000    1.2375235   -6.8380339    5.4858567  0.019876292  0.042195278            2 
   24000    1.2483385   -6.9007302     6.059327  0.021039329   0.04225199            1 
   25000    1.2451496   -6.8553509     6.473246  0.021577486  0.042313508            2 
   26000    1.2689881    -6.886946    6.9437933  0.022255747  0.042109783            2 
   27000    1.2361217    -6.845426    7.5314393  0.023245183   0.04205816            1 
   28000    1.2253254   -6.9121015    7.9069912  0.023532712  0.042026422            1 
   29000    1.2633038   -6.8531659     8.382845  0.024088635  0.041822894            1 
   30000    1.2323369   -6.8714587    8.8927409  0.024702058  0.041669132            2 
   31000    1.2449876   -6.8773949    9.4234881  0.025331957  0.041574874            2 
   32000    1.2570101   -6.8627513    9.8580036  0.025671884  0.041519039            2 
   33000    1.2712472   -6.8707655    10.271367  0.025937795   0.04139952            1 
   34000    1.2324872   -6.8779223    10.682378  0.026182299  0.041237101            3 
   35000    1.2366218   -6.8766374    11.134348  0.026510351  0.041058856            2 
   36000    1.2578171   -6.8732987    11.611761  0.026879076  0.040895281            2 
   37000    1.2305968   -6.8116922    12.067173  0.027178316  0.040702973            2 
   38000    1.2343371   -6.8592936    12.595694  0.027622135  0.040599775            3 
   39000    1.2296445   -6.8587838    13.096746    0.0279845    0.0405176            2 
   40000    1.2603845   -6.8649735    13.518452  0.028163442  0.040435445            2 
   41000    1.2134979   -6.8493202    14.065321   0.02858805  0.040402198            1 
   42000    1.2078666   -6.9237963    14.550197  0.028869439  0.040376159            1 
   43000    1.2549615   -6.8771502    15.053363  0.029173184  0.040356439            1 
   44000    1.2442621   -6.8583118    15.421404  0.029207205  0.040293253            2 
   45000    1.2383713   -6.8818497    15.914546  0.029471382  0.040225219            4 
   46000    1.2604853   -6.7916028     16.41339  0.029734402  0.040156122            1 
   47000    1.2311896   -6.8575704     16.71612  0.029638511   0.04008251            1 
   48000    1.2728492   -6.8809023    16.995305  0.029505738  0.039945836            2 
   49000      1.21984   -6.8630411    17.648633  0.030014681  0.039839441       -1e+20 
   50000    1.2610325   -6.9145205     17.89454  0.029824232  0.039723555            2 
   51000    1.2635642   -6.9187891    18.440095  0.030130875  0.039616388            1 
   52000    1.2461674   -6.8530749    19.045799  0.030522114  0.039539821            1 
   53000    1.2388267   -6.8611626    19.669346  0.030926645   0.03950412            1 
   54000    1.2334417   -6.8945078    20.241988  0.031237635  0.039501157            1 
   55000    1.2494485   -6.8838841    20.583441  0.031187032  0.039506434            2 
   56000    1.2509791   -6.8861774    21.140796  0.031459518  0.039505328            2 
   57000    1.2502025   -6.8910499    21.661398   0.03166871  0.039525911            1 
   58000    1.2487525   -6.8568714    22.082507   0.03172774  0.039548451            1 
   59000    1.2525881   -6.8831512    22.599087  0.031919615  0.039562574            3 
   60000    1.2250034    -6.871672    23.066837  0.032037274  0.039583518            1 
   61000     1.219513   -6.8701855    23.580519  0.032213823  0.039599876            1 
   62000    1.2590609   -6.9044703    23.922817  0.032154324  0.039614104            1 
   63000    1.2482972    -6.916083    24.064898  0.031831876  0.039591609            2 
   64000    1.2381867   -6.9220209    24.566259  0.031987317  0.039546701            1 
   65000     1.261328    -6.856622    25.126814  0.032213864  0.039507901            2 
   66000     1.227926   -6.9002729    25.663218  0.032403053   0.03948187            2 
   67000    1.2680215   -6.8592222    26.143334  0.032516584  0.039455401            1 
   68000    1.2405243   -6.8162835    26.543755  0.032529111   0.03941204            2 
   69000    1.2561739   -6.8593024    27.071371  0.032694892  0.039379564            3 
   70000    1.2305158   -6.8448441    27.401074  0.032620326  0.039341268            2 
   71000    1.2421186   -6.8969692    27.854686  0.032693294  0.039311399            1 
   72000    1.2549736   -6.8618209    28.475544  0.032957805   0.03929019            1 
   73000    1.2111758   -6.8878739     28.93522  0.033031072  0.039275701            1 
   74000    1.2395392   -6.8655142    29.336592  0.033036703  0.039259308            1 
   75000    1.1974643   -6.9181458    29.593276  0.032881417  0.039222495            2 
   76000    1.2301718   -6.8534084    30.309391  0.033233981  0.039181882            2 
   77000    1.2130351   -6.8855328    30.490924  0.032998835  0.039147918       -1e+20 
   78000    1.2367107   -6.8686716    31.165954  0.033296959  0.039126518            1 
   79000    1.2387025   -6.8931816    31.703326  0.033442327   0.03911881            1 
   80000     1.243652   -6.8320447    32.448361  0.033800376  0.039125601            1 
   81000    1.2633038   -6.8415676    33.052569    0.0340047  0.039148014            2 
   82000    1.2212203   -6.8795225    33.358282  0.033900693  0.039163634            1 
   83000    1.2612678   -6.8827364    33.867756  0.034003771  0.039183761            1 
   84000    1.2363702   -6.9027016      34.4488  0.034175397  0.039205285            2 
   85000    1.2196431   -6.8595684    34.961292  0.034275776  0.039229079       -1e+20 
   86000    1.2260356   -6.8842226    34.994145  0.033909055   0.03923272            1 
   87000    1.2212608    -6.915942    35.546916   0.03404877  0.039225816            1 
   88000    1.2532186   -6.8737586     36.07231  0.034159385  0.039234106            2 
   89000    1.2416446   -6.8729846    36.536361  0.034210076  0.039241487            1 
   90000     1.230201   -6.8654773    37.269517  0.034508811  0.039253234            1 
   91000    1.2440927   -6.9097681    37.794824  0.034610645  0.039267575            1 
   92000    1.2356649   -6.8508426     38.31021  0.034701277  0.039290866            2 
   93000    1.2409347   -6.8480953    38.655644  0.034637674  0.039317504            1 
   94000     1.240828    -6.882391    39.067178  0.034634023  0.039337365            1 
   95000    1.2320254   -6.8745159    39.751773  0.034869976  0.039356007            1 
   96000     1.233058   -6.9414221    40.091967  0.034802054  0.039375004            1 
   97000    1.2596413   -6.8963866    40.449931    0.0347508  0.039387998            2 
   98000    1.2753071   -6.9164667    40.971303  0.034839543  0.039394367            2 
   99000    1.2493775   -6.8601621    41.466807   0.03490472  0.039407255            2 
  100000    1.2153496   -6.8923959    41.786217  0.034821847  0.039409651            1 
  101000    1.2006843   -6.8865056    42.467462   0.03503916  0.039414354            1 
  102000    1.2359718   -6.9053834    42.900428  0.035049369  0.039425996            4 
  103000    1.2373547    -6.918772     43.31281  0.035042727  0.039429438            1 
  104000    1.2406999   -6.9016904    43.970768  0.035232987  0.039435212            1 
  105000    1.2208092   -6.9056707    44.353575   0.03520125  0.039453237            1 
  106000    1.2343723   -6.8852891    44.838489  0.035250385  0.039460545            1 
  107000    1.2061742   -6.8972185    44.947141  0.035005561  0.039457881            1 
  108000    1.2281423   -6.9033852    45.437064  0.035059463  0.039449894            1 
  109000     1.243481   -6.8888644    45.914158  0.035102567  0.039438863            1 
  110000    1.2467668   -6.8502226    46.393223  0.035146381  0.039429397            1 
  111000    1.2448289   -6.8426193    46.907737  0.035216019  0.039418543            3 
  112000    1.2797029   -6.8759881    47.178538  0.035103079  0.039401586            1 
  113000    1.2302332   -6.8983766    47.780435  0.035236309  0.039385537            1 
  114000    1.2239159   -6.8572867    47.989487  0.035080034  0.039369553            2 
  115000    1.2386708   -6.8695519    48.333667  0.035024396  0.039347616            1 
  116000    1.2209741   -6.9259884      48.7888  0.035049425  0.039320974            1 
  117000    1.2041677   -6.8953782    49.246358  0.035075753  0.039294709            2 
  118000    1.2749212   -6.8743223    49.649504  0.035063209  0.039269736            2 
  119000    1.2280759   -6.8944484    50.219013  0.035167376  0.039246164            2 
  120000    1.2403915   -6.8502715    50.847392  0.035310689  0.039228897            1 
  121000    1.2311302   -6.9298314    51.211418  0.035269571  0.039209537            1 
  122000    1.2059317   -6.9125591    51.376795  0.035093439   0.03918783            4 
  123000    1.2472107   -6.9072134    51.642434  0.034988099  0.039163891            1 
  124000    1.2696743   -6.9358338    52.151598  0.035048117  0.039136187            1 
  125000    1.2267131   -6.9095627    52.870781  0.035247187  0.039111159            1 
  126000    1.2581464   -6.9323873    53.221283  0.035199261   0.03909093            1 
  127000    1.2214709   -6.8403058    53.851984  0.035335947  0.039074399            1 
  128000    1.2072259   -6.9141931    53.734613  0.034983472   0.03904806            1 
  129000    1.2355746   -6.9039451     54.43042   0.03516177  0.039018373            1 
  130000    1.2297841   -6.9258349     55.07587  0.035305045  0.038997462            2 
  131000    1.2288003   -6.9021199    55.393365  0.035237509  0.038977292            1 
  132000    1.2338138   -6.8734811    55.910144  0.035296808  0.038963087            1 
  133000    1.2486039   -6.8846516    56.737692  0.035549932  0.038951256            1 
  134000    1.2433182   -6.9024497    56.985978  0.035439041  0.038936871            1 
  135000    1.2257795   -6.9014543    57.224076  0.035323503  0.038918001            1 
  136000    1.2162925   -6.8638009    57.785961  0.035408064  0.038895322            2 
  137000    1.2252044   -6.8764151    57.886429  0.035210723  0.038871621            2 
  138000    1.2226731   -6.8902726    58.337317  0.035227848  0.038845244            1 
  139000    1.2203379   -6.9034611    58.665595   0.03517122  0.038816929            3 
  140000    1.2129839   -6.9156445    59.106274  0.035182306  0.038787049            1 
  141000    1.2103994   -6.8909765    59.607494  0.035229015  0.038758822            1 
  142000    1.2096041   -6.9138276      59.8536  0.035125352   0.03872798            1 
  143000     1.229409   -6.9384046    60.382188  0.035187755  0.038699208            2 
  144000    1.2373746   -6.9103055    60.784953  0.035176477  0.038671661            1 
  145000    1.2145402   -6.8512342     61.39892  0.035286735  0.038643315            2 
  146000    1.2217916   -6.8887409    61.998355  0.035387189   0.03862106            2 
  147000    1.2247698   -6.8642014    62.614266  0.035495616  0.038598577            2 
  148000    1.2266577   -6.8933762    62.493763  0.035187929  0.038572655            1 
  149000    1.2456561   -6.8913971    63.006569  0.035238573  0.038546243            1 
  150000    1.2206921   -6.9072478    63.538109  0.035298949  0.038519856            3 
  151000     1.234887   -6.8741276    63.693587  0.035150986  0.038492364            2 
  152000    1.2131205   -6.8955645    64.221388  0.035209094  0.038462105            1 
  153000    1.2381102   -6.8932946    64.513614  0.035138134    0.0384299            1 
  154000    1.2401883   -6.8897295    65.280705  0.035325057  0.038402465            3 
  155000    1.2082392   -6.8851439     65.51493  0.035223081  0.038378476            2 
  156000    1.2277613   -6.9031349    65.998526  0.035255623  0.038356769            1 
  157000    1.2358411   -6.8686834    66.274248  0.035177414  0.038336387            1 
  158000    1.2528756    -6.870349     67.01548  0.035345717  0.038314452            1 
  159000    1.2244581   -6.8809061    67.495076  0.035374777  0.038295788            1 
  160000    1.2046684   -6.9479479     67.78876  0.035306646   0.03827713            2 
  161000    1.2093694   -6.9273468    68.479677  0.035444967  0.038257843            1 
  162000    1.2275788   -6.9151886    68.791304  0.035386473  0.038238306            2 
  163000    1.2329257   -6.8906491    69.019535  0.035286061  0.038216929            2 
  164000    1.2162553   -6.9041974     69.59677  0.035364213  0.038195551            3 
  165000    1.2250859   -6.9109955    69.977489  0.035342166  0.038175415            2 
  166000    1.2219515   -6.9341971    70.400629  0.035341681   0.03815206            1 
  167000    1.2196314   -6.8942174    70.580655  0.035219888  0.038127721            2 
  168000     1.217608   -6.8922491    71.041777  0.035238977  0.038100301            3 
  169000    1.2094385   -6.8979924    71.546903  0.035279538   0.03807534            3 
  170000    1.2288713   -6.8840407     72.06802  0.035327461  0.038053672            2 
  171000    1.2237682   -6.9349557    72.425872  0.035295259  0.038033679            3 
  172000     1.210762   -6.9005961    72.770297  0.035256927    0.0380094            1 
  173000    1.1985906   -6.8910139    73.059672   0.03519252  0.037984429            2 
  174000    1.1906998   -6.8917738    73.386867  0.035146967  0.037958943            1 
  175000    1.2484742   -6.8909096    73.927324  0.035203488  0.037932647            2 
  176000    1.2287256   -6.9100509    74.049918  0.035061514  0.037906432            2 
  177000    1.2541648   -6.8625655    74.721269  0.035179505  0.037881528            1 
  178000    1.2211399   -6.9283491    75.000651  0.035112664  0.037856663            1 
  179000    1.2251421   -6.9158082    75.483723  0.035141398  0.037831802            2 
  180000    1.2454539   -6.8982286    76.120746  0.035241086  0.037810364            1 
  181000    1.2355238   -6.9169468    76.541001  0.035239871  0.037790014            2 
  182000    1.2382729   -6.9010645    76.800607  0.035165113  0.037769193            1 
  183000    1.1833315   -6.9622789    77.395302  0.035243762  0.037747584            2 
  184000    1.2231612   -6.9298702    77.495836  0.035097752  0.037726935            2 
  185000    1.2300106   -6.9013249    78.365029  0.035299562  0.037706716            2 
  186000    1.2303204   -6.9191224    79.127798  0.035451522  0.037690607            2 
  187000    1.2431079   -6.9383505    79.342466  0.035357605  0.037679803            2 
  188000    1.1990227   -6.9353856    80.032179  0.035475256   0.03766972            2 
  189000    1.2066295   -6.9322096     80.63824  0.035554779  0.037659526            2 
  190000    1.2160265    -6.900448    81.112404  0.035575616  0.037652709            2 
  191000    1.2097162   -6.9444357    81.213649  0.035433529  0.037643713            3 
  192000    1.2251451   -6.9455533    81.585142  0.035410218  0.037631616            2 
  193000    1.2188319   -6.9088834    82.342604  0.035553801  0.037621836            2 
  194000    1.1989969   -6.9041261    82.661972   0.03550772  0.037614046            3 
  195000    1.2068097   -6.9324241    83.288344  0.035593309  0.037602817            1 
  196000     1.205581   -6.9359746     83.34863  0.035437343  0.037595002            1 
  197000    1.2184482   -6.9362207     83.88243  0.035483261  0.037588589            1 
  198000    1.2026034   -6.8717129    85.002012  0.035775257  0.037582458            4 
  199000    1.2408544   -6.9210683    85.696709  0.035886394  0.037579064            1 
  200000    1.2193079   -6.9233685    85.878121   0.03578255  0.037575167            1 
  201000    1.2163411   -6.8893225    86.441427  0.035838071   0.03757091            1 
  202000    1.2184198   -6.9068964    86.650149  0.035746761  0.037567462            3 
  203000    1.2347936   -6.9154931    87.399822  0.035878416  0.037567025            1 
  204000    1.2103163    -6.924296    87.506384  0.035746072   0.03756459            2 
  205000    1.2126361   -6.8932302    88.131828  0.035825946  0.037561351            1 
  206000    1.2052615   -6.9676591    88.198317  0.035678931  0.037556884            1 
  207000    1.2044052   -6.8999207    89.155616  0.035891955  0.037554231            1 
  208000    1.2234311   -6.8878597    89.534689   0.03587127  0.037552511            1 
  209000    1.2005249   -6.9012187    89.741211  0.035781982  0.037548071            4 
  210000    1.2008101   -6.9077268    90.466864  0.035899549  0.037545231            2 
  211000    1.2297536   -6.9249685    90.586502  0.035776659  0.037542832            2 
  212000    1.2113456   -6.8994492    91.072368  0.035798887  0.037540011            1 
  213000     1.234312   -6.8821714    91.721124  0.035884634  0.037537186            3 
  214000    1.2446121   -6.8979123    92.216907   0.03591001   0.03753527            2 
  215000    1.2390159   -6.8947632    92.877153  0.035998897  0.037533876            1 
  216000    1.2201968    -6.921695    93.374839  0.036024243  0.037533582            3 
  217000    1.2170047   -6.9361338    93.333988  0.035842545  0.037533108            2 
  218000    1.2111316   -6.8874647    94.138485  0.035985659  0.037531422            4 
  219000    1.2200903   -6.9269545     93.82211  0.035700955  0.037526883            1 
  220000     1.249213    -6.949019    94.604396  0.035834998  0.037523093            1 
  221000    1.1975982   -6.9191794    94.952885  0.035804255  0.037518381            1 
  222000     1.240041   -6.9453267    95.237169  0.035749688  0.037512342            2 
  223000    1.2183166   -6.9291664    95.496481  0.035686278  0.037504689            1 
  224000    1.2087757   -6.9242716    96.320185  0.035833402  0.037497421            1 
  225000    1.2147919   -6.9148278    96.821404  0.035859779  0.037492017            4 
  226000    1.2144936   -6.9391043    96.898275  0.035729453  0.037487401            2 
  227000     1.231554   -6.9299607    97.093943  0.035643885  0.037481485            1 
  228000    1.2113654   -6.9342134    97.938338  0.035796176  0.037476465            1 
  229000    1.2116511   -6.9265697    98.616536  0.035886658  0.037470131            1 
  230000    1.2171173    -6.923719    99.057064  0.035890241  0.037465383            1 
  231000    1.2170048   -6.9338761    99.108917  0.035753577  0.037460085            1 
  232000    1.2189593   -6.9089099    99.388789  0.035699996  0.037452719            1 
  233000    1.1784619   -6.9367096    100.36429  0.035895668  0.037446911            2 
  234000    1.2378193   -6.9560438    100.42968  0.035765556  0.037440535            1 
  235000    1.2098456   -6.9249357    100.82261  0.035752697   0.03743397            1 
  236000    1.2194663   -6.9040389    101.24944   0.03575192  0.037427302            2 
  237000    1.2430094   -6.9560934    101.71472   0.03576467   0.03742264            1 
  238000    1.2004325    -6.918788    102.59689   0.03592328  0.037418728            2 
  239000    1.2068711   -6.9237279    102.67729  0.035801009  0.037416262            1 
  240000    1.2466439   -6.9246619    103.28362  0.035862367   0.03741396            1 
  241000    1.2214519   -7.0027673    103.44643  0.035769856  0.037410347            1 
  242000    1.1913365   -6.8964238    104.57524  0.036010757  0.037406231            1 
  243000    1.2374941    -6.925678    104.70381  0.035906655  0.037402779            2 
  244000    1.2163949   -6.9011754    105.25539   0.03594788  0.037398322            1 
  245000    1.2194112   -6.8998895    105.85871  0.036006363  0.037394697            2 
  246000    1.2351473   -6.9227576    106.02354  0.035915832  0.037392625            2 
  247000    1.2375497   -6.9216904    106.41547  0.035902654  0.037388505            1 
  248000    1.1997636   -6.9246343    106.91059  0.035924257  0.037383893            2 
  249000    1.2058461   -6.9332714    107.11115  0.035847104  0.037377836            3 
  250000    1.2346908   -6.9012453    107.64308  0.035881026  0.037371445            1 
  251000    1.2008284   -6.9601079    108.09569  0.035888343  0.037365888            1 
  252000    1.1932641   -6.9298168    108.51579   0.03588485  0.037360735            2 
  253000    1.2206954   -6.9569567    108.71413  0.035808344  0.037355956            1 
  254000    1.1923476   -6.9447348    109.11188  0.035797862  0.037351645            2 
  255000     1.207975   -6.9239567    109.91431   0.03591971  0.037346341            2 
  256000     1.243218   -6.9263033    110.24851  0.035888188  0.037341615            3 
  257000    1.2169433   -6.8927535    110.84445  0.035941779  0.037336816            2 
  258000    1.2113663   -6.9775493    110.73379  0.035766728  0.037329918            2 
  259000     1.213321   -6.9291815    111.66165  0.035927171  0.037321936            1 
  260000    1.2039298   -6.9759546    111.32503  0.035681098  0.037316074            1 
  261000    1.1913516   -6.9149734    112.39369  0.035885597  0.037310343            2 
  262000    1.2209554   -6.9248477     112.6974  0.035845228  0.037304451            1 
  263000    1.2088188   -6.9503934     112.9473  0.035788117  0.037299101            1 
  264000    1.2157177   -6.8927969    113.61878  0.035864515  0.037291431            2 
  265000    1.1991707   -6.9596103    113.31819   0.03563465  0.037283746            3 
  266000    1.1835855   -6.9764547    114.05867  0.035732666  0.037275504            1 
  267000     1.204081   -6.9361676    114.41799  0.035710983  0.037267392            1 
  268000    1.2128822   -6.9507272    114.60259  0.035635135  0.037257196            1 
  269000    1.2198419   -6.9546662    115.11542   0.03566153  0.037247345            1 
  270000    1.1981796   -6.9390121    115.76023  0.035728467  0.037237653            2 
  271000     1.212964   -6.9637584    115.81636  0.035613888    0.0372275            1 
  272000    1.1917433    -6.941672    116.84885  0.035799281  0.037218562            3 
  273000    1.2126676    -6.919168    117.15804  0.035762527  0.037210583            1 
  274000    1.2010882   -6.9073251    117.45616  0.035722676  0.037202108            1 
  275000    1.1911619   -6.9072696    117.73383  0.035676919   0.03719398            2 
  276000    1.2317444   -6.9518884    118.38471  0.035744176  0.037187201            1 
  277000    1.2356763   -6.9722407    118.62561  0.035687609  0.037179616            2 
  278000    1.2134648   -6.9209767    119.21615  0.035736256  0.037170334            2 
  279000    1.1961698   -6.9622619    119.66655  0.035742697  0.037160001            2 
  280000    1.1833544   -6.9732894    119.53821  0.035576848  0.037151633            1 
  281000    1.2067052   -6.9112565    120.31615  0.035680945  0.037141619            1 
  282000    1.2016861   -6.9431881    120.46264  0.035597707  0.037131463            1 
  283000    1.2037483   -6.9239369    120.63158  0.035521667  0.037119854            1 
  284000    1.2341052   -6.9238565    121.06823  0.035524715  0.037107812            2 
  285000    1.2263795   -6.9466308    121.31239  0.035471458   0.03709564            1 
  286000    1.2381556   -6.9459348    121.17773  0.035308196  0.037080552            1 
  287000    1.2142347   -6.9596796    121.81257  0.035369504  0.037064926            1 
  288000      1.22801   -6.9455047      122.043  0.035313369  0.037049372            1 
  289000    1.2248036   -6.9505846    122.47412   0.03531549  0.037034893            5 
  290000    1.2008049   -6.9754317    122.92762   0.03532403  0.037019853            1 
  291000    1.1805487   -6.9228194    123.06965  0.035243312  0.037003295            2 
  292000     1.186834   -6.9410429    123.53584  0.035255662   0.03698721            1 
  293000    1.2091968   -6.9772273    123.58434   0.03514913  0.036970235            1 
  294000    1.1968176   -6.9240779    124.50335  0.035290066  0.036954014            2 
  295000    1.1809633   -6.9225626    125.10345  0.035339959  0.036939767            3 
  296000    1.1798529     -6.94384    124.82165  0.035141229  0.036923428            1 
  297000    1.2051293   -6.9496207    125.62932   0.03524953  0.036907448            1 
  298000    1.2462823   -6.9210887    126.09313  0.035260943  0.036891603            1 
  299000    1.2064158       -6.948    126.34295  0.035212639  0.036875924            4 
  300000    1.2002474   -6.9493878    126.91762  0.035254893  0.036860507            2 
  301000    1.2145143   -6.9230972    127.19406  0.035214302  0.036844074            1 
  302000    1.2130339   -7.0148604    127.17327  0.035091962  0.036828687            2 
  303000    1.1999349   -6.9392187    128.21585  0.035262884  0.036813466            1 
  304000    1.2042925   -6.9790886    128.55817  0.035240727  0.036797703            2 
  305000    1.2006972   -6.9273879    128.66764  0.035155094  0.036781958            1 
  306000    1.1733976   -6.9095845    129.87579  0.035369223  0.036766701            2 
  307000    1.1851111   -6.9375236    129.81562  0.035237683  0.036752213            1 
  308000    1.2164434   -6.9477264    130.20111  0.035227573  0.036736695            1 
  309000    1.1935729   -6.9359058    130.38063  0.035161982  0.036721035            3 
  310000    1.2239005   -6.9448352    130.28993  0.035024174  0.036704972            3 
  311000    1.2102258    -6.949946    130.57468  0.034987857  0.036689289            2 
  312000    1.2152186   -6.9863619    130.98204  0.034984519  0.036671634            1 
  313000    1.2139987   -6.9173457    131.25439  0.034945259   0.03665238            1 
  314000    1.1685941   -6.9524165    131.67774  0.034946322  0.036632849            1 
  315000    1.1962663    -6.971899    131.72383  0.034847573  0.036613653            2 
  316000    1.2144314   -6.9413752    132.52881  0.034949581  0.036594871            3 
  317000    1.1946698   -6.9296159    133.06153  0.034979371  0.036576598            1 
  318000    1.2085648   -6.9400039    133.17971  0.034900343  0.036559528            2 
  319000    1.1789464   -7.0327882    133.06415   0.03476075  0.036541436            3 
  320000    1.1880943   -6.9444708    133.71842  0.034822505  0.036523355            1 
  321000    1.2279142   -7.0096466    134.38303   0.03488656   0.03650516            1 
  322000    1.2034493   -6.9775167     134.2177   0.03473543  0.036486625            1 
  323000    1.2094038   -6.9366771    135.68217   0.03500572   0.03646997            1 
  324000    1.1964499   -6.9703367     135.8247  0.034934336  0.036454424            1 
  325000     1.190143   -6.9883376    137.25025  0.035192371  0.036441206            1 
  326000    1.2183873   -6.9742463    137.11899  0.035050867  0.036429029            1 
  327000    1.1757973   -7.0075407    137.61184  0.035069277  0.036416127            6 
  328000    1.1919572   -7.0203404    137.72105  0.034990104  0.036402714            2 
  329000    1.2202546   -6.9787766    138.37668  0.035049818   0.03638929            4 
  330000    1.2026969    -7.006652    138.73677  0.035034537   0.03637688            2 
  331000    1.2104417   -6.9546374    139.19533  0.035044142   0.03636525            2 
  332000    1.2076263   -6.9541366    139.90244  0.035116073  0.036353192            2 
  333000    1.1982842   -6.9798452    140.09523  0.035058867  0.036339777            1 
  334000    1.2140022    -6.965721    140.66748  0.035096675   0.03632694            1 
  335000    1.1575411   -6.9921396    140.61247  0.034978227  0.036313344            2 
  336000    1.1984791   -7.0231714    141.27188   0.03503767  0.036300415            1 
  337000    1.1727161   -6.9369203    141.52385  0.034996007  0.036286789            2 
  338000    1.1943027   -6.9963371     141.6112  0.034914004  0.036272601            2 
  339000    1.2076198   -6.9668164    142.07562  0.034925178  0.036259432            2 
  340000    1.2036551   -7.0055425    142.52711  0.034933116   0.03624612            3 
  341000    1.1933453   -6.9330291    143.16587  0.034986771  0.036233523            2 
  342000     1.188395   -6.9876775    143.17343  0.034886313  0.036220835            3 
  343000    1.2091322   -6.9907773     143.5776  0.034882798  0.036207531            2 
  344000    1.2001965   -6.9621465    143.56716  0.034778867  0.036193689            2 
  345000      1.20309   -6.9372866     144.3449  0.034865917  0.036179797            1 
  346000    1.1977851   -6.9516488    144.71229  0.034853633  0.036165998            1 
  347000    1.1915194   -6.9225294    145.41536  0.034922037  0.036151865            1 
  348000    1.1921107   -6.9565608    145.39964   0.03481792  0.036137605            3 
  349000    1.1870886   -6.9842325    145.61903  0.034770542  0.036122902            2 
  350000      1.20134   -6.9782243    145.91744  0.034742248  0.036108411            1 
  351000    1.1889524   -6.9863832    146.07394  0.034680422  0.036093786            1 
  352000    1.1921902   -6.9917158    146.60598  0.034707855   0.03607891            2 
  353000    1.2032749   -6.9614742    148.05871  0.034952482   0.03606592            1 
  354000    1.2140763   -6.9652472    147.88777  0.034813504  0.036052352            2 
  355000    1.2291359   -6.9869947    148.68982  0.034903713  0.036040787            2 
  356000    1.2060151   -6.9565141    149.46148  0.034986301  0.036030506            1 
  357000    1.2333772   -6.9587586    149.93362   0.03499851  0.036021014            3 
  358000    1.1966254   -6.9547117    150.62517  0.035061724  0.036011877            1 
  359000    1.1812567   -6.9954938    150.49837  0.034934626  0.036003202            2 
  360000    1.2032779    -7.016474    151.08541  0.034973475  0.035994448            2 
  361000     1.177059   -6.9934562    151.33129  0.034933354  0.035985022            5 
  362000    1.1743393   -6.9916868     151.9914  0.034988811  0.035975212            2 
  363000    1.1850881   -6.9795363    152.24858  0.034951465  0.035964829            4 
  364000     1.147333   -6.9851222    152.57812  0.034930887  0.035955078            4 
  365000    1.1894136   -6.9871671     152.9549  0.034921209  0.035945232            1 
  366000    1.1952263   -6.9385119    153.53116  0.034957003   0.03593576            1 
  367000    1.1851146   -6.9531831    154.12873   0.03499744  0.035926596            1 
  368000     1.184983    -6.961882    154.35396  0.034953343  0.035917707            2 
  369000    1.2063626   -7.0082091    154.66491  0.034928842  0.035908516            2 
  370000    1.2415526   -6.9742671    155.63731  0.035053448  0.035900164            1 
  371000    1.2104945    -6.978319    155.39805  0.034905222  0.035891837            2 
  372000    1.1817473   -6.9839636    155.72532  0.034884704  0.035883151            2 
  373000     1.198307   -7.0035585    157.00688  0.035077498  0.035875631            2 
  374000    1.2265974   -6.9267728    157.39124   0.03506935  0.035868337            1 
  375000    1.1959216   -6.9308635    157.10772  0.034912827  0.035859487            1 
  376000    1.1860626    -6.944835    157.54077   0.03491595  0.035850998            2 
  377000    1.1760785   -6.9561877    157.58364  0.034832812  0.035842047            3 
  378000     1.152782   -6.9894993    158.28966  0.034896309  0.035832876            1 
  379000    1.1985106   -6.9688445    158.33516  0.034814239  0.035823647            1 
  380000     1.193811   -6.9869747    159.11669  0.034894011  0.035814679            2 
  381000    1.1985105   -6.9711113    159.63933  0.034916738  0.035806124            1 
  382000    1.2235044   -6.9171828    160.31103  0.034971865  0.035797639            2 
  383000    1.1747851   -6.9633147    160.70441  0.034966147  0.035788955            1 
  384000    1.1710681   -6.9857241    160.58011  0.034848114   0.03578068            1 
  385000     1.162769   -6.9536313    161.36992  0.034928555  0.035772565            1 
  386000    1.1819713   -6.9809061    161.47564  0.034860889  0.035765169            1 
  387000    1.2174524   -6.9582426    162.84488   0.03506565  0.035758196            2 
  388000    1.1862918   -6.9458326    163.82544  0.035185876  0.035751315            3 
  389000    1.1619978   -6.9720936    163.06411  0.034932329  0.035744915            1 
  390000    1.1901034   -6.9632071    163.97381  0.035037139  0.035738369            1 
  391000    1.2003129   -6.9492075    163.90502  0.034932868  0.035731827            1 
  392000    1.1914162   -6.9767185    164.05037  0.034874654  0.035725365            1 
  393000    1.1853187    -7.006302    164.45879  0.034872517  0.035718796            1 
  394000    1.2137777   -6.9708946    165.28339  0.034958415  0.035712091            2 
  395000    1.1785395   -6.9719037     165.3988  0.034894261  0.035704955            2 
  396000    1.2033133   -6.9509983    166.78226  0.035097277   0.03569844            2 
  397000    1.1745153   -7.0168934    166.06622  0.034858568  0.035692359            1 
  398000    1.1808101   -6.9824782    167.10979  0.034989486  0.035685889            2 
  399000    1.1666936   -6.9495105    167.29119  0.034939681  0.035679815            1 
  400000    1.1879438   -6.9964199    167.23941  0.034841544  0.035672914            1 
  401000    1.1934788    -6.983677    168.10102  0.034933711  0.035665481            1 
  402000    1.1801674   -6.9773331    168.13963  0.034854815  0.035658027            1 
  403000    1.1957211   -6.9848199    168.79632  0.034904119  0.035651377            2 
  404000    1.1965299   -6.9795568    168.91038  0.034841249  0.035644241            1 
  405000    1.1728443   -6.9443466    170.09991  0.034999981  0.035636807            1 
  406000    1.1834525   -6.9866796    170.37248   0.03496972  0.035629768            1 
  407000    1.1822005   -6.9733017    170.30819  0.034870637  0.035622521            2 
  408000    1.1866095   -6.9749277    171.87977  0.035106161  0.035617312            2 
  409000     1.199688   -6.9966844    171.59009  0.034961307  0.035611938            1 
  410000    1.1969554   -6.9978057    171.79035  0.034916739  0.035607253            1 
  411000    1.2025888   -6.9563096    173.18306  0.035114164  0.035603151            2 
  412000    1.1955544   -6.9764567    173.46317  0.035085593  0.035600074            2 
  413000    1.1872983   -7.0042946    173.33071  0.034973913  0.035597105            1 
  414000    1.1952146   -6.9783887    174.54955  0.035134773  0.035594193            1 
  415000    1.1885225   -7.0157943    174.63052   0.03506637  0.035590268            2 
  416000    1.1636465   -7.0319204    174.59234  0.034974426  0.035586881            2 
  417000    1.1787958    -6.990006    175.08282  0.034988574   0.03558369            2 
  418000    1.1731112   -6.9665518    175.74567  0.035037015  0.035579885            1 
  419000    1.1745731   -6.9917605    177.31041  0.035264599  0.035576609            3 
  420000    1.1903248   -6.9521288    176.63728  0.035047079  0.035573392            1 
  421000     1.157262   -6.9708374    177.38646  0.035112127  0.035569991            1 
  422000    1.1845681   -6.9842768     177.9235  0.035134973  0.035566075            4 
  423000    1.1967047   -7.0130997    177.65964   0.03499993  0.035562982            2 
  424000     1.186497   -6.9628134    179.08313  0.035197155  0.035560021            6 
  425000    1.1766836   -6.9780395    179.03543  0.035104987  0.035557984            2 
  426000    1.1729594   -7.0023871     179.4877  0.035111053  0.035555124            1 
  427000    1.2057655   -6.9647019    180.12087  0.035152394  0.035552445            1 
  428000    1.1428916   -7.0363569     180.8098  0.035204401  0.035550651            3 
  429000    1.1853022   -6.9559134    181.65579  0.035286672  0.035548216            2 
  430000    1.1747037   -6.9824059    181.34959  0.035145269  0.035545985            2 
  431000    1.1796046   -6.9684701     181.1631  0.035027668  0.035542413            1 
  432000    1.2022941   -6.9666304    181.56453  0.035024022  0.035538018            1 
  433000    1.1892604   -6.9835198    181.66855  0.034963154  0.035533631            1 
  434000     1.179622   -6.9816537    182.00947  0.034948055  0.035528606            1 
  435000     1.192771   -7.0120225     182.3695  0.034936686  0.035523637            2 
  436000    1.1557239   -7.0223236    182.55126  0.034891296  0.035517331            3 
  437000    1.1488779   -6.9743138    182.32605  0.034768507  0.035511742            4 
  438000    1.1853083   -6.9813906    182.90556  0.034799384  0.035505273            1 
  439000     1.172472   -6.9843321    183.87638  0.034904399  0.035499181            2 
  440000    1.1810541   -7.0692984    183.53583  0.034760573  0.035493782            2 
  441000    1.1792407    -7.019854    184.27265  0.034820984   0.03548869            1 
  442000    1.1628981   -6.9757086    185.24294  0.034925139  0.035483603            1 
  443000    1.1902533   -7.0276947     185.7121  0.034934556  0.035479129            1 
  444000    1.1749386   -6.9990098    186.74127  0.035049038  0.035473973            1 
  445000    1.1840753   -7.0397057    186.49033  0.034923282  0.035468966            1 
  446000    1.1836859   -7.0082964    186.51715  0.034849991   0.03546396            1 
  447000    1.1918842   -7.0160273    186.72686  0.034811122  0.035457985            1 
  448000    1.1872925   -7.0093081    186.92802  0.034770838    0.0354516            1 
  449000    1.1777377   -6.9852457    187.80835  0.034856784  0.035445594            4 
  450000    1.1738279   -7.0353531    188.31041  0.034872298   0.03543909            1 
  451000    1.1744561   -7.0286481    187.45054  0.034636094  0.035431644            1 
  452000    1.1947346   -7.0422086    187.75441  0.034615488  0.035424783            1 
  453000    1.1990547   -6.9610637    188.95889   0.03476065  0.035418522            1 
  454000    1.2100653   -6.9843579    189.82474  0.034843013  0.035412351            1 
  455000    1.1666711   -7.0075141    189.64057  0.034732704  0.035405691            1 
  456000    1.1632041   -6.9820576    190.37418  0.034790603   0.03539894            1 
  457000    1.1714581   -6.9989797    190.56225   0.03474877  0.035392037            1 
  458000    1.1764815   -7.0023583    190.82249  0.034720248  0.035384935            2 
  459000    1.1689368   -7.0297584    190.87401  0.034653959  0.035377577            1 
  460000    1.1992542   -7.0588709    190.83904  0.034572291  0.035370456            1 
  461000    1.1988148   -7.0398229    191.09248  0.034543109  0.035363151            1 
  462000    1.1752749   -7.0158714    192.24287  0.034675843  0.035356023            2 
  463000    1.1813678   -7.0395456    192.88792  0.034717048  0.035349264            4 
  464000    1.1704042   -7.0135222    193.38595  0.034731672   0.03534315            2 
  465000    1.1879286   -6.9665705    193.96116  0.034760064  0.035336858            1 
  466000    1.1975037   -6.9848554    193.88006  0.034670969  0.035330601            1 
  467000    1.1574597   -6.9927053     193.9038  0.034600963  0.035323363            3 
  468000    1.1647765   -7.0179202     194.5488   0.03464188  0.035315877            1 
  469000     1.172141   -7.0063052    194.77334  0.034607915  0.035308151            1 
  470000    1.1771672   -7.0259138    194.86914  0.034551266  0.035299652            1 
  471000     1.186703   -6.9908667    195.69719  0.034624413  0.035292256            2 
  472000    1.1665101   -6.9633995     196.6911  0.034726537   0.03528484            1 
  473000    1.1944107   -7.0591318    195.40704  0.034426892  0.035277242            2 
  474000    1.1905053   -7.0544206    196.30046  0.034511332  0.035269143            2 
  475000    1.1817692   -7.0277319    195.81988  0.034354364  0.035260988            2 
  476000    1.1605581   -6.9919757    197.24657  0.034531962  0.035252551            3 
  477000    1.1952934   -6.9947928    196.63225  0.034352246  0.035244467            1 
  478000    1.1663598   -7.0089392    197.89416  0.034500377  0.035237195            2 
  479000    1.1671054   -6.9824691    199.13716    0.0346446  0.035229709            1 
  480000    1.1997495   -6.9973547    198.93361  0.034537086  0.035222604            3 
  481000    1.1460592   -7.0083402    198.97022  0.034471625   0.03521555            1 
  482000    1.1556961   -7.0230813     199.9606  0.034571334  0.035208487            4 
  483000    1.1836303   -7.0280525    200.01424  0.034509012  0.035201654            1 
  484000    1.1747591   -7.0259985     200.2484  0.034478031  0.035194251            5 
  485000     1.179496   -6.9981123    200.88217  0.034515836  0.035187528            1 
  486000     1.174504   -7.0592231     200.3503  0.034353617  0.035180171            2 
  487000    1.1753896   -6.9923675    201.83037  0.034536339  0.035173056            3 
  488000    1.1471782   -6.9677113    202.52867  0.034584814  0.035166413            1 
  489000    1.1515315   -7.0060295     202.4876  0.034507089  0.035159259            3 
  490000    1.1796614   -7.0080961    201.81253  0.034321859  0.035151397            1 
  491000    1.1775879   -7.0164034    202.82854  0.034424396  0.035143469            2 
  492000    1.1688618   -7.0308245     203.6676  0.034496544  0.035135713            1 
  493000    1.1763999   -7.0305032    203.53103  0.034403488  0.035128689            2 
  494000    1.1704837   -7.0162341    204.79921  0.034547774  0.035121362            1 
  495000    1.1740513   -7.0317022    204.86941  0.034489799  0.035114296            1 
  496000    1.1852593   -6.9709846    205.08673  0.034456775  0.035107799            1 
  497000    1.1782261   -7.0204851    205.80419  0.034507745  0.035101138            2 
  498000    1.1539779   -7.0411696     205.8062  0.034438789  0.035094481            2 
  499000    1.1981731    -6.986332    206.92655  0.034556872   0.03508819            1 
  500000    1.1745767   -7.0175624    207.19334  0.034532224  0.035081868            2 
  501000    1.1539904   -7.0279834    206.96604   0.03442549  0.035076115            1 
  502000    1.1806528   -7.0325493    209.04984  0.034702829  0.035070542            1 
  503000    1.1335402   -7.0074446    208.77899  0.034588965  0.035064779            2 
  504000    1.1838061   -7.0332796     208.1696  0.034419577  0.035058984            1 
  505000    1.1870373   -6.9674003    209.64083  0.034594196  0.035053352            2 
  506000     1.169442   -7.0451156    210.04005  0.034591576   0.03504807            1 
  507000    1.1850429   -7.0282968    210.04742   0.03452456  0.035042341            3 
  508000    1.1557789   -7.0592779    210.28743   0.03449597   0.03503685            1 
  509000    1.1711062   -6.9848045    211.10222  0.034561594  0.035031351            2 
  510000    1.1793627   -7.0390535    210.58013  0.034408518   0.03502586            4 
  511000    1.1895414   -7.0387896    211.79548   0.03453938  0.035020286            2 
  512000    1.1766208   -7.0387031    211.51996  0.034427077  0.035014552            3 
  513000    1.1694425   -7.0721446    211.87649  0.034417884  0.035008959            3 
  514000    1.1600153    -7.058173    212.12006  0.034390412  0.035002509            2 
  515000    1.1781866   -7.0047236    212.71769  0.034420338  0.034996233            2 
  516000     1.140057   -7.0354497    213.14477  0.034422605  0.034989516            1 
  517000    1.1638103   -7.0410007    213.84302  0.034468572  0.034983461            2 
  518000    1.1301662   -7.0570136    213.54713  0.034354428  0.034977335            1 
  519000     1.173605   -7.0431931    213.95597   0.03435388  0.034970329            3 
  520000    1.1624997   -7.0465414    214.27551  0.034339024  0.034964137            1 
  521000     1.155175   -7.0605019    215.56771    0.0344798  0.034957938            1 
  522000    1.1731194   -7.0570586    215.26621  0.034365615  0.034951765            1 
  523000    1.1736514   -7.0124055    216.93856  0.034566373  0.034946263            2 
  524000    1.1836898   -7.0324282    216.98661  0.034508048  0.034940339            2 
  525000    1.1815506   -7.0644235     216.3195  0.034336429  0.034934411            1 
  526000    1.1743949   -7.0136438     216.8267  0.034351505  0.034927567            5 
  527000    1.1744217    -7.014989    217.34089  0.034367629  0.034920463            1 
  528000    1.1811419   -7.0464273    218.51916  0.034488504  0.034914528            1 
  529000    1.1785371   -7.0528832    217.75107  0.034302311  0.034908003            1 
  530000    1.1725316   -7.0413478    218.43854  0.034345683  0.034902182            1 
  531000    1.1536707   -7.0083723    219.16074  0.034394341  0.034895181            1 
  532000    1.1644007   -7.0249122    218.62386  0.034245592  0.034888274            1 
  533000     1.175139   -7.0311571    219.26771  0.034282006  0.034881061            3 
  534000    1.1689959    -7.032163     219.6964  0.034284707  0.034874199            2 
  535000    1.1645236   -6.9924424    220.52228  0.034349265  0.034867255            1 
  536000    1.1590355   -7.0225028    220.97036  0.034354844  0.034860571            1 
  537000    1.1658493   -7.0196999     221.2491  0.034334125  0.034854325            2 
  538000    1.1684578   -7.0540391    221.63467  0.034330029   0.03484807            2 
  539000    1.1676874   -7.0413005    221.41946  0.034233065  0.034841254            2 
  540000    1.1761911   -7.0476106    222.46531  0.034331066  0.034835408            2 
  541000    1.1564583   -7.0233529     222.7875  0.034317237  0.034829572            1 
  542000    1.1488625   -7.0537327    223.16411  0.034311825  0.034823515            1 
  543000    1.1640235   -7.0039011    223.50706  0.034301268  0.034817285            1 
  544000    1.1711351   -7.0455668    223.52718  0.034241295  0.034810176            2 
  545000    1.1450617   -7.0350813    223.75875  0.034213876  0.034803702            2 
  546000     1.152038   -7.0731351    224.38734  0.034247152  0.034796892            2 
  547000    1.1767663   -7.0447915    224.75432  0.034240452  0.034790408            1 
  548000    1.1639609   -7.0330179     225.8108  0.034338625  0.034784448            1 
  549000    1.1907311   -7.0004325    227.06815  0.034466933  0.034779091            1 
  550000    1.1309877   -7.0074234    227.24513  0.034431081  0.034773887            2 
  551000    1.1676614   -7.0417189    227.43294  0.034396996  0.034769543            1 
  552000    1.1652696   -7.0063499    227.77411  0.034386188   0.03476454            1 
  553000    1.1672535    -7.034442    227.55688  0.034291271  0.034759583            2 
  554000    1.1571249   -6.9961633    227.55218  0.034228667  0.034754769            1 
  555000    1.1823415    -7.097228    228.34329  0.034285779  0.034749453            2 
  556000     1.168253   -7.0326977    229.49369  0.034396536  0.034743942            2 
  557000    1.1634017    -7.059398    228.86702  0.034241026   0.03473876            2 
  558000     1.164679   -7.0364937    229.38128  0.034256463  0.034733476            1 
  559000    1.1619851   -7.0328284    229.54878  0.034220152  0.034728214            1 
  560000    1.1487404   -7.0509878    230.54183   0.03430682  0.034722644            2 
  561000    1.1561618   -7.0307476    230.38912  0.034222982  0.034716736            1 
  562000    1.1469761   -7.0333063    230.77379  0.034219127  0.034711396            1 
  563000    1.1823275   -7.0335352    230.97487   0.03418811  0.034705497            2 
  564000      1.13792   -7.0318389    231.73163  0.034239307  0.034699752            2 
  565000    1.1433685   -7.0149542    231.98182  0.034215607  0.034693882            1 
  566000    1.1452056   -7.0607463    231.81717  0.034130915  0.034687774            2 
  567000    1.1563723   -7.0729218    232.19432  0.034126149  0.034681161            2 
  568000    1.1587407   -7.0374928    232.95571  0.034177774   0.03467481            1 
  569000    1.1658264     -7.05479    233.74982   0.03423401  0.034669093            2 
  570000    1.1539444   -6.9991384    234.71259  0.034314706  0.034663018            1 
  571000    1.1899044   -7.0203341    234.76727   0.03426259  0.034657121            1 
  572000    1.1500783   -7.0432127    234.57356   0.03417447  0.034651009            4 
  573000    1.1393935   -7.0628088    234.84938  0.034154942  0.034645697            4 
  574000    1.1563728   -7.0143301    236.17938  0.034288528   0.03464018            2 
  575000    1.1546027   -7.0701209    236.23295   0.03423666  0.034634486            2 
  576000    1.1626188   -7.0209355    236.04588  0.034150156  0.034628257            1 
  577000    1.1886104   -7.0322763    236.00993  0.034085779  0.034622347            2 
  578000    1.1705276   -7.0299856     237.1866  0.034196453  0.034616912            3 
  579000     1.125024   -7.0681482    236.72998  0.034071672  0.034610791            1 
  580000    1.1821979    -7.056961    237.46688  0.034118804  0.034604847            1 
  581000    1.1836482    -7.048462    238.79669  0.034250816  0.034599064            3 
  582000    1.1656352   -7.0229896    238.76585   0.03418755  0.034593411            1 
  583000    1.1637226   -7.0838394    238.90744  0.034149148  0.034587387            2 
  584000    1.1609531   -7.0294558    239.16995  0.034128133  0.034581158            2 
  585000    1.1532577   -7.0217899    240.02072  0.034190985  0.034575458            2 
  586000    1.1739996   -7.0199284    240.25929  0.034166566  0.034569528            1 
  587000    1.1669845     -7.00531    240.67672   0.03416762  0.034563685            2 
  588000    1.1658323   -7.0439494    240.45541  0.034078148  0.034557902            1 
  589000    1.1566619   -7.0546721    241.67709  0.034193137  0.034551607            1 
  590000    1.1863216   -6.9867947    241.25799  0.034075987  0.034545544            2 
  591000      1.14861   -7.0422273    242.11371  0.034138989  0.034539633            2 
  592000    1.1548671   -7.0449753    240.96357  0.033919421   0.03453365            1 
  593000    1.1362625   -7.0636867    242.52718  0.034081954  0.034527568            2 
  594000    1.1936711   -7.0606496    242.74851  0.034055627  0.034521416            1 
  595000    1.1658817   -7.0756037    243.02708  0.034037406  0.034514859            1 
  596000    1.1577798   -7.0415827    243.20887  0.034005714  0.034508146            2 
  597000    1.1824423   -7.0214169    243.69295  0.034016325  0.034502305            1 
  598000    1.1693781   -7.0660023    244.13896  0.034021595  0.034496481            1 
  599000    1.1379871   -7.0611883    244.80189  0.034057024  0.034490338            2 
  600000    1.1646231    -7.094552    244.81765  0.034002451  0.034484048            1 
  601000    1.1564143   -7.0628547    245.63911  0.034059776  0.034477995            1 
  602000    1.1472496   -7.0695104    245.35409  0.033963744  0.034472018            1 
  603000    1.1609442   -7.0624019     246.1608  0.034018905  0.034466176            1 
  604000    1.1540463   -7.0709012    247.07723  0.034089022   0.03446047            3 
  605000    1.1622475   -7.0549155    246.43351  0.033944009  0.034455312            2 
  606000    1.1248714   -7.0320503    247.95294  0.034096939  0.034450201            2 
  607000    1.1521529   -7.1343155    246.71698  0.033871085   0.03444423            2 
  608000    1.1695212   -7.0112451    249.19523  0.034155048  0.034438082            3 
  609000    1.1552091   -7.0014877    249.71891  0.034170622  0.034432719            2 
  610000    1.1384377   -7.0320859     249.2438  0.034049699  0.034427362            1 
  611000    1.1837838    -7.070614    249.40302  0.034015688  0.034421375            1 
  612000     1.135024   -7.0795311    249.58873  0.033985393  0.034415314            1 
  613000    1.1574599   -7.0551341    249.48449  0.033915781  0.034409331            1 
  614000     1.121238    -7.070386    249.77376  0.033899805  0.034403667            1 
  615000    1.1626244   -7.0547596    251.47195  0.034074789  0.034398226            1 
  616000    1.1416149   -7.0680437    251.34966   0.03400293  0.034393207            2 
  617000    1.1312722   -7.0208663    252.19891  0.034062522  0.034388371            1 
  618000    1.1646369   -7.0306823    252.83635  0.034093359   0.03438317            1 
  619000    1.1653299   -7.0697836     252.0667  0.033934666   0.03437776            1 
  620000    1.1094061   -7.0754797    252.69038   0.03396376  0.034372227            1 
  621000     1.145877   -7.0660274    253.26097  0.033985638  0.034366571            2 
  622000    1.1591007   -7.0735049    253.56766  0.033972088  0.034360655            2 
  623000    1.1398565   -7.0476753    253.87524  0.033958699  0.034355458            2 
  624000    1.1620984   -7.0776088    254.13623  0.033939134  0.034349947            1 
  625000    1.1543759    -7.045884    254.78189  0.033970919  0.034344212            3 
  626000    1.1738418   -7.0683362    254.60748  0.033893434   0.03433808            3 
  627000    1.1502659   -7.0955763    254.66047  0.033846421  0.034332051            4 
  628000    1.1625937   -7.0539741    255.57278  0.033913585  0.034325833            1 
  629000    1.1803778   -7.0627437    255.55227  0.033856952   0.03432002            1 
  630000    1.1322962   -7.0618603    256.40238  0.033915658  0.034314164            1 
  631000    1.1495771   -7.0830162    256.71311  0.033902947  0.034308558            1 
  632000    1.1676459   -7.1121647    256.12047  0.033771159  0.034302009            1 
  633000    1.1745585   -7.0527603    257.48521  0.033897474  0.034295556            1 
  634000    1.1492816   -7.0285395    257.32804  0.033823348  0.034289247            1 
  635000    1.1414178   -7.0970442    256.70635  0.033688498  0.034282284            1 
  636000     1.174602    -7.074577    257.29008  0.033712012  0.034275336            1 
  637000    1.1699773   -7.0520278    258.04591  0.033757968  0.034268878            2 
  638000    1.1265825   -7.0991178    258.14023  0.033717376  0.034262565            2 
  639000    1.1446901   -7.0286667    260.06248  0.033915294   0.03425624            2 
  640000    1.1466213   -7.0891657    259.30439  0.033763593  0.034249613            1 
  641000    1.1650851   -7.0355003    260.58826  0.033877829  0.034243001            1 
  642000    1.1428262   -7.0768612     259.7445  0.033715538  0.034235734            2 
  643000    1.1717505   -7.0489832    260.45232  0.033754837  0.034228652            1 
  644000     1.145093   -7.0983967    259.78081   0.03361553  0.034221713            2 
  645000    1.1340573   -7.0688735     261.9252  0.033840465  0.034214485            4 
  646000    1.1599415   -7.0917269    261.07174  0.033677984   0.03420773            1 
  647000    1.1392745   -7.0619896    261.17521  0.033639259  0.034201111            1 
  648000    1.1561524   -7.0918467    261.80712  0.033668612  0.034194684            1 
  649000    1.1233086   -7.0745273    261.83028  0.033619707  0.034187734            1 
  650000    1.1331708   -7.0508516    262.89629  0.033704652   0.03418071            5 
  651000    1.1578977   -7.0645922    262.71179  0.033629262  0.034173773            2 
  652000    1.1477065   -7.0704529    263.78265  0.033714551  0.034166685            2 
  653000    1.1615414   -7.0507535     263.7632  0.033660439  0.034159513            3 
  654000    1.1441898   -7.0999851    264.33704  0.033682089  0.034152715            2 
  655000    1.1498472   -7.0773034    264.16365  0.033608607  0.034146285            2 
  656000    1.1527893   -7.0658081    265.79115   0.03376412  0.034139663            1 
  657000    1.1441666   -7.1051937    264.83967  0.033592044  0.034133408            1 
  658000    1.1664282   -7.0668929    266.92386  0.033804947  0.034127015            2 
  659000    1.1490165   -7.0675097    266.70161  0.033725545  0.034121149            2 
  660000     1.142982   -7.0966654    266.34564    0.0336295  0.034114871            1 
  661000    1.1461558   -7.0521118     267.6272  0.033740192  0.034108524            1 
  662000    1.1492279   -7.1126873    266.53452  0.033551677  0.034101764            1 
  663000     1.128113   -7.0625796    267.43615  0.033614397  0.034094969            2 
  664000    1.1367318   -7.0629705    268.48998  0.033696031   0.03408817            4 
  665000    1.1484529   -7.0837078     268.3668  0.033629925  0.034081507            3 
  666000    1.1532875   -7.0642808    269.76252  0.033754069  0.034075641            2 
  667000    1.1340228   -7.0907787    269.20569  0.033633894  0.034069736            1 
  668000    1.1675084   -7.0997302    269.01776    0.0335601  0.034063638            1 
  669000    1.1734044   -7.1024451    269.41293  0.033559159  0.034057122            1 
  670000     1.158826   -7.0593848    270.48724  0.033642692  0.034050899            1 
  671000    1.1522233   -7.0790746    270.76519  0.033627072  0.034044367            1 
  672000    1.1572146   -7.0918135    270.73329  0.033573076  0.034037973            1 
  673000    1.1472241   -7.0766707    271.49598   0.03361763  0.034031696            2 
  674000     1.142629   -7.0803459    271.93946  0.033622584  0.034025453            1 
  675000    1.1318058   -7.0924025    272.74037   0.03367165  0.034019578            3 
  676000    1.1240171   -7.0781104    273.40222  0.033703429  0.034014014            1 
  677000    1.1338897   -7.0734426    273.49996  0.033665676  0.034008765            1 
  678000    1.1692633   -7.0761792    274.20513  0.033702696  0.034002884            2 
  679000    1.1400241   -7.1091078    273.79112  0.033602249  0.033997124            1 
  680000    1.1575273   -7.0775014    273.84681  0.033559659  0.033991153            1 
  681000    1.1393453   -7.0516066    275.82655  0.033752637  0.033985814            1 
  682000    1.1237098   -7.0533182    274.67325  0.033562225  0.033980198       -1e+20 
  683000    1.1271305   -7.0843933     275.0815  0.033562897  0.033974327            3 
  684000    1.1581272   -7.0782959    274.70255  0.033467659  0.033968162            1 
  685000    1.1411994   -7.0730715    276.03085  0.033580395  0.033961523            2 
  686000    1.1421383    -7.070795    276.57902  0.033598034  0.033955282            5 
  687000    1.1503399   -7.0954606    275.95354  0.033473258  0.033949118            1 
  688000    1.1410563   -7.0633679    277.54963  0.033617929  0.033942709            2 
  689000     1.153077    -7.089123    277.06661  0.033510717  0.033936556            2 
  690000     1.092886   -7.1173414    276.32494  0.033372577  0.033930094            2 
  691000    1.1175747   -7.0989183    276.36549  0.033329171  0.033923404            3 
  692000    1.1499801   -7.0531687    278.93974  0.033591009  0.033917031            1 
  693000      1.14738   -7.0620389    278.40453  0.033478178  0.033910582            1 
  694000    1.1590012   -7.0716133    278.96016  0.033496657   0.03390416            3 
  695000    1.1568829    -7.091387    278.33649   0.03337368  0.033897314            1 
  696000    1.1434764   -7.0717194    279.52041  0.033467482  0.033890446            1 
  697000      1.14363   -7.1059815    279.08456  0.033367356  0.033883747            4 
  698000    1.1453478   -7.0923456    280.09802  0.033440547  0.033877099            3 
  699000    1.1313598   -7.0912812    279.90839  0.033370099  0.033870639            3 
  700000    1.1155586   -7.0923454    281.61745  0.033525886  0.033863905            1 
  701000    1.1292696   -7.0315148    282.24205  0.033552312  0.033857338            1 
  702000    1.1580745   -7.0890539    281.23858  0.033385397  0.033850539            2 
  703000    1.1582495   -7.0669652    282.73837  0.033515691  0.033844307            2 
  704000    1.1320237   -7.0448546    282.25773  0.033411189    0.0338378            2 
  705000    1.1382683   -7.0804703    281.94223  0.033326505  0.033831063            1 
  706000    1.1321521   -7.0660473    282.88592  0.033390689  0.033824253            1 
  707000    1.1266061   -7.1097567    281.53015  0.033183657  0.033816746            2 
  708000    1.1513534   -7.1078722    282.65009  0.033268608  0.033809086            2 
  709000    1.1579041   -7.0858849    283.68458  0.033343274  0.033801758            3 
  710000    1.1100038   -7.1265004    283.28553  0.033249476  0.033794678            1 
  711000    1.1632274   -7.0792638    283.13162  0.033184672  0.033787289            2 
  712000    1.1344809   -7.0820677    284.23874  0.033267643  0.033780319            1 
  713000    1.1168696   -7.0821728    284.95656  0.033304881  0.033773355            2 
  714000    1.1146053   -7.0815508    286.36159  0.033422221  0.033766045            1 
  715000    1.1236081    -7.040293    286.39266  0.033379097  0.033759075            2 
  716000    1.1492357   -7.0931966    285.53909  0.033233135    0.0337521            3 
  717000    1.1323133   -7.1006903    286.29643  0.033274806  0.033745463            1 
  718000    1.1647119   -7.1209002    286.22061  0.033219662  0.033738049            3 
  719000    1.1343456   -7.0949148    286.58909  0.033216168  0.033730769            1 
  720000    1.1237693   -7.0801478    287.59034  0.033285919  0.033724051            2 
  721000    1.1043066   -7.0839663    287.28925  0.033204952  0.033717015            3 
  722000    1.1507483   -7.0867457    287.92712  0.033232585  0.033709713            1 
  723000    1.1322018   -7.1079011    287.09342  0.033090528  0.033702234            2 
  724000     1.135185   -7.0870091    288.43567  0.033199318  0.033694862            3 
  725000    1.1593976   -7.0938942    288.74076  0.033188593  0.033687416            2 
  726000    1.1269933   -7.1076043    288.51558  0.033117032  0.033679534            2 
  727000    1.1353437   -7.0907856    289.69075  0.033206184  0.033672192            1 
  728000    1.1306496   -7.0804188    290.23975  0.033223414  0.033664839            2 
  729000    1.1749618    -7.113552    289.68022  0.033113879  0.033657578            2 
  730000    1.1221513   -7.0839033    289.94466  0.033098705  0.033649987            1 
  731000    1.1404369   -7.0813067    290.43224   0.03310901   0.03364202            1 
  732000    1.1086133   -7.0800676    290.62677  0.033085926  0.033634067            1 
  733000    1.1123578   -7.1194421    290.84249  0.033065313   0.03362622            2 
  734000    1.1556581   -7.0939282    290.63305  0.032996486    0.0336181            3 
  735000    1.1468336   -7.1129573    291.48458  0.033048138  0.033609856            2 
  736000    1.1137618   -7.0869892    291.29709  0.032982007  0.033601832            1 
  737000    1.1360762   -7.0737415    292.53288  0.033076987  0.033593765            1 
  738000    1.1504656   -7.0303329    293.29484  0.033118207  0.033586086            2 
  739000    1.1452831   -7.0456948    293.75626  0.033125424  0.033578687            2 
  740000    1.1256687   -7.0990486    293.73817  0.033078623  0.033570687            2 
  741000    1.1416061   -7.1053822    293.88668  0.033050683  0.033563089            3 
  742000    1.1243475   -7.1053973    293.79546  0.032995896  0.033555433            3 
  743000    1.1197928   -7.1246711    294.64541  0.033046815  0.033547754            1 
  744000    1.0917499    -7.092357    294.77604   0.03301703  0.033539912            2 
  745000    1.1226604   -7.1062912    293.35044  0.032813248  0.033531862            2 
  746000    1.1201885   -7.1150157    294.52829  0.032900836  0.033523833            1 
  747000    1.1274458   -7.0650054    295.36664  0.032950316  0.033515941            1 
  748000    1.1552547   -7.1513315    295.07452  0.032873721    0.0335082            1 
  749000    1.1080954   -7.0641578    296.72478  0.033013438  0.033500682            2 
  750000    1.1164836   -7.1161677    297.05391   0.03300599  0.033493317            3 
  751000    1.1161376   -7.1541712    297.76407  0.033040842  0.033485969            3 
  752000    1.1327975   -7.1426291    296.14014  0.032816948  0.033478082            1 
  753000    1.1251977   -7.0912167    297.65239  0.032940725   0.03347011            1 
  754000    1.1132063    -7.050856    299.13933  0.033061376  0.033462145            3 
  755000    1.1406088   -7.1184789     298.4812  0.032944945  0.033453748            1 
  756000    1.1352452   -7.1104946     298.8898  0.032946407  0.033445451            1 
  757000    1.1367532   -7.1516282    298.38006   0.03284677  0.033437411            1 
  758000    1.1515942   -7.1047655    299.02202  0.032874013  0.033429632            2 
  759000    1.1206715   -7.1104415    299.70112  0.032905261  0.033422167            2 
  760000    1.1272283   -7.1317689    300.59756  0.032960259  0.033414886            1 
  761000    1.1222278   -7.0573083    301.55064  0.033021314  0.033407489            3 
  762000    1.1338404   -7.0961942    300.71235  0.032886302  0.033399828            4 
  763000    1.1481197   -7.1156693    301.06986  0.032882247  0.033391998            1 
  764000    1.1013396   -7.1485245    300.71548  0.032800554  0.033384113            4 
  765000    1.1594398   -7.0981066    302.57069   0.03295977  0.033376311            1 
  766000     1.143304   -7.1371454    300.97084  0.032742694  0.033368314            2 
  767000    1.1275495   -7.1512133       301.73  0.032782486  0.033359997            1 
  768000    1.1532434   -7.1005272    302.57495  0.032831484  0.033351973            1 
  769000    1.1198939   -7.1235491     302.6012  0.032791634  0.033343643            2 
  770000    1.1279281   -7.1323109    302.70705  0.032760504  0.033335511            1 
  771000    1.1237435   -7.0914128    304.13536  0.032872391    0.0333278            2 
  772000    1.1044416    -7.095134    303.68937  0.032781667  0.033319505            2 
  773000    1.1106536   -7.1377481    303.17848  0.032684183  0.033311063            1 
  774000    1.1457848   -7.1421348    303.69274  0.032697323    0.0333031            4 
  775000    1.1321391   -7.0885927    305.40206  0.032838931  0.033295265            2 
  776000    1.1031168    -7.122234     304.8641  0.032738843  0.033287618            4 
  777000    1.1261616   -7.1529242    304.97727  0.032708845  0.033279718            3 
  778000     1.118179   -7.1253326    305.17109  0.032687563  0.033271983            3 
  779000    1.1367475   -7.0584142    307.13528   0.03285572  0.033264318            1 
  780000    1.1349034   -7.1177479    306.33269  0.032727851  0.033256584            1 
  781000    1.1316919   -7.0953411     306.7316  0.032728511  0.033248618            2 
  782000    1.1282495   -7.1466836    307.13154  0.032729278  0.033240877            3 
  783000    1.1305732   -7.1303593    306.80822  0.032653067  0.033233183            2 
  784000    1.1103342   -7.0973381    308.18614   0.03275788   0.03322525            2 
  785000    1.1413125   -7.0583019    309.26327  0.032830496  0.033217454            4 
  786000    1.1102829   -7.1319336    309.30343  0.032792985  0.033209838            3 
  787000    1.1146215   -7.1167344    308.39216  0.032654824  0.033201986            1 
  788000    1.1319662   -7.0949328    308.69102  0.032644989  0.033194051            1 
  789000    1.1441512   -7.1089252    309.55769  0.032695151  0.033186291            2 
  790000    1.1157019   -7.1258787    309.15518  0.032611306  0.033178202            1 
  791000    1.1409715   -7.1235385    309.10078  0.032564347  0.033170017            6 
  792000    1.1335191   -7.1264784    309.64039  0.032580007  0.033161565            3 
  793000    1.1174796   -7.1387579    309.91304  0.032567575  0.033153229            2 
  794000    1.1399307   -7.1059676    310.86443  0.032626409  0.033145166            1 
  795000    1.1144205   -7.1020387    310.96612  0.032596029   0.03313672            2 
  796000    1.1174046    -7.098262    312.12498    0.0326764  0.033128361            1 
  797000    1.1226351   -7.1178016    311.16274  0.032534791  0.033120088            2 
  798000    1.1016717   -7.1458951    311.30605  0.032508986  0.033111656            2 
  799000      1.12774   -7.1216803    311.92128  0.032532466  0.033103627            3 
  800000    1.1213643   -7.0998842     310.9088  0.032386333  0.033095506            2 
  801000    1.1010662   -7.1426589     312.6561  0.032527684   0.03308772            2 
  802000     1.139164   -7.1171513    313.68119   0.03259364  0.033080004            3 
  803000    1.1196431    -7.136155     314.0958  0.032596077  0.033072458            1 
  804000    1.1218334    -7.133513    315.19459  0.032669423  0.033064732            2 
  805000    1.1453509    -7.138787    314.19575   0.03252544  0.033056618            1 
  806000    1.1082885   -7.1075472    314.48069  0.032514546  0.033048717            1 
  807000    1.1318744   -7.1446334      316.099  0.032641367   0.03304043            3 
  808000    1.1293502   -7.1399983    315.56021  0.032545402  0.033032336            2 
  809000    1.1139553   -7.1563727    315.26097  0.032474348  0.033024208            2 
  810000    1.1084865     -7.14913    315.42077  0.032450696  0.033015858            2 
  811000    1.1402981   -7.1633697    315.42995  0.032411627  0.033007563            1 
  812000    1.1208565   -7.1242732    317.20548  0.032553928  0.032999626            4 
  813000    1.1114522   -7.1186594    317.56064  0.032550291  0.032992169            2 
  814000    1.1151997   -7.1478698    317.37778  0.032491583  0.032984384            2 
  815000     1.127253   -7.1024898    318.11478  0.032527073  0.032976706            3 
  816000    1.1281955   -7.1860306    317.58773  0.032433388   0.03296924            2 
  817000     1.126365   -7.1321797    318.16641  0.032452715  0.032961763            2 
  818000    1.1237803   -7.1024055    319.85357  0.032584919  0.032954084            2 
  819000    1.1267944   -7.1093815     319.8422  0.032543977  0.032946707            2 
  820000    1.1301739    -7.101059    319.54445   0.03247403  0.032939371            2 
  821000    1.1231543   -7.1087453    319.88734  0.032469279  0.032931967            3 
  822000    1.1282684   -7.1400451    319.73443  0.032414277  0.032924248            1 
  823000    1.1072578   -7.0913968    321.46536  0.032550158  0.032916553            2 
  824000    1.0961756   -7.1711079    321.15516  0.032479284  0.032909098            2 
  825000    1.0914392   -7.1245652    321.36308  0.032460917  0.032901651            1 
  826000    1.1126381   -7.1124524    321.63479   0.03244903  0.032894282            2 
  827000    1.1056082   -7.1237112    322.12463  0.032459153  0.032886779            1 
  828000    1.1296833   -7.1292102      321.692  0.032376409  0.032879055            2 
  829000     1.129526   -7.1715402    322.25806  0.032394256  0.032871264            2 
  830000    1.1141084   -7.0949859    323.38245  0.032468118  0.032863532            2 
  831000    1.1089183   -7.1365216    322.33806  0.032324314  0.032856016            2 
  832000    1.1155522   -7.1574271    323.23951  0.032375752  0.032848068            1 
  833000     1.138128   -7.1024128    323.30195  0.032343132  0.032840563            2 
  834000     1.140398   -7.1280238    324.83052  0.032457086  0.032832822            2 
  835000    1.1330602   -7.1235751    325.45183  0.032480223  0.032824963            1 
  836000    1.1319592   -7.1242115    323.54479  0.032251275  0.032816967            3 
  837000    1.1167764   -7.1746168     325.0935  0.032366936   0.03280902            2 
  838000    1.1355771   -7.1214152    326.15695  0.032434064  0.032801039            2 
  839000    1.1173911   -7.1386669    325.91652  0.032371526  0.032793464            1 
  840000    1.1240372   -7.1219394    325.68203  0.032309725  0.032785654            2 
  841000    1.1043117   -7.1155021     326.1748  0.032320135  0.032777787            2 
  842000    1.1190981   -7.1400929    326.06904  0.032271283   0.03276985            1 
  843000    1.0978808   -7.1139355    327.20132  0.032344931  0.032762005            2 
  844000    1.1362686   -7.0985508    327.54811  0.032340848  0.032754089            2 
  845000    1.0989901   -7.1490641    326.72279  0.032221182   0.03274615            1 
  846000    1.1261051   -7.1737323    326.90537  0.032201081  0.032737965            2 
  847000    1.1551771   -7.1137939    327.10125  0.032182335  0.032730117            2 
  848000    1.1258167   -7.1565671    328.67221  0.032298762  0.032722303            2 
  849000    1.0996676   -7.1066851    329.03042   0.03229588  0.032714564            2 
  850000    1.1367097   -7.1267069    328.61491  0.032217148  0.032706625            1 
  851000    1.1229798    -7.112093    329.49287  0.032265263  0.032698424            1 
  852000    1.1092496   -7.1574615    328.51691  0.032131936  0.032690393            2 
  853000    1.1051582   -7.1030276    329.80399  0.032220007  0.032682117            4 
  854000    1.1203152   -7.2098624    329.14077  0.032117561   0.03267398            3 
  855000    1.1226573   -7.1322656    329.74526  0.032138915  0.032665736            2 
  856000    1.1269684   -7.1537932    330.96975  0.032220575  0.032657608            1 
  857000    1.1305362   -7.1161468    329.94367  0.032083204   0.03264963            2 
  858000    1.1281248   -7.1327142    331.30812  0.032178333  0.032641503            2 
  859000    1.1036722   -7.1377748    331.66806  0.032175791  0.032633551            2 
  860000    1.1305311   -7.1349966     331.1525  0.032088421  0.032625761            1 
  861000    1.1344455   -7.1458442    332.66994   0.03219802  0.032618066            2 
  862000    1.1154746   -7.1387577    331.86107   0.03208247  0.032610189            3 
  863000    1.1120691   -7.1035663    332.42302  0.032099558  0.032602334            1 
  864000    1.0886257   -7.1357147    332.45117  0.032065121  0.032594185            3 
  865000    1.1072184   -7.1498784    331.32256  0.031919321  0.032585547            2 
  866000    1.1187685   -7.1422564    332.85199  0.032029637  0.032577228            2 
  867000    1.1212318   -7.2128439    333.56429  0.032061158  0.032569131            5 
  868000    1.1068183   -7.1268368     333.9017  0.032056615  0.032561217            1 
  869000    1.1078056   -7.1379448    334.46721  0.032073956   0.03255326            2 
  870000    1.0856308   -7.1485173    335.57595   0.03214329  0.032545128            1 
  871000    1.0970915   -7.1291176    334.72471  0.032024943  0.032537021            2 
  872000    1.1178838   -7.1487996    334.60238  0.031976527  0.032528697            2 
  873000    1.1096841   -7.1569418    335.31753  0.032008164  0.032520401            1 
  874000    1.1148074   -7.1595916    335.43296  0.031982548  0.032512113            1 
  875000    1.1091002   -7.1463938    335.53454  0.031955671  0.032503955            2 
  876000    1.0772698   -7.1619966    335.78172  0.031942706  0.032495331            3 
  877000    1.0893812   -7.1369552    336.44417  0.031969229  0.032486982            3 
  878000    1.1204886   -7.1371872    336.55023  0.031942884  0.032478419            2 
  879000    1.1417273    -7.154976    336.23061  0.031876243  0.032469978            2 
  880000    1.1171526   -7.1284261     337.0226  0.031915019  0.032461475            1 
  881000     1.114182   -7.1220097    337.68168  0.031941135  0.032453075            2 
  882000    1.0965845   -7.1748482    336.46758  0.031790209  0.032444423            2 
  883000    1.1296736   -7.1679299    337.96817  0.031895825  0.032435693            2 
  884000    1.1000555   -7.1331297     338.5977   0.03191909  0.032427117            2 
  885000    1.1563487   -7.1695462    338.30733  0.031855681  0.032418504            1 
  886000     1.110121   -7.1217683    338.61486  0.031848652  0.032409718            3 
  887000    1.1186647   -7.1146098    338.59116  0.031810518  0.032401012            3 
  888000    1.1225495   -7.1518225    339.31891  0.031842991  0.032392287            2 
  889000    1.0911873   -7.1679486    338.82356  0.031760739  0.032383215            1 
  890000    1.1073329    -7.178037    339.33344  0.031772794  0.032373926            2 
  891000    1.1027699   -7.1627048    338.35043  0.031645196  0.032364789            1 
  892000    1.1131223   -7.1830085    340.56496  0.031816607  0.032355659            1 
  893000    1.1163267   -7.1785773    340.06081  0.031733932  0.032346676            2 
  894000    1.1103525   -7.1405442    341.00121  0.031786093  0.032338028            2 
  895000    1.1101098   -7.1408478    341.62013  0.031808206  0.032329449            2 
  896000    1.0972488    -7.176316    341.08417  0.031722858  0.032320755            2 
  897000    1.1084245   -7.1572318    342.01484  0.031773954  0.032311739            2 
  898000    1.1222879   -7.1622767    342.25416  0.031760779  0.032302987            1 
  899000    1.1122946   -7.1986644    342.67552  0.031764509   0.03229426            1 
  900000    1.0843698   -7.1445799     341.3736  0.031608666  0.032285294            2 
  901000    1.1238563   -7.1783807    342.90906  0.031715599  0.032276237            3 
  902000    1.1112285   -7.1758804    343.59287  0.031743613  0.032267347            1 
  903000    1.1071792   -7.1314641    343.21129  0.031673246  0.032258383            2 
  904000    1.0978585    -7.156761    343.52805  0.031667409  0.032249493            3 
  905000    1.1120571   -7.1597623    344.95925  0.031764203  0.032240544            1 
  906000     1.078336   -7.1423224    344.05483  0.031645955  0.032231712            3 
  907000    1.1126944   -7.1344623     345.0265   0.03170034  0.032222849            3 
  908000    1.1184222   -7.1200932    344.95653  0.031659006  0.032213768            1 
  909000    1.0971104   -7.1756308    343.56721  0.031496811  0.032204683            2 
  910000     1.112864   -7.1463168    345.72253  0.031659572  0.032195604            2 
  911000    1.0900524   -7.1599556    345.34573  0.031590352  0.032186449            2 
  912000    1.1240291   -7.1824172    345.02933  0.031526803   0.03217753            2 
  913000    1.1062412   -7.1808782    345.16787  0.031504917  0.032168208            2 
  914000    1.1099322   -7.1406647    347.39164  0.031673198  0.032158994            2 
  915000    1.1064626   -7.1278445    348.34971  0.031725839  0.032150351            1 
  916000     1.071196   -7.1090562    348.21888  0.031679301  0.032141766            1 
  917000    1.0836556   -7.1481139    347.12762  0.031545585  0.032133118            2 
  918000    1.0784659   -7.1615707    347.77949  0.031570397  0.032124242            5 
  919000    1.1129717   -7.1701546    349.32237   0.03167595  0.032115541            2 
  920000    1.1150415   -7.1393239    349.29104  0.031638681  0.032106855            3 
  921000    1.1116907   -7.1421172    349.11423   0.03158833  0.032097972            1 
  922000    1.0800642   -7.1833212    349.72279  0.031609073   0.03208933            3 
  923000    1.1159972   -7.1449133    349.38575  0.031544398  0.032080951            1 
  924000    1.1283559   -7.1232954    350.80354  0.031638126  0.032072702            3 
  925000    1.1060727   -7.1803294    350.39196  0.031566844  0.032064416            2 
  926000    1.1114034   -7.1785934    349.75155  0.031475121  0.032056127            3 
  927000    1.1306743   -7.1686819    351.01238  0.031554511   0.03204741            1 
  928000    1.1027587   -7.1504603    350.59321  0.031482867  0.032039124            1 
  929000    1.0971787   -7.1990313    351.10907  0.031495252  0.032030653            2 
  930000    1.0739744   -7.1423216    353.03633   0.03163408  0.032022456            1 
  931000    1.0777382   -7.1458203    352.28897  0.031533205  0.032014503            1 
  932000    1.1078023   -7.1530473    353.81016  0.031635386  0.032006555            3 
  933000    1.0765848   -7.1279583    353.53794  0.031577165  0.031998671            2 
  934000     1.081913   -7.1546504    353.68207  0.031556216  0.031990869            2 
  935000    1.1153579   -7.1564379    354.32951   0.03158017  0.031983144            2 
  936000    1.0840204     -7.19657    353.97495  0.031514864  0.031975147            1 
  937000    1.1012466    -7.157406    355.88697  0.031651278  0.031966961            2 
  938000    1.0973249   -7.2323118    354.53617  0.031497528  0.031959177            1 
  939000    1.1104861   -7.1675451    356.51821  0.031639883  0.031951367            2 
  940000    1.1284289   -7.1553112    356.03367  0.031563269  0.031943587            2 
  941000    1.0851112   -7.2109635    355.59305  0.031490706  0.031935501            2 
  942000    1.1163097   -7.1575772    356.46183  0.031534132  0.031927596            2 
  943000    1.0866846   -7.1435583    357.21114  0.031566909  0.031919931            3 
  944000    1.1141235   -7.1378109    357.37202  0.031547671  0.031912076            1 
  945000    1.0979143   -7.1787296    357.24521  0.031503105  0.031904341            1 
  946000    1.0980842   -7.2101915     356.6387  0.031416376  0.031896371            2 
  947000    1.0951386   -7.1623808    356.78962  0.031396482  0.031888287            2 
  948000    1.0862341    -7.165043    357.85848   0.03145732  0.031880259            2 
  949000    1.0796475   -7.1621287    357.88354  0.031426373  0.031872309            1 
  950000    1.1183226   -7.1613423    358.71578  0.031466296  0.031864271            1 
  951000    1.0703894   -7.1959457    358.91301  0.031450491  0.031856246            2 
  952000    1.0953898   -7.1602691    359.42995  0.031462706  0.031848448            1 
  953000    1.1172571     -7.18107      360.521  0.031525096  0.031840733            2 
  954000    1.1053749   -7.1620436    360.76914  0.031513727  0.031832786            3 
  955000    1.1002019   -7.1769911    359.83844  0.031399514   0.03182472            1 
  956000    1.0818761   -7.1774457    359.85357  0.031367989  0.031816547       -1e+20 
  957000    1.1118984   -7.1951303    358.52517  0.031219537   0.03180827            2 
  958000    1.0980075   -7.1733306     361.2622  0.031425035  0.031800226            2 
  959000    1.0983464   -7.1256993    360.49613  0.031325697  0.031792257            2 
  960000    1.0826239   -7.1979613    360.73523  0.031313822   0.03178425            2 
  961000    1.1212151   -7.1885176    361.52191  0.031349454  0.031776214            1 
  962000    1.0990919   -7.1767637    362.57612  0.031408188  0.031768295            1 
  963000    1.0844483   -7.1836261    362.64526  0.031381556  0.031760116            2 
  964000    1.0800692   -7.1503757     362.0642  0.031298773  0.031752146            2 
  965000    1.0737247   -7.1665386    362.68466  0.031319919  0.031744065            1 
  966000    1.0808869   -7.1444625    362.10025  0.031237082  0.031735881            2 
  967000    1.0798722   -7.2062404     362.3158  0.031223354    0.0317274            2 
  968000    1.0844894   -7.1757513     363.8436  0.031322624  0.031718871            1 
  969000     1.128613   -7.1604606    362.64553  0.031187266  0.031710359            1 
  970000    1.1042169   -7.1831817    363.25662  0.031207613  0.031701701            1 
  971000     1.082041   -7.1837398    363.15377  0.031166647  0.031693094            2 
  972000    1.0640456   -7.1840906    363.39113  0.031154932   0.03168442            2 
  973000    1.0737322   -7.1796182    364.09097  0.031182851  0.031675521            3 
  974000    1.1073533   -7.1186696    365.43541  0.031265864   0.03166687            1 
  975000    1.0677653   -7.2075924    364.72378  0.031172973  0.031657828            1 
  976000     1.074387   -7.1794482    364.37163  0.031110966  0.031648931            2 
  977000    1.0890552   -7.1975542    364.04635  0.031051377  0.031639981            2 
  978000    1.0845764   -7.1897954    365.09341  0.031108846  0.031630941            2 
  979000    1.0761828    -7.194321     365.4462  0.031107099  0.031622188            2 
  980000    1.0764557   -7.1473408    365.52158  0.031081767  0.031613091            2 
  981000    1.0907623   -7.1521761    365.20629    0.0310233  0.031604135            3 
  982000    1.0993092   -7.1955515    366.54632  0.031105424  0.031595135            2 
  983000    1.0846703   -7.1823274    366.73525  0.031089797  0.031586202            2 
  984000    1.0813082   -7.1649246    367.28284  0.031104577  0.031577365            2 
  985000    1.0843147   -7.1438963    368.11108  0.031143069  0.031568894            2 
  986000    1.1244547   -7.2119681    367.93556   0.03109665  0.031560495            3 
  987000    1.0999402   -7.1767121    369.48558  0.031196013  0.031551881            1 
  988000    1.0618132    -7.196794    367.70982  0.031014661  0.031543277            1 
  989000    1.0754485   -7.1704612    370.11631  0.031186072  0.031534575            4 
  990000    1.0996794   -7.1531287    369.89086  0.031135594  0.031526421            2 
  991000    1.0800838   -7.1943771    369.91178  0.031105935  0.031518074            2 
  992000    1.0615163   -7.2119552    370.05852  0.031086905  0.031509742            1 
  993000    1.0855582   -7.2268965    368.56501  0.030930263  0.031501351            2 
  994000    1.1005917   -7.1930754    369.19211  0.030951719   0.03149295            2 
  995000    1.0883665   -7.1868739     369.9639  0.030985251  0.031484758            1 
  996000    1.1061877   -7.2112502    370.97991  0.031039149  0.031476308            2 
  997000    1.0899167   -7.2205127     370.2621  0.030948019  0.031467839            2 
  998000    1.0953349    -7.194345    372.66811  0.031117912  0.031459439            1 
  999000    1.0885046   -7.2010079    371.44672  0.030984878   0.03145105            2 
 1000000    1.1078525   -7.1806066    372.79484  0.031066237  0.031442663            1 
 1001000     1.123766   -7.1704777    372.86016  0.031040639  0.031434519            3 
 1002000    1.1011808   -7.1861043    374.01684  0.031105858  0.031426486            2 
 1003000    1.0774191   -7.1890757    372.16202  0.030920739  0.031418098            1 
 1004000    1.0888877   -7.1792438    372.17901  0.030891352  0.031409544            2 
 1005000    1.0929753   -7.2382504     372.0933  0.030853507  0.031400951            2 
 1006000    1.0840609   -7.1983889     373.5813  0.030946098  0.031392368            2 
 1007000    1.0844326    -7.198905    374.34665  0.030978704  0.031384038            2 
 1008000     1.087488   -7.2067435    374.29704  0.030943869  0.031375706            1 
 1009000     1.100562   -7.2140053    374.76186  0.030951591   0.03136748            2 
 1010000    1.0802726   -7.2073154    373.98498  0.030856846   0.03135929            1 
 1011000    1.0946322   -7.2091773    374.60413   0.03087736  0.031350956            1 
 1012000    1.0738516   -7.1960545    374.01858  0.030798631  0.031342448            2 
 1013000     1.103581   -7.1803722    374.70626  0.030824799  0.031333983            2 
 1014000    1.1028044   -7.2003372     375.9237  0.030894453  0.031325398            3 
 1015000    1.0693608   -7.2183338    376.43683  0.030906143  0.031316986            1 
 1016000    1.1136626   -7.2169075    375.81724  0.030824905  0.031308482            2 
 1017000    1.0773693   -7.2145444    376.14321  0.030821305  0.031299895            2 
 1018000    1.0907717   -7.1815006    378.00994  0.030943839  0.031291295            2 
 1019000    1.0628247   -7.2163178    376.02697  0.030751306  0.031282811            2 
 1020000     1.110751   -7.2024412    377.52865  0.030843844  0.031274064            4 
 1021000    1.0928803    -7.245267    376.53261  0.030732339  0.031265581            3 
 1022000    1.1337996   -7.1796716    379.11965  0.030913214  0.031257065            2 
 1023000    1.0792566   -7.2165556    378.78878  0.030856042  0.031248898            2 
 1024000     1.085998   -7.1878438    379.45693  0.030880284  0.031240529            2 
 1025000    1.1070526   -7.2125493    379.37164  0.030843222  0.031232302            1 
 1026000    1.0774954   -7.2434841      379.521  0.030825293  0.031224189            1 
 1027000    1.0887757   -7.1898084    380.76298  0.030896055  0.031215861            2 
 1028000    1.0784681   -7.2262335    380.62325  0.030854673  0.031207676            2 
 1029000    1.0678819   -7.1859457    381.18566  0.030870235  0.031199832            2 
 1030000    1.0793765   -7.1975806    382.21778  0.030923768   0.03119204            2 
 1031000    1.0850501   -7.1762289    381.56019  0.030840623  0.031184001            1 
 1032000      1.05727   -7.1851546    380.51074  0.030725996  0.031175916            2 
 1033000    1.0636386   -7.2213275    381.88968  0.030807493  0.031167972            1 
 1034000    1.0830038   -7.2576509    381.24071  0.030725395  0.031159991            2 
 1035000    1.0877017   -7.1952255    382.64791  0.030809011  0.031152174            1 
 1036000    1.0573545   -7.1786554    383.07421  0.030813562  0.031144451            2 
 1037000    1.0709737   -7.1665317    383.17485  0.030791936    0.0311368            2 
 1038000     1.090369    -7.149035    385.39941  0.030940865  0.031128973            3 
 1039000    1.0933281   -7.1712095    384.70202  0.030855151  0.031121355            3 
 1040000    1.0638848   -7.2065796    383.62471  0.030739159   0.03111363            5 
 1041000    1.0816681   -7.2149315     384.1389  0.030750792   0.03110566            4 
 1042000     1.072386   -7.1855178    384.14566  0.030721822   0.03109764            1 
 1043000    1.0955997   -7.2048062    385.33507  0.030787398  0.031089691            1 
 1044000    1.0904308    -7.150943    386.07055  0.030816615  0.031081948            2 
 1045000    1.0898761   -7.1856115    385.80563  0.030765999  0.031074422            4 
 1046000    1.0788532   -7.1489118    387.59815  0.030879394  0.031066956            2 
 1047000    1.0771951   -7.2210571    388.41527  0.030914937  0.031059513            1 
 1048000     1.075299   -7.1353718    389.18132  0.030946351  0.031052238            2 
 1049000    1.1135892   -7.1925043    387.77033  0.030804761  0.031045385            2 
 1050000     1.062183   -7.2119808    389.80992  0.030937295  0.031038102            2 
 1051000    1.0753956   -7.2204199    388.62936  0.030814253  0.031030843            2 
 1052000    1.0596811   -7.2096057    388.75198  0.030794675  0.031023671            1 
 1053000    1.0844713   -7.2336296    388.86232  0.030774162  0.031016519            2 
 1054000    1.0813097   -7.1977062    390.11921   0.03084434  0.031009563            3 
 1055000    1.0554704   -7.2169631    391.28736  0.030907375  0.031002609            1 
 1056000    1.0659191   -7.2038018    390.66566  0.030829045  0.030995737            1 
 1057000    1.0980241   -7.2035998    392.19769  0.030920663  0.030988826            3 
 1058000    1.0679737   -7.1868087    391.02977  0.030799446  0.030982056            2 
 1059000    1.0603028   -7.1994517     391.3181  0.030793051  0.030975197            3 
 1060000    1.0635994   -7.2324351    390.70041  0.030715441  0.030968344            2 
 1061000    1.0665539   -7.1937499    391.30127  0.030733685  0.030961467            1 
 1062000     1.076501   -7.2266329    392.50787  0.030799425  0.030954456            2 
 1063000    1.0845571   -7.1984493    392.25285  0.030750459  0.030947548            2 
 1064000    1.1043667   -7.1915437    393.29773  0.030803393  0.030940695            1 
 1065000    1.0812805   -7.2065146    393.46601  0.030787638  0.030933627            2 
 1066000    1.0776895   -7.2261948    391.92536  0.030638318  0.030926364            1 
 1067000    1.0739969    -7.203586    392.95546  0.030690055  0.030919012            2 
 1068000    1.0922632   -7.2199875    393.23579  0.030683192  0.030911821            2 
 1069000     1.057899   -7.2021792    394.31193  0.030738379  0.030904626            2 
 1070000    1.0745796   -7.2157559    393.09271  0.030614697  0.030897446            2 
 1071000    1.0964097   -7.1719388    395.63782  0.030784144  0.030890299            4 
 1072000    1.1068549   -7.2319962    394.94712  0.030701735  0.030883118            3 
 1073000    1.1038818   -7.2426405    395.52078  0.030717675  0.030876137            2 
 1074000    1.0696333   -7.2471348    394.85694  0.030637565  0.030869194            2 
 1075000    1.1038572    -7.173053    397.01917   0.03077668  0.030862312            1 
 1076000    1.0875503   -7.2040141    395.96226  0.030666222   0.03085546            2 
 1077000    1.0950195   -7.1974815    396.84889  0.030706352  0.030848373            2 
 1078000    1.0846515   -7.2055172    397.31014  0.030713524   0.03084139            1 
 1079000    1.0839011   -7.2281035    395.66902  0.030558312  0.030834265            3 
 1080000    1.0617363   -7.1775964    397.84325  0.030697781  0.030827211            3 
 1081000    1.1017299   -7.2166573    396.55723  0.030570246  0.030820143            3 
 1082000    1.0596292   -7.2307526    397.22553  0.030593463  0.030812873            1 
 1083000    1.0695046   -7.2317381    398.19945  0.030640155  0.030805799            1 
 1084000    1.0656405   -7.2146477    398.93593  0.030668506  0.030798708            2 
 1085000    1.0752893    -7.202785    399.04784  0.030648835   0.03079184            2 
 1086000    1.0715109   -7.2501861    398.44974  0.030574719    0.0307847            1 
 1087000     1.072961    -7.229659    398.64184  0.030561318  0.030777569            1 
 1088000    1.0603904   -7.2371485    400.08673  0.030643898  0.030770654            2 
 1089000    1.0921169   -7.2345776    400.29235  0.030631493  0.030763659            1 
 1090000     1.106171   -7.2370093    400.17109   0.03059412  0.030756643            2 
 1091000    1.0503278   -7.2671564    400.79511  0.030613742  0.030749608            1 
 1092000    1.0843518   -7.2233714    400.68976  0.030577668  0.030742771            2 
 1093000    1.0731042   -7.2371465    401.33022  0.030598523  0.030735828            1 
 1094000    1.0912917   -7.2489426    400.83826  0.030533079  0.030728879            2 
 1095000    1.0660385   -7.2530599    400.75126  0.030498574  0.030721862            2 
 1096000    1.0614309   -7.2009648    402.11964   0.03057479  0.030714989            2 
 1097000    1.0715829    -7.237188    402.69491  0.030590619  0.030708077            1 
 1098000    1.0750833   -7.2557066     402.3409  0.030535891  0.030701081            2 
 1099000    1.0650367   -7.2593115    401.66677  0.030456989  0.030694074            2 
 1100000    1.0737458   -7.2390843    403.61899  0.030577196  0.030687081            1 
 1101000    1.0818156   -7.2334741    402.67029  0.030477618   0.03068018            1 
 1102000    1.0831353   -7.1953287    404.13151  0.030560459  0.030673154            2 
 1103000    1.0694741   -7.2462778    402.78598  0.030431096  0.030665958            3 
 1104000    1.0712085   -7.2044189    404.26711  0.030515332  0.030658898            1 
 1105000    1.0806643   -7.2361611     405.0112  0.030543831  0.030651851            3 
 1106000    1.1029888   -7.2154841    404.33926  0.030465586  0.030644941            2 
 1107000     1.092317   -7.2388061    403.87312  0.030402975   0.03063796            2 
 1108000    1.0826141   -7.2237566    404.41549  0.030416328  0.030630797            1 
 1109000    1.0888971   -7.2427507    404.09249   0.03036463  0.030623525            1 
 1110000    1.0962758    -7.240478    404.91933  0.030399349  0.030616238            1 
 1111000    1.0838124    -7.243525    405.03868  0.030380939  0.030609047            1 
 1112000    1.0631857   -7.2399493    405.13577  0.030360894  0.030601806            1 
 1113000    1.0865547   -7.2443283    406.23804  0.030416146  0.030594732            6 
 1114000    1.0779522    -7.229193    406.93419  0.030440918  0.030587738            1 
 1115000    1.0702204   -7.2356199    406.57688  0.030386912  0.030580796            3 
 1116000    1.0642277   -7.2058989    406.23278  0.030333989  0.030573512            2 
 1117000    1.0728667   -7.2355074    406.27293  0.030309828   0.03056611            1 
 1118000      1.06816   -7.2334892    406.68048  0.030313095  0.030558762            2 
 1119000    1.0792424   -7.2247924    406.93302  0.030304812  0.030551287            4 
 1120000     1.076168    -7.239976    407.41646  0.030313724  0.030543956            2 
 1121000    1.0721892   -7.2520433    407.37054   0.03028327  0.030536623            1 
 1122000    1.0634078   -7.2259944    408.32572  0.030327222  0.030529275            2 
 1123000    1.0686042   -7.2583497    407.39027  0.030230801  0.030521755            1 
 1124000    1.0712286   -7.2336168    408.20415  0.030264246  0.030514378            2 
 1125000    1.0429833   -7.2616648    408.71858   0.03027545  0.030507009            1 
 1126000    1.0932211   -7.2305934    410.07426  0.030348894  0.030499803            2 
 1127000    1.0771512   -7.2370758    408.75992   0.03022478  0.030492517            1 
 1128000    1.0781632   -7.2369731     409.1374  0.030225872  0.030485132            1 
 1129000    1.0821558   -7.2290982    409.33997  0.030214051  0.030477845       -1e+20 
 1130000    1.0852795   -7.2459199    410.23369  0.030253222  0.030470687            1 
 1131000    1.0595351   -7.2189642    411.04697  0.030286396  0.030463587            1 
 1132000    1.0698725   -7.2407621    411.21463  0.030271984  0.030456529            1 
 1133000     1.057853   -7.2636358    411.22603  0.030246104  0.030449427            1 
 1134000    1.0812235     -7.22504    411.89946   0.03026892  0.030442434            2 
 1135000    1.0724036   -7.2412281    411.29896  0.030198161  0.030435402            4 
 1136000    1.0591385   -7.2309284    413.66839  0.030345393  0.030428422            3 
 1137000      1.07109   -7.2220341    414.55084   0.03038338  0.030421359            1 
 1138000    1.0705347   -7.2266215    414.09609  0.030323381  0.030414535            2 
 1139000    1.0687977    -7.210041    413.10643  0.030224351  0.030407627            2 
 1140000    1.0854891   -7.2726726    413.66031  0.030238326  0.030400613            2 
 1141000    1.0733317   -7.2667208    413.15296   0.03017477  0.030393559            3 
 1142000    1.0636266   -7.2270449    413.11225  0.030145377  0.030386459            3 
 1143000    1.0462687   -7.2424378    412.93565  0.030106128  0.030379253            2 
 1144000    1.0877819   -7.2437899    414.79189  0.030215027  0.030371909            1 
 1145000    1.0532375   -7.2472507    413.67319  0.030107219  0.030364712            1 
 1146000    1.0467466   -7.2601132    414.55627  0.030145162  0.030357377            1 
 1147000    1.0700622   -7.2660593    414.17052  0.030090854  0.030349921            2 
 1148000    1.0731523   -7.2305779    415.09199  0.030131532  0.030342654            3 
 1149000    1.0723498   -7.2371919    414.29074  0.030047196  0.030335493            2 
 1150000    1.0702498   -7.2683734    415.12796  0.030081736  0.030328126            1 
 1151000    1.0705986   -7.2235586    415.08294  0.030052341  0.030320703            2 
 1152000     1.069591   -7.2699391    413.84496  0.029936701   0.03031308            1 
 1153000    1.0650373   -7.2606812    414.35667  0.029947721  0.030305285            3 
 1154000    1.0644321   -7.2483736    415.63635  0.030014179  0.030297522            2 
 1155000    1.0956395   -7.2393224     416.0901  0.030020931  0.030289809            2 
 1156000    1.0725788   -7.2368389    415.96169  0.029985704  0.030282334            3 
 1157000    1.0472285   -7.2634074    416.41082  0.029992136  0.030274792            1 
 1158000    1.0951076   -7.2458673    416.45355  0.029969311   0.03026738            3 
 1159000    1.0540271   -7.2083396    418.24956  0.030072589  0.030259757            3 
 1160000    1.0678721   -7.2328848    420.20681  0.030187271  0.030252514            2 
 1161000    1.0694754   -7.2627483    418.53428   0.03004122  0.030245229            2 
 1162000    1.0767326   -7.2310293    419.25396   0.03006698  0.030237864            2 
 1163000    1.0722859   -7.2284228    420.20376  0.030109183  0.030230659            2 
 1164000    1.0697821   -7.2401639    420.33902     0.030093  0.030223496            2 
 1165000    1.0763072   -7.2534918    420.21774  0.030058494  0.030216358            2 
 1166000    1.0727904   -7.2477297    420.09762  0.030024129  0.030209494            2 
 1167000     1.058508   -7.2286088    422.77569  0.030189638  0.030202603            3 
 1168000    1.0804085   -7.1688622    422.44981   0.03014054  0.030195845            2 
 1169000    1.0605534   -7.2808516    422.17364   0.03009507  0.030189109            2 
 1170000     1.079115   -7.2105385    422.40148  0.030085575  0.030182281            2 
 1171000    1.0747508   -7.2590859    422.54579  0.030070153  0.030175459            1 
 1172000    1.0567252   -7.2455044    423.05305  0.030080564   0.03016852            2 
 1173000     1.072371   -7.2562243    423.03338  0.030053522  0.030161639            2 
 1174000    1.0567862   -7.2462759    423.96674  0.030094175  0.030154863            3 
 1175000    1.0758205   -7.2195453    423.93882  0.030066583  0.030147991            1 
 1176000    1.0561426   -7.2553238    423.50468  0.030010252  0.030141209            1 
 1177000     1.075733   -7.2745911    423.52903  0.029986479  0.030134253            1 
 1178000     1.067191   -7.2585055    423.79948  0.029980156  0.030127348            1 
 1179000    1.0728707   -7.2525573    423.56502  0.029938155  0.030120315            2 
 1180000    1.0651249   -7.2263601    424.22688  0.029959525  0.030113289            2 
 1181000    1.0715894   -7.1949013     425.4919  0.030023419  0.030106293            3 
 1182000    1.0680844   -7.2700917    423.92749  0.029887725  0.030099093            1 
 1183000     1.085547   -7.2656814    423.11578  0.029805281  0.030091784            2 
 1184000    1.0536225   -7.2616887    424.34665  0.029866741  0.030084426            1 
 1185000    1.0588497   -7.2423516    423.81843   0.02980439  0.030076995            3 
 1186000    1.0479511   -7.2235263    425.25417  0.029880141  0.030069569            1 
 1187000    1.1112457   -7.2788493    423.71924  0.029747208  0.030062083            2 
 1188000    1.0592538   -7.2624602    424.41162  0.029770737  0.030054432            1 
 1189000    1.0779936   -7.2784217    424.94171   0.02978285  0.030046725            2 
 1190000    1.0664089   -7.2812907    426.18608  0.029844963   0.03003933            3 
 1191000    1.0744999   -7.2654727    424.54582  0.029705137  0.030031602            2 
 1192000    1.0355137    -7.239413    426.95953  0.029848961  0.030023989            1 
 1193000    1.0663503   -7.2900316    424.89379  0.029679645  0.030016328            2 
 1194000      1.06203   -7.2906145    425.75991  0.029715237  0.030008365            3 
 1195000     1.065181   -7.2409753    427.23692   0.02979337  0.030000512            2 
 1196000    1.0775392   -7.2630638    427.13563  0.029761401  0.029992997            1 
 1197000    1.0542464   -7.2727192    426.52081  0.029693735  0.029985278            1 
 1198000    1.0523966   -7.2281747    425.30938  0.029584681  0.029977483            1 
 1199000    1.0580295   -7.2429447    427.91941   0.02974141  0.029969816            1 
 1200000    1.0522648   -7.2597323    426.27946   0.02960274  0.029962026            1 
 1201000    1.0686177   -7.3098145    425.05583  0.029493189  0.029954022            2 
 1202000    1.0661535   -7.2590339    427.18192  0.029616051  0.029946171            2 
 1203000    1.0703488   -7.2385354    428.04184     0.029651  0.029938323            2 
 1204000    1.0538958   -7.2779792    426.74469  0.029536593  0.029930389            3 
 1205000     1.080353   -7.2781629     429.1525  0.029678596  0.029922401            3 
 1206000    1.0836399   -7.2579314    429.73504   0.02969424  0.029914555            1 
 1207000    1.0628574   -7.2504921    426.84792  0.029470306  0.029906759            3 
 1208000    1.0639218   -7.2857749     428.3309  0.029548213  0.029898702            1 
 1209000    1.0494905   -7.2594063     428.3067  0.029522105  0.029890632            1 
 1210000    1.0419448   -7.2702407    427.70382  0.029456186  0.029882313            2 
 1211000    1.0357709   -7.2655508    428.24725  0.029469257  0.029874064            3 
 1212000    1.0563776   -7.2674312    430.09266  0.029571828  0.029865876            2 
 1213000    1.0832115   -7.2752466     430.4188  0.029569855  0.029858005            2 
 1214000    1.0399964   -7.2497855    430.58928    0.0295572  0.029850019            2 
 1215000    1.0463514   -7.2206502    430.03954  0.029495167  0.029842037            5 
 1216000    1.0585919   -7.2691148    430.72293  0.029517745  0.029833978            1 
 1217000     1.050595   -7.2734031     430.6957  0.029491626  0.029825881            1 
 1218000    1.0550314   -7.2679964    431.25369  0.029505589  0.029817887            1 
 1219000    1.0476343   -7.2800463    430.90909  0.029457827  0.029809893            1 
 1220000    1.0568462   -7.2698625    432.24372  0.029524844  0.029801788            2 
 1221000    1.0540849   -7.2552934    431.71319  0.029464455  0.029793901            5 
 1222000    1.0519775   -7.2691954     431.9029   0.02945328  0.029785831            4 
 1223000    1.0499761   -7.2565987     431.4559   0.02939874  0.029777832            3 
 1224000     1.087122   -7.2604599     433.6274  0.029522563    0.0297698            1 
 1225000    1.0546831   -7.2639645    432.35339  0.029411795  0.029761825            1 
 1226000    1.0639951   -7.2937719    432.96367  0.029429287  0.029753977            2 
 1227000    1.0382232   -7.2811542    433.08375  0.029413457  0.029746017            3 
 1228000    1.0669125   -7.2786868    433.36718  0.029408739  0.029737967            1 
 1229000     1.046761    -7.289008    433.95695    0.0294248  0.029730139            2 
 1230000    1.0604746   -7.2983303    433.33948  0.029359044  0.029722215            1 
 1231000     1.043726   -7.2695902    434.58556  0.029419548  0.029714266            2 
 1232000    1.0684296   -7.2413638    435.05248  0.029427251  0.029706465            4 
 1233000    1.0515942   -7.2781961    434.77745  0.029384797  0.029698511            5 
 1234000    1.0555923   -7.2941183    434.87465  0.029367548   0.02969059            1 
 1235000    1.0528911   -7.2718931    435.86929  0.029410884   0.02968264            1 
 1236000    1.0500063   -7.2828986    436.07413  0.029400898  0.029675052            1 
 1237000    1.0402757   -7.2531311    436.43981  0.029401765  0.029667327            3 
 1238000    1.0491708     -7.32714    435.67043  0.029326227  0.029659636            2 
 1239000     1.052686    -7.315648     435.3724  0.029282513  0.029651831            7 
 1240000    1.0391956   -7.2626059    436.50099  0.029334744   0.02964402            2 
 1241000    1.0524736   -7.2904799    436.64873  0.029321027   0.02963628            5 
 1242000    1.0690639   -7.3154636    437.65065  0.029364644  0.029628386            2 
 1243000    1.0211894   -7.2308412    437.91159  0.029358513  0.029620675            3 
 1244000    1.0361207   -7.3031538    438.45213  0.029371123  0.029612866            1 
 1245000    1.0562175   -7.2876806    438.68485  0.029363109  0.029605278            2 
 1246000     1.041395   -7.2586387    439.53638  0.029396494  0.029597745            1 
 1247000     1.033232   -7.2612941    439.49332  0.029370043   0.02959014            2 
 1248000    1.0684939   -7.2855984    439.13945   0.02932288  0.029582324            2 
 1249000    1.0441307    -7.253365    439.83675  0.029345927  0.029574653            1 
 1250000    1.0483849   -7.2707929    439.37831  0.029291887  0.029566994            1 
 1251000    1.0838158    -7.249897    440.92261  0.029371344  0.029559395            2 
 1252000    1.0506887   -7.3437632    439.67353  0.029264745  0.029551694            2 
 1253000    1.0516916   -7.2636047    441.24355  0.029345807  0.029544074            3 
 1254000    1.0455454   -7.2860708    442.04739  0.029375823  0.029536541            2 
 1255000    1.0324933   -7.2986673    440.92533   0.02927791  0.029528957            2 
 1256000    1.0586462   -7.2916114    442.12852  0.029334429  0.029521408            4 
 1257000    1.0374603   -7.2470444    442.27367  0.029320716  0.029513933            5 
 1258000    1.0270333   -7.3512803    441.85893  0.029269934  0.029506364            4 
 1259000    1.0453052    -7.276415    442.15018  0.029265964   0.02949879            2 
 1260000    1.0273419   -7.3230304    442.45339   0.02926279  0.029491376            3 
 1261000    1.0521656   -7.3189867    441.65023  0.029186507  0.029483761            3 
 1262000    1.0719332   -7.2858093    444.75191  0.029368193  0.029476295            3 
 1263000    1.0570781   -7.2990772    444.60819  0.029335458  0.029468948            2 
 1264000    1.0575273   -7.3142931    443.21976  0.029220712  0.029461425            1 
 1265000    1.0340243   -7.2697794    445.04221  0.029317668  0.029454039            3 
 1266000    1.0464199   -7.3146121     443.6985  0.029206062   0.02944657            3 
 1267000    1.0469325   -7.2841034    444.02415  0.029204429   0.02943919            2 
 1268000     1.053145   -7.2981009    446.10908   0.02931842   0.02943204            4 
 1269000    1.0511785   -7.3109354    443.80858  0.029144246  0.029424767            1 
 1270000     1.059526   -7.2312364    446.78787  0.029316789  0.029417614            2 
 1271000    1.0655234   -7.2623368    446.36162  0.029265776  0.029410545            1 
 1272000    1.0754909   -7.2862301    446.90901   0.02927863  0.029403486            1 
 1273000    1.0448921   -7.2718677     446.5895  0.029234715  0.029396194            1 
 1274000    1.0285872   -7.2996849    444.94556  0.029104236  0.029388832            2 
 1275000    1.0353718   -7.2760445    447.91494  0.029275486  0.029381422            2 
 1276000    1.0669633   -7.3003524    447.49666  0.029225226  0.029374222            1 
 1277000    1.0167015   -7.2998834    446.94145  0.029166109  0.029366821            1 
 1278000    1.0346597   -7.2591706    447.73771  0.029195208  0.029359588            2 
 1279000    1.0619296    -7.287774    448.07657   0.02919446  0.029352325            4 
 1280000    1.0591689    -7.255114    448.35417  0.029189724  0.029345043            6 
 1281000    1.0429854   -7.2689344    449.17425  0.029220287  0.029337867            2 
 1282000     1.021489   -7.2946283    448.45862  0.029150976  0.029330617            2 
 1283000     1.060764   -7.2943895    448.10761  0.029105457  0.029323202            5 
 1284000    1.0453486   -7.2880757    447.87089  0.029067425  0.029315653            2 
 1285000    1.0476184   -7.3032442    448.51894  0.029086832  0.029308032            1 
 1286000    1.0563352    -7.285689    448.27804  0.029048603  0.029300477            1 
 1287000    1.0340965   -7.3130801    447.22858  0.028958079   0.02929287            3 
 1288000    1.0486714   -7.2384807    448.33626  0.029007263  0.029285274            2 
 1289000    1.0618849   -7.2584049    448.88932  0.029020515   0.02927771            2 
 1290000    1.0469923   -7.2729194    448.96002  0.029002585  0.029270021            2 
 1291000    1.0657968   -7.2989386    449.87487  0.029039173  0.029262413            1 
 1292000    1.0416629   -7.2942099    449.09697  0.028966523  0.029254852            1 
 1293000    1.0405419   -7.2763092    451.56764  0.029103354  0.029247312            4 
 1294000    1.0272777   -7.2881411    451.45378   0.02907353  0.029239737            1 
 1295000    1.0503203   -7.2963607     451.2034  0.029034968  0.029232236            1 
 1296000    1.0603875   -7.2873156    450.34584  0.028957423  0.029224799            1 
 1297000      1.03936   -7.3221351     449.9236  0.028907967  0.029217265            2 
 1298000    1.0525568    -7.314688    452.14222  0.029028134  0.029209589            2 
 1299000    1.0339014   -7.2874714    451.63384  0.028973174  0.029201939            5 
 1300000    1.0317254   -7.2838514    453.09103  0.029044297   0.02919457            1 
 1301000    1.0186011   -7.3046101    451.81434  0.028940196  0.029186947            2 
 1302000    1.0273958   -7.3026454    452.26127  0.028946574  0.029179148            7 
 1303000    1.0318841    -7.291696    452.66912  0.028950443  0.029171274            1 
 1304000    1.0349096   -7.2752929    452.62338  0.028925318  0.029163319            2 
 1305000    1.0355968   -7.3087399    451.56218  0.028835388   0.02915529            2 
 1306000    1.0594628   -7.3098692    452.23261  0.028856088  0.029147175            2 
 1307000    1.0483806   -7.3252358    451.15771  0.028765475  0.029139169            2 
 1308000    1.0058541   -7.2907274    453.23198  0.028875636  0.029131148            4 
 1309000    1.0551785   -7.2805457    453.27958  0.028856607  0.029123261            1 
 1310000    1.0637262   -7.2990663    453.23932  0.028832018  0.029115443            2 
 1311000    1.0274655   -7.3058019    453.21874  0.028808717  0.029107572            3 
 1312000    1.0355621   -7.3196278    453.54116  0.028807238  0.029099785            1 
 1313000    1.0347707   -7.3262456    453.87415  0.028806433  0.029092004            5 
 1314000    1.0265548   -7.3129077    454.29223  0.028811024  0.029084186            1 
 1315000    1.0573215   -7.3048801     454.7617  0.028818866   0.02907636            1 
 1316000    1.0411535    -7.315743    455.61866  0.028851232  0.029068492            2 
 1317000    1.0488197   -7.3471094    454.91692  0.028784923   0.02906066            2 
 1318000    1.0428184   -7.2970554     455.6607   0.02881011  0.029052784            2 
 1319000    1.0455098   -7.2951609    455.44469   0.02877462  0.029045144            1 
 1320000    1.0352494   -7.3400075    454.86891  0.028716472  0.029037432            3 
 1321000    1.0373246   -7.3074082    456.87636   0.02882137  0.029029647            2 
 1322000    1.0362936   -7.3264276    455.97645  0.028742842  0.029021952            2 
 1323000    1.0297108   -7.2841827    456.89722  0.028779114  0.029014339            3 
 1324000    1.0440838   -7.2876696    456.76159  0.028748842  0.029006791            2 
 1325000    1.0249226   -7.2713497    458.27929  0.028822597  0.028999232            3 
 1326000    1.0427182   -7.3081344    457.37437   0.02874399  0.028991632            1 
 1327000    1.0542321   -7.2705914    458.28438  0.028779476  0.028984177            3 
 1328000    1.0343126   -7.3314479    457.73015  0.028723027  0.028976515            3 
 1329000    1.0086273   -7.3115434    457.95862   0.02871574  0.028968879            3 
 1330000    1.0380084   -7.3186211    457.81903  0.028685403  0.028961241            2 
 1331000    1.0420877   -7.3522162     458.8633  0.028729233  0.028953605            1 
 1332000    1.0513036   -7.3135704    457.42412  0.028617625  0.028945795            1 
 1333000    1.0463845   -7.2966188     459.2763  0.028711946  0.028938126            2 
 1334000    1.0356075   -7.3196818    458.35366  0.028632787  0.028930299            2 
 1335000    1.0399082    -7.307134    459.27685  0.028668967  0.028922541            1 
 1336000    1.0077101   -7.2750304    461.36146  0.028777536  0.028915027            3 
 1337000    1.0423021   -7.2935472    459.98343  0.028670121  0.028907494            2 
 1338000    1.0227639     -7.28638    461.55234  0.028746409  0.028899984            2 
 1339000    1.0475452   -7.3387994     460.7206  0.028673177  0.028892441            5 
 1340000    1.0186873   -7.3179835     461.3173  0.028688887   0.02888495            3 
 1341000    1.0518698   -7.3093744    461.96745  0.028707895  0.028877566            1 
 1342000    1.0428292   -7.3319446    462.21849  0.028702092  0.028870169            4 
 1343000    1.0085474   -7.3067314    462.53977  0.028700656  0.028862897            2 
 1344000    1.0218691   -7.2727462    463.82834  0.028759198  0.028855731            2 
 1345000    1.0337904   -7.2944531    462.37129   0.02864754  0.028848379            1 
 1346000    1.0483696   -7.3108463    461.34246  0.028562559  0.028840905            1 
 1347000    1.0187417   -7.3620612    461.48614  0.028550244   0.02883326            2 
 1348000    1.0406819   -7.3251703    463.72641  0.028667557  0.028825564            2 
 1349000    1.0384977   -7.3451042    462.35329  0.028561483  0.028817743            2 
 1350000    1.0423704   -7.3225042    462.91038  0.028574715   0.02881003            1 
 1351000    1.0184645   -7.3151725    463.49648  0.028589716  0.028802391            3 
 1352000    1.0272284   -7.3284841    462.04945   0.02847938   0.02879477            1 
 1353000    1.0327815   -7.2974173    463.17705  0.028527781  0.028786984            3 
 1354000    1.0291925   -7.3239015    464.18072  0.028568483  0.028779328            1 
 1355000    1.0319903   -7.3115773    463.23544  0.028489264  0.028771489            2 
 1356000    1.0507011    -7.285126      466.039  0.028640548  0.028763838            2 
 1357000    1.0249542    -7.303854    463.71292  0.028476598   0.02875617            4 
 1358000    1.0045592   -7.3141785    463.55099  0.028445692  0.028748243            1 
 1359000     1.020478   -7.3185581    465.28553  0.028531122   0.02874059            2 
 1360000    1.0555574   -7.2932008    465.14791   0.02850171  0.028732848            2 
 1361000    1.0194433   -7.3287523    466.29093  0.028550755  0.028725265            2 
 1362000    1.0528744   -7.3588373     464.6548  0.028429687  0.028717463            2 
 1363000    1.0363647   -7.3392949    465.67898  0.028471447  0.028709646            4 
 1364000     1.048428   -7.3160358    465.11544  0.028416144  0.028701675            4 
 1365000    1.0068534    -7.329349    464.89597  0.028381928  0.028693772            1 
 1366000    1.0308258   -7.3055722    464.97907  0.028366219  0.028685853            1 
 1367000    1.0576141   -7.3230729    465.93963  0.028404025  0.028677906            1 
 1368000    1.0297156    -7.323818    465.00392  0.028326262    0.0286699            3 
 1369000     1.051843   -7.3073129    466.53004  0.028398468  0.028661995            2 
 1370000    1.0379392   -7.3500068    465.96493  0.028343365  0.028654183            2 
 1371000    1.0411756   -7.3550198      468.861  0.028498724  0.028646375            2 
 1372000    1.0394058   -7.3543278     466.2324  0.028318294  0.028638594            2 
 1373000    1.0382948      -7.3268    467.81855   0.02839394   0.02863075            1 
 1374000    1.0281736   -7.3696957    466.92962  0.028319361  0.028622866            1 
 1375000    1.0321374    -7.336618     469.2507  0.028439437  0.028615125            1 
 1376000    1.0426709   -7.3101268    468.60105  0.028379424  0.028607397            2 
 1377000    1.0064401   -7.3438869    467.57042  0.028296442  0.028599723            1 
 1378000    1.0319516   -7.3362092    468.64067  0.028340631  0.028592081            1 
 1379000    1.0390372   -7.3220173    469.53564  0.028374162  0.028584504            3 
 1380000    1.0337914   -7.2851082    470.52086  0.028413096  0.028576931            1 
 1381000     1.034423   -7.3285771    469.77244   0.02834736  0.028569383            2 
 1382000    1.0540449   -7.3380786    469.22824  0.028294033  0.028561688            3 
 1383000    1.0233275   -7.3618558    467.95983  0.028197146   0.02855387            2 
 1384000    1.0501747   -7.3723701    469.22961  0.028253228  0.028546022            2 
 1385000    1.0523689   -7.3608513    470.46681  0.028307269  0.028538211            3 
 1386000    1.0113305   -7.3609546    470.70686  0.028301278  0.028530482            2 
 1387000     1.023738   -7.3061104    471.34212  0.028319041  0.028522863            1 
 1388000    1.0345101   -7.3513381    470.66461  0.028257962  0.028515221            2 
 1389000    1.0368706     -7.34205    470.91696  0.028252758  0.028507501            3 
 1390000     1.031639   -7.3457396    472.28088  0.028314202  0.028499747            5 
 1391000     1.021841   -7.3564963    471.85482  0.028268321  0.028492037            2 
 1392000    1.0343016   -7.3459156    471.50409  0.028227017  0.028484392            3 
 1393000    1.0134638   -7.3132223     473.2919  0.028313705  0.028476917            2 
 1394000     1.032134   -7.3730927    474.04229  0.028338253  0.028469346            2 
 1395000    1.0278697   -7.3038763    474.16908  0.028325513  0.028461818            1 
 1396000   0.99909961    -7.321661    473.39178  0.028258821  0.028454341            3 
 1397000    1.0435416   -7.3364635    473.40206  0.028239207  0.028446871            1 
 1398000     1.021985    -7.343521     474.1462  0.028263365  0.028439163            1 
 1399000    1.0439781   -7.3798821    472.60876  0.028151582  0.028431469            2 
 1400000    1.0162489   -7.3535947     474.1211  0.028221494  0.028423754            2 
 1401000    1.0368999   -7.3470269    474.97123  0.028251917  0.028416064            1 
 1402000    1.0284263   -7.3209865    475.93783  0.028289219  0.028408493            1 
 1403000    1.0262497   -7.3638896     473.8751  0.028146537  0.028400959            2 
 1404000    1.0277301    -7.320894    474.68754  0.028174712  0.028393464            3 
 1405000   0.99547821   -7.3043621    477.73277  0.028335277  0.028385989            1 
 1406000    1.0514108   -7.3189328    477.32702  0.028291075   0.02837855            2 
 1407000    1.0365134   -7.3312548    476.44943   0.02821899  0.028371143            1 
 1408000    1.0030817   -7.3025072    477.65353  0.028270214  0.028363668            2 
 1409000    1.0387935   -7.3029932    476.65248  0.028190944  0.028356271            6 
 1410000    1.0201902   -7.3156068    477.68375    0.0282319  0.028348932            2 
 1411000    1.0239022   -7.2834591    478.21931  0.028243522  0.028341591            3 
 1412000    1.0408592   -7.3279549     478.1396  0.028218815  0.028334302            1 
 1413000    1.0270107   -7.3455335    478.66118  0.028229605  0.028326964            3 
 1414000     1.008991   -7.3083033    478.66798  0.028210041  0.028319669            2 
 1415000    1.0290544    -7.327773    476.78323  0.028079106  0.028312453            1 
 1416000    1.0171116   -7.3312181    478.13582  0.028138878   0.02830517            1 
 1417000    1.0447355   -7.3253071    480.16423   0.02823831  0.028297796            2 
 1418000    1.0347637   -7.3253204    480.17869  0.028219246  0.028290562            2 
 1419000    1.0115895   -7.3311099    480.71269   0.02823072  0.028283355            2 
 1420000    1.0217509   -7.2912703    479.55628  0.028142974  0.028276082            1 
 1421000    1.0237978   -7.3598466    479.72574  0.028133107  0.028268903            2 
 1422000    1.0274042   -7.3477604    479.16293  0.028080341  0.028261506            3 
 1423000    1.0407734   -7.3487211    480.16418  0.028119242  0.028253899            3 
 1424000    1.0270423   -7.3380171    480.00191  0.028089999  0.028246448            1 
 1425000    1.0302404   -7.3620353    481.00265   0.02812881  0.028238952            3 
 1426000    1.0434392   -7.3388559    480.20916  0.028062714  0.028231512            2 
 1427000    1.0373275   -7.3857913    479.66036     0.028011  0.028224007            2 
 1428000      1.02337   -7.3516136    479.70068  0.027993737  0.028216362            5 
 1429000     1.020359   -7.3330625    481.28767  0.028066694   0.02820891            4 
 1430000    1.0119122   -7.3398559    480.02427  0.027973442  0.028201272            2 
 1431000    1.0038973   -7.3459135    480.72805  0.027994878  0.028193743            2 
 1432000    1.0194401   -7.3543035    481.60865  0.028026574  0.028186042            2 
 1433000    1.0101161   -7.3331361    481.15559  0.027980669  0.028178456            2 
 1434000    1.0441113   -7.3660484    480.58241  0.027927848  0.028170771            1 
 1435000   0.99207726   -7.3655974    480.05333  0.027877662  0.028163008            1 
 1436000    1.0193949   -7.3579514    480.90534  0.027907691  0.028155281            3 
 1437000    1.0213855   -7.3738873    482.75205  0.027995363  0.028147628            2 
 1438000    1.0282953   -7.3706703    481.63873  0.027911378  0.028139921            2 
 1439000    1.0105089   -7.3545927    481.99468  0.027912595  0.028132185            3 
 1440000    1.0160047    -7.360918    481.94048  0.027890074   0.02812452            3 
 1441000    1.0342101   -7.3400779    484.04845  0.027992624  0.028116919            3 
 1442000    1.0128173   -7.3852154    481.67106  0.027835822  0.028109268            3 
 1443000    1.0435604   -7.3552242    482.73175  0.027877786  0.028101698            1 
 1444000    1.0309104   -7.3278337    484.68085  0.027970963  0.028094262            1 
 1445000   0.99512287   -7.3663649     484.3041  0.027929879  0.028086786            2 
 1446000     1.031449   -7.3454041    484.32363  0.027911689  0.028079426            3 
 1447000   0.99590003   -7.3301178    483.98353  0.027872813  0.028071957            2 
 1448000    1.0227297   -7.3471326    484.52899  0.027884956  0.028064284            1 
 1449000    1.0241701   -7.3575299    483.21396  0.027790083  0.028056677            2 
 1450000    1.0415926   -7.3310115    484.29449  0.027833016  0.028048991            2 
 1451000    1.0275597   -7.3329367    485.75314  0.027897607  0.028041508            1 
 1452000    1.0117437   -7.3594931    485.32617   0.02785389  0.028034048            1 
 1453000    1.0320457   -7.3671969    486.17602  0.027883461  0.028026453            1 
 1454000     1.036561    -7.336419    486.57543  0.027887175  0.028018904            4 
 1455000    1.0067187   -7.3338241    486.15677   0.02784403  0.028011448            1 
 1456000     1.040947   -7.3690141    484.59061  0.027735268  0.028003802            3 
 1457000    1.0018689   -7.3420968    487.22438  0.027866872  0.027996159            1 
 1458000    1.0053737   -7.3696442    484.17356  0.027673386  0.027988553            2 
 1459000    1.0169433   -7.3397308    486.48252  0.027786299  0.027980943            1 
 1460000    1.0182836   -7.3816398    486.72762  0.027781257  0.027973294            2 
 1461000    1.0013986   -7.3448693    486.22226  0.027733417  0.027965589            1 
 1462000    1.0075044    -7.348921    485.84501  0.027692944  0.027957928            2 
 1463000    1.0206542   -7.3466201    486.18198  0.027693209   0.02795021            4 
 1464000    1.0599962   -7.3665576    487.16482  0.027730238  0.027942562            1 
 1465000     1.010937     -7.28995    488.58819  0.027792275  0.027935076            2 
 1466000   0.99792732   -7.3596868    487.86695  0.027732319  0.027927439            2 
 1467000    1.0315472   -7.3475813    488.13369  0.027728567   0.02791986            2 
 1468000    1.0277803   -7.3806927    488.83566  0.027749526  0.027912385            1 
 1469000    1.0205405   -7.3222273    489.53705  0.027770425  0.027904972            3 
 1470000    0.9929588   -7.3314529    488.94991  0.027718249  0.027897495            5 
 1471000    1.0019612   -7.3158832    489.16932  0.027711835  0.027890026            3 
 1472000    1.0019503   -7.3623102    488.12482  0.027633878  0.027882405            2 
 1473000    1.0268809   -7.2905395    490.72331  0.027762124  0.027874889            2 
 1474000    1.0240803   -7.3637427    489.27047  0.027661153  0.027867263            2 
 1475000    1.0140204   -7.3615853    489.26987  0.027642365  0.027859715            2 
 1476000    1.0004571   -7.3333563    489.79714  0.027653406  0.027852172            2 
 1477000    1.0069529   -7.3827039    490.74329  0.027688066   0.02784439            3 
 1478000    1.0129656   -7.3695713    490.69034  0.027666347  0.027836696            4 
 1479000     1.011293   -7.3717206    490.59104  0.027642046  0.027828951            2 
 1480000    1.0362038   -7.3285022    490.51771   0.02761924  0.027821275            2 
 1481000    1.0155568   -7.3554148    490.05366   0.02757448  0.027813635            1 
 1482000   0.99994697   -7.3669231    492.23685  0.027678635  0.027805976            2 
 1483000    1.0181645   -7.3569102    490.75651  0.027576787  0.027798145            2 
 1484000    1.0448602    -7.398519    490.33275  0.027534409  0.027790457            1 
 1485000    1.0294168   -7.3378993    492.03536  0.027611412  0.027782647            3 
 1486000    1.0343491   -7.3805039    490.99363  0.027534412  0.027774826            6 
 1487000    1.0143306   -7.3636632    491.03998  0.027518492  0.027767055            3 
 1488000     1.029991   -7.3723203    490.60182   0.02747546  0.027759284            3 
 1489000    1.0228072   -7.3838236     489.7778  0.027410891  0.027751324            1 
 1490000    1.0166927   -7.3774162    490.54986  0.027435675  0.027743433            4 
 1491000    1.0057023   -7.3326544    492.50598  0.027526603  0.027735649            1 
 1492000   0.99973406   -7.3583361    492.23738  0.027493151  0.027727785            2 
 1493000    1.0353523   -7.3941346    490.85647  0.027397659  0.027719936            2 
 1494000    1.0087785   -7.3411246        491.6  0.027420794  0.027711846            1 
 1495000    1.0107293   -7.3906844    491.74536  0.027410555  0.027703928            1 
 1496000     1.016585   -7.3576461    491.82236  0.027396522  0.027695976            3 
 1497000    1.0045164   -7.3947005    490.70204  0.027315856  0.027687953            1 
 1498000     1.000439   -7.3997132    492.18625  0.027380187  0.027679819            2 
 1499000    1.0091492   -7.4200385    491.66703  0.027333057  0.027671657            2 
 1500000   0.99607479   -7.3728387    492.93312  0.027385173  0.027663449            2 
 1501000    1.0275001   -7.3590408    494.36723  0.027446548  0.027655446            1 
 1502000   0.98952968   -7.3994702    492.32057  0.027314723  0.027647454            1 
 1503000   0.98871191   -7.3909738    492.46783  0.027304714  0.027639285            1 
 1504000     1.042758   -7.3968186    490.95231  0.027202588  0.027631045            1 
 1505000    1.0176294    -7.363526    492.67492  0.027279896  0.027622794            1 
 1506000     1.029399   -7.4121795    491.79773  0.027213243  0.027614516            4 
 1507000   0.99767024   -7.3920896    492.84725  0.027253221  0.027606258            2 
 1508000    1.0351687   -7.3577432    493.08364  0.027248212  0.027597898            3 
 1509000    1.0289268   -7.4023907    492.83991  0.027216695  0.027589654            2 
 1510000    1.0284958   -7.3495562    492.90382  0.027202198  0.027581377            1 
 1511000    1.0328948   -7.3596847    493.35507  0.027209082  0.027573139            2 
 1512000    1.0291882   -7.3924671    492.73275  0.027156788  0.027564892            3 
 1513000    1.0062602   -7.4130049    493.02997  0.027155209   0.02755661            2 
 1514000    1.0063286   -7.3583391     494.5153  0.027219028  0.027548232            1 
 1515000   0.99064324   -7.3746533     493.4628  0.027143168  0.027539777            2 
 1516000    1.0079348   -7.3489602    494.73263  0.027195065  0.027531434            2 
 1517000    1.0175038     -7.35899    494.54277  0.027166709  0.027523278            1 
 1518000   0.99573142   -7.4035684    493.87611  0.027112215  0.027515085            1 
 1519000   0.99188385   -7.4074523    494.35269  0.027120512  0.027506728            2 
 1520000    1.0032775   -7.3883606     493.6726  0.027065384  0.027498292            3 
 1521000    1.0199463   -7.3701497    495.24866  0.027133939  0.027489865            2 
 1522000     1.001727    -7.360549    496.22383  0.027169505  0.027481416            3 
 1523000   0.99431278   -7.3867348    496.21834  0.027151365  0.027473075            2 
 1524000    1.0288034   -7.3593316    496.16473  0.027130617   0.02746479            2 
 1525000    1.0273502   -7.3859662    496.70847  0.027142539  0.027456531            2 
 1526000    1.0080246   -7.3788188    496.88686  0.027134494   0.02744821            3 
 1527000    1.0121136   -7.3961342    497.04974  0.027125614  0.027440023            1 
 1528000    1.0098856   -7.3869234    497.41636  0.027127856  0.027431826            2 
 1529000    1.0288295   -7.3913346    497.11463  0.027093668  0.027423543            3 
 1530000    1.0099634   -7.3778689    498.31673  0.027141434  0.027415433            1 
 1531000    1.0093162   -7.3977335    497.46487  0.027077339  0.027407218            5 
 1532000     1.037015   -7.3758431    497.75162  0.027075262  0.027398877            2 
 1533000   0.99588471   -7.3742607    498.56169  0.027101636  0.027390602            1 
 1534000   0.99476461   -7.3651905    498.59459  0.027085756  0.027382428            2 
 1535000   0.99588257   -7.4033237    497.54133   0.02701093  0.027374265            3 
 1536000    1.0151006   -7.3564926    499.27186  0.027087232  0.027366116            1 
 1537000   0.99826676   -7.3763571    498.80706  0.027044408  0.027358002            3 
 1538000   0.98729698   -7.3907108    499.95127   0.02708882  0.027349825            1 
 1539000    1.0101886   -7.3690355    499.14926  0.027027792  0.027341706            3 
 1540000   0.99827534   -7.4011576    497.40217  0.026915702   0.02733362            2 
 1541000    1.0167615   -7.3640592    499.62723  0.027018561  0.027325448            2 
 1542000   0.99306726    -7.386938    498.72394  0.026952223  0.027317264            2 
 1543000    1.0054197   -7.3550494    500.35297  0.027022735  0.027309186            1 
 1544000    0.9867846   -7.3615648    500.50226  0.027013291   0.02730112            2 
 1545000    1.0217094   -7.4217121    499.53701  0.026943744  0.027293012            1 
 1546000   0.99437963   -7.3792588    499.20209  0.026908263  0.027284993            3 
 1547000    1.0195028    -7.371533    501.11042  0.026993666  0.027277012            3 
 1548000    1.0003305   -7.3903556    501.12863  0.026977209  0.027268934            2 
 1549000    1.0034954   -7.4167282    501.13366  0.026960063   0.02726095            3 
 1550000    1.0346211   -7.3753909    502.29593  0.027005158  0.027252982            1 
 1551000   0.98769231   -7.4020076    503.00085   0.02702562  0.027245052            2 
 1552000   0.99035507   -7.3671914    503.49258   0.02703461  0.027237073            2 
 1553000    1.0392377   -7.3781617     503.1187   0.02699714  0.027229126            2 
 1554000    1.0097631   -7.3634122    502.99004  0.026972868  0.027221254            3 
 1555000    1.0045754   -7.4083222    501.80364  0.026891942  0.027213334            1 
 1556000   0.99513759   -7.3651174     502.9608  0.026936632  0.027205314            2 
 1557000    1.0059351   -7.3996433    502.08587  0.026872504   0.02719726            1 
 1558000    1.0072653   -7.3550225     502.9672  0.026902396  0.027189272            1 
 1559000    1.0030709   -7.3840203    503.40004  0.026908277  0.027181318            2 
 1560000   0.99243499   -7.3895219    503.28823  0.026885055  0.027173433            3 
 1561000   0.99526152   -7.4167026    503.89703  0.026900333  0.027165651            1 
 1562000   0.98749032   -7.3809828    504.11709  0.026894851  0.027157779            3 
 1563000   0.98537603   -7.3978098    505.38066  0.026945013  0.027149981            2 
 1564000    1.0056995    -7.416456    504.51779  0.026881809  0.027142174            2 
 1565000   0.99834729    -7.385319    504.81418  0.026880414   0.02713437            3 
 1566000    1.0066257   -7.4036825    505.77099  0.026914165  0.027126569            3 
 1567000    1.0080737   -7.4030473    507.56141  0.026992204  0.027118873            2 
 1568000    1.0124182   -7.4214371    505.40203  0.026860227  0.027111057            3 
 1569000   0.98804147   -7.3787578    506.66861  0.026910378  0.027103352            1 
 1570000    1.0056834   -7.3828353    506.91018  0.026906061  0.027095669            1 
 1571000    1.0057693   -7.3936677    508.67386  0.026982488  0.027088014            2 
 1572000   0.99117038   -7.3852908    507.48938  0.026902533  0.027080327            2 
 1573000    1.0071038   -7.3681599     508.5971  0.026944114  0.027072647            3 
 1574000    1.0060511   -7.4041364    508.12368  0.026901931  0.027065154            4 
 1575000   0.98917498   -7.3976873    507.64865  0.026859717  0.027057532            1 
 1576000    1.0129723   -7.3778005    509.28174  0.026929026   0.02704994            2 
 1577000    1.0159715   -7.3805986     509.2337  0.026909412  0.027042409            1 
 1578000   0.99851544   -7.4087054    510.14775  0.026940629  0.027035044            1 
 1579000    1.0101296    -7.387256    510.37233   0.02693542  0.027027614            2 
 1580000     1.012657   -7.4063425    509.84603  0.026890613  0.027020189            3 
 1581000    1.0157923    -7.380543    511.51332  0.026961486  0.027012704            3 
 1582000   0.99130603   -7.4102141    509.60585  0.026843966  0.027005241            2 
 1583000    1.0028698   -7.3630188    510.62999  0.026880922  0.026997844            2 
 1584000     1.002771    -7.391215    511.54455  0.026912066  0.026990386            2 
 1585000     1.005398   -7.4001359    510.39463  0.026834629   0.02698299            2 
 1586000    1.0125487   -7.4036136    511.24816  0.026862555  0.026975561            2 
 1587000    1.0083871   -7.3993428    511.16115   0.02684106  0.026968151            2 
 1588000    1.0103909   -7.4311384      511.886  0.026862196  0.026960596            2 
 1589000   0.98723684   -7.3822113    511.63905  0.026832339  0.026953198            3 
 1590000    1.0028513   -7.3901077    512.65014  0.026868456  0.026945881            1 
 1591000   0.98642697   -7.4345195    511.57799  0.026795411  0.026938507            2 
 1592000   0.98157229   -7.4068787    513.65638  0.026887373  0.026931247            1 
 1593000   0.97141431   -7.4168136    513.59184  0.026867119  0.026924013            2 
 1594000    1.0079648   -7.4178993    513.78481  0.026860352  0.026916809            1 
 1595000    1.0038845   -7.4012523    514.99916  0.026906957  0.026909496            1 
 1596000   0.99833005   -7.3806439    514.73903  0.026876516    0.0269023            2 
 1597000   0.99899151   -7.4172573    513.60513  0.026800518  0.026895011            1 
 1598000   0.99783987   -7.4278668    514.32009  0.026821031  0.026887733            2 
 1599000    1.0274137   -7.4054898    515.47167  0.026864273  0.026880576            4 
 1600000   0.99056872   -7.4292533    514.06589  0.026774265   0.02687334            2 
 1601000   0.99686262   -7.3964776    514.36041  0.026772872  0.026866105            1 
 1602000    1.0127163   -7.4172595    516.12139  0.026847763  0.026858836            1 
 1603000    1.0102397   -7.4042268    515.63651  0.026805807  0.026851646            3 
 1604000    1.0115344   -7.4136336    515.58015  0.026786167  0.026844572            1 
 1605000    1.0257132   -7.4383777    515.99377  0.026790954  0.026837437            2 
 1606000   0.99777088   -7.3837611    515.81174  0.026764826  0.026830248            1 
 1607000   0.98701999   -7.4135838    516.27543  0.026772217  0.026823121            2 
 1608000   0.99811254   -7.3895151    518.18271  0.026854411  0.026816062            3 
 1609000   0.99867146   -7.4102761    517.49455   0.02680208   0.02680901            1 
 1610000   0.99102628   -7.3935796    518.82287  0.026854186  0.026801877            2 
 1611000   0.99012958   -7.4255065    516.55838   0.02672038  0.026794741            4 
 1612000   0.99225166   -7.4057309    517.54825  0.026754976  0.026787637            2 
 1613000    1.0011885   -7.3739936    518.83426  0.026804828  0.026780558            4 
 1614000    1.0080351   -7.4253196    517.24103   0.02670596  0.026773479            2 
 1615000    0.9885015   -7.3934974    517.42263  0.026698794  0.026766273            3 
 1616000    1.0064929    -7.433093    517.00113  0.026660537  0.026759118            1 
 1617000   0.95752601   -7.4291245    518.01348  0.026696221  0.026751911            2 
 1618000     0.988029   -7.4217223    517.46732  0.026651593  0.026744646            1 
 1619000   0.96612827   -7.4304527    517.30978  0.026627022  0.026737268            2 
 1620000   0.99880759   -7.4455323    518.47196  0.026670368  0.026729825            2 
 1621000    1.0043439   -7.4376269    517.07018  0.026581852  0.026722415            2 
 1622000   0.98630355    -7.425534    518.87802  0.026658345  0.026715116            2 
 1623000    1.0075974   -7.4213415    519.76942  0.026687688  0.026707872            3 
 1624000   0.99580981   -7.4595047    517.70124  0.026565129  0.026700664            3 
 1625000   0.97714995   -7.3968278    520.45056  0.026689772  0.026693345            1 
 1626000   0.99400859   -7.4297569    519.47216  0.026623215  0.026686101            1 
 1627000   0.99586786   -7.4088981    518.99246  0.026582281  0.026678945            3 
 1628000    1.0102894   -7.4453044     519.0145  0.026567081  0.026671654            1 
 1629000    1.0017749   -7.3951176    520.28566    0.0266158  0.026664372            5 
 1630000    1.0070394    -7.435916    519.87512  0.026578482  0.026657151            2 
 1631000   0.99171037   -7.3872084    521.04268  0.026621841  0.026649897            2 
 1632000   0.98689601   -7.3958275     518.6583  0.026483778  0.026642492            2 
 1633000   0.98648615   -7.4251964    520.20482   0.02654648   0.02663513            2 
 1634000    0.9894714   -7.3833181    520.84366  0.026562814   0.02662779            2 
 1635000    0.9796074   -7.4587628    520.78505   0.02654358  0.026620369            1 
 1636000    0.9795997   -7.4489782    520.22494  0.026498825  0.026613023            1 
 1637000   0.98596741   -7.4410714    519.93056  0.026467652  0.026605686            1 
 1638000   0.99538072   -7.4474468    519.93389  0.026451663  0.026598253            2 
 1639000   0.99128425   -7.4107539    522.17459   0.02654945  0.026590953            2 
 1640000    1.0146491   -7.4421884    520.83867  0.026465379  0.026583656            3 
 1641000   0.98153957    -7.412074    522.32283  0.026524621   0.02657631            2 
 1642000    1.0107186   -7.4028842     522.3682  0.026510769  0.026568998            1 
 1643000   0.98195457   -7.4539045     521.0949  0.026430052  0.026561682            2 
 1644000   0.98336798   -7.4635434    520.85172  0.026401649  0.026554334            1 
 1645000   0.97878669   -7.4498571    521.66794  0.026426947  0.026546862            3 
 1646000   0.95781053   -7.4568343    521.40773  0.026397718  0.026539381            2 
 1647000   0.99326164   -7.4157118    521.87235  0.026405199  0.026531899            3 
 1648000   0.99871777   -7.4451451    522.30885  0.026411248  0.026524366            2 
 1649000    0.9769709   -7.4395322    523.73243  0.026467173  0.026517017            2 
 1650000    0.9796169   -7.4476085    521.46129  0.026336429  0.026509456            3 
 1651000   0.99342334   -7.4371757    524.14114  0.026455741  0.026502024            3 
 1652000   0.97420779   -7.3926951    523.47852  0.026406301  0.026494643            4 
 1653000    1.0123248   -7.4317004    525.21951  0.026478096  0.026487269            2 
 1654000   0.99806502   -7.4378272    523.86767  0.026393978  0.026479897            1 
 1655000    1.0144983   -7.4123969    524.45801  0.026407755  0.026472598            2 
 1656000   0.97170879   -7.4304606    524.51488   0.02639467  0.026465253            1 
 1657000    0.9847956    -7.401259    523.86704   0.02634616  0.026457977            1 
 1658000   0.97799054   -7.4011509    526.31767  0.026453442  0.026450687            2 
 1659000   0.97645888   -7.4474616    523.93503  0.026317814  0.026443453            4 
 1660000   0.99842838   -7.4412092    524.45635   0.02632813  0.026436149            1 
 1661000   0.99383021   -7.4296854    525.30057  0.026354634  0.026428908            1 
 1662000     0.983439   -7.4308422    525.48961  0.026348256  0.026421604            2 
 1663000   0.98657353   -7.4222954    526.18117  0.026367066  0.026414403            1 
 1664000    1.0142808   -7.4043961    527.44917  0.026414722  0.026407219            7 
 1665000   0.99188822   -7.3954861    526.46703  0.026349701   0.02640004            1 
 1666000    1.0038895    -7.452135    527.36644  0.026378874  0.026392805            1 
 1667000    0.9776636    -7.436963    527.54042  0.026371746  0.026385555            2 
 1668000   0.96770572   -7.4630163    525.65823  0.026261902  0.026378281            4 
 1669000    1.0037063   -7.4582637    527.06806   0.02631656  0.026371088            2 
 1670000   0.97795152   -7.4093165    528.11631  0.026353109  0.026363917            3 
 1671000   0.97808808    -7.475173    526.74917  0.026269159  0.026356685            2 
 1672000   0.97892344   -7.4589252     527.5264  0.026292185  0.026349468            6 
 1673000   0.98400397   -7.4366404    527.35317  0.026267841  0.026342264            1 
 1674000   0.96973446   -7.4369215    529.02295  0.026335272  0.026335156            2 
 1675000   0.96818753   -7.4247204    528.70398  0.026303681  0.026328079            2 
 1676000   0.97792954   -7.4218117    528.80798  0.026293157  0.026321008            4 
 1677000   0.98403612   -7.4303605    528.89538  0.026281822  0.026313888            1 
 1678000   0.97676296   -7.4329831    529.02351  0.026272522  0.026306777            2 
 1679000   0.97947683   -7.4310778    530.08215  0.026309418    0.0262996            2 
 1680000   0.99611894   -7.4113881    530.51743  0.026315349  0.026292609            3 
 1681000   0.97595723   -7.4091634    530.31052  0.026289437  0.026285529            3 
 1682000   0.99263014   -7.4322706    529.16383  0.026216995  0.026278338            2 
 1683000    1.0102905   -7.4018069     531.2314  0.026303793  0.026271154            2 
 1684000    1.0138044   -7.4585939     531.0814   0.02628075  0.026264008            3 
 1685000    1.0066895   -7.4368529    531.84252  0.026302795  0.026256936            2 
 1686000   0.98472094   -7.4442201     530.4533   0.02621853  0.026249802            3 
 1687000   0.97642789   -7.4164497    530.33507  0.026197148  0.026242575            2 
 1688000   0.97614952    -7.452682    529.84104  0.026157239  0.026235311            2 
 1689000   0.97351363   -7.4503595    530.70768  0.026184512  0.026228043            2 
 1690000   0.97189989   -7.4176603    530.90985  0.026178986  0.026220797            2 
 1691000   0.98923042   -7.4311879    531.67306  0.026201117  0.026213672            1 
 1692000   0.98949653   -7.4353549    532.45255  0.026224023  0.026206557            2 
 1693000   0.99893954   -7.4432314    531.16288  0.026145052  0.026199446            3 
 1694000   0.97644157     -7.45404    530.99443  0.026121332  0.026192265            2 
 1695000   0.98493395   -7.4182137    533.88705  0.026248134  0.026185195            5 
 1696000   0.97118916   -7.4346607    531.39726  0.026110321  0.026178086            3 
 1697000   0.96679847   -7.4355854    531.47459  0.026098733  0.026170907            3 
 1698000   0.99461601   -7.4175157    533.25958  0.026170965  0.026163668            2 
 1699000   0.96946227   -7.4291095    532.07061  0.026097244  0.026156522            2 
 1700000   0.97877743   -7.4233438    532.92209  0.026123632  0.026149197            3 
 1701000   0.97920987   -7.4272162    533.34027  0.026128761  0.026142047            3 
 1702000   0.98387658   -7.4028827    533.20188  0.026106633  0.026134934            1 
 1703000   0.96822109    -7.455111    533.82247  0.026121671  0.026127816            1 
 1704000   0.98284805   -7.4085261    533.83224  0.026106819  0.026120639            2 
 1705000   0.96133108   -7.4681676    533.96321  0.026097909   0.02611345            2 
 1706000   0.96975662    -7.456872    532.54233  0.026013205  0.026106239            2 
 1707000   0.99135822   -7.4138744     533.8587  0.026062229  0.026099124            2 
 1708000    0.9950857   -7.4025912    535.08402  0.026106754   0.02609202            2 
 1709000   0.96645135   -7.4763529    534.05663   0.02604138  0.026084809            1 
 1710000   0.99586987   -7.4357255    535.49581  0.026096287  0.026077639            2 
 1711000   0.96177525   -7.4681499    534.89671  0.026051856  0.026070486            2 
 1712000   0.99330328   -7.4423944    535.34871   0.02605864  0.026063398            4 
 1713000   0.97839082   -7.4623845    535.32894  0.026042467  0.026056266            2 
 1714000   0.96413674   -7.4538759    535.13618  0.026017901  0.026049188            3 
 1715000   0.98724997   -7.4291786    535.21427  0.026006524  0.026042056            2 
 1716000   0.96707436   -7.4503574    534.62811  0.025962904  0.026034992            2 
 1717000    0.9950906   -7.4878878    533.97499  0.025916084  0.026027729            2 
 1718000   0.98554034   -7.4403907    534.43793  0.025923454   0.02602048            2 
 1719000   0.96494739   -7.4263376    536.98014  0.026031614  0.026013397            2 
 1720000   0.98923844   -7.4539648    536.59128   0.02599764  0.026006345            2 
 1721000   0.97280995   -7.4083186    536.19497  0.025963343  0.025999274            1 
 1722000   0.97185939   -7.4290266    537.08776  0.025991471   0.02599217            1 
 1723000   0.97292665   -7.4616806    538.71093  0.026054891  0.025985086            3 
 1724000   0.97696715   -7.4686713    537.61991  0.025987041   0.02597803            1 
 1725000   0.96644333   -7.4600246    535.37761  0.025863653  0.025970845            2 
 1726000   0.97810439   -7.4562632    537.70072  0.025960831  0.025963626            2 
 1727000   0.99216539   -7.4458299    536.35903  0.025881057  0.025956527            3 
 1728000     0.988752   -7.4339613    538.30372  0.025959863  0.025949483            1 
 1729000   0.98587371   -7.4730583    539.19477  0.025987795  0.025942495            1 
 1730000   0.96235987   -7.4692583    536.75718  0.025855355  0.025935378            2 
 1731000   0.96471209   -7.4951331    536.97719   0.02585101  0.025928223            8 
 1732000    0.9627228   -7.4679727    539.15023  0.025940638  0.025921076            1 
 1733000   0.96257935    -7.449992    538.82865  0.025910206    0.0259139            1 
 1734000   0.98315764   -7.4618676    538.90905  0.025899128  0.025906789            1 
 1735000   0.95448175   -7.4672635    538.14047  0.025847285  0.025899697            2 
 1736000   0.97029771   -7.4284445    538.80642  0.025864364  0.025892554            1 
 1737000   0.96039259   -7.4316852    538.38791  0.025829395  0.025885419            5 
 1738000   0.94529959   -7.4361386    539.43807  0.025864886  0.025878278            1 
 1739000   0.98315566    -7.448812     538.6528  0.025812383  0.025871101            3 
 1740000   0.98896633   -7.4720864    539.38266  0.025832503  0.025863948            3 
 1741000   0.96218399   -7.4318341    540.07491    0.0258508  0.025856836            3 
 1742000   0.97500441   -7.4405575    540.79032  0.025870183  0.025849828            2 
 1743000   0.95736017   -7.4662033     540.7585   0.02585382  0.025842715            2 
 1744000    0.9833177   -7.4366706    540.18842  0.025811756  0.025835605            5 
 1745000   0.95919967   -7.4501369    540.89157  0.025830543  0.025828445            2 
 1746000   0.97433264   -7.4570003    539.28045  0.025738853  0.025821246            5 
 1747000   0.95515945   -7.4407713    540.77334  0.025795332  0.025814144            1 
 1748000   0.94417792   -7.4474018    540.63452  0.025773957  0.025806965            2 
 1749000   0.97843325   -7.4762506    540.22087  0.025739511  0.025799763            1 
 1750000   0.97908194   -7.4484733    541.98127  0.025808632  0.025792713            2 
 1751000   0.97538227   -7.4597357    541.63615  0.025777468  0.025785604            4 
 1752000   0.96709485    -7.512581    540.78781  0.025722403  0.025778506            3 
 1753000   0.96206675   -7.4646196     542.3164  0.025780396  0.025771382            2 
 1754000   0.95133096   -7.4723503    540.10995  0.025660868  0.025764248            3 
 1755000   0.96465981   -7.5035099    540.81586  0.025679765   0.02575705            2 
 1756000   0.95583696   -7.4282574    544.43772  0.025837022  0.025749906            1 
 1757000   0.94768019   -7.4228336    542.54499  0.025732545   0.02574281            2 
 1758000   0.96707963   -7.4594156     543.6376    0.0257697    0.0257357            1 
 1759000   0.97601172   -7.4842555    541.64022  0.025660424  0.025728488            1 
 1760000   0.96187335   -7.4441212    543.80657  0.025748417  0.025721318            1 
 1761000   0.96586804   -7.4662054    541.85412  0.025641403  0.025714229            1 
 1762000    0.9830684   -7.4378616    542.81802  0.025672438  0.025707139            4 
 1763000   0.98016399   -7.4487298    544.82686  0.025752829  0.025700093            2 
 1764000   0.96807004   -7.4816688     541.9384  0.025601776  0.025692976            1 
 1765000   0.95199332   -7.4772456    542.65114  0.025620922  0.025685868            1 
 1766000   0.96012157   -7.4855255    543.54632  0.025648656   0.02567867            2 
 1767000   0.96832214   -7.4409026     544.9051  0.025698222  0.025671474            1 
 1768000   0.95412638   -7.4849627    544.98591  0.025687496  0.025664369            2 
 1769000   0.96631757   -7.4727385    545.37394  0.025691254  0.025657287            1 
 1770000   0.96669217   -7.4551644    544.94324  0.025656461  0.025650181            2 
 1771000   0.95047472   -7.4799781    544.93192  0.025641442  0.025643023            3 
 1772000   0.97088043   -7.4781495    542.95389  0.025533949  0.025635862            1 
 1773000   0.98573179   -7.4489011    544.48471  0.025591498  0.025628648            1 
 1774000   0.96732477   -7.4421319    546.02966  0.025649646  0.025621476            5 
 1775000   0.97083376   -7.4797813    544.91145  0.025582697  0.025614289            3 
 1776000    0.9380971   -7.5157159    542.72745  0.025465815  0.025606921            2 
 1777000   0.95794227   -7.4826755    544.01532  0.025511879  0.025599503            3 
 1778000   0.97423941   -7.4492638    544.86607  0.025537405  0.025592185            3 
 1779000   0.95225569   -7.4570009      544.449  0.025503513  0.025584776            3 
 1780000   0.97624604   -7.4633294    545.95755   0.02555981  0.025577325            1 
 1781000   0.98164985   -7.4754666    543.52185  0.025431492  0.025569952            1 
 1782000   0.95733497   -7.4331338    546.15542  0.025540377  0.025562586            2 
 1783000   0.94566027   -7.4830144    545.41301  0.025491354  0.025555174            2 
 1784000   0.96501728   -7.4875608    545.69374  0.025490178  0.025547751            3 
 1785000   0.96692194   -7.4709497    544.43535   0.02541715   0.02554033            2 
 1786000   0.97595852   -7.4914378    544.32149  0.025397606  0.025532899            2 
 1787000   0.95112794   -7.4923646    546.47317  0.025483733  0.025525491            2 
 1788000   0.96961871   -7.5001987    543.97197  0.025352907  0.025518084            2 
 1789000   0.96195089   -7.4692746    544.52777  0.025364625   0.02551062            1 
 1790000   0.96902618   -7.5251931    545.91791  0.025415172  0.025503203            3 
 1791000   0.97042702   -7.4620903    546.51675  0.025428845  0.025495835            4 
 1792000   0.96601754   -7.5003533    545.71748  0.025377487   0.02548844            5 
 1793000   0.97008589   -7.4761928    546.73848  0.025410786  0.025480995            2 
 1794000   0.98096709    -7.509557    545.68157  0.025347528  0.025473628            1 
 1795000   0.96056082    -7.498762    545.64023  0.025331487  0.025466221            1 
 1796000   0.96962366   -7.4695347    546.27842  0.025346994  0.025458774            1 
 1797000   0.96296769   -7.4979035    546.43157  0.025339991  0.025451337            1 
 1798000   0.98689016   -7.4946721    547.20696  0.025361836  0.025443958            2 
 1799000   0.97573041   -7.4216039    548.20784    0.0253941  0.025436652            2 
 1800000   0.97397995   -7.4828458    547.13333  0.025330247  0.025429428            1 
 1801000   0.96513232   -7.4776889     548.2512  0.025367907  0.025422169            1 
 1802000   0.94730049   -7.4762159    549.83548  0.025427094  0.025414938            2 
 1803000   0.95646077   -7.4465747    549.58911  0.025401604  0.025407643            3 
 1804000   0.95541287   -7.4942007    548.51468  0.025337892  0.025400261            4 
 1805000   0.97806151    -7.483604    549.36048  0.025362903  0.025392909            2 
 1806000   0.96141453    -7.488316    548.43173  0.025306005  0.025385561            1 
 1807000   0.93337987   -7.5228485     547.6057  0.025253906  0.025378289            1 
 1808000   0.95244238   -7.4758754    547.75407  0.025246777  0.025370968            1 
 1809000    0.9628793   -7.4968736    549.01481  0.025290898  0.025363644            3 
 1810000    0.9510887   -7.4942122    549.70598  0.025308747   0.02535633            2 
 1811000   0.96093604    -7.479032    550.17977  0.025316573  0.025349057            1 
 1812000     0.961365   -7.5237627     549.9422  0.025291676  0.025341898            1 
 1813000   0.98052868   -7.5002213    549.14873  0.025241254  0.025334683            4 
 1814000    0.9849312   -7.5026052    549.90189  0.025261939  0.025327371            1 
 1815000   0.98718947   -7.4923113    550.22531   0.02526287  0.025320043            2 
 1816000   0.96292953    -7.451135    550.30757  0.025252734  0.025312744            3 
 1817000   0.98219176   -7.4790293    549.52027  0.025202728  0.025305368            3 
 1818000   0.97603238    -7.468434    549.15702  0.025172214  0.025297943            4 
 1819000   0.96426647    -7.472679    549.28331  0.025164161   0.02529052            2 
 1820000   0.95778945   -7.4841592    549.40662  0.025155981  0.025283123            3 
 1821000   0.96806893   -7.4809405    552.24419   0.02527202   0.02527565            5 
 1822000   0.96650274   -7.5061525    550.48769  0.025177812  0.025268305            1 
 1823000    0.9605669   -7.5049381    551.79492  0.025223757  0.025261006            2 
 1824000   0.96383422   -7.4994754    550.16833  0.025135615  0.025253732            1 
 1825000    0.9575504   -7.4990401    551.71131  0.025192297  0.025246491            1 
 1826000   0.96251135   -7.4512564    551.39038  0.025163854   0.02523926            1 
 1827000   0.95702522   -7.4880479    551.65238  0.025162032  0.025232014            2 
 1828000   0.97023028   -7.4640826    552.21929  0.025174111  0.025224823            2 
 1829000   0.96216836   -7.4887892    550.73128   0.02509255  0.025217619            1 
 1830000   0.94945465   -7.5008869    552.27014  0.025148913  0.025210419            1 
 1831000   0.96287045   -7.4728459    552.95356  0.025166283   0.02520323            2 
 1832000   0.96824987   -7.4986828    554.46503  0.025221299  0.025195943            2 
 1833000    0.9597806   -7.5141694    553.00814  0.025141305  0.025188635            1 
 1834000   0.94498247   -7.5100141    553.16733   0.02513483  0.025181363            4 
 1835000   0.95909739   -7.5136997    553.02903  0.025114851  0.025174063            5 
 1836000   0.90985443   -7.4707654    554.04099  0.025147104  0.025166828            2 
 1837000   0.97127454   -7.5331672    552.82192  0.025078113  0.025159538            3 
 1838000   0.95271794   -7.4998039    554.91978  0.025159584  0.025152234            2 
 1839000   0.95507331   -7.4833153     552.9012  0.025054432  0.025144949            1 
 1840000   0.95559217   -7.4627281    555.10814  0.025140767  0.025137691            2 
 1841000    0.9504167   -7.5139146    554.88942  0.025117211  0.025130498            2 
 1842000   0.95183086    -7.465529    555.73483  0.025141822  0.025123406            1 
 1843000   0.95402739   -7.5353071    554.94718  0.025092566  0.025116244            1 
 1844000   0.97437846   -7.5072935    555.04537  0.025083395  0.025108957            2 
 1845000    0.9553571   -7.5023083     553.7398  0.025010831   0.02510173            2 
 1846000   0.95487265   -7.4952613    555.49709  0.025076611  0.025094459            3 
 1847000   0.94177202   -7.4772382    555.38721  0.025058076  0.025087255            1 
 1848000   0.94636073   -7.5159106    554.79967  0.025018023  0.025080166            1 
 1849000   0.94670447    -7.474228    556.99228  0.025103312  0.025073114            1 
 1850000    0.9714073   -7.5197558    554.70699  0.024986801  0.025066035            3 
 1851000   0.96852208    -7.496493    555.54127  0.025010862  0.025058854            3 
 1852000   0.95789467   -7.4742292    555.64923  0.025002215  0.025051721            2 
 1853000   0.95829444   -7.5061581    555.98814  0.025003964  0.025044495            1 
 1854000   0.95217369    -7.517339    554.70484  0.024932796  0.025037255            3 
 1855000   0.95218271   -7.4973086    556.30853  0.024991399  0.025030058            2 
 1856000   0.94489925   -7.4635904    556.81076  0.025000483   0.02502282            2 
 1857000   0.96667253   -7.5033176    556.00324  0.024950782  0.025015602            3 
 1858000   0.96179459   -7.5136223    555.15181  0.024899166  0.025008412            2 
 1859000   0.96587936   -7.5202597    556.51233   0.02494676  0.025001186            1 
 1860000   0.96688506    -7.493252    557.13653  0.024961314  0.024994001            4 
 1861000   0.94495815   -7.5092748    557.89268  0.024981761  0.024986849            3 
 1862000   0.99060515   -7.5284454    558.16935  0.024980726  0.024979652            3 
 1863000   0.92809472   -7.4949027    558.43761  0.024979317  0.024972531            1 
 1864000   0.93427994   -7.4858531    559.59911  0.025017843  0.024965444            1 
 1865000   0.95583771   -7.5015497    558.74731  0.024966368  0.024958293            1 
 1866000   0.97276303   -7.5031501    557.06331  0.024877783  0.024951081            4 
 1867000   0.97035801   -7.4960106    557.85304  0.024899707   0.02494393            4 
 1868000    0.9584248    -7.533694    557.72691  0.024880751  0.024936706            3 
 1869000   0.94458921   -7.5034814    558.17424  0.024887383  0.024929446            2 
 1870000   0.93866528   -7.5322148    557.29941   0.02483509  0.024922161            3 
 1871000     0.933237   -7.4656099    559.06151  0.024900299  0.024914963            2 
 1872000   0.94462572   -7.4973768    559.24013  0.024894949  0.024907793            3 
 1873000   0.96241625   -7.4931309    559.22136  0.024880822  0.024900629            2 
 1874000    0.9477225   -7.4896133    560.79275  0.024937422  0.024893559            2 
 1875000   0.92057536   -7.5346018    558.80564  0.024835806  0.024886413            5 
 1876000   0.96216827    -7.480019    561.07374  0.024923318  0.024879294            1 
 1877000   0.94984156   -7.4955082    560.61144  0.024889515  0.024872195            2 
 1878000   0.94355333   -7.5042363     561.1779  0.024901398   0.02486503            3 
 1879000   0.95881435   -7.5251348     560.8754  0.024874729  0.024857991            2 
 1880000   0.94176938   -7.4784671    560.35408   0.02483839   0.02485085            1 
 1881000   0.94882666   -7.5112847    560.98368  0.024853078  0.024843849            1 
 1882000   0.96819689   -7.5403718    560.19757  0.024805064  0.024836734            3 
 1883000   0.94669942   -7.5189835    560.68164  0.024813314  0.024829644            2 
 1884000   0.95695987   -7.4807233    562.68723  0.024888855  0.024822555            2 
 1885000   0.95009087   -7.5061382    561.16431  0.024808325  0.024815473            1 
 1886000   0.95108385   -7.5512766    560.84662  0.024781134  0.024808247            1 
 1887000   0.95507746   -7.5117579    561.14415  0.024781141  0.024801044            2 
 1888000   0.94911002   -7.5539596    560.43783  0.024736839  0.024793896            2 
 1889000    0.9414492    -7.498465    560.71236  0.024735855  0.024786774            3 
 1890000   0.93712381   -7.4887598    563.02532   0.02482475  0.024779704            5 
 1891000   0.95192686   -7.4880534    562.91804  0.024806894  0.024772586            4 
 1892000   0.93294004   -7.5014944    562.54893  0.024777525  0.024765499            2 
 1893000   0.95033417   -7.5128063    562.89405  0.024779629  0.024758471            5 
 1894000   0.94062281   -7.5301554    564.47546  0.024836125  0.024751369            2 
 1895000    0.9385733   -7.5215411    564.69397  0.024832628   0.02474431            2 
 1896000   0.95423053   -7.5393594    562.70689  0.024732194  0.024737237            2 
 1897000   0.95552071   -7.4842159    563.90043  0.024771588  0.024730187            2 
 1898000   0.93482199   -7.5292086    562.92854  0.024715865  0.024723208            2 
 1899000   0.94017492   -7.4961019    564.08576  0.024753632  0.024716198            1 
 1900000   0.94535076    -7.509457    564.63409  0.024764653  0.024709252            4 
 1901000   0.94283857   -7.5259899    563.88333  0.024718715  0.024702331            3 
 1902000   0.95025978   -7.5103789    564.77512  0.024744791  0.024695395            1 
 1903000   0.94469159   -7.5546139    563.35071  0.024669413  0.024688407            1 
 1904000   0.97739567    -7.493495    564.65265  0.024713439  0.024681468            2 
 1905000   0.94897829   -7.5445251    564.30835  0.024685404  0.024674539            3 
 1906000   0.96335944   -7.5066109    565.69821   0.02473322  0.024667549            4 
 1907000   0.96468239   -7.5363573    566.65863  0.024762219  0.024660657            1 
 1908000   0.96530261   -7.5210771    565.81468  0.024712381  0.024653729            2 
 1909000   0.96143272    -7.518339    564.58777  0.024645878  0.024646701            4 
 1910000   0.93361176   -7.5328003    564.80532  0.024642466  0.024639688            1 
 1911000   0.94097014   -7.5336702    565.22661  0.024647942  0.024632691            4 
 1912000   0.93477175   -7.5374026    567.01745  0.024713104   0.02462577            5 
 1913000   0.96470776   -7.5027478    567.22764  0.024709341  0.024618867            1 
 1914000   0.95684281   -7.5080891    567.16365  0.024693646   0.02461194            2 
 1915000   0.94341892   -7.5224174    567.31435  0.024687309  0.024605035            2 
 1916000   0.94174505   -7.5190131    566.42677   0.02463582  0.024598127            3 
 1917000   0.94800454   -7.5213416    566.36763  0.024620398   0.02459127            2 
 1918000   0.94357395   -7.5042232    569.14984  0.024728443  0.024584442            2 
 1919000   0.92310364   -7.4835824    569.62972  0.024736395  0.024577616            1 
 1920000     0.949852   -7.4534883    569.12567  0.024701635  0.024570868            3 
 1921000   0.93782563   -7.5107653    567.59149  0.024622223  0.024564002            5 
 1922000   0.93609947     -7.53364    568.81589    0.0246625  0.024557108            1 
 1923000   0.94101915   -7.5803067    566.21466   0.02453695  0.024550062            3 
 1924000   0.93577569   -7.5465237    568.82891  0.024637427  0.024543093            3 
 1925000   0.95121642   -7.5384118    568.45103   0.02460827  0.024536132            1 
 1926000   0.93226372   -7.5242078    567.77311  0.024566161  0.024529169            1 
 1927000   0.95322412   -7.5024114    569.08053  0.024609952  0.024522232            2 
 1928000   0.94938916   -7.5116657     569.8459  0.024630269  0.024515295            2 
 1929000   0.93247029   -7.5067498     568.6067  0.024563967  0.024508354            2 
 1930000   0.95066154   -7.5188809    565.60212  0.024421508  0.024501291            2 
 1931000   0.95624921    -7.559643    568.39156  0.024529241  0.024494341            2 
 1932000   0.94278013   -7.5089587    569.73441  0.024574466  0.024487405            3 
 1933000   0.94578857   -7.4855213    570.54839  0.024596844  0.024480521            3 
 1934000   0.93513803   -7.5133843     568.7261  0.024505606  0.024473532            2 
 1935000   0.93381024   -7.5427095    569.15048  0.024511218  0.024466536            2 
 1936000   0.94540908   -7.5529452    568.91969  0.024488623   0.02445957            2 
 1937000   0.95672438   -7.5528691    570.33888  0.024537036  0.024452651            2 
 1938000   0.92285995   -7.5119488     571.3124  0.024566237  0.024445746            2 
 1939000   0.96983918   -7.5159175    570.72147   0.02452817  0.024438911            3 
 1940000   0.95455532   -7.5415888    569.33458  0.024455953  0.024431923            4 
 1941000    0.9182738   -7.5009686    569.52848  0.024451678  0.024424977            1 
 1942000   0.92726954   -7.5286677    571.23513  0.024512321  0.024418073            3 
 1943000   0.93161279   -7.5519769    569.76119   0.02443649  0.024411249            2 
 1944000   0.91733851   -7.5705656    570.45255  0.024453556  0.024404341            1 
 1945000   0.95045732    -7.505598    571.16702  0.024471595  0.024397424            1 
 1946000   0.94981542   -7.5697722    570.61981  0.024435586  0.024390457            2 
 1947000   0.93660634   -7.5333072    570.91245  0.024435561  0.024383504            3 
 1948000   0.91351453   -7.5568952    569.98957  0.024383537  0.024376562            2 
 1949000   0.93750477   -7.5192557    571.47057   0.02443435  0.024369632            2 
 1950000   0.92394404   -7.5403506     570.8222  0.024394111   0.02436271            1 
 1951000   0.92372064   -7.5250175    571.97149  0.024430697   0.02435578            3 
 1952000   0.93703445   -7.5461106    571.06941  0.024379671  0.024348771            2 
 1953000    0.9455735   -7.5583191    571.16276  0.024371171  0.024341792            2 
 1954000   0.94981239   -7.5643407    572.07175  0.024397465   0.02433492            2 
 1955000   0.95713497   -7.5557832    572.56863  0.024406165  0.024328067            2 
 1956000   0.94541064   -7.5417498      572.509  0.024391147  0.024321205            4 
 1957000   0.93440439   -7.5566991    572.46516  0.024376817   0.02431431            1 
 1958000   0.90691829   -7.5603848    572.83833  0.024380249  0.024307374            2 
 1959000   0.96411277    -7.533951    573.65502  0.024402544  0.024300547            2 
 1960000   0.93128875   -7.5501876    573.05152  0.024364435   0.02429366            3 
 1961000   0.91518943   -7.5348575    573.54875  0.024373141  0.024286768            2 
 1962000   0.92726063    -7.516197    574.66249  0.024408023  0.024280037            2 
 1963000   0.95504579   -7.5278379    573.65394  0.024352774  0.024273254            2 
 1964000    0.9284223   -7.5284544    575.09146  0.024401369  0.024266383            2 
 1965000   0.95247233   -7.5284702    575.49255   0.02440596  0.024259523            2 
 1966000   0.92771604   -7.5563619    571.89013   0.02424085  0.024252617            2 
 1967000   0.92290879   -7.5696774    573.91477  0.024314301  0.024245651            2 
 1968000   0.92652142   -7.5325407    574.24666     0.024316  0.024238771            2 
 1969000   0.96307521   -7.5362988    575.89587   0.02437345  0.024231945            1 
 1970000   0.94060984   -7.5460803    575.30454  0.024336064  0.024225163            3 
 1971000   0.95448653   -7.5643942    573.94529  0.024266248   0.02421827            1 
 1972000   0.95259682   -7.5663497    574.62952  0.024282857  0.024211307            3 
 1973000    0.9316425   -7.5510628    574.64475  0.024271192  0.024204432            1 
 1974000   0.94864411   -7.5799099    574.16533  0.024238658  0.024197499            2 
 1975000   0.91859301   -7.5355898    574.98723  0.024261065  0.024190612            2 
 1976000   0.93216097    -7.541954    575.11044  0.024253983  0.024183698            1 
 1977000   0.95075084   -7.5197843    577.53557  0.024343937  0.024176864            2 
 1978000   0.93637488   -7.5369313    576.73629  0.024297956  0.024170049            2 
 1979000   0.93388611   -7.5581579    574.59153  0.024195365  0.024163125            3 
 1980000    0.9328515   -7.5636569    576.25484   0.02425315  0.024156149            2 
 1981000   0.91807344   -7.5198412     576.7495  0.024261716   0.02414926            8 
 1982000   0.94839324   -7.5849119     577.3591  0.024275105  0.024142452            3 
 1983000   0.93806555   -7.5415701    578.52501   0.02431186  0.024135603            1 
 1984000   0.91161844   -7.5461643    575.26344  0.024162611  0.024128812            1 
 1985000   0.94530811   -7.5367254    577.19552   0.02423155  0.024122029            2 
 1986000   0.93287031   -7.6009859    575.44424  0.024145865  0.024115141            1 
 1987000   0.93536756   -7.5908878    575.69577  0.024144261  0.024108186            3 
 1988000   0.92865454   -7.5483458    577.59607  0.024211773  0.024101297            4 
 1989000   0.91368215   -7.5376224    577.81283  0.024208682  0.024094375            3 
 1990000   0.92841521   -7.5318705    579.75048  0.024277658  0.024087548            2 
 1991000   0.93545306   -7.5664517    576.64883  0.024135645  0.024080685            2 
 1992000    0.9204982   -7.5461188    578.33104  0.024193902  0.024073819            3 
 1993000   0.93842984    -7.603839    578.01205  0.024168425  0.024067017            3 
 1994000   0.94655285   -7.5414691    579.23597  0.024207455  0.024060217            2 
 1995000    0.9349746   -7.5753349    578.28046  0.024155408  0.024053508            2 
 1996000   0.93514034   -7.5532962    578.09313  0.024135485  0.024046822            3 
 1997000   0.93243953   -7.5628911    579.74439  0.024192305  0.024040118            1 
 1998000   0.95246237   -7.5584629    579.35964  0.024164149  0.024033395            2 
 1999000   0.93487568   -7.5947036    578.09822  0.024099475  0.024026731            3 
 2000000   0.96118601    -7.553015    580.70441  0.024196017  0.024020111            1 
 2001000     0.936205   -7.5568965    579.99599  0.024154423  0.024013466            2 
 2002000    0.9429204    -7.541489    580.45575  0.024161495  0.024006752            1 
 2003000   0.92044826   -7.5517643    580.44794  0.024149107  0.024000008            1 
 2004000   0.93032114   -7.5383043    580.49805   0.02413914  0.023993371            6 
 2005000   0.92043751   -7.5552717    580.60161  0.024131405  0.023986741            3 
 2006000   0.92438141    -7.562092    580.86602   0.02413036  0.023980072            2 
 2007000   0.96233955   -7.5715966    580.47317  0.024102025  0.023973397            2 
 2008000   0.92930804   -7.5148121    579.98919  0.024069936   0.02396671            2 
 2009000   0.93414625    -7.588747    580.45889  0.024077439  0.023959941            1 
 2010000   0.92782936   -7.5953742    579.62994  0.024031092  0.023953189            2 
 2011000   0.93421937   -7.5587028    580.64772  0.024061318  0.023946404            3 
 2012000   0.91728608   -7.5521108     580.4155  0.024039741  0.023939635            1 
 2013000   0.92741534   -7.5855331    579.74826  0.024000176  0.023932816            2 
 2014000   0.93146236   -7.5972308    582.17236  0.024088562  0.023926037            1 
 2015000   0.92296489   -7.6075638    578.86954  0.023940014  0.023919276            2 
 2016000   0.94151153   -7.5558847    580.57899  0.023998801   0.02391247            1 
 2017000   0.94099575   -7.5918941    580.30773  0.023975695    0.0239057            5 
 2018000   0.93209652   -7.5596908    583.32716  0.024088502  0.023898914            1 
 2019000   0.93040968   -7.5804112    580.25198  0.023949644  0.023892144            2 
 2020000   0.92719865   -7.5514627    581.26625  0.023979631   0.02388535            2 
 2021000   0.93617512   -7.6041866     580.8076  0.023948854  0.023878535            1 
 2022000    0.9168693   -7.5681773     581.2395  0.023954809  0.023871658            5 
 2023000   0.92733487   -7.5551187    581.51068  0.023954139  0.023864852            2 
 2024000   0.95638633   -7.5656749    582.92254  0.024000434  0.023858016            2 
 2025000   0.96261605   -7.5449688    582.11185   0.02395522  0.023851251            3 
 2026000   0.89346528   -7.5608938    582.42666  0.023956345  0.023844491            2 
 2027000   0.92497897   -7.5342507    583.23183  0.023977628  0.023837678            1 
 2028000   0.91268308   -7.6159316    583.01078  0.023956722   0.02383086            3 
 2029000   0.90902377   -7.5573205     582.5276   0.02392507  0.023824052            1 
 2030000   0.92003019   -7.5617572    582.66831   0.02391906  0.023817354            1 
 2031000   0.92262243   -7.5266511    582.85773  0.023915055  0.023810688            2 
 2032000   0.91572161    -7.587358    580.81463  0.023819497   0.02380396            1 
 2033000   0.94264961   -7.5454377    582.88624  0.023892697  0.023797174            2 
 2034000   0.93009943   -7.6098698     582.1743  0.023851782  0.023790381            2 
 2035000   0.92631871   -7.5379743    584.08844  0.023918446  0.023783605            3 
 2036000   0.91682907   -7.5809825    584.09431  0.023906938  0.023776938            2 
 2037000   0.92859405   -7.5579565    584.49964  0.023911784  0.023770256            2 
 2038000    0.9218431   -7.5624297    586.33565  0.023975125   0.02376355            2 
 2039000   0.92148546   -7.5715063    583.09723  0.023831013  0.023756845            2 
 2040000   0.92643955   -7.5532156    585.01377  0.023897622   0.02375013            2 
 2041000   0.92508658   -7.5505222    585.90172  0.023922167  0.023743417            2 
 2042000   0.92202103    -7.573247    586.19838  0.023922559  0.023736752            3 
 2043000   0.91077919   -7.5699935    585.63099  0.023887706  0.023730118            4 
 2044000   0.93266774   -7.5938843     585.0371  0.023851806   0.02372352            5 
 2045000   0.92994229     -7.54952    584.43466  0.023815593  0.023716842            3 
 2046000   0.92857951   -7.5683307    586.91269  0.023904883  0.023710185            2 
 2047000   0.92768982    -7.576343    587.65809   0.02392355  0.023703536            2 
 2048000   0.93416343   -7.5619901    586.03418  0.023845792   0.02369686            1 
 2049000   0.92313643   -7.5795469    587.51942  0.023894559  0.023690219            2 
 2050000   0.94346968   -7.5683807    586.40337  0.023837535   0.02368364            5 
 2051000   0.93764084   -7.5788584    587.43022  0.023867634  0.023677065            3 
 2052000   0.95156894   -7.5467799    586.95214  0.023836588  0.023670506            4 
 2053000   0.93407935   -7.5560657    588.06576   0.02387018  0.023663879            2 
 2054000   0.91940467   -7.5995371    586.48159  0.023794287  0.023657152            1 
 2055000   0.91922923   -7.5911588    586.51915  0.023784232  0.023650447            2 
 2056000   0.89732681    -7.631462    583.34165  0.023643873  0.023643731            1 
 2057000   0.94352631   -7.5867128    585.21905  0.023708437  0.023636982            2 
 2058000   0.90641757   -7.5672415    587.06591    0.0237717  0.023630226            2 
 2059000   0.91178447   -7.5886551    586.47147  0.023736096  0.023623501            3 
 2060000   0.92352175   -7.5613362    586.94057  0.023743551  0.023616735            2 
 2061000    0.9293954   -7.5579358    586.85467  0.023728557  0.023609989            2 
 2062000   0.91506873   -7.5772996    588.27256  0.023774352  0.023603264            2 
 2063000   0.90615595    -7.594375    586.97499  0.023710413  0.023596546            2 
 2064000   0.90943374   -7.5707859    587.17966  0.023707189  0.023589812            2 
 2065000   0.91253289   -7.5645431    587.17333  0.023695453  0.023583095            3 
 2066000   0.93715807   -7.5908827    587.52453   0.02369815  0.023576347            2 
 2067000   0.91912742   -7.5959939    588.16106  0.023712347  0.023569632            3 
 2068000   0.89760949    -7.550936    589.38687  0.023750277  0.023562967            3 
 2069000   0.92684787   -7.5967294    587.26604  0.023653377  0.023556342            2 
 2070000   0.91526137   -7.6100924    589.01783  0.023712473  0.023549662            3 
 2071000   0.91059794   -7.5614728     589.1205  0.023705155  0.023542984            2 
 2072000   0.91636196   -7.5500862    588.32573  0.023661749  0.023536362            2 
 2073000    0.9051858    -7.614353    587.75329  0.023627323  0.023529671            3 
 2074000   0.89679436   -7.5928687     589.2547  0.023676258  0.023522946            1 
 2075000   0.94212802     -7.57861    589.14139  0.023660297  0.023516291            2 
 2076000   0.92926583   -7.5883756    588.66222  0.023629665  0.023509671            3 
 2077000   0.92944239   -7.5748865    590.80439  0.023704236  0.023502979            4 
 2078000   0.92147757   -7.5988524    589.59237  0.023644224  0.023496335            2 
 2079000   0.94401851   -7.5556488    591.02121  0.023690124  0.023489752            3 
 2080000    0.9098754   -7.5702514    590.12465  0.023642814   0.02348318            2 
 2081000   0.90689663   -7.5866985    590.13203  0.023631749  0.023476514            1 
 2082000    0.9331087   -7.5930037     590.4193  0.023631897  0.023469929            2 
 2083000   0.90804421   -7.5494052    591.60921  0.023668155  0.023463431            2 
 2084000   0.94335514   -7.5761081    590.64331  0.023618174  0.023456926            2 
 2085000    0.9253772   -7.5763665    591.95099  0.023659112  0.023450377            3 
 2086000   0.90939987   -7.5768545    591.22365  0.023618714  0.023443775            3 
 2087000   0.90538354   -7.6010258     592.6576  0.023664654  0.023437226            2 
 2088000   0.90340257   -7.5808379    590.70567  0.023575418  0.023430626            2 
 2089000   0.89678781   -7.5973131    591.65213  0.023601888  0.023423991            2 
 2090000   0.91801746   -7.5915014    593.26177  0.023654775   0.02341744            2 
 2091000   0.92448135   -7.5935913    593.45015   0.02365097  0.023410948            3 
 2092000   0.94211428   -7.6031717    590.78607  0.023533543  0.023404433            2 
 2093000   0.91336521   -7.6173625    592.26514  0.023581189  0.023397842            2 
 2094000    0.9217641   -7.6039142    592.15117  0.023565392  0.023391216            5 
 2095000   0.89644131   -7.5944319    591.95297   0.02354626  0.023384628            1 
 2096000   0.93904044   -7.5601975    592.67948  0.023563911  0.023378076            1 
 2097000   0.92304048   -7.6095065    592.94316  0.023563152  0.023371504            3 
 2098000   0.93549123   -7.6187507    592.17322  0.023521339  0.023364985            1 
 2099000   0.93615796   -7.5910702    594.53753  0.023603999  0.023358466            2 
 2100000   0.89232329    -7.603874    592.29052  0.023503592  0.023351968            2 
 2101000   0.89669644   -7.6003863    594.00969  0.023560594  0.023345451            4 
 2102000   0.89391305   -7.5978436    593.14814  0.023515229  0.023338818            5 
 2103000    0.9095507   -7.5928302    593.36069   0.02351247  0.023332226            3 
 2104000   0.92765402   -7.6160953      592.961  0.023485464  0.023325698            4 
 2105000   0.90642525   -7.6239549     593.7848   0.02350692  0.023319208            4 
 2106000    0.9099169   -7.5637027    594.35549   0.02351834  0.023312758            2 
 2107000   0.91662132   -7.6091297    594.95058  0.023530714  0.023306271            2 
 2108000   0.92800305   -7.6203878    593.52508  0.023463199  0.023299832            2 
 2109000   0.92185428   -7.5891774    595.31224   0.02352269  0.023293376            2 
 2110000   0.91970496   -7.5673853    593.92746  0.023456851  0.023286934            1 
 2111000   0.91059059   -7.5952307    595.11976  0.023492806  0.023280474            3 
 2112000   0.93016543   -7.5623907     596.1135  0.023520893     0.023274            4 
 2113000    0.9279596   -7.6204357    594.93307  0.023463207  0.023267534            3 
 2114000   0.90474554   -7.6022385    595.60363  0.023478541  0.023260992            2 
 2115000   0.92186876   -7.5973722     594.2031  0.023412258  0.023254429            1 
 2116000   0.91150551   -7.5810499    595.10756  0.023436813  0.023247871            2 
 2117000   0.91211928   -7.6150455    595.89897  0.023456895  0.023241417            5 
 2118000   0.89488534   -7.6049209    595.81385  0.023442471  0.023235008            2 
 2119000   0.90966881   -7.6005614    595.99519   0.02343854  0.023228503            1 
 2120000   0.93644374   -7.5962208    596.82328  0.023460035  0.023222065            1 
 2121000   0.89871426   -7.6190782    597.43487  0.023473003  0.023215642            3 
 2122000   0.93934315   -7.6083103    596.14322  0.023411217  0.023209171            2 
 2123000   0.92091402   -7.6070933    595.41822  0.023371731  0.023202696            1 
 2124000   0.90593175   -7.5724078    597.94022  0.023459676  0.023196275            4 
 2125000   0.88768169   -7.6119025    596.57639  0.023395152  0.023189843            3 
 2126000   0.90894243   -7.5829561    597.03865  0.023402267  0.023183394            2 
 2127000   0.92312892   -7.5974049     596.6277  0.023375165  0.023176955            1 
 2128000   0.91250735   -7.6260034     596.4661  0.023357852  0.023170521            3 
 2129000   0.89686678   -7.6387502    596.52585  0.023349219  0.023164037            3 
 2130000   0.90244594   -7.5735219    596.57651  0.023340239  0.023157587            3 
 2131000   0.91506673   -7.6046328    598.05412  0.023387069  0.023151199            2 
 2132000   0.90228051   -7.6141653    598.11067  0.023378309   0.02314478            5 
 2133000   0.93797389   -7.6194375    597.76641  0.023353899  0.023138353            2 
 2134000   0.89564965   -7.5963239    599.09599  0.023394876  0.023131925            1 
 2135000   0.91721537   -7.6009156    598.33677  0.023354285  0.023125563            3 
 2136000   0.88322913   -7.5933514    596.07256  0.023255016  0.023119123            5 
 2137000   0.92088838   -7.6145232    597.52331  0.023300706  0.023112607           11 
 2138000   0.90114017   -7.5934643    598.54814  0.023329753  0.023106184            2 
 2139000   0.89724203   -7.6153313     598.2143   0.02330584  0.023099783            2 
 2140000   0.90616691   -7.6159502    598.43549  0.023303563  0.023093329            1 
 2141000   0.91746346   -7.5920269    599.49501  0.023333918  0.023086861            3 
 2142000   0.90375393   -7.6021829    598.78835  0.023295532  0.023080436            3 
 2143000   0.92643981   -7.6070799    597.38612  0.023230134  0.023074007            1 
 2144000   0.91273312   -7.5965234    599.60116  0.023305393  0.023067566            4 
 2145000   0.88830884   -7.6497551    598.47953  0.023250953  0.023061081            1 
 2146000   0.89813697   -7.6383351    597.38792  0.023197729   0.02305458            2 
 2147000   0.90938878    -7.602391    600.59439   0.02331138  0.023048084            3 
 2148000   0.92101774   -7.6436485    597.86723  0.023194725  0.023041651            2 
 2149000   0.91502912   -7.6171868    599.53389  0.023248561  0.023035226            3 
 2150000   0.91967029   -7.6201413    599.63794  0.023241781  0.023028812            2 
 2151000   0.90665496    -7.638324    599.44953  0.023223676  0.023022318            3 
 2152000   0.92900754   -7.6505719    599.33743  0.023208544  0.023015846            1 
 2153000   0.92341035   -7.5849145    601.14041   0.02326755   0.02300947            1 
 2154000   0.89394981   -7.6032503    601.71119   0.02327883  0.023003005            3 
 2155000   0.89349045   -7.6452578    599.54631  0.023184312  0.022996568            3 
 2156000    0.8937423   -7.6315485    599.65163  0.023177629  0.022990099            3 
 2157000   0.90843986   -7.6240244    600.56656  0.023202231  0.022983664            1 
 2158000   0.91828325    -7.626308    601.66371  0.023233847  0.022977286            1 
 2159000   0.89701438   -7.5913215    603.07672  0.023277625  0.022970895            2 
 2160000   0.88944998   -7.6274757    600.45871  0.023165845  0.022964506            3 
 2161000   0.91869691   -7.6198333    599.47395  0.023117151  0.022958132            2 
 2162000   0.90874852   -7.6022373    601.67884  0.023191445  0.022951678            2 
 2163000   0.90425298   -7.6140036    601.80197  0.023185466  0.022945269            3 
 2164000   0.91966337   -7.6452873     601.0213   0.02314469   0.02293893            1 
 2165000   0.91619814   -7.6046599    601.68364  0.023159493  0.022932488            3 
 2166000   0.88143293   -7.6289801    601.84404  0.023154972  0.022926035            1 
 2167000   0.91694816   -7.6289801    599.19548  0.023042435   0.02291953            2 
 2168000   0.90302882   -7.5685118    602.86139  0.023172716  0.022913047            3 
 2169000   0.89572062   -7.6056323    600.98245  0.023089844  0.022906642            1 
 2170000   0.93005312   -7.6166131    600.78292  0.023071541  0.022900177            1 
 2171000   0.90914013   -7.6133603    602.03569  0.023109001  0.022893731            1 
 2172000   0.90604154   -7.6392175    601.12519  0.023063428  0.022887221            4 
 2173000   0.88818682   -7.6528963    601.82811  0.023079771  0.022880723            2 
 2174000   0.91964436   -7.6293379    601.94885  0.023073783  0.022874252            3 
 2175000   0.92067658   -7.6188665    601.95474    0.0230634  0.022867806            1 
 2176000   0.88936283   -7.6213223    604.11345  0.023135472  0.022861379            4 
 2177000   0.88358272   -7.5764439    602.16713  0.023050342  0.022854928            3 
 2178000   0.88952503   -7.6037158    602.32143  0.023045662  0.022848549            1 
 2179000   0.92161614   -7.6255554    602.69598   0.02304941  0.022842183            2 
 2180000   0.90802029   -7.6061378    601.63511  0.022998284  0.022835747            1 
 2181000   0.90302862   -7.6290609    602.81404  0.023032785  0.022829277            1 
 2182000   0.91565523   -7.6200354    603.96009  0.023065998  0.022822845            2 
 2183000   0.91448756   -7.6230557     604.2464  0.023066361  0.022816448            1 
 2184000   0.88523413   -7.6405651    602.93392  0.023005721  0.022810038            2 
 2185000   0.87630108   -7.6256089    601.48117  0.022939785  0.022803603            2 
 2186000   0.89699722   -7.6403053    603.65008  0.023011973  0.022797137            2 
 2187000   0.91579085   -7.6002605     603.6062  0.022999779  0.022790743            3 
 2188000   0.89581155   -7.6477256    604.66525  0.023029603  0.022784282            4 
 2189000   0.89577022   -7.6056385    605.08068  0.023034897  0.022777836            2 
 2190000   0.88549499   -7.6654892    604.35844  0.022996897  0.022771393            3 
 2191000   0.91014282   -7.6449545    603.57834   0.02295673  0.022764953            4 
 2192000   0.91001828   -7.6174262    603.85891  0.022956923  0.022758484            2 
 2193000   0.89170744   -7.6364602    603.52294  0.022933688  0.022751993            2 
 2194000   0.89911698   -7.6338539     604.8733  0.022974525  0.022745511            3 
 2195000   0.90784689   -7.6045359    603.86441  0.022925756  0.022739052            2 
 2196000   0.89481003   -7.6104363    604.92051  0.022955393  0.022732583            2 
 2197000   0.93246209    -7.651016    604.15995  0.022916096  0.022726079            1 
 2198000   0.89449744   -7.6412833    603.73393  0.022889518   0.02271958            6 
 2199000   0.89166511   -7.6540272    603.05063  0.022853215  0.022713042            2 
 2200000   0.92193708   -7.5947235    604.53662  0.022899114  0.022706551            1 
 2201000   0.89485718   -7.6178044    606.00254  0.022944212  0.022700106            4 
 2202000   0.90130452   -7.6423602    604.66669  0.022883238  0.022693684            2 
 2203000   0.88281097   -7.6463117    604.93608  0.022883041  0.022687231            2 
 2204000   0.91691456   -7.5999753    606.23483  0.022921764  0.022680823            2 
 2205000   0.92803357   -7.6251388    605.22939  0.022873371  0.022674348            2 
 2206000   0.90019039   -7.6243586     604.6394  0.022840715  0.022667822            3 
 2207000   0.92575148   -7.6311984    603.94641  0.022804199  0.022661267            2 
 2208000   0.88976707     -7.61906     605.2368  0.022842573  0.022654772            4 
 2209000   0.89475742   -7.6223623    606.42202  0.022876944  0.022648275            2 
 2210000   0.90590609   -7.6296906    605.13961  0.022818236   0.02264178            2 
 2211000   0.90481561   -7.6449895    605.57094  0.022824172  0.022635241           10 
 2212000   0.88558775   -7.6417035    603.91554   0.02275149  0.022628729            6 
 2213000   0.90054367   -7.6521487    604.43834  0.022760895  0.022622212            2 
 2214000   0.88555492   -7.6595066    605.62863  0.022795417  0.022615635            1 
 2215000   0.87378167   -7.6248462    605.90138  0.022795387    0.0226091            2 
 2216000   0.88878218    -7.660215    606.61669  0.022811999  0.022602595            3 
 2217000   0.88777288   -7.6500979    605.41893  0.022756688  0.022596046            2 
 2218000   0.89361891   -7.6492858    607.35461  0.022819154  0.022589524            2 
 2219000   0.88680809   -7.6411437    606.08389   0.02276115  0.022582962            3 
 2220000   0.91189175   -7.6156347    606.71058  0.022774421  0.022576473            4 
 2221000   0.89138991   -7.6375454    605.36399  0.022713642  0.022569966            3 
 2222000   0.89835727     -7.66756    605.72211  0.022716851  0.022563376            1 
 2223000   0.87072713   -7.6769125    604.29786  0.022653241  0.022556791            2 
 2224000   0.90739967   -7.6291481    606.10208  0.022710659  0.022550191            2 
 2225000    0.8889813   -7.6326735    606.73875  0.022724298  0.022543651            2 
 2226000   0.89672303   -7.6600522     606.0735  0.022689185  0.022537087            2 
 2227000   0.90860143   -7.6490272    606.62977  0.022699812  0.022530594            2 
 2228000   0.88873123   -7.6283966    606.80263  0.022696089  0.022524052            5 
 2229000   0.90132319   -7.6615036    606.06808  0.022658445  0.022517521            1 
 2230000   0.90022827   -7.6443181    606.43794  0.022662105  0.022510947            2 
 2231000   0.90737224   -7.6410446    607.08767  0.022676216   0.02250435            3 
 2232000   0.90710917   -7.6391167    608.86436  0.022732391  0.022497844            3 
 2233000    0.8847168   -7.6398357    606.63366  0.022638963  0.022491337            3 
 2234000   0.88659805   -7.6115196    608.15688  0.022685649  0.022484913            5 
 2235000   0.89406579    -7.664327    609.11102  0.022711074    0.0224784            2 
 2236000    0.9046128   -7.6488502    607.44072  0.022638667  0.022471941            6 
 2237000   0.91479128   -7.6523532    607.51788  0.022631421  0.022465486            3 
 2238000   0.90126639   -7.6644747    607.94999  0.022637399  0.022459009            1 
 2239000   0.89843215   -7.6390881    608.08619  0.022632358  0.022452541            2 
 2240000   0.88006004   -7.6377556    607.56812  0.022602981   0.02244605            2 
 2241000   0.88536181   -7.6390187    608.73073  0.022636127   0.02243957            2 
 2242000   0.89587425    -7.664114     608.5044  0.022617618   0.02243313            1 
 2243000   0.89198041   -7.6740452    607.91024   0.02258546  0.022426625            3 
 2244000   0.89489565   -7.6711151    608.16149  0.022584726  0.022420069            1 
 2245000   0.89442556   -7.6647078    609.84517  0.022637163  0.022413542            1 
 2246000   0.90879145   -7.6639965    608.99698  0.022595614  0.022407012            2 
 2247000   0.88568623   -7.6586997    608.51422  0.022567654  0.022400497            6 
 2248000    0.9163184   -7.6537186    608.69979  0.022564494  0.022393913            1 
 2249000   0.88595254    -7.604398    609.54015  0.022585599   0.02238732            2 
 2250000   0.90329648   -7.6426887     609.5083  0.022574381  0.022380755            1 
 2251000   0.88942464   -7.6423912    608.70419  0.022534584  0.022374103            3 
 2252000    0.9023022   -7.6434382    606.21846  0.022432595  0.022367471            4 
 2253000   0.91165507   -7.6884719    607.99225  0.022488247   0.02236082            3 
 2254000   0.88582847   -7.6989145    608.12509  0.022483181   0.02235413            1 
 2255000   0.90112788   -7.6769513    606.04036   0.02239617  0.022347406            3 
 2256000   0.90053138   -7.6456402    607.14421  0.022427017  0.022340695            3 
 2257000   0.88515247   -7.6551342    608.81072  0.022478612  0.022334003            2 
 2258000   0.89818769   -7.6322548    609.41422  0.022490929  0.022327348            3 
 2259000   0.89589893   -7.6423871    609.21643  0.022473677  0.022320714            1 
 2260000    0.9050466   -7.6612472    607.31196  0.022393509   0.02231405            2 
 2261000   0.90150739   -7.6803056     607.8523   0.02240352  0.022307323            2 
 2262000    0.8978307   -7.6569917    607.28736  0.022372803  0.022300589            1 
 2263000   0.88464758   -7.6715909     608.5388     0.022409  0.022293844            3 
 2264000   0.88280697   -7.6633108    608.16535  0.022385356  0.022287172            2 
 2265000   0.88435232   -7.6765286    609.34645  0.022418928  0.022280468            2 
 2266000    0.8745066   -7.6700641    609.18077  0.022402941  0.022273768            2 
 2267000   0.89547058   -7.6666868    607.93479  0.022347257  0.022267076            3 
 2268000   0.87882021   -7.6730445    607.81005  0.022332821  0.022260318            4 
 2269000   0.89729672   -7.6505811    609.12459  0.022371257  0.022253605            1 
 2270000    0.8897414   -7.6805712     607.7342   0.02231036  0.022246831            2 
 2271000   0.88420743   -7.6386756    609.58523  0.022368459  0.022240039            2 
 2272000   0.87277225   -7.6606855    607.76488  0.022291846  0.022233311            2 
 2273000   0.88938898   -7.6538165    608.91786  0.022324309  0.022226596            1 
 2274000   0.87678116   -7.6618318    608.72827  0.022307545  0.022219859            2 
 2275000   0.89379585   -7.6681156    607.55945  0.022254925  0.022213103            5 
 2276000   0.88372484    -7.670389    607.52788  0.022243991  0.022206338            2 
 2277000   0.88784699   -7.6610273    609.71287  0.022314188  0.022199596            1 
 2278000   0.89018535    -7.670167    608.54481  0.022261663  0.022192816            2 
 2279000   0.87645757   -7.6201063     609.9939  0.022304881  0.022186095            2 
 2280000     0.884789   -7.6610587    609.27846  0.022268949  0.022179341            2 
 2281000   0.88347169   -7.6552105      608.362  0.022225705  0.022172532            3 
 2282000   0.89163502   -7.6509258    609.99679  0.022275664  0.022165744            2 
 2283000    0.8892571   -7.6693944    608.62229  0.022215736   0.02215903            2 
 2284000   0.88244072   -7.6952338    608.72862  0.022209888  0.022152324            2 
 2285000   0.88911282   -7.6543213    612.62504   0.02234227  0.022145632            3 
 2286000   0.88480589   -7.6694515    611.57204   0.02229411  0.022138994            2 
 2287000   0.88403427   -7.6610063    609.65038  0.022214341  0.022132306            1 
 2288000   0.87824506   -7.6641898    610.79674  0.022246385  0.022125565            2 
 2289000   0.88611031   -7.6668684    609.28243  0.022181536  0.022118824            2 
 2290000   0.87633524   -7.6597557    610.36194  0.022211133  0.022112136            3 
 2291000   0.87105262   -7.6745584    609.29021  0.022162455  0.022105406            5 
 2292000   0.87550041   -7.7020195    609.88281  0.022174331  0.022098622            3 
 2293000   0.88060296   -7.6817323    610.27741  0.022179002  0.022091823            2 
 2294000   0.89425899   -7.6694963    610.79974  0.022188308   0.02208502            2 
 2295000   0.87150637   -7.6731454    611.43843  0.022201831  0.022078337            1 
 2296000   0.88845824   -7.6849156    609.31615  0.022115133  0.022071625            2 
 2297000   0.88533907   -7.6879757      611.272  0.022176462  0.022064867            2 
 2298000   0.88913058    -7.672555    612.63248  0.022216148  0.022058108            2 
 2299000    0.8744538   -7.6485624    611.05485  0.022149298  0.022051424            2 
 2300000   0.89056446   -7.6541348    611.52018  0.022156528  0.022044689            1 
 2301000   0.87440175   -7.7042115    609.45918  0.022072258  0.022037951            2 
 2302000   0.88475536   -7.6915667    612.46773   0.02217158   0.02203122            4 
 2303000   0.85883938   -7.6855296    612.10092   0.02214868  0.022024546            1 
 2304000   0.87939998    -7.683913    612.45459  0.022151859  0.022017849            2 
 2305000   0.87951315   -7.6633206    611.79836  0.022118523  0.022011145            2 
 2306000   0.88225062   -7.6654277    613.64684  0.022175732  0.022004411            1 
 2307000   0.89743018   -7.6730298    610.81128  0.022063693  0.021997671            3 
 2308000   0.88922298   -7.6768544    612.36346  0.022110177  0.021990884            2 
 2309000   0.88644311   -7.7048117    609.79795   0.02200801  0.021984087            3 
 2310000   0.89350264   -7.6963894    610.82384  0.022035492  0.021977282            3 
 2311000   0.87537142   -7.6659417    612.38076  0.022082099  0.021970531            3 
 2312000   0.86161126   -7.6920357    612.41854  0.022073909   0.02196375            4 
 2313000   0.88435888   -7.6691214    611.88387  0.022045103  0.021956984            2 
 2314000   0.90146446   -7.6898745    612.12695   0.02204433  0.021950276            3 
 2315000   0.88800556   -7.6824186    611.17378  0.022000496  0.021943542            1 
 2316000   0.87038441   -7.6803592    613.12989  0.022061381  0.021936748            2 
 2317000   0.87713783   -7.6883185    611.96104   0.02200982  0.021929993            4 
 2318000   0.88491518   -7.6817868    611.05657  0.021967809   0.02192321            2 
 2319000   0.85599682   -7.6617333    612.86499  0.022023321  0.021916434            1 
 2320000   0.87001142   -7.6972653    611.70726  0.021972244  0.021909691            1 
 2321000   0.88735417   -7.6980216    610.61537  0.021923574  0.021902874            4 
 2322000    0.8677293   -7.6653372    612.30415   0.02197474  0.021896081            1 
 2323000   0.87733193   -7.6960657    613.34118  0.022002482  0.021889249            3 
 2324000   0.86039242   -7.6805308    612.37663  0.021958427   0.02188248            3 
 2325000   0.87689821   -7.6912667    612.36585  0.021948597  0.021875689            1 
 2326000   0.88317074    -7.667782    614.28827  0.022008035  0.021868917            1 
 2327000   0.88946571   -7.6840341     612.6528  0.021940009  0.021862171            2 
 2328000   0.87461118   -7.6727538    612.45719  0.021923582  0.021855456            4 
 2329000   0.88025224   -7.6819425    612.93031  0.021931097  0.021848713            1 
 2330000   0.87719998   -7.7098741    611.15109  0.021858051  0.021841918            2 
 2331000   0.88839996   -7.6567186    613.51785  0.021933285  0.021835211            2 
 2332000   0.89070096   -7.6792804    613.82723  0.021934935  0.021828421            3 
 2333000   0.87443055    -7.684226    613.97116  0.021930674  0.021821646            3 
 2334000   0.88957023   -7.6868265    613.56498  0.021906776  0.021814863            2 
 2335000   0.89102542   -7.6534971    614.98625  0.021948117  0.021808115            2 
 2336000   0.86399355   -7.6803687    612.27343  0.021841946  0.021801362            1 
 2337000   0.89206656   -7.6963202    613.32254  0.021870009  0.021794591            2 
 2338000   0.86794479   -7.6873577    614.51486  0.021903153  0.021787812            6 
 2339000   0.88266284   -7.6864486    614.70992  0.021900738   0.02178102            5 
 2340000   0.89082947   -7.6633253    614.68178  0.021890377  0.021774201            2 
 2341000   0.89159055   -7.6870013    613.09509  0.021824544  0.021767416            5 
 2342000   0.87528386   -7.6762383    613.31325  0.021822988  0.021760672            5 
 2343000   0.88494116   -7.6688851    614.41758  0.021852951  0.021753925            1 
 2344000   0.87312263   -7.6529694    617.43697  0.021950973  0.021747221            2 
 2345000    0.8757015    -7.652546    616.02132  0.021891305  0.021740601            2 
 2346000   0.87117744   -7.6699497    615.11724  0.021849859  0.021733894            2 
 2347000    0.8772484   -7.6912206    614.00716  0.021801135  0.021727184            2 
 2348000   0.87449275   -7.6852788    615.11324  0.021831106  0.021720453            2 
 2349000   0.89560777   -7.6949918    614.33836  0.021794322  0.021713788            2 
 2350000   0.88354864   -7.6834529    616.80788   0.02187262  0.021707132            3 
 2351000   0.87013065   -7.6856831    616.93833   0.02186794  0.021700474            2 
 2352000   0.85948953   -7.6856916    617.75567  0.021887602  0.021693877            1 
 2353000   0.87592685   -7.6758626    616.44697  0.021831951  0.021687257            1 
 2354000   0.87337937   -7.7035182    616.32979  0.021818528  0.021680625            2 
 2355000   0.88026478   -7.6997444    615.98979  0.021797232  0.021673945            2 
 2356000   0.87855405   -7.6883119    616.04726  0.021790013  0.021667313            3 
 2357000   0.86669501   -7.7104641    616.11553  0.021783182  0.021660681            2 
 2358000   0.86319151   -7.6888176    615.88752  0.021765886  0.021653981            2 
 2359000   0.87385872    -7.712215    616.18994  0.021767343  0.021647343            2 
 2360000   0.87458606   -7.6956147    617.21729  0.021794396  0.021640732            2 
 2361000   0.87214747   -7.7215108    616.45904  0.021758402  0.021634074            1 
 2362000   0.86185181   -7.6916935    617.86477  0.021798785  0.021627449            2 
 2363000   0.87663254   -7.7102483    617.02463  0.021759932  0.021620864            2 
 2364000   0.87736403   -7.6960829    618.27894  0.021794943  0.021614276            1 
 2365000   0.85722298   -7.6728712    619.60803  0.021832559  0.021607754            1 
 2366000   0.85430497    -7.657267    619.62421  0.021823902  0.021601234            5 
 2367000   0.86884914   -7.7173583    617.58913  0.021743034  0.021594658            2 
 2368000    0.8853752   -7.7250457    617.97535  0.021747443  0.021588079            3 
 2369000   0.88569953   -7.6742931    619.69345    0.0217987  0.021581515            3 
 2370000   0.89538074    -7.730451    617.84613  0.021724547  0.021574915            2 
 2371000   0.85982915   -7.6704231    620.23639  0.021799395  0.021568331            2 
 2372000   0.87086974   -7.6830088    618.32623  0.021723097  0.021561831            1 
 2373000   0.87532658   -7.7106412    617.30855  0.021678204  0.021555268            4 
 2374000   0.87424262   -7.6865931     619.7683  0.021755416  0.021548684            3 
 2375000   0.86884659   -7.7117386    620.50687  0.021772171  0.021542115            1 
 2376000    0.8849208   -7.7191773    617.69975  0.021664553  0.021535577            3 
 2377000   0.87705699   -7.6832035    619.33777  0.021712865  0.021528995            3 
 2378000   0.86988776   -7.7006721    620.15183  0.021732262  0.021522387            2 
 2379000   0.87520369   -7.7035948    617.07223  0.021615253  0.021515833            1 
 2380000    0.8609846   -7.6897828    619.78805  0.021701262  0.021509274            3 
 2381000   0.85882187    -7.698704    619.77131  0.021691562  0.021502732            4 
 2382000   0.88304951   -7.7070098    620.55319  0.021709809  0.021496188            2 
 2383000   0.87807143    -7.684148    619.38594   0.02165988  0.021489684            2 
 2384000   0.87748448   -7.7066769     619.7504  0.021663535   0.02148314            3 
 2385000   0.86731364   -7.7282524    619.63535  0.021650431  0.021476575            4 
 2386000   0.87857386   -7.6990664    620.15247  0.021659418  0.021470025            2 
 2387000   0.85405937   -7.7087182    619.22876  0.021618097  0.021463499            7 
 2388000   0.86508288   -7.7066881     619.2872  0.021611083  0.021456967            1 
 2389000   0.87882327   -7.7201296    620.09613  0.021630254  0.021450398            3 
 2390000   0.85544701   -7.6831321     620.7779  0.021644976  0.021443847            2 
 2391000   0.89735557   -7.7191243    619.78228  0.021601223  0.021437327            3 
 2392000   0.87596318   -7.6757077    621.17544  0.021640727  0.021430855            2 
 2393000   0.86587704   -7.7075899    619.70686  0.021580543  0.021424404            3 
 2394000   0.86239684    -7.700873    621.44498  0.021632031  0.021417961            1 
 2395000   0.85859888   -7.7187749    620.99698  0.021607411  0.021411526            4 
 2396000   0.89639285   -7.6739318    621.10143  0.021602025  0.021405057            3 
 2397000   0.86846247   -7.6744647    621.29098  0.021599603  0.021398583            2 
 2398000    0.8548836   -7.7170389    620.75697  0.021572038  0.021392141            2 
 2399000   0.85797697   -7.7183367    619.81854  0.021530448  0.021385654            2 
 2400000   0.85299402   -7.6887006    622.66623  0.021620355  0.021379202            2 
 2401000   0.86784044   -7.7060559    622.81477  0.021616506  0.021372768            4 
 2402000   0.86847069   -7.7345031    621.92398  0.021576602  0.021366269            2 
 2403000   0.86179892   -7.7038887    621.88191  0.021566164  0.021359845            1 
 2404000    0.8693961   -7.6847178    621.78439  0.021553813  0.021353421            4 
 2405000   0.86367328   -7.7451744    621.88906  0.021548478  0.021346986            2 
 2406000   0.88902506   -7.7342924    621.40252   0.02152267  0.021340495            2 
 2407000     0.849478   -7.7026625      621.666   0.02152285  0.021334038            1 
 2408000   0.86451754   -7.7311232    622.31064  0.021536221  0.021327571            2 
 2409000   0.86539807   -7.7198758    621.91827  0.021513708    0.0213211            4 
 2410000   0.87539562   -7.6854691    621.19962  0.021479931  0.021314655            3 
 2411000   0.86656703   -7.7037282    621.62635  0.021485772  0.021308179            2 
 2412000   0.85901814   -7.7485604    621.82378  0.021483685  0.021301688            3 
 2413000   0.85609998   -7.7224627    622.49909  0.021498104  0.021295206            2 
 2414000   0.85856048   -7.7285186    622.40289  0.021485877  0.021288781            1 
 2415000   0.87265442    -7.684754    624.84004  0.021561078  0.021282377            3 
 2416000   0.86201228   -7.7191352    623.76067  0.021514924   0.02127599            2 
 2417000     0.878082   -7.7288818    622.46592  0.021461382  0.021269585            1 
 2418000    0.8509922   -7.7243847    625.35748   0.02155216  0.021263146            2 
 2419000   0.85397715   -7.7340821    623.54501  0.021480812   0.02125668            2 
 2420000   0.87102635    -7.726927    622.06646  0.021421021  0.021250242            1 
 2421000    0.8534258   -7.7262575      621.899  0.021406409   0.02124382            3 
 2422000   0.86934012   -7.7338705    622.95937  0.021434055  0.021237349            3 
 2423000   0.88038214   -7.7219941     622.1417  0.021397087  0.021230925            4 
 2424000   0.86468624   -7.7392781    623.78209  0.021444654  0.021224483            3 
 2425000   0.85170332   -7.7026764    624.31374   0.02145408  0.021217989            2 
 2426000   0.87371609   -7.7101607    621.85964  0.021360938  0.021211499            3 
 2427000   0.85575964   -7.7318331    625.29847  0.021470212  0.021205017            2 
 2428000   0.86097556   -7.7463287    623.76781  0.021408835  0.021198568            1 
 2429000   0.87635509   -7.7173184    623.78037  0.021400452  0.021192138            3 
 2430000   0.86616544   -7.7561012    623.96851  0.021398097  0.021185691            2 
 2431000   0.87604166   -7.7322267    624.57096  0.021409946  0.021179257            2 
 2432000   0.84722005   -7.7259296    624.50262  0.021398801  0.021172828            2 
 2433000   0.87006628   -7.6975746    625.54278  0.021425633  0.021166393            2 
 2434000   0.87058416   -7.7226628    624.68715  0.021387536   0.02116001            2 
 2435000   0.86469861   -7.7237773     624.6883  0.021378792  0.021153627            2 
 2436000   0.87343191    -7.714448    624.75737  0.021372379  0.021147272            5 
 2437000   0.87412454   -7.7174803    627.04262  0.021441753  0.021140948            2 
 2438000   0.87021199   -7.7310822    627.26759  0.021440648  0.021134621            2 
 2439000   0.88052941   -7.7165253    627.01039  0.021423069   0.02112831            2 
 2440000   0.84599708   -7.7161346    625.66325  0.021368281  0.021122018            1 
 2441000   0.86812762   -7.7155599    627.21661  0.021412557  0.021115734            2 
 2442000    0.8717637   -7.6826733    627.03094  0.021397452  0.021109431            1 
 2443000   0.85112601   -7.7320582     625.9948   0.02135335   0.02110314            1 
 2444000   0.85389155   -7.7350569    625.47558  0.021326909  0.021096838            2 
 2445000    0.8546286   -7.7006758    627.20824  0.021377241  0.021090547            3 
 2446000   0.86460041   -7.7232291    626.96653  0.021360266  0.021084271            4 
 2447000   0.87740165   -7.7243753    626.91498  0.021349781  0.021077993            1 
 2448000   0.86476998   -7.7283913    628.18599  0.021384327  0.021071775            2 
 2449000   0.86460245   -7.7178135     627.7689  0.021361403  0.021065522            4 
 2450000    0.8473115   -7.7059128    628.31147  0.021371138  0.021059318            3 
 2451000   0.84605222   -7.7370282    629.35955  0.021398054  0.021053129            2 
 2452000   0.85464892   -7.7242985    627.64399  0.021331022  0.021046845            2 
 2453000   0.85548515   -7.7469356    627.95468  0.021332881  0.021040631            2 
 2454000   0.86434745   -7.7674639    626.97395  0.021290884  0.021034363            3 
 2455000   0.88428257   -7.7232478     626.8744  0.021278832  0.021028053            1 
 2456000   0.84631453    -7.756285    626.34343  0.021252152  0.021021761            9 
 2457000   0.87920154   -7.7214533    628.39516  0.021313091  0.021015505            3 
 2458000   0.85839431    -7.759697    627.12809  0.021261462  0.021009211            2 
 2459000   0.86246685   -7.7621954    626.40344  0.021228258  0.021002913            2 
 2460000    0.8558436   -7.7327718    628.25765  0.021282441  0.020996639            4 
 2461000   0.85546983   -7.7324056    627.89215  0.021261416  0.020990343            2 
 2462000   0.84843452   -7.7486997    628.26608  0.021265437  0.020984027            1 
 2463000   0.84353854   -7.7737669    626.92461  0.021211416  0.020977734            2 
 2464000   0.86675698   -7.7859691    627.32522  0.021216356  0.020971423            1 
 2465000   0.84722021    -7.747286    628.59779  0.021250771  0.020965106            2 
 2466000   0.86431078   -7.7515212    629.43737  0.021270525  0.020958817            2 
 2467000   0.84551949   -7.7605856    627.93469  0.021211143  0.020952558            1 
 2468000   0.85554205   -7.7470547    628.52557    0.0212225  0.020946275            3 
 2469000   0.87802054   -7.7550394    628.19006  0.021202581   0.02093998            2 
 2470000   0.84423934   -7.7590013    629.32531  0.021232298  0.020933684            4 
 2471000   0.85572329   -7.7635172    628.20273  0.021185847  0.020927445            2 
 2472000   0.87707725   -7.7424607    627.25883  0.021145457  0.020921172            1 
 2473000   0.84724202   -7.7464568    629.28717  0.021205256  0.020914875            3 
 2474000   0.84088694   -7.7692199    628.37187  0.021165854  0.020908571            5 
 2475000   0.86719637   -7.7568898     627.8212  0.021138761  0.020902276            3 
 2476000   0.87870498   -7.7599344    628.85315  0.021164955  0.020895967            2 
 2477000   0.86927427   -7.7260483    630.04022  0.021196347  0.020889683            1 
 2478000   0.86574317   -7.7430361    630.18437  0.021192641   0.02088349            3 
 2479000   0.85899115   -7.7447919    629.28807  0.021153962  0.020877265            2 
 2480000   0.86468811   -7.7254156    630.85965  0.021198241   0.02087106            2 
 2481000   0.85581487   -7.7461977    630.28703  0.021170463  0.020864869            2 
 2482000    0.8528288    -7.726165    630.05553  0.021154161  0.020858661            2 
 2483000   0.84837328   -7.7755819    630.76166   0.02116934  0.020852459            1 
 2484000   0.85574287   -7.7673485    630.24361  0.021143438  0.020846228            3 
 2485000   0.85361446   -7.7546365     630.5599  0.021145536  0.020839973            1 
 2486000   0.85208015   -7.7266599    631.19683  0.021158381  0.020833794            1 
 2487000   0.85803137   -7.7397729    631.44967  0.021158346  0.020827623            2 
 2488000   0.84302763   -7.7314733    632.85059  0.021196764  0.020821445            3 
 2489000   0.83557722   -7.7614637    631.58381  0.021145835  0.020815266            3 
 2490000   0.87037029    -7.730697    633.08407  0.021187553  0.020809139            2 
 2491000   0.85206438    -7.736129    631.47387  0.021125179   0.02080301            2 
 2492000   0.85411657   -7.7468073    630.92171  0.021098238  0.020796852            2 
 2493000   0.86035838   -7.7622631    630.39809  0.021072272  0.020790694            1 
 2494000   0.86648722   -7.7365294     631.2669  0.021092853  0.020784493            1 
 2495000   0.84163366   -7.7384983      631.146  0.021080361  0.020778271            3 
 2496000   0.85175189   -7.7262851    631.41007  0.021080732  0.020772107            2 
 2497000   0.85321729     -7.77021    630.62749  0.021046172  0.020765901            1 
 2498000    0.8547173   -7.7375397    632.97851  0.021116177  0.020759712            1 
 2499000   0.86318406   -7.7269151     632.1139  0.021078895  0.020753511            2 
 2500000    0.8761493   -7.7183422     633.5233  0.021117443  0.020747335            1 
 2501000   0.85804704   -7.7403461    630.45114  0.021006635  0.020741168            3 
 2502000   0.86826409   -7.7589102    631.58719  0.021036077  0.020734978            3 
 2503000   0.84672408    -7.723892    631.87885  0.021037384  0.020728811            2 
 2504000   0.83036236   -7.7465658    630.74663  0.020991302  0.020722655            2 
 2505000   0.84492483   -7.7501815    633.94446  0.021089303  0.020716527            3 
 2506000   0.85336221   -7.7359133    632.35929  0.021028175    0.0207104            3 
 2507000    0.8374761   -7.7502292    633.57767  0.021060287  0.020704305            3 
 2508000   0.86782042    -7.737072    633.92025  0.021063273  0.020698223            2 
 2509000   0.85901194   -7.6959401    636.64037  0.021145223  0.020692188            1 
 2510000   0.85631182   -7.7205685    636.08716  0.021118432  0.020686145            3 
 2511000    0.8367745   -7.6913441    635.50445  0.021090683  0.020680133            2 
 2512000   0.83976503   -7.7292393    635.53391  0.021083264  0.020674073            4 
 2513000   0.84650549   -7.7126203    632.13964  0.020962317  0.020668014            1 
 2514000    0.8627676   -7.7292885    634.90912  0.021045781  0.020661941            1 
 2515000   0.83450024   -7.7497337    634.82209  0.021034529  0.020655889            1 
 2516000   0.88363354   -7.7523741    633.67084  0.020988038  0.020649818            1 
 2517000   0.83652109   -7.7650246    633.53693  0.020975266  0.020643715            2 
 2518000    0.8465523   -7.7508994    633.22185  0.020956508  0.020637623            2 
 2519000   0.85323918   -7.7370037    633.44767  0.020955659  0.020631518            2 
 2520000   0.84409519   -7.7344343    633.35353   0.02094423   0.02062543            2 
 2521000   0.86316233   -7.7500506     634.4124  0.020970924  0.020619294            2 
 2522000   0.86720458    -7.747022    635.01791  0.020982617  0.020613206            3 
 2523000   0.84095802   -7.7428305    634.63476  0.020961645  0.020607101            1 
 2524000   0.84484227    -7.744932    634.68208  0.020954902  0.020600956            2 
 2525000   0.85945805   -7.7444075    634.17431  0.020929845  0.020594799            2 
 2526000   0.85176946   -7.7590792    633.43698  0.020897235  0.020588656            5 
 2527000   0.86328545   -7.7622424    633.67492  0.020896812  0.020582528            2 
 2528000   0.84694701    -7.797865    631.22532  0.020807797  0.020576353            3 
 2529000   0.85263433   -7.7934367    633.50584  0.020874715  0.020570167            1 
 2530000   0.84384601   -7.7436226     634.4458  0.020897424     0.020564            4 
 2531000   0.83974622    -7.758464    634.27048  0.020883395  0.020557832            3 
 2532000   0.85095946   -7.7602031    634.32811  0.020877044  0.020551673            4 
 2533000   0.84571616   -7.7490705    633.88234  0.020854137  0.020545556            2 
 2534000   0.84742259   -7.7597084    633.79094  0.020842901  0.020539357            1 
 2535000   0.85135421   -7.7907104     634.0847  0.020844336  0.020533164            2 
 2536000   0.85056388   -7.7809185    634.28215  0.020842605  0.020526964            2 
 2537000   0.85199997   -7.7736964    635.46437  0.020873222  0.020520784            2 
 2538000    0.8361747    -7.753524    634.01901   0.02081754   0.02051462            1 
 2539000   0.86199522   -7.7581999    636.00272  0.020874449  0.020508499            1 
 2540000   0.83125496   -7.7793091    636.05794  0.020868043  0.020502355            1 
 2541000   0.85361383   -7.7627387    636.21502  0.020864982  0.020496228            6 
 2542000      0.85023   -7.7742782    633.83268  0.020778674  0.020490152            3 
 2543000   0.83847985   -7.7701503    634.02768  0.020776894  0.020484022            3 
 2544000   0.83534582   -7.7563215    637.27365  0.020875054  0.020477959            1 
 2545000   0.84184042   -7.7643548    634.87794  0.020788407  0.020471869            2 
 2546000   0.83673321   -7.7717561    634.73673   0.02077562  0.020465753            1 
 2547000   0.84663772    -7.746158    635.38095   0.02078854  0.020459658            2 
 2548000   0.83533502   -7.7919085    635.77329  0.020793213  0.020453541            1 
 2549000   0.82635689    -7.794356    634.93938  0.020757793  0.020447389            4 
 2550000   0.84294979   -7.7728269    636.01763   0.02078489  0.020441268            4 
 2551000   0.83661827   -7.7601968    636.35552   0.02078778  0.020435174            3 
 2552000   0.85238919   -7.8024542    633.98426  0.020702203  0.020429049            2 
 2553000   0.85221988   -7.7788626    635.48701  0.020743146  0.020422893            2 
 2554000   0.82800611   -7.7958237    635.26497  0.020727779  0.020416751            1 
 2555000   0.83166695   -7.7803574    636.06973  0.020745914  0.020410638            3 
 2556000   0.84579057   -7.7893055    635.73422  0.020726859  0.020404557            2 
 2557000   0.85689753   -7.7751441    637.19554  0.020766378  0.020398439            1 
 2558000   0.85433932   -7.7806342    635.72382  0.020710315  0.020392307            1 
 2559000    0.8401905   -7.7845663    633.98136  0.020645479  0.020386206            2 
 2560000   0.84118748    -7.769309    636.43228  0.020717197  0.020380124            2 
 2561000   0.83687116   -7.7628873    635.67731  0.020684541  0.020374044            2 
 2562000   0.83956873   -7.7923555    637.17521  0.020725189   0.02036796            2 
 2563000   0.83857595   -7.7697406    638.00585   0.02074411   0.02036192            3 
 2564000   0.84360005   -7.8093172    637.52463  0.020720379  0.020355876            2 
 2565000   0.84779282   -7.7793259    638.33155  0.020738517  0.020349823            3 
 2566000   0.83865479   -7.7431044    638.06888  0.020721904  0.020343759            4 
 2567000   0.83514668   -7.8019529    636.62111  0.020666833  0.020337713            6 
 2568000   0.83356767   -7.7924553     637.3235  0.020681578  0.020331608            1 
 2569000   0.85162099   -7.8022643    635.47166  0.020613457  0.020325506            1 
 2570000   0.84188166   -7.8086678    636.94036   0.02065306  0.020319372            1 
 2571000   0.85824367    -7.762901    638.50324  0.020695684  0.020313278            2 
 2572000   0.83383573   -7.7858331     638.4696  0.020686548  0.020307219            2 
 2573000   0.84439724   -7.8103658    638.72073  0.020686641  0.020301171            2 
 2574000   0.83390531   -7.7910131    637.40113  0.020635882  0.020295085            1 
 2575000   0.85825944   -7.8161928     638.0166  0.020647787   0.02028899            1 
 2576000   0.85664383   -7.7694115    637.25442  0.020615114  0.020282913            9 
 2577000   0.86269297   -7.7940334    637.35711  0.020610436  0.020276838            4 
 2578000   0.83604797    -7.803616    637.21816  0.020597949  0.020270757            2 
 2579000   0.83813105   -7.8130992    637.07496  0.020585335   0.02026464            1 
 2580000   0.84312194     -7.74735    638.44508  0.020621611  0.020258574            3 
 2581000   0.83817657   -7.7847226    639.59662  0.020650801  0.020252526            1 
 2582000   0.85073787   -7.7612595    637.52353  0.020575895  0.020246496            3 
 2583000    0.8416121   -7.7391017    637.98864  0.020582934  0.020240537            2 
 2584000   0.84005441   -7.7722241    637.53693  0.020560402  0.020234505            2 
 2585000   0.83567785   -7.7602266    639.65819  0.020620832  0.020228459            3 
 2586000   0.86383399   -7.7988726    639.23924  0.020599357   0.02022243            2 
 2587000   0.84360715   -7.7802832    637.71968  0.020542446  0.020216402            1 
 2588000   0.83273706   -7.8176727    638.57517  0.020562055  0.020210386            3 
 2589000   0.83815799    -7.793887    638.99585  0.020567653  0.020204343            1 
 2590000   0.84164224   -7.8131832    638.96218  0.020558629  0.020198314            2 
 2591000   0.83519309   -7.7815431    639.96563  0.020582967  0.020192278            2 
 2592000   0.85512674   -7.7708468    640.64925  0.020597005  0.020186281            2 
 2593000    0.8365246   -7.7956576    640.25285  0.020576323  0.020180282            4 
 2594000   0.85179698   -7.8035824    641.04728  0.020593912  0.020174307            1 
 2595000   0.82944624   -7.7918802    639.59074  0.020539202  0.020168339            2 
 2596000   0.82148726   -7.7954133    640.15296  0.020549337  0.020162375            1 
 2597000   0.81450231   -7.7763733    641.75444  0.020592813   0.02015644            1 
 2598000   0.82744686    -7.803004    641.59464  0.020579761  0.020150542            1 
 2599000   0.83767016   -7.7905229      641.285  0.020561915   0.02014465            2 
 2600000   0.83101085   -7.7862226    640.12033  0.020516677  0.020138738            3 
 2601000    0.8376076   -7.7862468    642.00513  0.020569176  0.020132827            3 
 2602000   0.82216323   -7.7675601    641.81468  0.020555172  0.020126909            3 
 2603000   0.81822732   -7.8239482    641.39922  0.020533974  0.020120992            3 
 2604000   0.82548188   -7.7838361    642.89176  0.020573853  0.020115035            2 
 2605000   0.83114828   -7.8273744     640.1116  0.020477019  0.020109111            2 
 2606000   0.83543831   -7.8022048    640.96437   0.02049643  0.020103202            1 
 2607000   0.83984592   -7.8257145    640.14896  0.020462504  0.020097252            2 
 2608000   0.82500398   -7.7986692    642.05709  0.020515628  0.020091272            2 
 2609000   0.80984935   -7.7848496    641.47977  0.020489324  0.020085369            1 
 2610000    0.8185479   -7.8084965    640.82903  0.020460697   0.02007944            3 
 2611000   0.83541164   -7.7670159    642.10122  0.020493464  0.020073511            2 
 2612000   0.82568222   -7.8065901    641.43705  0.020464429  0.020067606            2 
 2613000    0.8353031   -7.7860916    641.39704  0.020455321  0.020061679            3 
 2614000   0.82772752   -7.7806894    641.54786  0.020452304  0.020055709            2 
 2615000   0.85539998   -7.8201183    640.35288  0.020406402   0.02004975            3 
 2616000   0.82517857   -7.8047011    641.38539  0.020431492  0.020043824            3 
 2617000    0.8318207   -7.8261371    641.22166  0.020418471  0.020037954            2 
 2618000   0.85156065   -7.7876647    643.53691  0.020484368  0.020032086            2 
 2619000   0.82922111   -7.8024226    642.65253  0.020448407  0.020026186            2 
 2620000   0.84772864   -7.7868659    642.71015  0.020442435  0.020020303            1 
 2621000   0.84134611   -7.8161353    642.16464  0.020417291  0.020014418            2 
 2622000   0.82865437   -7.8546132    642.16616  0.020409553  0.020008528            2 
 2623000   0.81188674   -7.8054455    641.30587   0.02037444  0.020002615            2 
 2624000   0.83793174   -7.7986355    643.64859  0.020441076  0.019996731            2 
 2625000   0.82673957   -7.7841352     643.4198  0.020426025  0.019990891            2 
 2626000   0.84345126   -7.8011512    644.90888  0.020465501  0.019985081            4 
 2627000   0.82114455    -7.775566    643.52517  0.020413817  0.019979268            5 
 2628000   0.82777233   -7.7992948    645.60481  0.020471994  0.019973435            1 
 2629000   0.82927689   -7.8217038    644.24755  0.020421185  0.019967629            2 
 2630000   0.85003892   -7.8194863    644.52312  0.020422152  0.019961844            1 
 2631000   0.83921209   -7.8196463     644.0559  0.020399591  0.019956051            2 
 2632000   0.84083259   -7.8157199    641.55668  0.020312712  0.019950218            2 
 2633000   0.85017083   -7.8062645    644.47976  0.020397511  0.019944364            5 
 2634000   0.81907979   -7.8042844    644.19214  0.020380667  0.019938532            1 
 2635000    0.8135771   -7.7949425    644.88608  0.020394879  0.019932728            5 
 2636000   0.83719274   -7.8233406    644.45681  0.020373571  0.019926911            4 
 2637000   0.83671555   -7.8212057    643.67924  0.020341273  0.019921098            4 
 2638000    0.8251929   -7.8005579    643.71177   0.02033459  0.019915275            2 
 2639000   0.84498657   -7.8140876    643.58607  0.020322915  0.019909442            2 
 2640000   0.83625625    -7.812068    645.47607  0.020374876  0.019903644            4 
 2641000   0.83087844   -7.8014167    643.89347  0.020317224  0.019897795            1 
 2642000   0.83959588   -7.8423564    644.94107  0.020342577  0.019891959            4 
 2643000   0.82411127   -7.8026413    643.85078  0.020300504  0.019886115            2 
 2644000   0.83234973   -7.8025055    643.84576  0.020292668  0.019880298            1 
 2645000   0.83787819   -7.8054882    644.78001   0.02031443   0.01987447            3 
 2646000    0.8304705   -7.7611905    645.89658  0.020341918  0.019868662            4 
 2647000   0.81587964   -7.8475088    644.61935  0.020294023  0.019862843            2 
 2648000   0.82785943   -7.8054204    643.72855  0.020258325  0.019856987            8 
 2649000   0.83768554   -7.8049578    647.80153  0.020378807  0.019851182            3 
 2650000    0.8208699   -7.8272125    645.01249  0.020283412  0.019845352            2 
 2651000   0.84563879   -7.7880302    645.78111  0.020299922  0.019839524            2 
 2652000   0.82510129   -7.8239167    644.55067  0.020253603  0.019833707            2 
 2653000   0.81219021   -7.8109216    644.71589  0.020251159  0.019827869            3 
 2654000   0.81776149    -7.794121    645.28807  0.020261494  0.019822056            4 
 2655000   0.82010121   -7.7965434    645.27967  0.020253599  0.019816232            1 
 2656000   0.82622913   -7.8189398    646.47009  0.020283324  0.019810444            4 
 2657000   0.81662461   -7.7974774    646.95741  0.020290974  0.019804654            4 
 2658000   0.82133402   -7.8037098    646.04474  0.020254726  0.019798869            2 
 2659000   0.83861562   -7.7872644    649.01138  0.020340083    0.0197931            2 
 2660000   0.80181309   -7.7755727    647.59249  0.020287985  0.019787361            2 
 2661000   0.84263837   -7.8280968    645.09101  0.020202023  0.019781582            1 
 2662000   0.82172445   -7.8242025    646.85962    0.0202498  0.019775844            2 
 2663000   0.82846006   -7.8236522    645.63738  0.020203948  0.019770048            6 
 2664000   0.79354903   -7.7922231    647.42147  0.020252173  0.019764281            4 
 2665000   0.80633461   -7.8299476    646.58043  0.020218275  0.019758534            2 
 2666000   0.81140887   -7.8126019     647.4894  0.020239104  0.019752754            3 
 2667000   0.83245615   -7.8243331    647.54657  0.020233301  0.019746996            2 
 2668000   0.81492902   -7.7647933    648.35757  0.020251048  0.019741239            1 
 2669000   0.82281283   -7.8055917    648.28065  0.020241059  0.019735464            1 
 2670000   0.80938213   -7.8300873    648.44426  0.020238585  0.019729717            1 
 2671000   0.84177385   -7.7846095    648.47431  0.020231945  0.019723973            2 
 2672000   0.81383898   -7.8251229    647.22964  0.020185555  0.019718201            1 
 2673000    0.8482866   -7.8147573    646.91479  0.020168188  0.019712421            3 
 2674000   0.83666206   -7.8044128    648.17076  0.020199787  0.019706692            2 
 2675000   0.83642861   -7.8138123     648.2683  0.020195274  0.019700964            2 
 2676000   0.82588229   -7.8192629    645.73689  0.020108897  0.019695192            4 
 2677000   0.81777906    -7.824168    647.10078  0.020143842  0.019689405            2 
 2678000   0.83439426   -7.8221759    646.50101  0.020117657  0.019683618            2 
 2679000   0.82765724   -7.8305051    648.27123  0.020165212  0.019677856            2 
 2680000   0.81878461   -7.8132895    646.64581  0.020107146  0.019672105            2 
 2681000   0.82504817   -7.8091618    649.01125  0.020173171  0.019666351            7 
 2682000   0.81535013   -7.8167778    646.78224  0.020096391  0.019660604            2 
 2683000   0.79666135   -7.8134161    647.84004  0.020121755  0.019654841            2 
 2684000   0.81601183   -7.8159531    650.50612  0.020197036  0.019649058            1 
 2685000   0.81965473   -7.8486598    648.47245  0.020126395   0.01964327            1 
 2686000   0.78640796   -7.8115118    648.50669  0.020119964  0.019637493            2 
 2687000   0.79962744   -7.7867209     647.9198  0.020094275  0.019631723            1 
 2688000   0.82843555   -7.8297953    647.46952   0.02007284  0.019625936            2 
 2689000   0.83071177   -7.7931096    648.72379  0.020104245  0.019620128            2 
 2690000   0.84474838   -7.8289438    649.13539  0.020109523  0.019614333            2 
 2691000   0.80247959   -7.8264748    647.59673  0.020054401  0.019608545            2 
 2692000   0.81699647   -7.8308847    648.37017  0.020070894  0.019602752            3 
 2693000   0.81071035    -7.837056    648.87687  0.020079121  0.019596969            2 
 2694000   0.81751966   -7.7975886    648.79125  0.020069019  0.019591219            1 
 2695000   0.81914197   -7.7871355    648.36987  0.020048543  0.019585464            3 
 2696000   0.81784102   -7.8306244    648.01739  0.020030211  0.019579652            2 
 2697000    0.8333035   -7.8259178    647.90168  0.020019209  0.019573864            3 
 2698000   0.81939688   -7.8028077    650.08721  0.020079294  0.019568111            3 
 2699000   0.80489708   -7.8076861    647.43779  0.019990052  0.019562352            2 
 2700000   0.80710104   -7.8210918    648.14811  0.020004571  0.019556579            3 
 2701000   0.80956991   -7.7996119    649.04565  0.020024857   0.01955081            4 
 2702000   0.82867616   -7.8272388    649.21823  0.020022768  0.019545063            2 
 2703000   0.82341023   -7.8095998    649.09886   0.02001168  0.019539347            3 
 2704000   0.82763426    -7.791242    650.11299  0.020035534  0.019533582            1 
 2705000   0.81123681   -7.8341824    649.55524  0.020010944  0.019527847            4 
 2706000   0.84719227   -7.8025618    650.77354  0.020041067  0.019522106            2 
 2707000   0.79710861   -7.8286986    649.22218  0.019985906  0.019516383            2 
 2708000   0.83521613   -7.8543068    648.09245  0.019943761  0.019510613            3 
 2709000   0.83885972   -7.8430046    649.31257  0.019973932  0.019504842            2 
 2710000   0.82049742   -7.8325599    648.52075  0.019942212  0.019499087            2 
 2711000   0.82096557   -7.8515408    649.31891  0.019959391    0.0194933            1 
 2712000   0.81681824   -7.8401716    647.73086  0.019903234  0.019487505            1 
 2713000   0.81997147   -7.8305881     650.1668  0.019970721  0.019481741            2 
 2714000   0.82743617   -7.8505114    648.77998   0.01992078  0.019475964            2 
 2715000   0.81155528   -7.8726046    647.68243  0.019879755  0.019470192            3 
 2716000   0.80014908   -7.8451419    647.56853  0.019868941   0.01946441            3 
 2717000   0.81999342    -7.861913    648.71356  0.019896748  0.019458616            2 
 2718000   0.82836089   -7.8537273    648.83861  0.019893261  0.019452834            1 
 2719000   0.82349171   -7.8376593    650.65629  0.019941654  0.019447044            3 
 2720000   0.82625682   -7.8716674    648.49525  0.019868114  0.019441243            2 
 2721000   0.83178723   -7.8512096      649.233  0.019883407  0.019435465            2 
 2722000   0.81763519    -7.819053    650.13886  0.019903835  0.019429681            2 
 2723000   0.79610294   -7.8294888    649.78054   0.01988556  0.019423935            3 
 2724000   0.81293017   -7.8174617    649.87152  0.019881043  0.019418202            1 
 2725000   0.82518428   -7.8307723    649.21615  0.019853705  0.019412432            3 
 2726000   0.81512094   -7.8522058    649.56329  0.019857034  0.019406646            2 
 2727000   0.81170673   -7.8767762    649.75571  0.019855632  0.019400857            1 
 2728000   0.80121972   -7.8568641    649.43161  0.019838453  0.019395093            2 
 2729000   0.80646055   -7.8520637    649.92332  0.019846199  0.019389325            1 
 2730000   0.81297227   -7.8529786    649.67565  0.019831369  0.019383604            2 
 2731000   0.81027073    -7.892032    649.78299  0.019827383  0.019377884            2 
 2732000     0.812589   -7.8308448    651.38071   0.01986886  0.019372181            3 
 2733000   0.81652833   -7.8090133    651.39932  0.019862158  0.019366517            3 
 2734000   0.80800623   -7.8584598    651.75367  0.019865694  0.019360868            2 
 2735000   0.82515542   -7.8437288    652.18717  0.019871638  0.019355185            2 
 2736000   0.80553696   -7.8326994    651.60118  0.019846527  0.019349519            1 
 2737000   0.81445985    -7.821794    652.20996  0.019857811  0.019343867            5 
 2738000   0.82462701   -7.8429289    651.85538  0.019839767  0.019338185            2 
 2739000   0.80818251   -7.8488441    651.65369  0.019826387  0.019332483            4 
 2740000   0.81061881   -7.8944668    650.56772  0.019786123  0.019326782            2 
 2741000   0.81103062   -7.8029201    651.66242  0.019812186  0.019321091            2 
 2742000   0.79440062   -7.8397193    651.82835  0.019810003  0.019315416            1 
 2743000   0.81176466   -7.8167557    653.04339  0.019839695   0.01930973            3 
 2744000   0.79870355   -7.8635709    652.08791  0.019803447  0.019304047            4 
 2745000   0.82786823   -7.8428077    653.04634  0.019825329  0.019298377            3 
 2746000   0.79472074   -7.8211154    653.34029   0.01982703  0.019292718            1 
 2747000   0.79380853   -7.8533625    652.39134  0.019791025  0.019287037            2 
 2748000   0.83258336   -7.8427449    652.47206  0.019786271  0.019281359            1 
 2749000   0.79992634   -7.8348273    651.69824  0.019755615  0.019275723            2 
 2750000   0.81401952   -7.8630043    653.51262  0.019803413  0.019270073            2 
 2751000   0.79868411   -7.8452049    652.50855  0.019765799  0.019264408            2 
 2752000   0.78993616   -7.8762028    652.77645  0.019766729  0.019258745            5 
 2753000   0.81854381   -7.8384708    653.04272  0.019767609  0.019253091            4 
 2754000   0.81575626   -7.8492049    651.59892  0.019716743  0.019247437            2 
 2755000   0.82857154     -7.86079    652.01669  0.019722223  0.019241724            2 
 2756000   0.80794504   -7.8475912    652.66139  0.019734561  0.019236058            4 
 2757000   0.80921096   -7.8468109    651.60982  0.019695618  0.019230363            3 
 2758000     0.815053   -7.8582854    652.27628  0.019708614   0.01922471            1 
 2759000   0.83596424   -7.8690842    652.49861  0.019708185  0.019219033            1 
 2760000   0.80947933   -7.8427044    653.51255  0.019731659  0.019213361            3 
 2761000    0.8139105   -7.8442445     653.6931  0.019729962  0.019207696            2 
 2762000   0.81291288   -7.8695605    652.42022  0.019684414  0.019202061            5 
 2763000   0.81878352   -7.8304126    652.76635  0.019687729  0.019196426            2 
 2764000    0.8078313   -7.8351653    654.33297  0.019727839  0.019190796            1 
 2765000   0.79018507   -7.8264046    653.99964  0.019710658  0.019185203            2 
 2766000   0.82390511    -7.852557    654.07213  0.019705716  0.019179577            2 
 2767000   0.81614646   -7.8525831    654.29009  0.019705159  0.019173951            1 
 2768000   0.81675071   -7.8470787    654.32036  0.019698951  0.019168317            1 
 2769000   0.80333881   -7.8471047    653.82131  0.019676818  0.019162715            2 
 2770000   0.82246992   -7.8670204    652.95979  0.019643796  0.019157119            3 
 2771000    0.7917687   -7.8560878     653.7983  0.019661924  0.019151501            3 
 2772000   0.81889886   -7.8596324    654.23789  0.019668046  0.019145905            5 
 2773000    0.8158316   -7.8288099    654.87322  0.019680046  0.019140298            3 
 2774000   0.80041731   -7.8877988    653.28678  0.019625294  0.019134663            3 
 2775000   0.81281688   -7.8586173    654.14198  0.019643903  0.019129012            2 
 2776000    0.7854007   -7.8629651    655.14631  0.019666976  0.019123414            2 
 2777000   0.80870135   -7.8719892    654.80037  0.019649513  0.019117796            3 
 2778000   0.81048567   -7.8469321    654.61862  0.019636988  0.019112148            3 
 2779000   0.80187355   -7.8725385    654.53944  0.019627547  0.019106539            3 
 2780000   0.81549029    -7.842342    656.07107  0.019666399  0.019100916            2 
 2781000   0.78631431    -7.859205    653.80222  0.019591341  0.019095285            4 
 2782000   0.80912382    -7.866909    654.40106  0.019602236  0.019089653            3 
 2783000   0.79358478   -7.8708111    654.88932  0.019609813  0.019084053            2 
 2784000   0.79439367   -7.8276994    655.71403  0.019627455  0.019078472            1 
 2785000   0.81224392   -7.8384748    654.09123   0.01957185  0.019072853            1 
 2786000    0.8029685   -7.8745464    655.15785  0.019596729  0.019067223            3 
 2787000   0.80458398   -7.8263221    654.87525  0.019581248   0.01906164            3 
 2788000   0.81480639    -7.840245    655.94639  0.019606241  0.019056027            4 
 2789000   0.81675668   -7.8646419    655.49841  0.019585826  0.019050442            3 
 2790000   0.81783136   -7.8367584    655.20565  0.019570061  0.019044856            1 
 2791000   0.80402869   -7.8328029    656.20317  0.019592833  0.019039256            2 
 2792000   0.80421709   -7.8676372    654.80457  0.019544072   0.01903365            3 
 2793000   0.81151914   -7.8992366     654.6037  0.019531081  0.019028027            3 
 2794000   0.80372356   -7.9019563    653.55452  0.019492798  0.019022341            2 
 2795000   0.80900422   -7.8921894    653.71756  0.019490685  0.019016652            2 
 2796000   0.79655962   -7.8680287    653.41366  0.019474656  0.019010995            1 
 2797000   0.81343276   -7.8693111    654.81218  0.019509361  0.019005341            1 
 2798000   0.80556832   -7.8647724    655.11789  0.019511493  0.018999698            1 
 2799000   0.79224015   -7.8859407    655.21853  0.019507518  0.018994057            3 
 2800000   0.80701514   -7.8709809     654.5209  0.019479789  0.018988389            2 
 2801000   0.78724574   -7.8583642    655.47303  0.019501161  0.018982729            2 
 2802000   0.80292867   -7.8542464    654.80978  0.019474476   0.01897711            3 
 2803000    0.8179456   -7.8520175    654.84331  0.019468525  0.018971506            3 
 2804000   0.81482809   -7.8801296    655.97371  0.019495177  0.018965879            1 
 2805000   0.81839029   -7.8590848    655.46767  0.019473193  0.018960246            1 
 2806000   0.80517959   -7.8591415    655.90648  0.019479285  0.018954622            4 
 2807000   0.79807616   -7.8698724     655.0081  0.019445674  0.018948975            2 
 2808000   0.78597115   -7.8815327    655.64199  0.019457561  0.018943347            5 
 2809000   0.82446822   -7.8492321    655.53225  0.019447379  0.018937737            2 
 2810000   0.81042727   -7.8514129    657.16981  0.019489022   0.01893214            2 
 2811000   0.80500754   -7.8385751    655.32572   0.01942742  0.018926532            2 
 2812000   0.79108732   -7.8467531    656.12555  0.019444214  0.018920927            2 
 2813000   0.81478081   -7.8749757    655.28708  0.019412462  0.018915328            3 
 2814000   0.81044022   -7.8484696    655.75171  0.019419323  0.018909723            1 
 2815000    0.8136224   -7.8836293    656.25337  0.019427276  0.018904103            2 
 2816000   0.78752278   -7.8774324    657.26907  0.019450434  0.018898496            4 
 2817000    0.8122724   -7.8756426    656.27705  0.019414183  0.018892862            2 
 2818000   0.80204154   -7.8613812    657.58416  0.019445948  0.018887251            2 
 2819000   0.81057478   -7.8962586    656.77617  0.019415164  0.018881651            2 
 2820000   0.78552259   -7.8699508    656.06576  0.019387286  0.018876057            2 
 2821000   0.79406959   -7.8634509    656.44296  0.019391556  0.018870467            2 
 2822000   0.81539679    -7.859581    658.03502  0.019431698  0.018864892            1 
 2823000   0.79507237   -7.8738139    655.26145   0.01934294  0.018859299            6 
 2824000   0.79805065   -7.8819386    654.28766  0.019307355  0.018853656            3 
 2825000   0.81717739   -7.9182979    656.03415   0.01935204  0.018847991            2 
 2826000   0.78961516   -7.8898348    656.95733  0.019372415  0.018842364            5 
 2827000   0.79848475   -7.9063606    655.49016  0.019322313  0.018836746            2 
 2828000   0.79758892    -7.909528    656.56877  0.019347265  0.018831118            2 
 2829000   0.78743993   -7.8750692     656.7876  0.019346872  0.018825519            6 
 2830000   0.81271458   -7.9222843    656.07824  0.019319147  0.018819882            2 
 2831000   0.80163367   -7.8913463     657.4795  0.019353571  0.018814246            1 
 2832000   0.78126864   -7.8900914     654.7308  0.019265854  0.018808656            2 
 2833000   0.80043607   -7.8697937    657.60074  0.019343474  0.018803046            2 
 2834000   0.80419918   -7.8821121    655.65581  0.019279458  0.018797443            7 
 2835000   0.78786589   -7.8926256     656.3976  0.019294462  0.018791844            2 
 2836000   0.78590812   -7.8906753    655.80554  0.019270261  0.018786241            2 
 2837000    0.7988752   -7.8593074    658.27463  0.019335995  0.018780646            6 
 2838000   0.80229585   -7.8657817    657.43041  0.019304393   0.01877502            5 
 2839000    0.8111221   -7.8725295     656.6066  0.019273412  0.018769419            2 
 2840000   0.78911076    -7.893497    656.35583  0.019259267  0.018763802            3 
 2841000   0.80116788   -7.8723843    658.15348  0.019305218  0.018758212            2 
 2842000   0.79790189    -7.880011     657.4018  0.019276384  0.018752617            3 
 2843000   0.81305954   -7.9065676    655.79013  0.019222363  0.018747007            2 
 2844000   0.80101814   -7.9081721    656.26622  0.019229554  0.018741363            1 
 2845000   0.79270059   -7.8790537    656.19982   0.01922085   0.01873569            2 
 2846000    0.7990215   -7.9182279    656.37913  0.019219347  0.018730026            2 
 2847000   0.80090806   -7.9057428    655.85158  0.019197154  0.018724375            3 
 2848000    0.8022243   -7.8800524    655.47158  0.019179295  0.018718723            3 
 2849000   0.79845439   -7.8909623    656.25778  0.019195559  0.018713033            2 
 2850000   0.78759912   -7.9107919    657.82436   0.01923463  0.018707354            1 
 2851000   0.79715886   -7.9131008    656.13278   0.01917844  0.018701677            3 
 2852000   0.79052779   -7.9214515    655.93253  0.019165864  0.018695991            2 
 2853000   0.79796572   -7.9193271    655.38544  0.019143166  0.018690292            2 
 2854000   0.79152914   -7.9509105    655.45358  0.019138448  0.018684562            2 
 2855000   0.78455498   -7.8641414    656.60201  0.019165266  0.018678847            2 
 2856000   0.79262876   -7.9081243    657.02939  0.019171026  0.018673174            2 
 2857000   0.80865144   -7.8994219    655.82779  0.019129267  0.018667506            1 
 2858000   0.81413065   -7.8816994    656.51696  0.019142668  0.018661841            4 
 2859000   0.80576624   -7.8733955    656.20852  0.019126983  0.018656184            4 
 2860000   0.78404508    -7.924598    656.44746  0.019127257   0.01865053            2 
 2861000   0.81230072   -7.9037994    654.96777  0.019077472  0.018644854            2 
 2862000   0.79473087   -7.9112021    655.38415   0.01908293  0.018639177            3 
 2863000   0.77050047   -7.9108821    657.59283  0.019140553  0.018633515            3 
 2864000   0.78551516   -7.8996798     657.2212  0.019123056  0.018627864            2 
 2865000    0.7922395   -7.8886622      658.257   0.01914651  0.018622217            1 
 2866000   0.79044853   -7.8945231    657.36674  0.019113943  0.018616556            2 
 2867000   0.79506532   -7.8873798     657.9378  0.019123875   0.01861092            2 
 2868000   0.77174506   -7.9062527    656.80403  0.019084264  0.018605248            2 
 2869000   0.80643133   -7.9218524    656.06528  0.019056154  0.018599581            2 
 2870000   0.78970579   -7.8674414    657.88738  0.019102421  0.018593917            2 
 2871000   0.78712003   -7.8805932    657.28446  0.019078267  0.018588279            2 
 2872000   0.79845567   -7.9105333    656.52788  0.019049672  0.018582626            2 
 2873000   0.79102214   -7.8996774     656.8919    0.0190536  0.018576979            3 
 2874000   0.79226014   -7.8757427    656.94899  0.019048625   0.01857132            2 
 2875000   0.80350294   -7.9365621    657.07921  0.019045774  0.018565675            2 
 2876000   0.78377301   -7.9022531    656.91507  0.019034396  0.018560007            2 
 2877000   0.78705701   -7.9294013    656.76124  0.019023324  0.018554335            2 
 2878000   0.79401166    -7.905565    657.65138  0.019042488  0.018548707            3 
 2879000   0.80026574   -7.9055812    659.09442  0.019077643  0.018543051            6 
 2880000   0.80187264   -7.9253752    658.31571  0.019048487  0.018537398            2 
 2881000    0.7874419   -7.8894122    657.78245  0.019026451  0.018531791            3 
 2882000   0.79615534   -7.9018457    657.11309  0.019000494  0.018526183            3 
 2883000   0.78335912   -7.9328726    656.32103  0.018971009  0.018520538            2 
 2884000   0.78271215   -7.8828166    659.37744  0.019052746  0.018514927            1 
 2885000   0.79628028   -7.8806423    659.68549   0.01905504  0.018509353            2 
 2886000   0.79923191   -7.9446661     658.1647  0.019004525   0.01850377            2 
 2887000   0.79833046   -7.9229302    657.06555  0.018966215  0.018498191            2 
 2888000   0.78218101   -7.9295325    658.05166  0.018988102  0.018492599            3 
 2889000   0.79212693   -7.9006944     657.6103  0.018968798  0.018486994            3 
 2890000   0.80736606   -7.9389208    657.78287  0.018967211  0.018481364            1 
 2891000   0.77329668    -7.948931    658.46302  0.018980255  0.018475714            3 
 2892000   0.77962728   -7.9024503    659.49365   0.01900339  0.018470077            1 
 2893000     0.791188   -7.9522577    656.77161  0.018918412  0.018464452            1 
 2894000   0.79276065    -7.914138    657.35835  0.018928771  0.018458823            3 
 2895000   0.78925444   -7.9598475    659.32274  0.018978778  0.018453174            2 
 2896000   0.79911096   -7.8876578     658.2867  0.018942412  0.018447547            2 
 2897000    0.7832803   -7.9171324    658.74782  0.018949138   0.01844195            5 
 2898000    0.7877361   -7.9059176    659.59711  0.018967021  0.018436342            3 
 2899000   0.80430757   -7.9313227    659.20459  0.018949195  0.018430733            1 
 2900000   0.76648856   -7.9066674    660.73004  0.018986495   0.01842513            3 
 2901000   0.76935012   -7.9367721    659.99948  0.018958965  0.018419549            2 
 2902000   0.78773173   -7.8914102     660.4096  0.018964209  0.018413966            3 
 2903000   0.77182634   -7.9006188    659.20882  0.018923206  0.018408361            3 
 2904000   0.79969175   -7.9097451    659.68292  0.018930295  0.018402777            3 
 2905000   0.77951558   -7.9123446    657.72891  0.018867725   0.01839717            3 
 2906000   0.80195069   -7.9226041    659.44599  0.018910472  0.018391589            4 
 2907000   0.78442703   -7.9026178    658.60678   0.01887991  0.018386004            2 
 2908000   0.78299643   -7.9209443    659.41582  0.018896602  0.018380413            3 
 2909000   0.79554664   -7.9589589    657.93123  0.018847577  0.018374783            2 
 2910000   0.78340699   -7.9241431    659.52463  0.018886731  0.018369161            3 
 2911000   0.79005762   -7.9221023    657.27226  0.018815764  0.018363535            3 
 2912000   0.79533824   -7.9253524    658.68599  0.018849759  0.018357916            3 
 2913000   0.81776751   -7.8799258    658.26805  0.018831332  0.018352307            2 
 2914000    0.8271811   -7.9154694    658.66657  0.018836267  0.018346703            2 
 2915000   0.78057578   -7.9148914    658.40349  0.018822284  0.018341109            2 
 2916000   0.78798071   -7.9215341     659.8508   0.01885719  0.018335495            3 
 2917000   0.78506537   -7.9320816     659.5859  0.018843158  0.018329894            4 
 2918000   0.80451829   -7.9115158    659.68998  0.018839673  0.018324262            2 
 2919000     0.795904   -7.9317353    659.76168  0.018835266  0.018318654            1 
 2920000   0.77250722   -7.9183522     660.6742  0.018854857  0.018313031            1 
 2921000   0.78090659   -7.8859719    659.83542  0.018824473  0.018307438            2 
 2922000   0.77079721   -7.9598145     658.9939  0.018794031  0.018301853            4 
 2923000   0.77400031   -7.9476147    658.43567  0.018771686  0.018296237            2 
 2924000   0.79322555   -7.9220569    661.87276  0.018863223   0.01829065            2 
 2925000   0.76103886   -7.9047114    660.93658  0.018830102   0.01828507            3 
 2926000   0.79250087   -7.9184022    659.25108  0.018775663  0.018279484            6 
 2927000   0.79662271   -7.9149804    660.36287  0.018800902  0.018273858            3 
 2928000   0.79583062   -7.9520845    658.32347  0.018736437  0.018268239            1 
 2929000   0.77996524   -7.9405753    660.33336  0.018787224  0.018262642            3 
 2930000     0.783151    -7.891796     661.0715  0.018801806  0.018257043            2 
 2931000   0.79495211   -7.9257127    659.43532  0.018748872   0.01825146            4 
 2932000   0.79288156   -7.9334726    660.05379  0.018760055  0.018245861            2 
 2933000   0.80680047   -7.9453971     659.0987  0.018726523  0.018240263            2 
 2934000   0.78124454   -7.9160968    659.96635  0.018744784  0.018234671            2 
 2935000   0.79413985   -7.9408188    657.98476  0.018682134  0.018229072            2 
 2936000   0.78365941    -7.942175    659.76587  0.018726325  0.018223495            1 
 2937000   0.79649201   -7.9506103    659.66311  0.018717033  0.018217918            2 
 2938000   0.80614968   -7.9293438    659.26367  0.018699333  0.018212339            2 
 2939000   0.77945054   -7.9259867    661.75301  0.018763554  0.018206754            3 
 2940000   0.77506426   -7.9366228    660.25971  0.018714844  0.018201207            3 
 2941000   0.77638269   -7.9278871    659.79918  0.018695432  0.018195675            2 
 2942000   0.79219476   -7.9349994    659.30924  0.018675199  0.018190113            2 
 2943000    0.7818108   -7.9027733    660.91341  0.018714277   0.01818458            5 
 2944000    0.7863137   -7.9277059     660.9313  0.018708427  0.018179006            1 
 2945000    0.7954914   -7.9188194    660.16933  0.018680513  0.018173459            2 
 2946000   0.77321124   -7.9458874    660.81836  0.018692531  0.018167906            2 
 2947000   0.78611046    -7.918319    661.78812   0.01871361  0.018162374            3 
 2948000   0.77003243   -7.9187241    661.85527  0.018709161  0.018156823            6 
 2949000   0.78419328   -7.9192148    661.77646   0.01870059  0.018151316            2 
 2950000   0.77158897   -7.9288416    660.72306  0.018664493  0.018145756            2 
 2951000    0.7935554    -7.919745    661.25834  0.018673284  0.018140204            3 
 2952000   0.77490352   -7.9138549     661.4383  0.018672039  0.018134665            4 
 2953000   0.80032343   -7.9435551    660.94941  0.018651919    0.0181291            3 
 2954000   0.77159942    -7.917878    660.26275  0.018626234  0.018123525            2 
 2955000   0.79941737   -7.9094126    661.17974  0.018645791  0.018117953            1 
 2956000   0.76586978   -7.9295534    662.46645  0.018675757  0.018112405            3 
 2957000   0.77970531   -7.9627603    661.76038  0.018649543  0.018106865            2 
 2958000   0.75741692   -7.9632664    659.62843  0.018583176  0.018101291            5 
 2959000   0.78064447   -7.9269795    660.37465  0.018597912  0.018095714            3 
 2960000   0.76246126   -7.9472599    659.20579  0.018558722  0.018090119            2 
 2961000   0.77731123   -7.9392152    660.95982  0.018601819  0.018084528            3 
 2962000   0.77640537   -7.9305819    659.60401  0.018557394  0.018078928            4 
 2963000   0.77886127   -7.9511804     661.7961  0.018612783  0.018073355            2 
 2964000   0.76053074   -7.9440256     660.9674  0.018583204   0.01806775            2 
 2965000   0.75845972   -7.9302343    661.20265  0.018583548  0.018062171            1 
 2966000   0.77147541   -7.9565776    659.51893  0.018529977  0.018056565            2 
 2967000   0.75557002   -7.9722809     660.9687  0.018564451  0.018050944            3 
 2968000    0.7790508   -7.9636434    659.11751  0.018506219  0.018045312            1 
 2969000   0.77694106   -7.9537807    661.52392  0.018567529  0.018039691            3 
 2970000   0.78557042   -7.9641644    660.48681  0.018532178  0.018034081            2 
 2971000   0.76570785   -7.9836566    660.35808  0.018522329  0.018028434            3 
 2972000   0.78615418    -7.963714    660.78287  0.018528008  0.018022797            3 
 2973000   0.76794662   -7.9719005    660.63853   0.01851773  0.018017168            2 
 2974000   0.77699358   -7.9698288    661.93043  0.018547703  0.018011554            3 
 2975000   0.78207846   -7.9503407    661.11621  0.018518661  0.018005948            2 
 2976000   0.77363475   -7.9329986    661.29267   0.01851738  0.018000364            6 
 2977000   0.76635435   -7.9514287    660.69384  0.018494397  0.017994798            2 
 2978000   0.77217864   -7.9653631    661.46368  0.018509729  0.017989217            4 
 2979000   0.75949442     -7.93195    661.64589  0.018508613  0.017983646            2 
 2980000   0.77779035   -7.9215021    662.89944  0.018537456  0.017978096            2 
 2981000   0.78245787   -7.9597199    661.63552  0.018495905   0.01797258            3 
 2982000    0.7666902   -7.9542346    662.26178  0.018507204  0.017967018            3 
 2983000   0.77711308   -7.9774842    661.02358  0.018466409  0.017961453            2 
 2984000   0.76977067   -7.9548744    661.63781  0.018477374  0.017955911            3 
 2985000    0.7804117   -7.9333027     662.8853  0.018506011  0.017950382            3 
 2986000   0.77404272   -7.9464145    662.55016   0.01849046  0.017944857            4 
 2987000   0.78108258     -7.94595    661.19264  0.018446397  0.017939334            2 
 2988000   0.77350827   -7.9368417     662.1997  0.018468309  0.017933779            1 
 2989000   0.80175647   -7.9517599    661.47322  0.018441876  0.017928219            5 
 2990000   0.78064824   -7.9702429    662.09817  0.018453126  0.017922668            4 
 2991000   0.77282203   -7.9615218    661.40579  0.018427666  0.017917095            2 
 2992000   0.79404794   -7.9527476    661.98518  0.018437644  0.017911537            1 
 2993000   0.78880672   -7.9751008    661.83466  0.018427293  0.017905975            4 
 2994000   0.76999157   -7.9507011    662.10066  0.018428542  0.017900439            2 
 2995000   0.77435362   -7.9714562    662.27584  0.018427263  0.017894878            2 
 2996000   0.78684649   -7.9697014    660.68101  0.018376753  0.017889304            2 
 2997000   0.76917675   -7.9430254    662.04001  0.018408409  0.017883725            5 
 2998000   0.77206967   -7.9677155    662.42761  0.018413042  0.017878155            2 
 2999000   0.76553893   -7.9478826     661.8388  0.018390541  0.017872616            2 
 3000000   0.76136688   -7.9354924    664.23579  0.018450994  0.017867091            4 
 3001000   0.77615852   -7.9510289    661.90894  0.018380233  0.017861577            2 
 3002000   0.79194029   -7.9304322    662.98827  0.018404071  0.017856089            4 
 3003000   0.76913197   -7.9302681     663.8455  0.018421731  0.017850618            2 
 3004000   0.77258288   -7.9408734    662.70359  0.018383921  0.017845147            4 
 3005000   0.77717263   -7.9073598    662.17459  0.018363133  0.017839651            3 
 3006000   0.77861992   -7.9396526    663.07445  0.018381971  0.017834178            2 
 3007000   0.76300303    -7.979601    662.69957  0.018365469  0.017828683            2 
 3008000   0.77861386   -7.9380294    661.99678  0.018339893  0.017823173            3 
 3009000   0.78150466   -7.9424372    662.75744  0.018354864  0.017817682            2 
 3010000   0.76628582   -7.9666547     661.8298  0.018323084  0.017812161            3 
 3011000   0.77323676   -7.9573164    662.75801  0.018342688  0.017806643            3 
 3012000   0.79130725   -7.9743484    663.00763  0.018343505  0.017801144            1 
 3013000   0.76989773   -7.9646896    662.97645  0.018336554   0.01779561            9 
 3014000   0.76625328   -7.9580341    661.89726  0.018300632  0.017790073            2 
 3015000   0.78062785   -7.9472365    662.35948  0.018307338  0.017784548            2 
 3016000   0.76074322   -7.9654203    663.49858  0.018332741  0.017779041            2 
 3017000   0.76656023    -7.930339    663.59383  0.018329296  0.017773535            5 
 3018000   0.77141088   -7.9586432    663.04653   0.01830811  0.017768041            3 
 3019000   0.75405322   -7.9638969    662.61448   0.01829012  0.017762545            2 
 3020000   0.77193279   -7.9674428     662.8715  0.018291156  0.017757027            2 
 3021000   0.76551054   -7.9720566    661.57136  0.018249238  0.017751499            2 
 3022000   0.76578319    -7.952607    663.20025  0.018288116   0.01774598            2 
 3023000   0.76570476   -7.9685059    662.79093  0.018270783  0.017740439            2 
 3024000   0.76663028   -7.9739644    661.55946  0.018230805  0.017734897            5 
 3025000   0.77379548   -7.9707957    661.96309  0.018235898  0.017729358            3 
 3026000   0.76751324   -7.9643887    662.66158  0.018249107  0.017723818            2 
 3027000   0.74922005   -7.9790544    662.00251  0.018224934  0.017718272            2 
 3028000   0.75040364   -7.9714705    662.44609  0.018231123  0.017712741            4 
 3029000   0.75222713   -7.9699332     662.8495  0.018236203  0.017707215            3 
 3030000   0.76533447   -7.9384661    664.29915  0.018270054  0.017701698            2 
 3031000   0.78305788   -7.9675097    663.68793  0.018247221  0.017696188            2 
 3032000   0.75711035   -7.9556955    660.87698  0.018163945  0.017690681            1 
 3033000   0.76890477   -7.9683256    664.07588  0.018245848  0.017685194            5 
 3034000    0.7737324   -7.9439068    662.90267   0.01820761  0.017679669            2 
 3035000   0.77586457   -7.9754991    663.00874  0.018204523  0.017674175            3 
 3036000   0.75718615   -7.9588637    664.43722  0.018237737  0.017668695            4 
 3037000   0.77076732   -7.9741385    663.87146  0.018216207  0.017663229            3 
 3038000   0.74430694   -7.9626272    663.82246  0.018208867  0.017657756            5 
 3039000   0.77447062   -7.9865154    664.92452  0.018233095  0.017652267            2 
 3040000   0.77692512   -7.9439928    663.00359  0.018174441  0.017646776            2 
 3041000   0.78379891   -7.9471219    663.92096  0.018193603  0.017641305            2 
 3042000   0.75786249   -7.9679832    663.32087  0.018171183  0.017635803           10 
 3043000    0.7678389   -7.9673667    663.54992  0.018171484  0.017630307            4 
 3044000   0.77768419   -7.9339104    664.39545  0.018188662  0.017624852            3 
 3045000   0.76914666   -7.9688397    664.25774   0.01817892  0.017619418            2 
 3046000   0.79711619   -7.9792878    663.80842  0.018160659  0.017613973            4 
 3047000   0.76749933   -7.9710714    664.16765  0.018164524   0.01760856            4 
 3048000   0.76712557   -7.9272574     665.6547  0.018199221  0.017603174            2 
 3049000   0.76150838   -7.9589576    665.80163  0.018197268  0.017597768            3 
 3050000   0.76828651   -7.9303649    665.41009  0.018180603  0.017592368            1 
 3051000   0.78255753   -7.9490022    664.88594  0.018160328  0.017586966            2 
 3052000   0.75374294   -7.9567259    665.57037  0.018173066  0.017581549            3 
 3053000   0.76566774   -7.9541283    666.01548  0.018179263  0.017576126            4 
 3054000   0.75698183   -7.9554487    664.06612  0.018120119  0.017570704            2 
 3055000   0.76660138   -7.9758938    664.70067  0.018131497   0.01756527            2 
 3056000   0.75702889   -7.9437337    665.80515  0.018155681   0.01755983            2 
 3057000   0.76961359   -7.9724533    665.32353  0.018136614  0.017554399            3 
 3058000   0.75120573   -7.9908049    666.63836  0.018166513  0.017548956            3 
 3059000   0.75691597   -7.9963686    663.53484  0.018076028  0.017543513            1 
 3060000   0.74927025    -8.012298    664.06821  0.018084646  0.017538049            6 
 3061000   0.76834996   -8.0063716    663.84545  0.018072674  0.017532571            2 
 3062000   0.76173322   -8.0006436    665.08068  0.018100389  0.017527132            2 
 3063000   0.75502021    -7.982856    662.73128   0.01803056  0.017521663            4 
 3064000   0.75707691   -7.9711257    665.09589  0.018088987  0.017516219            3 
 3065000    0.7846953   -8.0026863    665.00415  0.018080591  0.017510785            2 
 3066000   0.76289085   -7.9930832     664.3916  0.018058045  0.017505328            3 
 3067000   0.76117354   -7.9755344    665.07615  0.018070757  0.017499883            1 
 3068000   0.76359077   -7.9968711    663.41437   0.01801973  0.017494426            1 
 3069000   0.74039279   -7.9760789    664.81966  0.018052017  0.017488991            3 
 3070000   0.73916103    -7.993151    665.20218  0.018056519  0.017483531            1 
 3071000   0.75279938   -7.9730384    664.66253  0.018035996  0.017478075            2 
 3072000   0.76552508   -7.9771606    664.62245  0.018029038  0.017472636            3 
 3073000   0.76889122    -7.958198    666.68106  0.018078996  0.017467222            4 
 3074000   0.74415781   -7.9913712    665.66017   0.01804544  0.017461819            2 
 3075000   0.76556096   -7.9967718    665.44662  0.018033784  0.017456425            2 
 3076000   0.76332772   -7.9720405      666.026  0.018043617  0.017451009            6 
 3077000   0.75709297   -7.9836391    664.69021  0.018001576  0.017445621            2 
 3078000     0.764186    -8.003874      666.605  0.018047569    0.0174402            3 
 3079000   0.75954593     -7.97228    664.89902  0.017995535  0.017434818            2 
 3080000   0.75678796   -7.9461119    665.93081  0.018017609  0.017429448            5 
 3081000   0.75958056   -7.9913817      666.204   0.01801915  0.017424064            2 
 3082000   0.74290037    -7.979099    666.41953  0.018019131  0.017418683            2 
 3083000   0.75384826   -7.9923277    666.51999  0.018016001  0.017413273            6 
 3084000   0.75709054   -7.9806095    666.61443  0.018012712  0.017407878            5 
 3085000   0.76881657    -7.967003     664.8813  0.017960057  0.017402488            2 
 3086000   0.76501853   -8.0145124    665.07284  0.017959409   0.01739707            3 
 3087000   0.75982178   -7.9980808    665.41272  0.017962767  0.017391681            3 
 3088000   0.75502771   -7.9787968    666.39996  0.017983591   0.01738631            3 
 3089000   0.76462294   -7.9908281    666.70113  0.017985894  0.017380959            3 
 3090000   0.76016554   -8.0125516    664.41355  0.017918381  0.017375607            2 
 3091000   0.75454815   -8.0038364    666.26831  0.017962588  0.017370228            3 
 3092000   0.75079526   -8.0176766    667.04354  0.017977672  0.017364862            2 
 3093000   0.74901903   -7.9607189    667.94207  0.017996068  0.017359491            3 
 3094000   0.75537961   -7.9877138    668.32445  0.018000551  0.017354139            2 
 3095000   0.76667933   -7.9672653    667.58527  0.017974832  0.017348801            1 
 3096000   0.74420402   -7.9568943    667.48456  0.017966316   0.01734348            3 
 3097000    0.7760867    -7.981475     666.6992  0.017939382  0.017338162            3 
 3098000   0.74923948   -8.0075047    666.23046  0.017920983  0.017332813            3 
 3099000   0.74776933   -8.0034119    666.40711   0.01791995  0.017327429            4 
 3100000   0.74806091    -7.996334    667.56198  0.017945215  0.017322052            1 
 3101000    0.7594114   -8.0173917    666.73146  0.017917109  0.017316682            3 
 3102000   0.75023602    -8.000439    666.79047  0.017912918   0.01731131            1 
 3103000    0.7522348   -7.9995394    665.83457  0.017881474  0.017305934            2 
 3104000   0.76427495   -8.0153403    665.55772  0.017868281   0.01730054            2 
 3105000   0.75263772    -7.985909    666.14249   0.01787822  0.017295164            1 
 3106000   0.74940425   -8.0047079    666.66642  0.017886521  0.017289778            2 
 3107000   0.75190442   -8.0080576    666.91394  0.017887403  0.017284417            5 
 3108000   0.75563258   -8.0401071    667.44655  0.017895928  0.017279034            3 
 3109000   0.73928002    -8.023527    665.91784  0.017849197  0.017273658            1 
 3110000   0.76157215   -8.0121367    666.69228  0.017864209  0.017268274            1 
 3111000   0.74299079   -8.0130653     665.4233  0.017824475  0.017262911            2 
 3112000   0.74639076    -8.017959    666.41157  0.017845211   0.01725753            3 
 3113000   0.75858153   -8.0076777    666.69033  0.017846941  0.017252129            3 
 3114000   0.74753932   -8.0125069    667.11039  0.017852451  0.017246743            3 
 3115000   0.76241231   -8.0123672    666.47852  0.017829816  0.017241389            4 
 3116000   0.74841159   -7.9976142    665.75044  0.017804622  0.017236034            2 
 3117000    0.7531534   -8.0000839    664.88809  0.017775855  0.017230654            1 
 3118000   0.74076209   -7.9831422    666.84416  0.017822433  0.017225274            5 
 3119000   0.75640511   -7.9974989    665.21638  0.017773228   0.01721989            2 
 3120000   0.75562018   -8.0318537    663.65586  0.017725851  0.017214472            2 
 3121000   0.74762489   -8.0113108    665.92615   0.01778079  0.017209072            4 
 3122000   0.73731193   -8.0136068    665.10124  0.017753076   0.01720366            2 
 3123000   0.75446611   -8.0013187    666.90349  0.017795482  0.017198269            1 
 3124000   0.75734755   -8.0089522    666.39986  0.017776351  0.017192867            1 
 3125000   0.76547729    -8.003495    666.67303  0.017777948  0.017187478            3 
 3126000   0.75530411   -8.0181288    666.58181  0.017769829  0.017182089            2 
 3127000   0.76769891   -7.9723548    666.75351  0.017768722  0.017176705            2 
 3128000   0.75614838   -8.0194605    666.23817  0.017749312  0.017171314            3 
 3129000   0.74488103   -7.9985911    665.79972  0.017731962  0.017165926            2 
 3130000   0.76388334   -8.0092471     667.0763  0.017760285  0.017160548            2 
 3131000   0.74550384   -8.0070954     666.8371  0.017748246  0.017155175            4 
 3132000   0.76494316   -8.0200972    667.64329   0.01776403  0.017149795            2 
 3133000   0.75593649   -8.0236546    666.71082  0.017733557  0.017144417            2 
 3134000   0.75081606    -8.017921    666.95303  0.017734339  0.017139038            1 
 3135000   0.74637303   -8.0102292    665.47215  0.017689318  0.017133654            3 
 3136000   0.76026062   -8.0083103    665.41242   0.01768209  0.017128259            7 
 3137000   0.74507409   -8.0180602    666.52955   0.01770613  0.017122876            1 
 3138000   0.75059838    -8.006646     665.1555  0.017663998  0.017117485            5 
 3139000    0.7463689   -8.0078012    666.13428  0.017684355  0.017112085            5 
 3140000   0.74351722   -8.0091374    666.37035  0.017684988  0.017106696            3 
 3141000   0.75454182   -8.0089287     664.9232  0.017640964  0.017101303            2 
 3142000   0.75136583   -8.0260729    665.28234  0.017644874   0.01709591            3 
 3143000   0.75577095   -8.0183023    666.13189  0.017661785  0.017090525            3 
 3144000   0.74039523   -8.0045961    666.10438  0.017655438  0.017085149            3 
 3145000   0.75661769   -8.0268793    666.42151  0.017658227  0.017079791            2 
 3146000   0.74726914   -8.0247225    666.53506  0.017655622  0.017074422            2 
 3147000   0.74742977   -8.0214078    668.15967  0.017693032  0.017069045            3 
 3148000   0.76403077   -8.0265127    666.61408  0.017646497  0.017063689            2 
 3149000   0.75610623   -7.9886664    665.19399  0.017603313  0.017058341            2 
 3150000    0.7324657   -8.0007188    666.42046  0.017630171  0.017052985            2 
 3151000   0.75753302   -8.0341905    665.46209   0.01759923  0.017047638            1 
 3152000   0.74850337   -8.0190998    666.54749  0.017622343  0.017042261            2 
 3153000   0.73838822   -8.0238674    667.61092   0.01764486  0.017036914            3 
 3154000   0.75801268   -7.9971046    667.60449  0.017639096  0.017031555            1 
 3155000   0.74492142   -8.0155496    666.88927  0.017614613  0.017026209            1 
 3156000   0.75867542   -8.0028579    668.03682  0.017639333  0.017020848            3 
 3157000   0.75850795   -8.0181062    667.52884  0.017620337  0.017015499            3 
 3158000   0.75099163   -8.0161428    666.55636  0.017589095  0.017010165            4 
 3159000   0.73910816   -8.0206878    668.17717  0.017626284  0.017004809            1 
 3160000   0.74010996     -8.02263    668.02095  0.017616586  0.016999457            5 
 3161000   0.73807191   -8.0216497    668.32698  0.017619081  0.016994117            1 
 3162000   0.72909866   -8.0056663    666.88957  0.017575627  0.016988782            1 
 3163000   0.73810172   -8.0340302    667.88449  0.017596282  0.016983437            1 
 3164000   0.75047696   -8.0460386    667.23081  0.017573504  0.016978107            1 
 3165000   0.74943375   -8.0224594    668.02244  0.017588795  0.016972785            1 
 3166000   0.72053024   -8.0029551    665.99415  0.017529852  0.016967454            3 
 3167000   0.75469473   -8.0200722    666.79019  0.017545263  0.016962117            3 
 3168000   0.73512423   -8.0211302    668.06877  0.017573358  0.016956792            1 
 3169000   0.74887645   -8.0171886    666.10076  0.017516061  0.016951452            1 
 3170000   0.74389644    -8.038245    666.16193  0.017512143  0.016946082            1 
 3171000   0.74354627   -8.0150459    667.86747  0.017551442  0.016940741            2 
 3172000   0.75032337   -8.0219324    667.04464  0.017524292  0.016935399            4 
 3173000    0.7528086   -8.0301984     667.8253  0.017539271  0.016930073            5 
 3174000   0.71635183    -8.020071    667.82598  0.017533763  0.016924757            2 
 3175000   0.74137855   -8.0196738    667.48584  0.017519313  0.016919433            2 
 3176000   0.73467219   -8.0221066    667.32204  0.017509499  0.016914119            2 
 3177000   0.74419007   -8.0199688    667.82402  0.017517155  0.016908823            1 
 3178000   0.72655614   -8.0147866    668.73999  0.017535662  0.016903534            4 
 3179000   0.75200501   -8.0268679    668.36798  0.017520394  0.016898234            4 
 3180000   0.72723298   -8.0451445     668.0319  0.017506077  0.016892913            3 
 3181000   0.75607568   -7.9923968    669.31967   0.01753431  0.016887598            1 
 3182000   0.73588454   -8.0056929    668.25367  0.017500882  0.016882285            2 
 3183000   0.75235001    -8.062557    667.36335  0.017472074  0.016876978            3 
 3184000   0.73387727   -8.0239511    669.25486  0.017516092  0.016871662            2 
 3185000   0.74385088   -8.0754973    666.62466  0.017441776  0.016866361            5 
 3186000   0.75125161   -8.0519305    668.79359  0.017493032  0.016861056            5 
 3187000   0.74685539   -8.0260873    669.19497  0.017498038  0.016855748            7 
 3188000   0.74714738   -8.0219999    668.48526  0.017473998  0.016850468            2 
 3189000   0.73468979    -8.011095    668.98903  0.017481683  0.016845187            1 
 3190000   0.72521307   -8.0213941    668.41022  0.017461082  0.016839902            6 
 3191000   0.75236376   -8.0311955    668.16909  0.017449313  0.016834608            4 
 3192000    0.7429961   -8.0568731     666.8428  0.017409221  0.016829291            5 
 3193000   0.73747137   -8.0252168    667.63696  0.017424495  0.016824008            2 
 3194000   0.74158495   -8.0310785    669.04469  0.017455768  0.016818722            2 
 3195000   0.73090164   -8.0356055    668.69841  0.017441273  0.016813473            1 
 3196000    0.7487084   -8.0325499    669.53766  0.017457699  0.016808205            4 
 3197000   0.74722719   -8.0456674    668.67222  0.017429679   0.01680293            2 
 3198000   0.74116095   -8.0137447    668.14487  0.017410487  0.016797662            1 
 3199000   0.72739674   -8.0244631    669.50807  0.017440556  0.016792388            1 
 3200000   0.73140982   -8.0304208    667.96472  0.017394915   0.01678712            1 
 3201000   0.73831479   -8.0552106    669.08675  0.017418691  0.016781868            3 
 3202000   0.71738247   -8.0282904    669.93099  0.017435223  0.016776611            1 
 3203000   0.72937471   -8.0512707    667.82525  0.017374994  0.016771339            9 
 3204000   0.72429255   -8.0365328    668.26286  0.017380952  0.016766052            2 
 3205000    0.7384853   -8.0182396    668.84867  0.017390761  0.016760769            2 
 3206000   0.74228876   -8.0551824    667.35896  0.017346615  0.016755475            2 
 3207000   0.73522415   -8.0519712    668.45917  0.017369794  0.016750194            2 
 3208000   0.74803266   -8.0619908    669.53853  0.017392418  0.016744923            1 
 3209000   0.73398203   -8.0200046     668.7621  0.017366835  0.016739647            2 
 3210000   0.73786457   -8.0283918    669.21694  0.017373233  0.016734385            3 
 3211000   0.75402094   -8.0366954    667.55052  0.017324575  0.016729115            1 
 3212000   0.74862871   -8.0653924    667.19513  0.017309961   0.01672384            1 
 3213000   0.74342597   -8.0415216    668.31098  0.017333514  0.016718543            1 
 3214000   0.72664455   -8.0592379    667.38684   0.01730416  0.016713261            2 
 3215000   0.73142032   -8.0520254    668.71196  0.017333125  0.016707959            2 
 3216000   0.74132332   -8.0612347    666.57086  0.017272255  0.016702662            2 
 3217000   0.73507504    -8.075118    667.22771  0.017283901  0.016697349            2 
 3218000    0.7298953   -8.0260709    670.15777  0.017354407  0.016692053            1 
 3219000   0.74744218   -8.0577438    667.38314  0.017277186  0.016686758            1 
 3220000   0.74132801   -8.0645644    668.18306  0.017292522  0.016681468            2 
 3221000   0.73853353   -8.0533494    669.16566  0.017312575  0.016676178            2 
 3222000   0.74212672   -8.0543822    667.98113  0.017276566  0.016670899            2 
 3223000   0.73836499   -8.0532828    668.54748  0.017285849   0.01666564            1 
 3224000    0.7342665   -8.0581607    668.81231  0.017287332  0.016660379            1 
 3225000   0.72985467   -8.0590126    668.28831  0.017268432  0.016655105            2 
 3226000   0.72572999   -8.0602954    668.61626  0.017271551  0.016649841            2 
 3227000   0.73015284    -8.057303    669.32785  0.017284574  0.016644567            5 
 3228000   0.74057521    -8.054182    670.29473   0.01730418  0.016639307            1 
 3229000   0.74864081   -8.0480349    668.45017  0.017251217  0.016634042            1 
 3230000   0.73185293    -8.052428    668.25487  0.017240838  0.016628771            5 
 3231000   0.72741738   -8.0711193    667.75691  0.017222658  0.016623489            2 
 3232000   0.72898009   -8.0381156     669.5252  0.017262923  0.016618207            5 
 3233000   0.72666896    -8.033818    669.35737  0.017253257  0.016612944            2 
 3234000    0.7364862   -8.0707173    669.54578  0.017252777  0.016607685            3 
 3235000   0.74443977   -8.0280676    666.67934  0.017173605  0.016602438            2 
 3236000   0.74814455   -8.0677852    668.82086  0.017223446  0.016597169            4 
 3237000   0.72690103   -8.0254781    668.33836  0.017205704  0.016591914            3 
 3238000   0.74813438   -8.0603885    669.02871  0.017218157  0.016586671            5 
 3239000   0.74411435   -8.0112238    669.67455  0.017229457  0.016581434            3 
 3240000   0.73048335   -8.0364756    669.26088    0.0172135  0.016576205            1 
 3241000   0.73420694   -8.0374916    669.56467     0.017216  0.016570959            3 
 3242000   0.72105659   -8.0660563    668.76805  0.017190213    0.0165657            2 
 3243000   0.73085116   -8.0630853    669.25934  0.017197537  0.016560459            4 
 3244000    0.7381783    -8.036619    668.22481   0.01716566  0.016555225            1 
 3245000   0.73187461   -8.0652035    668.38874   0.01716458  0.016549989            2 
 3246000   0.74367369   -8.0364349    669.43983  0.017186276  0.016544763            2 
 3247000   0.73039846   -8.0569631    668.95356  0.017168503  0.016539513            1 
 3248000   0.72486611    -8.040024    668.71773  0.017157167  0.016534245            2 
 3249000   0.72773871   -8.0525135    667.51835  0.017121123   0.01652897            1 
 3250000   0.73318675   -8.0509393    670.32842  0.017187908  0.016523721            2 
 3251000    0.7363822   -8.0556865    669.58041  0.017163447  0.016518479            3 
 3252000    0.7345118   -8.0354607    668.18842  0.017122499  0.016513241            3 
 3253000     0.737653   -8.0615093    667.52751  0.017100305  0.016507982            2 
 3254000   0.73608578   -8.0415824    669.72766  0.017151395   0.01650272            4 
 3255000   0.74922367   -8.0603549    669.99096  0.017152866  0.016497462            4 
 3256000   0.73170006   -8.0754815    668.69857  0.017114521  0.016492215            2 
 3257000   0.71848001   -8.0622896    668.98145  0.017116504  0.016486951            2 
 3258000   0.72622679   -8.0474888    668.54355   0.01710005  0.016481675            2 
 3259000   0.73253079   -8.0702814    668.22601  0.017086683  0.016476406            4 
 3260000   0.74797589   -8.0283774    668.53261  0.017089279  0.016471139            2 
 3261000   0.74709279   -8.0387822    669.39981    0.0171062  0.016465887            1 
 3262000    0.7424515   -8.0718943    667.80228  0.017060144   0.01646064            1 
 3263000    0.7277079   -8.0604069    668.71844  0.017078313  0.016455375            3 
 3264000   0.73883537   -8.0507905    669.89369  0.017103086    0.0164501            1 
 3265000   0.74718829   -8.0366512     668.9051  0.017072616  0.016444829            1 
 3266000   0.72252077   -8.0579485    669.04497  0.017070958  0.016439584            2 
 3267000   0.73388535   -8.0453281    668.31197  0.017047035  0.016434345            2 
 3268000   0.73116446    -8.035854    669.52497   0.01707275  0.016429098            2 
 3269000   0.73409601    -8.079254    667.25331  0.017009618  0.016423832            2 
 3270000   0.71680807   -8.0531342    668.89377  0.017046222  0.016418533            2 
 3271000   0.73922914   -8.0666649    667.78182  0.017012683  0.016413259            1 
 3272000   0.75257617    -8.087443    666.39165  0.016972077  0.016407972            2 
 3273000   0.72190813   -8.0669397    668.46101   0.01701958  0.016402679            3 
 3274000   0.72710063   -8.0772569    668.57976  0.017017404  0.016397394            3 
 3275000   0.73396338   -8.0804888    669.47117   0.01703489  0.016392109            2 
 3276000   0.72640366   -8.0785279    667.58186  0.016981631  0.016386846            2 
 3277000   0.74363348   -8.0639752    667.88827   0.01698424  0.016381579            5 
 3278000   0.73518049   -8.0804682     667.2136  0.016961908  0.016376309            2 
 3279000   0.73390164   -8.0839654    668.77141  0.016996325  0.016371049            2 
 3280000   0.73363858   -8.0463531    669.38907  0.017006836  0.016365798            1 
 3281000   0.73892784   -8.0764519    668.65581  0.016983029   0.01636053            2 
 3282000   0.71569712   -8.0434604    667.63726  0.016951992  0.016355271            2 
 3283000   0.72085243   -8.0316355    671.18393  0.017036855  0.016350029            3 
 3284000   0.72719289   -8.0694836    668.90319  0.016973792  0.016344782            3 
 3285000   0.72078693   -8.0456062    668.41813   0.01695632  0.016339543            3 
 3286000   0.72142692   -8.0326265    669.08906  0.016968175  0.016334301            1 
 3287000   0.73007294   -8.0507624    669.67286  0.016977813  0.016329057            4 
 3288000   0.72196809   -8.0473639    670.17548  0.016985388   0.01632382            3 
 3289000   0.72792295   -8.0310716    668.38308   0.01693481  0.016318592            2 
 3290000   0.70986843   -8.0528843    669.43806  0.016956384  0.016313369            1 
 3291000   0.72436868   -8.0434401    669.38663   0.01694993  0.016308157            4 
 3292000   0.73169826   -8.0543402    671.28556   0.01699285  0.016302924            2 
 3293000    0.7207634   -8.0283353    669.80489   0.01695022  0.016297717            2 
 3294000    0.7307654   -8.0480292     668.5806  0.016914102  0.016292497            3 
 3295000   0.71775928   -8.0799786    667.02894  0.016869725  0.016287258            2 
 3296000   0.72825253   -8.0735525    669.29333  0.016921858  0.016282012            3 
 3297000    0.7208092   -8.0759382    667.91824  0.016881969  0.016276767            2 
 3298000   0.73345828   -8.0675144    668.56873  0.016893287  0.016271518            2 
 3299000   0.71541647   -8.0751219     667.3849  0.016858262  0.016266278            3 
 3300000   0.74027468   -8.0784436    667.40785  0.016853734  0.016261025            2 
 3301000    0.7122514   -8.0770305    669.27637  0.016895798   0.01625577            2 
 3302000   0.72242741   -8.0817413    668.55591  0.016872499  0.016250542            3 
 3303000   0.69528817   -8.0998853    668.16547   0.01685754  0.016245312            2 
 3304000   0.72719642   -8.0684436    669.82552  0.016894308  0.016240068            2 
 3305000   0.70874954   -8.1089751    668.07927  0.016845166  0.016234824            2 
 3306000   0.72767176   -8.1084304    669.03988  0.016864284  0.016229586            3 
 3307000   0.73054274   -8.1001081    667.38137  0.016817392  0.016224351            4 
 3308000   0.70952159   -8.0732321    668.70743  0.016845713  0.016219131            1 
 3309000   0.73504285    -8.097219    669.16046  0.016852031  0.016213894            2 
 3310000   0.70683352   -8.0756161    668.39992  0.016827792  0.016208669            5 
 3311000   0.72435952   -8.1019404    668.30122  0.016820226  0.016203451            4 
 3312000   0.72374543   -8.0856226    669.42622  0.016843454  0.016198225            2 
 3313000    0.7245595   -8.0849198    670.02168  0.016853348  0.016193004            3 
 3314000   0.70195566   -8.0752611    668.97825  0.016822024  0.016187767            2 
 3315000   0.72676284   -8.0782072    668.95515  0.016816369  0.016182561            2 
 3316000   0.71162606   -8.0879978     669.9188  0.016835515  0.016177352            2 
 3317000   0.72403208   -8.0562043    669.91014  0.016830222   0.01617217            3 
 3318000   0.72603839   -8.0962604    668.19541  0.016782083  0.016166968            1 
 3319000   0.71368758   -8.0754648    672.13379  0.016875911  0.016161781            2 
 3320000   0.71184521   -8.0887131    668.54458  0.016780737  0.016156597            1 
 3321000   0.71507186   -8.0690502    669.52641  0.016800322  0.016151407            2 
 3322000    0.7134889   -8.0660043    669.79338  0.016801961  0.016146229            2 
 3323000    0.7234155    -8.063241    670.34667   0.01681078  0.016141058            1 
 3324000   0.72217249   -8.0908153    669.17029  0.016776231  0.016135879            3 
 3325000   0.73261074   -8.0793005    670.92479  0.016815158  0.016130681            3 
 3326000    0.7112952   -8.0893721    669.20774  0.016767081  0.016125487            1 
 3327000   0.72561544   -8.0804604    670.81471  0.016802292  0.016120313            2 
 3328000   0.72764148   -8.0918773    669.40603   0.01676197  0.016115145            1 
 3329000   0.71480968   -8.1050754     669.0244  0.016747382  0.016109947            2 
 3330000   0.71078333   -8.1210564    668.23032   0.01672248  0.016104749            2 
 3331000   0.72246265   -8.1022037    670.52702  0.016774918   0.01609954            3 
 3332000   0.71573951    -8.071266    671.10664   0.01678438  0.016094362            1 
 3333000   0.72132745   -8.0709209    670.32723  0.016759857  0.016089198            1 
 3334000   0.74844259   -8.0876185    669.72121  0.016739682  0.016084043            1 
 3335000   0.73269367   -8.0857126    669.53836  0.016730094  0.016078889            1 
 3336000   0.73823044   -8.1032892    670.15644  0.016740519  0.016073736            1 
 3337000    0.7298674   -8.0880661    670.02393  0.016732193  0.016068581            2 
 3338000   0.73005794   -8.0602452    671.81996  0.016772018  0.016063444            1 
 3339000   0.71325037   -8.0748733    670.86834  0.016743245  0.016058294            1 
 3340000    0.7131852   -8.0993487    668.93097  0.016689894  0.016053137            4 
 3341000   0.72056452   -8.0976576    668.78795  0.016681332  0.016047978            3 
 3342000   0.71816711   -8.1038771    671.33392  0.016739824  0.016042834            4 
 3343000   0.70551631    -8.091642    669.71233  0.016694395  0.016037705            8 
 3344000   0.70059561   -8.0751409    670.12107  0.016699588  0.016032574            5 
 3345000    0.7071188    -8.085546    670.42118  0.016702072  0.016027443            4 
 3346000   0.71413221   -8.0896545    670.73365  0.016704863  0.016022317            1 
 3347000   0.71983886   -8.1088922    670.19639  0.016686495   0.01601718            2 
 3348000   0.72323334   -8.0717839    671.05203  0.016702808  0.016012031            1 
 3349000   0.73637131   -8.1029338    670.12975  0.016674872   0.01600688            2 
 3350000   0.72153571   -8.0988481    668.47963  0.016628847  0.016001715            1 
 3351000   0.71310023    -8.091508    670.23615  0.016667566  0.015996566            3 
 3352000   0.72253972   -8.1107969    670.97712  0.016681014   0.01599141            4 
 3353000   0.70501162    -8.105666    669.61954  0.016642299   0.01598626            2 
 3354000   0.71552022   -8.0760874      670.716   0.01666458  0.015981108            2 
 3355000   0.71871897   -8.0908908    670.93791  0.016665124  0.015975955            3 
 3356000   0.70586987   -8.1252756    669.73649  0.016630326  0.015970811            2 
 3357000   0.70195147    -8.100308     669.7611  0.016625983   0.01596565            3 
 3358000   0.70008142   -8.1228815    669.27274  0.016608913  0.015960471            1 
 3359000   0.72444912   -8.1112706    669.52192   0.01661015  0.015955304            4 
 3360000   0.70730863   -8.1085411    667.78154  0.016562042  0.015950128            4 
 3361000   0.71168299   -8.1312951     670.7731  0.016631288  0.015944961            4 
 3362000   0.69901092   -8.1263535    669.08916  0.016584602  0.015939778            2 
 3363000   0.72797344   -8.1126345    669.73118  0.016595579  0.015934607            2 
 3364000   0.72259189   -8.1143123    669.97758  0.016596749  0.015929429            4 
 3365000   0.71839996   -8.0991386    668.29293  0.016550097  0.015924266            1 
 3366000   0.72477702   -8.1281966    669.98123  0.016586978    0.0159191            4 
 3367000   0.70763846   -8.1097853    670.47158  0.016594188  0.015913948            2 
 3368000   0.71570158   -8.0900334    670.30699  0.016585189  0.015908809            1 
 3369000   0.70410192   -8.1078187    670.80969    0.0165927  0.015903679            2 
 3370000   0.70658592   -8.1151959    669.29967  0.016550437  0.015898545            5 
 3371000   0.71287145   -8.1136581    670.40353  0.016572815  0.015893407            1 
 3372000   0.71993917   -8.1072194    668.75123  0.016527067  0.015888257            3 
 3373000   0.71036849   -8.1157175    670.75882  0.016571767  0.015883113            1 
 3374000   0.70238479   -8.1212418    669.49729  0.016535697  0.015877973            5 
 3375000   0.71671229   -8.1327954    670.10161  0.016545719  0.015872846            3 
 3376000   0.71592367   -8.1142399    670.66685   0.01655477   0.01586773            2 
 3377000   0.69817841   -8.1222017    669.80581   0.01652862  0.015862614            3 
 3378000   0.71046937   -8.0986924    669.59407  0.016518504    0.0158575            1 
 3379000   0.71904679   -8.0972542    670.76043   0.01654238  0.015852393            2 
 3380000   0.71018697   -8.1287194     670.3798  0.016528101   0.01584729            2 
 3381000   0.71791134   -8.1250537    669.46228  0.016500598  0.015842173            2 
 3382000   0.71534574   -8.0986022    670.68585  0.016525869  0.015837067            1 
 3383000   0.70854197   -8.1029627    670.61113  0.016519143  0.015831962            2 
 3384000   0.70971217     -8.11008    671.72727  0.016541747  0.015826879            3 
 3385000   0.71873174   -8.0796975     672.6664   0.01655998  0.015821811            2 
 3386000   0.72005833   -8.1042084    670.95557  0.016512984  0.015816754            1 
 3387000   0.71270111   -8.1000845    670.69488  0.016501695  0.015811683            3 
 3388000   0.70451332   -8.1487484    671.28842  0.016511423  0.015806587            2 
 3389000   0.70153629   -8.1234652    670.57703  0.016489059  0.015801482            2 
 3390000   0.70665247   -8.1075403    671.50757  0.016507069  0.015796385            2 
 3391000   0.70807907   -8.1354591    670.29105  0.016472305  0.015791302            2 
 3392000    0.7005115   -8.1325933    670.42566  0.016470756  0.015786234            1 
 3393000   0.72218898   -8.1006767    671.82132   0.01650018  0.015781163            3 
 3394000   0.70897841   -8.1243499    671.49558   0.01648732  0.015776086            2 
 3395000   0.70354242   -8.1173975    672.48348  0.016506713  0.015771015            2 
 3396000   0.70290565   -8.1203471    671.93122    0.0164883  0.015765942            3 
 3397000   0.70296734   -8.1543914    669.00864  0.016411752  0.015760844            4 
 3398000   0.71742492   -8.1371946    671.71415  0.016473272   0.01575576            2 
 3399000    0.7077267   -8.1235019    672.52124  0.016488213  0.015750679            2 
 3400000   0.69755886   -8.1167596    671.42898  0.016456593  0.015745592            5 
 3401000    0.6892023   -8.1220686    670.82201  0.016436881  0.015740504            3 
 3402000   0.70508939    -8.120848    671.81972  0.016456489  0.015735424            5 
 3403000   0.70383647   -8.1076318    672.13709  0.016459425  0.015730351            1 
 3404000   0.70707321   -8.1332377    671.38401  0.016436154   0.01572529            1 
 3405000   0.71656682    -8.154185    672.14611  0.016449978   0.01572023            3 
 3406000   0.70174606   -8.1415232    670.19136  0.016397322  0.015715162            2 
 3407000   0.71570723   -8.1422411    671.07322  0.016414079  0.015710104            2 
 3408000   0.69585979    -8.111766    671.14307  0.016410971  0.015705038            1 
 3409000   0.70841323   -8.1332776    670.60829  0.016393084  0.015699982            2 
 3410000   0.71823251   -8.1056061    671.94985  0.016421062  0.015694936            4 
 3411000   0.70987114   -8.1070141    671.18904  0.016397661  0.015689899            3 
 3412000   0.71385598   -8.1201096    670.76865  0.016382587  0.015684862            4 
 3413000   0.69477611    -8.099429    671.81884  0.016403429  0.015679838            3 
 3414000   0.69356919   -8.1089254    671.86502  0.016399751  0.015674812            6 
 3415000   0.70131008   -8.1219361    670.56065   0.01636312  0.015669777            6 
 3416000   0.70264825   -8.1132331    671.98055  0.016392968  0.015664742            2 
 3417000   0.70077008    -8.129344    670.78755  0.016359076  0.015659706            3 
 3418000   0.70217635   -8.0761505    672.50457  0.016396152  0.015654691            1 
 3419000   0.70973789   -8.1060585    670.87625  0.016351668   0.01564968            4 
 3420000   0.71568655   -8.1230509    672.40548  0.016384149   0.01564466            3 
 3421000     0.717476   -8.1480832    671.69059  0.016361946  0.015639645            2 
 3422000   0.70097034   -8.1295005    671.84074  0.016360821   0.01563462            2 
 3423000   0.70065598   -8.1186456    671.02986    0.0163363  0.015629594            3 
 3424000   0.72076998   -8.1327909    671.46883  0.016342212  0.015624586            1 
 3425000   0.69677003   -8.1143155    672.31877  0.016358121  0.015619585            2 
 3426000   0.72037753   -8.1351214    672.21036  0.016350709  0.015614552            5 
 3427000   0.69697336   -8.1292111    670.69289  0.016309038  0.015609526            2 
 3428000   0.70570954   -8.1093595    672.06946  0.016337745  0.015604505            1 
 3429000   0.69813052   -8.1066476    672.96869  0.016354834  0.015599506            3 
 3430000   0.70544358   -8.1209336     669.6728   0.01626999  0.015594501            2 
 3431000    0.7109745   -8.1192869    672.14488  0.016325291  0.015589496            4 
 3432000   0.69764542   -8.1139268    671.66913  0.016308982  0.015584487            1 
 3433000   0.70222615   -8.1223072    672.82297   0.01633224  0.015579466            3 
 3434000   0.69861092   -8.1159597    672.04671  0.016308647  0.015574443            2 
 3435000   0.68507471   -8.1296319    671.67072  0.016294777  0.015569428            2 
 3436000   0.70956837   -8.1183639    670.84324  0.016269966  0.015564407            2 
 3437000   0.69869347   -8.1391608    671.31069  0.016276566  0.015559379            3 
 3438000   0.70293328   -8.1440541    672.27822  0.016295284  0.015554363            3 
 3439000   0.71611282    -8.159862    671.57339  0.016273466  0.015549344            2 
 3440000   0.70049551   -8.1442025    671.51183  0.016267244  0.015544322            3 
 3441000    0.6951186   -8.1598408    669.97789  0.016225368   0.01553929            1 
 3442000   0.69990298   -8.1351122    672.22424   0.01627504  0.015534262            3 
 3443000   0.69439697   -8.1320483    672.10445  0.016267413  0.015529248            3 
 3444000   0.69425849   -8.1144903    670.29786  0.016218976  0.015524221            3 
 3445000   0.68314831   -8.1501473    671.61762  0.016246193  0.015519191            6 
 3446000   0.70546871   -8.1777084    670.21714  0.016207611  0.015514156            4 
 3447000    0.6850052   -8.1408662    671.77169  0.016240491   0.01550911            1 
 3448000   0.68777783   -8.1465622    670.56416  0.016206597  0.015504065            2 
 3449000    0.7093093   -8.1541839     670.7617  0.016206671  0.015499035            4 
 3450000   0.71584928   -8.1376598    671.89291  0.016229297  0.015494029            2 
 3451000   0.69881527   -8.1021518     672.0095   0.01622741  0.015489031            4 
 3452000   0.69589222   -8.1384516    671.89255  0.016219886  0.015484038            1 
 3453000   0.69976998   -8.1363942    671.60078  0.016208147  0.015479039            2 
 3454000   0.70363471   -8.1429468    670.58619  0.016178976  0.015474053            3 
 3455000   0.71122373   -8.1510816    671.58802  0.016198457  0.015469047            2 
 3456000   0.69185194   -8.1334952     671.6579  0.016195455  0.015464043            4 
 3457000    0.7138125   -8.1303784     672.8983  0.016220671  0.015459034            3 
 3458000   0.71148674   -8.1276761    672.64615  0.016209903  0.015454024            6 
 3459000   0.68290131   -8.1538969    671.13485  0.016168807  0.015449029            2 
 3460000   0.70255017    -8.135864    672.57464  0.016198811  0.015444013            1 
 3461000   0.70185121   -8.1365895    670.87009  0.016153089     0.015439            6 
 3462000   0.69967733   -8.1572372    669.87616  0.016124498  0.015433994            6 
 3463000   0.69263613   -8.1487153    672.18198  0.016175329  0.015428985            1 
 3464000   0.67496117   -8.1518089    671.22824  0.016147715   0.01542397            1 
 3465000   0.70531512   -8.1594277      671.571  0.016151299  0.015418962            2 
 3466000   0.70467148   -8.1320324    672.00095  0.016156976   0.01541395            4 
 3467000   0.69477064   -8.1641644    670.05603  0.016105568  0.015408939            3 
 3468000   0.68819462   -8.1626776    671.14876  0.016127181  0.015403928            1 
 3469000   0.69245994   -8.1760081    671.33041  0.016126896  0.015398906            4 
 3470000   0.69481272    -8.168404    671.75661  0.016132483  0.015393887            2 
 3471000   0.69921954   -8.1556614    672.68224  0.016150058  0.015388884            2 
 3472000   0.69222168   -8.1473129    670.20114  0.016085857  0.015383893            1 
 3473000   0.69381837   -8.1645466    671.12568  0.016103409  0.015378896            3 
 3474000   0.69553174   -8.1591807    672.61326  0.016134457  0.015373905            3 
 3475000   0.66600035    -8.158522    671.21585  0.016096303  0.015368924            2 
 3476000   0.70002198   -8.1375076    671.07019  0.016088181  0.015363939            4 
 3477000   0.69277593   -8.1322547    671.92434  0.016104025  0.015358968            2 
 3478000   0.68853132   -8.1494141    671.11405   0.01607998  0.015353996            2 
 3479000    0.6939594   -8.1533061    670.74381   0.01606649   0.01534901            3 
 3480000    0.7171953   -8.1467258    671.20261   0.01607286  0.015344014            2 
 3481000   0.69905486   -8.1436851    671.04048  0.016064361  0.015339023            2 
 3482000   0.68820786   -8.1698177    670.53684  0.016047694  0.015334023            4 
 3483000   0.70408745   -8.1729297    670.49895   0.01604218  0.015329021            2 
 3484000   0.70977712   -8.1705792    671.06117  0.016051023  0.015324029            2 
 3485000   0.70799946   -8.1449974    670.46289  0.016032111   0.01531904            2 
 3486000   0.67951602   -8.1430892    670.52017  0.016028881   0.01531404            3 
 3487000   0.68646975   -8.1425471    670.62085  0.016026691  0.015309052            2 
 3488000    0.7002953   -8.1641278    670.56465  0.016020753  0.015304052            2 
 3489000   0.69470566   -8.1461765    670.55893  0.016016025  0.015299073            2 
 3490000   0.68254805    -8.146822    672.05607  0.016047184  0.015294092            2 
 3491000   0.68575472    -8.155331    670.30089   0.01600069  0.015289104            3 
 3492000   0.69825563   -8.1599507    671.67499  0.016028899   0.01528412            2 
 3493000   0.68176189   -8.1526866    671.86949  0.016028951  0.015279135            1 
 3494000   0.69747354   -8.1397816    672.29627  0.016034542  0.015274161            2 
 3495000   0.69007457   -8.1535424     671.7871  0.016017813  0.015269193            1 
 3496000   0.71233147   -8.1484868    669.90096  0.015968272  0.015264207            2 
 3497000    0.7079499   -8.1371062    671.75406  0.016007865  0.015259231            2 
 3498000   0.70632409   -8.1450692    671.70109  0.016002027   0.01525426            1 
 3499000   0.69136222   -8.1633185    673.49407  0.016040156  0.015249273            6 
 3500000   0.68740164    -8.174206    671.18879  0.015980686  0.015244301            5 
 3501000   0.69839526   -8.1476961    671.46134  0.015982608  0.015239332            2 
 3502000   0.69250232   -8.1562408     670.2352  0.015948867  0.015234355            5 
 3503000   0.69299171   -8.1460789    672.20791  0.015991244  0.015229362            3 
 3504000   0.67169702   -8.1672683    671.55772  0.015971217  0.015224382            2 
 3505000   0.68186753   -8.1678049     671.8447  0.015973483   0.01521942            3 
 3506000   0.69538001   -8.1355418    671.37678  0.015957805  0.015214469            4 
 3507000   0.69242478   -8.1421135    671.43664  0.015954677  0.015209511            1 
 3508000   0.69934714    -8.152613    671.38287  0.015948852  0.015204561            4 
 3509000   0.68280694   -8.1561931    670.82323  0.015931016  0.015199608            2 
 3510000   0.68065822   -8.1546874    671.57679  0.015944368  0.015194659            1 
 3511000   0.68522261   -8.1653007    670.96143  0.015925221  0.015189708            2 
 3512000   0.68361884   -8.1547685    672.11223  0.015947993  0.015184751            1 
 3513000   0.67707898   -8.1684608    671.33419  0.015924997  0.015179798            2 
 3514000    0.6669461    -8.156036    671.38879   0.01592176  0.015174853            5 
 3515000   0.67084171   -8.1550829    670.64889  0.015899689  0.015169898            4 
 3516000   0.70293165    -8.165621    671.73937  0.015921013   0.01516496            2 
 3517000   0.69797489   -8.1490046    671.29784  0.015906024  0.015160024            1 
 3518000   0.68411569    -8.172901    671.80675  0.015913558  0.015155081            3 
 3519000   0.68549102   -8.1845297    672.31009  0.015920955  0.015150128            2 
 3520000   0.68230061    -8.171065    670.75474   0.01587961  0.015145178            3 
 3521000   0.68297715   -8.1541573    673.03371  0.015929038  0.015140242            2 
 3522000    0.7003028   -8.1789764    671.61051  0.015890841  0.015135281            2 
 3523000   0.68631877   -8.1690756    671.90119  0.015893206  0.015130336            3 
 3524000   0.67254898   -8.1698903    671.11364  0.015870073  0.015125393            2 
 3525000   0.70047934   -8.1779938    671.43113  0.015873076  0.015120443            2 
 3526000   0.69976689   -8.1762999    672.01622  0.015882403  0.015115497            2 
 3527000   0.69856602    -8.154499    671.70224  0.015870481  0.015110552            2 
 3528000    0.6936133   -8.1799671    671.84685  0.015869398  0.015105612            3 
 3529000   0.66645819   -8.1889278    671.51566  0.015857081  0.015100664            2 
 3530000   0.67134209   -8.1746977    671.25051  0.015846329   0.01509573            1 
 3531000   0.68508265   -8.1915788     672.0533  0.015860788  0.015090796            4 
 3532000   0.67480219   -8.1736408    671.08036  0.015833342  0.015085864            4 
 3533000   0.68657266   -8.2058682    671.00502  0.015827083  0.015080922            2 
 3534000   0.66903629   -8.1833074    672.93217  0.015868048   0.01507599            3 
 3535000   0.67660254   -8.1736036    672.04121  0.015842556  0.015071066            1 
 3536000   0.69287857   -8.1946414    670.68922  0.015806213  0.015066153            2 
 3537000   0.69013754   -8.1567077    671.91733  0.015830679  0.015061244            1 
 3538000   0.68892954    -8.176108    673.40875  0.015861333  0.015056339            1 
 3539000   0.68871233   -8.2044275    670.83784  0.015796313  0.015051421            1 
 3540000   0.68842554   -8.1735789    670.95741  0.015794666  0.015046507            2 
 3541000   0.69842432   -8.1561068    672.59627  0.015828774  0.015041605            3 
 3542000   0.68723937   -8.1865428    673.83368  0.015853418  0.015036715            2 
 3543000   0.68953803   -8.1746803     671.8284  0.015801778  0.015031823            6 
 3544000   0.68479353   -8.1787171    673.83635  0.015844534  0.015026912            1 
 3545000   0.68065301   -8.1912612    672.12642  0.015799869  0.015022008            4 
 3546000   0.68159399   -8.1970741    672.03129  0.015793178  0.015017111            2 
 3547000   0.67852963   -8.1661581    672.32787  0.015795693  0.015012215            2 
 3548000   0.68698537   -8.1933785    671.74933  0.015777652  0.015007325            2 
 3549000   0.69377639   -8.2084934     672.4607   0.01578991  0.015002427            1 
 3550000    0.6872442   -8.1968024    672.28376  0.015781309  0.014997524            3 
 3551000   0.68352025   -8.1789198    672.35075  0.015778437  0.014992611            2 
 3552000   0.68092855   -8.1868274    671.24615   0.01574808  0.014987714            2 
 3553000   0.69640274   -8.2039566    672.62228  0.015775924  0.014982829            2 
 3554000   0.66633215    -8.175254    672.13712  0.015760109  0.014977936            3 
 3555000    0.6715195    -8.170917    672.42158  0.015762344  0.014973047            5 
 3556000     0.678911   -8.1831502    673.20655  0.015776306  0.014968163            2 
 3557000   0.68188547   -8.1617108    671.80667  0.015739075  0.014963266            2 
 3558000   0.69667868   -8.1797896    671.63075  0.015730531  0.014958381            2 
 3559000   0.68568917   -8.2095528    670.85007  0.015707832  0.014953493            4 
 3560000   0.68910657   -8.1689431    672.33147  0.015738096  0.014948606            1 
 3561000   0.68339862   -8.1775563    672.69049  0.015742078  0.014943725            2 
 3562000   0.66919089   -8.1996402    672.95743  0.015743904  0.014938849            4 
 3563000   0.67677988   -8.1998993     669.7527  0.015664531  0.014933966            4 
 3564000   0.68339454   -8.1799859    673.44754  0.015746529  0.014929096            2 
 3565000   0.67740126   -8.1780797    672.49787  0.015719913  0.014924234            3 
 3566000   0.68390004   -8.1797498    671.97599  0.015703309  0.014919373            5 
 3567000   0.67681206   -8.1591773    671.40691  0.015685611  0.014914513            3 
 3568000   0.67977285   -8.2098042    672.08242  0.015696992  0.014909642            3 
 3569000   0.67228547   -8.2115796    672.15925  0.015694388  0.014904766            1 
 3570000   0.67956892    -8.177479    673.72758  0.015726601    0.0148999            1 
 3571000    0.6897629   -8.2173438    671.32528  0.015666137  0.014895035            2 
 3572000   0.68882863   -8.2168029    672.05764  0.015678836  0.014890155            2 
 3573000   0.67082564   -8.1817662    672.39503  0.015682317  0.014885285            3 
 3574000   0.68159778    -8.173265    672.19687  0.015673309  0.014880428            3 
 3575000   0.68822912    -8.190418      671.841  0.015660629  0.014875559            7 
 3576000   0.68918718    -8.196998    672.21668  0.015665005  0.014870697            2 
 3577000   0.66929823   -8.1844706    672.51368  0.015667544  0.014865824            3 
 3578000   0.69044618   -8.2226715    672.36884  0.015659792  0.014860962            6 
 3579000   0.69901371   -8.2056826    671.24309  0.015629205  0.014856087            3 
 3580000   0.69175945   -8.2040738    671.50311  0.015630892  0.014851218            2 
 3581000   0.67597737   -8.1860001    671.68049  0.015630655  0.014846348            3 
 3582000   0.67588657   -8.1970679    671.20084  0.015615132  0.014841478            2 
 3583000   0.65547656   -8.2111245    670.35177  0.015591026  0.014836611            3 
 3584000   0.67483377   -8.2044947    670.62871  0.015593115  0.014831746            2 
 3585000   0.68536104   -8.1969961    672.57884  0.015634097  0.014826873            2 
 3586000   0.68528156   -8.2061784    672.96905  0.015638805  0.014821996            2 
 3587000   0.69131661    -8.196036    671.46212  0.015599436  0.014817135            1 
 3588000   0.67627491   -8.2096369    671.38996  0.015593412  0.014812281            3 
 3589000   0.67914215   -8.1954963    672.71991  0.015619948  0.014807415            5 
 3590000   0.68625874   -8.1779422    672.29314   0.01560569  0.014802566            2 
 3591000     0.692786   -8.1970797    671.91287   0.01559252  0.014797716            1 
 3592000   0.69573178   -8.2006704    671.55985  0.015579989  0.014792873            2 
 3593000   0.66648377   -8.1862319    672.10303  0.015588251  0.014788025            6 
 3594000   0.69100747   -8.1942099    672.73774  0.015598631  0.014783181            1 
 3595000   0.68244027   -8.1919756    673.47673  0.015611422  0.014778346            1 
 3596000   0.68653841   -8.1981733    672.99637  0.015595948  0.014773511            7 
 3597000   0.66567979   -8.2215892    671.97904  0.015568044   0.01476867            2 
 3598000   0.68764041    -8.208187    672.68745  0.015580124  0.014763821            1 
 3599000   0.67509914   -8.1985185     672.5333  0.015572226  0.014758973            2 
 3600000   0.65734235   -8.2142331    673.43909  0.015588868  0.014754117            2 
 3601000   0.68844074   -8.2207824    671.11079  0.015530658  0.014749269            5 
 3602000   0.68679725   -8.2078521    671.62687  0.015538286  0.014744418            2 
 3603000   0.67013446   -8.2097928    671.18518  0.015523757  0.014739568            5 
 3604000   0.68491979   -8.2085752    672.33157  0.015545958  0.014734726            4 
 3605000   0.67700784   -8.2175704    670.96798  0.015510124  0.014729885            2 
 3606000   0.68624562   -8.2335009    670.70985  0.015499858   0.01472503            3 
 3607000   0.68355359   -8.1990731    671.85386  0.015521991  0.014720198            2 
 3608000    0.6659611   -8.2311825      671.353  0.015506121  0.014715358            3 
 3609000   0.67631357   -8.2470196    670.11743  0.015473294  0.014710511            1 
 3610000   0.67398233   -8.2423174    672.34194  0.015520359   0.01470566            2 
 3611000   0.65849671   -8.1856176    671.00575  0.015485224  0.014700811            1 
 3612000   0.69343566   -8.2217005    671.27775  0.015487213  0.014695964            3 
 3613000   0.66338051   -8.2188777    670.21017  0.015458303   0.01469111            3 
 3614000   0.66607353   -8.2243249    671.38413  0.015481095   0.01468626            3 
 3615000   0.66913629   -8.2333998    671.63098  0.015482503  0.014681418            2 
 3616000   0.68606154   -8.2258403    670.58723  0.015454167  0.014676573            2 
 3617000   0.68696305   -8.2108154    671.36632  0.015467844  0.014671737            1 
 3618000   0.66460357   -8.2047547    670.26373  0.015438173  0.014666889            3 
 3619000   0.68364966   -8.2392111    670.78755  0.015445969   0.01466204            4 
 3620000   0.67455144   -8.2404888    671.22961  0.015451879  0.014657184            1 
 3621000   0.67406984   -8.2219543    671.75679  0.015459744  0.014652337            2 
 3622000    0.6686643   -8.2139506    670.55747  0.015427882  0.014647491            3 
 3623000   0.67761569   -8.2336262     671.1991  0.015438382  0.014642645            3 
 3624000   0.68370616   -8.2370454    670.27409  0.015412852  0.014637803            4 
 3625000   0.65882664   -8.1975626    671.67351   0.01544077  0.014632961            1 
 3626000   0.66295617   -8.2107003    670.37302  0.015406624  0.014628123            2 
 3627000    0.6755638   -8.2220607    671.28546   0.01542334  0.014623288            2 
 3628000    0.6754673    -8.217872    670.58631   0.01540303  0.014618456            5 
 3629000   0.66402654   -8.2124274    672.26905  0.015437427  0.014613628            2 
 3630000    0.6727528   -8.2391808    671.57442  0.015417227  0.014608797            6 
 3631000   0.66644434   -8.2212528    671.94767  0.015421548  0.014603969            1 
 3632000    0.6944213    -8.225692    670.74389  0.015389682  0.014599158            4 
 3633000   0.67221213   -8.2115927    672.35589  0.015422422  0.014594353            2 
 3634000   0.67880745   -8.2330896    671.77513   0.01540486  0.014589539            2 
 3635000   0.67811003   -8.2167134    671.65488  0.015397865  0.014584731            3 
 3636000    0.6694824   -8.2375534    670.78364  0.015373662  0.014579916            2 
 3637000   0.66040181   -8.2093082    672.36239  0.015405609   0.01457511            4 
 3638000   0.67211192   -8.2182852     672.8956  0.015413588  0.014570308            2 
 3639000   0.66587419   -8.2252006    671.47244  0.015376762   0.01456551            3 
 3640000   0.67989657   -8.2162326    672.35455  0.015392732  0.014560726            2 
 3641000   0.67262491   -8.2181103     672.4292  0.015390213  0.014555935            2 
 3642000   0.66678827   -8.2244904    670.78801  0.015348435  0.014551148            4 
 3643000   0.68537556   -8.2050535    671.38357  0.015357845  0.014546353            3 
 3644000   0.67777038   -8.2207275    671.02409   0.01534541  0.014541568            1 
 3645000   0.66049504   -8.2018695    673.31594  0.015393597  0.014536791            3 
 3646000   0.65728744    -8.218694    673.04076  0.015383086   0.01453201            2 
 3647000   0.68601694   -8.2243345    672.03301  0.015355841  0.014527228            2 
 3648000   0.67296721   -8.2378454    671.43724  0.015338022  0.014522445            3 
 3649000   0.63656333   -8.2304134    671.73686  0.015340661  0.014517656            3 
 3650000   0.65756944   -8.2064893    671.51131  0.015331308  0.014512876            2 
 3651000   0.66651258   -8.2243016    672.77128  0.015355868  0.014508089            2 
 3652000   0.66660205   -8.2395485    672.51419  0.015345797   0.01450329            4 
 3653000   0.66383751   -8.2343942     671.6798  0.015322561   0.01449851            3 
 3654000   0.66974335   -8.2335263    673.19491  0.015352922  0.014493739            3 
 3655000   0.65203514   -8.2134183    673.08951  0.015346318   0.01448896            2 
 3656000   0.68404853   -8.2414411    671.67816  0.015309951  0.014484172            2 
 3657000   0.66299224   -8.2308782    671.62523  0.015304558  0.014479388            2 
 3658000   0.65322046   -8.2221293    672.54065  0.015321229  0.014474608            2 
 3659000   0.67705098   -8.2154783    671.38438  0.015290707  0.014469837            2 
 3660000   0.65639381   -8.2374476     671.8454  0.015297026  0.014465055            6 
 3661000    0.6582931   -8.2363407    672.21192  0.015301191  0.014460284            4 
 3662000   0.68231552   -8.2248446    671.51563  0.015281168  0.014455505            3 
 3663000   0.66822365   -8.1981393    670.29934  0.015249325  0.014450729            3 
 3664000   0.66449547   -8.2172943    671.01306  0.015261396  0.014445949            3 
 3665000     0.664487   -8.2184459    672.11453  0.015282277  0.014441178            1 
 3666000   0.66730118    -8.202017    672.50434  0.015286969  0.014436401            4 
 3667000   0.66539318    -8.223183    672.34372   0.01527915  0.014431627            6 
 3668000   0.67071515   -8.2352938    671.09679  0.015246655  0.014426851            3 
 3669000   0.66267569   -8.2512399    670.93152  0.015238746  0.014422088            2 
 3670000   0.66819807   -8.2242336     672.6992  0.015274732  0.014417315            1 
 3671000   0.66155454   -8.2277183    671.11081  0.015234514   0.01441254            2 
 3672000   0.65450587   -8.2655464     670.9954  0.015227746  0.014407765            2 
 3673000   0.67922807    -8.204841    670.74862  0.015218001  0.014403004            4 
 3674000   0.67647624   -8.2331854    670.41746  0.015206348  0.014398236            3 
 3675000   0.67027339   -8.2255468    671.20391  0.015220043  0.014393483            2 
 3676000   0.67327103   -8.2175379    670.91227  0.015209292  0.014388733            3 
 3677000   0.66590343   -8.2334006    671.57036   0.01522007  0.014383989            2 
 3678000   0.66367823   -8.2325571     671.4189    0.0152125  0.014379242            1 
 3679000   0.67161214   -8.2279114    671.04138  0.015199814  0.014374497            4 
 3680000   0.65339585    -8.228507    672.50482  0.015228823  0.014369754            1 
 3681000   0.67249778   -8.2271916    671.70812   0.01520665  0.014364999            2 
 3682000   0.65545945    -8.256022    670.97047  0.015185824  0.014360247            4 
 3683000   0.66516505   -8.2479313    671.05454  0.015183604   0.01435549            3 
 3684000   0.67026174   -8.2495987    669.76775  0.015150374  0.014350743            1 
 3685000    0.6721202   -8.2441427    670.52247   0.01516333  0.014345984            3 
 3686000   0.65148461   -8.2500871    670.23918  0.015152812  0.014341218            2 
 3687000   0.65635995    -8.240626    669.51702   0.01513238  0.014336455            3 
 3688000   0.66407038   -8.2363954    671.19276  0.015166142  0.014331695            5 
 3689000   0.65493929   -8.2300738    671.65325  0.015172433   0.01432694            2 
 3690000   0.65943243   -8.2349107    671.76052  0.015170744  0.014322192            3 
 3691000   0.66298827   -8.2432502    671.60505  0.015163123  0.014317457            2 
 3692000   0.68213437   -8.2269313    671.80277  0.015163479  0.014312719            3 
 3693000   0.67005345   -8.2556383    671.93174  0.015162283  0.014307986            1 
 3694000   0.66069398   -8.2157403    672.37767  0.015168238   0.01430326            2 
 3695000   0.64570212   -8.2611356    671.33215  0.015140554   0.01429852            1 
 3696000   0.66325759   -8.2579959    671.13032  0.015131907  0.014293793            1 
 3697000   0.65160128   -8.2542453    671.71628  0.015141022  0.014289073            2 
 3698000   0.67062357    -8.222789    670.05738  0.015099544  0.014284353            3 
 3699000   0.67324476   -8.2520554    671.97407  0.015138643   0.01427964            2 
 3700000   0.65013385   -8.2688247    672.58445  0.015148299  0.014274914            2 
 3701000   0.66301858   -8.2650874    671.81296  0.015126834  0.014270204            1 
 3702000   0.66670206   -8.2531269    671.73892  0.015121081  0.014265476            2 
 3703000   0.66642123    -8.250216    671.73923  0.015117005  0.014260755            3 
 3704000   0.67066246    -8.279954    670.91043  0.015094277  0.014256029            3 
 3705000   0.66090853   -8.2584434    670.80496  0.015087831  0.014251307            2 
 3706000   0.65595218   -8.2344457    671.97548   0.01511008  0.014246588            3 
 3707000   0.66357489   -8.2524052    671.52193  0.015095808  0.014241882            1 
 3708000   0.64785539   -8.2442483    671.21944  0.015084939  0.014237163            2 
 3709000   0.66070068   -8.2562024    672.13576   0.01510146  0.014232464            2 
 3710000   0.65897064   -8.2807207    671.91085  0.015092337   0.01422777            2 
 3711000   0.66396988   -8.2806778     671.9166  0.015088399  0.014223064            4 
 3712000   0.65197577   -8.2642722     672.2977   0.01509289  0.014218349            3 
 3713000   0.66703306   -8.2518292    672.69021  0.015097635  0.014213637            3 
 3714000   0.66714115   -8.2634305    671.52678  0.015067465  0.014208927            3 
 3715000   0.65729881   -8.2524258    671.79179  0.015069354  0.014204225            3 
 3716000   0.66178641    -8.252519    673.06301  0.015093806  0.014199532            2 
 3717000   0.65983878    -8.246309    671.76967  0.015060749  0.014194836            2 
 3718000   0.66033339   -8.2624373    673.38667  0.015092941  0.014190142            2 
 3719000   0.63321197   -8.2389149    670.89105  0.015032962  0.014185456            2 
 3720000   0.65928477   -8.2450915    671.69194  0.015046862  0.014180767            2 
 3721000   0.65271139    -8.253867    669.94174  0.015003622  0.014176083            5 
 3722000   0.66835745   -8.2554669    671.26295  0.015029172  0.014171397            2 
 3723000   0.64392668   -8.2565566    672.52624  0.015053412  0.014166714            1 
 3724000   0.66595007   -8.2564461    671.19426  0.015019564  0.014162029            2 
 3725000   0.64503961   -8.2503449    671.27946  0.015017438  0.014157348            3 
 3726000   0.66919426   -8.2335837    670.99891  0.015007132  0.014152661            2 
 3727000    0.6585525   -8.2470635    671.35602  0.015011091  0.014147977            6 
 3728000   0.66560128   -8.2527953    672.14924  0.015024795  0.014143302            4 
 3729000   0.66238834   -8.2309915    671.53604  0.015007063  0.014138628            3 
 3730000   0.65623405   -8.2591387    672.06516  0.015014861  0.014133947            2 
 3731000   0.65564572   -8.2490053    671.79051  0.015004702  0.014129276            3 
 3732000   0.65726928   -8.2457346    671.66414  0.014997859  0.014124602            8 
 3733000   0.66315655   -8.2574944    671.97316   0.01500074   0.01411993            3 
 3734000    0.6619889   -8.2466718    671.02943  0.014975661  0.014115257            3 
 3735000    0.6463318   -8.2442945    672.44121  0.015003151  0.014110595            9 
 3736000   0.66014776   -8.2599243     670.1551  0.014948142  0.014105929            3 
 3737000    0.6599221    -8.236023    671.63396   0.01497712  0.014101261            5 
 3738000   0.65721574    -8.251936    671.56089  0.014971484  0.014096591            2 
 3739000   0.64961298   -8.2614673    672.26522  0.014983178  0.014091926            4 
 3740000   0.65630673   -8.2630479    672.79711  0.014991023  0.014087262            3 
 3741000   0.65701618   -8.2762299     671.6344  0.014961115  0.014082598            3 
 3742000   0.65469539   -8.2753551    670.93189  0.014941473  0.014077927            5 
 3743000    0.6380458   -8.2550602    671.19641   0.01494337  0.014073267            3 
 3744000   0.65692885   -8.2548853    672.29147  0.014963752  0.014068608            2 
 3745000   0.64762854   -8.2589043    671.90865  0.014951238  0.014063943            1 
 3746000    0.6464938    -8.254443    671.79609  0.014944743   0.01405928            6 
 3747000   0.65242434   -8.2640675    669.89433  0.014898459  0.014054618            4 
 3748000   0.64233845   -8.2841197    671.30645  0.014925882  0.014049962            6 
 3749000   0.65996697   -8.2656679    672.02136  0.014937791  0.014045312            3 
 3750000   0.64804447   -8.2482125    672.29906  0.014939979  0.014040672            3 
 3751000   0.65363245   -8.2895647    672.22662  0.014934387  0.014036024            1 
 3752000   0.65328203   -8.2718241    672.09691  0.014927525  0.014031374            2 
 3753000   0.63307898   -8.2729314    671.03903  0.014900058  0.014026723            2 
 3754000   0.64549131   -8.2543772    672.18442  0.014921515  0.014022074            4 
 3755000   0.65785252   -8.2765846    671.40152  0.014900167  0.014017421            4 
 3756000   0.63352434   -8.2892385    670.53919  0.014877068  0.014012787            1 
 3757000   0.65519318    -8.263243    670.65898  0.014875765   0.01400815            1 
 3758000   0.64798604   -8.2519858    672.50036  0.014912639  0.014003509            1 
 3759000   0.65317565   -8.2891123    670.89637  0.014873113  0.013998867            3 
 3760000   0.65735137   -8.2642951     671.9713  0.014892981  0.013994224            2 
 3761000   0.65230352   -8.2684522    671.37393  0.014875785  0.013989582            1 
 3762000    0.6482511    -8.261661    671.72457  0.014879598  0.013984948            3 
 3763000   0.63920108   -8.2596933    672.46772  0.014892101  0.013980324            3 
 3764000   0.65273651   -8.2563754    672.33047  0.014885106  0.013975698            2 
 3765000   0.66302849   -8.2963329    671.28211  0.014857948  0.013971076            1 
 3766000   0.64803623   -8.2871378    671.45057  0.014857731  0.013966449            3 
 3767000    0.6402378   -8.2882502    671.24868   0.01484932  0.013961831            2 
 3768000   0.65327381   -8.2792315    671.23818  0.014845147  0.013957214            3 
 3769000   0.64910044   -8.2731856    671.86281  0.014855019  0.013952606            2 
 3770000   0.65224379   -8.2390573    671.83604  0.014850487  0.013948004            2 
 3771000   0.65720358   -8.2676657    672.91215   0.01487033  0.013943411            3 
 3772000   0.64786965    -8.258201    672.71579  0.014862049  0.013938818            3 
 3773000    0.6482407   -8.2756857    672.97987  0.014863943   0.01393423            2 
 3774000    0.6463661   -8.2650786    672.66783  0.014853114  0.013929634            2 
 3775000   0.64412464   -8.2739995    671.59099  0.014825408  0.013925039            3 
 3776000   0.64247893   -8.2637029    673.10091  0.014854805  0.013920446            3 
 3777000   0.63342826   -8.2731803    670.70771   0.01479807  0.013915849            3 
 3778000   0.65603118   -8.2593746    672.16739   0.01482635  0.013911261            2 
 3779000   0.64705259   -8.2760299    672.85614  0.014837614  0.013906676            3 
 3780000   0.64347772     -8.25053    672.79586   0.01483236  0.013902091            2 
 3781000   0.64385175   -8.2930486    671.08063  0.014790634  0.013897503            2 
 3782000   0.66245521   -8.2522316    672.66466  0.014821626  0.013892921            2 
 3783000    0.6601318    -8.284177    671.50032  0.014792059  0.013888337            8 
 3784000   0.64701843   -8.2798732    671.16731  0.014780816  0.013883758            2 
 3785000   0.63954177   -8.2698566    671.40024   0.01478204  0.013879174            3 
 3786000   0.63625367   -8.2747381    671.59558  0.014782435  0.013874602            2 
 3787000    0.6518799   -8.2512762    672.77042  0.014804384  0.013870027            3 
 3788000    0.6482264   -8.2640379    672.51123  0.014794774  0.013865459            4 
 3789000   0.64701444   -8.2659597    671.67677  0.014772516  0.013860883            3 
 3790000   0.65493464   -8.2723946    672.86929  0.014794839  0.013856307            2 
 3791000    0.6490875    -8.248128    672.05939  0.014773134  0.013851734            2 
 3792000   0.64853577   -8.2769074    671.92507  0.014766286   0.01384716            2 
 3793000   0.63435196   -8.2643302    672.11875  0.014766648  0.013842588            2 
 3794000   0.62358092    -8.279806    672.19373  0.014764403  0.013838013            2 
 3795000   0.64301285   -8.2859592    670.77823   0.01472943  0.013833442            5 
 3796000   0.64394403   -8.2676781    672.16344  0.014755959  0.013828874            2 
 3797000    0.6401339   -8.2734604    671.14594  0.014729742   0.01382431            5 
 3798000   0.63774904   -8.2801906    670.64251  0.014714817  0.013819729            3 
 3799000    0.6459839   -8.2907714    672.08881  0.014742669  0.013815147            4 
 3800000   0.65696755    -8.298379    672.29268   0.01474326  0.013810573            2 
 3801000   0.64303338    -8.305734    672.60845  0.014746305  0.013805997            3 
 3802000   0.63024164   -8.2762033    671.42883  0.014716571  0.013801425            2 
 3803000   0.64045057   -8.3018071    671.45895  0.014713361  0.013796858            2 
 3804000   0.64007069   -8.3019317    671.16421  0.014703036  0.013792281            3 
 3805000     0.636506   -8.2812159    671.22941    0.0147006  0.013787712            4 
 3806000   0.65388086   -8.3030675    670.86203  0.014688694  0.013783143            2 
 3807000   0.64054315   -8.3079289    670.48357  0.014676551  0.013778567            2 
 3808000   0.64170875   -8.2770163    672.78412  0.014723042  0.013774005            7 
 3809000   0.63623531    -8.287887    670.89596  0.014677867  0.013769438            3 
 3810000   0.63430489   -8.2916169    672.32121  0.014705188  0.013764867            4 
 3811000   0.63483216   -8.3053609    671.54352  0.014684324  0.013760302            3 
 3812000   0.64775759   -8.3027305    671.84566  0.014687077  0.013755737            5 
 3813000    0.6377095   -8.2927951    670.00852  0.014643075  0.013751179            2 
 3814000   0.63500715   -8.2865194    671.89749  0.014680508  0.013746616            6 
 3815000   0.63323084   -8.2874486    672.03008  0.014679556  0.013742057            2 
 3816000   0.64286518   -8.2727414    671.27119  0.014659137  0.013737502            1 
 3817000   0.63972987   -8.2788245    672.25221  0.014676714  0.013732943            3 
 3818000    0.6291862   -8.3095704    672.28728  0.014673635  0.013728401            2 
 3819000   0.65725188   -8.2737356    673.26725  0.014691177  0.013723858            2 
 3820000    0.6486709   -8.3061563    671.66808  0.014652445  0.013719311            2 
 3821000   0.63158945   -8.2772489    672.54187  0.014667667  0.013714767            1 
 3822000   0.63173214   -8.2507003    672.36001  0.014659864  0.013710226            3 
 3823000   0.64273146   -8.2671531    672.14343  0.014651309  0.013705689            4 
 3824000   0.64936268   -8.3087336    672.31677  0.014651254   0.01370115            2 
 3825000   0.64196166   -8.2974742    671.88227  0.014637958  0.013696607            1 
 3826000   0.65325755   -8.2923292    672.03627  0.014637486  0.013692069            3 
 3827000   0.65783853   -8.2864887     671.9145   0.01463101  0.013687538            2 
 3828000   0.64467409   -8.2855863     670.1909  0.014589666   0.01368301            3 
 3829000   0.64009395   -8.2938905    671.67955  0.014618254  0.013678478            1 
 3830000   0.63609209   -8.2659891     671.9616  0.014620574  0.013673946            3 
 3831000   0.63596855   -8.2950568    670.78676  0.014591202  0.013669414            1 
 3832000   0.63815528   -8.2784514    671.93882  0.014612448  0.013664889            1 
 3833000   0.63919086   -8.2852023     671.8324  0.014606322  0.013660356            1 
 3834000   0.64917188   -8.2686879    671.70589  0.014599763  0.013655845            2 
 3835000   0.64055675   -8.2867874    671.59831  0.014593618  0.013651338            2 
 3836000   0.63718581   -8.2656716    672.14165  0.014601617  0.013646828            3 
 3837000   0.62572011    -8.280699    672.30992  0.014601466  0.013642312            2 
 3838000   0.64583881   -8.2822354    671.22669  0.014574142  0.013637799            1 
 3839000   0.63260351     -8.29587    672.39412  0.014595687  0.013633285            2 
 3840000   0.62362655   -8.2989591    671.49782  0.014572435  0.013628768            3 
 3841000   0.63640723   -8.2946394    671.11652  0.014560369  0.013624257            3 
 3842000   0.63912096    -8.274851    671.02959  0.014554693  0.013619735            3 
 3843000   0.62997745   -8.2836012    670.78759  0.014545659  0.013615235            5 
 3844000   0.63406091     -8.30754    671.29257  0.014552822  0.013610728            2 
 3845000   0.61922332    -8.294621    670.98949  0.014542468  0.013606217            5 
 3846000   0.63350885    -8.299816    672.02367  0.014561095  0.013601709            1 
 3847000   0.63455031   -8.3105009    672.51444  0.014567941  0.013597203            2 
 3848000   0.64810802   -8.3039848    671.82388    0.0145492  0.013592694            3 
 3849000   0.63125017    -8.291217    672.64731  0.014563248  0.013588178            2 
 3850000   0.64616879   -8.3006219    671.90387  0.014543374  0.013583669            1 
 3851000   0.63981605   -8.2920191    670.83179  0.014516398  0.013579164            1 
 3852000    0.6394287   -8.2864039    673.19515  0.014563758  0.013574668            2 
 3853000   0.64549276   -8.2960439    671.85871  0.014531073  0.013570178            2 
 3854000   0.62972626   -8.2982745    671.36079  0.014516537  0.013565667            3 
 3855000   0.62290159   -8.2902352    670.73914  0.014499333  0.013561164            1 
 3856000    0.6175706   -8.2908045    671.11204  0.014503632  0.013556659            4 
 3857000   0.63131387   -8.3009507    671.40672  0.014506238  0.013552162            5 
 3858000   0.63071821    -8.310915    670.41547  0.014481067  0.013547665            3 
 3859000   0.62181403   -8.2997153    673.14464  0.014536249  0.013543164            2 
 3860000    0.6374931   -8.3075504    670.84524  0.014482842  0.013538662            3 
 3861000   0.62640421   -8.3084552    671.81171  0.014499951  0.013534171            2 
 3862000   0.64428042   -8.3156705    671.03874  0.014479517   0.01352968            2 
 3863000   0.63449623   -8.3171143    671.10163  0.014477126  0.013525195            2 
 3864000    0.6217109   -8.3053072    671.47672  0.014481468   0.01352071            4 
 3865000   0.63686293   -8.3068111    672.77647  0.014505745  0.013516233            2 
 3866000   0.64162921   -8.3225529    670.93904  0.014462387  0.013511755            3 
 3867000   0.62834327   -8.3135987    670.16673  0.014442003  0.013507266            4 
 3868000   0.64864293   -8.3115386    671.65329  0.014470297  0.013502783            3 
 3869000   0.61705379   -8.3217442    671.43488  0.014461852  0.013498299            2 
 3870000   0.62135217   -8.3148767    670.68341  0.014441934  0.013493812            3 
 3871000   0.62973302   -8.3249965    672.11949  0.014469119   0.01348933            2 
 3872000   0.63866777   -8.2982105    670.67103  0.014434208  0.013484838            3 
 3873000   0.63356317   -8.3350696     670.4571  0.014425878  0.013480345            2 
 3874000   0.60812454   -8.3197615    670.83951   0.01443038  0.013475865            2 
 3875000    0.6220946   -8.3226111    670.95039  0.014429041  0.013471383            1 
 3876000   0.64411655   -8.3208752    671.49422   0.01443701  0.013466908            3 
 3877000   0.64529614   -8.3200746    670.62068   0.01441451  0.013462434            3 
 3878000   0.63326395    -8.317848    671.97787  0.014439958  0.013457968            3 
 3879000   0.62811732    -8.322604    671.46646  0.014425248  0.013453495            5 
 3880000   0.64378306   -8.3172493    670.34987  0.014397549  0.013449026            2 
 3881000   0.62950329   -8.3333111    670.80689  0.014403652  0.013444552            7 
 3882000   0.61718716   -8.3123749    670.80822   0.01439997  0.013440086            4 
 3883000   0.63685736   -8.3188135    670.78682  0.014395803  0.013435614            1 
 3884000   0.63805172   -8.3187166    671.95203  0.014417096  0.013431145            5 
 3885000    0.6247219   -8.3234069    671.62468  0.014406364  0.013426682            2 
 3886000   0.62598386   -8.3277082    670.87765  0.014386637   0.01342222            1 
 3887000   0.62781422   -8.3380785    670.97015  0.014384919  0.013417761            5 
 3888000   0.62587774   -8.3357061     671.0144  0.014382167  0.013413301            5 
 3889000   0.62935286     -8.32321    671.67791  0.014392687  0.013408847            5 
 3890000   0.62351052   -8.3258821    670.88339  0.014371966  0.013404394            5 
 3891000   0.62939105   -8.3281979    670.06355  0.014350714  0.013399935            2 
 3892000    0.6326802   -8.3351922    670.07988  0.014347377  0.013395482            5 
 3893000   0.63876465   -8.3676341     670.6925  0.014356805  0.013391028            2 
 3894000   0.63198877   -8.3077733    671.45372  0.014369408  0.013386576            1 
 3895000   0.63685713   -8.3314729    670.19752  0.014338843  0.013382122            2 
 3896000    0.6204107   -8.3451717    670.08996  0.014332862   0.01337767            2 
 3897000   0.62504466   -8.3273951    670.11126   0.01432964  0.013373224            3 
 3898000   0.62851521   -8.3359658     670.7574  0.014339777  0.013368776            1 
 3899000   0.61597696   -8.3044509    671.01382  0.014341579  0.013364329            3 
 3900000   0.61768455   -8.3141056    672.02487  0.014359506  0.013359872            3 
 3901000   0.62501089   -8.3415788    670.00838  0.014312748  0.013355429            2 
 3902000   0.64228095    -8.327296    671.02763  0.014330848  0.013350982            2 
 3903000   0.63595384   -8.3278118    670.85654  0.014323523  0.013346543            1 
 3904000   0.63688677   -8.3255047    671.41282  0.014331729  0.013342118            2 
 3905000   0.62439387   -8.2985011    670.50755   0.01430874   0.01333769            2 
 3906000   0.62784096   -8.3442211    670.35886  0.014301904  0.013333251            2 
 3907000   0.63132622    -8.338036    670.97682  0.014311424  0.013328818            2 
 3908000   0.63543486   -8.2986606    671.78861  0.014325073    0.0133244            4 
 3909000   0.61631812   -8.3224691    672.72905  0.014341457  0.013319982            4 
 3910000   0.62169284    -8.344903    671.25136  0.014306295  0.013315562            4 
 3911000   0.63035854   -8.3294935    670.96575  0.014296551  0.013311144            5 
 3912000   0.62227588   -8.3178805    671.03526  0.014294378  0.013306734            3 
 3913000   0.61985161   -8.3439455    670.88159  0.014287452  0.013302304            2 
 3914000   0.62738738   -8.3243506    671.78525  0.014303041  0.013297882            2 
 3915000   0.62501946   -8.3507246    670.53257  0.014272724  0.013293456            3 
 3916000    0.6385867   -8.3401453    671.10901  0.014281346  0.013289035            1 
 3917000   0.62706646   -8.3341539    670.72976  0.014269632  0.013284608            2 
 3918000   0.62763326   -8.3253912    670.93903   0.01427044  0.013280186            2 
 3919000   0.61552796   -8.3200115    671.35129  0.014275565  0.013275773            4 
 3920000   0.63184839   -8.3283556    669.59919  0.014234677  0.013271363            1 
 3921000   0.62963448   -8.3318412    671.14588  0.014263918  0.013266956            4 
 3922000   0.62499611   -8.3364919    670.98787  0.014256924  0.013262543            2 
 3923000   0.61285745   -8.3263095    671.54121  0.014265044  0.013258133            2 
 3924000   0.61436813    -8.355026    671.51888  0.014260934  0.013253726            3 
 3925000   0.63193037   -8.3391745    669.20311  0.014208134  0.013249313            4 
 3926000   0.63178304   -8.3296588     671.2755  0.014248504  0.013244907            5 
 3927000   0.61361224   -8.3415278     670.3423  0.014225072  0.013240499            4 
 3928000   0.61420936   -8.3290915    671.59154  0.014247954  0.013236086            5 
 3929000   0.61359615    -8.335143    669.32652  0.014196286  0.013231678            4 
 3930000   0.63009309   -8.3296608    671.50053  0.014238773  0.013227276            4 
 3931000   0.62535009   -8.3315303     671.0919  0.014226488  0.013222876            3 
 3932000   0.62752412   -8.3284686    669.79978  0.014195485  0.013218475            5 
 3933000   0.63834607   -8.3242223    671.06561  0.014218697  0.013214077            4 
 3934000     0.615637   -8.3406211     670.6003  0.014205226  0.013209678            3 
 3935000   0.63547459   -8.3343007    670.45892  0.014198622  0.013205289            3 
 3936000    0.6177427   -8.3207219    671.67724  0.014220809  0.013200893            3 
 3937000   0.62402066   -8.3455493    671.18782  0.014206837  0.013196508            5 
 3938000   0.63433694   -8.3262321    670.20175  0.014182363  0.013192124            2 
 3939000   0.61445627   -8.3237185     670.7753  0.014190897  0.013187743            3 
 3940000   0.62376271   -8.3191391     671.9431  0.014211994  0.013183363            1 
 3941000   0.60887953   -8.3391584    672.10875  0.014211891  0.013178985            2 
 3942000   0.61034408    -8.319497    671.85155  0.014202849  0.013174604            3 
 3943000   0.61476094   -8.3451435    671.02899  0.014181862  0.013170229            4 
 3944000   0.62020239   -8.3459174    669.92303  0.014154898  0.013165859            5 
 3945000   0.61719943   -8.3348306    670.66394  0.014166961  0.013161478            3 
 3946000    0.6071082   -8.3515306     670.9813  0.014170073  0.013157105            5 
 3947000   0.62134022   -8.3546045    670.81157  0.014162899  0.013152727            5 
 3948000    0.6101682   -8.3208245     670.4475  0.014151627  0.013148357            3 
 3949000   0.61772422   -8.3330581    670.47294  0.014148581  0.013143991            5 
 3950000   0.61812882    -8.354907    670.12675  0.014137695  0.013139622            3 
 3951000   0.62742079   -8.3424644    671.25749  0.014157966  0.013135256            3 
 3952000   0.61663776   -8.3475137    671.36102  0.014156567  0.013130891            5 
 3953000   0.61491352   -8.3561205    670.46088   0.01413401  0.013126526            1 
 3954000   0.60833743   -8.3394646    671.58695  0.014154168  0.013122168            3 
 3955000   0.62383981   -8.3419139    669.89196  0.014114875  0.013117806            4 
 3956000   0.61611662   -8.3586961    670.33665  0.014120674  0.013113447            2 
 3957000   0.61044238   -8.3221806    671.79124  0.014147739  0.013109089            3 
 3958000   0.63312198   -8.3528654     670.7523   0.01412229  0.013104729            1 
 3959000     0.602103   -8.3541637    670.98819  0.014123688   0.01310037            2 
 3960000   0.61966551   -8.3677979     670.6277  0.014112536  0.013096009            2 
 3961000   0.61633885   -8.3351258    670.71247  0.014110756  0.013091642            2 
 3962000   0.61463759   -8.3535951    670.35611  0.014099699  0.013087288            2 
 3963000   0.60918464   -8.3527699     671.8933  0.014128465  0.013082936            2 
 3964000   0.60845901   -8.3433903    670.50857  0.014095791  0.013078586            2 
 3965000   0.61338532   -8.3722653    670.17061  0.014085133  0.013074233            2 
 3966000   0.62154334    -8.355794    670.50584  0.014088625  0.013069883            3 
 3967000   0.62782696   -8.3526667    670.70838  0.014089328  0.013065534            1 
 3968000   0.61568943   -8.3493376     671.4763  0.014101905  0.013061192            4 
 3969000   0.60780419   -8.3428269    671.87365  0.014106695  0.013056855            2 
 3970000   0.61562511   -8.3505475    670.92733  0.014083277  0.013052515            2 
 3971000    0.6208287   -8.3523614    671.44745  0.014090646  0.013048181            3 
 3972000   0.60869153   -8.3627575    670.46491  0.014066484  0.013043847            2 
 3973000   0.61527904   -8.3467205    670.70501   0.01406798  0.013039509            3 
 3974000   0.61278648   -8.3512918    670.77843  0.014065979  0.013035179            2 
 3975000   0.60779296   -8.3540416    671.06445  0.014068437  0.013030835            2 
 3976000   0.60840467   -8.3208842    670.64849  0.014056181  0.013026498            1 
 3977000   0.62136411   -8.3400063    670.65131  0.014052705  0.013022163            6 
 3978000   0.61224771    -8.378254    670.14928  0.014038656  0.013017819            2 
 3979000   0.62509686   -8.3585136    669.94287  0.014030805  0.013013475            3 
 3980000   0.61652831   -8.3640621    670.61493  0.014041351  0.013009142            7 
 3981000   0.62125963   -8.3549672    670.60058  0.014037524  0.013004805            3 
 3982000    0.6282595   -8.3379273    670.94527  0.014041212  0.013000478            4 
 3983000   0.60111974   -8.3342684    671.59185  0.014051215  0.012996152            6 
 3984000   0.61188379   -8.3660032     672.0775  0.014057846  0.012991825            2 
 3985000   0.62604206   -8.3463569    671.04396  0.014032705  0.012987498            3 
 3986000   0.60903631   -8.3453368    672.14525  0.014052209  0.012983179            2 
 3987000    0.6066656   -8.3758811    670.50828   0.01401447  0.012978858            2 
 3988000   0.61170219   -8.3405942    671.30987  0.014027705  0.012974535            8 
 3989000   0.62202456   -8.3734642    670.53719  0.014008047  0.012970222            3 
 3990000   0.61294493   -8.3572821    670.13888  0.013996217  0.012965911            4 
 3991000   0.61305045   -8.3593397    670.48309  0.013999897  0.012961602            3 
 3992000   0.60592589   -8.3408497     670.9533  0.014006206  0.012957297            7 
 3993000   0.61494491   -8.3528525    670.95426  0.014002719  0.012952991            5 
 3994000   0.61105828   -8.3802156    670.60467  0.013991919  0.012948683            3 
 3995000   0.61652486   -8.3306668    670.86618  0.013993871   0.01294438            2 
 3996000    0.6126215   -8.3536806    671.27035  0.013998798  0.012940082            1 
 3997000   0.61424995   -8.3590554    670.03212   0.01396948  0.012935791            2 
 3998000    0.6080364   -8.3517586    670.42394  0.013974152  0.012931495            2 
 3999000   0.61970079   -8.3264739    670.45021  0.013971205  0.012927195            3 
 4000000   0.61148959   -8.3541934    671.10945  0.013981447  0.012922895            1 
 4001000   0.60607376   -8.3621091    671.03089  0.013976316  0.012918598            2 
 4002000   0.61091481   -8.3393212    671.59951  0.013984664   0.01291431            4 
 4003000   0.61776577   -8.3438405    671.01802  0.013969065  0.012910017            2 
 4004000   0.61719741   -8.3667499    670.20699  0.013948697  0.012905723            3 
 4005000   0.60161158   -8.3714472    669.60575  0.013932704  0.012901431            2 
 4006000    0.6091756   -8.3619335    671.55793  0.013969835  0.012897139            3 
 4007000   0.60447105   -8.3622883    671.81134  0.013971619  0.012892862            1 
 4008000     0.610522   -8.3625961      670.818   0.01394748  0.012888581            2 
 4009000   0.60536206   -8.3660114    670.19021  0.013930951  0.012884304            4 
 4010000    0.6223199   -8.3614939    670.33819  0.013930552  0.012880019            3 
 4011000   0.60941643   -8.3625827    670.18538  0.013923905   0.01287574            2 
 4012000   0.60475004   -8.3516333    671.23965  0.013942332  0.012871464            3 
 4013000   0.62576436    -8.334691     671.1754  0.013937524  0.012867185            3 
 4014000   0.61646419   -8.3557114    670.08301  0.013911373   0.01286291            4 
 4015000   0.60512432    -8.373727    670.82823  0.013923375  0.012858633            2 
 4016000   0.60511757   -8.3752284    671.44909  0.013932791  0.012854357            3 
 4017000   0.60751138   -8.3266193    670.72984  0.013914402  0.012850086            3 
 4018000   0.61762446   -8.3615269    670.42231  0.013904561  0.012845814            4 
 4019000   0.58886664    -8.364425    671.93464  0.013932459  0.012841543            2 
 4020000   0.60989908   -8.3794952    669.99849  0.013888858  0.012837271            6 
 4021000   0.60288897   -8.3603043    670.49699  0.013895735  0.012833001            3 
 4022000   0.60489079   -8.3629515    670.76882  0.013897912  0.012828738            1 
 4023000   0.59027301   -8.3602488    670.69463  0.013892921  0.012824463            2 
 4024000   0.60933295   -8.3595611    669.70371  0.013868947  0.012820193            7 
 4025000   0.61980679   -8.3753646    670.17033  0.013875162  0.012815934            2 
 4026000   0.59354287   -8.3502836    671.01872  0.013889276   0.01281167            4 
 4027000   0.60805952   -8.3795579    669.00612  0.013844179  0.012807413            6 
 4028000   0.60892998   -8.3720985    670.56104  0.013872911  0.012803144            3 
 4029000   0.60877162   -8.3487226    669.84601  0.013854679  0.012798875            4 
 4030000   0.60333257   -8.3492885    671.42445   0.01388388  0.012794613            6 
 4031000   0.59895057   -8.3700817    669.52372  0.013841142  0.012790351            3 
 4032000   0.59676868   -8.3781438    670.73647  0.013862774  0.012786092            2 
 4033000   0.61006531   -8.3576494    671.13407  0.013867552  0.012781835            2 
 4034000   0.60869559   -8.3828842    669.81603  0.013836887  0.012777575            2 
 4035000   0.61177111   -8.3717851     670.6635   0.01385096  0.012773319            3 
 4036000   0.59875223   -8.3748373    669.73109  0.013828277  0.012769062            4 
 4037000    0.6111022   -8.3459374     671.7548  0.013866625  0.012764809            2 
 4038000   0.59756407   -8.3689263    669.74695  0.013821755  0.012760555            2 
 4039000   0.60216965   -8.3534531    670.60138  0.013835961  0.012756304            1 
 4040000   0.61650362   -8.3716306    671.29813  0.013846909   0.01275206            3 
 4041000   0.60982384   -8.3604253    670.17685  0.013820359  0.012747821            4 
 4042000   0.60450431   -8.3575323    670.29866  0.013819451   0.01274359            3 
 4043000   0.59948361   -8.3572456     670.0611  0.013811137  0.012739356            3 
 4044000   0.61121107   -8.3535949    671.08472  0.013828815   0.01273512            6 
 4045000   0.60826754   -8.3821316    670.47873  0.013812912  0.012730888            4 
 4046000   0.59894881   -8.3747286    670.68129   0.01381367  0.012726653            6 
 4047000   0.59408488   -8.3779086     669.5356  0.013786665  0.012722423            5 
 4048000   0.60440594   -8.3497985    670.37187  0.013800475  0.012718193            4 
 4049000    0.5968322   -8.3712673    670.47489  0.013799187  0.012713962            1 
 4050000   0.60391084   -8.3842691    669.65305  0.013778869  0.012709731            5 
 4051000   0.59546722   -8.3568222    671.85175  0.013820698    0.0127055            2 
 4052000   0.61033683   -8.3898092    669.78142  0.013774708  0.012701272            6 
 4053000   0.61437035   -8.3914459    669.47833  0.013765078  0.012697045            2 
 4054000   0.58489383    -8.394764    669.44643  0.013761027  0.012692818            2 
 4055000   0.59390254   -8.3739565    669.93367  0.013767646  0.012688594            2 
 4056000   0.59308521   -8.3854872    670.60606  0.013778067  0.012684364            6 
 4057000   0.61774166   -8.3715027    670.87692  0.013780234  0.012680138            3 
 4058000   0.59656434   -8.3690203    670.22193  0.013763388  0.012675911            2 
 4059000   0.60609887   -8.3907916    669.13859  0.013737755  0.012671686            2 
 4060000   0.59422649   -8.3883505    669.41636  0.013740073  0.012667459            4 
 4061000   0.60913498   -8.3851092    670.23057  0.013753398  0.012663239            3 
 4062000   0.60093995   -8.3863551    669.39244  0.013732817  0.012659018            2 
 4063000     0.596183   -8.3773495    669.26146  0.013726751  0.012654794            6 
 4064000   0.58128758     -8.38719    669.48177  0.013727891  0.012650574            4 
 4065000   0.60672339    -8.387784    670.44839  0.013744329  0.012646351            3 
 4066000   0.59587295   -8.3814404    669.75067  0.013726649  0.012642133            2 
 4067000   0.58905249   -8.3788967    671.42451  0.013757571  0.012637921            4 
 4068000    0.6045657   -8.3884734    669.11726  0.013706925  0.012633707            2 
 4069000   0.60680206   -8.4014537    669.05986  0.013702381   0.01262949            4 
 4070000   0.59297214      -8.3956      670.353  0.013725491  0.012625273            7 
 4071000   0.59590901   -8.3939886    670.23042  0.013719611  0.012621064            1 
 4072000   0.60319844   -8.4089971     670.6452   0.01372473  0.012616857            1 
 4073000   0.58978498   -8.3865618    669.37276  0.013695326  0.012612644            8 
 4074000   0.60212225   -8.3859562    669.62511  0.013697126  0.012608438            3 
 4075000   0.59821663   -8.3961339    669.60788  0.013693413  0.012604231            3 
 4076000    0.5988506   -8.3768698    669.11886  0.013680055  0.012600024            1 
 4077000   0.60246265    -8.395036    670.01521  0.013695021  0.012595824            2 
 4078000   0.60073711    -8.409865    669.49253  0.013680982  0.012591617            1 
 4079000    0.5882985    -8.385059    670.11923  0.013690431  0.012587419            3 
 4080000   0.60096573   -8.3974833    670.41058  0.013693027  0.012583223            5 
 4081000   0.59967585   -8.3716592    668.96356  0.013660123  0.012579024            2 
 4082000   0.60216821   -8.4007497    670.52935  0.013688742  0.012574828            2 
 4083000   0.59498053   -8.3848386    669.56136  0.013665633  0.012570637            1 
 4084000   0.59953479   -8.3873843    669.47439  0.013660512  0.012566448            1 
 4085000   0.59367052   -8.3726786    670.42686  0.013676599  0.012562263            2 
 4086000   0.59537327   -8.3789774     671.3434  0.013691944  0.012558084            2 
 4087000   0.59343294   -8.3979031    668.51079  0.013630837  0.012553899            2 
 4088000   0.59099974    -8.395872    669.71482  0.013652047  0.012549716            4 
 4089000   0.59394752   -8.3940113    670.33377  0.013661322  0.012545533            5 
 4090000   0.60152616   -8.3888453    669.65473  0.013644147  0.012541352            1 
 4091000    0.6127393   -8.4049183    670.06136  0.013649095  0.012537166            4 
 4092000   0.59298743   -8.4035389    670.46354  0.013653949   0.01253298            1 
 4093000   0.59974404    -8.411795    669.49162  0.013630825  0.012528802            6 
 4094000   0.59132192   -8.3977625    669.60484    0.0136298  0.012524626            2 
 4095000    0.5932271   -8.4168602    669.49055  0.013624146  0.012520458            3 
 4096000   0.59445543    -8.391748    670.12977  0.013633825   0.01251629            2 
 4097000   0.61208423   -8.3762219    669.58837  0.013619485  0.012512118            2 
 4098000   0.59710428   -8.4026659    669.82342  0.013620942  0.012507946            2 
 4099000   0.59678217   -8.4104065    668.47462  0.013590197  0.012503778            2 
 4100000    0.5954276   -8.4008152     669.6473  0.013610718  0.012499607            2 
 4101000   0.59529388   -8.3874473    669.29526  0.013600245  0.012495437            2 
 4102000   0.59921273   -8.3779744    668.97088   0.01359034  0.012491269            4 
 4103000   0.59700184   -8.3896139     669.8844  0.013605581  0.012487103            2 
 4104000   0.59429679   -8.4104777    669.11217  0.013586586  0.012482931            1 
 4105000   0.58789715   -8.3988899    670.06342  0.013602587  0.012478765            2 
 4106000   0.59360356   -8.4120049    668.30341  0.013563554  0.012474599            1 
 4107000   0.58968221   -8.4141823    669.71631  0.013588919  0.012470435            2 
 4108000   0.59277054   -8.4045647    669.42105  0.013579622  0.012466272            2 
 4109000   0.58558142   -8.4088777     667.9513   0.01354651  0.012462111            2 
 4110000   0.60487641   -8.4060688    669.68223   0.01357831  0.012457952            1 
 4111000   0.59742236    -8.398752    668.65774  0.013554239  0.012453793            2 
 4112000    0.5858872   -8.4044077    669.78694  0.013573827  0.012449634            2 
 4113000   0.58686437   -8.3983502    669.67924  0.013568345   0.01244547            5 
 4114000    0.5983548   -8.4050227     668.9259  0.013549787  0.012441319            3 
 4115000   0.58987144   -8.4084803    669.54376  0.013559007  0.012437165            1 
 4116000   0.59560999   -8.4161101     669.4586  0.013553988  0.012433015            1 
 4117000   0.59454883   -8.3763817    669.77818  0.013557165  0.012428866            3 
 4118000   0.59356115   -8.3566145    669.42312  0.013546688  0.012424722            2 
 4119000   0.59353927    -8.405532    669.84919  0.013552019  0.012420583            2 
 4120000   0.60052142   -8.3972834    669.60062  0.013543702  0.012416439            4 
 4121000   0.59708867   -8.3963689     669.7264  0.013542959  0.012412304            2 
 4122000   0.56953824    -8.409425    669.20863  0.013529206  0.012408161            2 
 4123000   0.59360338   -8.3894589    668.73348  0.013516321  0.012404022            3 
 4124000   0.58316256   -8.3902154    669.56236  0.013529792  0.012399881            3 
 4125000   0.58959118   -8.4041577    668.84469  0.013512014  0.012395745            2 
 4126000    0.5991088   -8.4123303    668.13728  0.013494451  0.012391604            2 
 4127000   0.59768379   -8.4182406    669.48499  0.013518395  0.012387471            4 
 4128000   0.59955738   -8.4082691    670.50499  0.013535711  0.012383335            3 
 4129000   0.59605853   -8.4001478    669.50794   0.01351231  0.012379205            1 
 4130000   0.60041807   -8.4195077    669.43225  0.013507511   0.01237508            1 
 4131000   0.59881371   -8.4060547    669.26074  0.013500782  0.012370948            2 
 4132000   0.59499003    -8.418048    668.69762  0.013486157  0.012366817            1 
 4133000    0.5885478    -8.416779    668.61673  0.013481263  0.012362697            3 
 4134000   0.60253324   -8.4260948    668.28344  0.013471284  0.012358571            3 
 4135000   0.60530358   -8.4090533    668.96178  0.013481697  0.012354451            4 
 4136000   0.59732659   -8.4127976     668.4672  0.013468472   0.01235033            3 
 4137000   0.58999348   -8.4159508    669.49084  0.013485836  0.012346217            4 
 4138000   0.60468758   -8.3888143    669.87824  0.013490379  0.012342099            3 
 4139000   0.57734513   -8.3977272    669.41722  0.013477837  0.012337983            2 
 4140000   0.59009086   -8.4144504    668.78802  0.013461917  0.012333865            3 
 4141000   0.58803927   -8.4060361    668.36974  0.013450248  0.012329751            3 
 4142000   0.58723891   -8.4057817    669.16742   0.01346305  0.012325637            3 
 4143000    0.5715479   -8.4136924    669.70596  0.013470632  0.012321525            2 
 4144000   0.59146223   -8.4208103    668.72714  0.013447698  0.012317416            3 
 4145000   0.58577767   -8.3986833    669.41638  0.013458311  0.012313307            2 
 4146000   0.58282837   -8.4155307    669.86602  0.013464102  0.012309205            2 
 4147000   0.60193834   -8.4131326    669.51814  0.013453865  0.012305099            2 
 4148000   0.58882802   -8.4302601    668.89387   0.01343808  0.012300995            2 
 4149000   0.59299229   -8.4106097    668.96208  0.013436211  0.012296896            1 
 4150000   0.59202131   -8.4194877    669.44261  0.013442623  0.012292798            2 
 4151000   0.57732743   -8.4013193    668.44107  0.013419278  0.012288699            3 
 4152000   0.56391371   -8.4270257    669.58714  0.013439048  0.012284598            2 
 4153000    0.5873073   -8.4120098    669.31841   0.01343042  0.012280497            4 
 4154000   0.58081295   -8.4069941    668.23953  0.013405543  0.012276407            1 
 4155000   0.58677199   -8.4046994    669.75937  0.013432799  0.012272315            1 
 4156000   0.58814494   -8.4276776    668.63384  0.013406999  0.012268224            1 
 4157000   0.58706152   -8.3982766    669.54601  0.013422059  0.012264133            3 
 4158000   0.58804097   -8.4290068    669.79692   0.01342386  0.012260042            1 
 4159000   0.59396166   -8.4327101    669.75117  0.013419716  0.012255948            2 
 4160000   0.58735902   -8.4390314    667.80328   0.01337747  0.012251858            3 
 4161000   0.58351439   -8.4277513    669.84056  0.013415056  0.012247766            3 
 4162000   0.58009428   -8.4337179    668.92188  0.013393438  0.012243677            1 
 4163000   0.58536378   -8.4202365     669.4425  0.013400643  0.012239597            1 
 4164000    0.5827946   -8.4285527    668.80342  0.013384635  0.012235519            1 
 4165000   0.58314126   -8.4185406    669.09058  0.013387166   0.01223144            1 
 4166000   0.58932462   -8.4503514    669.51981  0.013392539  0.012227364            2 
 4167000   0.58584221   -8.4343882    668.99129  0.013378755  0.012223289            2 
 4168000   0.57583021    -8.412365    668.94827  0.013374686  0.012219213            2 
 4169000   0.58110855   -8.4117417    669.38519  0.013380211   0.01221513            1 
 4170000   0.58601906   -8.4415682    668.78017  0.013364911  0.012211057            1 
 4171000   0.58402781   -8.4316832    668.58034  0.013357715  0.012206987            1 
 4172000   0.58948684   -8.4485953    669.29817  0.013368851  0.012202919            2 
 4173000   0.57178035   -8.4152798    669.29149  0.013365514  0.012198853            4 
 4174000   0.58476471   -8.4026913    668.29591  0.013342435  0.012194785            2 
 4175000   0.57196782   -8.4287935    668.89238  0.013351145  0.012190717            4 
 4176000   0.59162145   -8.4189399    668.93436  0.013348786  0.012186655            1 
 4177000   0.59064524   -8.4551912    667.79809  0.013322921  0.012182594            1 
 4178000   0.58231322   -8.4228875    669.17229  0.013347142  0.012178531            1 
 4179000   0.58602802   -8.4485734    668.49255  0.013330393  0.012174465            2 
 4180000   0.58693104   -8.4407645    668.73625  0.013332062  0.012170401            5 
 4181000   0.59883108   -8.4232528    669.70168  0.013348116  0.012166335            2 
 4182000   0.58852077   -8.4200666    667.16243  0.013294325   0.01216227            2 
 4183000   0.57962507   -8.4222201    667.80199  0.013303889  0.012158203            4 
 4184000   0.59040132   -8.4318017     669.4508  0.013333548  0.012154141            3 
 4185000   0.59535998   -8.4217662    668.14863  0.013304433  0.012150085            4 
 4186000   0.57670201   -8.4413778    668.31445  0.013304556  0.012146025            2 
 4187000   0.58600604    -8.451362      669.139  0.013317789  0.012141969            2 
 4188000    0.5692474    -8.441511    669.24643  0.013316747  0.012137914            2 
 4189000   0.56974815   -8.4574039    668.38045  0.013296341  0.012133854            2 
 4190000   0.56686856    -8.454888    668.42752  0.013294103  0.012129796            2 
 4191000   0.57562687    -8.449751    668.28139  0.013288026  0.012125742            1 
 4192000   0.57801082   -8.4493772     668.4293  0.013287796   0.01212169            2 
 4193000   0.59220854   -8.4456372    667.50073  0.013266172  0.012117639            1 
 4194000   0.58260219   -8.4485704    668.34832  0.013279851  0.012113595            1 
 4195000   0.58372338   -8.4596128    667.64385  0.013262691  0.012109545            1 
 4196000   0.57893352   -8.4211455    668.48941  0.013276323  0.012105499            1 
 4197000   0.58116814   -8.4341279    668.00747   0.01326359  0.012101452            2 
 4198000   0.58062149   -8.4386409    668.23292  0.013264906   0.01209741            2 
 4199000   0.58796992   -8.4516148    669.13169  0.013279584  0.012093374            1 
 4200000   0.57847834   -8.4438332    669.62577  0.013286226  0.012089335            2 
 4201000   0.56182136   -8.4587509    666.91678  0.013229326  0.012085293            2 
 4202000   0.58150383   -8.4448536    668.34285  0.013254459  0.012081255            5 
 4203000   0.58911836   -8.4570276    668.50875  0.013254595  0.012077214            2 
 4204000   0.58107333   -8.4618803    668.32209  0.013247742  0.012073176            4 
 4205000   0.57660223   -8.4541365    667.96276  0.013237471   0.01206914            4 
 4206000   0.57222219   -8.4451282    668.53066  0.013245575  0.012065107            4 
 4207000   0.58638345   -8.4390742    669.28598  0.013257388  0.012061078            2 
 4208000   0.57776707   -8.4381824    669.27928  0.013254105  0.012057052            4 
 4209000   0.57662409   -8.4510338    668.83651   0.01324219  0.012053024            2 
 4210000   0.59192651   -8.4423691    667.89074  0.013220323     0.012049            4 
 4211000   0.57799319   -8.4463875    667.79704   0.01321533  0.012044978            4 
 4212000   0.56458726   -8.4412783    667.88927  0.013214017  0.012040953            2 
 4213000   0.59118698   -8.4383656    666.99023  0.013193097  0.012036933            2 
 4214000   0.57021361   -8.4564778     668.3501  0.013216859  0.012032919            4 
 4215000   0.58549423   -8.4396816     668.1714   0.01321019  0.012028904            2 
 4216000   0.57799548   -8.4480184    668.49542  0.013213461  0.012024891            1 
 4217000   0.57385015   -8.4353604    668.62927  0.013212973  0.012020879            2 
 4218000   0.58706024   -8.4497836    668.27229  0.013202788  0.012016866            3 
 4219000   0.56278602   -8.4437139    667.51636  0.013184727  0.012012858            2 
 4220000   0.58582422   -8.4537951    667.90577  0.013189292  0.012008849            6 
 4221000    0.5855452    -8.460807    668.26799  0.013193319  0.012004843            1 
 4222000    0.5810534   -8.4426216    668.46646  0.013194111  0.012000833            3 
 4223000    0.5802054   -8.4398341    669.16184  0.013204709  0.011996824            3 
 4224000   0.58102838   -8.4320201    668.24048  0.013183406  0.011992822            4 
 4225000   0.56997911   -8.4435088     667.9723  0.013174996  0.011988821            2 
 4226000   0.57097954   -8.4323102    667.07501  0.013154185  0.011984823            2 
 4227000   0.57890664   -8.4388678    668.45738  0.013178326  0.011980825            2 
 4228000    0.5663537   -8.4582488    668.73782  0.013180736  0.011976825            2 
 4229000   0.57291208   -8.4632642     667.4259  0.013151767  0.011972827            2 
 4230000   0.56139834   -8.4658885    667.62082  0.013152498   0.01196883            2 
 4231000   0.58622198   -8.4396494    668.59347  0.013168547  0.011964836            4 
 4232000   0.57190392   -8.4508043    668.56078  0.013164792  0.011960843            2 
 4233000    0.5683931   -8.4434446    667.72401  0.013145208  0.011956844            2 
 4234000   0.57260665   -8.4471625    667.75734   0.01314276  0.011952853            1 
 4235000   0.56451679   -8.4368872    668.33482   0.01315102  0.011948865            4 
 4236000   0.56909009   -8.4319185    667.25987  0.013126768  0.011944875            3 
 4237000   0.58245122   -8.4502447    668.12347  0.013140655  0.011940893            2 
 4238000   0.57239031   -8.4413736    668.27904  0.013140613  0.011936906            3 
 4239000   0.58026631   -8.4538838    667.49671  0.013122134  0.011932925            1 
 4240000   0.56978728   -8.4281191    668.03133  0.013129547   0.01192894            3 
 4241000   0.57532386   -8.4562039    668.01042   0.01312604  0.011924965            1 
 4242000   0.57907644   -8.4612702    667.49924  0.013112903   0.01192099            1 
 4243000   0.58019382    -8.470607    666.93183  0.013098669  0.011917014            3 
 4244000   0.57554488   -8.4441199    667.32887  0.013103379  0.011913031            5 
 4245000   0.58551592   -8.4433032    668.19714  0.013117337  0.011909057            3 
 4246000   0.57757781   -8.4348077    667.71462  0.013104777  0.011905081            3 
 4247000   0.57785879   -8.4555348    668.38649  0.013114875  0.011901108            4 
 4248000   0.56728586   -8.4448378    668.18799  0.013107894  0.011897137            2 
 4249000   0.58264622   -8.4466815    667.94963  0.013100134  0.011893166            2 
 4250000   0.57746954   -8.4500912    667.90505  0.013096177  0.011889199            3 
 4251000   0.57662977   -8.4615753    668.67784  0.013108246   0.01188523            1 
 4252000   0.56751317   -8.4388895    668.35581  0.013098852  0.011881267            2 
 4253000   0.56951354   -8.4530446     667.8131  0.013085138    0.0118773            2 
 4254000   0.56145012   -8.4569075    667.61971  0.013078274  0.011873339            2 
 4255000   0.56944317   -8.4546092    668.37248  0.013089943  0.011869379            2 
 4256000   0.56763954    -8.448887    667.78105  0.013075287  0.011865416            2 
 4257000   0.56861941   -8.4529891    668.10527  0.013078562  0.011861456            3 
 4258000   0.55883365    -8.460816    667.73485  0.013068241  0.011857497            3 
 4259000   0.57065432   -8.4418237    668.35954  0.013077396   0.01185354            2 
 4260000   0.57950661   -8.4580156    667.65625  0.013060568  0.011849588            2 
 4261000   0.57809478   -8.4662203     667.7932  0.013060181  0.011845635            3 
 4262000   0.57623173   -8.4792601    666.87231  0.013039111  0.011841675            5 
 4263000   0.56193304   -8.4521393    668.54528  0.013068756  0.011837726            2 
 4264000   0.58099603   -8.4499462    667.00387  0.013035567  0.011833774            6 
 4265000   0.56808563   -8.4448181     668.5431  0.013062585  0.011829827            3 
 4266000   0.57138959   -8.4636867    667.76324  0.013044289  0.011825888            2 
 4267000   0.56748479   -8.4571312    668.52211  0.013056053  0.011821946            2 
 4268000   0.56167384   -8.4614576     668.2945  0.013048549  0.011818003            2 
 4269000   0.56414848    -8.468797    668.22338  0.013044104  0.011814065            3 
 4270000   0.56694286    -8.471539    667.78212  0.013032438  0.011810123            5 
 4271000   0.56706001   -8.4537397    669.00702  0.013053286  0.011806186            3 
 4272000   0.56518296   -8.4710259    666.91183   0.01300936  0.011802247            2 
 4273000   0.56189913   -8.4554369    668.12543  0.013029983  0.011798309            2 
 4274000    0.5598694   -8.4701417    667.54831  0.013015682  0.011794373            1 
 4275000   0.56409093   -8.4651166    668.82917  0.013037606  0.011790442            2 
 4276000   0.55105717   -8.4469984    668.14929  0.013021307  0.011786511            4 
 4277000   0.57847997   -8.4604428    668.02417  0.013015824  0.011782582            2 
 4278000   0.58213199   -8.4666335     668.1581  0.013015391  0.011778656            2 
 4279000   0.57041039   -8.4624408    667.98859  0.013009048  0.011774732            1 
 4280000   0.57833472   -8.4750694    668.75161  0.013020865   0.01177081            7 
 4281000   0.56577139   -8.4674804    668.00621  0.013003313  0.011766892            2 
 4282000   0.56416454   -8.4603554    667.50633  0.012990548   0.01176298            2 
 4283000   0.57080729   -8.4606439    667.91781  0.012995521  0.011759066            3 
 4284000   0.56997231   -8.4588843    668.04239  0.012994911  0.011755152            5 
 4285000   0.57864739   -8.4414538    667.58264  0.012982937  0.011751241            2 
 4286000   0.55098367   -8.4438965    669.00384  0.013007541  0.011747333            3 
 4287000   0.57292672   -8.4523981    668.32637  0.012991338  0.011743423            2 
 4288000   0.55976817   -8.4625721    667.40938  0.012970487  0.011739513            2 
 4289000   0.57234228   -8.4557273    668.00032  0.012978945  0.011735604            2 
 4290000   0.57024223    -8.457382    666.56915  0.012948119  0.011731698            3 
 4291000   0.56496873   -8.4759368     667.4545  0.012962295  0.011727796            3 
 4292000   0.55747885   -8.4582477    667.88338  0.012967602  0.011723893            1 
 4293000   0.56391721   -8.4697356    668.53598  0.012977249  0.011719992            3 
 4294000    0.5597886   -8.4720224    667.39833  0.012952149  0.011716086            4 
 4295000   0.56780082   -8.4586718    668.52863  0.012971064  0.011712185            2 
 4296000   0.55963656   -8.4546983    667.85559  0.012954989  0.011708285            3 
 4297000   0.57386948   -8.4673783    667.65639  0.012948111  0.011704386            3 
 4298000   0.56982689   -8.4701006    667.86715  0.012949185  0.011700492            2 
 4299000   0.56790523   -8.4850583    667.65403  0.012942041  0.011696598            2 
 4300000    0.5695681   -8.4481792    667.86114  0.012943045  0.011692704            3 
 4301000   0.57309304   -8.4629925    666.89865  0.012921387  0.011688809            4 
 4302000   0.55919184   -8.4705264    667.40573  0.012928207  0.011684916            2 
 4303000   0.56456834   -8.4628457    667.21436  0.012921496  0.011681022            2 
 4304000   0.56653754   -8.4637262    668.97291  0.012952542  0.011677137            2 
 4305000   0.57286186   -8.4609012    668.41105  0.012938658  0.011673251            1 
 4306000   0.56262471   -8.4722822    666.39216  0.012896582  0.011669363            1 
 4307000   0.56665878   -8.4594648    668.02198  0.012925122  0.011665483            4 
 4308000   0.57653125   -8.4700091    667.17652  0.012905767    0.0116616            5 
 4309000   0.55281378   -8.4780271    667.40284  0.012907149  0.011657717            3 
 4310000     0.563688   -8.4722487     666.7269  0.012891085  0.011653831            2 
 4311000   0.57786333   -8.4676759    666.42855  0.012882327  0.011649948            2 
 4312000   0.56689545   -8.4742562    667.89683  0.012907716   0.01164607            2 
 4313000   0.56975597   -8.4491299    667.07834  0.012888908  0.011642192            1 
 4314000   0.57084415   -8.4453176    665.80361  0.012861297  0.011638311            5 
 4315000   0.55121996   -8.4644727    667.72668  0.012895455  0.011634434            2 
 4316000   0.56027239   -8.4668184     667.2122  0.012882534   0.01163056            3 
 4317000   0.54164805    -8.481152    667.95369  0.012893863  0.011626692            3 
 4318000   0.55732001   -8.4815223    667.04309  0.012873303  0.011622817            4 
 4319000   0.55234509   -8.4508482    667.39035  0.012877023  0.011618944            3 
 4320000    0.5657555   -8.4839359    667.42841  0.012874776  0.011615075            2 
 4321000   0.56150539   -8.4631247    666.79464  0.012859574  0.011611209            2 
 4322000   0.58474217   -8.4835205    667.20712  0.012864552  0.011607339            2 
 4323000    0.5629326   -8.4684159    667.88959  0.012874732  0.011603471            2 
 4324000   0.55344172   -8.4788172    667.65993  0.012867328  0.011599611            3 
 4325000   0.55974942   -8.4708878     665.9537  0.012831478  0.011595748            3 
 4326000   0.55439222   -8.4811444    667.70493  0.012862246  0.011591889            3 
 4327000   0.56019424   -8.4663381    667.66474    0.0128585  0.011588031            2 
 4328000   0.56243524   -8.4664378    666.75662  0.012838043  0.011584169            3 
 4329000   0.54980167    -8.482715    667.89214  0.012856936  0.011580307            4 
 4330000     0.563121   -8.4758705     667.9468  0.012855019  0.011576453            4 
 4331000   0.56595813   -8.4642659    667.87326  0.012850636  0.011572597            3 
 4332000     0.548731   -8.4713794    667.70537   0.01284444  0.011568744            2 
 4333000   0.54985009   -8.4930781    667.46082  0.012836772  0.011564888            2 
 4334000   0.57561816   -8.4879469    666.95908  0.012824163  0.011561038            3 
 4335000    0.5579125   -8.4742545    668.17208  0.012844523  0.011557188            2 
 4336000   0.56342942   -8.4763295    667.87491  0.012835849  0.011553339            2 
 4337000   0.55956519   -8.4691347     666.8855  0.012813879  0.011549488            2 
 4338000   0.55436584    -8.484709    667.00182  0.012813159  0.011545645            2 
 4339000    0.5604953   -8.4675201    668.45625   0.01283814  0.011541803            3 
 4340000   0.55427159   -8.4765416    667.09439  0.012809032   0.01153796            2 
 4341000   0.54587133   -8.4798786    666.75232  0.012799515   0.01153412            5 
 4342000   0.56816543   -8.4916884    666.93441  0.012800062  0.011530281            2 
 4343000   0.56378172   -8.4766727    666.95328  0.012797476  0.011526444            4 
 4344000   0.55451911   -8.4780229    667.42705  0.012803619  0.011522607            3 
 4345000   0.55875672   -8.4688939      666.618  0.012785155  0.011518772            2 
 4346000   0.54860816   -8.4787591    667.34672  0.012796187  0.011514936            3 
 4347000   0.55949979   -8.4807433    668.11993  0.012808066  0.011511101            2 
 4348000   0.55151635   -8.4671607    667.35409  0.012790442  0.011507268            2 
 4349000   0.53654784   -8.4744082     666.8171  0.012777211  0.011503432            3 
 4350000   0.56071601   -8.4911587    667.01413  0.012778048    0.0114996            3 
 4351000   0.53883586   -8.4915862    666.91588   0.01277323  0.011495768            4 
 4352000   0.55211444   -8.4891799    666.28591  0.012758232   0.01149194            3 
 4353000   0.54898623   -8.4943872    666.39107  0.012757314  0.011488112            3 
 4354000   0.55198755   -8.4697912    666.38558  0.012754279  0.011484285            2 
 4355000   0.55776366   -8.4970603    667.68697  0.012776253  0.011480456            2 
 4356000   0.55811382   -8.4960819    666.42295  0.012749138  0.011476634            2 
 4357000    0.5655581   -8.4856081    667.22295  0.012761513  0.011472811            1 
 4358000   0.55096072   -8.4533032    667.25973  0.012759288  0.011468997            2 
 4359000   0.54979904   -8.4901693    668.02122  0.012770919  0.011465182            2 
 4360000   0.55894962   -8.4869728    665.77049  0.012724971  0.011461363            2 
 4361000   0.55625514   -8.4859227    666.38899  0.012733872  0.011457543            3 
 4362000   0.54272444   -8.4968907    667.79428    0.0127578  0.011453729            4 
 4363000   0.55464974    -8.482348    665.84653  0.012717674  0.011449914            3 
 4364000    0.5557294   -8.4953821    667.35541  0.012743573  0.011446104            3 
 4365000   0.55023382    -8.471932    667.28657  0.012739339  0.011442296            1 
 4366000   0.54400025   -8.4947912    665.72297  0.012706577  0.011438484            3 
 4367000   0.54845085   -8.4859384    667.50077  0.012737592  0.011434679            5 
 4368000   0.55350621   -8.4769292    667.53899  0.012735405  0.011430872            1 
 4369000   0.57073729   -8.4741705    667.16913  0.012725435  0.011427074            2 
 4370000    0.5406617   -8.4804932    667.02388  0.012719754  0.011423272            3 
 4371000   0.54568639   -8.4851536    667.57483  0.012727348  0.011419469            1 
 4372000   0.54679003   -8.5017432    666.04214  0.012695222  0.011415669            3 
 4373000   0.54886994   -8.4945476    666.58382  0.012702642  0.011411869            3 
 4374000   0.55685122     -8.49628    668.10993  0.012728813   0.01140807            2 
 4375000   0.53997001    -8.477724    667.92276  0.012722338  0.011404279            3 
 4376000   0.55867701   -8.4825165    666.60307    0.0126943  0.011400481            2 
 4377000   0.54935917   -8.4630974    667.13058  0.012701443  0.011396686            1 
 4378000   0.53978648   -8.4846776    666.10703  0.012679059   0.01139289            2 
 4379000   0.54943505    -8.491472    666.12325  0.012676472    0.0113891            2 
 4380000   0.55645806   -8.5013652    666.31438  0.012677214  0.011385306            2 
 4381000   0.55584264   -8.4904006    666.32514  0.012674525  0.011381515            2 
 4382000   0.53630266   -8.4988869    666.04209   0.01266625  0.011377722            5 
 4383000   0.55488957   -8.4842413    666.46742  0.012671447  0.011373929            1 
 4384000   0.55155045   -8.4954001    665.42069   0.01264866   0.01137014            2 
 4385000   0.55435924   -8.5020824    667.17026  0.012679024  0.011366358            2 
 4386000   0.55140997   -8.4874181    666.66817  0.012666594  0.011362578            3 
 4387000   0.53719175   -8.4963986    665.64662  0.012644302  0.011358796            2 
 4388000   0.56319742   -8.4899752     666.7129   0.01266167  0.011355016            3 
 4389000   0.55389424    -8.486531    666.57228  0.012656115  0.011351238            2 
 4390000   0.54636795   -8.5011262    666.60351  0.012653825  0.011347461            3 
 4391000   0.54595508   -8.4962588    667.18166  0.012661916   0.01134369            2 
 4392000   0.55729503   -8.4916135    667.05073  0.012656548  0.011339918            2 
 4393000   0.53815684   -8.4887791    666.02044  0.012634123  0.011336146            2 
 4394000   0.54733777   -8.5031064    667.66053  0.012662353  0.011332374            2 
 4395000   0.53533474   -8.4878175    666.57954  0.012638975  0.011328602            2 
 4396000   0.53580148   -8.5038759    666.75222  0.012639373   0.01132483            3 
 4397000   0.55063807   -8.4861698    666.30443  0.012628012  0.011321059            5 
 4398000   0.55023009   -8.4889535    667.05113  0.012639289  0.011317289            2 
 4399000   0.55327504   -8.4713171    666.55625  0.012627041  0.011313522            1 
 4400000   0.54325949   -8.4891593    666.52433  0.012623567  0.011309755            2 
 4401000   0.55018048   -8.5239398    667.71087  0.012643166  0.011305991            4 
 4402000   0.55879446   -8.5084008    666.20717  0.012611827  0.011302226            2 
 4403000   0.55297425    -8.499122    665.67023  0.012598801  0.011298464            4 
 4404000   0.55181498   -8.4979537    667.09722  0.012622942  0.011294703            2 
 4405000   0.52881096   -8.5008653    666.13863  0.012601942  0.011290947            2 
 4406000   0.54167752   -8.4896692    667.02057  0.012615762  0.011287191            1 
 4407000   0.54786237   -8.4803814    665.97191   0.01259307  0.011283441            1 
 4408000   0.55361767   -8.4830651    667.29194  0.012615168  0.011279692            1 
 4409000   0.53785363   -8.4903308    665.71922  0.012582582  0.011275944            1 
 4410000    0.5499009   -8.4917734    666.71868  0.012598615  0.011272199            1 
 4411000   0.53951899   -8.5017337    665.73781  0.012577227  0.011268457            1 
 4412000   0.55512538   -8.4988949    666.84704  0.012595328  0.011264712            2 
 4413000    0.5497502   -8.4949474     666.6649  0.012589034  0.011260968            2 
 4414000   0.55376325   -8.4994851    666.52753  0.012583589  0.011257228            2 
 4415000   0.55643956   -8.5140306    665.74672  0.012566001  0.011253488            2 
 4416000   0.55137935   -8.4852453     665.9358  0.012566723  0.011249747            2 
 4417000     0.546395   -8.5094772    666.51195  0.012574748  0.011246009            2 
 4418000   0.54711066   -8.4956821    667.89808  0.012598047  0.011242272            2 
 4419000    0.5346561   -8.5046919    666.00207  0.012559442  0.011238534            2 
 4420000   0.54170961   -8.5254826    665.73596  0.012551583  0.011234794            5 
 4421000    0.5424904   -8.4984517    666.93043  0.012571259   0.01123106            4 
 4422000    0.5560205   -8.4955977    666.91656  0.012568155  0.011227326            4 
 4423000   0.53908578   -8.4888861    666.25453   0.01255284  0.011223598            2 
 4424000   0.52996658   -8.5157966    666.58963  0.012556315   0.01121987            3 
 4425000   0.55899105   -8.4972994    666.60911  0.012553844  0.011216142            6 
 4426000   0.53777221   -8.5082355    665.70289  0.012533945  0.011212414            2 
 4427000   0.54419385   -8.5202602    665.69032  0.012530877   0.01120869            3 
 4428000   0.53808344   -8.4782847    667.28968  0.012558147  0.011204967            2 
 4429000   0.53577316   -8.4959684    666.79719  0.012546045  0.011201247            4 
 4430000   0.54039439   -8.4997176    665.92652  0.012526834  0.011197528            2 
 4431000   0.53689647   -8.5053268    666.03679  0.012526081  0.011193809            2 
 4432000   0.54189455   -8.5134539    666.90587  0.012539596  0.011190092            3 
 4433000    0.5293866     -8.51257    665.86915  0.012517278  0.011186373            3 
 4434000   0.54420377   -8.5077571    667.44493  0.012544071  0.011182655            1 
 4435000   0.53865031   -8.4943497    666.56474  0.012524704  0.011178942            2 
 4436000   0.53118047   -8.5046472    666.94122  0.012528953   0.01117523            1 
 4437000   0.53059894   -8.5087499    665.58677  0.012500691  0.011171521            2 
 4438000   0.54983574   -8.5085097    666.69258  0.012518638   0.01116781            1 
 4439000   0.53016622   -8.4810484    666.47456  0.012511725  0.011164107            7 
 4440000    0.5319907   -8.4912963    666.15339  0.012502879  0.011160403            3 
 4441000   0.55096222   -8.4981733    666.13622  0.012499741  0.011156696            2 
 4442000   0.54902747   -8.5123978    665.92895  0.012493039  0.011152991            2 
 4443000   0.54332215   -8.5089074    666.59525  0.012502724   0.01114929            2 
 4444000   0.53395316   -8.4980521    666.78092  0.012503392   0.01114559            4 
 4445000   0.53420243   -8.5234382    665.79464  0.012482089  0.011141891            3 
 4446000   0.55556722   -8.5140839    665.25298  0.012469129  0.011138192            1 
 4447000   0.54053395   -8.5059616    665.93713  0.012479146  0.011134489            1 
 4448000   0.53289274   -8.4955846    665.45292  0.012467268  0.011130788            3 
 4449000   0.54021606   -8.5027999    665.70089  0.012469111  0.011127093            2 
 4450000   0.52371632   -8.5316457    666.78724  0.012486652  0.011123399            1 
 4451000   0.53758289   -8.5033911    666.96759  0.012487224  0.011119706            2 
 4452000   0.54181729   -8.5040313    667.57958  0.012495874   0.01111602            4 
 4453000   0.53709611   -8.5046073    665.80624  0.012459882  0.011112331            2 
 4454000   0.53429312   -8.5315366    666.34624  0.012467188   0.01110864            1 
 4455000   0.52675442   -8.4930935    665.66991  0.012451738  0.011104953            3 
 4456000   0.53189119   -8.5212237    666.13742  0.012457687  0.011101268            2 
 4457000   0.54191111   -8.5083594    667.30885  0.012476794  0.011097585            3 
 4458000   0.54250643   -8.5185939     667.0685  0.012469502  0.011093902            3 
 4459000   0.53646149   -8.5062685    667.18768  0.012468933  0.011090222            2 
 4460000   0.53439227   -8.5203065    666.17208  0.012447161  0.011086536            2 
 4461000   0.53943543   -8.5088107    665.68255  0.012435227  0.011082857            2 
 4462000   0.53406174   -8.4959169    666.71649   0.01245175   0.01107918            3 
 4463000   0.53445202   -8.5256409    665.60214  0.012428153  0.011075504            2 
 4464000   0.52165253   -8.5165337    665.38447  0.012421305  0.011071828            1 
 4465000    0.5434586   -8.5125116    665.77141  0.012425745  0.011068153            2 
 4466000   0.53738453   -8.5033256    666.70693  0.012440419  0.011064477            3 
 4467000   0.54462467   -8.5205932    665.95975  0.012423695  0.011060807            2 
 4468000   0.53200605   -8.5153902    665.90158   0.01241983  0.011057139            4 
 4469000     0.539349   -8.5168987    665.53623  0.012410238  0.011053468            2 
 4470000   0.52731772   -8.5167129    665.27735  0.012402635  0.011049801            2 
 4471000   0.52290124   -8.5256821    665.64002  0.012406621  0.011046129            2 
 4472000   0.53870459   -8.5223167    666.51967  0.012420238  0.011042462            2 
 4473000   0.53622482   -8.5129342    665.24943  0.012393797  0.011038798            3 
 4474000   0.53370174   -8.5160967    666.18044  0.012408368  0.011035138            3 
 4475000   0.53984422   -8.5320269    665.99391  0.012402121  0.011031474            2 
 4476000   0.52912865   -8.5222923    665.78957  0.012395546  0.011027813            3 
 4477000   0.52969132   -8.5055837    665.93826  0.012395545  0.011024154            3 
 4478000   0.53814192   -8.5272148    665.28859  0.012380687  0.011020493            1 
 4479000   0.53707196   -8.5100351    665.84757  0.012388323  0.011016834            2 
 4480000   0.53244602   -8.5430894    665.32699  0.012375874  0.011013172            2 
 4481000   0.53102173    -8.511388    664.06783  0.012349696  0.011009514            3 
 4482000   0.53838095   -8.5213071    665.90974  0.012381187  0.011005857            3 
 4483000   0.51519459   -8.5128809    665.53598  0.012371477  0.011002204            2 
 4484000   0.54516603   -8.5204035    665.72868  0.012372299  0.010998558            4 
 4485000    0.5347246   -8.5411905    666.17697   0.01237787  0.010994909            2 
 4486000   0.52849121   -8.5406824    666.23918  0.012376267  0.010991261            2 
 4487000   0.52420458   -8.5345376    665.83232  0.012365952  0.010987615            3 
 4488000   0.54208117   -8.5199824    665.21902  0.012351809  0.010983972            2 
 4489000   0.53178241   -8.5120971    665.15195  0.012347812  0.010980327            2 
 4490000    0.5342672   -8.5202575    665.81633  0.012357393  0.010976684            2 
 4491000   0.52891573   -8.5319149    665.16769  0.012342605   0.01097304            3 
 4492000   0.52784032   -8.5221703    664.31304  0.012324003  0.010969398            3 
 4493000    0.5305839   -8.5343841    665.35527   0.01234059  0.010965759            3 
 4494000   0.52479652   -8.5166761    664.89389  0.012329289  0.010962119            3 
 4495000   0.52849115   -8.5114654    665.20736  0.012332357  0.010958482            1 
 4496000   0.51970059   -8.5331058    665.50805  0.012335188  0.010954847            4 
 4497000   0.53275034   -8.5081193     664.9575  0.012322243  0.010951211            3 
 4498000   0.52879959   -8.5214441    665.64339   0.01233221   0.01094758            2 
 4499000   0.53427621   -8.5288397    665.36811   0.01232437  0.010943949            4 
 4500000   0.53625747   -8.5293207    665.66235   0.01232708  0.010940316            3 
 4501000   0.54360067   -8.5159116    665.44477  0.012320313  0.010936687            2 
 4502000   0.53344452   -8.5348506    665.51009  0.012318786  0.010933062            2 
 4503000   0.52889942     -8.52019    664.18669  0.012291559  0.010929432            2 
 4504000   0.53491474   -8.5427162    666.13931  0.012324958  0.010925805            3 
 4505000   0.52869823   -8.5383698    666.09277  0.012321361  0.010922185            3 
 4506000   0.52423818   -8.5263124    663.72171  0.012274776  0.010918563            6 
 4507000   0.52404724   -8.5372552    666.13438  0.012316663  0.010914942            3 
 4508000   0.52537069   -8.5213444    665.39893  0.012300335  0.010911325            2 
 4509000   0.54111275   -8.5367208    665.18868  0.012293721  0.010907707            2 
 4510000    0.5317719   -8.5326935    665.94446   0.01230496  0.010904092            2 
 4511000   0.52731314   -8.5344325    665.94909  0.012302318  0.010900477            2 
 4512000   0.52807173   -8.5098372    665.87722  0.012298264  0.010896863            2 
 4513000    0.5297515    -8.524664    665.90816   0.01229611  0.010893248            2 
 4514000   0.53302317    -8.528872    665.71841  0.012289884  0.010889638            1 
 4515000    0.5299463   -8.5409317    664.43187  0.012263416  0.010886029            2 
 4516000   0.52339761   -8.5337677    665.49443  0.012280308   0.01088242            2 
 4517000   0.52868139   -8.5213448    663.71666  0.012244791  0.010878812            1 
 4518000   0.52602155    -8.544457    665.12681  0.012268091  0.010875208            3 
 4519000   0.52438805   -8.5451644    663.92651  0.012243242  0.010871603            4 
 4520000   0.52763388   -8.5514053    665.25658  0.012265055  0.010868002            3 
 4521000   0.53908952   -8.5257649    665.41483  0.012265259  0.010864402            1 
 4522000   0.52653827   -8.5250173    665.87364  0.012271002  0.010860802            4 
 4523000   0.52754521   -8.5294641    665.37225  0.012259051  0.010857206            2 
 4524000   0.51934031   -8.5342748    664.94055  0.012248389  0.010853611            2 
 4525000   0.53576557   -8.5489133    665.23887  0.012251176  0.010850015            3 
 4526000   0.52301927   -8.5366687    665.44695  0.012252301  0.010846418            1 
 4527000   0.52862661   -8.5453691    666.00387  0.012259846  0.010842824            3 
 4528000     0.522276    -8.531532     665.9788  0.012256677   0.01083923            3 
 4529000   0.52134011   -8.5422587    664.63217  0.012229193   0.01083564            2 
 4530000   0.52319318   -8.5493371    665.85666  0.012249019  0.010832053            2 
 4531000   0.53296963   -8.5232858    664.68199  0.012224711  0.010828468            2 
 4532000   0.53504758   -8.5303595    663.98809  0.012209254  0.010824882            3 
 4533000   0.53699385   -8.5496985    665.03037  0.012225722  0.010821296            2 
 4534000   0.51832125    -8.529876     664.5313  0.012213853  0.010817711            4 
 4535000   0.52419118   -8.5276348     665.4106  0.012227317  0.010814131            3 
 4536000   0.52165104   -8.5306824    664.87889  0.012214853  0.010810551            1 
 4537000   0.52578014   -8.5425669    665.51537  0.012223851  0.010806975            4 
 4538000   0.52552033   -8.5210388     664.7308   0.01220675  0.010803402            2 
 4539000   0.52899062   -8.5462937     665.0309  0.012209571  0.010799824            2 
 4540000   0.52929091   -8.5220561    664.43755   0.01219599   0.01079625            2 
 4541000   0.51733119   -8.5446636    665.04411  0.012204436  0.010792678            5 
 4542000   0.53464005   -8.5607377    665.39812  0.012208244  0.010789105            4 
 4543000   0.54328873   -8.5587571    664.91461  0.012196687  0.010785538            3 
 4544000   0.52218903   -8.5310119    664.88979  0.012193548  0.010781971            1 
 4545000   0.53130705   -8.5370587    665.67694  0.012205298  0.010778407            2 
 4546000   0.52096415    -8.544967    665.06427  0.012191382  0.010774844            2 
 4547000   0.52244681   -8.5366087    664.35523  0.012175706  0.010771281            6 
 4548000   0.52897989    -8.521901    665.18395  0.012188214  0.010767723            2 
 4549000    0.5267617   -8.5256214    665.52372  0.012191759  0.010764165            2 
 4550000    0.5157908   -8.5544757     664.2476  0.012165707  0.010760608            3 
 4551000   0.52681367   -8.5365301    665.42564  0.012184605  0.010757052            2 
 4552000   0.52145968   -8.5600649    665.51015  0.012183475  0.010753499            2 
 4553000   0.51692049   -8.5488512    664.57742  0.012163728  0.010749946            2 
 4554000   0.52349013   -8.5291005    665.05557  0.012169806  0.010746397            2 
 4555000   0.51358897   -8.5418678    665.16976  0.012169224  0.010742848            6 
 4556000   0.52970968   -8.5279282    665.49929   0.01217258  0.010739303            3 
 4557000   0.52590373   -8.5439624    664.50111  0.012151655  0.010735758            3 
 4558000   0.53859052   -8.5278352    665.59393  0.012168969  0.010732217            3 
 4559000   0.51719333   -8.5602709    665.60913  0.012166578  0.010728677            6 
 4560000   0.51869356   -8.5537316    666.21856  0.012175047  0.010725136            1 
 4561000   0.52134123   -8.5368735    665.93697  0.012167232  0.010721596            4 
 4562000   0.52280423    -8.523158    664.18264  0.012132519  0.010718056            2 
 4563000   0.51864933   -8.5324347    664.91779  0.012143286  0.010714518            2 
 4564000   0.52877051   -8.5356327    665.33189  0.012148187   0.01071098            5 
 4565000   0.51679289    -8.558533    664.37635  0.012128082  0.010707443            3 
 4566000   0.52374414    -8.545411    665.75835  0.012150649  0.010703905            2 
 4567000   0.52343944   -8.5400037     664.9179  0.012132653  0.010700367            2 
 4568000   0.52062763   -8.5462745    665.43372  0.012139407  0.010696832            3 
 4569000   0.52608764   -8.5480747    665.08934  0.012130469  0.010693302            1 
 4570000   0.50911434   -8.5569285    665.28354  0.012131356  0.010689772            1 
 4571000   0.52744269   -8.5396943    665.74825  0.012137174  0.010686243            2 
 4572000    0.5252706   -8.5363363    664.70916   0.01211558  0.010682719            3 
 4573000   0.52051919   -8.5521236     665.9362   0.01213529  0.010679196            2 
 4574000   0.52631746   -8.5286103     666.3709  0.012140557   0.01067567            2 
 4575000   0.52262211   -8.5486213    664.16185  0.012097666  0.010672146            4 
 4576000   0.51119784   -8.5400524    665.38436  0.012117285  0.010668623            1 
 4577000    0.5222044   -8.5572549    664.90976  0.012105997  0.010665103            2 
 4578000   0.52733909    -8.552886    665.74474  0.012118551  0.010661584            2 
 4579000   0.52920779   -8.5602512    664.75973  0.012097979  0.010658063            2 
 4580000   0.50924185   -8.5472011    664.64776    0.0120933  0.010654547            2 
 4581000   0.52462397   -8.5553719    663.97816  0.012078479   0.01065103            3 
 4582000   0.51280452   -8.5414114    664.58337   0.01208685  0.010647516            2 
 4583000    0.5101341   -8.5572702    665.58159  0.012102364  0.010644002            2 
 4584000   0.51733975   -8.5460347     664.4566  0.012079272  0.010640488            3 
 4585000   0.51036335   -8.5413625    664.31091   0.01207399  0.010636978            3 
 4586000   0.51512253   -8.5701863    665.44865  0.012092031  0.010633469            2 
 4587000   0.51461272   -8.5394472    664.70168  0.012075824   0.01062996            1 
 4588000   0.51704534   -8.5736812    664.36649  0.012067104   0.01062645            2 
 4589000   0.51759774   -8.5629435    665.21437  0.012079872  0.010622941            5 
 4590000   0.51823081   -8.5581738    664.13886  0.012057713  0.010619436            3 
 4591000   0.51692653   -8.5496064    664.37173  0.012059314  0.010615931            3 
 4592000    0.5260358   -8.5627949    665.19551  0.012071637  0.010612434            4 
 4593000   0.51892231   -8.5535504    664.02594  0.012047789  0.010608938            5 
 4594000   0.51983619    -8.561853    665.31659  0.012068578  0.010605442            1 
 4595000   0.51834548    -8.549455    664.03182  0.012042652  0.010601945            2 
 4596000   0.50879791   -8.5490797    664.16218  0.012042395   0.01059845            3 
 4597000    0.5282424   -8.5376426    665.64508  0.012066657  0.010594959            2 
 4598000    0.5196773   -8.5571192     665.8256  0.012067305   0.01059147            3 
 4599000   0.51412032   -8.5479473    664.66846  0.012043714  0.010587979            2 
 4600000   0.50185554    -8.549895    664.28084  0.012034073  0.010584492            3 
 4601000   0.51361906   -8.5715329    665.45002  0.012052634  0.010581004            2 
 4602000   0.51643381   -8.5499719    664.90786  0.012040197  0.010577514            2 
 4603000   0.51294206   -8.5431531     665.6905  0.012051751  0.010574028            2 
 4604000   0.52249788   -8.5576772    664.67993  0.012030842  0.010570541            1 
 4605000   0.51632462   -8.5652068    664.48257  0.012024657  0.010567059            2 
 4606000   0.51291726   -8.5465782    665.19323  0.012034904  0.010563576            5 
 4607000   0.50857967   -8.5553007    664.95068  0.012027905  0.010560096            2 
 4608000   0.51775849   -8.5501984    664.81289  0.012022802  0.010556614            2 
 4609000   0.51079583   -8.5653717    665.70398  0.012036305  0.010553138            2 
 4610000   0.50611755   -8.5678214    664.74734  0.012016402   0.01054966            3 
 4611000   0.52332009   -8.5582959    665.22092  0.012022355  0.010546183            5 
 4612000   0.51965389   -8.5490225    663.96819  0.011997112   0.01054271            1 
 4613000   0.52515408   -8.5546414    665.45034  0.012021287  0.010539241            2 
 4614000   0.51151081   -8.5641029    664.62805   0.01200383  0.010535771            2 
 4615000   0.50752482   -8.5285799    665.26264  0.012012688  0.010532301            1 
 4616000   0.50097122   -8.5585373    665.60267  0.012016224   0.01052883            2 
 4617000   0.52006533   -8.5424142    665.32387  0.012008589  0.010525365            5 
 4618000   0.51188394   -8.5458202    664.04305  0.011982876    0.0105219            2 
 4619000   0.50797988   -8.5594422    663.61952  0.011972641  0.010518433            2 
 4620000   0.51556989   -8.5595866    663.58774  0.011969476  0.010514968            3 
 4621000   0.51002341   -8.5674967    664.01088  0.011974516  0.010511503            3 
 4622000   0.51583675   -8.5449089    664.60704  0.011982674  0.010508039            6 
 4623000   0.51444991   -8.5471381    664.22205  0.011973143  0.010504578            3 
 4624000    0.5121272   -8.5590958    664.91093  0.011982968  0.010501126            2 
 4625000   0.52549875   -8.5503144    663.97746  0.011963558  0.010497672            2 
 4626000   0.50882983   -8.5529127    665.14499  0.011982004  0.010494215            2 
 4627000   0.50876801   -8.5533254    665.01106  0.011977002   0.01049076            2 
 4628000   0.50873977   -8.5499384    664.05961  0.011957282  0.010487307            4 
 4629000   0.51348405   -8.5471973    665.04014  0.011972351  0.010483857            1 
 4630000   0.51191298    -8.553512    663.61398  0.011944096  0.010480409            1 
 4631000   0.50890173   -8.5699554    665.67816  0.011978661  0.010476963            3 
 4632000   0.50440787   -8.5523038    664.01418  0.011946139  0.010473513            3 
 4633000   0.51274662   -8.5504533     664.8946  0.011959396  0.010470067            2 
 4634000   0.50577475   -8.5642657     665.1834  0.011962009  0.010466619            2 
 4635000   0.51618744   -8.5527033    664.54298  0.011947914  0.010463177            4 
 4636000   0.50831863   -8.5744577    664.30983  0.011941146  0.010459736            2 
 4637000   0.50485184   -8.5654592    664.73792  0.011946264  0.010456296            2 
 4638000   0.50496758   -8.5501447     664.2014  0.011934048  0.010452855            2 
 4639000   0.50812981   -8.5695596    664.86631   0.01194342  0.010449414            2 
 4640000   0.51686894    -8.592416       664.48  0.011933908  0.010445977            2 
 4641000   0.50931749   -8.5412954    664.10123  0.011924535  0.010442538            3 
 4642000   0.51449171   -8.5643208    665.07009   0.01193936  0.010439102            5 
 4643000   0.50587618   -8.5545031    664.07168  0.011918868  0.010435667            2 
 4644000   0.51517161   -8.5687846    665.40561  0.011940239  0.010432231            2 
 4645000    0.4977472   -8.5699103    664.53992  0.011922137  0.010428798            2 
 4646000   0.49379251   -8.5520635    665.44651  0.011935832  0.010425366            1 
 4647000   0.49806686   -8.5762097     664.5948   0.01191799  0.010421938            3 
 4648000   0.51176881   -8.5921209    663.90207  0.011903006  0.010418512            3 
 4649000    0.5062874   -8.5697536      664.129  0.011904513  0.010415084            2 
 4650000   0.52131366   -8.5601883    665.10783  0.011919495  0.010411656            4 
 4651000   0.50647479    -8.569665     664.1507  0.011899783  0.010408231            4 
 4652000   0.51078914   -8.5791427    664.02076  0.011894897  0.010404806            2 
 4653000   0.49838725   -8.5743067    662.97949  0.011873692  0.010401382            4 
 4654000   0.51266104   -8.5661572    664.29815  0.011894753  0.010397956            4 
 4655000   0.50203604   -8.5871875     664.3932  0.011893899  0.010394533            3 
 4656000   0.51087831   -8.5611549    663.15293  0.011869146  0.010391114            1 
 4657000   0.51467909   -8.5702119    663.38889   0.01187082  0.010387696            4 
 4658000   0.50137245   -8.5569724    664.05206  0.011880136  0.010384278            4 
 4659000   0.50587835   -8.5543698    664.59425  0.011887283  0.010380866            3 
 4660000   0.50898061   -8.5581192    663.46347  0.011864511  0.010377452            2 
 4661000   0.50515794   -8.5623735    664.30969  0.011877095  0.010374037            2 
 4662000   0.50015021   -8.5664888    664.26662  0.011873778  0.010370627            1 
 4663000   0.50905863   -8.5696521    663.57512  0.011858873  0.010367214            3 
 4664000   0.52027791   -8.5700648    664.70105  0.011876448  0.010363807            3 
 4665000   0.50249703   -8.5649388     664.1968  0.011864895  0.010360399            2 
 4666000    0.5015949   -8.5807952    664.13397   0.01186123  0.010356993            2 
 4667000   0.50847819   -8.5685212    664.64145   0.01186775  0.010353589            2 
 4668000   0.50082317   -8.5574524    663.16987  0.011838937  0.010350188            3 
 4669000   0.50787458   -8.5728855    663.04773  0.011834221  0.010346787            3 
 4670000   0.49664043   -8.5495868     664.2396  0.011852955  0.010343385            5 
 4671000   0.49934574   -8.5609854    664.07244  0.011847435  0.010339986            3 
 4672000   0.49737315   -8.5727818    664.42373  0.011851165  0.010336588            2 
 4673000   0.50547464   -8.5710529    663.18566  0.011826551  0.010333194            3 
 4674000   0.49810082   -8.5673833    663.09937  0.011822482  0.010329799            2 
 4675000   0.49149859   -8.5686667    663.51038   0.01182728  0.010326408            2 
 4676000   0.50354465   -8.5716424    664.14132  0.011835994  0.010323014            2 
 4677000   0.49563776   -8.5631601    663.38848   0.01182005  0.010319622            2 
 4678000   0.51248534   -8.5694927    663.51856   0.01181984  0.010316232            3 
 4679000   0.50645374   -8.5792677       664.18  0.011829094  0.010312843            3 
 4680000    0.4998041   -8.5724031     663.2393  0.011809817  0.010309458            2 
 4681000   0.49276288   -8.5827315    663.50053  0.011811944   0.01030607            2 
 4682000   0.49645036   -8.5699652    663.22727  0.011804558  0.010302688            3 
 4683000   0.48993461   -8.5664449     664.7546  0.011829216  0.010299306            2 
 4684000   0.50249312   -8.5830901    664.10543  0.011815141  0.010295927            2 
 4685000   0.49693213   -8.5900677    664.40236    0.0118179  0.010292547            2 
 4686000   0.50667511   -8.5634667    663.29092  0.011795613  0.010289169            3 
 4687000   0.50216613    -8.576203    664.17521  0.011808819  0.010285794            5 
 4688000   0.50565074   -8.5563492    663.93097  0.011801958   0.01028242            3 
 4689000   0.50852615    -8.565645    663.90819  0.011799036  0.010279048            2 
 4690000   0.50936859   -8.5731969    663.57063  0.011790523  0.010275671            1 
 4691000   0.50439373   -8.5898484    664.08983  0.011797233  0.010272302            3 
 4692000   0.50578518   -8.5739468    664.28078   0.01179811  0.010268933            3 
 4693000   0.48955276   -8.5632234    663.28645   0.01177794  0.010265564            2 
 4694000   0.51536319   -8.5694101    662.95413  0.011769531  0.010262198            3 
 4695000   0.48604016   -8.5844033    663.21813   0.01177171  0.010258829            5 
 4696000   0.49955235   -8.5842517    663.33111  0.011771208  0.010255465            3 
 4697000   0.50463951   -8.5665916    663.19602  0.011766305  0.010252099            2 
 4698000   0.50689745   -8.5772583    663.12828  0.011762599  0.010248738            4 
 4699000    0.4948577   -8.5850409    663.85901  0.011773055  0.010245376            5 
 4700000    0.5102773   -8.5780613    664.02344  0.011773465  0.010242015            3 
 4701000    0.4874534   -8.5772296    663.75341  0.011766174  0.010238657            2 
 4702000   0.49464053   -8.5811094     664.1448  0.011770608  0.010235302            2 
 4703000   0.50086236   -8.5674884    663.85869  0.011763036  0.010231944            3 
 4704000   0.50737153   -8.5702052    662.92258  0.011743952  0.010228589            3 
 4705000   0.48505912   -8.5841524    663.44944  0.011750787  0.010225236            3 
 4706000   0.50658284   -8.5787018    662.28494  0.011727669   0.01022188            3 
 4707000   0.50490727      -8.5745     664.2355  0.011759711  0.010218531            5 
 4708000   0.49109959   -8.5793501    664.24844  0.011757442  0.010215185            3 
 4709000   0.48767928   -8.5615266    663.25806  0.011737419  0.010211839            1 
 4710000   0.49492007   -8.5878977    663.65678  0.011741981  0.010208492            3 
 4711000   0.49316952    -8.581912    664.63777  0.011756842  0.010205145            2 
 4712000   0.50881507   -8.5652433    663.17983  0.011728562  0.010201803            2 
 4713000   0.48903604   -8.5991115     663.5079  0.011731875   0.01019846            3 
 4714000   0.51293681   -8.5832507    662.93154  0.011719197  0.010195114            5 
 4715000   0.49500029   -8.5594348    663.64679  0.011729353  0.010191773            1 
 4716000   0.49692885   -8.5881634    663.63648  0.011726684   0.01018843            1 
 4717000    0.5046071   -8.5921845    664.01223  0.011730836   0.01018509            2 
 4718000   0.49563051   -8.5744293    662.98425  0.011710192  0.010181753            2 
 4719000   0.48104204    -8.572514    664.08892  0.011727218  0.010178419            2 
 4720000   0.50232728    -8.575909    663.73709  0.011718522  0.010175084            6 
 4721000   0.49243539   -8.5694642    663.44207  0.011710832  0.010171751            5 
 4722000   0.49251546   -8.5930291     663.8521  0.011715588  0.010168421            2 
 4723000   0.50550572   -8.5723521    663.97238   0.01171523  0.010165092            2 
 4724000   0.49321404   -8.5762183    662.27923  0.011682882  0.010161765            1 
 4725000    0.4814231   -8.5964658    663.67319  0.011704994  0.010158438            2 
 4726000   0.49322665   -8.5839549    663.77047  0.011704233   0.01015511            3 
 4727000   0.50348395    -8.584731    664.43694  0.011713506  0.010151785            3 
 4728000   0.49969534   -8.5721711    663.52449  0.011694947  0.010148463            1 
 4729000   0.48908495    -8.586707     663.9456  0.011699894  0.010145144            4 
 4730000   0.49187332   -8.5700168    664.05974  0.011699432  0.010141824            3 
 4731000   0.49217176    -8.595094    664.02758  0.011696392  0.010138505            2 
 4732000   0.49414886   -8.5822661    662.87782  0.011673672  0.010135188            3 
 4733000    0.4956309   -8.5778411    664.55344  0.011700708  0.010131871            1 
 4734000   0.48987783   -8.5582389    663.93979  0.011687435  0.010128556            2 
 4735000   0.49117118   -8.5794759    663.28983  0.011673527  0.010125244            2 
 4736000   0.48882214   -8.5805608    662.99006  0.011665788   0.01012193            1 
 4737000   0.49115827   -8.5837404    663.12545  0.011665707  0.010118619            3 
 4738000   0.49503736   -8.5864993    662.00146  0.011643476  0.010115312            2 
 4739000   0.49215909   -8.5777877    663.64454  0.011669912  0.010112004            6 
 4740000   0.49173896   -8.5883134    663.82582  0.011670637  0.010108699            3 
 4741000   0.50207453   -8.5848588    664.60167  0.011681812  0.010105397            7 
 4742000   0.47991865   -8.5806845     664.5662  0.011678726  0.010102094            3 
 4743000   0.48569841   -8.5746851    663.94462  0.011665342  0.010098796            3 
 4744000   0.48850244   -8.5872403    663.90382  0.011662167  0.010095498            3 
 4745000   0.50185029    -8.603271     663.1868  0.011647116  0.010092198            3 
 4746000   0.48516336    -8.576772    663.89484  0.011657094  0.010088897            4 
 4747000    0.4920506    -8.591554    663.32359   0.01164461  0.010085601            3 
 4748000   0.48952596   -8.5917925    662.81093   0.01163316  0.010082305            3 
 4749000   0.48930644    -8.586858    662.45458  0.011624457  0.010079008            2 
 4750000   0.49111609   -8.5990258    663.68164  0.011643537  0.010075711            2 
 4751000   0.48962161   -8.5755614    663.73247  0.011641978  0.010072418            2 
 4752000   0.49366356   -8.5792804    663.79177  0.011640568  0.010069127            2 
 4753000   0.49731532   -8.5848975    663.49092  0.011632844  0.010065836            2 
 4754000   0.48050936   -8.5746478    663.01517  0.011622058  0.010062548            2 
 4755000   0.49039164   -8.5897016    663.74307  0.011632371  0.010059259            1 
 4756000   0.49547999    -8.590492    663.55865  0.011626693  0.010055971            3 
 4757000   0.47789487   -8.6023888    664.08119  0.011633403  0.010052687            4 
 4758000   0.48708218   -8.5788983    663.07136  0.011613272  0.010049403            3 
 4759000   0.49443177    -8.577292    663.20075  0.011613097  0.010046121            2 
 4760000    0.4816043   -8.5939124    662.74973  0.011602761   0.01004284            2 
 4761000   0.48610619   -8.5941956    663.62357  0.011615619  0.010039559            3 
 4762000   0.47913518   -8.5948406    663.37529  0.011608835  0.010036281            2 
 4763000    0.4820886   -8.5921114    663.83548   0.01161445  0.010033003            2 
 4764000   0.48227576    -8.590656    662.69394  0.011592043  0.010029727            3 
 4765000    0.4908152   -8.6064382    662.95669  0.011594206  0.010026455            4 
 4766000   0.48207609   -8.5845389    663.97086  0.011609506  0.010023183            1 
 4767000   0.49434119   -8.5734241    663.93206  0.011606392  0.010019914            2 
 4768000    0.4822294   -8.5864785    663.45022  0.011595537  0.010016648            3 
 4769000   0.49034767   -8.5627942    662.59618  0.011578182  0.010013379            2 
 4770000   0.49028266   -8.5947265    663.64057     0.011594  0.010010114            2 
 4771000    0.4860946   -8.5917271    663.04423  0.011581154  0.010006845            2 
 4772000   0.48733046   -8.5926748    662.89527  0.011576126  0.010003581            2 
 4773000   0.48545561   -8.5878962    662.39773  0.011565014  0.010000314            3 
 4774000   0.49219512   -8.5946804    663.26564  0.011577741 0.0099970545            3 
 4775000   0.48463055   -8.6082626    663.46039  0.011578715 0.0099937916            3 
 4776000   0.47968656   -8.5914214    663.62065  0.011579087 0.0099905322            3 
 4777000   0.48485885   -8.5860681    663.45691  0.011573807 0.0099872714            3 
 4778000    0.4907652   -8.5972419    662.94978   0.01156254 0.0099840173            2 
 4779000   0.48319461   -8.5960549     663.0763  0.011562327 0.0099807598            5 
 4780000   0.49532021   -8.5927914    662.91297   0.01155706 0.0099775057            3 
 4781000   0.48948951   -8.5879806    663.34559  0.011562183 0.0099742529            1 
 4782000   0.49334165   -8.5835794    663.15306  0.011556411     0.009971            4 
 4783000   0.48207842   -8.5775477     663.0182  0.011551645 0.0099677474            2 
 4784000   0.48765958   -8.5963782    663.25063  0.011553279 0.0099644969            3 
 4785000   0.49007752   -8.5949511    662.49999  0.011537791 0.0099612469            3 
 4786000   0.48175349   -8.5803129    663.26142  0.011548639 0.0099579963            2 
 4787000   0.48446497   -8.5945635    663.68402  0.011553583 0.0099547493            5 
 4788000   0.49292281   -8.5976092    662.41074  0.011529009  0.009951505            3 
 4789000   0.49843148   -8.5908962    663.39782  0.011543778 0.0099482634            5 
 4790000   0.49155748   -8.5953715    664.10157  0.011553611 0.0099450201            1 
 4791000   0.49955748   -8.5763532    663.56269  0.011541827 0.0099417789            3 
 4792000   0.48235233   -8.5943052    662.70398  0.011524485 0.0099385404            2 
 4793000   0.48972371   -8.5860234    662.44436  0.011517567 0.0099353005            2 
 4794000   0.48012432   -8.5994207    662.85135  0.011522239 0.0099320608            1 
 4795000   0.47935144   -8.6050389    662.58262  0.011515165 0.0099288229            1 
 4796000   0.48226939   -8.6143144    662.72594  0.011515255 0.0099255896            1 
 4797000   0.48075528   -8.6099919    661.48286   0.01149126 0.0099223573            2 
 4798000    0.4909364   -8.6042719     663.6867  0.011527142  0.009919125            1 
 4799000   0.48007743   -8.6098431    663.14251   0.01151529  0.009915895            2 
 4800000   0.47002437   -8.6100176    663.76364  0.011523674 0.0099126649            3 
 4801000   0.48572307   -8.6114659    662.89872  0.011506261 0.0099094374            6 
 4802000   0.46663127   -8.6081205    661.92724  0.011487006  0.009906211            2 
 4803000   0.48750079   -8.6145688    663.40899  0.011510323 0.0099029838            2 
 4804000   0.48683954   -8.5951449     663.6832  0.011512684 0.0098997616            3 
 4805000   0.47704704   -8.6097814    663.39877  0.011505355 0.0098965432            2 
 4806000   0.47897091   -8.6085774    662.89825  0.011494282  0.009893322            2 
 4807000   0.47774928   -8.6044129    663.56702  0.011503485 0.0098901021            4 
 4808000   0.49501966   -8.5973399    661.64631  0.011467802 0.0098868848            3 
 4809000   0.49063218   -8.6059636    662.85899  0.011486432 0.0098836688            3 
 4810000   0.47981513   -8.6022301    664.10849  0.011505691 0.0098804558            3 
 4811000   0.47608838   -8.6065447    662.74771  0.011479729 0.0098772415            2 
 4812000   0.47696805    -8.607294    663.03767  0.011482365 0.0098740293            4 
 4813000   0.47426053   -8.6242941    662.23979  0.011466164 0.0098708171            2 
 4814000   0.49111815   -8.6117967    662.25055  0.011463969 0.0098676057            3 
 4815000   0.47517118    -8.609505     662.7065  0.011469479 0.0098643956            1 
 4816000   0.48744551   -8.6058098    662.93547   0.01147106 0.0098611871            1 
 4817000   0.48527887   -8.5961043    663.33771  0.011475637 0.0098579795            4 
 4818000   0.48177443   -8.6017179    662.79852  0.011463929 0.0098547743            3 
 4819000   0.47122754   -8.6035319    663.16204  0.011467836 0.0098515723            3 
 4820000   0.48379865    -8.609355    662.67598  0.011457054 0.0098483688            2 
 4821000   0.48230944   -8.6049585     662.2096  0.011446616 0.0098451655            1 
 4822000   0.48083341   -8.6098816    663.30993  0.011463257 0.0098419638            2 
 4823000    0.4802131   -8.6045126    662.58133  0.011448292 0.0098387635            3 
 4824000   0.48501681   -8.6124471    661.75618  0.011431664 0.0098355654            2 
 4825000   0.48465582   -8.6186689    662.29048  0.011438523 0.0098323682            3 
 4826000   0.46875022   -8.6048729      663.874  0.011463496 0.0098291743            3 
 4827000   0.48150724   -8.6223522    663.08468  0.011447495 0.0098259801            2 
 4828000   0.46954296   -8.5994207    662.82373  0.011440619 0.0098227859            3 
 4829000   0.48349289   -8.6100243    663.03391  0.011441877 0.0098195907            2 
 4830000    0.4762839   -8.5956986     662.1447  0.011424167  0.009816398            3 
 4831000   0.48405079   -8.6004238    663.77205  0.011449873 0.0098132082            3 
 4832000    0.4816601   -8.6141509    661.74682  0.011412576 0.0098100187            2 
 4833000   0.47932826   -8.6096628    662.39197  0.011421339 0.0098068288            3 
 4834000   0.48099091   -8.6041507    662.53214  0.011421393 0.0098036374            3 
 4835000   0.47528848     -8.62984     662.5869  0.011419974 0.0098004498            2 
 4836000    0.4772146   -8.5923859    662.85418  0.011422218 0.0097972615            3 
 4837000   0.47714775   -8.5898503    662.25199  0.011409482 0.0097940744            3 
 4838000   0.47788969   -8.6254804    662.69143  0.011414693 0.0097908879            4 
 4839000   0.47958295     -8.60382    662.37023  0.011406803  0.009787705            2 
 4840000   0.48376574   -8.6168291     663.1172  0.011417307 0.0097845241            1 
 4841000   0.48540519   -8.6217858    662.39973  0.011402598 0.0097813449            2 
 4842000   0.49235855   -8.6209799    662.52057  0.011402323 0.0097781686            3 
 4843000    0.4876838    -8.597954    662.26957   0.01139565 0.0097749913            3 
 4844000   0.47884036   -8.6265105    661.88383  0.011386661 0.0097718154            1 
 4845000   0.46771791   -8.6197525    662.70571  0.011398447 0.0097686391            2 
 4846000   0.47481066   -8.6188081    662.37051  0.011390331 0.0097654666            4 
 4847000   0.47546782   -8.6084261    662.13234  0.011383886 0.0097622932            2 
 4848000   0.47286329   -8.6126864     663.1184  0.011398487 0.0097591231            3 
 4849000   0.47791726   -8.6168474    662.60529  0.011387319 0.0097559543            3 
 4850000   0.47593812   -8.6206719    661.82459  0.011371557 0.0097527855            2 
 4851000   0.47360279   -8.6181071    662.67054  0.011383745 0.0097496166            2 
 4852000    0.4641126   -8.6203018    662.57946  0.011379834 0.0097464509            2 
 4853000   0.47237008   -8.6152831    663.06025  0.011385745 0.0097432851            3 
 4854000   0.47492184   -8.6154233    661.96833  0.011364653 0.0097401218            2 
 4855000   0.48462968   -8.6258403    662.33952  0.011368684 0.0097369611            3 
 4856000   0.47453915   -8.6028203    661.54859   0.01135277 0.0097337969            2 
 4857000   0.47150199   -8.6282392    662.12977  0.011360404 0.0097306382            1 
 4858000   0.47411544   -8.6158362    662.09568   0.01135748 0.0097274771            1 
 4859000   0.47540259   -8.6091458    661.62967  0.011347151 0.0097243163            2 
 4860000    0.4671683   -8.6154216     662.8547  0.011365821 0.0097211602            3 
 4861000   0.47623407   -8.6207297    662.87679  0.011363862 0.0097180033            2 
 4862000   0.47335656   -8.6113448    662.15838  0.011349211 0.0097148496            3 
 4863000   0.47080368     -8.62026    663.00078  0.011361313  0.009711694            1 
 4864000   0.48207109     -8.61193    661.28964  0.011329661 0.0097085413            2 
 4865000   0.47211341   -8.6198712     661.9315  0.011338326 0.0097053904            1 
 4866000   0.47490348   -8.6073982    661.22517    0.0113239  0.009702241            2 
 4867000   0.47618196   -8.6230819    662.02428  0.011335256 0.0096990925            3 
 4868000   0.47430926   -8.6182745    662.67154  0.011344007 0.0096959451            2 
 4869000   0.47751771   -8.6397936    662.81144  0.011344072 0.0096927985            3 
 4870000   0.46725682   -8.6249131     661.5567  0.011320272 0.0096896557            3 
 4871000   0.47187711   -8.6183654    662.51262  0.011334302 0.0096865142            2 
 4872000   0.47009088   -8.6069025    662.40733  0.011330175 0.0096833723            2 
 4873000   0.45877417   -8.6287582    662.02791  0.011321361 0.0096802318            5 
 4874000   0.47196516   -8.6128284    662.71022  0.011330704  0.009677093            2 
 4875000   0.46485862   -8.6259951    662.07344  0.011317495 0.0096739554            2 
 4876000   0.46072019   -8.6295848    662.39248  0.011320626 0.0096708192            2 
 4877000   0.47097044   -8.6134029    662.61455  0.011322099 0.0096676834            1 
 4878000   0.46953886   -8.6173508    662.47175  0.011317339 0.0096645506            2 
 4879000   0.46379647   -8.6106385    663.72611  0.011336444 0.0096614196            1 
 4880000   0.47310806   -8.6191322    662.00094  0.011304661 0.0096582894            1 
 4881000   0.48409022    -8.590882    662.72431  0.011314695 0.0096551611            3 
 4882000   0.46854438   -8.6229931    662.48532  0.011308298 0.0096520326            1 
 4883000   0.47175736   -8.6298146    662.50671  0.011306347 0.0096489059            1 
 4884000   0.47601571    -8.626688    662.53277  0.011304477 0.0096457784            1 
 4885000   0.47491624   -8.6334737    661.83432  0.011290248 0.0096426526            1 
 4886000   0.46850077   -8.6340346    661.92444  0.011289474 0.0096395264            2 
 4887000   0.45958086   -8.6158235    661.86263   0.01128611 0.0096364042            3 
 4888000   0.47191231   -8.6282423    662.19286  0.011289431 0.0096332831            1 
 4889000   0.47209284   -8.6401585    662.47435   0.01129192 0.0096301667            4 
 4890000    0.4810619   -8.6114802    661.14917  0.011267027 0.0096270465            2 
 4891000   0.47244443   -8.6209238    662.54238  0.011288461 0.0096239294            2 
 4892000   0.46261098   -8.6378485    661.64919  0.011270939 0.0096208143            1 
 4893000   0.46626519   -8.6283129    662.11883  0.011276634 0.0096176985            3 
 4894000     0.471925   -8.6298316    662.23049  0.011276231 0.0096145855            2 
 4895000   0.46678709   -8.6199149    662.21567  0.011273675 0.0096114711            1 
 4896000   0.47201935   -8.6241644    662.14448  0.011270161 0.0096083606            1 
 4897000   0.47730113   -8.6257515    661.76294  0.011261366 0.0096052507            2 
 4898000   0.47204723   -8.6056753      662.013  0.011263322 0.0096021446            1 
 4899000   0.46863652   -8.6296403    661.93283  0.011259659 0.0095990387            2 
 4900000   0.45874054   -8.6179861    662.42571  0.011265743  0.009595932            1 
 4901000   0.46297691   -8.6296425    661.72928  0.011251603 0.0095928251            3 
 4902000   0.44698612   -8.6398774    662.19797  0.011257275 0.0095897181            2 
 4903000     0.483695   -8.6201249    663.23914  0.011272676 0.0095866159            1 
 4904000   0.46261334   -8.6399847    661.69922  0.011244209 0.0095835134            1 
 4905000    0.4573358   -8.6274903    662.31265  0.011252339 0.0095804124            1 
 4906000   0.46846688   -8.6184161    662.05413  0.011245654 0.0095773162            1 
 4907000   0.47591161    -8.634166    662.49378  0.011250828 0.0095742189            2 
 4908000   0.46613693   -8.6312649    662.57339  0.011249888 0.0095711224            1 
 4909000   0.46011674   -8.6296611    662.30587  0.011243055 0.0095680263            4 
 4910000   0.46873032   -8.6215252    661.59446  0.011228691 0.0095649302            2 
 4911000   0.46393983   -8.6292175    663.37021  0.011256537 0.0095618391            2 
 4912000   0.46662213   -8.6310411    662.60261  0.011241222 0.0095587499            3 
 4913000   0.46398467   -8.6345541    661.53962  0.011220904 0.0095556589            3 
 4914000   0.46563094   -8.6403517    661.39366  0.011216145 0.0095525686            2 
 4915000   0.46389181   -8.6290273    662.73063  0.011236531 0.0095494816            1 
 4916000   0.46350311   -8.6280889    662.52475  0.011230756 0.0095463967            2 
 4917000   0.45953614   -8.6288172    663.18676  0.011239692 0.0095433099            3 
 4918000   0.46456432   -8.6346923    661.82769  0.011214377 0.0095402257            2 
 4919000   0.45438669   -8.6372776    661.44303  0.011205581 0.0095371411            2 
 4920000   0.47249789   -8.6308354     661.0379  0.011196441 0.0095340579            2 
 4921000   0.46334173   -8.6262566    661.87985  0.011208424 0.0095309792            1 
 4922000   0.45804787   -8.6288408    661.93637  0.011207104 0.0095279003            1 
 4923000   0.46519337   -8.6262345    662.46349   0.01121375 0.0095248248            1 
 4924000    0.4662199   -8.6289191    662.44608  0.011211178 0.0095217483            3 
 4925000   0.45821066   -8.6323163    661.65452  0.011195508 0.0095186732            3 
 4926000   0.46185244   -8.6378882    662.14616  0.011201552 0.0095155978            4 
 4927000   0.47071213    -8.646086    660.48546   0.01117119 0.0095125239            3 
 4928000   0.46329166   -8.6338729     662.5467  0.011203779 0.0095094501            2 
 4929000   0.47226592   -8.6442891    662.12186  0.011194324 0.0095063783            3 
 4930000   0.46871265   -8.6391529    661.98992  0.011189823 0.0095033088            2 
 4931000   0.45168979    -8.638501    660.99121  0.011170676 0.0095002395            4 
 4932000   0.46148262   -8.6412278    662.45412  0.011193128 0.0094971766            1 
 4933000   0.46444994    -8.641936     661.2498  0.011170515 0.0094941111            1 
 4934000   0.46936136   -8.6313522    662.99765  0.011197771 0.0094910457            2 
 4935000   0.45690847   -8.6433933    661.87217  0.011176497 0.0094879817            2 
 4936000   0.46945683   -8.6370306    662.43679  0.011183765 0.0094849186            2 
 4937000   0.46476605   -8.6482044    661.88039  0.011172108 0.0094818578            2 
 4938000    0.4713249   -8.6338362    661.07319  0.011156224 0.0094787968            3 
 4939000   0.45353833   -8.6460619    661.95361   0.01116882  0.009475735            2 
 4940000   0.46572203   -8.6216333    661.30596  0.011155634 0.0094726774            1 
 4941000   0.46464869   -8.6424865    661.78843  0.011161513 0.0094696196            1 
 4942000   0.47100761   -8.6424672    662.01099  0.011163007 0.0094665642            1 
 4943000   0.46846438   -8.6354371    661.05166  0.011144576 0.0094635098            2 
 4944000   0.47261061   -8.6303908    660.97601  0.011141047 0.0094604551            2 
 4945000   0.45419807   -8.6278729    661.46365  0.011147011 0.0094574026            1 
 4946000   0.46616554   -8.6431376    662.19663  0.011157107 0.0094543508            1 
 4947000   0.46464604   -8.6432036    661.23438  0.011138643 0.0094513019            2 
 4948000   0.46029187   -8.6448663    661.80464  0.011145996  0.009448254            1 
 4949000   0.45948774    -8.645091    661.31927  0.011135571  0.009445205            2 
 4950000   0.46187386   -8.6451934    661.56357  0.011137434 0.0094421582            1 
 4951000   0.45813095   -8.6423921     661.7898  0.011138992 0.0094391136            2 
 4952000   0.44140232   -8.6398418     661.5878  0.011133343 0.0094360711            1 
 4953000   0.46303278   -8.6483644    662.14254  0.011140429 0.0094330294            3 
 4954000   0.45450178    -8.649302    662.08392  0.011137194  0.009429988            3 
 4955000   0.46214299   -8.6308763    661.29571   0.01112169 0.0094269492            2 
 4956000   0.45277916   -8.6486407    661.58607  0.011124329 0.0094239092            2 
 4957000   0.45733542   -8.6460203    661.39988  0.011118954 0.0094208717            2 
 4958000   0.45958082   -8.6386026    661.50845  0.011118537 0.0094178345            2 
 4959000   0.46288615   -8.6469964      661.446  0.011115245 0.0094147983            1 
 4960000   0.46490078   -8.6447078    662.57602   0.01113199 0.0094117665            2 
 4961000   0.46335161    -8.635027    661.81513  0.011116964  0.009408735            1 
 4962000   0.45406174   -8.6384108    662.20961  0.011121349 0.0094057059            3 
 4963000    0.4520458   -8.6335231    661.52501  0.011107613 0.0094026749            2 
 4964000   0.46098551   -8.6333477    662.63545  0.011124017 0.0093996469            4 
 4965000   0.46800499   -8.6514919    661.67631  0.011105678 0.0093966215            1 
 4966000   0.46273978   -8.6349822    661.99268  0.011108751 0.0093935989            1 
 4967000   0.45331422   -8.6272125    661.05182  0.011090729 0.0093905752            3 
 4968000   0.46103623   -8.6388502    661.63355  0.011098255 0.0093875516            1 
 4969000   0.46044286   -8.6463872    660.27593  0.011073253 0.0093845297            1 
 4970000    0.4571367   -8.6451608    661.61995  0.011093561 0.0093815077            2 
 4971000   0.46839337   -8.6547704     661.2056  0.011084383 0.0093784905            2 
 4972000   0.46190685    -8.632362    660.62668   0.01107245 0.0093754726            2 
 4973000   0.45659983   -8.6345589    661.72168  0.011088573 0.0093724566            3 
 4974000   0.45207405   -8.6417598    662.35762  0.011096998 0.0093694449            1 
 4975000    0.4528822   -8.6356105    661.26231  0.011076421 0.0093664309            3 
 4976000     0.459102    -8.657159    661.80692  0.011083315 0.0093634185            2 
 4977000   0.46501231   -8.6359051    661.42955   0.01107477 0.0093604047            2 
 4978000   0.44835525   -8.6477212    661.73954  0.011077734 0.0093573956            2 
 4979000   0.45906891   -8.6502022    660.66734  0.011057564 0.0093543872            1 
 4980000   0.44873279   -8.6429664    661.84458  0.011075043 0.0093513786            2 
 4981000   0.44461276   -8.6492578    662.45177  0.011082978 0.0093483733            2 
 4982000   0.44411148   -8.6482505    660.72486  0.011051868 0.0093453654            1 
 4983000   0.45891091   -8.6444048    660.91258  0.011052789 0.0093423596            2 
 4984000   0.45384117    -8.651585    662.35673  0.011074718 0.0093393563            4 
 4985000   0.45113349   -8.6523848    661.58427  0.011059583 0.0093363518            2 
 4986000   0.45187653   -8.6546845    661.32567  0.011053043 0.0093333487            2 
 4987000   0.44651797   -8.6350823     660.7981  0.011042011 0.0093303459            2 
 4988000   0.45171413    -8.654483    661.58195  0.011052893 0.0093273453            2 
 4989000   0.44323527   -8.6427218    661.18803  0.011044098 0.0093243473            2 
 4990000   0.44781978   -8.6332414    660.83533  0.011035994 0.0093213458            1 
 4991000   0.44925772   -8.6616293    661.08287  0.011037916  0.009318348            3 
 4992000   0.45083249   -8.6504429    661.37274  0.011040544 0.0093153502            1 
 4993000   0.44156791    -8.650795    661.48889  0.011040271 0.0093123545            1 
 4994000    0.4459776   -8.6426214    661.35307  0.011035794 0.0093093615            1 
 4995000   0.44998198   -8.6407887    661.36644  0.011033808 0.0093063714            2 
 4996000   0.46335922   -8.6498103    661.37083  0.011031673 0.0093033797            1 
 4997000   0.45697636   -8.6525482    661.73964  0.011035615 0.0093003916            2 
 4998000   0.44597845   -8.6534421    661.04409   0.01102181 0.0092974023            2 
 4999000   0.44853566   -8.6551872    661.05587  0.011019802 0.0092944146            2 
 5000000   0.46102094     -8.66071    661.81867  0.011030311  0.009291432            2 
 5001000   0.45715931   -8.6420247    660.81081  0.011011311 0.0092884461            2 
 5002000   0.44058246    -8.654511    660.97863  0.011011906 0.0092854641            2 
 5003000   0.44589454   -8.6575909     661.2797   0.01101472 0.0092824844            1 
 5004000   0.45141896   -8.6649696    661.22236  0.011011563 0.0092795033            2 
 5005000   0.45136012   -8.6447194    661.54248  0.011014693 0.0092765243            2 
 5006000   0.45166106   -8.6515599    660.62125  0.010997157 0.0092735449            4 
 5007000   0.45140903   -8.6305992    661.91418   0.01101648 0.0092705681            1 
 5008000   0.45293814   -8.6411503    660.54987  0.010991578  0.009267592            1 
 5009000   0.46531531   -8.6562653    661.04659  0.010997647 0.0092646159            2 
 5010000   0.45067008   -8.6478068    660.95052  0.010993854 0.0092616415            3 
 5011000   0.45393386   -8.6580502    661.52328  0.011001185 0.0092586681            1 
 5012000   0.44710317   -8.6526946    660.79622  0.010986902 0.0092556974            2 
Loop time of 11893.6 on 48 procs for 5000000 steps with 4000 atoms

Performance: 72644.163 tau/day, 420.394 timesteps/s
99.4% CPU use with 48 MPI tasks x no OpenMP threads

MPI task timing breakdown:
Section |  min time  |  avg time  |  max time  |%varavg| %total
---------------------------------------------------------------
Pair    | 780.04     | 826.64     | 891.53     | 111.9 |  6.95
Neigh   | 78.005     | 81.321     | 84.004     |  18.2 |  0.68
Comm    | 742.14     | 807.11     | 861.63     | 122.0 |  6.79
Output  | 13.697     | 13.702     | 13.793     |   0.4 |  0.12
Modify  | 10045      | 10061      | 10083      |   8.1 | 84.59
Other   |            | 103.6      |            |       |  0.87

Nlocal:        83.3333 ave          92 max          75 min
Histogram: 5 0 7 6 6 8 7 3 2 4
Nghost:        2045.62 ave        2065 max        2027 min
Histogram: 1 2 8 9 5 6 6 6 3 2
Neighs:        13313.5 ave       15185 max       11027 min
Histogram: 1 3 3 4 7 10 8 7 1 4
FullNghs:      26627.4 ave       29670 max       23880 min
Histogram: 5 1 4 10 6 4 12 1 1 4

Total # of neighbors = 1278115
Ave neighs/atom = 319.52875
Neighbor list builds = 267848
Dangerous builds = 2

#clear
#
#next RN
#
#jump SELF
Total wall time: 3:18:16
