
units lj                  # Use reduced LJ style units
atom_style atomic         # Uncharged point particles
atom_modify map hash      # Needed for indexing of clusters etc
                          # Used to be able to find where atoms are in relation to each other.

lattice fcc 1.0 spacing 1 1 1
Lattice spacing in x,y,z = 1.5874011 1.5874011 1.5874011
region box block 0 10 0 10 0 10 units lattice
create_box 2 box
Created orthogonal box = (0.0000000 0.0000000 0.0000000) to (15.874011 15.874011 15.874011)
  3 by 4 by 4 MPI processor grid
create_atoms 1 box
Created 4000 atoms
  using lattice units in orthogonal box = (0.0000000 0.0000000 0.0000000) to (15.874011 15.874011 15.874011)
  create_atoms CPU = 0.003 seconds
set type 1 type/fraction 2 0.18 78393
Setting atom values ...
  747 settings made for type/fraction
mass 1 1.0
mass 2 1.0
pair_style lj/cut  3.5
pair_modify tail  yes
pair_coeff 1  1  1.0  1.0   # Intearaction between 1 and 1 set with epsilon = 1 and sigma = 1
pair_coeff 1  2  1.5  0.8
pair_coeff 2  2  0.5  0.88

write_data data.0
System init for write_data ...
Neighbor list info ...
  update every 1 steps, delay 10 steps, check yes
  max neighbors/atom: 2000, page size: 100000
  master list distance cutoff = 3.8
  ghost atom cutoff = 3.8
  binsize = 1.9, bins = 9 9 9
  1 neighbor lists, perpetual/occasional/extra = 1 0 0
  (1) pair lj/cut, perpetual
      attributes: half, newton on
      pair build: half/bin/atomonly/newton
      stencil: half/bin/3d
      bin: standard
WARNING: Not all mixed pair coeffs generated from mixing. Use write_data with 'pair ij' option to store all pair coeffs. (../write_data.cpp:312)


#############################
#   M E L T   S Y S T E M   #
#############################

velocity all create 2.4 5300450 mom yes dist gaussian # Assign velocities
                                                    # Temperature 2.4, random number seed, zero linear momentum
                                                                                # Gaussian distribution

timestep 0.002   # simulation timestep
thermo 1000       # output thermodynamic data every 1000 steps bf 100

# Define a fix  in this case with index 1 applied to all
# particles in the simulation. This fix is for simulations
# in the anisotropic NPT ensemble. Note that we use the MTK
# correction.
fix 1 all npt temp 2.4 2.4 0.1 iso 5.68 5.68 0.5 mtk yes tchain 5 pchain 5 # Use NPT ensemble
                                                                         # Set temperature and pressure and damping
                                                                         # Numbers of thermostats in chain and in barostat
run 10000          # run for 10000 steps
Per MPI rank memory allocation (min/avg/max) = 3.642 | 3.644 | 3.648 Mbytes
Step Temp E_pair E_mol TotEng Press Volume 
       0          2.4   -7.1764538            0   -3.5773538   -3.5088476         4000 
    1000    2.4258356   -4.8003451            0   -1.1625014      5.71292    4535.8317 
    2000    2.3896434   -4.7854048            0   -1.2018358    5.5969408    4559.1283 
    3000    2.4156617   -4.7881817            0    -1.165595    5.6604594    4554.8667 
    4000    2.4165442   -4.7772083            0   -1.1532983    6.1319558    4509.3834 
    5000    2.4033283   -4.7832147            0   -1.1791236    5.6276596    4560.9788 
    6000     2.398165   -4.7360788            0   -1.1397306    5.7279351    4568.8079 
    7000    2.4228725    -4.786558            0   -1.1531578    6.1797078    4505.9943 
    8000     2.441529   -4.7496759            0   -1.0882979    5.9042016    4548.3557 
    9000    2.4018185   -4.7881313            0   -1.1863042    5.6078059    4564.3554 
   10000    2.4357657   -4.7250394            0   -1.0723043     5.748476    4575.9564 
Loop time of 2.28364 on 48 procs for 10000 steps with 4000 atoms

Performance: 756686.704 tau/day, 4378.974 timesteps/s
99.6% CPU use with 48 MPI tasks x no OpenMP threads

MPI task timing breakdown:
Section |  min time  |  avg time  |  max time  |%varavg| %total
---------------------------------------------------------------
Pair    | 0.92875    | 1.0112     | 1.1387     |   3.5 | 44.28
Neigh   | 0.1887     | 0.20141    | 0.22662    |   1.2 |  8.82
Comm    | 0.68866    | 0.78816    | 0.88696    |   4.6 | 34.51
Output  | 0.00023622 | 0.00024076 | 0.00030713 |   0.0 |  0.01
Modify  | 0.21491    | 0.26817    | 0.34047    |   7.5 | 11.74
Other   |            | 0.01447    |            |       |  0.63

Nlocal:        83.3333 ave          92 max          73 min
Histogram: 3 0 2 3 12 12 6 4 3 3
Nghost:        1504.42 ave        1538 max        1477 min
Histogram: 3 6 3 9 10 6 2 5 2 2
Neighs:        8331.25 ave        9474 max        7173 min
Histogram: 3 1 4 5 14 5 8 1 3 4

Total # of neighbors = 399900
Ave neighs/atom = 99.975000
Neighbor list builds = 904
Dangerous builds = 180

# Equilibrate just above the melting temperature to avoid step fn in T

fix 1 all npt temp 1.25 1.25 0.1 iso 5.68 5.68 0.5 mtk yes tchain 5 pchain 5
run 2000
Per MPI rank memory allocation (min/avg/max) = 3.642 | 3.644 | 3.649 Mbytes
Step Temp E_pair E_mol TotEng Press Volume 
   10000    2.4357657   -4.7250394            0   -1.0723043     5.748476    4575.9564 
   11000    1.2588363   -6.4633338            0   -4.5755515    5.6883327    3719.6126 
   12000    1.2673203   -6.4789915            0   -4.5784863    5.6658504    3715.9626 
Loop time of 0.485855 on 48 procs for 2000 steps with 4000 atoms

Performance: 711323.665 tau/day, 4116.456 timesteps/s
99.6% CPU use with 48 MPI tasks x no OpenMP threads

MPI task timing breakdown:
Section |  min time  |  avg time  |  max time  |%varavg| %total
---------------------------------------------------------------
Pair    | 0.21241    | 0.2365     | 0.25577    |   2.0 | 48.68
Neigh   | 0.031061   | 0.033672   | 0.03565    |   0.6 |  6.93
Comm    | 0.14362    | 0.16435    | 0.18932    |   2.5 | 33.83
Output  | 4.7037e-05 | 4.8804e-05 | 6.239e-05  |   0.0 |  0.01
Modify  | 0.040101   | 0.04693    | 0.055348   |   1.9 |  9.66
Other   |            | 0.004352   |            |       |  0.90

Nlocal:        83.3333 ave          93 max          75 min
Histogram: 2 2 6 9 10 7 5 4 1 2
Nghost:        1727.62 ave        1756 max        1701 min
Histogram: 1 1 6 9 11 3 11 5 0 1
Neighs:        10280.2 ave       11788 max        9329 min
Histogram: 6 5 7 8 9 3 4 4 1 1

Total # of neighbors = 493450
Ave neighs/atom = 123.36250
Neighbor list builds = 142
Dangerous builds = 7

#############################
# L I N E A R  Q U E N C H  #
#############################

# Define solid atoms. This closely follows ten Wolde  Ruiz-Montero and Frenkel  Faraday Discuss  1996  104  93-110
# Compute components of the per-atom q6 vector
compute q6 all orientorder/atom degrees 1 6 components 6 nnn NULL cutoff 1.3 # compute the Q6 parameter.
                                                                             # Use all neighbours within 1.3 unit cell.

# get number of connections
compute coord_number all coord/atom orientorder q6 0.5

# An atom is solid if it has 8 or more connections (of a possible 14)
variable is_solid atom c_coord_number>=8
group solid dynamic all var is_solid    # Must be dynamic to update
dynamic group solid defined

# do clustering
compute cluster solid cluster/atom 1.3 # Create a cluster where all atoms within are solid and max 1.3 units from another member

# define chunks one chunk per cluster
compute clus_chunks solid chunk/atom c_cluster nchunk every compress yes  # Says which atoms are in which chunk

# count the size of each chunk
compute size_chunks solid property/chunk clus_chunks count


# Find the maximum entry in the vector of chunk sizes
variable max_n equal max(c_size_chunks)


# Thermo style which includes this variable
# thermo_style custom step temp pe vol v_max_n

thermo ${N}  # Print the thermo information every 100 steps
thermo 1000  

# Reset the npt fix at a lower temperature (below freezing)
fix 1  all npt temp  ${temp} ${temp}  0.1  iso  5.68  5.68  0.5  mtk yes tchain  5  pchain  5
fix 1  all npt temp  0.45 ${temp}  0.1  iso  5.68  5.68  0.5  mtk yes tchain  5  pchain  5
fix 1  all npt temp  0.45 0.45  0.1  iso  5.68  5.68  0.5  mtk yes tchain  5  pchain  5

dump dmp2 all dcd ${N} traj.dcd
dump dmp2 all dcd 1000 traj.dcd


compute msd all msd com yes
variable twopoint equal c_msd[4]/6/(step*dt+1.0e-6)
fix 9 all vector 10 c_msd[4]
variable fit equal slope(f_9)/6/(10*dt)
thermo_style custom step temp pe c_msd[4] v_twopoint v_fit v_max_n

fix 1 all npt temp 1.25 ${temp} 0.1 iso 5.68 5.68 0.5 mtk yes tchain 5 pchain 5
fix 1 all npt temp 1.25 0.45 0.1 iso 5.68 5.68 0.5 mtk yes tchain 5 pchain 5
run 5000000 # 5000000  # Run for this many steps
Neighbor list info ...
  update every 1 steps, delay 10 steps, check yes
  max neighbors/atom: 2000, page size: 100000
  master list distance cutoff = 3.8
  ghost atom cutoff = 3.8
  binsize = 1.9, bins = 9 9 9
  4 neighbor lists, perpetual/occasional/extra = 1 3 0
  (1) pair lj/cut, perpetual
      attributes: half, newton on
      pair build: half/bin/atomonly/newton
      stencil: half/bin/3d
      bin: standard
  (2) compute orientorder/atom, occasional
      attributes: full, newton on
      pair build: full/bin/atomonly
      stencil: full/bin/3d
      bin: standard
  (3) compute coord/atom, occasional
      attributes: full, newton on
      pair build: full/bin/atomonly
      stencil: full/bin/3d
      bin: standard
  (4) compute cluster/atom, occasional
      attributes: full, newton on
      pair build: full/bin/atomonly
      stencil: full/bin/3d
      bin: standard
Per MPI rank memory allocation (min/avg/max) = 9.769 | 9.775 | 9.780 Mbytes
Step Temp PotEng c_msd[4] v_twopoint v_fit v_max_n 
   12000    1.2673203   -6.4789915 1.7268165e-30 1.1991781e-32 8.3333333e+20            1 
   13000    1.2424228   -6.4813931   0.52328536 0.0033543932  0.043216814            2 
   14000    1.2560205   -6.4862331    1.0208679 0.0060765943  0.041559353            1 
   15000    1.2512726   -6.4778151    1.5648595 0.0086936633  0.042182502            2 
   16000    1.2505364   -6.4821659    2.1111318  0.010995478  0.043473759            2 
   17000    1.2075637   -6.4739582    2.6371653   0.01292728  0.044058969            2 
   18000    1.2338709   -6.4710361    3.1665885  0.014660132  0.044146274            2 
   19000    1.2489746    -6.499291     3.665592  0.016077158  0.044068261            2 
   20000    1.2633493   -6.4813823    4.1374597  0.017239415  0.043547408            2 
   21000    1.2473516   -6.4823267    4.5762115  0.018159569  0.042935752            1 
   22000    1.2508264   -6.4921952    5.1043956  0.019334832   0.04259577            2 
   23000    1.2482886   -6.5424691    5.6490376  0.020467527  0.042427959            4 
   24000    1.2679255   -6.4345947    6.1753336   0.02144213  0.042447755            2 
   25000    1.2432823    -6.488282    6.6512425  0.022170808  0.042528756            3 
   26000    1.2304958   -6.4766015    7.1382616  0.022879043  0.042437124            1 
   27000    1.2719843    -6.504407    7.6618748  0.023647761  0.042332915            3 
   28000    1.2521162   -6.4908256    8.1815405  0.024349822   0.04235448            2 
   29000    1.2536068   -6.4675922    8.5576898  0.024591062  0.042258711            5 
   30000    1.2719252    -6.494062    8.9636973  0.024899159  0.042033091            1 
   31000    1.2749065   -6.4919603    9.4103246  0.025296571  0.041715539            1 
   32000    1.2685573    -6.494529    9.9574436  0.025930842   0.04152737            2 
   33000    1.2633916   -6.5105077    10.449759  0.026388279  0.041422728            2 
   34000    1.2379051   -6.5024365    10.927949  0.026784189  0.041329734            2 
   35000    1.2391261   -6.5089977    11.455854  0.027275843  0.041266003            4 
   36000    1.2396402   -6.5300714    11.963466  0.027693207  0.041232246            2 
   37000    1.2369904   -6.5146419    12.483671  0.028116375  0.041195335            2 
   38000     1.282147   -6.4771515     12.98622  0.028478552  0.041187916            3 
   39000     1.230429   -6.5103986    13.418753  0.028672548  0.041156051            1 
   40000    1.2646366   -6.4795258    13.955421  0.029073794  0.041135307            2 
   41000    1.2552371    -6.528058    14.561203  0.029595941  0.041173801            1 
   42000    1.2331386   -6.4848311    15.206344  0.030171317   0.04127695            1 
   43000    1.2604006   -6.4877865    15.685645  0.030398537  0.041383523            3 
   44000    1.2541688   -6.5051297    16.213293  0.030706993  0.041484397            1 
   45000    1.2258998   -6.5206167    16.691434  0.030910062  0.041572691            1 
   46000    1.2295267   -6.4761749    17.150291  0.031069367  0.041624911            3 
   47000    1.2612934   -6.4678251    17.722755  0.031423324   0.04166811            2 
   48000    1.2321189   -6.5243017    18.411123  0.031963755  0.041774878            2 
   49000    1.2667327   -6.5071374    18.899284  0.032141639  0.041873979            1 
   50000    1.2447124   -6.4705296     19.47742  0.032462366  0.041969409            3 
   51000    1.2258412   -6.5261723    20.137499   0.03290441  0.042090039            4 
   52000    1.2527006   -6.5413645     20.52143  0.032886906  0.042197205            1 
   53000    1.2373556   -6.4920285    20.913373  0.032882661  0.042263873            4 
   54000    1.2288658   -6.5524966    21.443363   0.03309161  0.042296767            2 
   55000    1.2341526   -6.4967258    21.879226  0.033150342  0.042332738            2 
   56000    1.2454271   -6.4770514    22.266058  0.033134015  0.042332271            1 
   57000    1.2394311   -6.5091469    22.746976  0.033255813  0.042315327            4 
   58000    1.2523056   -6.4742395    23.185587  0.033312625   0.04227018            2 
   59000     1.223811   -6.5286922     23.52918  0.033233305  0.042208501            1 
   60000    1.2086948   -6.5054219    24.027839  0.033371998  0.042150062            3 
   61000    1.2758101   -6.5010129    24.719147  0.033769327  0.042106081            3 
   62000    1.2120879   -6.5292741    25.001403  0.033604036  0.042072343            4 
   63000    1.1979892   -6.5239218    25.569273   0.03382179   0.04203409            2 
   64000    1.2460867   -6.5064651    25.879686  0.033697508    0.0419967            2 
   65000    1.2263799   -6.5043633    26.576475  0.034072404  0.041959179            1 
   66000    1.2251154   -6.5682158    26.985804  0.034072985  0.041937266            1 
   67000    1.2680258   -6.4888824    27.609522  0.034340202  0.041919667            1 
   68000    1.2430677    -6.515491    28.090549  0.034424692  0.041904876            2 
   69000    1.2285519   -6.4968941    28.656289  0.034609045  0.041888755            2 
   70000    1.2231589   -6.4959598    28.987983  0.034509503  0.041868386            2 
   71000    1.2131055   -6.4997094    29.476727  0.034597097    0.0418366            4 
   72000    1.2526136   -6.5456459    29.964506   0.03468114  0.041810029            2 
   73000    1.2276065   -6.5221823    30.563993  0.034890403  0.041796426            1 
   74000    1.2216594   -6.5100306    31.111863  0.035035882  0.041785311            2 
   75000    1.2334751   -6.4769458    31.713465  0.035237183  0.041791234            2 
   76000    1.2154182   -6.5291412    32.198656  0.035305544  0.041790185            2 
   77000     1.236271   -6.5253986    32.802564   0.03550061  0.041796473            1 
   78000    1.2375225   -6.5136549    33.561602  0.035856412  0.041813275            1 
   79000    1.2199335   -6.4616442    34.162418  0.036036305  0.041848798            2 
   80000    1.2326275   -6.5253918    34.706176  0.036152267  0.041883473            3 
   81000     1.228399    -6.509338    35.269927  0.036285933  0.041933901            2 
   82000    1.2268238   -6.5225539    35.669925  0.036249923  0.041982096            4 
   83000    1.2112515   -6.5440318    36.185027  0.036330348  0.042018529            2 
   84000    1.2569781   -6.5087328    36.629844  0.036339131   0.04205312            3 
   85000    1.2176572   -6.5439546    37.084034  0.036356896  0.042084143            2 
   86000     1.241179   -6.4856485    37.711794  0.036542436  0.042108774            2 
   87000    1.2369831   -6.5090719    38.002591  0.036400949  0.042127606            3 
   88000    1.2405023   -6.4599537    38.826911  0.036767908  0.042142377            2 
   89000    1.2577889   -6.5074784    39.095075  0.036605875   0.04215389            2 
   90000     1.217779   -6.5064727    39.641356  0.036704959  0.042166044            1 
   91000     1.207177   -6.5176056    40.199191  0.036812446  0.042179935            1 
   92000    1.2634372   -6.4787638    40.735302  0.036897918  0.042199055            3 
   93000    1.2314556   -6.4924198    41.259184  0.036970595  0.042217961            3 
   94000    1.2420124   -6.4869768    41.809694  0.037065331  0.042227322            1 
   95000    1.2275224    -6.507916    42.028543  0.036867143  0.042235454            2 
   96000    1.2532586   -6.5386945     42.23881  0.036665634   0.04222073            2 
   97000    1.2210344   -6.5075788    42.753252  0.036729598  0.042200463            2 
   98000    1.2490324   -6.5494635    43.107193  0.036655776  0.042176206            1 
   99000    1.2146569   -6.5189948    43.826448   0.03689095   0.04215712            2 
  100000    1.2374782   -6.5276702    44.365924  0.036971603  0.042151463            2 
  101000    1.2393812   -6.5188149    44.949945  0.037087413  0.042146053            2 
  102000    1.2633084   -6.5202888    45.479281  0.037156275  0.042148834            1 
  103000    1.2676133   -6.5131487    45.980322  0.037200908  0.042155041            2 
  104000    1.2327342   -6.4714855    46.529234   0.03728304  0.042151667            5 
  105000    1.2675375   -6.4686285    47.127717   0.03740295  0.042154978            2 
  106000     1.241273   -6.5154121    47.484545  0.037330617  0.042155238            2 
  107000    1.2326325   -6.5072039    48.199188  0.037538308  0.042153226            3 
  108000    1.2265259   -6.5176257    48.403633  0.037348482  0.042153513            2 
  109000    1.2293716   -6.5129776    48.698526  0.037231289  0.042134708            8 
  110000    1.2274579   -6.5071887    49.261724  0.037319488  0.042113015            1 
  111000     1.222424   -6.5425206    49.620692  0.037252771    0.0420934            2 
  112000    1.2117558   -6.5298013    50.310025  0.037433054  0.042077853            1 
  113000    1.2172354    -6.547404    50.508642  0.037248261  0.042060169            1 
  114000    1.2492594   -6.5401225    51.030651  0.037303107  0.042041622            3 
  115000    1.2465303   -6.5132104    51.602694  0.037393256  0.042020177            1 
  116000     1.207785   -6.5124501    52.027373  0.037375986  0.041995672            6 
  117000    1.2465449   -6.5134458    52.265964   0.03722647  0.041970696            2 
  118000    1.2082322   -6.5100093    52.799925  0.037288083  0.041942414            6 
  119000    1.2334389   -6.5235474     52.97079  0.037094391  0.041906373            2 
  120000    1.2438253   -6.5005241    53.492687  0.037147699   0.04187223            2 
  121000    1.2428966   -6.5029534     54.13057  0.037280006  0.041842012            1 
  122000    1.2338494   -6.5249086    54.701342  0.037364304  0.041817594            1 
  123000    1.2236934   -6.4864409    55.434524  0.037557266  0.041794143            2 
  124000    1.2502556   -6.5493478    55.537829   0.03732381  0.041769035            2 
  125000    1.2208766   -6.5283499    56.055853  0.037370569  0.041743371            3 
  126000    1.2181143     -6.50803    56.582112  0.037422031  0.041720321            3 
  127000    1.2186349   -6.5160392    57.086609  0.037458405  0.041695668            3 
  128000    1.2389653   -6.5276869    57.096982  0.037172514  0.041666269            3 
  129000    1.2353915   -6.5225269    58.006629  0.037471983  0.041635483            4 
  130000    1.2259336   -6.5442853    58.376491  0.037420827  0.041611619            3 
  131000    1.2422888    -6.498754     58.97477  0.037515757  0.041584655            4 
  132000    1.2183618   -6.5210626    59.700961      0.03769  0.041562621            1 
  133000    1.2444938    -6.489663     60.49652  0.037905087  0.041550004            2 
  134000    1.2292713   -6.5170224    60.806761   0.03781515   0.04154162            1 
  135000    1.2361009   -6.5459712    61.117323  0.037726743  0.041532633            1 
  136000    1.2238693   -6.5284551    61.714901  0.037815503  0.041520721            2 
  137000    1.2351234    -6.541649    62.417489  0.037966843  0.041517809            3 
  138000    1.2254322     -6.50304    63.041925  0.038068795  0.041517963            2 
  139000    1.2284877   -6.5584379    63.415559   0.03801892  0.041517015            3 
  140000    1.2434796   -6.5497418    63.932732  0.038055197  0.041517603            1 
  141000    1.2308788   -6.5414694    64.884749   0.03834796  0.041522361            4 
  142000    1.2264611   -6.5381534    65.020265  0.038157433  0.041531587            2 
  143000    1.2382391   -6.5609055    65.745527  0.038313244  0.041537651            3 
  144000    1.2444279   -6.5332384    66.128227   0.03826865  0.041544832            1 
  145000    1.2278244   -6.5100369    67.013939  0.038513758  0.041551628            3 
  146000     1.223604   -6.4998688    67.458259  0.038503572  0.041562323            1 
  147000    1.2572266   -6.4823631    67.923123  0.038505172  0.041570632            3 
  148000    1.2055293   -6.5466527    68.069162  0.038327231  0.041580305            3 
  149000    1.2161369   -6.5565042    68.600445  0.038367139  0.041585592            1 
  150000    1.2405278   -6.4867783     69.10268  0.038390377  0.041586629            2 
  151000    1.2442453   -6.5600236    69.390727  0.038295103  0.041582919            2 
  152000    1.2349625   -6.4899928    70.085143  0.038423872    0.0415822            2 
  153000    1.2208777   -6.5209109    69.907315  0.038075879  0.041579729            1 
  154000    1.1926766   -6.5578803    70.598446  0.038202622  0.041569943            1 
  155000    1.2501519   -6.5284911    71.165273  0.038260899  0.041559896            3 
  156000    1.2339885   -6.5320676     71.84267  0.038377495  0.041556113            4 
  157000    1.2363374   -6.5376092    72.392766  0.038425035  0.041553664            4 
  158000    1.2512118   -6.5308794    72.918215  0.038458974  0.041550243            1 
  159000     1.231817   -6.5006808    73.705072  0.038629492  0.041547572            3 
  160000    1.2162504   -6.5473305    73.778918   0.03842652   0.04154681            1 
  161000    1.1972222   -6.5480961    74.475727  0.038548513  0.041547181            1 
  162000    1.2324488     -6.56213    74.699623  0.038425732  0.041541637            2 
  163000    1.2147708   -6.5662756    75.036055  0.038361991  0.041534736            3 
  164000    1.2218782   -6.5189083    75.944822  0.038589848  0.041528542            1 
  165000    1.1999536   -6.5089693    76.221485  0.038495699  0.041522252            2 
  166000    1.2323761   -6.5228395    77.007322  0.038658294  0.041520873            3 
  167000    1.2091609    -6.448407    77.653241  0.038749122  0.041520144            1 
  168000    1.2332278   -6.5360566    77.766862  0.038574832  0.041520325            3 
  169000     1.235981   -6.5312909    78.247711  0.038583684  0.041518586            1 
  170000    1.2484882   -6.5168597    79.259282  0.038852589  0.041520316            1 
  171000    1.2426366   -6.5297086    79.564529  0.038774137  0.041519245            2 
  172000    1.2408504   -6.5397839    79.963689  0.038742097  0.041521952            4 
  173000     1.249126   -6.5258862    80.308845  0.038684415  0.041521019            2 
  174000    1.2240999   -6.5176354    80.976954  0.038782066  0.041519526            1 
  175000    1.2214529   -6.5520728    81.352558  0.038739313  0.041516727            2 
  176000    1.2313639   -6.4987879    81.937835  0.038796323  0.041515511            2 
  177000    1.2344786   -6.5013748    82.464615  0.038825148  0.041515259            2 
  178000    1.2316567   -6.5344747    82.969811  0.038843544  0.041515817            4 
  179000    1.2110478   -6.5349434    83.733906  0.038982265  0.041517793            3 
  180000     1.193445   -6.5406277    84.185958   0.03897498  0.041522241            5 
  181000    1.2141683   -6.5563388    84.683685  0.038988805  0.041524687            3 
  182000     1.243958   -6.5755185    85.302811  0.039058064  0.041530525            2 
  183000    1.2375035   -6.5594041    85.929245  0.039129893  0.041537496            2 
  184000    1.1953491   -6.5409959    86.378554  0.039120722  0.041544343            1 
  185000    1.2376414   -6.5730366    86.738717  0.039071494  0.041547753            2 
  186000    1.2440414   -6.5158315    87.364243  0.039141686   0.04154937            1 
  187000     1.219127    -6.536977    87.611193  0.039042421   0.04155055            1 
  188000    1.2287879   -6.5437183     88.13181  0.039065518  0.041553564            3 
  189000    1.2196548   -6.5331006    88.805218   0.03915574  0.041555253            3 
  190000    1.2140562   -6.5466187    89.090261  0.039074676  0.041555224            2 
  191000    1.2100367   -6.5219676     89.33693  0.038977718  0.041554445            1 
  192000    1.2073073   -6.5341576    89.970291  0.039049605  0.041552314            2 
  193000    1.2327105   -6.5454585    90.786841  0.039199845  0.041551524            2 
  194000    1.2000676   -6.5387109    91.506638  0.039306975  0.041555532            3 
  195000      1.21913   -6.5641282    91.331753  0.039030664  0.041557909            2 
  196000    1.2530685    -6.550228    92.048049  0.039136075  0.041559165            2 
  197000    1.2088489     -6.51047    92.859832  0.039280809  0.041562165            1 
  198000    1.2386441   -6.5327372    92.965106  0.039126728  0.041563377            1 
  199000    1.2171571   -6.5733329    93.155905   0.03901001   0.04156147            2 
  200000    1.1979955   -6.5355708      94.0805  0.039200208   0.04155926            2 
  201000    1.2096644    -6.546207    94.354376  0.039118729  0.041559043            1 
  202000    1.2249106   -6.5306354    94.971778  0.039179776  0.041557347            1 
  203000    1.2247969   -6.5491548    95.550233  0.039224234  0.041556462            3 
  204000    1.2267406   -6.4959368    96.120995  0.039265112  0.041556947            2 
  205000    1.2312592   -6.5508651    96.325685  0.039156783  0.041556125            1 
  206000     1.204871   -6.5343788    96.894403  0.039196765  0.041556422            1 
  207000    1.2596209   -6.5350382    97.082105  0.039082973  0.041555264            4 
  208000    1.1951401   -6.5544033    97.808158  0.039185961  0.041553213            3 
  209000    1.2417596   -6.5667855    98.318009  0.039201758  0.041550585            1 
  210000    1.2215748   -6.5801365    98.452847   0.03906859  0.041547658            2 
  211000    1.1963433   -6.5438807    98.988564   0.03909501   0.04154213            1 
  212000    1.1777801   -6.5542316    99.210835   0.03899797  0.041534985            2 
  213000    1.2031134   -6.5489247    100.02092  0.039131815  0.041525671            4 
  214000    1.2166782   -6.5541751    99.718984   0.03883138  0.041514575            1 
  215000    1.2143801   -6.4996763    100.91912   0.03911594  0.041502971            1 
  216000     1.202105   -6.5651909    101.16841  0.039031021  0.041493499            5 
  217000    1.2292299   -6.5330375    101.18885  0.038859005  0.041482618            4 
  218000    1.2379212   -6.5734972    101.90984  0.038956361  0.041471559            2 
  219000    1.2263967   -6.5705329    101.67713  0.038689926  0.041457748            2 
  220000    1.2061339    -6.494902    102.78241  0.038932732  0.041442613            2 
  221000    1.2332556   -6.5440445    102.79767  0.038762321   0.04142811            1 
  222000    1.2197554   -6.5674888    103.43335  0.038826333  0.041414643            2 
  223000    1.2176208   -6.5752737    103.69272  0.038749147  0.041399533            2 
  224000    1.2334801   -6.5460643    104.14674  0.038745068   0.04138226            1 
  225000    1.2313269   -6.5722456    104.70271  0.038778781   0.04136548            6 
  226000    1.2208132   -6.5377186    104.99479  0.038714892  0.041347917            1 
  227000    1.2026011    -6.547498    105.61255  0.038771127  0.041330997            1 
  228000    1.1936916   -6.5515682    106.07025  0.038768367  0.041315878            2 
  229000      1.20678   -6.5298871    106.46114  0.038741317  0.041299554            1 
  230000    1.2478855   -6.5890499    107.40225   0.03891386  0.041287057            1 
  231000    1.2318711   -6.5884676    108.32636  0.039078774  0.041276825            2 
  232000    1.2386853   -6.5591304    108.78712  0.039075834  0.041268875            2 
  233000    1.2404005   -6.5565471    108.77891  0.038905189  0.041261543            3 
  234000    1.2106107   -6.5469686    109.95526  0.039157855  0.041254285            2 
  235000     1.235688   -6.5333316    110.38515  0.039143669  0.041247978            1 
  236000    1.2078215   -6.5268068     110.6009  0.039053991  0.041241229            2 
  237000    1.2291005   -6.5462322     111.3101  0.039138574   0.04123596            3 
  238000    1.2330554   -6.5786417    111.64135  0.039090109  0.041228728            1 
  239000    1.2414929   -6.5571103    111.99862  0.039051124  0.041222136            2 
  240000    1.2047705   -6.4839708    113.55514  0.039428867  0.041217096            1 
  241000    1.2066471   -6.5654326    113.63415  0.039292584  0.041213952            1 
  242000    1.2089793   -6.5894543    113.87005  0.039211448  0.041210458            5 
  243000    1.2082478   -6.5942278     113.8065  0.039028293  0.041204673            2 
  244000    1.2051033    -6.518058    114.61078  0.039143027  0.041197614            4 
  245000    1.2019242   -6.5535002    114.63289   0.03899078  0.041187666            5 
  246000    1.2378431   -6.5653694     114.9997  0.038956539  0.041176359            2 
  247000    1.2179072   -6.5480537    115.63172   0.03901205  0.041165143            3 
  248000    1.2052787   -6.5640413    116.37083  0.039103103  0.041153748            2 
  249000    1.1994888   -6.5832608    116.15623  0.038874239  0.041143015            1 
  250000    1.2128649   -6.5079075    116.94831  0.038982771  0.041131229            3 
  251000    1.2051648   -6.5779238    117.21597  0.038916325   0.04112022            2 
  252000    1.2036357   -6.5671958     117.8829  0.038982441  0.041109498            3 
  253000    1.2099307   -6.5705289    118.21795  0.038938718  0.041097934            3 
  254000    1.2007971   -6.5498006    118.70972   0.03894676  0.041087641            3 
  255000     1.228022   -6.5367683    119.00266  0.038889759  0.041076229            2 
  256000    1.2256153   -6.5384308    119.28738  0.038830527  0.041063876            1 
  257000    1.2135694   -6.6057276    119.31024   0.03868685  0.041051337            2 
  258000    1.2227915    -6.571585    119.91391  0.038731884  0.041036534            4 
  259000    1.2174509   -6.5726409    120.47128  0.038761674  0.041020638            2 
  260000    1.1827313   -6.5646628     120.8406   0.03873096  0.041004518            2 
  261000    1.2098508   -6.5689688    121.14673  0.038680308  0.040988429            3 
  262000    1.2266767    -6.585502    121.41702  0.038618646  0.040972915            8 
  263000    1.2089309   -6.5443918    122.55396  0.038832052  0.040957907            2 
  264000    1.2029055   -6.5406538     122.6788  0.038724368  0.040942491            1 
  265000    1.2150255   -6.5542661    123.63772  0.038879787  0.040925608            1 
  266000    1.2316703    -6.608764    123.25434  0.038613514  0.040910765            1 
  267000    1.1945083   -6.5214683     124.2798  0.038788953  0.040895198            2 
  268000    1.2172137   -6.5665759    124.41206  0.038685342  0.040879211            1 
  269000    1.2293339   -6.5525921    125.18321  0.038780424  0.040864097            1 
  270000    1.2004532   -6.5227868    125.54419  0.038748205  0.040849321            2 
  271000    1.2248932    -6.563667     126.1432  0.038789423  0.040835896            2 
  272000    1.1905742   -6.5853153    126.71091  0.038820744  0.040824337            1 
  273000    1.2118959   -6.5559826    126.73256  0.038685152  0.040813043            1 
  274000    1.1901223   -6.6198154    127.09454  0.038654057  0.040799291            3 
  275000    1.2417482   -6.5419482    127.94351  0.038770759  0.040787067            3 
  276000    1.2097358   -6.5957567    128.56041   0.03881655  0.040775601            1 
  277000    1.2275871   -6.6144058    128.79161  0.038745971  0.040764394            3 
  278000    1.2132028   -6.5606168    130.06397  0.038988001  0.040755577            6 
  279000    1.2030353   -6.5466177    130.13687  0.038870034  0.040746806            2 
  280000     1.207336   -6.5540574    130.37957  0.038803442  0.040736012            1 
  281000    1.2036921   -6.5644726    131.06125  0.038867512  0.040726818            2 
  282000    1.1945034   -6.5618784    131.25335  0.038786451  0.040715821            2 
  283000    1.2128725   -6.5591189    131.91919  0.038845463  0.040705954            4 
  284000    1.2103149   -6.5568934    132.64505   0.03892167  0.040695993            3 
  285000    1.2044775   -6.5879954    132.89648   0.03885862  0.040687106            4 
  286000    1.2117786   -6.5403561    134.25741  0.039119291  0.040680341            5 
  287000    1.2117968   -6.5179883    134.39963  0.039024282    0.0406739            3 
  288000    1.2005517   -6.6010478    134.05648  0.038789489  0.040664536            5 
  289000    1.1936116   -6.5653647      135.015  0.038931662  0.040654033            1 
  290000    1.2070688   -6.5518705    135.38726  0.038904384   0.04064559            2 
  291000    1.2119595   -6.5339185    136.33156   0.03904111  0.040636037            1 
  292000    1.2238114   -6.5888504    135.89593  0.038783084  0.040626971            1 
  293000    1.2313408   -6.6321174    136.40736  0.038796176   0.04061704            3 
  294000    1.2024954   -6.5851381    136.62623  0.038726257  0.040607156            2 
  295000    1.2243813   -6.5508113    137.23875  0.038768008  0.040595707            1 
  296000    1.1717739   -6.6066034    138.05734  0.038867494  0.040585092            3 
  297000    1.1935295   -6.6023957    138.72881   0.03892503  0.040574706            2 
  298000    1.2377075   -6.5740014    139.44912  0.038995839  0.040566254            1 
  299000    1.2044295   -6.5491112    139.98997  0.039016157  0.040559498            1 
  300000    1.1974738   -6.5844645    140.14431  0.038928974  0.040552153            3 
  301000    1.1950782   -6.5823151    140.54588  0.038910819  0.040544612            2 
  302000    1.2396306   -6.5219594    141.55966  0.039061716  0.040537866            1 
  303000    1.2199087   -6.5725866    141.79628  0.038997876  0.040530753            5 
  304000    1.2402395   -6.5759885    141.84614  0.038883263    0.0405229            1 
  305000    1.1896923   -6.5686451    142.60005  0.038961761  0.040516204            4 
  306000     1.196439   -6.5456831    143.10733  0.038972583  0.040508713            2 
  307000     1.180673   -6.6052062      142.981  0.038811346  0.040501265            1 
  308000    1.2077737   -6.5405803    144.51288  0.039099806  0.040494736            2 
  309000    1.1978285   -6.6002718    144.29102  0.038913436  0.040488313            2 
  310000    1.1838412   -6.5718263     144.8813  0.038946586  0.040480483            2 
  311000    1.2147655     -6.60202    145.82835  0.039075121  0.040474598            3 
  312000    1.1723708   -6.5991364    145.89088  0.038966581  0.040469346            2 
  313000    1.1935013   -6.5545709    146.25944  0.038940214  0.040463564            5 
  314000    1.2053426   -6.5414178    147.00679  0.039014541  0.040457297            2 
  315000    1.2163424   -6.5986131    147.02787  0.038896263  0.040450331            1 
  316000    1.2201602   -6.5921421    147.56539  0.038914923  0.040442634            3 
  317000    1.1871321   -6.5659917    147.97216  0.038899095  0.040434717            2 
  318000    1.2247151   -6.5934767    148.80606  0.038995299   0.04042823            1 
  319000    1.2057582   -6.5792619    149.17189  0.038968624  0.040420498            2 
  320000    1.1961016   -6.5409399     149.5556  0.038946772  0.040413513            2 
  321000    1.1977242   -6.5911519    149.58984  0.038834331  0.040406013            1 
  322000    1.1866996   -6.5718195    149.68919  0.038739439  0.040398021            3 
  323000     1.192849   -6.5563282    150.21284  0.038754603  0.040388492            2 
  324000      1.18788   -6.5905054    150.29316  0.038655649  0.040377443            3 
  325000    1.2252249   -6.5540592    150.59255  0.038613476  0.040366535            5 
  326000    1.2220147   -6.5822158    150.99053  0.038596761  0.040355105            1 
  327000    1.2107643    -6.588925     151.5495  0.038621178  0.040343256            2 
  328000    1.2070056   -6.5694558    152.72284  0.038801535  0.040330722            3 
  329000    1.1906592   -6.5739937    152.47595   0.03862106  0.040318885            2 
  330000    1.2283213    -6.593174     152.9482  0.038623282  0.040307176            5 
  331000    1.2024313   -6.5932057    153.17681  0.038564152  0.040295067            4 
  332000    1.2014645   -6.5989489    153.70613  0.038580855  0.040283362            2 
  333000    1.2016635   -6.5980288    154.42656  0.038645286  0.040271739            2 
  334000     1.223158   -6.5633983    154.93752  0.038657067  0.040260574            3 
  335000     1.221055   -6.5865618    155.67323  0.038724683  0.040249547            2 
  336000    1.1736266   -6.5798686    155.90838  0.038667752  0.040239533            2 
  337000    1.2102285   -6.5610436    156.13347  0.038608671  0.040229427            4 
  338000      1.19069   -6.5793586    156.72168  0.038639467  0.040218688            1 
  339000    1.2054696   -6.5594819     156.9606  0.038584217  0.040208719            1 
  340000     1.204309   -6.5806924    157.73209  0.038659826  0.040198184            1 
  341000    1.2193088   -6.5983144    158.37626  0.038703877  0.040189597            2 
  342000    1.1908931   -6.6031542    159.10168  0.038767465   0.04018078            1 
  343000    1.2276409   -6.5996192    159.36784  0.038719107  0.040171193            2 
  344000    1.2165061   -6.6211114    159.28565  0.038586639  0.040162792            2 
  345000    1.2051794   -6.5838048    160.74765  0.038827936  0.040154336            1 
  346000    1.1938764   -6.6108949    161.08926  0.038797991  0.040146396            2 
  347000    1.2006032   -6.5888282    161.39676  0.038760028  0.040139224            3 
  348000    1.2049637   -6.6366456    161.73493  0.038729629  0.040131797            1 
  349000    1.1994838   -6.6234165     161.9702  0.038674833  0.040124028            4 
  350000    1.1971374    -6.632255     162.6632  0.038729334  0.040116992            1 
  351000    1.1802748   -6.5719351    162.88725  0.038672186  0.040109013            1 
  352000    1.1820596   -6.5962972    163.33698  0.038668792  0.040101152            3 
  353000    1.1810714   -6.6349439    163.80348  0.038669377  0.040093655            1 
  354000    1.2031959    -6.572821    164.21799   0.03865772  0.040084956            2 
  355000      1.16643   -6.6391949    164.17195  0.038538016  0.040075954            5 
  356000    1.2169719   -6.5374741    165.75174  0.038799565  0.040066796            3 
  357000    1.2097444   -6.6000098    165.25096  0.038573986  0.040058238            4 
  358000    1.1909671   -6.6477007     165.8707  0.038610498  0.040049844            2 
  359000    1.1682156    -6.617153    166.61917  0.038676688  0.040042209            4 
  360000    1.1712157   -6.5818614    167.59235  0.038794525  0.040035574            2 
  361000    1.1690668   -6.5740782    167.48849  0.038663087   0.04002853            1 
  362000    1.2124356    -6.558503    167.86744  0.038643518  0.040021865            5 
  363000    1.1883808   -6.5559111    168.66351  0.038719814  0.040014931            7 
  364000     1.200603    -6.574394    169.22598  0.038742211  0.040008454            4 
  365000    1.1904148   -6.5955077    169.77262  0.038760871  0.040002672            2 
  366000    1.2000179   -6.5727156    170.22517  0.038758008  0.039997699            4 
  367000    1.1696911   -6.6026268    170.15195  0.038635773  0.039991557            4 
  368000    1.1811053   -6.5790242    171.36285  0.038804993  0.039984274            2 
  369000    1.1955649   -6.5798384    171.34013    0.0386947  0.039977623            1 
  370000    1.2068229   -6.5486196    172.09727  0.038760647   0.03997153            2 
  371000     1.191597   -6.5768308    173.03605  0.038867037  0.039964637            3 
  372000    1.1676024   -6.6048224    172.63245  0.038672144  0.039958068            2 
  373000    1.1790586   -6.6076491    173.44824  0.038750723  0.039951087            2 
  374000    1.2045242   -6.6041249    173.55052  0.038669901  0.039944432            3 
  375000    1.1949397   -6.5662533    175.27004  0.038948898  0.039937529            2 
  376000    1.1759426   -6.5966392    174.52201  0.038679524  0.039931718            2 
  377000    1.2061938     -6.61042     174.8856  0.038657294  0.039924644            5 
  378000    1.2326429   -6.5410024    175.66397  0.038726624  0.039918353            2 
  379000    1.1997314   -6.6136791    176.22719  0.038748283  0.039912086            3 
  380000    1.1877462   -6.6133305    176.72894  0.038756346   0.03990569            2 
  381000    1.2049496   -6.5947516     177.1274  0.038741777  0.039899306            3 
  382000    1.1756665   -6.5943586    177.21351  0.038659142  0.039892334            2 
  383000    1.1865476   -6.5947909    178.26147  0.038786222  0.039885719            5 
  384000    1.1884735   -6.6024694    178.27864  0.038688941  0.039878884            3 
  385000    1.1796294   -6.6010133    178.83537  0.038708954  0.039872529            2 
  386000    1.1816301   -6.6002797     178.8355  0.038608701   0.03986642            2 
  387000    1.1832568   -6.5840177    179.30692  0.038610448  0.039859148            2 
  388000    1.1881329   -6.6504983    178.50866  0.038339489  0.039850602            3 
  389000    1.1965002   -6.5989858    179.71703  0.038499792  0.039841009            1 
  390000    1.1903932   -6.6196928    180.05372  0.038473018  0.039832171            2 
  391000     1.191449   -6.6480804    180.62747  0.038496903  0.039823178            2 
  392000    1.1919667   -6.6039156     181.9347  0.038676594  0.039814202            2 
  393000    1.1937733   -6.5880125    181.33219  0.038450421  0.039806611            1 
  394000    1.1779993   -6.5883245    182.33139  0.038564168  0.039797512            3 
  395000    1.1720613   -6.6037797    183.17246  0.038643979  0.039789125            2 
  396000    1.2082958   -6.5652774    183.49838  0.038614978  0.039780238            1 
  397000    1.1928214   -6.5633433    183.36697  0.038490127  0.039771665            5 
  398000     1.207297   -6.5942641    183.79833  0.038483737   0.03976434            4 
  399000     1.180099   -6.5817916    184.20609  0.038472451  0.039755513            1 
  400000    1.1686338   -6.6360928    184.05831   0.03834548  0.039745625            1 
  401000    1.1998238   -6.5826459    184.59137  0.038360634  0.039735653            2 
  402000    1.1967045   -6.5703966    185.19374  0.038390078  0.039725176            2 
  403000    1.2070302   -6.5726625    185.49499  0.038357111  0.039714747            2 
  404000    1.1630504   -6.6310246    186.18429   0.03840435  0.039703681            3 
  405000    1.2089536   -6.6027316     186.2565  0.038324383   0.03969216            1 
  406000    1.2019132   -6.5983925    187.03074  0.038388904  0.039681979            3 
  407000    1.1880567   -6.6161883    187.07915  0.038304495  0.039670289            2 
  408000    1.1855198   -6.5944071    187.14976  0.038225032  0.039658626            2 
  409000    1.1694187   -6.6178667    187.76622  0.038257176  0.039646856            3 
  410000    1.1986594   -6.6110722     188.2403  0.038260224   0.03963604            1 
  411000    1.1788261   -6.6024563    188.26008  0.038171144  0.039624644            3 
  412000    1.1858825   -6.6103154    189.29309  0.038287438  0.039613608            1 
  413000     1.223584   -6.5919283    189.87303   0.03831175  0.039602678            4 
  414000    1.1907489    -6.579381    190.22974  0.038291009  0.039592445            4 
  415000    1.2144191   -6.5970533    190.47431  0.038247852  0.039581698            1 
  416000    1.1816828   -6.6103495    190.61044  0.038183182   0.03957106            4 
  417000    1.1704241   -6.5891144    191.59365    0.0382881  0.039560055            2 
  418000     1.171544   -6.6387012    191.50914  0.038179653  0.039549101            2 
  419000    1.2056573   -6.6158057    191.92293  0.038170829  0.039539476            3 
  420000    1.1862003   -6.6310648    193.08132  0.038309786  0.039529241            4 
  421000    1.1883287    -6.624928    193.53801  0.038309187  0.039518892            1 
  422000    1.1992146   -6.6317513    193.83182  0.038276426  0.039509843            1 
  423000    1.2093355   -6.6091388    194.70729   0.03835841   0.03950172            4 
  424000    1.1910891   -6.6433267    194.62944  0.038252642  0.039493383            1 
  425000    1.1636422   -6.6224261    195.93271  0.038418178  0.039484217            2 
  426000    1.1699803   -6.6277188    195.21735  0.038188058  0.039474161            2 
  427000     1.166666   -6.5882463    196.16165  0.038282914  0.039464374            2 
  428000     1.193716   -6.5771266    196.57753  0.038274442    0.0394548            2 
  429000    1.1673614   -6.6063997    197.31077  0.038327656   0.03944508            7 
  430000    1.1687345   -6.6000485    197.16615  0.038210494  0.039434295            2 
  431000     1.190985   -6.6285108    197.10418  0.038109857  0.039423777            4 
  432000    1.1562333   -6.5862705    198.06953  0.038207856  0.039412846            2 
  433000    1.1838895   -6.6028056    197.93169  0.038093089  0.039401615            3 
  434000    1.1925598   -6.6101148    198.25838  0.038068046   0.03939113            3 
  435000    1.1946984    -6.597717    198.76131  0.038076878  0.039380326            1 
  436000    1.1592511   -6.6056961    199.49439  0.038129662  0.039369652            3 
  437000    1.1549331   -6.6434031    199.68371  0.038078511  0.039358771            2 
  438000    1.1599632    -6.610241    200.41103  0.038129953   0.03934824            1 
  439000    1.1914611   -6.6052055    200.46137  0.038052651  0.039336836            8 
  440000    1.1937898   -6.6648216    201.11066  0.038089139  0.039325197            2 
  441000    1.1992235   -6.6203121    201.57781  0.038091045  0.039315004            2 
  442000     1.182349   -6.6239159    201.53009   0.03799587  0.039303959            3 
  443000    1.1877382   -6.6344097    202.30778  0.038056392  0.039292808            2 
  444000    1.1813157   -6.6122547      202.832   0.03806907  0.039281918            2 
  445000    1.1798215    -6.612425    202.96354  0.038008154  0.039270818            1 
  446000    1.1790486   -6.5839604    203.59263  0.038040477  0.039259116            2 
  447000    1.1808228   -6.5867475    203.64457  0.037965058  0.039247985            3 
  448000    1.2042785   -6.6269708     203.7882  0.037907032  0.039237165            2 
  449000    1.1796159    -6.630692    204.05436  0.037872005  0.039225901            2 
  450000    1.1501973   -6.6524552    205.04875   0.03797199    0.0392149            2 
  451000    1.1849547   -6.6453798    205.79426  0.038025548  0.039203517            1 
  452000    1.1647253   -6.6216546    205.78217   0.03793919  0.039192087            3 
  453000    1.1706441   -6.6522561    205.52444  0.037808028  0.039180827            2 
  454000    1.1720547   -6.6596337     206.2429  0.037856626  0.039168749            2 
  455000    1.1556594   -6.6518041     206.8164  0.037878461  0.039157629            1 
  456000    1.1894276   -6.6118958    207.74199  0.037964546  0.039146339            2 
  457000    1.2149761     -6.63691    207.96662  0.037922432  0.039135285            2 
  458000    1.1716997   -6.5997692    208.78532  0.037988595  0.039125141            1 
  459000    1.1656968   -6.6161378    209.71982  0.038075494  0.039114526            2 
  460000    1.1762101   -6.6172977    209.45147  0.037944106  0.039104682            2 
  461000    1.1745242   -6.6372094    209.49039  0.037868834  0.039094383            2 
  462000    1.2009536   -6.6174508    210.51343  0.037971397   0.03908479            2 
  463000    1.1417313   -6.6436223    210.87885  0.037955157  0.039075385            2 
  464000    1.1643629   -6.6510581    210.75209  0.037850592  0.039066025            3 
  465000    1.1858494   -6.6017089    212.76083  0.038129182  0.039056937            2 
  466000    1.1876892   -6.6266657    212.73104  0.038042032  0.039048675            5 
  467000    1.1800978   -6.6185287    213.55077  0.038106848  0.039041187            1 
  468000    1.1805871   -6.6428323    214.61834  0.038215517   0.03903321            2 
  469000    1.1654801   -6.6321723    213.81979  0.037992145   0.03902519            4 
  470000    1.1485598   -6.6482865    214.86049  0.038095832  0.039016923            1 
  471000    1.1737159   -6.6682059    214.87731  0.038017924  0.039009474            2 
  472000    1.1895206   -6.6193073    215.69375  0.038081523  0.039001292            1 
  473000    1.1589527   -6.6188934    215.44358  0.037956938  0.038992432            1 
  474000    1.2034326   -6.6267955     215.2094  0.037835689  0.038982752            3 
  475000     1.180551   -6.6374193    215.52654  0.037811673  0.038971992            3 
  476000    1.1949043   -6.6060734    216.63711  0.037926664   0.03896207            3 
  477000    1.1614508   -6.5936738    216.52846  0.037828172    0.0389525            2 
  478000    1.1556119    -6.642165    217.38072  0.037897615  0.038943068            2 
  479000    1.1871904   -6.6206194    218.09162  0.037942175  0.038934203            2 
  480000    1.1862503   -6.6272991      218.376  0.037912499  0.038925557            1 
  481000     1.158154   -6.6419488     217.8259  0.037738374  0.038916121            2 
  482000    1.1712597   -6.6087914    218.94674  0.037853863  0.038906378            1 
  483000    1.1879891   -6.6407818    219.06487  0.037795871  0.038897207            1 
  484000    1.1665563   -6.5959915    219.77317  0.037839733  0.038887482            1 
  485000    1.1698821   -6.6077477    221.12478  0.037993948  0.038878067            4 
  486000    1.1751948   -6.6182253    220.74954  0.037851431  0.038869367            2 
  487000    1.1596426   -6.6378842    221.24068  0.037857748  0.038860531            2 
  488000    1.1699443   -6.6230803    221.83213   0.03788117  0.038850857            3 
  489000    1.1776307    -6.653302    221.78584  0.037795815  0.038841727            2 
  490000    1.1896704   -6.6478474     221.5379  0.037676514  0.038832032            2 
  491000    1.1887056   -6.6221351    222.15149  0.037703918  0.038821233            2 
  492000    1.1727584   -6.6212861    222.65493  0.037712557  0.038810651            2 
  493000    1.1916002   -6.6454335    222.99552   0.03769363  0.038799885            2 
  494000    1.1808504    -6.646133    222.86202  0.037594807  0.038788778            2 
  495000    1.1581595   -6.6342795    224.29987  0.037760921  0.038778222            2 
  496000    1.1560945   -6.6455704    224.32017  0.037688201  0.038768001            2 
  497000    1.1884146   -6.6071354    224.45168   0.03763442  0.038757095            1 
  498000    1.1717176   -6.6237864    224.65869   0.03759349  0.038745978            1 
  499000     1.170346   -6.6458814    225.41857  0.037645052  0.038734949            3 
  500000    1.1804781   -6.6195613    225.35071  0.037558451  0.038723286            2 
  501000    1.1750594   -6.6440674    225.37638  0.037487755  0.038712027            2 
  502000    1.1604387   -6.6395082    226.07565  0.037529159  0.038700841            2 
  503000    1.1950068   -6.6057388    226.64496  0.037548867  0.038688954            2 
  504000    1.1681861   -6.6669148    226.32673  0.037421748  0.038676879            1 
  505000     1.199621   -6.6393249     226.5605  0.037386221  0.038664318            8 
  506000    1.1862238   -6.6545885    227.49021   0.03746545  0.038651387            2 
  507000    1.1978602   -6.6176486    227.81411  0.037444791  0.038638539            3 
  508000    1.1759304   -6.6373396    228.68863  0.037514539  0.038626207            1 
  509000    1.1488976   -6.6851364    227.99286  0.037326926  0.038613502            1 
  510000    1.1543867    -6.649582    228.54461   0.03734389  0.038601122            2 
  511000     1.169318   -6.6332499    229.55313  0.037435279   0.03858937            2 
  512000    1.1588729   -6.6122099    229.90041  0.037418687  0.038577061            2 
  513000    1.1735815   -6.6905524    230.27792  0.037407069  0.038564957            2 
  514000    1.1781384   -6.6607298    230.46528  0.037364669  0.038552359            1 
  515000    1.1614063   -6.6416881    230.77929  0.037342928  0.038540433            2 
  516000    1.1710808   -6.6545184    230.78374  0.037271276   0.03852825            3 
  517000    1.1610624    -6.674331    231.74907  0.037354782  0.038515975            3 
  518000    1.1657953   -6.6791728    232.09871  0.037338917  0.038503671            2 
  519000    1.1789609   -6.6596019    231.81199  0.037220936  0.038491753            3 
  520000      1.16861   -6.6408283     232.5207  0.037262932  0.038479707            1 
  521000    1.1535484   -6.6640072     233.2683  0.037310988  0.038467603            2 
  522000      1.17234   -6.6580718     232.7781  0.037161255  0.038455946            3 
  523000    1.1807377   -6.6476518    233.82644  0.037257241  0.038444079            2 
  524000     1.175279   -6.6480463    235.24216  0.037411285  0.038432882            1 
  525000    1.1667778   -6.6514028    234.75256  0.037262311  0.038421891            1 
  526000    1.1957824   -6.6663451    235.50334  0.037310414  0.038409927            2 
  527000    1.1936413   -6.6696397    235.39578  0.037222609  0.038397474            2 
  528000    1.1494878   -6.6458212    236.23096  0.037283926  0.038386141            2 
  529000    1.1430524   -6.6584967    237.21028   0.03736772  0.038375593            3 
  530000    1.1834651   -6.6681808     237.8774  0.037402106  0.038364766            2 
  531000    1.1540036   -6.6167778    238.19567  0.037381618  0.038354219            3 
  532000    1.1698232   -6.6511898    238.69452  0.037389492  0.038343647            5 
  533000    1.1615048   -6.6240336    239.12821   0.03738715  0.038333509            3 
  534000     1.153813   -6.6275816    239.29988  0.037343926  0.038323774            2 
  535000    1.1789982   -6.6038212     239.9422  0.037374174  0.038314212            2 
  536000    1.1677659   -6.6561051    241.49182   0.03754537  0.038304866            2 
  537000    1.1782552   -6.6414953    240.63067  0.037341817  0.038295228            1 
  538000    1.1412996   -6.6568618    240.61595  0.037270128   0.03828605            2 
  539000     1.173084   -6.6309864    241.97519  0.037411131  0.038276759            2 
  540000    1.1745011   -6.6344441    242.70108   0.03745387  0.038268182            3 
  541000    1.1447631   -6.6345418    243.77932  0.037550728  0.038259869            1 
  542000    1.1613508   -6.6215571    243.59456  0.037453038  0.038251446            2 
  543000    1.1635433   -6.6237728     244.0711  0.037457198  0.038243539            2 
  544000    1.1633139   -6.6608336    243.94171  0.037368522  0.038234697            3 
  545000     1.188473   -6.6604163    245.49994  0.037538217  0.038226547            3 
  546000    1.1859145   -6.6764728    245.09816  0.037408143  0.038218603            3 
  547000    1.1564077    -6.626617    246.31541  0.037525199  0.038211129            2 
  548000     1.164634   -6.6506392    246.58528  0.037497762  0.038203505            3 
  549000     1.173928    -6.649805    246.67773  0.037443493  0.038195423            2 
  550000    1.1640266   -6.6339665     247.1096  0.037440849  0.038187323            4 
  551000    1.1630515   -6.6337511    246.95253  0.037349142  0.038178845            2 
  552000    1.1801495   -6.6759986     248.3067  0.037485915   0.03816993            2 
  553000    1.1632541   -6.6371671    247.81056  0.037343364  0.038161292            2 
  554000    1.1288217   -6.6378516    248.17172  0.037330282  0.038152588            2 
  555000    1.1794752   -6.6565158    249.45583   0.03745583  0.038144349            3 
  556000    1.1826517   -6.6492123    249.03896  0.037325983  0.038136402            1 
  557000    1.1825507   -6.6350924    249.56385    0.0373375  0.038128053            2 
  558000    1.1709906   -6.6788576    249.41506  0.037248366  0.038119084            2 
  559000    1.1782369   -6.6351309    250.28404  0.037311276  0.038110439            3 
  560000    1.1634589   -6.6304133    251.10397  0.037366662  0.038102039            1 
  561000    1.1822795   -6.6142942     251.6804   0.03738568  0.038093733            1 
  562000    1.1653884   -6.6904713    251.61277   0.03730913  0.038085092            3 
  563000    1.1365749   -6.6106057    252.39676  0.037358905  0.038075998            2 
  564000    1.1937857    -6.599892    252.86011  0.037361127  0.038067171            2 
  565000     1.151497    -6.626804    252.89423  0.037300034  0.038058945            1 
  566000    1.1870953   -6.6716223    252.65125  0.037198359  0.038049656            2 
  567000    1.1518092   -6.6040301    255.51934  0.037554283  0.038040859            1 
  568000    1.1662831   -6.6311907    253.87253  0.037246556  0.038032139            2 
  569000    1.1550575   -6.6594768    253.86938  0.037180635  0.038022988            3 
  570000     1.181352   -6.6523436    254.75479  0.037244852  0.038013868            2 
  571000    1.1842128   -6.6440219    255.07581  0.037226476  0.038005179            1 
  572000    1.1379469   -6.6428619    255.52028  0.037226148  0.037996271            4 
  573000    1.1710046   -6.6523142    254.38774  0.036996471  0.037987203            3 
  574000    1.1529116   -6.6905413    254.40917   0.03693513  0.037977458            1 
  575000    1.1841778   -6.6583644    256.38128  0.037156708  0.037967732            3 
  576000    1.1532858   -6.6135729    257.09877  0.037196003  0.037958626            2 
  577000    1.1224805   -6.6805991     256.8257    0.0370921  0.037948743            2 
  578000    1.1517754   -6.6537412    256.17379  0.036933937  0.037938899            2 
  579000    1.1525447   -6.6573674    258.02567  0.037136682  0.037929143            2 
  580000    1.1576347   -6.6658673    258.11598  0.037085629  0.037919627            2 
  581000    1.1479816   -6.6837099    257.53178  0.036938006  0.037909959            2 
  582000    1.1339996   -6.6986878    258.54579  0.037019729  0.037899759            3 
  583000    1.1724884   -6.6593845    258.25225  0.036914272  0.037889709            2 
  584000    1.1690312   -6.6521392    259.72642  0.037061418  0.037879303            2 
  585000    1.1343541   -6.6661539    259.40014  0.036951587  0.037869037            4 
  586000    1.1255374   -6.6536478    259.72076  0.036934123  0.037859023            5 
  587000    1.1763434   -6.6529746    260.23213    0.0369438  0.037848871            1 
  588000    1.1794585   -6.6537815    260.32823   0.03689459  0.037839153            1 
  589000    1.1372681   -6.6629373    261.83135  0.037044616  0.037829647            2 
  590000    1.1562162   -6.6576685    262.19837  0.037033667  0.037820141            3 
  591000    1.1305379   -6.6582904    263.06087  0.037092622  0.037810589            3 
  592000    1.1453845   -6.6746924    261.69464  0.036837646  0.037801109            3 
  593000    1.1595542   -6.6398926    262.53547  0.036893687  0.037791315            4 
  594000    1.1827426   -6.6497457    263.47358  0.036963184  0.037781203            1 
  595000      1.15691   -6.6344425    264.15844  0.036996981  0.037771394            4 
  596000    1.1539166    -6.632308    264.50644  0.036983563  0.037761814            2 
  597000    1.1405844   -6.6675209    264.17976  0.036876013  0.037752169            5 
  598000    1.1466101   -6.6564748    264.29384  0.036830245  0.037742349            3 
  599000    1.1609077   -6.6508233    265.56749  0.036945951  0.037733223            1 
  600000    1.1614763   -6.6998707    265.73595  0.036907771  0.037724393            2 
  601000    1.1601481   -6.6672063    266.58377  0.036963917  0.037715092            1 
  602000    1.1480778   -6.6778197    265.92391  0.036811173  0.037705114            1 
  603000    1.1547842    -6.722266    266.79744  0.036870846  0.037695352            2 
  604000    1.1346951   -6.6226379    267.35812  0.036887158  0.037686201            2 
  605000    1.1801976   -6.6873669    268.27664  0.036952705  0.037676615            2 
  606000    1.1603024   -6.6195073    268.64744  0.036942717  0.037666946            3 
  607000    1.1498869   -6.7013457    268.13658  0.036811722    0.0376579            3 
  608000    1.1630746   -6.6657286    269.85154   0.03698623  0.037648212            1 
  609000    1.1504387   -6.6757109     269.5615   0.03688581  0.037639422            3 
  610000     1.136624   -6.7274627    269.15558  0.036769888   0.03763014            2 
  611000    1.1652949   -6.6623726    270.15352  0.036845816  0.037620472            3 
  612000    1.1358197   -6.6544119    269.81546  0.036739577   0.03761133            1 
  613000    1.1492153   -6.6477613    270.98514  0.036838655  0.037601915            2 
  614000     1.143909   -6.6685948    271.44271  0.036840758  0.037592578            5 
  615000    1.1652697   -6.6971606    272.04637  0.036862652  0.037583546            2 
  616000    1.1274424   -6.6959787    273.10832  0.036946472   0.03757471            2 
  617000    1.1414055    -6.735389    273.32227  0.036915488  0.037566023            1 
  618000    1.1721586   -6.6754924     273.2883  0.036851174  0.037557287            3 
  619000    1.1686089   -6.6740632    273.93442  0.036878624  0.037548858            3 
  620000    1.1667877   -6.6739193    274.24479  0.036860859  0.037540421            2 
  621000    1.1464927   -6.6241559    274.78394  0.036873851  0.037532027            2 
  622000    1.1559651    -6.702946    274.80277  0.036817091  0.037523718            2 
  623000    1.1391109   -6.6959322    275.76895  0.036887232  0.037515315            3 
  624000    1.1499337   -6.6469868     276.4258  0.036915839   0.03750721            3 
  625000    1.1573154   -6.6471319     276.1918  0.036825573  0.037499237            2 
  626000    1.1698268   -6.6750915    276.94843   0.03686747   0.03749068            2 
  627000    1.1194079   -6.6354272     277.2644  0.036850664  0.037482485            2 
  628000    1.1439326   -6.6694802    277.15741  0.036777787  0.037474442            4 
  629000    1.1530777   -6.6293269    278.31815  0.036873099  0.037466029            1 
  630000    1.1518795   -6.6548206    278.36192  0.036820359  0.037457878            1 
  631000    1.1595275   -6.6974763    278.51665  0.036782441  0.037449191            1 
  632000    1.1474853   -6.7111048    278.80679  0.036762498  0.037440426            2 
  633000    1.1410491   -6.6721067    279.28808  0.036767783  0.037431533            1 
  634000    1.1354008   -6.6703812    279.21029  0.036699566  0.037422976            4 
  635000    1.1360479   -6.6917226     279.8877   0.03673067  0.037414429            2 
  636000    1.1421425    -6.682754    280.55834  0.036760789   0.03740631            2 
  637000    1.1461013   -6.6635426    281.08744  0.036772297  0.037397581            2 
  638000    1.1532705   -6.6641461     282.1663  0.036855578  0.037389167            2 
  639000    1.1260431   -6.7051564    282.17921  0.036799585  0.037381278            1 
  640000    1.1419078   -6.7059148    281.67643  0.036676619  0.037373055            1 
  641000    1.1680075   -6.7003179    282.80577   0.03676622  0.037365054            2 
  642000    1.1326232    -6.677072    282.62941  0.036686061  0.037356664            2 
  643000    1.1470301      -6.6995    283.98412  0.036804578  0.037348203            3 
  644000      1.16567   -6.6735673    283.32699  0.036662395  0.037339799            3 
  645000    1.1585107   -6.6764123    284.10452   0.03670601  0.037331568            3 
  646000    1.1764543   -6.6628244    285.18267  0.036788271  0.037323573            3 
  647000    1.1612139   -6.6837807    285.75936  0.036805688  0.037315527            1 
  648000    1.1452032   -6.6926638    285.08998  0.036662806   0.03730722            5 
  649000    1.1668918   -6.7071522    285.07086   0.03660386  0.037298668            2 
  650000     1.172503    -6.699825    286.14187  0.036684855  0.037290208            4 
  651000    1.1522058    -6.687665    286.78758  0.036711159  0.037281981            2 
  652000    1.1183576   -6.6781037    287.11886  0.036697196  0.037273878            2 
  653000    1.1501506   -6.7137759    287.37906  0.036674204  0.037265563            4 
  654000    1.1476817   -6.6913164    286.71889  0.036534007  0.037256865            2 
  655000    1.1305994   -6.6972686    288.10974  0.036655183  0.037248691            1 
  656000    1.1429697   -6.6886391    288.39236  0.036635209  0.037240537            1 
  657000    1.1511615   -6.7017201    287.90589  0.036517744  0.037233004            2 
  658000    1.1336192   -6.6488259    289.52177  0.036666891   0.03722498            2 
  659000     1.141567   -6.6928277    291.05418   0.03680503  0.037217307            3 
  660000    1.1647243    -6.685382    289.92131  0.036606226  0.037209058            2 
  661000    1.1473429   -6.6634187    290.68645  0.036647309  0.037201316            4 
  662000    1.1535789   -6.7072701    290.66486  0.036589233  0.037193948            2 
  663000    1.1542452   -6.6698766    292.66676  0.036785666  0.037186364            3 
  664000    1.1489945   -6.7069711     291.4982  0.036583609  0.037178871            3 
  665000    1.1546768   -6.6403412    292.42095  0.036644229  0.037171372            3 
  666000    1.1503985   -6.7044017    293.00489  0.036662273  0.037164073            2 
  667000    1.1267321   -6.6761733    293.18192  0.036629425  0.037156371            5 
  668000    1.1465476   -6.6628636    294.28709  0.036712461  0.037148591            3 
  669000    1.1606492   -6.7164672    293.57436  0.036568804  0.037140681            2 
  670000    1.1693469   -6.6774248    295.15662  0.036711022  0.037132739            2 
  671000    1.1387219    -6.674531    294.78166  0.036609744  0.037125137            4 
  672000    1.1131654   -6.6855142    295.73916  0.036674003   0.03711793            3 
  673000    1.1343623   -6.6816767    295.26418  0.036560696  0.037110021            3 
  674000    1.1305334   -6.6926553    296.13912  0.036614629  0.037102369            2 
  675000     1.137213   -6.6976157    296.29336  0.036579427  0.037094584            1 
  676000    1.1451671   -6.6865216    296.71319   0.03657707  0.037087071            2 
  677000    1.1453249   -6.7093208      297.359  0.036602535  0.037079765            3 
  678000    1.1648544   -6.7037149    297.17636  0.036526102  0.037072582            2 
  679000     1.121927   -6.6738311    297.22291   0.03647802  0.037064943            4 
  680000     1.143858   -6.6985789    296.35603  0.036318141  0.037056983            3 
  681000    1.1383891    -6.676767    298.63807  0.036544062  0.037048674            4 
  682000    1.1370657   -6.6664648    298.95137  0.036528759  0.037040493            2 
  683000    1.1707136   -6.6649696    299.35066  0.036523995  0.037031948            4 
  684000    1.1438145   -6.7225064    298.47591  0.036364024  0.037023967            2 
  685000    1.1235552   -6.7058637    299.35877  0.036418342   0.03701537            2 
  686000    1.1309329   -6.7363507    298.69209  0.036284267  0.037006471            1 
  687000    1.1529142   -6.6587751    299.98359  0.036388111  0.036997842            2 
  688000    1.1481033   -6.7306959    300.35066  0.036379683  0.036989942            2 
  689000    1.1366364   -6.6634018    300.95054  0.036399436  0.036981498            2 
  690000    1.1063201   -6.6798573    301.40358  0.036401399  0.036973121            1 
  691000    1.1547556   -6.6807895    302.70852  0.036506092  0.036964623            4 
  692000     1.176276    -6.649225    303.19669  0.036512126  0.036956211            3 
  693000    1.1449003   -6.6851129     301.7638  0.036287134  0.036948193            2 
  694000    1.1181669   -6.7004591    304.13346  0.036519387  0.036940036            2 
  695000    1.1702825   -6.6824683    303.72677  0.036418078  0.036932501            2 
  696000    1.1488419   -6.6706693    304.49254   0.03645744  0.036924704            3 
  697000    1.1300139   -6.7188219    304.26714  0.036378185  0.036917196            2 
  698000    1.1385786    -6.735278    305.24016  0.036442235  0.036909345            2 
  699000    1.1501507   -6.6737361    304.86249  0.036345075  0.036901527            1 
  700000     1.131212   -6.7052439    304.84574  0.036291159  0.036893596            1 
  701000    1.1258135   -6.6785377    305.51127  0.036318506  0.036885221            3 
  702000    1.1379739   -6.6875898    305.86238   0.03630845  0.036876978            3 
  703000    1.1336882    -6.663145    305.89589  0.036260774  0.036868964            3 
  704000    1.1551426   -6.6857575    306.24451  0.036250534  0.036860739            2 
  705000    1.1646552   -6.7196948    306.56745  0.036237288  0.036852443            2 
  706000    1.1071084   -6.6888914    308.09828  0.036366652  0.036844498            1 
  707000    1.1306887   -6.7130469    308.24335  0.036332314  0.036836253            5 
  708000    1.1695293   -6.7143527    309.17883  0.036391105  0.036828179            2 
  709000    1.1235571   -6.7380565    308.84137  0.036300114  0.036820189            2 
  710000    1.1411986   -6.7244172    309.60597  0.036338729  0.036812764            2 
  711000    1.1321769   -6.6730313    310.41882   0.03638289  0.036805557            2 
  712000    1.1529429   -6.7158656    310.23496  0.036310271   0.03679772            6 
  713000    1.1446433   -6.7095141    310.76581   0.03632139  0.036790085            2 
  714000    1.1439826   -6.6765841    312.29109   0.03644854  0.036782712            2 
  715000    1.1354044   -6.7399543    311.21442  0.036272077  0.036775043            3 
  716000    1.1342136    -6.710648    311.04575  0.036201787  0.036767356            1 
  717000    1.1180699   -6.6736797    312.23241  0.036289216  0.036760188            2 
  718000    1.1282549   -6.7230281    312.00274  0.036212018  0.036752768            5 
  719000    1.1105289   -6.6904892    312.67505  0.036239575  0.036745361            1 
  720000    1.1361054   -6.6699901    314.43851  0.036393346  0.036738382            2 
  721000    1.1238363   -6.7410956    313.85825  0.036275804  0.036731217            2 
  722000    1.1349433   -6.7494443    313.66122  0.036202819  0.036723246            4 
  723000    1.1197303   -6.7409856     314.6647  0.036268407  0.036715582            5 
  724000    1.1232446    -6.709603    314.38837  0.036186507  0.036708242            1 
  725000    1.1316119   -6.7129923    315.29879   0.03624124  0.036700531            3 
  726000    1.1423319   -6.6540489     316.7403  0.036356784  0.036693215            3 
  727000    1.1461697   -6.6586315    316.90073  0.036325163  0.036685709            3 
  728000    1.1517296    -6.683111    316.50961  0.036230496   0.03667822            2 
  729000    1.1372409    -6.724652    315.35729  0.036049073  0.036670689            2 
  730000    1.1305101   -6.6992468    317.50286  0.036244619   0.03666305            9 
  731000    1.1269633   -6.6910193    317.59532  0.036205577  0.036655835            2 
  732000    1.1351339   -6.7068934    317.33655  0.036126656  0.036648299            2 
  733000    1.1470812   -6.6783134    318.52561  0.036212552  0.036640853            2 
  734000    1.1499198   -6.7052661    318.03829   0.03610789   0.03663336            4 
  735000    1.1231076   -6.7310256    319.16821  0.036186872   0.03662567            2 
  736000    1.1443702   -6.7346362    319.38764   0.03616255  0.036618568            4 
  737000    1.1511515   -6.6873489    319.27547  0.036100799  0.036611455            3 
  738000    1.1501471   -6.7196929     319.8998   0.03612238  0.036604205            2 
  739000    1.1545039   -6.6722642    321.15694  0.036215261   0.03659742            2 
  740000    1.1367159   -6.6858484    320.97075  0.036145354  0.036590476            3 
  741000    1.1232265   -6.7101236    320.81271  0.036078802  0.036582977            2 
  742000    1.1316362   -6.7170645    321.26088  0.036080512  0.036575696            2 
  743000      1.11286   -6.7243561     322.6621  0.036189109  0.036568315            1 
  744000    1.1591096   -6.7362963    321.55135  0.036016056  0.036560959            3 
  745000    1.1430922   -6.7079899    323.48747   0.03618428  0.036553766            3 
  746000    1.1340621   -6.6838813    324.10408  0.036204656  0.036546694            2 
  747000    1.1258504   -6.7626862    322.90377  0.036022285  0.036539877            4 
  748000     1.122584   -6.7343024       324.71  0.036175356  0.036533643            2 
  749000    1.1352826   -6.6913537      325.477  0.036212394  0.036527011            2 
  750000    1.1623744   -6.7421686    324.82716  0.036091907  0.036519892            3 
  751000    1.1711692   -6.6799129    326.16989  0.036192842  0.036512994            1 
  752000    1.0868744   -6.7247055    325.63986  0.036085978  0.036506712            3 
  753000    1.1301588    -6.705492    327.20382  0.036211136  0.036500088            2 
  754000    1.0968282   -6.7111138    327.49407  0.036195189  0.036493367            3 
  755000     1.116339   -6.6996348    326.92585  0.036084531  0.036486375            2 
  756000    1.1327456   -6.7243856    327.09973  0.036055967   0.03647892            2 
  757000    1.1340222   -6.7155682    327.45726  0.036047695  0.036471183            2 
  758000    1.1392024   -6.7320242    327.14884  0.035966231  0.036463573            3 
  759000    1.0973283   -6.7056466    327.96941  0.036008939  0.036456222            2 
  760000    1.1232003   -6.7593735    327.81534  0.035944665  0.036448835            3 
  761000    1.1078055   -6.7254245    328.63267  0.035986933  0.036441316            2 
  762000    1.1264022   -6.7080242    328.56323  0.035932112  0.036434276            3 
  763000    1.1439816   -6.7078272    329.42102  0.035978704  0.036426735            2 
  764000    1.1420913   -6.7293088    329.33107    0.0359218  0.036418983            5 
  765000    1.1259932   -6.7184219    330.01015  0.035948818  0.036411577           10 
  766000    1.1422704   -6.7143485    331.12367  0.036023028  0.036404213            2 
  767000    1.1343527   -6.6960688    331.79586  0.036049093  0.036397483            2 
  768000    1.1674578   -6.6991979    332.19676  0.036045655  0.036390806            2 
  769000     1.136575   -6.7294188    332.38472   0.03601915  0.036383895            2 
  770000    1.1427405   -6.7193666    331.86985  0.035916651  0.036376247            2 
  771000    1.1543591    -6.703489    332.53222  0.035941658  0.036368768            3 
  772000     1.155144   -6.6960838    333.72381  0.036023727   0.03636109            2 
  773000    1.1542332   -6.7353426    333.12024  0.035912057  0.036353467            1 
  774000    1.1265641   -6.7100008    332.57353  0.035806797  0.036345655            2 
  775000    1.1325188   -6.7313692    333.20239  0.035828214  0.036337847            1 
  776000    1.1440679   -6.7013152     334.5074  0.035922187  0.036330281            4 
  777000    1.1270143   -6.7363566    334.73619  0.035900492  0.036323202            3 
  778000     1.117708   -6.7145496    335.67255  0.035954643  0.036316299            4 
  779000    1.1369195   -6.7166513    336.74866  0.036023605  0.036309464            1 
  780000    1.0847715   -6.7324655    336.26735  0.035925999  0.036302302            2 
  781000    1.1158795   -6.7386757     336.7985  0.035936673  0.036295333            1 
  782000    1.1313517   -6.7266994    336.76219  0.035886849  0.036288065            3 
  783000     1.088821   -6.6860455    338.49198  0.036025115  0.036280839            3 
  784000    1.1350699   -6.7322367    336.80554  0.035799908  0.036273651            3 
  785000    1.1250923   -6.7250369    338.23142  0.035905671  0.036266417            2 
  786000    1.1107375   -6.6857502    338.14597   0.03585093  0.036259272            2 
  787000    1.1252317   -6.7361734    338.68209  0.035862144  0.036251939            2 
  788000    1.1154275    -6.724617    339.04939  0.035855477  0.036244635            1 
  789000    1.1274254   -6.7194411    338.98121  0.035802832   0.03623737            2 
  790000     1.102894   -6.7423384    339.50388  0.035812645  0.036229939            3 
  791000    1.0889559   -6.7386412    339.11224   0.03572611   0.03622214            2 
  792000    1.1361565   -6.7344496    341.21475  0.035902226  0.036214837            2 
  793000    1.1104938   -6.7301817    340.50563  0.035782433  0.036207477            3 
  794000    1.1169645    -6.739227    342.14096  0.035909001  0.036199898            2 
  795000    1.0959957   -6.7076634    341.91315  0.035839953  0.036192436            2 
  796000    1.1334082   -6.7575246    342.37188  0.035842952  0.036185084            2 
  797000    1.1080195   -6.7397857    341.39327  0.035695658  0.036177817            2 
  798000    1.1216471    -6.721632    342.42832  0.035759015  0.036170599            3 
  799000    1.1432376   -6.7222324    342.86703  0.035760015  0.036163293            2 
  800000    1.1425711    -6.757353    342.39555  0.035666203  0.036155956            2 
  801000    1.1493875   -6.6952954    343.56129  0.035742956  0.036148485            3 
  802000    1.1123032   -6.7230697    344.31766  0.035776981  0.036141041            3 
  803000    1.1167875   -6.7491026     343.9735   0.03569671  0.036133714            2 
  804000    1.1182335   -6.6954745    344.05157  0.035660403  0.036126249            1 
  805000     1.091731   -6.7119542     346.4665  0.035866097  0.036118792            4 
  806000    1.1498046   -6.7107167    345.87471  0.035760413  0.036110764            2 
  807000    1.1357082   -6.7218605     345.4288  0.035670054  0.036103111            2 
  808000    1.0963955   -6.7083463    344.68928  0.035549637  0.036095109            2 
  809000    1.1468453   -6.7133277    344.98179  0.035535825  0.036087135            2 
  810000    1.1313857   -6.7109439    346.84825  0.035683976  0.036079144            1 
  811000    1.0988015   -6.6826587    344.82968   0.03543256  0.036070705            2 
  812000     1.131326   -6.7500956    346.44079  0.035554268  0.036062158            4 
  813000     1.132324   -6.7465251    345.99358  0.035464696  0.036053454            1 
  814000    1.1221721   -6.7567574    346.62167  0.035485428  0.036044671            5 
  815000    1.0987711   -6.7036715     346.4856  0.035427976  0.036035734            1 
  816000    1.1043858   -6.7667457    346.52921  0.035389012  0.036026946            1 
  817000    1.1316649   -6.6874528    346.64806   0.03535782  0.036017726            1 
  818000    1.1196961    -6.771452    346.44938  0.035294354  0.036008397            4 
  819000     1.141302   -6.7470991    347.46649  0.035354751  0.035998749            2 
  820000    1.1278937   -6.7510106    347.25772  0.035290418  0.035989141            3 
  821000    1.1040673   -6.7750038    347.92446  0.035315109  0.035979571            6 
  822000    1.1489792   -6.7719092    348.37637  0.035317962  0.035970007            2 
  823000    1.1437083   -6.7439989    348.72039  0.035309882  0.035960452            3 
  824000    1.1128443   -6.7193445    347.93865   0.03518797  0.035950775            3 
  825000    1.1377022   -6.7059782    350.27411  0.035381223  0.035941376            5 
  826000     1.111012    -6.733236    348.46312  0.035155682  0.035931583            1 
  827000    1.1019004   -6.7093163    350.02951  0.035271011  0.035921847            1 
  828000    1.0926225   -6.7498863    350.24938  0.035250542  0.035912461            5 
  829000    1.1348302   -6.7600386     350.8384   0.03526723  0.035903479            2 
  830000    1.1471968   -6.7556995    352.03505  0.035344885  0.035894725            5 
  831000    1.1402254    -6.701944    351.34744  0.035233398  0.035885609            2 
  832000    1.1135163   -6.7523707    351.88764  0.035245156  0.035876697            2 
  833000    1.1352662   -6.7518853    352.54097  0.035268204  0.035868022            2 
  834000     1.110627   -6.7072594    354.93891  0.035465519  0.035859616            5 
  835000    1.0966884   -6.7344992    353.23935  0.035253428  0.035851283            3 
  836000    1.1102099   -6.7128359    354.90945  0.035377736  0.035843005            3 
  837000    1.1090576   -6.7719056    353.61681  0.035206771   0.03583474            5 
  838000    1.1013047    -6.771757    355.10223  0.035312473  0.035826253            1 
  839000    1.1214852   -6.7512817    356.29821  0.035389174  0.035817799            2 
  840000    1.1013729   -6.7387408     356.9399  0.035410704  0.035809668            1 
  841000    1.1089332   -6.7171084    356.52242  0.035327231  0.035801359            5 
  842000    1.1291611   -6.7143743    356.28517  0.035261794   0.03579324            3 
  843000    1.1093219   -6.7434014    357.28517  0.035318818  0.035785058            2 
  844000    1.1126717   -6.7875855    356.53189  0.035202596   0.03577664            3 
  845000    1.1156859   -6.7880317    356.91071  0.035198295  0.035768016            3 
  846000    1.1206245   -6.7075293    357.80328   0.03524461  0.035759772            3 
  847000    1.1000391   -6.7521793    359.23742  0.035344098  0.035751574            2 
  848000    1.1183622   -6.7055915    358.79386   0.03525883  0.035743064            3 
  849000    1.0876359   -6.7633673    358.14268  0.035153384  0.035734588            2 
  850000    1.0998077   -6.7536281    358.63176  0.035159977  0.035725832            2 
  851000    1.1223274   -6.7589805    359.43623  0.035197437  0.035717142            2 
  852000    1.1207644    -6.767319    360.22397  0.035233173  0.035708507            1 
  853000    1.1263535   -6.7507161     359.0946  0.035081536  0.035699879            3 
  854000    1.1289192   -6.7426159    360.32427  0.035160448   0.03569131            3 
  855000    1.0888124   -6.7244417    361.55306   0.03523909  0.035683292            2 
  856000    1.1177604    -6.748225    362.53885  0.035293891  0.035675181            2 
  857000    1.1084409   -6.7523049    362.47352  0.035246356  0.035666824            4 
  858000    1.0980455    -6.739048     363.2513  0.035280818  0.035658771            1 
  859000     1.117365   -6.7500637    362.84896  0.035200714  0.035651005            3 
  860000    1.0819597   -6.7254838    365.47255  0.035414007  0.035643343            1 
  861000    1.1327232   -6.7817708    364.02849   0.03523311  0.035635885            2 
  862000    1.1116071   -6.7534968    365.55415  0.035339728    0.0356286            3 
  863000    1.1195842   -6.7406628    364.76647  0.035222718  0.035621181            1 
  864000    1.0977567   -6.7305705    365.44024  0.035246936  0.035613989            4 
  865000    1.1120158   -6.7677769    366.62954  0.035320765  0.035606923            2 
  866000    1.1104372   -6.7276754    367.79472  0.035392102  0.035599833            2 
  867000    1.1070046   -6.7555377    367.12548  0.035286955   0.03559273            3 
  868000    1.1272955   -6.7437481    367.49133  0.035281426  0.035585356            2 
  869000    1.1209109   -6.7500669    368.01712  0.035291247  0.035578154            1 
  870000    1.1320165    -6.720022    369.06209  0.035350774  0.035571337            1 
  871000     1.127787   -6.7182072    369.18727  0.035322165  0.035564198            3 
  872000    1.0982423   -6.7457561    369.68673  0.035329389  0.035557008            1 
  873000    1.1133783   -6.7557354    369.93085  0.035312223  0.035549702            5 
  874000    1.1138659   -6.7527167    369.75841  0.035255379  0.035542505            2 
  875000    1.1220953   -6.7336812    369.63745  0.035203567  0.035535491            3 
  876000    1.1054978   -6.7525184    371.02972  0.035295826   0.03552841            1 
  877000    1.1092079   -6.7424298    370.42479  0.035198099  0.035521473            3 
  878000    1.1148465   -6.7450065    371.84118  0.035292443  0.035514533            3 
  879000    1.1325616   -6.7947883    370.76812  0.035150561  0.035507243            1 
  880000     1.130227   -6.7594783    373.00721  0.035322652  0.035500228            2 
  881000     1.139722    -6.746085    372.24312  0.035210283  0.035493318            2 
  882000    1.1205697   -6.7762871    372.15764  0.035162287  0.035486437            2 
  883000    1.1201385   -6.7195193    374.09611  0.035305409  0.035479552            3 
  884000    1.1104465   -6.7246744    373.29044  0.035189521  0.035472642            1 
  885000    1.1022483   -6.7435184    373.35732  0.035156056  0.035465835            2 
  886000    1.1180429   -6.7696021    374.21932  0.035197453  0.035459003            2 
  887000    1.1297787   -6.7020199    375.99366  0.035324471  0.035452563            3 
  888000    1.0789586   -6.7687446    375.84022  0.035270291  0.035446243            3 
  889000    1.1011674   -6.7565033    375.93128  0.035239153  0.035439577            2 
  890000    1.1236543   -6.7719369    376.02861  0.035208671  0.035433081            2 
  891000    1.1161877   -6.7727429    377.29519  0.035287616  0.035427085            2 
  892000    1.1066208   -6.7557269    377.12774  0.035232412   0.03542059            3 
  893000    1.1206208   -6.7455306    376.41061  0.035126036  0.035414144            3 
  894000    1.0756739   -6.7392814    377.74777  0.035211388   0.03540773            3 
  895000    1.0978782   -6.7542289    377.29888  0.035130249  0.035401227            4 
  896000    1.1131851   -6.7143957    378.86643  0.035236833  0.035394827            4 
  897000    1.1161678   -6.8026458    378.96436  0.035206648  0.035388411            1 
  898000    1.0977247   -6.7388802    379.86641  0.035251152  0.035382203            2 
  899000    1.1145811   -6.7713168    378.66548   0.03510062  0.035375601            4 
  900000    1.1207087   -6.7516855    379.10424  0.035102245  0.035368833            2 
  901000    1.1206635   -6.7439811     380.6729   0.03520837  0.035362144            6 
  902000    1.1081114   -6.7911816    379.94248  0.035101855  0.035355604            2 
  903000    1.1030983   -6.7027302    381.69479  0.035224695  0.035349018            2 
  904000    1.1169431   -6.7481386    380.70385  0.035094382  0.035342347            2 
  905000    1.1042679   -6.7935171     380.9964  0.035082542  0.035335542            2 
  906000    1.1142891   -6.7595335    381.62364  0.035101513  0.035328813            3 
  907000    1.1041211   -6.7938795     381.9533    0.0350931  0.035321912            3 
  908000    1.1160047   -6.7666863    382.35091  0.035090943  0.035314957            2 
  909000    1.1114806   -6.7561038    383.69089  0.035175183  0.035307881            2 
  910000     1.091397   -6.7668701    382.91673  0.035065634  0.035301239            4 
  911000    1.1152453   -6.7255885    383.39509  0.035070901  0.035294469            2 
  912000    1.0894589   -6.7329042    383.95152   0.03508329  0.035287921            3 
  913000    1.1186841   -6.7664894    383.19837   0.03497612  0.035280891            2 
  914000    1.0916178   -6.7583917    384.05535  0.035015987  0.035273863            2 
  915000    1.0779028   -6.7569615    384.33071  0.035002797  0.035266939            1 
  916000    1.0977372   -6.7611017    384.60082  0.034989157  0.035260228            5 
  917000     1.117764   -6.7955922    385.14554  0.035000503  0.035253466            3 
  918000    1.1099039   -6.7435179    385.46984  0.034991816   0.03524663            3 
  919000    1.1120325   -6.7747537    386.88443  0.035082012  0.035239801            3 
  920000    1.0566984   -6.7944238    386.51362  0.035010292  0.035233061            2 
  921000    1.1204307   -6.7942154    386.53422  0.034974143  0.035226426            2 
  922000    1.1167269   -6.7456667    387.30247  0.035005646   0.03521975            4 
  923000    1.1176076   -6.7540992     388.1458   0.03504386  0.035212995            2 
  924000    1.0948785   -6.7616895    386.76547  0.034881445  0.035206222            1 
  925000    1.1223477   -6.7765722    385.84244   0.03476058  0.035199316            3 
  926000    1.0981499   -6.7658393    388.18007  0.034933411  0.035192403            2 
  927000    1.1048549   -6.8022247    388.29584  0.034906135  0.035185527            1 
  928000    1.0984742   -6.7853358    389.72343  0.034996716  0.035178779            2 
  929000    1.1083414   -6.7895301    388.67318  0.034864835  0.035171944            3 
  930000    1.1112512   -6.7319268     391.1803  0.035051999  0.035165442            4 
  931000    1.1033782   -6.7824814    391.08568  0.035005879  0.035158628            3 
  932000    1.0658523   -6.7638587    391.57518  0.035012086   0.03515201            4 
  933000    1.1397069   -6.7710338    390.45783  0.034874762  0.035145434            1 
  934000    1.0863715   -6.7605565    392.44714  0.035014913  0.035139171            3 
  935000    1.1000628    -6.784416    392.22935  0.034958052  0.035132875            3 
  936000    1.1055887   -6.7711162    392.92997  0.034983081  0.035127055            4 
  937000     1.106874   -6.7729394    393.79808  0.035022952  0.035120835            2 
  938000    1.1163135    -6.792824    394.31547   0.03503158  0.035114699            2 
  939000    1.1264776   -6.8045621    394.06032  0.034971629  0.035108979            3 
  940000    1.1123267   -6.7777464    395.21463  0.035036758  0.035103142            2 
  941000    1.0888379   -6.7784184    396.49177  0.035112625  0.035097712            4 
  942000    1.0861873    -6.750686     396.6992  0.035093701  0.035092296            2 
  943000    1.1181535   -6.7911812    395.24358  0.034927853  0.035086565            2 
  944000    1.0956751    -6.763902    395.66172  0.034927765  0.035080567            3 
  945000    1.1050667   -6.7872391    396.92588  0.035002282  0.035074708            2 
  946000    1.1026804   -6.7521863    396.35872  0.034915321  0.035069005            4 
  947000    1.1016851   -6.7125387    398.36956  0.035055399  0.035063143            3 
  948000    1.1011056    -6.753976     396.3096  0.034837342  0.035057058            2 
  949000    1.0966479   -6.7824165    397.68972  0.034921823  0.035051022            1 
  950000    1.0808723   -6.7171829    399.23894   0.03502096   0.03504509            2 
  951000    1.0996968   -6.7642293     399.8753  0.035039897  0.035039281            2 
  952000    1.0888266   -6.7473732    399.50961   0.03497108  0.035033264            2 
  953000    1.0942336   -6.7568802    398.72671  0.034865924  0.035027175            5 
  954000    1.0911905   -6.7820593     399.3342  0.034882442  0.035021217            2 
  955000    1.0965211   -6.7322374    400.64847    0.0349606  0.035014962            1 
  956000    1.0900021   -6.8118314    398.26231  0.034716032  0.035009002            2 
  957000    1.1053421   -6.7590037    401.53734  0.034964937  0.035002853            2 
  958000    1.1024557   -6.7549248      401.364  0.034913362  0.034996924            1 
  959000    1.1123832   -6.7945626    401.73574  0.034909258  0.034990985            2 
  960000    1.0942963   -6.8351877    400.73455  0.034785985  0.034984916            2 
  961000    1.0843752   -6.7912868    402.84403  0.034932712  0.034978761            2 
  962000    1.0930126   -6.7901314    402.10996   0.03483281  0.034972733            3 
  963000    1.0985016   -6.7736028    402.99371  0.034873114  0.034966727            2 
  964000    1.1054609   -6.7785256    403.02379  0.034839539  0.034960807            6 
  965000    1.1054963    -6.822756    403.07441  0.034807807  0.034954962            5 
  966000    1.0941481   -6.7912249     404.0558  0.034856436  0.034948745            1 
  967000    1.0782389   -6.7261372    404.63839  0.034870596  0.034942856            2 
  968000    1.0839428   -6.7511928    405.87932  0.034941401  0.034937026            2 
  969000    1.0930951   -6.7730463    405.12603   0.03484056  0.034931145            2 
  970000    1.0851354   -6.7612227    404.27321  0.034731375  0.034925295            5 
  971000    1.1078809   -6.7651803    405.48073  0.034799239  0.034919489            2 
  972000    1.1084642   -6.7851555    407.10143  0.034902386  0.034913819            1 
  973000    1.0799675   -6.7877019    406.23864  0.034792621  0.034907913            5 
  974000      1.08821     -6.80117     405.8875  0.034726857  0.034902166            2 
  975000    1.0848898   -6.7928573    408.67949  0.034929871  0.034896239            1 
  976000    1.1067315   -6.7627681    408.27397  0.034859458   0.03489035            4 
  977000    1.0844856   -6.7611507    406.86335  0.034703459  0.034884408            1 
  978000    1.0945366   -6.7939598    408.39194  0.034798222  0.034878587            4 
  979000    1.1113179   -6.7843822    409.43657  0.034851598  0.034872486            2 
  980000    1.0924826   -6.8165115    408.82456  0.034763993  0.034866617            3 
  981000    1.0886152   -6.7995609    409.42229  0.034779331  0.034861018            3 
  982000    1.0932356   -6.7912975    411.73666  0.034940314  0.034855152            2 
  983000    1.0943309   -6.7474684    412.17105  0.034941594  0.034849602            3 
  984000    1.0730724   -6.7616351    411.77366   0.03487243  0.034844201            3 
  985000    1.0810114   -6.7649787    412.00828  0.034856877  0.034839001            3 
  986000     1.082239   -6.8148079    411.24814   0.03475728  0.034833588            3 
  987000    1.0927541   -6.7895453    412.63266  0.034838962  0.034827919            2 
  988000    1.0840709   -6.7898292    411.84212  0.034737021  0.034822469            2 
  989000    1.0915758   -6.8207499      411.369  0.034662032  0.034816847            4 
  990000    1.0910629   -6.7904725     412.7279  0.034741406   0.03481103            1 
  991000    1.1212698   -6.7942791    413.74955   0.03479226  0.034805347            1 
  992000    1.0984418   -6.7774673    412.67497  0.034666916  0.034799772            4 
  993000    1.0905665   -6.7937046    413.94745  0.034738793   0.03479411            1 
  994000    1.0993222   -6.7581204    415.49389  0.034833491  0.034788518            2 
  995000    1.0838633   -6.8015064    415.76568  0.034821246  0.034783212            3 
  996000    1.0795297   -6.7877643    414.87171  0.034711488   0.03477766            4 
  997000    1.0852992   -6.7993768    416.12371  0.034781319  0.034772476            1 
  998000    1.0661015   -6.7774733    415.46217   0.03469123  0.034766905            4 
  999000    1.1077391   -6.7919889    416.65826  0.034756278  0.034761292            2 
 1000000    1.0477053   -6.8039732    415.40855  0.034617379  0.034755629            3 
 1001000    1.0900215   -6.8085712     415.3278  0.034576074  0.034749777            2 
 1002000    1.0686355   -6.8021855    416.11593  0.034607114  0.034743802            2 
 1003000    1.0893843   -6.7773149    417.93383  0.034723648  0.034738053            2 
 1004000    1.0851114   -6.7873442    419.86122  0.034849039  0.034732565            4 
 1005000    1.1054222   -6.8203233    417.26766  0.034599308  0.034727056            4 
 1006000    1.1153567   -6.7686504    418.66754  0.034680876  0.034721357            3 
 1007000    1.1133527   -6.7864818    419.14331  0.034685808   0.03471583            2 
 1008000    1.0887401   -6.8310318    418.11029  0.034565996  0.034710172            4 
 1009000    1.0965921   -6.7954177    419.57742  0.034652909  0.034704279            1 
 1010000    1.0900652   -6.7940917    418.38218  0.034519982  0.034698412            3 
 1011000    1.0867155   -6.8116902    419.65043  0.034590375  0.034692563            1 
 1012000    1.0729838   -6.8052536    420.95785  0.034663854  0.034686693            2 
 1013000     1.098067   -6.8042257     420.3187  0.034577057  0.034680732            3 
 1014000    1.0836176   -6.7467056    422.45735  0.034718717  0.034674911            3 
 1015000    1.0744941   -6.8083162    420.41211  0.034516594  0.034669185            7 
 1016000     1.099613   -6.7917116    421.77401  0.034594325  0.034663632            1 
 1017000    1.0641729   -6.8125222    422.12586   0.03458914  0.034657918            2 
 1018000    1.1107176   -6.7998985    423.17926  0.034641394  0.034652499            3 
 1019000    1.0906947   -6.7814726    422.04139  0.034514343  0.034647109            2 
 1020000     1.091467   -6.7862005    424.26803   0.03466242  0.034641519            4 
 1021000    1.1045415   -6.8275716    423.89884  0.034598338  0.034636038            2 
 1022000    1.0883119   -6.7612369     424.6889  0.034628905  0.034630696            2 
 1023000    1.0752787   -6.8096159    423.98309  0.034537561  0.034625298            2 
 1024000    1.0846374   -6.8029496    423.34011  0.034451506  0.034619644            3 
 1025000    1.0812646   -6.7829943    424.07439  0.034477593  0.034613903            3 
 1026000    1.0898633   -6.8255709    424.65629  0.034491252  0.034608079            1 
 1027000    1.0849612   -6.7791029    425.34869  0.034513851  0.034602405            3 
 1028000    1.0913206   -6.8139898    425.97993  0.034531447   0.03459677            5 
 1029000    1.0934934   -6.8024563    426.98254  0.034579085  0.034590909            2 
 1030000    1.0919102   -6.7672943    427.83806  0.034614729  0.034585207            3 
 1031000    1.1097869   -6.8431495    427.15051  0.034525583  0.034579675            2 
 1032000    1.0915469   -6.8264053    427.64151  0.034531776  0.034574127            5 
 1033000    1.0893938   -6.8189187    428.45994  0.034564371   0.03456853            1 
 1034000     1.078245   -6.7897992    428.29122  0.034517345   0.03456308            3 
 1035000    1.0974123   -6.8293298    428.74276  0.034520351  0.034557554            1 
 1036000    1.0838593   -6.7824426    429.81327   0.03457314  0.034552233            3 
 1037000    1.0929686   -6.8227637     429.4711  0.034512303  0.034546886            4 
 1038000    1.1105924   -6.8038717    430.59271    0.0345691  0.034541553            3 
 1039000    1.0936909   -6.7997672    429.34941  0.034436109  0.034536028            3 
 1040000    1.0777015   -6.7717531    432.01801  0.034616828  0.034530671            1 
 1041000    1.0783509   -6.7661062    433.76965  0.034723795  0.034525706            3 
 1042000    1.0944007    -6.797645    433.53582  0.034671771  0.034520914            2 
 1043000    1.0871839    -6.789809    431.78606  0.034498726  0.034515932            2 
 1044000    1.1014263   -6.8163866     434.0989  0.034650295  0.034510758            2 
 1045000    1.0649638   -6.7884617    433.75761  0.034589921  0.034505477            2 
 1046000    1.0877809   -6.7984354    433.44137  0.034531658   0.03449996            3 
 1047000    1.0926132   -6.8095826    434.71955   0.03460041  0.034494777            4 
 1048000    1.0899947   -6.8177308    434.61025  0.034558703  0.034489561            3 
 1049000    1.0805876   -6.7785781    434.41229  0.034510032  0.034484351            2 
 1050000    1.0820093   -6.8084536    433.93449  0.034439246  0.034479239            2 
 1051000    1.0932086   -6.8095109    433.60429  0.034380296  0.034474018            4 
 1052000    1.0609927   -6.7759668    435.35855  0.034486577  0.034468824            3 
 1053000    1.0874267   -6.7489296    435.89482  0.034496266  0.034463356            3 
 1054000    1.0691962   -6.8318052    435.49715  0.034432096  0.034457687            2 
 1055000     1.103616   -6.8181266    434.66473  0.034333707  0.034451949            3 
 1056000    1.0863859   -6.7851614     436.2362  0.034425205  0.034446344            2 
 1057000    1.0745846   -6.8327295    436.22628  0.034391855  0.034440823            2 
 1058000    1.0826707   -6.7832525    437.79133  0.034482619  0.034435225            3 
 1059000    1.0956569   -6.8002805    437.52246    0.0344289  0.034429634            1 
 1060000    1.0799411    -6.787552    437.81455  0.034419383  0.034424359            4 
 1061000    1.0894026   -6.7876169    436.92808  0.034317317  0.034418823            3 
 1062000    1.0934917   -6.8218043    438.41787  0.034401905  0.034413157            3 
 1063000    1.1069987   -6.7897986    438.53708  0.034378887  0.034407548            2 
 1064000    1.0483573    -6.778352    439.56123  0.034426788  0.034402085            1 
 1065000    1.0746255   -6.7917437    440.26889  0.034449835  0.034396444            1 
 1066000     1.083871   -6.7897571    439.85651  0.034385281  0.034390751            1 
 1067000    1.0889159   -6.7822975     441.9674  0.034517916  0.034385367            3 
 1068000    1.0689208   -6.8311255    439.93684  0.034327157  0.034379997            2 
 1069000    1.0542817   -6.8293209    439.37006  0.034250862  0.034374432            2 
 1070000    1.0654168   -6.8202612    442.10209  0.034431627  0.034368952            3 
 1071000    1.0890662   -6.8140881    442.33458  0.034417568   0.03436345            2 
 1072000    1.0770284   -6.8284972    441.77677    0.0343421  0.034357818            4 
 1073000     1.093645    -6.822173    440.82343  0.034236054  0.034352125            2 
 1074000    1.0971668    -6.810009     441.8073  0.034280517  0.034346263            2 
 1075000    1.0752426    -6.800292    442.69484   0.03431743  0.034340668            2 
 1076000    1.0875982    -6.845755    442.47634  0.034268614  0.034335216            2 
 1077000    1.0966823   -6.8224295    443.50932  0.034316723  0.034329656            4 
 1078000    1.0867135   -6.7912158    443.38931  0.034275612  0.034323784            4 
 1079000    1.0758994   -6.8396065    443.62041  0.034261694  0.034318096            8 
 1080000    1.0630959   -6.8420155    445.18529  0.034350717  0.034312424            3 
 1081000    1.0878728   -6.8399098    444.05807  0.034232044  0.034306666            2 
 1082000    1.0681983   -6.8294635    446.45446  0.034384971  0.034300872            2 
 1083000    1.0802073   -6.8213499    444.35905  0.034191986  0.034295275            4 
 1084000     1.050691   -6.8187941    445.39265  0.034239902  0.034289748            3 
 1085000    1.0596231   -6.8112179    445.81953  0.034241132  0.034284039            3 
 1086000    1.0960292   -6.7845909     446.7128  0.034278146    0.0342783            3 
 1087000    1.0518082   -6.8568918    445.73195  0.034171416  0.034272419            1 
 1088000    1.0863702   -6.8304505    446.81226  0.034222753  0.034266419            4 
 1089000     1.066781   -6.8473995     445.6948  0.034105816   0.03426043            1 
 1090000    1.0838278   -6.8420305    446.74494  0.034154812  0.034254743            3 
 1091000    1.0844469   -6.7794079    448.18067  0.034233171  0.034248876            2 
 1092000    1.1044929   -6.8345254    446.84003  0.034099514  0.034242943            3 
 1093000    1.0686154   -6.8140795    449.21883  0.034249682  0.034237095            2 
 1094000    1.0955697   -6.8255372    447.52278  0.034089182  0.034231035            3 
 1095000    1.0659491   -6.8095911    448.65222  0.034144005  0.034225065            2 
 1096000    1.0852371   -6.8266825    448.78295  0.034122791  0.034219002            1 
 1097000    1.0494096   -6.8402822     448.8962  0.034100288  0.034212926            6 
 1098000     1.094509   -6.8287627    449.03023  0.034079404  0.034206934            2 
 1099000     1.059098   -6.8250438    449.75635  0.034103454  0.034201072            2 
 1100000    1.0792692   -6.8437653     449.8699  0.034081053  0.034195133            5 
 1101000    1.0842265   -6.8167527    450.32024  0.034084184    0.0341892            2 
 1102000    1.0797203   -6.7948923    452.58833  0.034224768  0.034183426            2 
 1103000    1.0691374   -6.8151225    451.51313  0.034112506  0.034177755            2 
 1104000    1.0523436   -6.8175613    451.24285  0.034061205  0.034172012            3 
 1105000     1.101456   -6.7971648    450.54627  0.033977849  0.034166093            1 
 1106000    1.0817174   -6.8163114    451.91147   0.03404999  0.034160042            2 
 1107000    1.0880824    -6.773233     453.0888  0.034107859  0.034154033            2 
 1108000     1.074169   -6.8015494     453.1844  0.034084266  0.034148115            3 
 1109000    1.0888854   -6.8256676    453.13814  0.034050056  0.034142198            4 
 1110000    1.0790859   -6.8034104    453.43084  0.034041354  0.034136075            6 
 1111000    1.0748938   -6.8067145    453.94074   0.03404896  0.034129864            3 
 1112000    1.0694807     -6.82563    453.36592  0.033975264   0.03412354            1 
 1113000    1.0838391   -6.8448887    453.01235  0.033918265  0.034117336            1 
 1114000    1.0771459   -6.8083658    454.47812  0.033997465  0.034111229            2 
 1115000    1.0896339   -6.8317419    455.30166  0.034028525  0.034105211            2 
 1116000    1.0833666   -6.8357068    454.47459  0.033936274  0.034099044            3 
 1117000      1.06658   -6.8366818    455.47426  0.033980473   0.03409302            1 
 1118000    1.0802823   -6.8262178    456.20873  0.034004825  0.034086909            1 
 1119000    1.0783781   -6.8247219    456.63575  0.034006237  0.034080789            1 
 1120000    1.0717999   -6.8402215    455.58158  0.033897439  0.034074615            4 
 1121000    1.0811476   -6.8343207    456.27674  0.033918877  0.034068325            1 
 1122000    1.0649362   -6.8583467    456.86612  0.033932422  0.034062182            2 
 1123000    1.0877129   -6.8172709    457.59235  0.033956096  0.034056062            3 
 1124000    1.0744317   -6.8660543    458.22732  0.033972963  0.034050065            3 
 1125000    1.0505473   -6.8337587     456.7266    0.0338316  0.034043851            2 
 1126000    1.0851998   -6.8407493    457.59003  0.033865455   0.03403742            3 
 1127000    1.0724509   -6.8574271    457.18342   0.03380534  0.034031047            4 
 1128000    1.0946712   -6.8631475    457.45673  0.033795563  0.034024713            2 
 1129000     1.069427   -6.8811994    458.42183  0.033836864  0.034018202            3 
 1130000    1.0863554   -6.8801567    459.59051  0.033893105  0.034011747            2 
 1131000    1.0730748   -6.7886619    461.23882  0.033984587  0.034005535            2 
 1132000     1.061661    -6.862594    459.26569  0.033809312  0.033999419            5 
 1133000    1.0757825   -6.8581876    459.23199  0.033776992  0.033993209            3 
 1134000    1.0987785   -6.8300059    459.44172  0.033762619  0.033987116            3 
 1135000    1.0739351   -6.8143575    461.45713  0.033880847  0.033980997            2 
 1136000     1.072045   -6.8642732    461.38089  0.033845429  0.033974867            2 
 1137000    1.0505059   -6.8162201    462.44352  0.033893545   0.03396889            2 
 1138000    1.0697086   -6.8532703    463.35243  0.033930319  0.033962905            4 
 1139000    1.0812709   -6.8070759    464.70444  0.033999447  0.033957141            3 
 1140000    1.0757136    -6.826123    463.04626  0.033848411  0.033951444            3 
 1141000     1.085541   -6.8321211    463.89757  0.033880921  0.033945679            3 
 1142000    1.0737847   -6.8265675    464.44015  0.033890845   0.03394006            2 
 1143000    1.0614072   -6.8527477    464.71733  0.033881403  0.033934488            2 
 1144000    1.0651853    -6.825211    466.26859  0.033964787  0.033928902            2 
 1145000    1.0610243   -6.8324319    466.36644  0.033942245  0.033923379            4 
 1146000    1.0799858   -6.8310271    465.49343  0.033849144  0.033917862            1 
 1147000     1.070536   -6.8442821    467.10343  0.033936605   0.03391252            3 
 1148000    1.0636173   -6.8106396     468.8238  0.034031925  0.033907295            1 
 1149000    1.0537905   -6.8636033    467.78782   0.03392717  0.033902168            5 
 1150000    1.0776497   -6.8455736    468.17843  0.033925973  0.033896659            2 
 1151000    1.0722991   -6.8407183    468.13985  0.033893705  0.033891265            3 
 1152000    1.0577108   -6.8088229    469.16908  0.033938735  0.033885987            3 
 1153000    1.0644806   -6.8187851    469.38225  0.033924708   0.03388083            2 
 1154000    1.0453374   -6.8315517    469.28331  0.033888165  0.033875632            3 
 1155000    1.0666881   -6.8551806    469.40885  0.033867883  0.033870263            1 
 1156000    1.0573657   -6.8564147    470.19067  0.033894944  0.033864963            5 
 1157000    1.0626094   -6.8379449    470.34667  0.033876885  0.033859833            4 
 1158000    1.0623754    -6.872666      470.857  0.033884355  0.033854687            5 
 1159000     1.049361   -6.8293675    471.72804  0.033917748  0.033849362            2 
 1160000    1.0553259   -6.8036021    472.91553  0.033973817  0.033844184            5 
 1161000    1.0753964   -6.8367056    472.07108  0.033883942  0.033839036            2 
 1162000    1.0811217   -6.8325367    471.39402  0.033806226  0.033833724            4 
 1163000    1.0470259    -6.841812    472.98016  0.033890811  0.033828668            3 
 1164000    1.0673525   -6.8493003    473.66245  0.033910542   0.03382344            4 
 1165000     1.090879    -6.850618    473.49084  0.033869159  0.033818402            2 
 1166000    1.0635764   -6.8619818    475.34605  0.033972702  0.033813415            2 
 1167000    1.0576711   -6.8388254    475.00047  0.033918914  0.033808793            2 
 1168000    1.0519099   -6.8024272    477.17518  0.034045033  0.033804081            2 
 1169000    1.0432455   -6.8116055    476.76474  0.033986651  0.033799508            3 
 1170000    1.0613849   -6.8460855    477.15574  0.033985452  0.033794595            6 
 1171000    1.0988595   -6.8437883    477.34119  0.033969627  0.033789783            1 
 1172000    1.0556055    -6.822539    476.24276  0.033862539  0.033784927            1 
 1173000    1.0592052   -6.8408175    476.66061  0.033863357  0.033779974            3 
 1174000    1.0756857   -6.8316182    476.66519  0.033834837  0.033775055            3 
 1175000    1.0524047   -6.8368984    476.99371  0.033829341  0.033769885            3 
 1176000    1.0635287    -6.807159    478.53937  0.033910103  0.033764997            2 
 1177000    1.0739348   -6.8278121    479.17015  0.033925952  0.033760018            3 
 1178000    1.0458405    -6.863946    476.15306   0.03368372   0.03375491            3 
 1179000    1.0687474   -6.8202995    479.40322  0.033884876  0.033749721            2 
 1180000    1.0570253   -6.8324529     478.0286  0.033759082  0.033744546            3 
 1181000    1.0890587   -6.8470888    478.60532  0.033771191  0.033739357            5 
 1182000    1.0598292    -6.875467     478.5415   0.03373812  0.033734258            3 
 1183000    1.0580549   -6.8547873    480.74249  0.033864644  0.033729275            5 
 1184000     1.071874   -6.8543637    481.21268  0.033869135  0.033724151            4 
 1185000    1.0462142    -6.840525    480.52351  0.033792089  0.033719087            3 
 1186000    1.0646023   -6.8599031    481.75823  0.033850354  0.033714063            2 
 1187000    1.0415891   -6.8698181    480.33853  0.033722166  0.033708869            5 
 1188000     1.085691   -6.8162362    482.34506   0.03383453  0.033703763            4 
 1189000     1.064936   -6.8632242    481.70564  0.033761259  0.033698626            3 
 1190000    1.0298665   -6.8257405    480.96923  0.033681319  0.033693623            1 
 1191000    1.0640045   -6.8882005    484.44767  0.033896422  0.033688681            2 
 1192000    1.0557278   -6.8538061    482.51037  0.033732548  0.033683449            2 
 1193000    1.0427255   -6.7989519     485.0666   0.03388283   0.03367846            2 
 1194000    1.0519152   -6.8506138     484.8093  0.033836495  0.033673502            2 
 1195000    1.0723258   -6.8609477    483.41167  0.033710716  0.033668405            2 
 1196000     1.045164    -6.844385    483.98432   0.03372243  0.033663523            2 
 1197000    1.0590681   -6.8512437    485.44053  0.033795637  0.033658471            4 
 1198000    1.0523008   -6.8677839    483.93092  0.033662418  0.033653413            2 
 1199000    1.0669311   -6.8383383    484.88546  0.033700685  0.033648144            2 
 1200000    1.0234977   -6.8509142    483.94987   0.03360763  0.033642763            9 
 1201000    1.0571824   -6.8590374    484.32631  0.033605767  0.033637434            2 
 1202000     1.037857   -6.8535043    485.60005  0.033666116  0.033631876            2 
 1203000    1.0524728    -6.838555    485.88637  0.033657964  0.033626317            2 
 1204000    1.0493537   -6.8447405    486.19198  0.033651161  0.033620814            4 
 1205000    1.0477477    -6.854796     485.3524  0.033565173  0.033615152            2 
 1206000     1.077124   -6.8490505    487.61259  0.033693518  0.033609653            3 
 1207000    1.0472396   -6.8651074    487.28753   0.03364316  0.033604077            6 
 1208000    1.0547362     -6.82947     486.5523   0.03356459  0.033598469            3 
 1209000    1.0441017   -6.8422483    486.87936  0.033559371  0.033592938            3 
 1210000    1.0525891   -6.8037336    487.67694  0.033586566   0.03358741            2 
 1211000    1.0547338   -6.8387751    487.95554  0.033578003  0.033581795            3 
 1212000    1.0661331   -6.8417097    487.54049  0.033521761  0.033576191            5 
 1213000    1.0522759   -6.8309891    487.81119  0.033512723  0.033570342            3 
 1214000    1.0401543   -6.8600576    487.90774  0.033491745  0.033564482            3 
 1215000    1.0385013   -6.8633889    487.60998  0.033443757  0.033558651            2 
 1216000     1.062736   -6.9020546    487.71025  0.033423126  0.033552559            2 
 1217000       1.0634   -6.8754853    486.53485  0.033315177  0.033546307            2 
 1218000    1.0537649   -6.8402468    489.69625  0.033504122  0.033540351            3 
 1219000    1.0873862   -6.8300908    488.52372   0.03339648  0.033534339            4 
 1220000    1.0665292   -6.8350519    490.07914  0.033475351  0.033528181            5 
 1221000    1.0624616   -6.8569332    489.55334  0.033412049  0.033522228            2 
 1222000    1.0975808   -6.8873768    490.15759  0.033425913  0.033516146            1 
 1223000    1.0687654   -6.8939452    489.33779  0.033342722  0.033509902            1 
 1224000    1.0634595   -6.8709445     489.8784  0.033352288  0.033503706            2 
 1225000    1.0416404   -6.8917668    489.82557  0.033321467   0.03349738            3 
 1226000    1.0496515   -6.9116782    490.27821  0.033325055  0.033491175            5 
 1227000    1.0600596   -6.8554678    490.24324   0.03329552  0.033484962            2 
 1228000    1.0498297   -6.8603981    491.30811   0.03334067  0.033478941            2 
 1229000    1.0493791   -6.8448856    492.52445  0.033396016  0.033473016            2 
 1230000    1.0348385    -6.877488    491.69814  0.033312882  0.033466886            2 
 1231000    1.0574779   -6.8440704    491.41341  0.033266546  0.033460705            2 
 1232000     1.063871   -6.8536495    492.18894  0.033292001  0.033454555            4 
 1233000    1.0650601   -6.8654478     493.1236   0.03332817  0.033448338            3 
 1234000    1.0514908   -6.8973901    491.66072  0.033202372  0.033441854            3 
 1235000    1.0573167   -6.8861199    492.01417  0.033199336   0.03343547            1 
 1236000     1.045548   -6.8619299    492.61392  0.033212913  0.033429116            2 
 1237000    1.0478649   -6.8298673    493.54825  0.033249007  0.033422712            2 
 1238000    1.0511225   -6.8649361    492.96501   0.03318289   0.03341626            2 
 1239000    1.0451984   -6.8950049    494.43531  0.033254998  0.033409916            3 
 1240000    1.0447832   -6.8810472    493.99762  0.033198765  0.033403633            1 
 1241000    1.0560685   -6.8461282    495.48755  0.033272062   0.03339738            1 
 1242000    1.0592686   -6.8109811     497.1092   0.03335408  0.033391209            2 
 1243000    1.0536726   -6.8606798    495.92966  0.033248167  0.033385053            2 
 1244000    1.0660253   -6.9159003    494.66419  0.033136669  0.033378941            5 
 1245000    1.0388986   -6.8802284    494.47137  0.033097147  0.033372447            2 
 1246000    1.0522673    -6.916322    495.35074  0.033129397  0.033365781            2 
 1247000    1.0543651   -6.8564566    496.73836   0.03319556  0.033359157            2 
 1248000    1.0710274   -6.8709169    496.55285  0.033156574  0.033352879            2 
 1249000    1.0360767    -6.878918    496.85379  0.033150106  0.033346536            3 
 1250000    1.0481046   -6.8699056    497.98932  0.033199288  0.033340236            2 
 1251000    1.0305016   -6.8710443    499.28017  0.033258738  0.033333987            2 
 1252000    1.0458455   -6.8557692    498.13344  0.033155847  0.033327717            3 
 1253000    1.0782109   -6.8682965    499.56177   0.03322438  0.033321544            1 
 1254000    1.0438912   -6.9169898    498.92064  0.033155279  0.033315334            2 
 1255000    1.0621417   -6.8160127    499.51773  0.033168508  0.033309155            2 
 1256000      1.05064   -6.8388412     499.1226  0.033115884   0.03330283            3 
 1257000    1.0525575   -6.9296165    499.83511  0.033136775  0.033296417            2 
 1258000    1.0597779   -6.8472098    499.44569  0.033084637  0.033290007            2 
 1259000    1.0406385   -6.8905668     499.9836  0.033093963  0.033283603            3 
 1260000    1.0350298     -6.85614    501.40832  0.033161926  0.033276987            2 
 1261000    1.0445314   -6.8931732    499.76002    0.0330267  0.033270533            4 
 1262000    1.0623326   -6.8651542    501.78871   0.03313449   0.03326399            2 
 1263000    1.0455543   -6.8966503    500.01983  0.032991544  0.033257559            3 
 1264000    1.0506012   -6.8776535    500.56311   0.03300126  0.033251275            3 
 1265000    1.0710429   -6.8578874    503.99179   0.03320104  0.033244988            3 
 1266000    1.0317422   -6.8552397    503.63041  0.033151028  0.033238882            3 
 1267000    1.0262499   -6.8917181    502.32008  0.033038679  0.033232709            4 
 1268000     1.059622   -6.8859602     503.4005  0.033083629  0.033226308            2 
 1269000    1.0573658   -6.8593042    504.59271  0.033135849  0.033220191            1 
 1270000    1.0376668   -6.8917951    503.00647  0.033005674  0.033213975            4 
 1271000    1.0507581   -6.8888067    502.90028  0.032972743  0.033207801            2 
 1272000    1.0651543   -6.8831732    505.31784  0.033105204  0.033201478            4 
 1273000    1.0508488   -6.8648652    504.79101  0.033044711  0.033195216            2 
 1274000    1.0491602   -6.8839958    504.36832  0.032991125  0.033188841            2 
 1275000    1.0485336    -6.874597    505.57804  0.033044316  0.033182512            1 
 1276000    1.0794484   -6.8868004    506.68984  0.033091029  0.033176122            4 
 1277000    1.0361991   -6.8947201    506.52299  0.033054228  0.033169775            2 
 1278000    1.0769732    -6.904366    506.72078  0.033041261  0.033163527            3 
 1279000    1.0612052   -6.8795551    508.12931    0.0331072  0.033157369            3 
 1280000    1.0670996   -6.8889045    508.81052  0.033125685  0.033151448            3 
 1281000    1.0654295   -6.8627387    509.79801  0.033164065  0.033145523            2 
 1282000      1.03386   -6.8867189    509.22279  0.033100805  0.033139637            3 
 1283000    1.0292073   -6.8993255    509.12247   0.03306849  0.033133731            5 
 1284000    1.0349405   -6.8837098    508.68198  0.033014147  0.033127781            4 
 1285000    1.0716102   -6.9122712    507.99176  0.032943694  0.033121603            2 
 1286000    1.0379039   -6.8684777    508.83311  0.032972597  0.033115553            3 
 1287000    1.0426975   -6.8476315    509.40471  0.032983988  0.033109444            4 
 1288000    1.0555377    -6.896433    507.13597  0.032811592  0.033103143            4 
 1289000    1.0508276   -6.8975337    509.32134  0.032927421  0.033096646            3 
 1290000    1.0564139   -6.8502563    511.52485  0.033044241    0.0330901            2 
 1291000    1.0524762   -6.9131155    510.19158  0.032932583  0.033083541            2 
 1292000    1.0454073   -6.8835217    509.42362  0.032857561   0.03307706            2 
 1293000    1.0348632   -6.8702526    510.16181  0.032879725   0.03307054            2 
 1294000    1.0316495   -6.8742229    510.65605  0.032886145  0.033064143            3 
 1295000    1.0793552   -6.8744815    509.70341  0.032799447   0.03305779            3 
 1296000    1.0330594   -6.8729441    512.09159    0.0329277   0.03305146            1 
 1297000    1.0299253   -6.8847783    512.28277  0.032914596  0.033045106            2 
 1298000    1.0406561   -6.8939494    513.25546  0.032951686  0.033038756            2 
 1299000    1.0501691   -6.8823857    512.05771  0.032849481  0.033032462            5 
 1300000    1.0318869   -6.8809063    512.63288  0.032861082  0.033026059            2 
 1301000    1.0389887   -6.9182162    513.46006  0.032888807  0.033019832            2 
 1302000    1.0426235   -6.9229461    512.71943  0.032816144  0.033013451            3 
 1303000    1.0337855   -6.8750752    513.36959  0.032832539  0.033007323            4 
 1304000    1.0294049   -6.8858641    514.38105  0.032871999  0.033001305            2 
 1305000    1.0352174   -6.9026626    514.98351  0.032885281  0.032995041            3 
 1306000    1.0391213   -6.9115128     514.4227  0.032824317  0.032988809            2 
 1307000    1.0336687   -6.8782666    516.15212  0.032909469  0.032982722            1 
 1308000    1.0630148   -6.8708923    515.62101  0.032850472   0.03297663            3 
 1309000    1.0600933   -6.8878658    515.42119  0.032812655   0.03297044            1 
 1310000    1.0580991    -6.881561    516.09955   0.03283076  0.032964115            2 
 1311000    1.0346179   -6.9285519    516.02717  0.032801117  0.032957984            2 
 1312000    1.0510249   -6.8910798    515.86358  0.032765725  0.032952001            4 
 1313000     1.038505   -6.9032109    515.93079  0.032745036  0.032945674            4 
 1314000    1.0367953   -6.8993155    517.41023  0.032813942  0.032939595            4 
 1315000    1.0366566   -6.9042724     517.6048  0.032801318  0.032933505            4 
 1316000    1.0339873   -6.8491345    519.64906  0.032905842   0.03292748            5 
 1317000    1.0385945   -6.9056086    519.35385  0.032862177  0.032921403            3 
 1318000    1.0467137   -6.8916589    519.80465  0.032865746  0.032915278            3 
 1319000    1.0695196   -6.8754369    518.98357  0.032788954  0.032909063            3 
 1320000    1.0271074   -6.8836334    519.61998  0.032804292  0.032902675            2 
 1321000    1.0340727   -6.8857556     520.1609  0.032813582   0.03289638            8 
 1322000     1.029958   -6.8934376    519.92666  0.032773995  0.032890246            2 
 1323000    1.0311154    -6.905686    519.40798  0.032716552  0.032883965            1 
 1324000     1.047162   -6.8531366    521.64649  0.032832735  0.032877748            3 
 1325000    1.0363521   -6.9092162    519.29208   0.03265988  0.032871481            2 
 1326000    1.0537002   -6.8571833    520.57527  0.032715892  0.032865163            2 
 1327000    1.0234045   -6.8845897     521.8641  0.032772174  0.032858807            2 
 1328000    1.0283737    -6.885038    523.67485  0.032861122  0.032852679            6 
 1329000     1.046536   -6.8902568    522.21741  0.032745009  0.032846715            3 
 1330000    1.0471567   -6.8651739     520.8624  0.032635489  0.032840893            7 
 1331000    1.0485804   -6.9095505    522.88188  0.032737408  0.032834897            2 
 1332000    1.0286062   -6.9048451    523.83646  0.032772551  0.032828992            4 
 1333000    1.0384623   -6.8927068    524.14508  0.032767259  0.032823105            2 
 1334000    1.0264508   -6.9349809    524.59954  0.032771085  0.032817429            2 
 1335000     1.027649   -6.9172898    524.66766   0.03275079  0.032811639            3 
 1336000    1.0452496   -6.8663271    525.80608  0.032797285   0.03280585            1 
 1337000    1.0361946   -6.8869167    526.28451  0.032802575  0.032800068            4 
 1338000    1.0486389    -6.887857    526.71746  0.032805024  0.032794458            6 
 1339000    1.0219059   -6.8636757    526.08501  0.032741163  0.032788826            1 
 1340000    1.0466685   -6.9063778    527.54557   0.03280756  0.032783097            3 
 1341000    1.0408609   -6.9486234    525.94054  0.032683355  0.032777125            2 
 1342000    1.0363539   -6.9266441    526.81425  0.032713255  0.032771148            2 
 1343000    1.0307463   -6.8949311     527.9811  0.032761299  0.032765214            4 
 1344000    1.0264104   -6.9132697     527.4496  0.032703968  0.032759157            4 
 1345000    1.0434801   -6.9273114     525.7306  0.032573147  0.032753108            3 
 1346000    1.0251745   -6.9200899    527.12495  0.032635274  0.032747023            3 
 1347000    1.0511972    -6.898294    526.09944  0.032547602  0.032740852            3 
 1348000    1.0350957   -6.9182537    528.75237  0.032687461  0.032734689            4 
 1349000    1.0397468   -6.9113974    528.50794   0.03264813  0.032728747            3 
 1350000    1.0232152   -6.9369615    528.26422  0.032608902   0.03272276            3 
 1351000    1.0407277   -6.8760312    529.07058  0.032634504  0.032716723            3 
 1352000    1.0190538    -6.907494    528.25726  0.032560235  0.032710597            1 
 1353000    1.0337222   -6.9143477    529.99866  0.032643426  0.032704438            3 
 1354000    1.0560838   -6.9178515    529.22801  0.032571887   0.03269822            1 
 1355000    1.0444163   -6.9132508    529.46151  0.032562208  0.032692046            2 
 1356000     1.023083   -6.9039811    531.32247  0.032652561  0.032685966            4 
 1357000    1.0615439   -6.8924547    530.37342  0.032570217  0.032679898            3 
 1358000     1.044222   -6.9074749    529.80615  0.032511423  0.032673663            2 
 1359000    1.0218736   -6.9201528    530.07516  0.032503996  0.032667532            5 
 1360000    1.0291395   -6.9116447    531.57728  0.032572137  0.032661245            2 
 1361000    1.0211028   -6.9231095    529.71071  0.032433916  0.032654994            2 
 1362000    1.0394307    -6.935653    531.21721  0.032502277  0.032648585            2 
 1363000    1.0359555   -6.9243852    530.02776  0.032405708  0.032642216            1 
 1364000    1.0300337   -6.9099194    531.46507  0.032469762  0.032635923            1 
 1365000    1.0365189   -6.8999605    532.45911  0.032506661  0.032629775            3 
 1366000    1.0040205   -6.9357583     532.3328  0.032475159  0.032623353            1 
 1367000    1.0364718    -6.921947    533.05249  0.032495275  0.032616808            3 
 1368000    1.0269337   -6.9370314     531.9251  0.032402845  0.032610192            5 
 1369000     1.030471   -6.9184591    532.78285  0.032431389  0.032603672            3 
 1370000     1.022694   -6.9752043     531.3807  0.032322427  0.032597158            2 
 1371000     1.045839   -6.9249675    531.73017  0.032320093  0.032590616            3 
 1372000    1.0345684   -6.9214842    533.02218  0.032375011  0.032584134            5 
 1373000    1.0350321   -6.8994308    533.37219  0.032372675  0.032577427            5 
 1374000    1.0390921   -6.9538897    533.24804  0.032341584  0.032570722            4 
 1375000    1.0173395   -6.9142115    534.63875  0.032402349  0.032564078            1 
 1376000    1.0044347   -6.8929792    534.11165  0.032346878  0.032557299            4 
 1377000    1.0334754   -6.9002208    534.98138  0.032376022   0.03255086            2 
 1378000    1.0263627   -6.8870564    535.31263  0.032372559  0.032544336            2 
 1379000    1.0280732   -6.9165305    536.05109  0.032393708  0.032538009            2 
 1380000    1.0235009   -6.8825214    536.24564  0.032381983  0.032531685            2 
 1381000    1.0253045   -6.9410557     535.3838  0.032306529  0.032525242            3 
 1382000    1.0400348   -6.9611543    536.30361  0.032338616  0.032518738            3 
 1383000    1.0399657   -6.8960154    536.82008  0.032346353  0.032512517            6 
 1384000    1.0255194   -6.8944592    538.78871  0.032441517  0.032506165            3 
 1385000    1.0192216   -6.8955104    536.97404  0.032308907  0.032499701            3 
 1386000    1.0315089   -6.9267752    537.42285  0.032312581  0.032493296            2 
 1387000    1.0341689   -6.9085774     537.9177  0.032319016  0.032486877            4 
 1388000    1.0421762   -6.9382143    538.22698    0.0323143  0.032480343            2 
 1389000    1.0281944   -6.9383543    539.16464  0.032347291  0.032473832            2 
 1390000    1.0260865   -6.9108475    538.95924  0.032311705  0.032467221            1 
 1391000    1.0395203   -6.9420194    537.46889   0.03219919  0.032460538            2 
 1392000    1.0154062   -6.9209916    537.73528  0.032192007  0.032454118            2 
 1393000     1.041408   -6.9476747    540.30641   0.03232271  0.032447608            2 
 1394000    1.0235737   -6.9143735     538.1871   0.03217283  0.032440944            4 
 1395000    1.0409256   -6.9209129    540.38935  0.032281323  0.032434537            4 
 1396000    1.0162977   -6.9164017    540.78569  0.032281858  0.032428109            6 
 1397000    1.0373984   -6.9299933    540.70588  0.032253989  0.032421771            4 
 1398000    1.0252453    -6.901362    541.62186  0.032285518  0.032415342            3 
 1399000    1.0310241   -6.9270356    542.20643  0.032297262  0.032408932            4 
 1400000     1.035531   -6.9473755    540.16262  0.032152537  0.032402474            6 
 1401000    1.0353356   -6.9166839    542.11121  0.032245492  0.032395937            4 
 1402000    1.0255813   -6.9411955     541.5113  0.032186834  0.032389426            3 
 1403000    1.0266198   -6.8991845    541.91771  0.032188032  0.032382955            2 
 1404000    1.0281299    -6.930858    542.40625  0.032194103  0.032376513            2 
 1405000    1.0309296   -6.9265455    543.25456  0.032221504  0.032370015            2 
 1406000    1.0332306   -6.9094248    542.83237  0.032173564  0.032363342            6 
 1407000    1.0267128    -6.928475    543.42968  0.032186074  0.032356886            2 
 1408000    1.0439371   -6.9308642    542.53171  0.032110068   0.03235029            3 
 1409000    1.0305658    -6.936095    544.46337  0.032201524  0.032343721            3 
 1410000    1.0338902   -6.9004113    544.77598  0.032197162  0.032337232            3 
 1411000    1.0358035   -6.9139295    544.52598  0.032159578  0.032330969            2 
 1412000    1.0241135   -6.9532572    544.89584   0.03215863   0.03232452            3 
 1413000    1.0166627   -6.9219232    544.31073  0.032101364   0.03231816            3 
 1414000    1.0253833   -6.9211478    544.34482  0.032080671  0.032311656            2 
 1415000    1.0499001   -6.9208714    545.51145  0.032126705  0.032305057            3 
 1416000    1.0074903   -6.8976631     545.6255  0.032110728  0.032298579            2 
 1417000    1.0229328   -6.9277428    546.07747  0.032114647  0.032292197            3 
 1418000    1.0413929   -6.9435644    544.90534  0.032023116  0.032285755            4 
 1419000    1.0191517   -6.9264984    547.31425  0.032142016  0.032279113            2 
 1420000    1.0117713   -6.9348929    545.96044  0.032039932  0.032272479            2 
 1421000    1.0175281     -6.91201    546.96145  0.032076088  0.032265827            6 
 1422000    1.0141728   -6.9502932    546.63759  0.032034552   0.03225928            2 
 1423000    1.0223572   -6.9054848    548.19122  0.032103023  0.032252726            2 
 1424000    1.0244343   -6.9195427    547.09751  0.032016474  0.032246155            5 
 1425000    1.0301388   -6.8994954    546.62302  0.031966259  0.032239558            2 
 1426000    1.0093516   -6.9507106    548.05208  0.032027354   0.03223279            2 
 1427000    1.0150884   -6.8867093    548.08874  0.032007051  0.032225955            1 
 1428000    1.0230356   -6.9296151    548.10188  0.031985404  0.032219275            3 
 1429000    1.0327068   -6.9193496    549.15592  0.032024488  0.032212578            3 
 1430000    1.0144654   -6.8798299     549.1785  0.032003409  0.032205916            2 
 1431000    1.0229213    -6.956062    548.80636  0.031959374  0.032199224            1 
 1432000    1.0454008   -6.9394912    549.61748  0.031984258   0.03219245            2 
 1433000    1.0220934   -6.9429739    550.37208   0.03200582  0.032185739            3 
 1434000    1.0170527   -6.9555334    549.74901  0.031947293  0.032179063            4 
 1435000    1.0107664   -6.8851264    552.11036  0.032062158  0.032172359            5 
 1436000    1.0211085   -6.9284801     551.5611  0.032007956  0.032165747            5 
 1437000    1.0112075   -6.9247087    553.37635  0.032090951  0.032159268            3 
 1438000    1.0055626   -6.9224412    553.80207  0.032093305  0.032152885            2 
 1439000    1.0195093   -6.9101882    553.43287  0.032049622  0.032146472            2 
 1440000    1.0491212   -6.9243188    553.12967  0.032009819  0.032140201            2 
 1441000    1.0130893   -6.8956201    554.03219  0.032039798  0.032133786            2 
 1442000    1.0483869   -6.9420074    553.00805  0.031958394  0.032127473            3 
 1443000   0.99020332    -6.976377    551.35197  0.031840608  0.032121012            5 
 1444000    1.0115404   -6.9240405    552.37343  0.031877506  0.032114362            3 
 1445000    1.0405391   -6.9232844    554.72436  0.031991024  0.032107945            2 
 1446000    1.0332234   -6.9265793    555.51786   0.03201463  0.032101542            5 
 1447000    1.0155834   -6.9495125    554.29387  0.031922015  0.032094947            2 
 1448000    1.0222712   -6.9064836    555.97332  0.031996623  0.032088614            1 
 1449000    1.0146284   -6.9493974    554.44601  0.031886704  0.032082215            2 
 1450000    1.0091458   -6.8941311    557.07796  0.032015975  0.032075811            2 
 1451000    1.0171203   -6.9333457    555.93185  0.031928087  0.032069433            4 
 1452000    1.0291363   -6.9478777    554.68894  0.031834765  0.032062911            4 
 1453000    1.0128451   -6.9314531    556.24889  0.031902322   0.03205653            3 
 1454000    1.0071789   -6.9089976     557.2952  0.031940348   0.03205007            1 
 1455000    1.0239432   -6.9357183    556.81295  0.031890776  0.032043676            3 
 1456000    1.0400363   -6.9270487    557.25985  0.031894451  0.032037186            3 
 1457000    1.0157681   -6.9424134     555.3909  0.031765666  0.032030533            2 
 1458000    1.0069451   -6.9558403    555.72799  0.031763145  0.032023883            4 
 1459000    1.0160944   -6.9504793    556.28508  0.031773194  0.032017133            2 
 1460000   0.99283296   -6.9343877     557.1758  0.031802271  0.032010366            1 
 1461000   0.99445735   -6.9560458    558.82147  0.031874371  0.032003763            3 
 1462000    1.0067901   -6.9121842    559.30596  0.031880185  0.031997138            3 
 1463000    1.0248722   -6.9494235    557.12495  0.031734162  0.031990533            3 
 1464000    1.0124081   -6.9125731    559.43387  0.031843913  0.031983843            3 
 1465000    1.0079533   -6.9184348    559.22389  0.031810233  0.031977237            4 
 1466000    1.0304947   -6.9496887    559.83981  0.031823545  0.031970603            7 
 1467000    1.0231572    -6.947441    559.38147  0.031775816   0.03196392            2 
 1468000    1.0082282   -6.9235968    557.59938  0.031653008  0.031957176            2 
 1469000    1.0332428   -6.9254868    559.10126  0.031716659  0.031950442            4 
 1470000    1.0100984   -6.9341644    558.77106  0.031676364  0.031943847            4 
 1471000    1.0192745   -6.9333226    560.60567  0.031758762  0.031937246            2 
 1472000    1.0117874   -6.9576538    559.76953  0.031689851  0.031930655            3 
 1473000    1.0137819   -6.9493023     561.6755  0.031776165  0.031923915            2 
 1474000    1.0233791   -6.9462947    560.67977  0.031698314  0.031917231            3 
 1475000    1.0428644   -6.9697699    560.18201  0.031648701  0.031910378            3 
 1476000    1.0110723   -6.9697428    560.85394  0.031665195  0.031903597            2 
 1477000    1.0100707   -6.9235487    561.82949  0.031698798  0.031896924            2 
 1478000    1.0359193   -6.9593761     561.2544  0.031644926  0.031890347            3 
 1479000   0.98402467   -6.9585781    562.08659  0.031670418  0.031883729            2 
 1480000    1.0074938   -6.9311855    563.59871  0.031734162    0.0318772            3 
 1481000    1.0282387   -6.9401267    565.48673   0.03181897  0.031870841            6 
 1482000    1.0008701   -6.9474127    562.57535  0.031633792  0.031864507            2 
 1483000    1.0169097    -6.961184    561.55327  0.031555028  0.031857939            5 
 1484000    1.0170183   -6.9417253    564.42935  0.031695269  0.031851277            3 
 1485000    1.0136759   -6.9601616    564.22782  0.031662616  0.031844647            3 
 1486000    1.0328143   -6.9397143    563.36611  0.031592985  0.031838087            4 
 1487000    1.0287014   -6.9433253    563.94929  0.031604421  0.031831603            2 
 1488000    1.0328001    -6.922153    565.64489  0.031678141  0.031825029            2 
 1489000    1.0275265   -6.9748146    564.73642  0.031606023  0.031818532            2 
 1490000    1.0307903   -6.9558601    565.72274  0.031639974  0.031811997            3 
 1491000    1.0077399   -6.9593617    566.36491  0.031654645  0.031805334            3 
 1492000   0.99748033   -6.9639958    566.02361  0.031614366  0.031798784            4 
 1493000    1.0234188   -6.9728516    564.85479  0.031527952  0.031792077            3 
 1494000    1.0014891   -6.9585579     566.0821  0.031575307  0.031785298            2 
 1495000    1.0321263   -6.9363618    567.23198  0.031618282  0.031778559            3 
 1496000     1.004252     -6.94789    564.99072  0.031472299  0.031771903            6 
 1497000   0.99522117   -6.9512995    565.87935  0.031500743  0.031765178            1 
 1498000    1.0229045   -6.9895708    566.40803  0.031509125  0.031758454            4 
 1499000    1.0268867   -6.9414584    566.84229  0.031512246  0.031751804            3 
 1500000    1.0334603   -6.9794031    566.60341  0.031477967  0.031744986            1 
 1501000    1.0023946   -6.9466055    567.77716  0.031522161  0.031738177            3 
 1502000    1.0169668   -6.9475872    566.95876  0.031455768  0.031731344            1 
 1503000    1.0171581   -6.9725806    567.21224  0.031448893  0.031724584            1 
 1504000    0.9990236   -6.9368016    568.28297   0.03148731  0.031717769            2 
 1505000    1.0070081   -6.8900694    568.77945  0.031493879  0.031710929            2 
 1506000    1.0034093    -6.943122    569.29476  0.031501481  0.031704019            2 
 1507000    1.0134254   -6.9321451    568.24867  0.031422731  0.031697252            3 
 1508000    1.0006441   -6.9618551    567.33171  0.031351222   0.03169038            2 
 1509000   0.98507194   -6.9781625    568.06542  0.031370964  0.031683233            2 
 1510000   0.98789143   -6.9459883    568.83225  0.031392508  0.031676233            1 
 1511000    1.0291394   -6.9919242    568.18634  0.031336109   0.03166922            5 
 1512000   0.99532608   -6.9771299    568.83578  0.031351178  0.031662238            1 
 1513000    1.0251405   -6.9965299    567.34244  0.031248207  0.031655015            2 
 1514000    1.0025194   -6.9424111    569.02281  0.031320058  0.031647691            2 
 1515000   0.98932527   -6.9319575    569.17691  0.031307861  0.031640476            2 
 1516000    1.0012561   -6.9124885     569.1537  0.031285933  0.031633216            4 
 1517000   0.99359068   -6.9564242    569.18049  0.031266781  0.031625991            9 
 1518000    1.0096866    -6.999252      569.154   0.03124473  0.031618703            6 
 1519000    1.0060143   -6.9641361    569.27906  0.031231021  0.031611367            4 
 1520000    1.0129106   -6.9621264    571.84203  0.031350988  0.031604022            3 
 1521000    1.0087283   -6.9524593    570.72443  0.031269145  0.031596686            3 
 1522000   0.99901273   -6.9391511    570.71381  0.031248018  0.031589456            3 
 1523000    1.0093203   -6.9893097    570.60303  0.031221439  0.031582091            3 
 1524000   0.97908405   -6.9939588    571.99347  0.031276983  0.031574792            2 
 1525000   0.99583447   -6.9511394    572.49748  0.031284015  0.031567554            3 
 1526000    1.0138238   -6.9605143    571.47383  0.031207614   0.03156026            1 
 1527000   0.99540032    -6.998072    571.88106  0.031209401  0.031552889            3 
 1528000    1.0326781   -6.9685506    570.76369  0.031128037  0.031545508            5 
 1529000     1.019851   -6.9678604    571.29309  0.031136532  0.031538126            2 
 1530000   0.99531732   -6.9339329    571.29351  0.031116204  0.031530791            4 
 1531000   0.97584532    -6.937056    572.55274  0.031164421  0.031523518            3 
 1532000    1.0103139   -6.9603494    572.77981   0.03115643  0.031516298            2 
 1533000    1.0092744   -6.9812549    572.99304  0.031147697  0.031508963            2 
 1534000    1.0214889   -6.9713878    572.29646  0.031089551  0.031501574            2 
 1535000    1.0031213   -6.9822427    571.30284  0.031015355  0.031494109            2 
 1536000   0.98793347   -6.9520784    573.92009  0.031137158  0.031486654            2 
 1537000   0.99403845   -6.9842956    570.92705  0.030954622  0.031479134            3 
 1538000    1.0001213   -6.9663407    573.30233  0.031063195  0.031471581            5 
 1539000   0.98199602   -6.9876654    573.43671  0.031050287  0.031464058            4 
 1540000    1.0088502   -6.9459738    575.18263  0.031124601  0.031456567            1 
 1541000    1.0199006   -6.9899115    574.25021  0.031053981   0.03144902            1 
 1542000   0.99975418   -6.9415669    575.27592  0.031089274   0.03144145            2 
 1543000   0.99866884   -6.9324828    574.96227  0.031052185  0.031433971            3 
 1544000   0.98913605   -6.9551853    574.66733  0.031016156  0.031426529            3 
 1545000    1.0130192   -6.9306343    577.18305  0.031131772  0.031419215            2 
 1546000   0.99349315   -6.9604355    575.61994   0.03102738  0.031411972            2 
 1547000    1.0360165   -6.9983338    576.77196   0.03106938  0.031404579            4 
 1548000     1.002223   -6.9520193    576.65141  0.031042819  0.031397239            1 
 1549000    1.0013271   -6.9678953    575.86891  0.030980682  0.031389862            2 
 1550000    1.0294719   -6.9549755     577.7487  0.031061758  0.031382492            2 
 1551000   0.99470949   -6.9660048    578.35473  0.031074292  0.031375105            3 
 1552000    1.0212723    -6.981196    576.97567  0.030980223  0.031367842            2 
 1553000   0.98561606   -6.9733256    577.52866  0.030989948  0.031360513            2 
 1554000   0.98655654   -6.9902479     578.9674  0.031047158  0.031353344            3 
 1555000    1.0005986   -6.9717778    579.12838  0.031035819  0.031346062            2 
 1556000    1.0122596   -6.9785383    577.80217  0.030944846   0.03133869           15 
 1557000    1.0095783    -6.990213    577.91358  0.030930935  0.031331363            1 
 1558000    1.0214958   -6.9480457     580.2404  0.031035537  0.031324094            2 
 1559000     1.000985   -6.9843891     577.6106  0.030875059  0.031316792            3 
 1560000   0.98566462   -6.9640139    579.92906  0.030979117  0.031309469            1 
 1561000   0.99970018   -6.9548178    580.66757  0.030998696  0.031302273            3 
 1562000   0.99964541   -6.9864719    579.92189  0.030939068  0.031295106            7 
 1563000    1.0160969    -6.962657    580.20809  0.030934533  0.031287806            4 
 1564000   0.99062192   -6.9817041     582.0199   0.03101129  0.031280573            4 
 1565000   0.99168788   -6.9629914     580.1933  0.030894212  0.031273227            4 
 1566000    1.0143204   -6.9574782     581.3697  0.030937085  0.031265897            6 
 1567000    1.0177806    -6.927672     581.3241  0.030914917  0.031258576            3 
 1568000   0.99248173   -6.9760613    581.78144  0.030919507  0.031251293            2 
 1569000   0.99321682   -7.0117789    580.72073  0.030843463  0.031244024            2 
 1570000   0.99409717   -6.9488752    581.87188  0.030884919  0.031236677            3 
 1571000    1.0060816   -7.0048246    581.73772  0.030858144  0.031229342            2 
 1572000    1.0123783   -7.0003549    583.21104  0.030916616  0.031222063            2 
 1573000    1.0215684   -6.9760902    584.74059  0.030977993  0.031214789            3 
 1574000   0.98858641   -7.0062487    582.31867  0.030830086  0.031207632            5 
 1575000   0.98342828   -6.9964646    583.15798  0.030854919  0.031200475            3 
 1576000    1.0047662   -6.9841405    584.16544  0.030888612  0.031193283            8 
 1577000   0.99528722   -7.0004386    583.48073  0.030832843   0.03118606            4 
 1578000   0.99180532    -6.958299    586.79989  0.030988587  0.031178979            2 
 1579000    1.0024424   -7.0063871    584.56906  0.030851227  0.031171843            3 
 1580000   0.99393791   -6.9805395    583.77587  0.030789866  0.031164755            5 
 1581000    1.0128906   -6.9539533    585.25708  0.030848465  0.031157628            3 
 1582000    1.0106669    -7.016786    585.07378   0.03081931  0.031150419            1 
 1583000    0.9935682   -6.9605974    586.43831  0.030871674  0.031143239            2 
 1584000   0.99576719   -6.9283759    587.64802  0.030915826  0.031136085            2 
 1585000   0.99090516   -6.9391698    585.93314  0.030806159  0.031129073            3 
 1586000   0.98148651    -6.958893    587.25675  0.030856281  0.031122049            1 
 1587000   0.97785976   -6.9430739    588.03394  0.030877649  0.031114964            1 
 1588000    1.0011694    -6.991337    586.62777  0.030784413  0.031107891            2 
 1589000    1.0113309   -7.0097316    585.39629  0.030700456  0.031100676            3 
 1590000   0.99055716   -6.9921155    588.87751  0.030863601  0.031093515            2 
 1591000    1.0203875   -6.9492088     586.9783  0.030744725  0.031086466            2 
 1592000   0.98454391   -6.9474262    590.61152  0.030915594   0.03107935            5 
 1593000    1.0057591   -7.0119325    586.99751  0.030707131  0.031072332            4 
 1594000    1.0032366   -6.9522285    589.52144  0.030819816  0.031065254            3 
 1595000   0.98364774   -6.9937868    588.06136  0.030724209  0.031058222            2 
 1596000    1.0159715   -6.9753987    589.48238  0.030779155  0.031051125            3 
 1597000    1.0114583   -7.0089399    589.97216   0.03078544   0.03104391            3 
 1598000   0.98111358   -7.0077126    588.88471  0.030709465  0.031036745            4 
 1599000   0.99773311    -6.963265    589.03078  0.030697873  0.031029582            7 
 1600000    0.9910145   -6.9797126    589.85487  0.030721608  0.031022424            4 
 1601000    1.0000405   -6.9754464    588.26685  0.030619761  0.031015283            3 
 1602000    0.9967223   -6.9766059    591.03445  0.030744614   0.03100812            3 
 1603000    1.0079789   -6.9966803    589.35707  0.030638234  0.031001001            3 
 1604000   0.99875916   -6.9954226    591.46666  0.030728733  0.030993934            5 
 1605000    1.0101552   -6.9954699    592.13902  0.030744497  0.030986951            3 
 1606000    1.0021999   -6.9826277    591.75576  0.030705467  0.030979998            2 
 1607000    1.0056938   -7.0075146    592.35387  0.030717376  0.030973096            2 
 1608000   0.99135454   -6.9606745    594.00861  0.030784028  0.030966253            3 
 1609000   0.99344534   -6.9830262    594.17516  0.030773522  0.030959356            2 
 1610000    0.9983659   -6.9848379    593.04715  0.030696022  0.030952433            2 
 1611000    1.0109089   -7.0347285    593.91368  0.030721792  0.030945447            3 
 1612000   0.98383998    -6.998927     592.0493  0.030606353  0.030938334            4 
 1613000   0.98874514   -6.9998165    595.06112   0.03074298  0.030931413            1 
 1614000   0.99096656   -6.9836014    592.49735  0.030591561  0.030924333            2 
 1615000    1.0053788   -6.9773801    594.70843   0.03068671  0.030917279            2 
 1616000    1.0030172   -7.0070757    594.45377  0.030654588  0.030910258            1 
 1617000   0.99058134   -7.0078468    594.72559  0.030649639  0.030903195            4 
 1618000   0.99600138   -6.9914425    596.10063  0.030701516  0.030896092            2 
 1619000    0.9808752   -7.0012992    594.99691  0.030625742  0.030889131            3 
 1620000   0.99904131   -6.9861862    594.83369  0.030598441  0.030882193            3 
 1621000   0.99131964   -7.0174508     595.3105  0.030604076  0.030875189            3 
 1622000     0.999649   -6.9991783    597.32072  0.030688487  0.030868003            2 
 1623000   0.99421484   -6.9628508    596.59861  0.030632502  0.030860787            3 
 1624000   0.99654971   -7.0098233    597.24103  0.030646604  0.030853792            3 
 1625000    1.0112678   -7.0174318    595.61241  0.030544226  0.030846773            2 
 1626000   0.98495836    -6.983877    597.78077  0.030636571  0.030839824            2 
 1627000   0.98182913   -6.9957075    597.30658  0.030593453  0.030832824            3 
 1628000   0.98593483   -7.0259723    595.39771  0.030476951  0.030825839            5 
 1629000   0.99850506   -6.9996522    597.64134  0.030573017  0.030818769            6 
 1630000   0.97925196    -7.013538    597.99092  0.030572133  0.030811687            2 
 1631000   0.96704593   -7.0249125    597.48545  0.030527562  0.030804498            3 
 1632000    1.0089947   -6.9950719    599.15875  0.030594299  0.030797344            4 
 1633000   0.99402764   -6.9728649    599.08699  0.030571902  0.030790265            2 
 1634000   0.96975048   -7.0109598    598.37625  0.030516945  0.030783175            4 
 1635000   0.97375552   -6.9766844    599.22383   0.03054148  0.030776014            4 
 1636000   0.99226754   -6.9612785    599.13677  0.030518376  0.030768824            3 
 1637000   0.99733721   -6.9740346    597.96002   0.03043983  0.030761636            2 
 1638000   0.97745648   -6.9823031    599.36669  0.030492811  0.030754523            2 
 1639000   0.97853749   -6.9847958    598.22886  0.030416354  0.030747261            4 
 1640000    1.0000018   -6.9778506    599.73357  0.030474267   0.03074007            3 
 1641000   0.98543846   -6.9995862    599.81293  0.030459726  0.030732802            3 
 1642000   0.97805088   -6.9865937    599.04974  0.030402443   0.03072561            4 
 1643000   0.99576765   -7.0182405     598.3307  0.030347469  0.030718327            3 
 1644000   0.99033502   -6.9912231     599.3551  0.030380936  0.030711078            4 
 1645000   0.97708081   -6.9713942    599.44371  0.030366956  0.030703781            2 
 1646000   0.99904859   -6.9805573    599.99888  0.030376614  0.030696568            4 
 1647000    0.9831852   -7.0315852    599.67067  0.030341564  0.030689391            6 
 1648000   0.98360184   -6.9664427    601.69058  0.030425292  0.030682117            5 
 1649000   0.97298062   -7.0108991    599.36236  0.030289183  0.030674846            3 
 1650000   0.99287097   -6.9964459    600.34295  0.030320351  0.030667605            9 
 1651000   0.99345679   -7.0108073    599.96017  0.030282665  0.030660333            3 
 1652000    1.0218238    -6.966712    602.78737   0.03040695  0.030653101            2 
 1653000   0.97661463    -6.994081    600.33056  0.030264699  0.030645871            3 
 1654000    1.0023378   -6.9984539    600.73324  0.030266689  0.030638471            3 
 1655000   0.97431033    -7.006847    600.73373  0.030248425   0.03063109            4 
 1656000    0.9891351   -7.0050252     601.9268  0.030290197   0.03062378            4 
 1657000   0.97474314   -7.0280908    600.37304  0.030193776  0.030616373            1 
 1658000   0.97296421   -7.0280375      601.608  0.030237636  0.030608821            7 
 1659000   0.97363941   -7.0027331    600.68688   0.03017314  0.030601355            5 
 1660000    1.0105953   -7.0236165    602.27392  0.030234634  0.030593915            2 
 1661000   0.99453216   -7.0066962    602.66542  0.030236074  0.030586407            4 
 1662000   0.99229916   -7.0361282    601.78619  0.030173796  0.030578879            4 
 1663000   0.96966631   -7.0390662    602.89351   0.03021114  0.030571439            3 
 1664000   0.95634605   -6.9835096    603.75552  0.030236154  0.030563993            4 
 1665000   0.98110371   -6.9861157    602.65449  0.030162887  0.030556579            3 
 1666000   0.98317485   -6.9990283    604.76201    0.0302502   0.03054916            2 
 1667000   0.97578217    -7.027445    603.72163  0.030180045  0.030541853            3 
 1668000    1.0135818   -7.0194917    604.75494  0.030213576  0.030534517            4 
 1669000   0.99235551   -7.0203445    605.21003  0.030218196  0.030527117            3 
 1670000   0.97516346   -6.9767673    604.76097  0.030177693  0.030519842           12 
 1671000   0.97768324   -6.9990288    604.68596  0.030155893  0.030512569            1 
 1672000   0.99824035   -7.0441784    605.29152  0.030168038  0.030505268            2 
 1673000    0.9850704   -6.9860969    605.68387  0.030169549  0.030497978            2 
 1674000    1.0097405   -7.0225568    606.36831  0.030185599  0.030490602            2 
 1675000    1.0016591   -7.0211241    604.93606  0.030096321  0.030483187            3 
 1676000   0.98461246   -7.0049393    606.37589  0.030149955  0.030475724            2 
 1677000   0.99773586   -7.0161303    605.95676  0.030111149  0.030468356            2 
 1678000   0.98633576   -7.0182333    607.31888   0.03016085  0.030460882            4 
 1679000   0.98201349   -7.0465372    604.76193  0.030015978  0.030453383            4 
 1680000    0.9720252   -7.0260952     604.2114  0.029970804  0.030445858            7 
 1681000   0.99251559   -7.0485016     606.0116  0.030042217  0.030438276            7 
 1682000   0.99678419   -7.0111709    606.93325  0.030070018  0.030430641            3 
 1683000   0.98152785   -7.0343517      606.548  0.030033076  0.030423085            5 
 1684000   0.99194933   -7.0235535    607.13003  0.030044043  0.030415606            4 
 1685000   0.98440184   -7.0175995    607.11961  0.030025698  0.030408034            2 
 1686000    1.0004417   -6.9982391    606.44178  0.029974386  0.030400542            9 
 1687000   0.99304915   -6.9933133    608.79478   0.03007285  0.030393079            2 
 1688000   0.97550926   -7.0032331    607.99607  0.030015604  0.030385612            2 
 1689000     0.959389   -7.0277015    609.87732  0.030090651  0.030378107            4 
 1690000   0.98534889   -7.0079635    608.78329    0.0300189  0.030370586            3 
 1691000   0.99124867   -7.0555491    607.16739  0.029921516   0.03036304            3 
 1692000   0.94888639   -7.0247495    609.60766  0.030024018   0.03035553            3 
 1693000   0.98196486   -6.9978925    608.99861  0.029976305  0.030347968            1 
 1694000   0.97149176   -7.0075265    610.80331  0.030047388  0.030340425            4 
 1695000   0.95854319   -7.0126889    609.66182  0.029973541  0.030332862            2 
 1696000   0.98382156    -7.043756     609.8165  0.029963468  0.030325347            3 
 1697000   0.98568894   -6.9923006    612.01616  0.030053828  0.030317771            4 
 1698000   0.96607503   -7.0133756    608.18187  0.029847952  0.030310199            3 
 1699000   0.99147267   -7.0270659    610.78747  0.029958185  0.030302617            3 
 1700000   0.98583425   -7.0175203    609.69171  0.029886849  0.030295019            3 
 1701000   0.97720003   -7.0326277    609.96169  0.029882505  0.030287408            2 
 1702000   0.97994448   -7.0039819    611.08115  0.029919759  0.030279798            2 
 1703000    0.9672801    -7.046858    609.51426  0.029825517  0.030272101            4 
 1704000   0.98319155   -7.0645812    610.08456  0.029835904  0.030264361            5 
 1705000   0.97700218   -7.0187619    609.43627  0.029786719   0.03025664            6 
 1706000    0.9652142   -6.9881276    612.25875  0.029907129   0.03024901            3 
 1707000    1.0002382   -7.0432126    610.90492  0.029823517  0.030241554            3 
 1708000   0.96774766   -7.0221374      610.801  0.029800985  0.030233847            3 
 1709000   0.96113637   -7.0154753    612.35819  0.029859479  0.030226262            5 
 1710000   0.97371025   -7.0460473    611.04106  0.029777829  0.030218692            3 
 1711000    1.0069027   -7.0614349    611.18467   0.02976742  0.030211075            4 
 1712000     0.962205   -7.0158166     612.5558  0.029816774  0.030203479            5 
 1713000   0.97741179   -7.0495327    611.38505  0.029742413  0.030195839            5 
 1714000   0.95983907   -7.0336228    614.15355  0.029859663  0.030188212            2 
 1715000   0.97483232   -7.0017188    613.35624   0.02980351  0.030180568            2 
 1716000   0.97133827   -7.0270805    612.97806  0.029767777  0.030172982            3 
 1717000   0.96295798   -6.9940403     613.1488  0.029758726  0.030165389            3 
 1718000   0.98058112   -7.0270398    614.81925  0.029822432  0.030157811            3 
 1719000   0.97227669   -7.0208813    614.40123  0.029784818    0.0301502            3 
 1720000   0.97341318    -7.019038    614.73002  0.029783431   0.03014257            3 
 1721000   0.98486306   -7.0219584    613.81714  0.029721922  0.030134959            4 
 1722000   0.98345953   -7.0348893    615.30567  0.029776697  0.030127364            5 
 1723000   0.97849754   -7.0199198    615.57467  0.029772425  0.030119753            7 
 1724000   0.96939033   -7.0449008    612.91752  0.029626717  0.030112152            4 
 1725000   0.95602374   -6.9973279    616.38025  0.029776824  0.030104514            3 
 1726000   0.97208605    -7.000125    615.91483  0.029737101  0.030096927            1 
 1727000   0.98493323   -7.0074189    616.99105  0.029771813  0.030089337            5 
 1728000   0.98610802   -7.0664173    615.00506  0.029658809  0.030081748            3 
 1729000    0.9643162   -7.0160466    617.43448  0.029758747  0.030074187            1 
 1730000    0.9867143   -7.0327079    616.36248  0.029689908   0.03006666            4 
 1731000   0.98426796   -7.0266612    616.69336  0.029688685  0.030059046            3 
 1732000   0.99773008   -7.0267312    616.77732  0.029675583   0.03005156            4 
 1733000   0.97560691   -7.0463717    617.08375  0.029673194  0.030044086            2 
 1734000   0.94385541   -7.0423311    617.96674  0.029698517  0.030036589            2 
 1735000   0.97323401   -7.0301435    617.39935  0.029654147  0.030029077            2 
 1736000   0.96917744   -7.0123303    620.14907   0.02976906   0.03002151            3 
 1737000   0.95071799   -7.0406486    618.50235   0.02967292  0.030014053            5 
 1738000   0.96578636   -7.0190323    619.21762  0.029690143  0.030006417            4 
 1739000   0.99508359   -7.0357851    618.95497  0.029660483  0.029998882            3 
 1740000   0.99280935    -7.045515    617.79493   0.02958788  0.029991419            4 
 1741000   0.98144588   -6.9861209    619.95372  0.029674216   0.02998408            2 
 1742000   0.97912556   -7.0348778    620.85824  0.029700452  0.029976764            6 
 1743000   0.95917343   -7.0455211    620.56617  0.029669448  0.029969373            1 
 1744000   0.97089696   -7.0387121    620.16018  0.029633036  0.029961998            5 
 1745000   0.95802437   -7.0557453    621.25756   0.02966846  0.029954539            4 
 1746000   0.97307708   -7.0203689    620.06416  0.029594509   0.02994706            5 
 1747000   0.97618242   -7.0395816    621.52176  0.029647098  0.029939668            4 
 1748000   0.96192965   -7.0177397    620.09608   0.02956217  0.029932306            6 
 1749000   0.96063927   -7.0125985    621.11712  0.029593917   0.02992484            2 
 1750000   0.96518536   -7.0473797    620.96195  0.029569617  0.029917369            3 
 1751000   0.97237678   -7.0517151     619.3056  0.029473901  0.029909824            5 
 1752000   0.96275621   -7.0324998    621.12842   0.02954378  0.029902279            2 
 1753000   0.99505275   -7.0477043    621.50664  0.029544906  0.029894814            5 
 1754000   0.96780465   -7.0279789    621.94773  0.029549018   0.02988742            3 
 1755000   0.97939004   -7.0444836    621.03406  0.029488797  0.029879953            7 
 1756000   0.96297107   -7.0554066    623.01282  0.029565908  0.029872595            4 
 1757000   0.98967382   -7.0269666    624.39183  0.029614486  0.029865247            3 
 1758000   0.96935212   -7.0337347    624.31022  0.029593772  0.029857994            3 
 1759000   0.98257326   -7.0254893    623.56459  0.029541624  0.029850834            5 
 1760000   0.98493692   -7.0364867    625.08844  0.029596991  0.029843599            6 
 1761000   0.95440618   -7.0399866    626.58052  0.029650791  0.029836435            8 
 1762000   0.98180966   -6.9955761    625.60593   0.02958787  0.029829365            3 
 1763000   0.96456596   -7.0014142    626.63254  0.029619613  0.029822181            2 
 1764000    0.9554773   -7.0602119    625.82278  0.029564568  0.029815078            4 
 1765000   0.96051684   -7.0172371    627.23714  0.029614596  0.029807802            3 
 1766000   0.96085418   -7.0098082    627.17986  0.029595124  0.029800665            4 
 1767000   0.99142807   -7.0296045    626.90858  0.029565581  0.029793511            3 
 1768000   0.95580962   -7.0507302    628.67998  0.029632352  0.029786365            5 
 1769000   0.96809025   -7.0869908    625.85319  0.029482438  0.029779216            2 
 1770000   0.98561145   -7.0437846     627.8079  0.029557811  0.029772103            2 
 1771000   0.97207097    -7.034174    627.46698  0.029525079  0.029765003            2 
 1772000   0.95979214   -7.0309819    626.83121  0.029478518   0.02975788            3 
 1773000   0.96773953   -7.0645173    626.35352   0.02943944  0.029750832            3 
 1774000   0.97089672    -7.034249    628.70694  0.029533396  0.029743736            3 
 1775000   0.95311292   -7.0488251    629.35739  0.029547295  0.029736631            2 
 1776000   0.94994306   -7.0614619    626.65265  0.029403747  0.029729474            6 
 1777000   0.98140598   -7.0834571       628.41  0.029469612   0.02972233            2 
 1778000   0.96146972   -7.0431018    628.40943  0.029453011  0.029715188            6 
 1779000   0.95014253   -7.0122475    629.83014  0.029503005   0.02970811            4 
 1780000   0.97097493   -7.0340119    630.15757  0.029501759  0.029701044            2 
 1781000   0.97402376   -7.0686566    628.83864  0.029423481  0.029693896            3 
 1782000   0.98121326   -7.0751786     629.2297  0.029425257   0.02968681            4 
 1783000   0.95552924   -7.0491021    630.52406  0.029469249  0.029679705            2 
 1784000   0.95348141   -7.0229699    630.28415  0.029441524    0.0296727            4 
 1785000   0.97695047    -7.066367     629.7237  0.029398866  0.029665674            4 
 1786000   0.97431519   -7.0831851    630.08915  0.029399456  0.029658606            2 
 1787000   0.97365695   -7.0281062    631.44851  0.029446396  0.029651525            4 
 1788000   0.98094782    -7.011462     632.5812  0.029482718   0.02964457            3 
 1789000   0.96505545   -7.0285163     630.5309  0.029370733  0.029637559            2 
 1790000   0.95936231   -7.0362435    629.38838  0.029301135  0.029630573            1 
 1791000   0.96377658   -7.0646156     630.5237    0.0293376  0.029623402            2 
 1792000   0.96512206   -7.0304501    633.30519  0.029450576  0.029616405            3 
 1793000   0.96475766   -7.0335932    631.76937   0.02936277  0.029609251            3 
 1794000   0.96895072   -7.0519694    634.00022  0.029450029  0.029602089            6 
 1795000   0.94149456    -7.026992     633.0832  0.029391049  0.029595175            5 
 1796000   0.99049764   -7.0638565    633.29801  0.029384651  0.029588399            4 
 1797000   0.95533471   -6.9962499    634.63394  0.029430251  0.029581511            7 
 1798000   0.96613381   -7.0493011     636.7849  0.029513575  0.029574756            4 
 1799000   0.98049034   -7.0595654    633.49475  0.029344763  0.029567946            3 
 1800000   0.96472111   -7.0699538    636.04632  0.029446589   0.02956122            4 
 1801000   0.97889514   -7.0590452    635.05382  0.029384315  0.029554347            8 
 1802000   0.97388073   -7.0202723    634.87607  0.029359789  0.029547466            4 
 1803000   0.97076029   -7.1032812    636.22532  0.029405866   0.02954063            4 
 1804000    0.9578003   -7.0703922    636.47315  0.029401014  0.029533838            3 
 1805000   0.94877085   -7.0747276     636.6647  0.029393569  0.029527049            5 
 1806000    0.9675141   -7.0491071    636.26632  0.029358911  0.029520292            3 
 1807000   0.96487895   -7.0295595    637.44876  0.029397194  0.029513526            2 
 1808000   0.97808671   -7.0461753    637.74493  0.029394586  0.029506746            3 
 1809000   0.95725525   -7.0376328    636.02022  0.029298886  0.029499952            4 
 1810000   0.96117963   -7.0330444    639.89269   0.02946099  0.029493207            6 
 1811000   0.96671392   -7.0675554     636.8249  0.029303557  0.029486474            3 
 1812000   0.95480158   -7.0616796    636.38991   0.02926738  0.029479691            3 
 1813000   0.96831172   -7.0578141    638.61691    0.0293536  0.029473056            2 
 1814000   0.95700505     -7.04221    639.02844  0.029356323  0.029466416            6 
 1815000   0.96192957    -7.073359    639.76829  0.029374118  0.029459732            3 
 1816000   0.95325482   -7.0563923    638.70717   0.02930925   0.02945305            7 
 1817000   0.95256683   -7.0464292    638.81921  0.029298257  0.029446387            4 
 1818000   0.92321596   -7.0170588    640.71126   0.02936887  0.029439746            3 
 1819000   0.96477848   -7.0764315    639.86425   0.02931392  0.029433079            5 
 1820000   0.96711615   -7.0691513     640.3461  0.029319876  0.029426395            5 
 1821000   0.97704256   -7.0540146    640.52259  0.029311852  0.029419858            2 
 1822000   0.95744341    -7.037561    641.71508  0.029350305  0.029413253            2 
 1823000   0.95464213   -7.0363004    642.27034  0.029359587  0.029406656            3 
 1824000   0.94788091   -7.0392223    642.15086  0.029338033  0.029400085            1 
 1825000   0.97510943   -7.0600126    643.15238  0.029367689   0.02939356            3 
 1826000   0.95168693   -7.0630313    640.53568  0.029232187  0.029386959            2 
 1827000   0.96137413   -7.0904075    640.18965  0.029200404   0.02938024            3 
 1828000   0.95370655   -7.0384287    643.01662  0.029313303  0.029373517            2 
 1829000   0.95350574   -7.0739347    641.18557  0.029213849  0.029366878            4 
 1830000   0.96192219   -7.0731685    642.53406  0.029259292  0.029360147            2 
 1831000   0.98390622   -7.0721059    641.98069  0.029218127  0.029353404            2 
 1832000   0.95356021     -7.09103     640.4358  0.029131905  0.029346601            3 
 1833000   0.94249256   -7.0538506    643.16753  0.029240204  0.029339761            2 
 1834000   0.96716355    -7.067898    642.37729  0.029188354  0.029332956            2 
 1835000   0.98254039   -7.0810976    642.66554  0.029185538  0.029326137            3 
 1836000   0.95291106   -7.0926996    643.57317  0.029210837  0.029319367            3 
 1837000   0.94738259   -7.0374917    643.60185  0.029196237  0.029312549            4 
 1838000   0.95434455   -7.0483424    644.77473   0.02923353  0.029305771            5 
 1839000   0.95714113   -7.0213775    644.19536  0.029191379  0.029298969            4 
 1840000   0.95867252   -7.0641144    642.13076  0.029082009  0.029292067            3 
 1841000   0.97015032   -7.0352003    644.71953  0.029183393  0.029285107           10 
 1842000   0.94956675   -7.0770882    642.87244  0.029083986  0.029278273            2 
 1843000   0.96225812   -7.0762843    644.79565  0.029155166  0.029271437            2 
 1844000   0.95711837    -7.036068    645.19038  0.029157194  0.029264698            5 
 1845000   0.94981877    -7.083577    644.32911  0.029102489  0.029257859            3 
 1846000   0.94718403   -7.0534076    646.27296  0.029174475  0.029251066            2 
 1847000    0.9776821   -7.0424811    646.07169  0.029149598  0.029244395            2 
 1848000    0.9371694   -7.0569335    646.67182  0.029160887  0.029237625            8 
 1849000    0.9657515    -7.063177    645.30155  0.029083358  0.029230899            3 
 1850000   0.95820578   -7.0827477     646.9629  0.029142473  0.029224213            2 
 1851000   0.96832614   -7.0714885    646.64329   0.02911234  0.029217418            4 
 1852000   0.93675038   -7.0979336    646.12531  0.029073313  0.029210659            5 
 1853000   0.94811442   -7.1011266    646.14511  0.029058514  0.029203947            2 
 1854000   0.95913776    -7.054567    648.51999  0.029149586  0.029197197            2 
 1855000   0.96426716   -7.0417663     648.6088  0.029137862  0.029190537            4 
 1856000   0.96275352   -7.0854502    647.72354  0.029082415  0.029183888            4 
 1857000   0.96863025   -7.0755168    649.35234  0.029139847  0.029177184            3 
 1858000   0.92933324   -7.0512756    648.99136  0.029107973  0.029170555            2 
 1859000   0.95898935   -7.0653642    649.50716  0.029115436  0.029164056            2 
 1860000   0.95946458   -7.0907785    651.58845  0.029193031  0.029157472            4 
 1861000   0.95556162     -7.05639    651.02475  0.029152102  0.029150983            4 
 1862000   0.96860447   -7.0902464    652.20661   0.02918934  0.029144413            3 
 1863000   0.94757569   -7.0805612    649.77635  0.029064965  0.029137956            7 
 1864000   0.93362126   -7.0571848     648.8816  0.029009371  0.029131494            1 
 1865000   0.93590093   -7.0989286    650.54257  0.029068033  0.029124992            2 
 1866000   0.93935167    -7.027696    652.21279  0.029127045    0.0291185            5 
 1867000   0.94415348   -7.0456519    651.07349  0.029060591  0.029111988            3 
 1868000    0.9616385   -7.0589759    651.11378  0.029046832  0.029105435            3 
 1869000   0.95544905   -7.0584315    651.66419  0.029055832  0.029098848            2 
 1870000   0.96255893   -7.0860339    652.07444  0.029058576  0.029092306            3 
 1871000    0.9448586   -7.0753615    651.47038   0.02901614  0.029085741            2 
 1872000   0.94315484   -7.0864711    652.27778  0.029036582  0.029079137            3 
 1873000   0.93988002   -7.0557056    653.41793  0.029071807  0.029072601            5 
 1874000   0.96009097   -7.0543603    652.17968  0.029001231  0.029066044            4 
 1875000   0.93913677   -7.0325385    652.67249  0.029007666  0.029059474            3 
 1876000   0.95482356   -7.0678427    651.78187  0.028952642   0.02905283            5 
 1877000   0.96107497   -7.0684214    653.02389  0.028992359  0.029046247            4 
 1878000   0.95845584   -7.0938965    651.78271  0.028921845  0.029039651            2 
 1879000   0.93721281   -7.0377566    652.32914  0.028930687  0.029033069            3 
 1880000   0.92811147   -7.0716465    652.56484  0.028925746  0.029026514            2 
 1881000   0.93476008   -7.0744815    653.64209  0.028958093  0.029019919            3 
 1882000   0.97216015   -7.1132622    653.24107   0.02892495  0.029013323            4 
 1883000   0.95350329   -7.0690991     656.0061  0.029031957  0.029006836            2 
 1884000   0.94061873   -7.0673699    657.35513  0.029076218  0.029000365            3 
 1885000   0.94923077    -7.112242    655.85278  0.028994376  0.028993865            4 
 1886000   0.94089977   -7.0663496    655.87853   0.02898014  0.028987394            3 
 1887000   0.95091554   -7.0821458    656.48902  0.028991743  0.028981021            3 
 1888000    0.9515477   -7.0615243    655.66374   0.02893996  0.028974624            6 
 1889000   0.95422014   -7.0768531    656.92286  0.028980186   0.02896818            2 
 1890000   0.94104009   -7.0722485     655.0969  0.028884343  0.028961841            2 
 1891000   0.95279401   -7.0981822    656.29311  0.028921784   0.02895545            2 
 1892000   0.95441002   -7.0920907    658.07001  0.028984761  0.028949015            6 
 1893000   0.95390166   -7.0857402    658.31783  0.028980359  0.028942622            4 
 1894000   0.93810176   -7.1326318    656.05001  0.028865277   0.02893626            4 
 1895000   0.93683173    -7.081788    656.61152  0.028874737  0.028929867            3 
 1896000    0.9482718   -7.0751445    657.08871  0.028880481  0.028923495            2 
 1897000   0.93784002   -7.0605048    657.88956  0.028900438  0.028917135            3 
 1898000   0.94662414   -7.0870418    660.18568  0.028986024  0.028910792            2 
 1899000   0.96291046   -7.0727636     659.6483  0.028947178  0.028904471            2 
 1900000   0.95870363   -7.0893218     657.8807  0.028854417  0.028898114            3 
 1901000   0.94351099   -7.0869505    659.17104  0.028895802  0.028891703            3 
 1902000   0.96637116    -7.077717    659.97773  0.028915954  0.028885237            7 
 1903000   0.94307434   -7.1180798    658.53467  0.028837566  0.028878765            3 
 1904000   0.93822228   -7.0638617    659.66277  0.028871795  0.028872365            5 
 1905000   0.93390609   -7.1119698    660.07171  0.028874528  0.028865981            3 
 1906000   0.94972394   -7.1432324     658.9641  0.028810952  0.028859547            3 
 1907000   0.95414928   -7.0721708    660.63747  0.028868968    0.0288532            2 
 1908000     0.940234   -7.0799101    661.89414  0.028908724  0.028846795            8 
 1909000   0.94661279    -7.086093    659.97754  0.028809915  0.028840325            3 
 1910000   0.96035026    -7.108451    659.06507   0.02875502  0.028833798            5 
 1911000   0.93652946   -7.0881627    660.17642  0.028788436  0.028827227            3 
 1912000   0.95023202   -7.0839916     660.3388  0.028780457  0.028820604            3 
 1913000   0.95489367   -7.0845784    661.07266   0.02879738   0.02881408            6 
 1914000   0.93252898   -7.0940266    661.42551  0.028797697  0.028807571            2 
 1915000   0.93527597   -7.1082444    660.56384  0.028745163  0.028801113            4 
 1916000   0.93626675   -7.1339201    660.60274  0.028731852  0.028794632            3 
 1917000   0.91643256   -7.1009167    659.77469  0.028680868  0.028788093            8 
 1918000     0.940411   -7.0835353    662.73417  0.028794498  0.028781562            3 
 1919000   0.95230392   -7.0666242    662.40147  0.028765046  0.028775097            3 
 1920000   0.94303557   -7.0687231    662.66089  0.028761323  0.028768625           12 
 1921000   0.96402805   -7.1110291    662.16119  0.028724674  0.028762093            3 
 1922000   0.94551326   -7.0936033    662.25471  0.028713784  0.028755567            3 
 1923000   0.93175086   -7.0857811    662.58313  0.028713084  0.028749118            3 
 1924000   0.92750896   -7.0646332    663.32819  0.028730431  0.028742624            2 
 1925000   0.91741785   -7.0965645     662.1182  0.028663125  0.028736093            3 
 1926000   0.92503535   -7.0860175    665.44602   0.02879223   0.02872958            2 
 1927000   0.92720704   -7.0672129    665.37216  0.028774094  0.028723125            3 
 1928000    0.9351744    -7.080944    663.27857   0.02866868  0.028716586            2 
 1929000   0.95933399   -7.0772641    662.20614  0.028607488  0.028710082            5 
 1930000   0.93523801    -7.076449    662.42006  0.028601902  0.028703574            2 
 1931000   0.92842768   -7.1011484     664.9538  0.028696435  0.028697155            2 
 1932000   0.95574429   -7.0799755    664.55307  0.028664298  0.028690639            4 
 1933000   0.93063813   -7.1094635    666.30931  0.028725181  0.028684161            4 
 1934000   0.94150235   -7.0932284    665.08045  0.028657379  0.028677695            4 
 1935000   0.93413188   -7.1024508    663.78506  0.028586781  0.028671302            3 
 1936000   0.93454746   -7.1340308    664.02472  0.028582331  0.028664813            5 
 1937000   0.94758666   -7.0923633    666.25659  0.028663595  0.028658346            2 
 1938000   0.94137685   -7.1256643    666.10957  0.028642482  0.028651866            7 
 1939000   0.95315927   -7.1153363    666.38927  0.028639731  0.028645425            3 
 1940000   0.92272572   -7.0749895    667.29713  0.028663966  0.028639051            1 
 1941000   0.93791302   -7.1085608    667.90105  0.028675127   0.02863274            2 
 1942000   0.94429329   -7.0985925    666.59742  0.028604421  0.028626459            2 
 1943000   0.93440032   -7.1491033    666.70967  0.028594513  0.028620054            4 
 1944000   0.96512048   -7.0864048    668.72613  0.028666244  0.028613654            6 
 1945000    0.9267299   -7.0767582    667.46842  0.028597619  0.028607346            2 
 1946000   0.95151031   -7.0993823    668.14551  0.028611918   0.02860105            5 
 1947000   0.94613849   -7.0985881    667.57914  0.028572982  0.028594728            3 
 1948000   0.93990307   -7.1090172    667.55208  0.028557156  0.028588489            2 
 1949000   0.95990478   -7.1058251    669.15142  0.028610887  0.028582163            3 
 1950000   0.92188149   -7.1146349    668.54518  0.028570307  0.028575876            2 
 1951000   0.95362804   -7.0833561    669.25797  0.028586108  0.028569559            4 
 1952000   0.94194457   -7.1004034    670.54375  0.028626355  0.028563217            4 
 1953000   0.93488172    -7.076583    670.56746  0.028612709  0.028556824            3 
 1954000   0.94066772   -7.0960514     668.8608  0.028525282  0.028550444            4 
 1955000   0.93039751   -7.1089751    670.44832   0.02857836  0.028544143            1 
 1956000    0.9240696   -7.0704494    669.81242  0.028536657   0.02853785            6 
 1957000   0.93390893   -7.1004216    671.00728  0.028572955  0.028531597            4 
 1958000   0.94506181   -7.1138147    670.34207  0.028530051  0.028525241            4 
 1959000   0.91677887   -7.1275928    670.19467  0.028509217  0.028518867            4 
 1960000   0.92623562   -7.1226963     669.7239  0.028474655  0.028512442            3 
 1961000   0.93969366    -7.106306    669.57688  0.028453888  0.028505985            2 
 1962000   0.92614195   -7.1581702    668.39892  0.028389353  0.028499499            2 
 1963000    0.9267747   -7.0837867    670.57171   0.02846713  0.028492995            3 
 1964000   0.92771831   -7.1160523    669.91312  0.028424691  0.028486537            3 
 1965000   0.93111222   -7.1296756    670.48565  0.028434506  0.028480073            3 
 1966000   0.93723559   -7.1080065    669.62046   0.02838337  0.028473634            2 
 1967000   0.94597907   -7.0881537    672.23515  0.028479713  0.028467135            4 
 1968000   0.93164828   -7.1209974    669.69983  0.028357886  0.028460641            2 
 1969000   0.95134263   -7.0944555    671.78075  0.028431554  0.028454049            2 
 1970000    0.9318465    -7.132166    670.87144  0.028378656  0.028447495            5 
 1971000   0.93850892   -7.0824832    671.58179  0.028394292  0.028441003            5 
 1972000   0.93598527   -7.1263138    673.58759  0.028464655  0.028434612            2 
 1973000   0.90547882   -7.0470886    672.16501  0.028390142  0.028428181            2 
 1974000   0.93054045   -7.1171672     669.7086  0.028272062  0.028421665            2 
 1975000   0.93339109   -7.1585637    671.33098  0.028326202  0.028415047            3 
 1976000   0.92966552   -7.1268773    670.78607  0.028288886  0.028408461            4 
 1977000   0.92885325   -7.1120425    670.65639  0.028269111  0.028401929            2 
 1978000   0.93418151   -7.1155298    670.90866  0.028265447  0.028395377            3 
 1979000   0.93566038   -7.1203854     672.0711  0.028300114  0.028388804            6 
 1980000   0.92159822   -7.0804731    673.53976  0.028347633  0.028382209            3 
 1981000   0.94064791   -7.0972009    672.57221  0.028292622   0.02837566            3 
 1982000   0.92276191   -7.0738569    673.32474  0.028309987  0.028369126            5 
 1983000   0.90588343   -7.1194722    672.07194  0.028243064   0.02836244            3 
 1984000   0.93211503   -7.1125565    673.85677  0.028303796  0.028355747            3 
 1985000      0.92512   -7.0939151    673.02529   0.02825463  0.028349108            4 
 1986000    0.9458556   -7.0978807    674.52853   0.02830348  0.028342485            2 
 1987000   0.92953144   -7.0728969    676.96482  0.028391412  0.028335912            4 
 1988000   0.94885578    -7.113341     675.9302  0.028333761  0.028329361            5 
 1989000    0.9225628   -7.1531557    673.66987  0.028224814  0.028322741            2 
 1990000    0.9242558   -7.0978047    673.27773   0.02819421  0.028316161            3 
 1991000   0.93250416     -7.09439    675.04971  0.028254215  0.028309624            2 
 1992000   0.91433122   -7.1143973    675.59051  0.028262655  0.028303054            4 
 1993000   0.93975759   -7.1239595     677.1695  0.028314497  0.028296596            8 
 1994000   0.93096453   -7.1110541    675.07626  0.028212816  0.028290102            4 
 1995000    0.9161161   -7.1149558    676.22987  0.028246862  0.028283685            4 
 1996000   0.91571363   -7.0863555    675.91497  0.028219563  0.028277286            4 
 1997000   0.93453585   -7.1359099    676.82302  0.028243324  0.028270867            6 
 1998000   0.92447384   -7.1191733    677.80894   0.02827031  0.028264489            6 
 1999000   0.93871859     -7.10238    677.98989  0.028263711  0.028258068            6 
 2000000   0.93387638   -7.1446847    676.87883  0.028203285  0.028251668            7 
 2001000   0.92674538   -7.0814077    679.15677  0.028284057  0.028245263            6 
 2002000   0.92518993   -7.1130195    676.99203  0.028179821  0.028238872            4 
 2003000   0.92333772   -7.1268079    678.08468  0.028211211  0.028232377            3 
 2004000   0.93634476   -7.1291041    678.41295  0.028210785  0.028225855            2 
 2005000   0.93050792   -7.0875628    679.01814  0.028221868  0.028219408            4 
 2006000   0.93392725   -7.1576182    676.74981  0.028113568  0.028212976            4 
 2007000   0.92877781   -7.1246273    678.47356  0.028171133  0.028206427            3 
 2008000   0.95630271   -7.1107432    679.42087  0.028196417  0.028199923            4 
 2009000   0.92668338   -7.0704586    680.33933   0.02822048  0.028193432            4 
 2010000   0.93328915   -7.1409004     677.9955  0.028109266  0.028186935            5 
 2011000   0.95146312   -7.1014416    679.10727  0.028141359  0.028180444           11 
 2012000   0.95391143   -7.1138587    679.12753  0.028128211  0.028173986            2 
 2013000   0.90186277   -7.1019598    680.69704  0.028179212  0.028167496            3 
 2014000   0.93013894   -7.0973825     680.0659  0.028139106  0.028161003            6 
 2015000   0.91550715   -7.1401595    680.29469  0.028134602  0.028154499            5 
 2016000    0.9462764   -7.1489592    680.53299  0.028130497  0.028148013            3 
 2017000   0.91570992   -7.1253561    679.55987  0.028076346  0.028141513            3 
 2018000   0.93823251   -7.1352677    681.18933  0.028129721  0.028135061            6 
 2019000   0.93098472   -7.1462233    681.25054  0.028118315  0.028128499            2 
 2020000   0.92351312   -7.1385275    681.00723  0.028094358  0.028121937            5 
 2021000   0.93038742   -7.1655117    679.62561  0.028023487  0.028115423            2 
 2022000   0.92520266   -7.1121611    682.34489  0.028121699  0.028108918            3 
 2023000   0.94630883   -7.1425724    680.32404  0.028024553  0.028102393            3 
 2024000   0.90394713   -7.1271578    680.03963  0.027998997  0.028095783            5 
 2025000   0.91487074   -7.1290281    679.79636  0.027975159  0.028089229            3 
 2026000   0.91128666   -7.1390566    680.12911  0.027975038  0.028082686            2 
 2027000   0.93822751   -7.1319114    681.55391  0.028019812  0.028076117            9 
 2028000   0.92104573   -7.1554701    678.83389  0.027894226  0.028069393            3 
 2029000     0.939182   -7.1089134    680.47291  0.027947795  0.028062639            1 
 2030000   0.91927251   -7.1374487    682.30428  0.028009207  0.028055993            2 
 2031000   0.90333156   -7.1206662    683.39642  0.028040227  0.028049417            5 
 2032000   0.92428053   -7.1043333    682.97862  0.028009294  0.028042789            6 
 2033000   0.93211874     -7.11646    683.25516  0.028006852  0.028036241            4 
 2034000   0.91697811    -7.113785    684.69747  0.028052174  0.028029751            2 
 2035000   0.93399298   -7.1404434    683.23784  0.027978618  0.028023286            2 
 2036000   0.93001797   -7.1252962    683.49495  0.027975399  0.028016805            3 
 2037000   0.93163936   -7.1138768    685.06075  0.028025722  0.028010358            2 
 2038000   0.94694985   -7.1429502    683.81854  0.027961177   0.02800384            3 
 2039000   0.91884963   -7.1109211    685.96054  0.028035007  0.027997365            3 
 2040000    0.9258007   -7.1508935    683.55473  0.027922987  0.027990833            5 
 2041000   0.93254994   -7.1267932     685.8227  0.028001907  0.027984303            2 
 2042000   0.92167366   -7.1328227    684.76896  0.027945191  0.027977918            4 
 2043000   0.95449208   -7.1446151    686.01782  0.027982453  0.027971516            3 
 2044000   0.91742508   -7.1336189    686.22398  0.027977168  0.027965061            5 
 2045000    0.9220637   -7.1285293    686.52584  0.027975788  0.027958635            4 
 2046000   0.94064113    -7.155023    685.66426  0.027927023   0.02795214            6 
 2047000   0.90601119   -7.1424482    685.24435  0.027896285  0.027945624            4 
 2048000   0.92214247   -7.1157204    684.55473  0.027854603  0.027939138            2 
 2049000   0.91903411   -7.1442475    685.79513  0.027891456  0.027932676            2 
 2050000   0.91667878   -7.1269442    686.66417  0.027913178  0.027926292            2 
 2051000   0.93664283   -7.1678394    687.23876  0.027922914  0.027919878            3 
 2052000   0.92057815   -7.1455574    685.49739  0.027838588  0.027913406            3 
 2053000    0.9124871   -7.1179598    689.44662  0.027985331  0.027907049            3 
 2054000   0.91732845   -7.1266215    688.35222  0.027927305  0.027900657            4 
 2055000   0.93974453   -7.1458917    688.46983  0.027918485  0.027894306            5 
 2056000   0.92651642   -7.1484772    688.31456  0.027898612  0.027887952            4 
 2057000   0.93826756   -7.1462926    689.31863  0.027925726  0.027881583            3 
 2058000   0.93059705    -7.156886    687.97174  0.027857618  0.027875158            3 
 2059000   0.90245682   -7.1377553    687.22957  0.027814051  0.027868693            2 
 2060000   0.92013175   -7.1185037    688.75499  0.027862257  0.027862289            2 
 2061000   0.91291894   -7.1261654     689.5899  0.027882496    0.0278559            3 
 2062000   0.93524537   -7.0994542    689.44108   0.02786296  0.027849475            3 
 2063000   0.91666211   -7.1326719    691.52404  0.027933594  0.027843145            2 
 2064000   0.93490312   -7.1400867    688.84375  0.027811844  0.027836756            4 
 2065000   0.90136779   -7.1392361    688.35484  0.027778646   0.02783037            2 
 2066000    0.9355219   -7.1501639    688.77832  0.027782281  0.027823944            3 
 2067000   0.92474466   -7.1476182    690.50529  0.027838465  0.027817566            2 
 2068000   0.93894525   -7.1489783    688.88765  0.027759818   0.02781116            3 
 2069000   0.93201805   -7.1415447    691.31486  0.027844162  0.027804747            4 
 2070000   0.90674785   -7.1608331    688.49114  0.027717035    0.0277983            3 
 2071000    0.9112277   -7.1477362    691.15004  0.027810641  0.027791789            2 
 2072000   0.93273921   -7.1516336    690.20969  0.027759399  0.027785279            7 
 2073000    0.9248994   -7.1582765    689.51739  0.027718178  0.027778781            4 
 2074000   0.90530843   -7.1513582    690.05846  0.027726553  0.027772241            8 
 2075000   0.90216462   -7.1376209    690.60551  0.027735161  0.027765785            5 
 2076000   0.91965119   -7.1542469    689.02898  0.027658517  0.027759273            3 
 2077000   0.91797812    -7.131009    689.74088  0.027673764  0.027752769            2 
 2078000   0.91372479    -7.157172    692.33042  0.027764293  0.027746269            2 
 2079000   0.92971685   -7.1368989    692.73194  0.027767033  0.027739766            2 
 2080000   0.89791421   -7.1293197    691.14754  0.027690206   0.02773326            2 
 2081000   0.89696206   -7.1494031     693.3934  0.027766835  0.027726772            3 
 2082000   0.91583297   -7.1642306    692.15648   0.02770399  0.027720294            2 
 2083000   0.91021884   -7.1303725    691.90618  0.027680676   0.02771386            2 
 2084000   0.91257825   -7.1780718    690.13047  0.027596388  0.027707429            5 
 2085000     0.908574   -7.1602417    693.31165  0.027710298  0.027700992            4 
 2086000   0.91438683   -7.1601241    693.32408   0.02769751  0.027694506            3 
 2087000   0.91346347   -7.1676494    693.24062  0.027680906  0.027687975            4 
 2088000   0.89920811   -7.1494912    693.44378  0.027675758  0.027681487            2 
 2089000   0.93010434   -7.1412748    693.01672  0.027645473  0.027675063            4 
 2090000   0.91701162   -7.1210449    693.08805   0.02763509  0.027668539            3 
 2091000   0.90117909   -7.1257451    693.38571  0.027633736  0.027662061            3 
 2092000   0.92441737   -7.1550502    691.97103  0.027564174  0.027655605            3 
 2093000   0.93889811   -7.1477325    693.74195  0.027621514  0.027649115            3 
 2094000   0.92071677   -7.1469612     695.3822  0.027673599  0.027642708            4 
 2095000   0.92811928   -7.1364585    694.76285  0.027635754  0.027636275            5 
 2096000    0.9355805   -7.1799616     694.8667  0.027626698  0.027629695            5 
 2097000   0.94159596   -7.1564299    693.45381  0.027557376  0.027623117            2 
 2098000   0.92295088   -7.1890978    694.89638   0.02760154  0.027616524            2 
 2099000   0.91496286   -7.1352632    694.58031  0.027575842  0.027610062            3 
 2100000   0.92561986   -7.1458907    696.51459  0.027639468  0.027603653            3 
 2101000   0.91384427   -7.1650857    696.55081  0.027627749  0.027597186            5 
 2102000     0.921342   -7.1242179    695.61887  0.027577659  0.027590753            4 
 2103000   0.90790215   -7.1259911    696.65844  0.027605739   0.02758436            3 
 2104000   0.91325823    -7.169077    695.08382  0.027530253  0.027577915            5 
 2105000   0.91524842   -7.1382969    697.89583  0.027628497  0.027571412            8 
 2106000   0.90936934   -7.1629542    696.73302  0.027569366  0.027564932            4 
 2107000   0.91582611   -7.1541958    694.63419  0.027473271  0.027558421            2 
 2108000   0.88791471   -7.1619745    695.35878  0.027488883  0.027551934            4 
 2109000   0.93734388   -7.1512922     698.0659  0.027582816  0.027545421            2 
 2110000   0.91345701   -7.1361563    696.41443  0.027504519     0.027539            4 
 2111000   0.90819886   -7.1429571    698.47788  0.027572947  0.027532553            3 
 2112000   0.91684937   -7.1827475    696.87189  0.027496523  0.027526069            2 
 2113000   0.90340898    -7.160344    697.23535  0.027497845  0.027519543            4 
 2114000   0.92827954   -7.1481023    697.93719  0.027512503  0.027513068            3 
 2115000   0.89782471   -7.1703707    696.32324  0.027435904  0.027506563            7 
 2116000   0.92279121   -7.1419036    696.30698  0.027422298  0.027500024            4 
 2117000    0.9188255    -7.162149    696.37052  0.027411845   0.02749348            2 
 2118000   0.94951838   -7.1523461     699.1422  0.027507956  0.027486981            7 
 2119000   0.90646106   -7.1427648     698.4343  0.027467134  0.027480546            4 
 2120000   0.91783472   -7.1342183    698.40246  0.027452927  0.027474065            4 
 2121000   0.92449989   -7.1655411    698.17895  0.027431202  0.027467537            7 
 2122000   0.88518682   -7.1408398    698.06476  0.027413791  0.027461001            4 
 2123000   0.89086967   -7.1461334    698.41448  0.027414605  0.027454509            5 
 2124000   0.90548144   -7.1481674    698.55703  0.027407291  0.027448056            6 
 2125000   0.90147354   -7.1663401    699.27642  0.027422605  0.027441548            5 
 2126000   0.89385568   -7.1595641    698.00848  0.027360006  0.027435045            4 
 2127000   0.91714036   -7.1616965    698.88102  0.027381328  0.027428482            5 
 2128000   0.90724176   -7.1382144    698.34563  0.027347495  0.027421884            5 
 2129000   0.91298732   -7.1631839     698.9133   0.02735687  0.027415279            2 
 2130000   0.90897598   -7.1295724    700.30912  0.027398635  0.027408699            2 
 2131000   0.89855887   -7.1665976    697.46178  0.027274432  0.027402097            3 
 2132000   0.94529311   -7.1959066    696.41392  0.027220682  0.027395488            3 
 2133000   0.90419982   -7.1619106    698.53241  0.027290686  0.027388844            3 
 2134000   0.89954602    -7.166108    699.44938  0.027313706  0.027382253            4 
 2135000   0.93293284   -7.1874394    698.74526  0.027273429  0.027375642            6 
 2136000   0.91458637   -7.1895632     698.6772  0.027258006  0.027369003            3 
 2137000    0.9041952   -7.1322936    699.35292    0.0272716  0.027362323            7 
 2138000   0.90896944   -7.1684379    698.05282   0.02720817  0.027355651            2 
 2139000   0.92238362   -7.1849785    700.68843  0.027298131  0.027348954           10 
 2140000   0.90171319   -7.1511732    700.36904  0.027272938  0.027342304            3 
 2141000   0.89822035   -7.1597959    699.29572  0.027218423  0.027335696            4 
 2142000   0.89019021   -7.1896655    699.69326  0.027221182  0.027329041            2 
 2143000   0.91225556    -7.150149    698.81954  0.027174504  0.027322308            2 
 2144000   0.89463792   -7.1620236    700.93273  0.027243965  0.027315609            3 
 2145000   0.89381728   -7.1928849    699.05636  0.027158367  0.027308886            6 
 2146000   0.90571084   -7.1867671    702.10999   0.02726429  0.027302133            5 
 2147000   0.91773508   -7.1733794    701.20842  0.027216597   0.02729542            3 
 2148000   0.90950071   -7.1513559    700.29036   0.02716831  0.027288669            9 
 2149000   0.89891213    -7.150131    701.51107  0.027203004  0.027281962            4 
 2150000   0.91494407   -7.1925621    700.16532  0.027138191  0.027275229            5 
 2151000   0.91431922   -7.1543937    700.87603  0.027153108  0.027268533            8 
 2152000    0.9287685    -7.177281    700.06069  0.027108918  0.027261766            2 
 2153000   0.91144439   -7.1373823    701.78879  0.027163214  0.027254959            3 
 2154000   0.90187913    -7.156007    702.76946  0.027188543  0.027248157            5 
 2155000   0.88072516   -7.1880471    700.31024  0.027080829  0.027241299            4 
 2156000   0.90260352   -7.1789119    700.73328   0.02708462  0.027234448            5 
 2157000   0.91035162   -7.2169269    700.92417  0.027079438  0.027227573            4 
 2158000   0.91292444   -7.1822165    697.31731  0.026927607  0.027220676            4 
 2159000    0.9091199   -7.1812809    700.11161   0.02702299   0.02721377            3 
 2160000   0.90220954   -7.1731738    702.34574  0.027096672  0.027206867            5 
 2161000   0.92230165   -7.1833931    701.04249  0.027033877  0.027200024            3 
 2162000   0.90795156   -7.1485514    701.51788  0.027039696  0.027193136            2 
 2163000   0.90362306   -7.1875379    700.44244  0.026985762  0.027186281            7 
 2164000   0.90764445   -7.1651569    701.10416  0.026998774  0.027179312            7 
 2165000   0.92297055   -7.1942082    701.86764   0.02701569  0.027172391            4 
 2166000   0.90752758    -7.135757    701.44906  0.026987114  0.027165477            3 
 2167000   0.91653379   -7.1735002    702.24272  0.027005181  0.027158578            4 
 2168000     0.904647   -7.1716532    702.12462  0.026988185  0.027151645            2 
 2169000   0.91343451   -7.1636832    703.40956   0.02702511  0.027144781            1 
 2170000   0.89114411    -7.173646    701.77539    0.0269499  0.027137849            2 
 2171000   0.89898085   -7.1771956     701.7409  0.026936162  0.027130881            3 
 2172000   0.89537692   -7.1335194    703.84461  0.027004474  0.027123905            3 
 2173000   0.90660504   -7.1879703    701.82199   0.02691448  0.027116913            4 
 2174000   0.90598316   -7.1980701      700.446  0.026849356  0.027109877            2 
 2175000    0.9087525   -7.2021684    701.56603  0.026879924  0.027102838            2 
 2176000   0.91205112   -7.2052944     701.3087  0.026857717  0.027095826            9 
 2177000   0.88832491   -7.1433748    704.98807  0.026986222  0.027088851            2 
 2178000   0.88845273   -7.1688484    703.60355  0.026920858  0.027081874            5 
 2179000   0.89308685   -7.1713002    701.94201   0.02684496  0.027074836            3 
 2180000   0.90065845   -7.1801985    701.20619  0.026804518  0.027067736            3 
 2181000   0.89606612   -7.1991296    702.53731  0.026843088  0.027060653            3 
 2182000   0.89121734   -7.1705176    702.91387  0.026845168  0.027053594            4 
 2183000   0.90309051   -7.1879222    702.41342  0.026813766  0.027046625            5 
 2184000   0.91939892    -7.198974    703.16893  0.026830316  0.027039554            5 
 2185000    0.8901522   -7.1603408    703.05988  0.026813878   0.02703247            2 
 2186000   0.89091477   -7.1815894     703.4783  0.026817563   0.02702546            2 
 2187000   0.91994251   -7.2010048    704.17096  0.026831693  0.027018441            3 
 2188000   0.91755107    -7.173597    703.94765  0.026810925  0.027011395            6 
 2189000   0.90466257   -7.1839543    703.50716  0.026781908   0.02700433           13 
 2190000   0.90110416   -7.1979207    703.08868  0.026753755  0.026997224            4 
 2191000   0.88784415   -7.2273826    703.33995  0.026751101  0.026990128            3 
 2192000    0.9051631   -7.1835974    706.37449  0.026854261  0.026983064            2 
 2193000   0.90537001   -7.1751349    704.80284  0.026782293  0.026975999            5 
 2194000   0.88224219   -7.2005087    704.10018  0.026743398  0.026968949            3 
 2195000   0.90386162   -7.1923478    704.11334  0.026731714   0.02696188            5 
 2196000   0.89312861   -7.1890341    704.16766  0.026721602  0.026954832            4 
 2197000   0.90445745   -7.1992027    703.52034  0.026684886  0.026947776            5 
 2198000   0.89706402    -7.191279    706.10085  0.026770581  0.026940678            5 
 2199000   0.91279035   -7.2099303     706.1184  0.026759072  0.026933637            3 
 2200000   0.90801978    -7.187806     706.2452  0.026751712  0.026926591            5 
 2201000    0.8979234   -7.2041969    705.95298  0.026728494   0.02691953            5 
 2202000   0.88080354   -7.1893417    706.54217  0.026738653   0.02691245            7 
 2203000    0.8969082   -7.1810307    706.25128  0.026715512  0.026905434            5 
 2204000   0.91093793   -7.2177122    706.87368  0.026726924    0.0268984            2 
 2205000   0.88048823    -7.186831    704.28927   0.02661713  0.026891335            5 
 2206000   0.90317959   -7.1915219    706.88447    0.0267031  0.026884322            3 
 2207000   0.92315146    -7.202809    706.73531  0.026685369  0.026877278            4 
 2208000   0.88552986    -7.222536    704.93331  0.026605273  0.026870171            7 
 2209000   0.88535501   -7.1932761    704.65229  0.026582627  0.026863131            2 
 2210000   0.88960628   -7.2135945    707.77298  0.026688272  0.026856141            3 
 2211000   0.89870387   -7.1799872    706.22499  0.026617857  0.026849163            3 
 2212000   0.88219223   -7.1708979    705.58806  0.026581829  0.026842151            3 
 2213000   0.90173546   -7.1986586    708.46946   0.02667832  0.026835163            4 
 2214000   0.90126362   -7.1912015    707.64267   0.02663515  0.026828147            4 
 2215000   0.88644195   -7.2060825    706.92858   0.02659626  0.026821109            3 
 2216000   0.86808605   -7.2104952    707.64088  0.026611044  0.026814074            3 
 2217000   0.88930872   -7.1788539    707.65647  0.026599627   0.02680702            6 
 2218000   0.89682181   -7.2101577    705.26618  0.026497828  0.026799931            5 
 2219000   0.89174267   -7.1777748    707.02058  0.026551772  0.026792922            7 
 2220000   0.89931474   -7.2274342    705.56601  0.026485211  0.026785852            3 
 2221000   0.90074612    -7.181886    707.46418  0.026544506  0.026778706            4 
 2222000   0.91191091   -7.1610071    709.46184   0.02660748  0.026771654            3 
 2223000   0.90899349   -7.1793092     709.7997  0.026608176  0.026764633            5 
 2224000   0.87819022   -7.1593407    707.75499  0.026519597  0.026757582            2 
 2225000   0.92047871   -7.2100348    707.87041     0.026512   0.02675053            3 
 2226000   0.91099706   -7.1637407    709.48331  0.026560471  0.026743451            3 
 2227000   0.91475474   -7.1624814    707.35095  0.026468753   0.02673639            3 
 2228000   0.89106581   -7.2039555    708.98473   0.02651798  0.026729298            2 
 2229000   0.90468717   -7.2082466     708.1593  0.026475224  0.026722198            4 
 2230000   0.88141567   -7.2245222    707.78554  0.026449385  0.026715062            2 
 2231000   0.89873108   -7.2285988    707.11515  0.026412489  0.026707915            6 
 2232000    0.8936497    -7.196526    709.25476  0.026480539  0.026700832            2 
 2233000   0.90024086   -7.1976954    709.52879  0.026478907  0.026693753            5 
 2234000   0.90537155   -7.2028566    709.74787  0.026475226  0.026686753            5 
 2235000   0.91141386   -7.1820703    710.70916  0.026499223  0.026679725            8 
 2236000    0.9138015   -7.1839221    709.53166  0.026443488  0.026672655            4 
 2237000   0.88207816   -7.2139228    706.66696   0.02632495  0.026665545            3 
 2238000   0.90382519   -7.2105319    709.95871  0.026435758  0.026658377            4 
 2239000   0.88034754   -7.2358621    709.30481  0.026399613  0.026651186            4 
 2240000   0.90905542   -7.1676482     710.6718  0.026438683  0.026643991            4 
 2241000   0.86887615   -7.1991597    710.80196  0.026431726  0.026636848            4 
 2242000   0.89639195   -7.2178684    709.54127  0.026373077  0.026629671            6 
 2243000   0.87641669   -7.2091991    709.94211  0.026376212  0.026622491            2 
 2244000   0.86672801   -7.2060677    710.10039  0.026370335  0.026615327            4 
 2245000   0.88033687   -7.2353989    708.12213  0.026285157  0.026608124            2 
 2246000   0.89787684   -7.1650671    711.27035  0.026390262  0.026600958            3 
 2247000    0.8889077    -7.256563    710.39286  0.026345975  0.026593799            4 
 2248000    0.9005198   -7.1775917    710.84373  0.026350969  0.026586623            2 
 2249000   0.90941998   -7.1887634    710.03882  0.026309427  0.026579465            5 
 2250000   0.88998579   -7.1633616    710.50236  0.026314902  0.026572392            3 
 2251000   0.87899973   -7.1415867    710.94659  0.026319658   0.02656529            6 
 2252000   0.88354507   -7.2056697    710.21156  0.026280771   0.02655822            6 
 2253000     0.896986   -7.2021154    711.20846  0.026305979  0.026551016            4 
 2254000   0.90645768    -7.253883    710.05706   0.02625174   0.02654381            3 
 2255000   0.88860697   -7.2011422    712.63955  0.026335534  0.026536697            5 
 2256000    0.9013975   -7.2004203    712.90249  0.026333573  0.026529584            1 
 2257000   0.88847312   -7.2367196    710.46553  0.026231928  0.026522509            4 
 2258000   0.88159265   -7.1990711    715.34898  0.026400538   0.02651545            2 
 2259000   0.88968909      -7.1993    713.45134  0.026318848  0.026508427            4 
 2260000   0.87605041   -7.2164975      713.278  0.026300811  0.026501352            4 
 2261000   0.90100804   -7.2230443    712.15041   0.02624762  0.026494267            8 
 2262000    0.8848965   -7.2194231    713.27789  0.026277553  0.026487215            4 
 2263000   0.89642197     -7.19085    714.72018  0.026319052  0.026480183            2 
 2264000   0.86884456    -7.220648    712.97705  0.026243266  0.026473135            6 
 2265000   0.88326375   -7.2310084     714.6549  0.026293411  0.026466103            1 
 2266000   0.90320169   -7.2148683    712.56341  0.026204891  0.026459067            3 
 2267000   0.86983565   -7.2084263    716.53121  0.026339186  0.026452103            3 
 2268000   0.87085693    -7.209773    715.21499   0.02627921  0.026445169            4 
 2269000   0.89876847   -7.2061565    716.96668  0.026331963  0.026438219            5 
 2270000   0.89610226   -7.1939215    715.78773  0.026277083  0.026431269            4 
 2271000   0.87776907   -7.2161665    713.15265  0.026168819  0.026424336            3 
 2272000   0.90107925   -7.2204913    714.53669  0.026208065  0.026417344            3 
 2273000   0.89841197   -7.1875358    716.08377  0.026253255  0.026410391            1 
 2274000   0.88906601    -7.206067    715.04203  0.026203534   0.02640337            3 
 2275000    0.9001137   -7.1913317    717.41157  0.026278812  0.026396352            4 
 2276000   0.90556381   -7.2309697    716.18208  0.026222249  0.026389377            2 
 2277000   0.88939608   -7.2068374    715.70203  0.026193165  0.026382438            3 
 2278000   0.89342758   -7.1818413    718.62979  0.026288769   0.02637559            6 
 2279000   0.87031001   -7.2397004    717.14676  0.026223006  0.026368663            4 
 2280000    0.8857839   -7.2297429    715.80611  0.026162504  0.026361716            3 
 2281000   0.89838787   -7.2197486    715.24429  0.026130509  0.026354714            8 
 2282000   0.89765064   -7.2240484    718.16604  0.026225754  0.026347795            6 
 2283000   0.88217428   -7.2579489    717.31304   0.02618313  0.026340859            5 
 2284000   0.88715781   -7.2115001    718.77533  0.026225019   0.02633391            6 
 2285000    0.8908925   -7.2194182    717.58143  0.026170001  0.026326996            7 
 2286000   0.87512782   -7.1889237    719.81159  0.026239851   0.02632011            1 
 2287000   0.91082432   -7.2138405     717.5944  0.026147588  0.026313252            5 
 2288000   0.87735417   -7.2023897    717.83949  0.026145086  0.026306336            6 
 2289000   0.89109044   -7.1859073    718.41644  0.026154669  0.026299437            2 
 2290000   0.88551242   -7.1708947    720.23196  0.026209314  0.026292547            2 
 2291000   0.90531969   -7.2016324    717.74597  0.026107448  0.026285645            3 
 2292000   0.88548898   -7.2254787    718.21995  0.026113291  0.026278693            4 
 2293000   0.87467401   -7.2513477    717.28162  0.026067801  0.026271751            4 
 2294000    0.8485791   -7.2150927    718.78324  0.026110987  0.026264795            4 
 2295000   0.89169813   -7.2262041    720.02327  0.026144636  0.026257846            4 
 2296000   0.88232155   -7.1930784    719.38949  0.026110246  0.026250952            3 
 2297000   0.87781198   -7.2137046    718.07946  0.026051352  0.026244059            3 
 2298000   0.87793076   -7.2194124    720.28775  0.026120096  0.026237144            4 
 2299000   0.89853865   -7.2281722      719.485  0.026079636  0.026230274            3 
 2300000   0.89158133   -7.2338729    718.67024  0.026038777  0.026223402            3 
 2301000   0.86322196   -7.2379308    720.08834  0.026078819  0.026216531            5 
 2302000   0.87512363   -7.2174528     720.2306   0.02607264  0.026209599            6 
 2303000   0.87260513   -7.2408202    718.87983  0.026012441  0.026202639            3 
 2304000    0.9098026   -7.2227312    719.57528  0.026026305  0.026195768            4 
 2305000   0.89229595    -7.222625    721.22323  0.026074593  0.026188886            3 
 2306000   0.89370346   -7.2190329    721.00856  0.026055527  0.026182026            3 
 2307000   0.88492131   -7.2178828    723.01781  0.026116812  0.026175161            8 
 2308000   0.88266369   -7.2311015    721.25695  0.026041918  0.026168269            5 
 2309000   0.86401566   -7.2325276    721.82442  0.026051119   0.02616135            3 
 2310000   0.87741897   -7.2542457    720.72387  0.026000139  0.026154414            5 
 2311000   0.87914992    -7.258694    719.94994  0.025960982  0.026147434            5 
 2312000   0.87389254   -7.2500348    721.81117  0.026016839  0.026140497            4 
 2313000   0.90137098   -7.2568841    721.44604  0.025992435  0.026133579           15 
 2314000   0.89039803   -7.2054324    721.74299  0.025991897  0.026126668            3 
 2315000   0.87071341   -7.2271758     719.8664  0.025913117  0.026119752            4 
 2316000   0.87070413   -7.2211909    722.38398  0.025992515  0.026112873            4 
 2317000   0.87567214   -7.2303251    721.96804  0.025966337  0.026105993            4 
 2318000   0.89322637   -7.2052186    722.18529  0.025962946  0.026099082            2 
 2319000   0.89212923   -7.2455739    720.23874    0.0258818  0.026092095            3 
 2320000   0.87026152   -7.2337131    723.02746  0.025970814  0.026085176            3 
 2321000   0.88155179   -7.2574862    722.16522  0.025928667  0.026078273            5 
 2322000   0.87372415    -7.214916    723.61975  0.025969701  0.026071415            4 
 2323000   0.89498937   -7.2527174    724.26949   0.02598183  0.026064555            2 
 2324000   0.87138047   -7.2403304    723.54421  0.025944643  0.026057693            4 
 2325000   0.88422287    -7.247855    725.16856  0.025991705  0.026050848            4 
 2326000   0.89954311   -7.2337208    724.58986  0.025959797  0.026043989            7 
 2327000   0.88713899   -7.2178055    725.57907  0.025984066  0.026037123            3 
 2328000   0.85666225   -7.2361959    723.18186  0.025887094  0.026030278            4 
 2329000   0.87663069   -7.2334068    723.86162  0.025900301  0.026023369            6 
 2330000   0.86120504   -7.2414878    722.59675  0.025843947  0.026016486            6 
 2331000   0.88856802   -7.2383046     724.3521  0.025895614  0.026009565            2 
 2332000   0.86864756    -7.220417    723.84067  0.025866233  0.026002664            2 
 2333000   0.87822019   -7.2403592    724.82552  0.025890324  0.025995714           11 
 2334000   0.89938115   -7.2710989    723.82253  0.025843421  0.025988785            3 
 2335000   0.88624437   -7.2533265    722.73626  0.025793585  0.025981916            6 
 2336000   0.86485472    -7.222567    724.67229  0.025851609  0.025975029            5 
 2337000   0.89900214   -7.2300349    723.69747  0.025805786  0.025968118            3 
 2338000   0.90823232   -7.2453938    723.76105  0.025797015  0.025961221            6 
 2339000    0.8664418   -7.2426712     724.6221  0.025816663  0.025954271            2 
 2340000    0.8678375   -7.2381308    723.59424  0.025769026   0.02594733            2 
 2341000   0.86916646   -7.2309759    723.94334  0.025770445  0.025940433            3 
 2342000   0.87756279   -7.1883451    723.73106  0.025751888  0.025933443            6 
 2343000   0.88687461   -7.2311664    724.77465  0.025778014   0.02592656            3 
 2344000   0.87272513   -7.2287857    725.61716   0.02579697  0.025919617            7 
 2345000   0.87839724   -7.2212613    724.58879  0.025749424   0.02591266            3 
 2346000   0.86861445   -7.2743141    725.02595  0.025753977  0.025905664            3 
 2347000   0.85151266   -7.2406228    724.77186  0.025733982   0.02589866            5 
 2348000   0.87524876   -7.2514887    727.51113  0.025820242  0.025891732            3 
 2349000   0.87004763   -7.2069408    724.48445  0.025701875  0.025884759            3 
 2350000    0.8771194   -7.2082954    726.08316   0.02574763  0.025877802            3 
 2351000   0.86992168   -7.1996785    727.08456  0.025772174  0.025870862            5 
 2352000    0.8721359   -7.2211729     724.4065   0.02566633  0.025863936            7 
 2353000     0.863605   -7.2612801    725.02663  0.025677385  0.025856996            3 
 2354000   0.86158419   -7.2559338    725.43951  0.025681093  0.025850036            3 
 2355000   0.88856359    -7.242089    727.16166  0.025731128  0.025843109            5 
 2356000   0.88525216   -7.2342129    726.25709  0.025688211  0.025836272            2 
 2357000    0.8888434   -7.2606424    727.29734  0.025714091  0.025829411            3 
 2358000   0.87656705   -7.2429169    728.31931  0.025739303  0.025822541           10 
 2359000   0.87588815   -7.2407775    727.68869  0.025706115  0.025815655            2 
 2360000   0.86550866   -7.2385272    727.46849  0.025687447  0.025808728            4 
 2361000    0.8722327    -7.245789    725.46082  0.025605704  0.025801741            5 
 2362000   0.86177971   -7.2703343    724.67893  0.025567278  0.025794793            3 
 2363000   0.86883818   -7.2124599    726.89114  0.025634474  0.025787863            3 
 2364000    0.8792408   -7.2539909    728.48667  0.025679874  0.025780958            5 
 2365000   0.87961121   -7.2445792    728.23134  0.025660019  0.025774086            2 
 2366000   0.89814027   -7.2571468    726.92076  0.025603013   0.02576719            4 
 2367000   0.88739555   -7.2437526    729.10694  0.025669164  0.025760278            3 
 2368000   0.87099718   -7.2275607    729.78107  0.025682048  0.025753378            6 
 2369000    0.8581749   -7.2490575    727.73418  0.025599204  0.025746454            4 
 2370000   0.86545751    -7.263536    726.68223  0.025551414  0.025739565            8 
 2371000   0.86158147   -7.2654788    727.97658   0.02558613  0.025732699            3 
 2372000   0.88105718   -7.2332379    725.50802  0.025488618  0.025725837            4 
 2373000   0.86337897   -7.2845997    728.38722  0.025578986  0.025718957            4 
 2374000   0.87023798   -7.2358684    730.95113  0.025658211  0.025712068            4 
 2375000   0.87126381   -7.2840644    728.43955  0.025559282  0.025705201            9 
 2376000   0.86834597   -7.2612891    729.81093  0.025596623  0.025698331            7 
 2377000   0.88167845   -7.2533113    729.81381  0.025585956  0.025691467            2 
 2378000   0.87859474   -7.2778713    728.89179  0.025542886  0.025684612            5 
 2379000   0.89159536   -7.2369705    728.20468   0.02550808  0.025677726            3 
 2380000   0.85737148   -7.2160116    730.55165  0.025579539  0.025670896            2 
 2381000   0.87636888    -7.239136    731.52832  0.025602979  0.025664097            3 
 2382000   0.87202881   -7.2575838     730.5424  0.025557739  0.025657313            4 
 2383000   0.89137377   -7.2510521     729.3469  0.025505207  0.025650392            3 
 2384000   0.84370336   -7.2819478     728.8351  0.025476619   0.02564347            3 
 2385000   0.88518635   -7.2856274    728.62414  0.025458565  0.025636568            5 
 2386000   0.85869607   -7.2384866    730.78711  0.025523439  0.025629707            4 
 2387000   0.85997709   -7.2675905    732.42853  0.025570051  0.025622854            4 
 2388000   0.86242513   -7.2517488    731.12229  0.025513759  0.025616047            7 
 2389000   0.88666071   -7.2753777    730.27718  0.025473601  0.025609182            3 
 2390000   0.88204885   -7.2496933    731.75905  0.025514611  0.025602327            3 
 2391000   0.86144406   -7.2978982    730.45138  0.025458364  0.025595475            3 
 2392000   0.85626859    -7.277162    729.84864  0.025426722  0.025588613            4 
 2393000   0.88516554   -7.2462779    732.60183  0.025511974  0.025581769            3 
 2394000   0.86754584     -7.25337    732.24642  0.025488945   0.02557497            2 
 2395000    0.8649333   -7.2798218    733.21738  0.025512087  0.025568162            5 
 2396000   0.87503887   -7.2630884    732.38207  0.025472387  0.025561356            5 
 2397000   0.86384132    -7.268885    732.26216  0.025457591  0.025554454            2 
 2398000   0.86517134   -7.2521636     731.7639   0.02542966  0.025547564            3 
 2399000   0.87594098   -7.2539939    731.98008  0.025426569  0.025540728           15 
 2400000   0.86268157   -7.2708768    732.13262  0.025421272   0.02553391            3 
 2401000   0.84653009   -7.2749932    731.45016  0.025386997  0.025527098            4 
 2402000   0.87664769   -7.2541054    731.53257  0.025379287   0.02552027            4 
 2403000   0.86342131   -7.2555866    732.96565  0.025418423  0.025513528            3 
 2404000   0.86940973   -7.2520606    731.85189  0.025369242  0.025506714            8 
 2405000   0.84671804    -7.240939    731.37138  0.025342043  0.025499896            3 
 2406000   0.83298611   -7.2692523    733.50373  0.025405366  0.025493087            3 
 2407000   0.86769589    -7.264977    734.09477  0.025415274  0.025486255            4 
 2408000    0.8393346   -7.2512385    735.14803   0.02544117  0.025479466            3 
 2409000   0.85930795   -7.2420216    735.44142  0.025440758   0.02547266            4 
 2410000    0.8701875   -7.2304808    736.14961  0.025454689  0.025465895            5 
 2411000   0.83985105   -7.2866309    733.57541  0.025355157  0.025459091            5 
 2412000   0.85722453   -7.2468836    733.17296  0.025330741  0.025452302            4 
 2413000   0.86684178   -7.2318201    734.25683  0.025357675  0.025445488            7 
 2414000   0.85486555   -7.2403195     733.0062  0.025303997  0.025438653            2 
 2415000   0.83953117   -7.2811224    734.84773  0.025357064  0.025431763            4 
 2416000   0.85298262   -7.2554469     733.2167  0.025290311  0.025424909            4 
 2417000   0.87718263   -7.2798483    733.80846   0.02530025  0.025418059            3 
 2418000   0.87723431   -7.2888251    735.10448  0.025334453   0.02541117            2 
 2419000   0.88471184   -7.2639843    735.33138  0.025331796  0.025404267            3 
 2420000   0.86745831   -7.2927468    733.42359  0.025255633  0.025397348            3 
 2421000   0.86562691   -7.2421377    734.00094  0.025265074  0.025390466            2 
 2422000   0.85426446   -7.2421573    735.82997  0.025317574  0.025383618            5 
 2423000    0.8709058   -7.2613164    733.15057  0.025214974  0.025376731            5 
 2424000   0.85232481   -7.2490199    733.02437  0.025200233  0.025369845            5 
 2425000   0.85501508   -7.2721795    732.92606  0.025186463  0.025362961            3 
 2426000   0.88762782   -7.2550589    734.90553  0.025244075  0.025356088            2 
 2427000   0.86459206   -7.2810779    733.76849  0.025194633  0.025349232            2 
 2428000    0.8748026   -7.2827484    734.60649  0.025213018  0.025342407            6 
 2429000   0.87912036   -7.2869886    734.00183  0.025181894  0.025335598            2 
 2430000    0.8553636    -7.273108    734.98885  0.025205379  0.025328688            4 
 2431000   0.87096467   -7.2526746    735.51127  0.025212919  0.025321783            3 
 2432000   0.87115462   -7.2802511    733.22883  0.025124343  0.025314918            6 
 2433000   0.84255394    -7.283015    735.37186  0.025187418  0.025308049           10 
 2434000   0.86446334    -7.265278    736.19479  0.025205245  0.025301146            4 
 2435000   0.85257264   -7.2855035    735.80182  0.025181445  0.025294262            2 
 2436000   0.86015726   -7.2720874     736.2088   0.02518503  0.025287386            7 
 2437000   0.85925831    -7.267714    735.45975  0.025149082  0.025280518            4 
 2438000   0.85680897   -7.2980604    735.99997  0.025157232  0.025273658            2 
 2439000   0.86529639   -7.2823632    735.26999  0.025121976  0.025266733            5 
 2440000   0.84919489   -7.2660647    736.43713  0.025151541  0.025259818            2 
 2441000   0.86006877   -7.2826178    734.35941  0.025070306  0.025252939            3 
 2442000   0.86168097   -7.2806437    735.86151  0.025111299  0.025246065            2 
 2443000    0.8533176   -7.2602516    738.07267  0.025176445  0.025239213            2 
 2444000   0.85166179   -7.2748655    736.54435  0.025114033  0.025232345            4 
 2445000   0.85913759   -7.3178301    736.81389  0.025112948  0.025225477            3 
 2446000   0.85504469    -7.270997    738.18639  0.025149441  0.025218632            3 
 2447000   0.85824085   -7.2944433    737.53619  0.025117021  0.025211791            9 
 2448000   0.86438008   -7.2656834    737.28621  0.025098251  0.025204915            4 
 2449000   0.86067873   -7.2641819    737.45421  0.025093719  0.025198087            7 
 2450000   0.87278234   -7.2815421    736.88769  0.025064207  0.025191237            3 
 2451000   0.85262636   -7.2531295    738.09598  0.025095063  0.025184407            4 
 2452000   0.85126032   -7.2496997    737.26813  0.025056693  0.025177561            3 
 2453000    0.8745305   -7.3081748    737.40676  0.025051188  0.025170726            4 
 2454000   0.84438444   -7.2673007    739.98333  0.025128475  0.025163945            3 
 2455000   0.86472016   -7.2533839    738.49055  0.025067568  0.025157174            5 
 2456000   0.86047974   -7.2702841    738.54542  0.025059223  0.025150378            4 
 2457000    0.8339637   -7.2924591    737.14976  0.025001688   0.02514353            2 
 2458000   0.85572832   -7.2639632    739.55161  0.025072946  0.025136693            5 
 2459000   0.83537036    -7.269115    738.76639  0.025036139  0.025129952            2 
 2460000    0.8570543   -7.2500085    742.28024  0.025144995  0.025123241            6 
 2461000   0.84819551   -7.3004947    739.19729  0.025030384  0.025116465            6 
 2462000    0.8650181   -7.2667322    739.80935  0.025040934  0.025109715            2 
 2463000   0.86158461   -7.2975289    738.50414  0.024986606  0.025102902            4 
 2464000   0.87439531   -7.2795791     738.3198  0.024970231  0.025096064            6 
 2465000   0.86750685   -7.2813148    740.69155  0.025040282  0.025089299            7 
 2466000   0.84666768   -7.3024982    739.52823  0.024990816   0.02508249            2 
 2467000   0.85239295   -7.3146974    739.91911   0.02499389   0.02507572            5 
 2468000   0.84518062   -7.2685825    740.76803  0.025012427  0.025069058            2 
 2469000    0.8494147   -7.2728223    741.14072  0.025014875  0.025062367            4 
 2470000   0.84743546   -7.2638024    740.08453  0.024969114  0.025055661            3 
 2471000   0.86105763   -7.2608961     740.6775  0.024979006  0.025048948            2 
 2472000   0.87657518   -7.2866042    741.00532  0.024979953  0.025042253            2 
 2473000   0.85517603    -7.277579    742.88541  0.025033206  0.025035564            6 
 2474000   0.85576338   -7.2891634     743.1212  0.025031029  0.025028819            3 
 2475000   0.86430438   -7.2523803    742.10548  0.024986716  0.025022107            4 
 2476000   0.87485987   -7.2859664     739.6518  0.024894043  0.025015402            4 
 2477000   0.85573681   -7.2950452    741.99745  0.024962907  0.025008694            4 
 2478000   0.84511932    -7.289208     741.9584   0.02495152  0.025001946            6 
 2479000   0.84820771    -7.292215    742.21577  0.024950106  0.024995195            6 
 2480000   0.86149571    -7.326949    740.79226  0.024892213  0.024988425            2 
 2481000   0.84144464   -7.3193388     739.0487  0.024823616   0.02498163            9 
 2482000   0.87857205   -7.2537753    743.29413  0.024956155  0.024974853            7 
 2483000   0.83446163   -7.2669561    743.19587  0.024942807  0.024968157            8 
 2484000   0.86122408   -7.2344005    742.02613  0.024893523  0.024961439            3 
 2485000   0.86865835   -7.2929242    741.83173  0.024876986  0.024954699            3 
 2486000   0.84596703   -7.2902328    743.81668  0.024933517  0.024947947            9 
 2487000   0.82099512   -7.2720763    742.82733  0.024890341  0.024941208            3 
 2488000   0.85682498   -7.2807455    741.62601  0.024840099  0.024934456            3 
 2489000   0.84276081   -7.2475684    743.16029  0.024881488  0.024927736            7 
 2490000   0.85757009   -7.2611567    741.33616  0.024810447  0.024920998            3 
 2491000   0.83870302   -7.2601816    742.54012  0.024840764  0.024914231            3 
 2492000   0.86164045   -7.2821083     742.9802  0.024845512  0.024907499            4 
 2493000   0.86010903   -7.2704252    742.67994  0.024825509  0.024900724            4 
 2494000   0.86418268   -7.3045849    742.88047  0.024822256  0.024893933            5 
 2495000   0.86092991    -7.272933    741.43569  0.024764051  0.024887152            3 
 2496000     0.863669   -7.3095699    741.48089  0.024755639  0.024880361            6 
 2497000   0.83639888   -7.2869591    742.86658   0.02479197  0.024873579            3 
 2498000   0.87312764   -7.2813697    742.44296  0.024767913  0.024866761            3 
 2499000   0.85341402   -7.2832311    743.05627  0.024778454  0.024859959            5 
 2500000   0.84268625   -7.2958458     741.6845  0.024722817  0.024853067            3 
 2501000   0.82875643   -7.2960498    742.02018  0.024724116  0.024846172            2 
 2502000   0.82971345   -7.2844595    742.13454  0.024718043   0.02483929            3 
 2503000   0.86845365   -7.3101642    742.73874  0.024728284  0.024832387            2 
 2504000   0.85921595   -7.2797069    740.90366  0.024657337  0.024825518            5 
 2505000   0.85139818   -7.2974318    743.96384  0.024749296  0.024818652            2 
 2506000   0.84886562   -7.2829468    743.68369  0.024730104  0.024811761            6 
 2507000   0.83629815   -7.3173156     742.9869  0.024697078  0.024804854            3 
 2508000   0.86284175   -7.3068383    742.79693  0.024680919  0.024797962            6 
 2509000   0.84060905   -7.2583395     745.5236  0.024761645  0.024791117            8 
 2510000   0.86202242   -7.3046688     743.3186  0.024678572  0.024784286            8 
 2511000   0.83769365   -7.2844822    742.96604  0.024657044  0.024777471           10 
 2512000   0.84115529   -7.2677153    745.84553  0.024742753  0.024770697            6 
 2513000   0.83603787   -7.2899151    745.34804  0.024716409  0.024763912            6 
 2514000   0.85629952   -7.3128777    743.89471  0.024658403  0.024757059            2 
 2515000   0.85002199   -7.2720092    743.63697  0.024640059  0.024750222            4 
 2516000   0.86176054   -7.2850868    745.64755  0.024696858  0.024743364            6 
 2517000   0.84765851   -7.3006636    740.69526  0.024523085  0.024736441            5 
 2518000   0.82591313   -7.3251083    743.38136  0.024602242  0.024729556            5 
 2519000   0.83757295   -7.2847703    744.92787  0.024643637  0.024722701            5 
 2520000   0.83738744   -7.3034557    743.86587  0.024598739  0.024715888            5 
 2521000   0.84697079   -7.2822311     745.6523  0.024648033  0.024709066            4 
 2522000   0.83115293   -7.3492528    743.22462  0.024558043  0.024702195            9 
 2523000   0.85787081   -7.2828004    745.37088  0.024619199  0.024695341            4 
 2524000   0.84473661   -7.3016442    746.24763  0.024638393  0.024688576            4 
 2525000   0.86682691   -7.3267454    746.56876  0.024639233   0.02468178            2 
 2526000   0.84892526    -7.294956    745.82521  0.024604949  0.024674982            5 
 2527000    0.8406998   -7.3102936    743.43213  0.024516295  0.024668203            7 
 2528000   0.84276707   -7.3066085    745.18533   0.02456439  0.024661443            3 
 2529000   0.83488207   -7.3057248    745.64775  0.024569914  0.024654609            5 
 2530000    0.8536463   -7.3069154    744.48446  0.024521886  0.024647731            4 
 2531000    0.8276352   -7.2843518    745.00456  0.024529322   0.02464088            4 
 2532000   0.84371409   -7.2932677    744.28323  0.024495893  0.024634041            6 
 2533000   0.85669493   -7.3144319    746.21326  0.024549719  0.024627228            3 
 2534000   0.82420108   -7.3020527    744.98923  0.024499777  0.024620408            4 
 2535000   0.86166308   -7.2759521    745.95668  0.024521916   0.02461363            2 
 2536000   0.85007628   -7.3062921    745.34541   0.02449216   0.02460686            3 
 2537000   0.86637239   -7.2951064    747.45508  0.024551803  0.024600114            6 
 2538000   0.84198859   -7.2957165     746.2036  0.024501037  0.024593367            5 
 2539000   0.86737712   -7.3270688    747.16277  0.024522869  0.024586652            4 
 2540000   0.83947483   -7.2857446    747.44284  0.024522403  0.024579927            2 
 2541000   0.83601565    -7.314503    748.74837  0.024555568  0.024573214            5 
 2542000   0.83813506   -7.2857808    749.52811   0.02457147  0.024566474            3 
 2543000   0.85033831   -7.3205486    747.63169  0.024499662  0.024559714            5 
 2544000   0.84250468   -7.3337738    746.75943  0.024461459  0.024552903            5 
 2545000   0.82685495   -7.3038627    748.42532  0.024506395  0.024546118            4 
 2546000   0.84044554   -7.3392918    747.60037  0.024469769  0.024539346            5 
 2547000   0.84960162   -7.2783771    748.66729  0.024495069  0.024532602            5 
 2548000   0.86050619   -7.3082468    747.93372  0.024461464  0.024525893            6 
 2549000   0.83563384   -7.3374468    748.60412  0.024473785  0.024519156            3 
 2550000   0.83537503   -7.3203194    749.33346  0.024488022  0.024512477            5 
 2551000   0.83002999   -7.3096156    749.70104   0.02449043  0.024505816            5 
 2552000   0.85433575   -7.3031391    747.01737  0.024393201  0.024499111            7 
 2553000   0.86284385   -7.3189489    748.59994  0.024435303  0.024492398            4 
 2554000   0.83429651    -7.293889    748.51244  0.024422881  0.024485716            6 
 2555000   0.84368815   -7.2897544    748.83335  0.024423788  0.024479009            6 
 2556000    0.8583006   -7.2713316    750.88814  0.024481225  0.024472328            7 
 2557000   0.83994757   -7.3182102    748.99886  0.024410079  0.024465691            4 
 2558000   0.82169567    -7.290036    750.05848  0.024435056  0.024459054            4 
 2559000   0.84913322   -7.3192768    748.28394   0.02436772  0.024452357            5 
 2560000   0.82778637   -7.3471024    748.63214  0.024369536  0.024445645            5 
 2561000   0.83859933   -7.3536606    748.49501  0.024355558  0.024438904            6 
 2562000   0.83646675    -7.293177    750.04692   0.02439653  0.024432211            7 
 2563000   0.85821097   -7.2744024    751.21898   0.02442512  0.024425509            3 
 2564000    0.8587978   -7.3035535    751.21742  0.024415543  0.024418875            4 
 2565000   0.83650035   -7.3175131    748.62631  0.024321842  0.024412174            4 
 2566000   0.84945806   -7.3022121    750.80563  0.024383139  0.024405502            2 
 2567000   0.84810184   -7.3097987    750.48728  0.024363306  0.024398813            6 
 2568000    0.8462125   -7.3313703    749.83503  0.024332653  0.024392087            3 
 2569000   0.83811973   -7.3011603    750.88611  0.024357276  0.024385361            2 
 2570000   0.83698307   -7.2995914     751.6737  0.024373336  0.024378681            4 
 2571000     0.842789   -7.3494051    749.02145   0.02427789  0.024371964            5 
 2572000   0.83879466   -7.2923729     750.9169  0.024329863  0.024365293            6 
 2573000   0.85061088   -7.2988758    751.81432  0.024349473  0.024358601            3 
 2574000   0.82481502   -7.3248277    751.72667  0.024337175  0.024351923            6 
 2575000   0.82976258   -7.3323627    749.82619   0.02426622  0.024345222            4 
 2576000   0.82566409   -7.3124141    752.03479  0.024328248    0.0243385            3 
 2577000    0.8709617   -7.3456536     751.9326  0.024315502  0.024331794            4 
 2578000   0.84384763   -7.3311836    749.36375  0.024223033  0.024325091            4 
 2579000   0.84198421   -7.3150835    750.62267  0.024254319  0.024318438            3 
 2580000   0.84667952   -7.3182677    751.58621   0.02427604  0.024311765            5 
 2581000   0.83753909   -7.3588228    749.15209  0.024188044  0.024305029            2 
 2582000   0.84337269   -7.3060625    752.58621  0.024289511   0.02429833            2 
 2583000   0.83492613   -7.3114929    752.12624  0.024265268  0.024291661            4 
 2584000   0.84371361   -7.3135933    752.90799  0.024281088  0.024285008            5 
 2585000   0.84585255   -7.3336351    752.75594  0.024266794  0.024278349            7 
 2586000    0.8455698   -7.2855548     753.2767  0.024274191    0.0242717           13 
 2587000    0.8386902   -7.3259893    752.08137  0.024226304  0.024265069            2 
 2588000   0.85227783    -7.317437    752.87115  0.024242373  0.024258434            2 
 2589000    0.8306892    -7.306921    751.16132  0.024177975  0.024251775            2 
 2590000   0.84731242    -7.289358    754.28473  0.024269136  0.024245053            4 
 2591000   0.82798443    -7.330869    752.60389  0.024205709  0.024238394            2 
 2592000   0.83676652   -7.3463376    753.57249  0.024227511   0.02423171            4 
 2593000   0.81266448   -7.3274354    753.00963  0.024200078  0.024224998            3 
 2594000   0.83148334   -7.3468122    751.50762  0.024142496  0.024218276            3 
 2595000   0.83408328   -7.3279465    753.13298  0.024185388  0.024211586            5 
 2596000   0.84416579   -7.3441582    752.61823  0.024159548  0.024204921            6 
 2597000   0.82935039   -7.3301108    752.31053  0.024140371  0.024198207            5 
 2598000   0.82670919   -7.3414395    752.44771  0.024135479  0.024191589            3 
 2599000   0.83440897   -7.3499825    754.12456  0.024179959  0.024184953            3 
 2600000   0.84281697   -7.3375234    754.33026  0.024177252  0.024178311            6 
 2601000   0.83430187   -7.3218575    755.13687    0.0241938  0.024171727            6 
 2602000   0.82898813   -7.3280605    754.18604   0.02415405  0.024165133            3 
 2603000   0.82995674   -7.3367575    754.37611  0.024150855  0.024158507            8 
 2604000   0.82811246   -7.3500597    754.37418  0.024141519  0.024151815            6 
 2605000   0.83902688   -7.3466612    752.83283  0.024082944  0.024145137            3 
 2606000   0.84909695   -7.3601532    754.80873  0.024136887  0.024138517            4 
 2607000   0.83258874   -7.3517426     754.5728  0.024120087  0.024131876            5 
 2608000   0.82920804   -7.3145078    754.70388  0.024115027  0.024125258            5 
 2609000   0.82693025   -7.3217458    754.30577  0.024093068  0.024118634            4 
 2610000   0.84632806   -7.3194272    755.65451    0.0241269  0.024112018            3 
 2611000   0.83040185   -7.3053102    754.88753   0.02409318  0.024105397            3 
 2612000   0.85068022   -7.3577664    753.33375  0.024034384  0.024098737            8 
 2613000   0.86116077   -7.3416747    755.36925  0.024090102  0.024092025            3 
 2614000   0.81341485   -7.3359313    751.57589  0.023959956  0.024085288            3 
 2615000   0.82613576   -7.3443974    754.88372  0.024056205  0.024078592            8 
 2616000   0.83475143   -7.3217653    753.38667   0.02399932  0.024071895            4 
 2617000   0.82066709   -7.3284556     752.7353  0.023969408  0.024065247            3 
 2618000   0.83362419    -7.327852    755.49168  0.024047991  0.024058563            4 
 2619000    0.8393793   -7.3288861    756.18728  0.024060942  0.024051924            3 
 2620000     0.839895   -7.3451376    754.50835  0.023998357  0.024045277            3 
 2621000   0.84789515   -7.3610756    754.41017  0.023986079  0.024038631            6 
 2622000   0.83205179    -7.346804    754.68576   0.02398569  0.024031974            3 
 2623000   0.83516286   -7.3219882     757.2028  0.024056513  0.024025341            5 
 2624000   0.82277417   -7.3387824    755.15639  0.023982355  0.024018717            4 
 2625000   0.83212706   -7.3476215    757.31639   0.02404179  0.024012091            3 
 2626000   0.84347929   -7.3150252    756.75191  0.024014722  0.024005463            4 
 2627000   0.82595381   -7.2985291    755.35149  0.023961156  0.023998862            5 
 2628000   0.81908328   -7.3301191    757.48712  0.024019759  0.023992254            3 
 2629000   0.82259678   -7.3316317    756.48168  0.023978752  0.023985648            5 
 2630000   0.82839116    -7.306502    757.13149  0.023990225  0.023979086            4 
 2631000     0.837637   -7.3563515    755.79203  0.023938681  0.023972484            3 
 2632000   0.81550674    -7.330505    756.95829  0.023966511  0.023965913            8 
 2633000   0.84622321   -7.3275968    757.43314  0.023972438  0.023959318            5 
 2634000   0.81562371    -7.354406    756.47339  0.023932972  0.023952702            4 
 2635000   0.81974264   -7.3341903     756.4531  0.023923248  0.023946053            7 
 2636000   0.83452238   -7.3721061    757.84812  0.023958274  0.023939442            3 
 2637000   0.82752683   -7.3380093    757.49134  0.023937914  0.023932769            5 
 2638000    0.8466546   -7.3559928    757.16244   0.02391845  0.023926146            5 
 2639000   0.82438481   -7.3698163    756.07465  0.023875036  0.023919475            6 
 2640000     0.850736   -7.3130271    757.39789  0.023907762  0.023912837            2 
 2641000   0.83024802   -7.3501232    758.79699  0.023942856  0.023906241            5 
 2642000    0.8326546   -7.3193552    755.74908  0.023837657  0.023899649            3 
 2643000    0.8262942   -7.3575759    757.59743  0.023886916  0.023893015            8 
 2644000   0.82775347   -7.3247826    756.89747   0.02385582  0.023886358            3 
 2645000   0.81720457   -7.3616422    757.77093   0.02387432  0.023879724            4 
 2646000   0.84719936   -7.3549234    757.41546  0.023854103  0.023873099            4 
 2647000   0.83156831   -7.3352915     758.0482  0.023865011  0.023866478            3 
 2648000   0.83608155   -7.3618258    759.41316  0.023898954  0.023859863            3 
 2649000    0.8215949   -7.3449701    759.13606  0.023881215  0.023853264            2 
 2650000   0.82918322   -7.3261898    758.44076  0.023850338  0.023846687            3 
 2651000   0.81443951   -7.3202689    758.58137  0.023845762  0.023840105            3 
 2652000   0.81435956   -7.3794623    757.11026  0.023790544  0.023833473            3 
 2653000   0.82349563   -7.3245596    758.58549  0.023827915  0.023826889            6 
 2654000   0.82094903   -7.3208915    760.18841  0.023869267  0.023820315            3 
 2655000   0.82797328   -7.3545919    758.89487  0.023819676  0.023813732            3 
 2656000   0.83750338   -7.3361824     759.6608  0.023834739   0.02380712            6 
 2657000   0.84311562   -7.3523293    759.01906  0.023805641  0.023800462            3 
 2658000   0.82323291   -7.3650461    759.69607   0.02381791  0.023793857            3 
 2659000   0.82847799   -7.3176278     760.1132  0.023822026  0.023787244            5 
 2660000   0.83973639   -7.3544231    758.70007  0.023768799  0.023780666            4 
 2661000   0.82352521   -7.3412412    760.64497  0.023820774   0.02377411            3 
 2662000   0.83059536   -7.3698781    759.63834  0.023780314  0.023767517            7 
 2663000   0.83563562   -7.3372936    758.40973  0.023732937   0.02376091            7 
 2664000   0.83488467   -7.3536315    759.56201  0.023760073   0.02375433            5 
 2665000   0.82847884   -7.3708806    761.75251  0.023819653  0.023747803            3 
 2666000   0.83319491   -7.3214394    759.42818  0.023738065  0.023741261            5 
 2667000   0.81767396   -7.3352604    760.14264  0.023751489  0.023734748            5 
 2668000   0.82581174   -7.3330916    758.25688  0.023683686  0.023728232           10 
 2669000   0.83075797   -7.3506472    760.81187  0.023754586  0.023721717            4 
 2670000   0.84186436   -7.3583562    760.39701  0.023732741  0.023715218            4 
 2671000   0.82241807   -7.3245714    761.70018  0.023764513  0.023708743            3 
 2672000   0.81512851   -7.3431127    762.39351  0.023777243  0.023702213            7 
 2673000   0.82643894   -7.3369081    762.13598  0.023760319  0.023695655            8 
 2674000   0.83909293   -7.3197208    761.06781  0.023718144  0.023689133            4 
 2675000   0.81182158   -7.3861794    761.70053  0.023728988  0.023682584            4 
 2676000    0.8195674   -7.3599819    761.25529  0.023706256  0.023676037            3 
 2677000    0.8142008   -7.3133554    762.86109  0.023747388  0.023669525            9 
 2678000   0.82244498   -7.3324798    762.14431  0.023716216  0.023663017            5 
 2679000   0.82404165   -7.3427516    761.94995  0.023701317  0.023656551            6 
 2680000   0.83588381   -7.3712261    760.96967  0.023661992  0.023650033            2 
 2681000   0.81646486   -7.3704424    762.17584  0.023690658  0.023643475            7 
 2682000   0.82645391   -7.3763099    762.50228  0.023691967  0.023636913            5 
 2683000   0.82978022   -7.3644724     762.5368  0.023684209   0.02363034            4 
 2684000   0.81551123   -7.3427518    762.20743  0.023665159  0.023623755            4 
 2685000   0.82599074   -7.3458799    760.96623  0.023617822  0.023617237            6 
 2686000   0.84221749   -7.3681033    761.37734  0.023621784  0.023610665            7 
 2687000   0.82027206   -7.3700737    761.90978  0.023629506  0.023604101            6 
 2688000   0.81377271   -7.3592011     764.6153  0.023704591  0.023597533            3 
 2689000   0.83436909   -7.3697995    761.28569   0.02359259  0.023590982            6 
 2690000   0.83896063   -7.3505039    761.86193  0.023601671  0.023584439            3 
 2691000   0.81795074   -7.3415065    763.38612    0.0236401  0.023577964            3 
 2692000   0.82180403   -7.3737761    763.52687  0.023635676  0.023571465            4 
 2693000   0.82520313   -7.3686756    763.28888  0.023619535  0.023564945            2 
 2694000   0.82234982   -7.3392265    764.42828  0.023646012   0.02355847            7 
 2695000   0.79804426   -7.3508655    763.68894  0.023614377  0.023552016            9 
 2696000   0.82755709   -7.3416294    764.49962  0.023630676   0.02354558            3 
 2697000   0.82749007   -7.3393123    762.61085  0.023563554  0.023539098            3 
 2698000    0.8220907   -7.3703474    762.85788   0.02356245  0.023532551            5 
 2699000   0.83376969    -7.369941    762.56844  0.023544783  0.023526011            7 
 2700000   0.82520034   -7.3581587    763.29191  0.023558392  0.023519485            4 
 2701000   0.82755806   -7.3669965    763.60029  0.023559184  0.023512989            3 
 2702000   0.84855941   -7.3751799    762.69001  0.023522391  0.023506473            3 
 2703000   0.81983239   -7.3606694    764.82466    0.0235795  0.023499976            7 
 2704000   0.82025491   -7.3855691    763.94758  0.023543749  0.023493459           15 
 2705000   0.84047058   -7.3704064    762.03047  0.023475985  0.023486933            4 
 2706000   0.82196383   -7.3718145    763.55249  0.023514181  0.023480402            3 
 2707000   0.83187084   -7.3691258    763.82542  0.023513897  0.023473913            7 
 2708000    0.8362322   -7.3513476    764.05213   0.02351219  0.023467405            6 
 2709000   0.81408362   -7.3675149    763.56078  0.023488396    0.0234609            2 
 2710000   0.82675975   -7.3610179    761.50327   0.02341646  0.023454387            4 
 2711000   0.80108853   -7.3262973    764.91901  0.023512818  0.023447876            3 
 2712000   0.80269445   -7.3581404    764.26032  0.023483909  0.023441332            7 
 2713000   0.81118345    -7.353071     765.4797  0.023512707  0.023434798            7 
 2714000   0.82194048   -7.3585531    764.68142  0.023479533   0.02342829            5 
 2715000    0.8093998   -7.3961445    760.91686  0.023355336   0.02342173            4 
 2716000   0.81125564   -7.3749749    763.41348   0.02342334  0.023415205            5 
 2717000    0.8029355   -7.3698547    763.63011  0.023421363  0.023408663            2 
 2718000   0.81089885   -7.3962803    763.22806  0.023400419  0.023402102            5 
 2719000   0.81848044   -7.3881346    764.07757  0.023417849  0.023395513            7 
 2720000   0.83704613   -7.3472947    764.65031  0.023426787  0.023388976            2 
 2721000   0.81928554   -7.3837781    765.97953  0.023458885   0.02338242            4 
 2722000   0.81001271   -7.3653748     763.6953  0.023380336  0.023375828            8 
 2723000   0.81959043   -7.3788343    763.71094  0.023372228  0.023369261            3 
 2724000   0.83080312    -7.386253    764.24465  0.023379976  0.023362685            4 
 2725000   0.81780211   -7.3954131    765.85284  0.023420576  0.023356159            7 
 2726000   0.81724887   -7.3561845     764.6594  0.023375501  0.023349605            4 
 2727000   0.80388008   -7.4091129    766.25729  0.023415759  0.023343071            5 
 2728000   0.79269872   -7.3598884     765.9465  0.023397681  0.023336516            4 
 2729000   0.80937912   -7.3880522    764.84531  0.023355481   0.02332994            4 
 2730000   0.80928392   -7.3480382    766.40206  0.023394446  0.023323342            8 
 2731000   0.80730691   -7.3936009    763.03936  0.023283271  0.023316743            3 
 2732000    0.8126155   -7.3697991    763.77219  0.023297102  0.023310135            3 
 2733000   0.81574218   -7.3712896    765.32987  0.023336074  0.023303546            3 
 2734000   0.81709971   -7.3743469     763.4954  0.023271623   0.02329698            4 
 2735000   0.81740036   -7.3711478    765.00735  0.023309182  0.023290382            3 
 2736000   0.80287517   -7.3888116    765.22667  0.023307342  0.023283799            6 
 2737000   0.81793129   -7.3543833    766.01639  0.023322871  0.023277217            4 
 2738000    0.8302907   -7.3807483    765.00353  0.023283526   0.02327059            5 
 2739000   0.81570662    -7.399745    765.77745  0.023298572   0.02326396            3 
 2740000   0.80267421   -7.4086512    764.30609  0.023245319  0.023257345            3 
 2741000    0.8031018   -7.3796727    763.31108  0.023206588  0.023250735            4 
 2742000   0.79985622   -7.3908068    764.16086   0.02322395  0.023244125            4 
 2743000   0.80808334   -7.3786001    765.31751  0.023250623  0.023237505            5 
 2744000   0.80572648    -7.377224     764.5828  0.023219837  0.023230879            4 
 2745000   0.80885015    -7.372248    764.14745  0.023198162  0.023224248            7 
 2746000   0.81265911   -7.3900122    765.76476  0.023238794  0.023217638            3 
 2747000   0.80830141   -7.3716497    766.19503  0.023243388  0.023211023            8 
 2748000   0.81917394   -7.3765064    766.18739  0.023234698  0.023204427            5 
 2749000   0.80833809    -7.393654     765.3128  0.023199733  0.023197802            3 
 2750000   0.81121503   -7.3843345    764.42243  0.023164316  0.023191174            3 
 2751000   0.81283529    -7.372947    765.85197  0.023199199  0.023184594            4 
 2752000   0.81334533   -7.3969989    765.30774   0.02317429  0.023178003            3 
 2753000   0.81288904   -7.3981413    764.13664  0.023130423  0.023171373            3 
 2754000   0.81025635   -7.3721575    765.68681   0.02316893  0.023164751            5 
 2755000   0.82091093   -7.3833297    764.59558  0.023127513  0.023158149            7 
 2756000   0.80226446   -7.3637108    767.67701  0.023212295  0.023151566            6 
 2757000   0.83999193   -7.3913055    766.15231  0.023157789  0.023144985            3 
 2758000   0.79044736   -7.3889685    765.28182  0.023123091  0.023138396            6 
 2759000   0.81120149   -7.3862131    764.89744    0.0231031  0.023131792            7 
 2760000   0.82215942   -7.3996612    764.63541  0.023086818  0.023125192            2 
 2761000   0.81537743   -7.3911905    766.73541  0.023141839  0.023118572            3 
 2762000   0.82333234   -7.3978138    766.88899  0.023138094  0.023111976            5 
 2763000   0.79058214   -7.4036187    765.47237  0.023086994  0.023105422            6 
 2764000   0.79744555    -7.362154    767.80756  0.023149046  0.023098883            5 
 2765000   0.79285494   -7.3794702    769.03078   0.02317754   0.02309237            4 
 2766000   0.79769821   -7.3735986    767.43211  0.023120996  0.023085881            3 
 2767000   0.81400821   -7.3440705    768.42522   0.02314255  0.023079378            4 
 2768000   0.80034023   -7.4011717     767.7949  0.023115212  0.023072846            6 
 2769000    0.8075239   -7.3996074    768.18666  0.023118655  0.023066308            5 
 2770000   0.80446856   -7.4053064    766.61284  0.023062961  0.023059765            4 
 2771000   0.80311525   -7.3757677     768.0902  0.023099068  0.023053236            8 
 2772000   0.80458905   -7.3956953    768.36424  0.023098973  0.023046704            9 
 2773000   0.79537405   -7.3833555    769.75838  0.023132539  0.023040206            8 
 2774000   0.80815499   -7.3743708    768.13321  0.023075379  0.023033729            4 
 2775000   0.80195784   -7.3643562    769.58679  0.023110714  0.023027245            4 
 2776000   0.78735504   -7.3596451    768.11503  0.023058208  0.023020765            6 
 2777000   0.82675679   -7.3677236      768.599  0.023064428  0.023014293            4 
 2778000   0.82370216   -7.3891235    768.29694  0.023047064  0.023007809            5 
 2779000   0.81099809   -7.4046898     767.0656  0.023001847  0.023001312            9 
 2780000   0.80903716   -7.3843206    768.19747  0.023027502  0.022994818            4 
 2781000    0.8156275   -7.3869764     767.9006  0.023010326  0.022988298            6 
 2782000   0.81388679   -7.3864389    769.02438  0.023035717  0.022981764            5 
 2783000   0.79977749   -7.3672282     768.8596  0.023022506  0.022975289           13 
 2784000   0.81190163   -7.3896376    768.20047  0.022994506  0.022968781            4 
 2785000   0.81250532   -7.4082243    770.77378  0.023063249  0.022962258            2 
 2786000   0.80006175    -7.400592    767.85972  0.022967807  0.022955717            5 
 2787000   0.81206978   -7.4242884    769.97248  0.023022739  0.022949185            7 
 2788000   0.80639672   -7.3848575    769.52638  0.023001147  0.022942698            6 
 2789000    0.8108108   -7.4093149     768.1548  0.022951918  0.022936184            9 
 2790000   0.82626557   -7.4127639    770.11994  0.023002388   0.02292968            8 
 2791000   0.80460138   -7.4137881    769.60173  0.022978673   0.02292319           14 
 2792000   0.80775144   -7.4087355    768.42583  0.022935346  0.022916682            3 
 2793000   0.79518578   -7.4090505      770.885  0.023000507  0.022910177            6 
 2794000   0.81786336    -7.393604    769.98545  0.022965445  0.022903673            4 
 2795000   0.80527322   -7.3783599    770.80048  0.022981529  0.022897206            3 
 2796000   0.80821623    -7.391753    769.32279  0.022929268  0.022890739            2 
 2797000   0.81499243   -7.4099363    770.02266  0.022941922  0.022884264            4 
 2798000   0.80054329   -7.4023863    770.57088   0.02295005  0.022877785            7 
 2799000   0.81820717   -7.4119544    771.74422  0.022976784  0.022871308            4 
 2800000     0.822954   -7.4059884    769.30699  0.022896041  0.022864801            5 
 2801000   0.80385684   -7.4147952    769.29776  0.022887593  0.022858297            2 
 2802000   0.81189046   -7.3879709    771.63282   0.02294887  0.022851806            7 
 2803000   0.79743857   -7.4443316    771.14624  0.022926217  0.022845347            4 
 2804000   0.81127167   -7.4063414    772.02465  0.022944147  0.022838888            4 
 2805000   0.79333786   -7.4025969    771.67657  0.022925626  0.022832431            2 
 2806000   0.81207876   -7.3956365    771.42466  0.022909975  0.022825987            4 
 2807000   0.81124526   -7.3892122    770.98388  0.022888727  0.022819502            3 
 2808000   0.80548993   -7.4145873    771.22921  0.022887856  0.022813018            3 
 2809000    0.7981347   -7.4209628    770.08178  0.022845668  0.022806532           13 
 2810000   0.80002503   -7.4230462    769.85081  0.022830688  0.022800027            4 
 2811000   0.79048194   -7.3953298    768.72898  0.022789309  0.022793477            2 
 2812000   0.80282704   -7.4027915    770.66509  0.022838581   0.02278694            4 
 2813000   0.80132178   -7.4040686    771.18512  0.022845868  0.022780423            5 
 2814000   0.78557251   -7.4060712    769.14382  0.022777299  0.022773932            2 
 2815000   0.79109205   -7.3957029    772.05062  0.022855258  0.022767416            3 
 2816000   0.79773111   -7.3963626    772.59165  0.022863153  0.022760909            8 
 2817000   0.80378388   -7.4148531    771.09094  0.022810642  0.022754397            8 
 2818000   0.79454816   -7.4051706    771.00525  0.022800013  0.022747875           16 
 2819000   0.81346978   -7.4119972    770.83814  0.022786985  0.022741399            5 
 2820000   0.80097466    -7.417914    770.41803   0.02276649   0.02273494            4 
 2821000   0.80436663   -7.3842729     771.8075  0.022799465  0.022728487            5 
 2822000   0.80436903     -7.38448    770.71876  0.022759236  0.022721989            5 
 2823000   0.79978929   -7.3840096    771.84515  0.022784424  0.022715453            6 
 2824000   0.79268315   -7.4145977      771.501    0.0227662  0.022708951            2 
 2825000   0.79616723   -7.4298716    771.27145   0.02275137   0.02270245            3 
 2826000   0.77348735   -7.4549931    770.38311  0.022717124   0.02269589            6 
 2827000   0.78060406   -7.4259362    771.31193  0.022736468  0.022689362            3 
 2828000   0.81325324   -7.4230765    772.80607  0.022772456  0.022682827            5 
 2829000   0.80272595    -7.454019    772.53773  0.022756502  0.022676318            3 
 2830000    0.8062892   -7.4009203    773.59014  0.022779451  0.022669832            2 
 2831000    0.8145002   -7.3909133    770.69653  0.022686228  0.022663341            2 
 2832000   0.79796243   -7.4205552    770.62812  0.022676204  0.022656831            3 
 2833000    0.8117045   -7.4097052    770.74316  0.022671584  0.022650291            4 
 2834000   0.80544374   -7.3987402    769.42488   0.02262482  0.022643752            3 
 2835000   0.81176102   -7.3894135    772.91417  0.022719405  0.022637208            5 
 2836000   0.81078081   -7.3675228    771.76299  0.022677568  0.022630724            3 
 2837000   0.80533229   -7.4238171    771.55803  0.022663554    0.0226242            7 
 2838000   0.78230185   -7.4107709    772.47565  0.022682512  0.022617676            5 
 2839000   0.79757609   -7.4002543     771.7746  0.022653945  0.022611133            3 
 2840000   0.79279327    -7.405216    770.00064  0.022593915  0.022604618            6 
 2841000   0.79518536   -7.4166156    773.36953   0.02268478  0.022598104            4 
 2842000   0.80198624    -7.423282    771.07104  0.022609402  0.022591551            4 
 2843000   0.79192503   -7.4391371    771.27466  0.022607418  0.022585004           11 
 2844000   0.78818276    -7.415127    770.33756   0.02257201  0.022578428            5 
 2845000   0.79840906   -7.3865682    773.33571  0.022651895  0.022571841            5 
 2846000   0.80135519   -7.4157716    772.48292  0.022618966  0.022565283            4 
 2847000   0.81977857   -7.4008306    772.76784  0.022619361  0.022558719            6 
 2848000   0.77444014   -7.4206752     770.8907  0.022556493  0.022552126            6 
 2849000   0.79934957   -7.3850811    772.66433  0.022600454  0.022545581            5 
 2850000   0.79180904   -7.4192444    773.08604  0.022604855  0.022539032            4 
 2851000   0.80094186    -7.435978     770.6883  0.022526841  0.022532476            3 
 2852000   0.81446051    -7.396271    771.69604  0.022548388  0.022525885            5 
 2853000   0.78117453    -7.433549    769.69511   0.02248204  0.022519302            4 
 2854000   0.78958936   -7.4515945    769.90402  0.022480262  0.022512689            5 
 2855000   0.80113843   -7.4183773    769.51948  0.022461164  0.022506117            5 
 2856000   0.79729597    -7.409225    770.81502  0.022491101  0.022499486            5 
 2857000   0.77183629    -7.443041    772.38669  0.022529071  0.022492835            3 
 2858000   0.78816845   -7.4242431    770.08138  0.022453971  0.022486241            6 
 2859000   0.79450091   -7.4079677    771.47702  0.022486797  0.022479637            4 
 2860000   0.77965978   -7.3946669    772.67275  0.022513775   0.02247308            3 
 2861000   0.80231988   -7.4210877    770.32595   0.02243755  0.022466492            3 
 2862000   0.77965822   -7.4097001    772.35417  0.022488766  0.022459898            3 
 2863000   0.79255981   -7.4324686    768.85696  0.022379118  0.022453273            2 
 2864000   0.78758014   -7.4126535    771.74926   0.02245546  0.022446639            4 
 2865000   0.79316937   -7.4444051    772.20549  0.022460893  0.022439997            3 
 2866000   0.81258684   -7.4372017    772.34369  0.022457074  0.022433393            4 
 2867000   0.79408562   -7.4113813     771.1548  0.022414684  0.022426752            3 
 2868000   0.78065466     -7.45757    770.18119  0.022378579    0.0224201            3 
 2869000   0.78004283   -7.4387002    771.03576  0.022395601  0.022413459            5 
 2870000   0.78915159   -7.3993819    770.96554  0.022385759  0.022406835            5 
 2871000   0.81149262   -7.4022789    773.28085  0.022445166  0.022400248            2 
 2872000   0.78666639   -7.4233486     772.5078   0.02241492  0.022393643            5 
 2873000   0.80725581   -7.3938355    771.47918  0.022377282  0.022387035            3 
 2874000   0.79664007   -7.3922882    772.46281  0.022398017  0.022380458            3 
 2875000   0.79442486   -7.4284881    771.38375  0.022358949  0.022373874            6 
 2876000   0.78241725    -7.397477     772.8839  0.022394642  0.022367301            4 
 2877000   0.81038415   -7.4598466    770.81079   0.02232681  0.022360701            3 
 2878000   0.78609482    -7.417426    772.64651  0.022372206  0.022354112           10 
 2879000   0.81608212   -7.4072592    771.79938  0.022339915  0.022347521            7 
 2880000   0.79390273    -7.401239    771.13306  0.022312878  0.022340932            4 
 2881000   0.79319077    -7.396903    773.19076  0.022364652  0.022334345            5 
 2882000   0.79858421   -7.4070064     770.3855  0.022275778  0.022327779            4 
 2883000    0.7999484   -7.4493876    770.95402  0.022284484   0.02232116            3 
 2884000   0.77593865   -7.4382103     771.7478  0.022299694  0.022314533            4 
 2885000   0.78952896    -7.406973     774.0432  0.022358267  0.022307942            5 
 2886000   0.78638611   -7.4241582    772.84838  0.022316019  0.022301356            4 
 2887000   0.79001023   -7.4310943    772.48014   0.02229766  0.022294773            5 
 2888000   0.80327647   -7.4511818     771.1745  0.022252265  0.022288156            4 
 2889000    0.7806532   -7.4265492    772.01274  0.022268742  0.022281536            4 
 2890000   0.80207733   -7.4122628     773.3824   0.02230053  0.022274919            9 
 2891000   0.80051918   -7.4465887     770.3783  0.022206223  0.022268337            3 
 2892000   0.78217919   -7.4357922    771.80242  0.022239581  0.022261725            4 
 2893000   0.77080919   -7.4316704    771.24354  0.022215795  0.022255111            6 
 2894000   0.79099197   -7.4278323    773.97143  0.022286669  0.022248476            4 
 2895000     0.797434   -7.4283592    771.55561   0.02220943  0.022241857            4 
 2896000   0.78478643   -7.4460012    771.47708  0.022199502  0.022235227            5 
 2897000   0.78669093   -7.4554834    772.56785  0.022223215  0.022228608           10 
 2898000   0.78496182   -7.4460114    772.34726  0.022209203  0.022221981            3 
 2899000   0.79694539   -7.4231959    772.58756   0.02220845  0.022215354            5 
 2900000   0.78742706   -7.4338818    772.98829  0.022212307  0.022208738            5 
 2901000   0.78762001   -7.4366474    773.48084  0.022218799  0.022202107            3 
 2902000   0.79066835   -7.4402678    773.19632  0.022202973  0.022195489            7 
 2903000   0.79779364   -7.4542542    771.72244  0.022153015  0.022188869            6 
 2904000   0.79964825   -7.4139501    773.93752  0.022208951   0.02218227           12 
 2905000   0.78872709   -7.4066443    772.82162  0.022169295  0.022175643            7 
 2906000   0.79579981   -7.4446089    773.00709  0.022166985  0.022169033            3 
 2907000   0.78002124    -7.409278    774.56912  0.022204137  0.022162404            3 
 2908000   0.78087407   -7.4706961    773.86852  0.022176425   0.02215579            8 
 2909000   0.77443095   -7.4532206    771.42033  0.022098669  0.022149175           11 
 2910000   0.77684415   -7.4373552    773.13514  0.022140181  0.022142534            4 
 2911000   0.78197077   -7.4240807    773.09159  0.022131329  0.022135885            2 
 2912000    0.7913978   -7.4466298    771.81088  0.022087079  0.022129274            4 
 2913000   0.79130925   -7.4338935    774.17931  0.022147251  0.022122692            9 
 2914000   0.77845611   -7.4556084    774.70329  0.022154635  0.022116094            6 
 2915000   0.79158118   -7.3873042    774.20304  0.022132734    0.0221095            6 
 2916000   0.77732889   -7.4551023    773.96479  0.022118335  0.022102899            7 
 2917000   0.77846391      -7.4493    774.56763  0.022127975   0.02209628            2 
 2918000   0.77808281   -7.4566795      772.026  0.022047807  0.022089663            3 
 2919000   0.78541191   -7.4346056    772.65036  0.022058078  0.022083085            3 
 2920000   0.78254479   -7.4491037    773.60111  0.022077657  0.022076479            1 
 2921000   0.79905426   -7.4460841    775.24177  0.022116905  0.022069885            3 
 2922000   0.79038697   -7.4372172    773.50233  0.022059729  0.022063307            9 
 2923000   0.78563497   -7.4453472    774.15335  0.022070742  0.022056674            5 
 2924000   0.76578224   -7.4436569    773.86083  0.022054857  0.022050063            5 
 2925000   0.77728679   -7.4720213    773.31986  0.022031905  0.022043441            4 
 2926000   0.77336206   -7.4570536    772.94242  0.022013626  0.022036816            5 
 2927000   0.79677765   -7.4558482    772.27446  0.021987088  0.022030196            3 
 2928000   0.80757995   -7.4603648    773.36795    0.0220107  0.022023576            8 
 2929000   0.79673904   -7.4623292    773.36788  0.022003183  0.022016971            9 
 2930000   0.77452719   -7.4268875    774.93421  0.022040222  0.022010392            3 
 2931000   0.78691897   -7.4470664    774.61287  0.022023566  0.022003826            5 
 2932000    0.7783192   -7.4363783    774.35629  0.022008762  0.021997214            2 
 2933000   0.78063795   -7.4605545    772.30726  0.021943041  0.021990617            4 
 2934000   0.78345217   -7.4656349    773.75309  0.021976627   0.02198403            4 
 2935000   0.78006528   -7.4522526    774.04371  0.021977391  0.021977452            8 
 2936000   0.79345397   -7.4869785    775.04306   0.02199827   0.02197085            7 
 2937000   0.78610831   -7.4658447    773.30608  0.021941496  0.021964255            7 
 2938000   0.78110491    -7.467548    774.40505  0.021965199  0.021957666            7 
 2939000   0.76157004   -7.4446169    774.52664  0.021961173  0.021951063            4 
 2940000   0.76600048   -7.4323426    774.99079  0.021966859  0.021944454            6 
 2941000   0.78843041   -7.4734641    775.13199  0.021963391  0.021937877            8 
 2942000    0.7830499   -7.4803233    776.45745   0.02199347  0.021931306            4 
 2943000   0.79478295   -7.4451547     774.3958  0.021927619   0.02192475            4 
 2944000   0.78215167   -7.4508076    776.07128  0.021967597  0.021918217            7 
 2945000   0.77713472   -7.4536421    775.63503  0.021947794  0.021911687           12 
 2946000   0.77298275   -7.4572065    775.91896  0.021948375  0.021905143            7 
 2947000   0.78667088   -7.4551438    774.56094  0.021902526  0.021898597            4 
 2948000   0.77141762   -7.4773679    775.63147  0.021925358  0.021892034            5 
 2949000    0.7761477   -7.4686498      775.357  0.021910167  0.021885473            5 
 2950000   0.77525158   -7.4863116    776.36779  0.021931294  0.021878929            2 
 2951000   0.77280378   -7.4559325    774.36561  0.021867322  0.021872387            2 
 2952000   0.77289774   -7.4366863    776.39536  0.021917213  0.021865867            3 
 2953000   0.80101378   -7.4631665    776.23826  0.021905358  0.021859355            5 
 2954000   0.77051075   -7.4452068    776.61509  0.021908573  0.021852823            5 
 2955000   0.75327717   -7.4441472    779.03874  0.021969507  0.021846334            2 
 2956000   0.77185618   -7.4405785    775.03175  0.021849113  0.021839838            8 
 2957000   0.77029264     -7.47135    776.81187  0.021891891  0.021833314            3 
 2958000   0.78688899   -7.4467974     775.7267  0.021853919  0.021826764            7 
 2959000   0.77964044   -7.4266341    775.07059  0.021828055  0.021820204            6 
 2960000   0.75612328    -7.472506    777.68296  0.021894228  0.021813634            5 
 2961000   0.78359678   -7.4467913    775.79212  0.021833618  0.021807095           10 
 2962000   0.77377699   -7.4848502    775.83772   0.02182753  0.021800554            8 
 2963000   0.76125447   -7.4786049    776.88522  0.021849624  0.021793997            3 
 2964000    0.7776285   -7.4689725    777.84519  0.021869242  0.021787455            5 
 2965000   0.78783561   -7.4386996    776.50195  0.021824113  0.021780924            2 
 2966000    0.7866015   -7.4656997    776.26666  0.021810144  0.021774376            4 
 2967000   0.79002288   -7.4976798    774.37435  0.021749645    0.0217678            5 
 2968000   0.78099457    -7.483002    776.75497  0.021809158  0.021761234            3 
 2969000   0.77771591   -7.4632137    778.13665  0.021840593  0.021754695            3 
 2970000   0.78380098   -7.4608475    777.59581  0.021818064  0.021748173            4 
 2971000   0.76580334   -7.4495469    778.34123  0.021831629  0.021741682            5 
 2972000   0.79491112   -7.4496304    777.36027  0.021796777  0.021735185            5 
 2973000   0.76010448   -7.4390592     776.8423  0.021774927  0.021728699            4 
 2974000   0.77053278   -7.4449531    779.10901   0.02183112  0.021722213            6 
 2975000   0.76573541   -7.4569134    776.92141  0.021762505  0.021715725            6 
 2976000   0.77886283   -7.4756584    777.39402  0.021768426  0.021709214           10 
 2977000   0.76173774   -7.4774162    777.92129  0.021775873  0.021702667            3 
 2978000   0.77360538   -7.4709578    776.91152  0.021740304  0.021696124            9 
 2979000   0.76209757   -7.4564488    774.45312  0.021664236  0.021689579            6 
 2980000   0.79727451   -7.4567041    777.05982  0.021729861  0.021683077            8 
 2981000   0.77263358   -7.4965753    777.15605  0.021725261  0.021676571           11 
 2982000   0.77595814   -7.4296351    778.00384  0.021741668  0.021670072            4 
 2983000   0.78512215   -7.4667998    777.00529  0.021706484   0.02166361            3 
 2984000   0.78140591   -7.4566182    778.83169  0.021750215   0.02165714            3 
 2985000   0.76636268   -7.4377168    779.65335  0.021765867  0.021650697            3 
 2986000   0.78795131   -7.4394497    778.05284  0.021713911  0.021644268            5 
 2987000   0.76531949   -7.4332664    778.32666   0.02171428  0.021637833            7 
 2988000   0.78087962   -7.4396524    778.84121  0.021721364  0.021631419            7 
 2989000    0.7704359   -7.4463592    779.34186  0.021728054  0.021624993            8 
 2990000   0.78523376   -7.4819693    779.08565  0.021713647  0.021618559            4 
 2991000   0.78122953   -7.4352104    780.00555  0.021732017  0.021612166            7 
 2992000   0.77334813   -7.4810401    778.27824  0.021676644  0.021605768            5 
 2993000   0.77283225   -7.4566444    778.97037  0.021688673  0.021599359            3 
 2994000   0.76772021   -7.4813256    778.84403  0.021677912  0.021592912            5 
 2995000    0.7720573   -7.4632616    778.18898  0.021652448  0.021586453            6 
 2996000   0.79062081   -7.4807018    780.00495  0.021695732  0.021579975            4 
 2997000   0.77975357   -7.4804341     778.5999  0.021649424  0.021573496            5 
 2998000   0.77248075   -7.4984035    778.24086  0.021632223  0.021567011            6 
 2999000   0.78025584   -7.4859977    778.60845  0.021635224  0.021560531            2 
 3000000    0.7858289   -7.4728424    778.39774   0.02162216  0.021554066            6 
 3001000   0.77412293   -7.4881694    777.93261  0.021602038  0.021547565            6 
 3002000   0.77655609   -7.5015888    778.62567  0.021614082  0.021541066            4 
 3003000   0.76891648   -7.5085593    777.14851  0.021565893  0.021534554            6 
 3004000   0.78805275   -7.4791649    776.69212  0.021546053  0.021528044            5 
 3005000   0.77363961   -7.4767726    778.19322  0.021580511   0.02152159            5 
 3006000   0.77830153   -7.4987955    777.39715  0.021551263  0.021515147            3 
 3007000   0.76824347   -7.4754184    778.07668  0.021562928   0.02150867            3 
 3008000   0.76916966   -7.5110383    778.95613  0.021580123  0.021502207            9 
 3009000   0.76335923   -7.4741026    779.68114   0.02159303  0.021495754            2 
 3010000    0.7738423   -7.4684056    779.95323  0.021593389   0.02148934            5 
 3011000   0.76447413   -7.4644625    778.54032  0.021547114  0.021482894            7 
 3012000   0.75269862   -7.4700354    780.17941  0.021585309  0.021476434            4 
 3013000   0.76748175   -7.4430233    779.81531  0.021568075  0.021469993            5 
 3014000   0.78853852   -7.4834575    779.97727  0.021565397  0.021463556           13 
 3015000   0.77170383   -7.4747505    780.43158  0.021570801  0.021457133            9 
 3016000   0.75137881   -7.5053659    780.40304   0.02156286  0.021450683            2 
 3017000   0.78253806   -7.4797503    780.16988  0.021549273  0.021444257            4 
 3018000   0.76164028    -7.454475     780.1399  0.021541305  0.021437855            3 
 3019000   0.78825537   -7.4514909    779.82749  0.021525546  0.021431443            4 
 3020000   0.76646368   -7.4783672    780.17954  0.021528133  0.021425038            3 
 3021000   0.74643344   -7.4762241    780.36534  0.021526132   0.02141861            3 
 3022000   0.76903343   -7.4777794    781.09048  0.021539005  0.021412218            9 
 3023000   0.76326318   -7.4700355    777.70142  0.021438456  0.021405797            7 
 3024000   0.76330192   -7.4801976    780.70227  0.021514062  0.021399385            7 
 3025000   0.76685562   -7.4722715    780.39786  0.021498564  0.021392996            4 
 3026000   0.76607453   -7.4901926    783.55761  0.021578476   0.02138662            5 
 3027000   0.77541869    -7.498252    780.22087  0.021479487  0.021380217            5 
 3028000   0.76023034   -7.4681351    780.34281  0.021475749   0.02137382            4 
 3029000   0.76919271   -7.4841259    779.34074   0.02144109  0.021367414            3 
 3030000   0.76424523   -7.4772891    777.71715  0.021389361  0.021361016            4 
 3031000   0.76933102   -7.4633692    781.48648  0.021485936   0.02135461            5 
 3032000   0.78312585   -7.4846578    780.11772   0.02144123   0.02134821            4 
 3033000   0.77803449   -7.4697419    781.90218   0.02148319  0.021341796            5 
 3034000   0.76876878   -7.4946079    780.19452  0.021429206  0.021335396            4 
 3035000   0.74730359   -7.4885854    780.92926  0.021442319  0.021328994            6 
 3036000     0.758925   -7.5022423    781.09019  0.021439674  0.021322606            7 
 3037000   0.77152532   -7.4696877      781.856  0.021453628  0.021316233            5 
 3038000   0.75746313   -7.4750631    780.30125  0.021403918  0.021309837            8 
 3039000   0.75719069   -7.5298453    780.01924  0.021389142  0.021303438            5 
 3040000   0.75070226   -7.5176354    781.17819  0.021413876  0.021297032            5 
 3041000   0.77271626    -7.502433    779.98778  0.021374213  0.021290635            2 
 3042000   0.77819349   -7.4971741    782.00065  0.021422328  0.021284257            6 
 3043000    0.7669934   -7.4780734    782.46158   0.02142791  0.021277876            3 
 3044000   0.75987086   -7.4847434    781.35232  0.021390504  0.021271515            7 
 3045000   0.76744291   -7.5068292     780.1163  0.021349653  0.021265168            7 
 3046000   0.75522443   -7.4694823    782.33159   0.02140325  0.021258797            5 
 3047000   0.76925516   -7.4661264    780.36054  0.021342319  0.021252457            7 
 3048000   0.77574093   -7.4738132    782.10419  0.021382989  0.021246098            5 
 3049000   0.76461407    -7.505349    781.42527   0.02135742  0.021239774            3 
 3050000    0.7543248   -7.5067775    781.42005  0.021350275  0.021233426            5 
 3051000   0.76642839    -7.495441    782.57435  0.021374805    0.0212271            4 
 3052000   0.77555166    -7.477415    783.72809  0.021399303  0.021220772            7 
 3053000   0.76931231   -7.4874999     782.0237  0.021345772  0.021214445            8 
 3054000   0.75579796   -7.4955911    783.46378  0.021378077  0.021208146            5 
 3055000   0.75890457   -7.4860572    783.29867  0.021366576   0.02120183            4 
 3056000   0.75407404    -7.495634    784.55795  0.021393923   0.02119551            4 
 3057000   0.77686234   -7.4993329    781.99021  0.021316929  0.021189203            5 
 3058000     0.764752   -7.4895223    782.40838  0.021321353  0.021182885            4 
 3059000   0.76204329   -7.5194908    783.55772  0.021345694  0.021176564            5 
 3060000   0.75139869   -7.4851501    783.29409  0.021331539  0.021170244            5 
 3061000   0.76443292   -7.4945263    783.12287  0.021319908  0.021163923            3 
 3062000   0.77848309   -7.5183032    780.44243  0.021239997  0.021157609            8 
 3063000   0.76341298   -7.5059045    783.42321  0.021314158  0.021151277            5 
 3064000   0.75656671   -7.5130061    782.23089  0.021274774   0.02114493            5 
 3065000   0.75099488   -7.5074404    781.50559  0.021248113  0.021138612            4 
 3066000   0.75880424   -7.5273763     781.6835  0.021246018  0.021132269            3 
 3067000   0.75968498   -7.4998666    782.99052  0.021274604  0.021125931            3 
 3068000   0.74454959   -7.4995369    784.58425  0.021310959  0.021119602            4 
 3069000   0.74563717   -7.5077006    783.20632  0.021266599  0.021113277            5 
 3070000   0.75884346    -7.516321    782.83682  0.021249642  0.021106935            4 
 3071000   0.74025808   -7.4631867     784.5992  0.021290546   0.02110062            3 
 3072000   0.75165364   -7.5175537    779.90903  0.021156386  0.021094297            7 
 3073000   0.77004123   -7.4953099    782.18963  0.021211347  0.021087969            5 
 3074000   0.76074129   -7.4747963    783.68485  0.021244981  0.021081664            5 
 3075000   0.75414095   -7.4745076    784.88727  0.021270658  0.021075399            3 
 3076000   0.75417061   -7.4914453    783.77095    0.0212335  0.021069113            4 
 3077000    0.7496498   -7.4989982     783.6314   0.02122282  0.021062839            5 
 3078000   0.76320344    -7.513206    785.24082  0.021259498  0.021056527            2 
 3079000   0.76225659   -7.4909043    782.62249  0.021181728  0.021050238            6 
 3080000   0.75214221   -7.5196638    782.52283  0.021172155  0.021043943            4 
 3081000   0.75144877   -7.5180918    785.13377  0.021235902  0.021037649            1 
 3082000   0.75914097   -7.5031694    784.88586  0.021222308  0.021031331            5 
 3083000   0.75550371   -7.4987974    785.80503   0.02124027  0.021025037            7 
 3084000   0.74368796     -7.47859    785.86891  0.021235109  0.021018779            5 
 3085000   0.74929819   -7.5064985    784.47191  0.021190489  0.021012514           13 
 3086000   0.74569511   -7.4881843    784.43157  0.021182533  0.021006237            8 
 3087000   0.74216475   -7.5165205     784.7669  0.021184724  0.020999975            5 
 3088000    0.7615709   -7.5147162    783.51994  0.021144213  0.020993685            9 
 3089000   0.75686383   -7.5070097    784.08356  0.021152573  0.020987411            6 
 3090000   0.77581013   -7.5288825    783.24453  0.021123099  0.020981124            2 
 3091000   0.76217172   -7.5138191      784.382  0.021146932  0.020974848            9 
 3092000   0.76738666   -7.5045692    786.39804  0.021194427    0.0209686            4 
 3093000   0.75014375    -7.498959    785.48786  0.021163053   0.02096235            5 
 3094000   0.76260086   -7.4871892     785.0062   0.02114324  0.020956089            6 
 3095000   0.75998054   -7.4851457    783.19421   0.02108762  0.020949825            4 
 3096000   0.75879434    -7.490475    784.71633  0.021121779   0.02094357            7 
 3097000   0.74862208   -7.4899272    786.06543   0.02115126  0.020937319            6 
 3098000   0.77053459   -7.5171935    783.68682   0.02108045   0.02093106            5 
 3099000   0.76240221   -7.5156624    784.27904  0.021089573   0.02092481            6 
 3100000   0.75693434   -7.4944974    784.46103  0.021087662  0.020918564            3 
 3101000   0.75467705   -7.5350294    785.27078  0.021102622  0.020912296            5 
 3102000   0.76265912   -7.5274317    785.19604  0.021093811  0.020906041            7 
 3103000   0.75529289   -7.5087912    787.08102  0.021137636   0.02089982            7 
 3104000   0.75792768   -7.5244644    785.62384  0.021091705  0.020893618            5 
 3105000   0.74017915   -7.5108538    786.80325  0.021116566  0.020887416            9 
 3106000   0.75833375   -7.5082838    785.98498  0.021087813  0.020881203            5 
 3107000   0.74877871   -7.5066854    784.11861  0.021030968  0.020874996            6 
 3108000   0.76133042   -7.5219177    786.37689  0.021084751  0.020868808            8 
 3109000   0.75956292   -7.4809826    787.75008  0.021114776  0.020862626           10 
 3110000   0.76091853   -7.4902113    786.10347  0.021063866  0.020856478            5 
 3111000   0.74390181   -7.4991416    788.34886  0.021117242  0.020850315            5 
 3112000   0.76578829   -7.4997889    788.02558  0.021101799  0.020844163            5 
 3113000   0.75798463   -7.5119641    784.57903  0.021002758  0.020837971            3 
 3114000   0.73490809   -7.5001127    785.17117   0.02101186  0.020831747            3 
 3115000   0.75930659    -7.502193    784.21639  0.020979572  0.020825531            6 
 3116000   0.74736185   -7.5267038    783.23594  0.020946618  0.020819307            7 
 3117000   0.75435036   -7.5246277    786.64614   0.02103107  0.020813093            6 
 3118000   0.75600697   -7.5019064    785.27569  0.020987698  0.020806898            7 
 3119000   0.74767381   -7.4978858    785.63128  0.020990469  0.020800725            6 
 3120000   0.76957904   -7.5212129    785.12131   0.02097012  0.020794563            4 
 3121000   0.73663119   -7.5251399    786.29996  0.020994872  0.020788368            5 
 3122000   0.74360473   -7.5075659    786.44521  0.020992025   0.02078217            3 
 3123000   0.76672349   -7.5188159    785.15773  0.020950948  0.020775981            6 
 3124000   0.71986878   -7.4986145    787.44816  0.021005339  0.020769813            5 
 3125000   0.75760534   -7.5118567    789.48923  0.021053046  0.020763682            3 
 3126000   0.74438273   -7.5066748    788.32097  0.021015168  0.020757564            6 
 3127000   0.77012424   -7.5514121    788.04634  0.021001128  0.020751453            3 
 3128000   0.74829888   -7.5232315    786.85796  0.020962755   0.02074531            4 
 3129000   0.75709845   -7.5103851    786.90492  0.020957306  0.020739152            3 
 3130000   0.75580213   -7.5037295    786.97902  0.020952583   0.02073301            3 
 3131000   0.75271397   -7.4942903    788.66497  0.020990764  0.020726869            8 
 3132000   0.75624107   -7.5223977    786.43617   0.02092476  0.020720714            9 
 3133000   0.74016284   -7.5231657    786.90215  0.020930475  0.020714551            5 
 3134000   0.76739452    -7.524299    787.29876  0.020934343    0.0207084            6 
 3135000   0.74404369   -7.5442109    786.41278  0.020904114  0.020702219            4 
 3136000   0.76148219   -7.5461963    786.69843  0.020905039  0.020696028            7 
 3137000   0.75214283   -7.5561953    787.77153  0.020926882  0.020689862            8 
 3138000   0.74142734    -7.543016    788.87305  0.020949465  0.020683692            5 
 3139000   0.74491264   -7.5539986    786.70829  0.020885321  0.020677505            4 
 3140000   0.75859324   -7.5441221    788.44231   0.02092469  0.020671327            2 
 3141000   0.74086278   -7.5451894     788.6848  0.020924461  0.020665144            5 
 3142000   0.74845711   -7.5431523    786.23404  0.020852802  0.020658928            8 
 3143000   0.75645161   -7.5275917     785.4905  0.020826453  0.020652729            3 
 3144000   0.74198173   -7.5560054    788.47149  0.020898841  0.020646523            5 
 3145000   0.75439251   -7.5467835    786.90354   0.02085065  0.020640312           14 
 3146000   0.75344418   -7.5332004    788.02022  0.020873602  0.020634117            6 
 3147000   0.74317676   -7.5022603    786.98205  0.020839478  0.020627916            8 
 3148000   0.75141589   -7.5138315    786.56648  0.020821857  0.020621736            4 
 3149000    0.7339058   -7.5051625     787.3134  0.020835011  0.020615576            5 
 3150000   0.76544066   -7.5394803    786.41014  0.020804501  0.020609408            9 
 3151000   0.75347228   -7.5112287    786.85747  0.020809729  0.020603218            4 
 3152000   0.74523732    -7.524068    787.10054  0.020809553  0.020597033            6 
 3153000    0.7608011   -7.5440898    784.79916  0.020742128  0.020590819           10 
 3154000   0.73969692    -7.515093    786.38709  0.020777507  0.020584597           12 
 3155000   0.73853773    -7.546511    786.12565  0.020764016  0.020578404            7 
 3156000   0.74666415   -7.5325571    784.24017  0.020707651  0.020572182            5 
 3157000    0.7357003    -7.525276     786.5888  0.020763087  0.020565975           14 
 3158000   0.73830107   -7.5251472     786.5635  0.020755845  0.020559769            6 
 3159000   0.75124963    -7.556599    786.98755  0.020760461  0.020553572            5 
 3160000   0.73826254   -7.5492823    787.44917  0.020766065  0.020547374           13 
 3161000   0.74899918   -7.5449015    786.63841  0.020738121  0.020541194            7 
 3162000   0.74437635   -7.5173237    785.48798  0.020701243  0.020535039            4 
 3163000   0.75332685   -7.5586316    785.56642  0.020696765  0.020528845           11 
 3164000   0.74911671   -7.5305356    788.86184  0.020777019   0.02052266            7 
 3165000   0.75327039   -7.5328785    787.91978   0.02074565  0.020516475            9 
 3166000   0.73433108   -7.5560291    785.27437  0.020669467  0.020510279            4 
 3167000   0.72533882   -7.5475842    787.29287  0.020716053  0.020504118            4 
 3168000   0.74799596   -7.5274743    787.49486  0.020714827   0.02049796            5 
 3169000   0.73263883   -7.5197095    789.22523  0.020753793  0.020491829            3 
 3170000   0.74146052   -7.5150863    787.19718  0.020693932  0.020485684            7 
 3171000   0.74830987   -7.5239874    787.66667  0.020699744  0.020479527            6 
 3172000   0.73260233   -7.4919241     788.4279  0.020713217  0.020473376            6 
 3173000   0.74139071   -7.5154769    788.93062  0.020719892  0.020467217            4 
 3174000   0.75356202   -7.5477057    786.79853  0.020657386  0.020461075            4 
 3175000   0.73448914   -7.5353336    789.28643  0.020716179  0.020454956            7 
 3176000   0.75063081   -7.5403837    787.18201   0.02065444  0.020448824           10 
 3177000   0.75087059    -7.531053    787.68737  0.020661194  0.020442712            3 
 3178000   0.75373408   -7.5186583    789.48508  0.020701832  0.020436609            4 
 3179000   0.75263814   -7.5270563    789.01215  0.020682923  0.020430541            3 
 3180000   0.72476041   -7.5244568    788.87306  0.020672774  0.020424461            4 
 3181000    0.7198064   -7.5334207    788.19346  0.020648472  0.020418366            3 
 3182000   0.73446659   -7.5275519     787.7796  0.020631144  0.020412261           10 
 3183000   0.74798623   -7.5405449    787.68595   0.02062221  0.020406163           20 
 3184000   0.73958198    -7.539561     789.3554  0.020659427  0.020400044           10 
 3185000   0.76605006   -7.5323911    787.90385  0.020614962  0.020393929            5 
 3186000   0.74664932   -7.5189143    788.45834  0.020622995  0.020387803            3 
 3187000   0.74779019   -7.5369466    788.04305  0.020605665  0.020381673            7 
 3188000    0.7448706   -7.5708156    787.84947  0.020594141  0.020375552            3 
 3189000   0.73664955   -7.5523856    788.70689  0.020610089  0.020369446           12 
 3190000   0.75330014   -7.5416271    787.54345  0.020573235  0.020363321            4 
 3191000   0.76473146    -7.536863    789.20791  0.020610256  0.020357193            8 
 3192000   0.74397268   -7.5293067    788.52967  0.020586092  0.020351103            3 
 3193000   0.73823561     -7.52118    788.97102  0.020591164  0.020345014            2 
 3194000   0.74571509   -7.5136823    789.85353  0.020607742  0.020338928            5 
 3195000   0.73903708   -7.5482639    789.32622  0.020587538  0.020332837            4 
 3196000   0.73950679   -7.5513075    789.31633  0.020580839  0.020326756            5 
 3197000   0.73232403   -7.5202709     788.6088  0.020555959  0.020320666            6 
 3198000   0.75994708   -7.5322206     788.9947  0.020559587  0.020314596            5 
 3199000   0.76545531   -7.5157116    790.30213  0.020587218   0.02030851            3 
 3200000   0.74201295   -7.5394529    789.57801  0.020561927  0.020302448            8 
 3201000   0.73059016   -7.5411687    790.89266  0.020589729  0.020296369            4 
 3202000   0.74509757   -7.5698683    787.90665  0.020505586  0.020290287            4 
 3203000   0.73120537    -7.545517    789.48207  0.020540173  0.020284188            5 
 3204000   0.74024782   -7.5390223    788.70014  0.020513424  0.020278091            3 
 3205000   0.72556768   -7.5750119    790.20407  0.020546128  0.020272014            6 
 3206000   0.73464677   -7.5670382     790.5824  0.020549553  0.020265939            7 
 3207000    0.7316262   -7.5328373    790.95337  0.020552785  0.020259881            7 
 3208000   0.73660606   -7.5438604    790.21556  0.020527212  0.020253833            6 
 3209000   0.74772484   -7.5572797    789.35653  0.020498508  0.020247776            5 
 3210000   0.75760581   -7.5519011    791.03778  0.020535768  0.020241742            4 
 3211000   0.73505858   -7.5291169    790.09384  0.020504875  0.020235736            4 
 3212000   0.73313787   -7.5267678     791.4412  0.020533447  0.020229735            5 
 3213000   0.72355515   -7.5567055    791.90209   0.02053901  0.020223733            6 
 3214000   0.73312393   -7.5569448    789.73936  0.020476544  0.020217714            3 
 3215000    0.7420149   -7.5666314    792.78002   0.02054899  0.020211694            3 
 3216000   0.73100232   -7.5367235    792.80179  0.020543164  0.020205674            7 
 3217000   0.72749934   -7.5712549    790.40558  0.020474707  0.020199644            5 
 3218000   0.73636336   -7.5448311     791.2247  0.020489556  0.020193613            4 
 3219000   0.73258236   -7.5463055    791.64463  0.020494062  0.020187601            8 
 3220000   0.73271854   -7.5553569    792.16843  0.020501253  0.020181604            4 
 3221000   0.74324472   -7.5258085    791.43524   0.02047592  0.020175622            7 
 3222000   0.73179686   -7.5722162    791.14344  0.020462017  0.020169621            9 
 3223000   0.72225608   -7.5412763    792.15561  0.020481839  0.020163616            9 
 3224000   0.74291889   -7.5518779     790.8117  0.020440749  0.020157612            5 
 3225000   0.75161276   -7.5305547    791.75716  0.020458841  0.020151594           14 
 3226000   0.74666155   -7.5732794     791.5133    0.0204462    0.0201456            5 
 3227000   0.73962148   -7.5457072    792.03669   0.02045338  0.020139626           14 
 3228000   0.73735566   -7.5473694    792.23414  0.020452141  0.020133651            7 
 3229000   0.74908994   -7.5539043    792.02213  0.020440336  0.020127675            6 
 3230000   0.73233036   -7.5911781    791.30379  0.020415474  0.020121681            5 
 3231000   0.73368509   -7.5600564    790.88082  0.020398247  0.020115665            6 
 3232000   0.72594317   -7.5724242    793.00176  0.020446621  0.020109659            3 
 3233000   0.73532442   -7.5591203    790.92951  0.020386883  0.020103646            8 
 3234000   0.72741962    -7.589392    792.80238  0.020428839  0.020097627            6 
 3235000   0.73510653   -7.5644925     792.0036  0.020401948  0.020091642            5 
 3236000   0.74012962   -7.5642873    791.62549  0.020385906  0.020085664            6 
 3237000   0.74415256    -7.553027    793.51435  0.020428235  0.020079665            9 
 3238000   0.72217385   -7.5812259    790.40133  0.020341809  0.020073694            6 
 3239000   0.73641538   -7.5670628    791.14974  0.020354784  0.020067683            7 
 3240000   0.74634011   -7.5699445    791.18224  0.020349337  0.020061667           12 
 3241000   0.73048023   -7.5828201    790.79873  0.020333198  0.020055657           11 
 3242000   0.73898791   -7.5738494    792.73626  0.020376729  0.020049645           15 
 3243000   0.74182444    -7.552529    794.37204  0.020412479  0.020043654            6 
 3244000   0.72332744   -7.5568315    791.37686  0.020329245  0.020037669            8 
 3245000   0.74994171   -7.5591151    792.90327  0.020362179  0.020031683           11 
 3246000   0.73561346   -7.5657108    792.36811  0.020342168  0.020025714            7 
 3247000   0.73570799   -7.5422267     792.2432  0.020332697   0.02001976            5 
 3248000   0.74196871   -7.5255805    793.74602  0.020364994  0.020013796            5 
 3249000   0.72098224   -7.5351664    792.27306  0.020320946  0.020007851            5 
 3250000   0.73275412    -7.555218     791.2655  0.020288859   0.02000187            3 
 3251000    0.7257245   -7.5856499    791.78283  0.020295879  0.019995871            3 
 3252000   0.72925348   -7.5722988    792.58511  0.020310196  0.019989856            2 
 3253000   0.74183032   -7.5624283    791.36598  0.020272722  0.019983833            6 
 3254000   0.72733751   -7.5795798    790.33201  0.020240013  0.019977823            7 
 3255000    0.7267406   -7.5391779    792.24993  0.020282896  0.019971818            4 
 3256000   0.72629686   -7.5649866    792.77158  0.020290018  0.019965841            5 
 3257000   0.72732154   -7.5511334    791.31621  0.020246551  0.019959854            5 
 3258000   0.73362182   -7.5565978    791.44381    0.0202436  0.019953864            6 
 3259000   0.73052029   -7.5661395    792.19273  0.020256539  0.019947863            2 
 3260000   0.72815299   -7.5498412    793.67349  0.020288177   0.01994187            3 
 3261000   0.72974667   -7.5798256    792.54764  0.020253185  0.019935894            8 
 3262000   0.74530861   -7.5602176    791.86308  0.020229488  0.019929891           10 
 3263000   0.73584401   -7.5470407    791.44534   0.02021262  0.019923902            4 
 3264000   0.72552705   -7.5708309    791.98426  0.020220186  0.019917919            6 
 3265000   0.73209928   -7.5409201    793.49182  0.020252471  0.019911921            5 
 3266000   0.72055238   -7.5334129    792.68445   0.02022567  0.019905951            5 
 3267000   0.72824537   -7.5814046    790.45906  0.020162714  0.019899972            5 
 3268000   0.73387687   -7.5507627    791.86762  0.020192463  0.019893977            9 
 3269000   0.73150621   -7.5492017    792.80808   0.02021026  0.019887998            4 
 3270000   0.74575905   -7.5684746     792.4799  0.020195716  0.019882026           10 
 3271000   0.74549746   -7.5633106    791.76295  0.020171277  0.019876048            4 
 3272000   0.74067142   -7.5531589    792.47646  0.020183284  0.019870069            4 
 3273000   0.72186517   -7.5641055     792.8516  0.020186669  0.019864103            2 
 3274000   0.73818991   -7.5629213     794.2062  0.020214982  0.019858149            3 
 3275000   0.74697685    -7.544886    793.35544  0.020187161  0.019852212            6 
 3276000   0.73845145   -7.5490555    793.00468  0.020172077  0.019846239            7 
 3277000   0.72791424   -7.5549785    793.61899  0.020181543  0.019840287            5 
 3278000   0.73460546   -7.5807681    793.40167  0.020169862  0.019834337            3 
 3279000   0.71884573   -7.5671247    792.18639  0.020132825  0.019828358           11 
 3280000   0.72463109   -7.5777034    793.28953  0.020154714  0.019822376            5 
 3281000   0.73434401   -7.5615659    792.24708  0.020122094    0.0198164            5 
 3282000   0.73529494    -7.588424    793.16355  0.020139233  0.019810398            8 
 3283000   0.72997214   -7.6161655    790.77125  0.020072374  0.019804377            6 
 3284000    0.7134703   -7.5849889    793.84204  0.020144185  0.019798371            5 
 3285000   0.73562078   -7.5937414      792.536  0.020104921  0.019792375            6 
 3286000   0.72046953   -7.5943314    791.36098  0.020069004  0.019786369            9 
 3287000   0.72548409   -7.5774763    792.29879  0.020086675  0.019780366            9 
 3288000   0.73168205   -7.5641516    791.61929  0.020063344   0.01977437            3 
 3289000   0.72403276   -7.5863651     792.4042  0.020077131   0.01976838            4 
 3290000   0.72302189   -7.5941554     792.5933  0.020075818  0.019762388            5 
 3291000   0.71794806   -7.5628298    792.85608  0.020076372  0.019756418            8 
 3292000     0.729845   -7.5638825     793.3429  0.020082597  0.019750437            8 
 3293000   0.71541656   -7.5615641    795.21405   0.02012385  0.019744487            3 
 3294000   0.72315559   -7.5871467    792.97442  0.020061081  0.019738542            8 
 3295000   0.72215687   -7.5921567    792.82124  0.020051119  0.019732588            4 
 3296000   0.72740004    -7.582292    793.06645  0.020051235  0.019726628            4 
 3297000   0.73102662   -7.5894747    792.66859  0.020035097  0.019720647            7 
 3298000   0.72046731   -7.5646017    792.12711   0.02001534  0.019714662            9 
 3299000   0.72070792   -7.5817277    792.52098  0.020019222  0.019708665            2 
 3300000   0.74012716   -7.5561164    791.88539  0.019997106  0.019702709            4 
 3301000   0.73135837    -7.569118    793.06077   0.02002072  0.019696766            5 
 3302000   0.72901489   -7.5866357    792.71261   0.02000587  0.019690814            6 
 3303000   0.72263605   -7.5711271    793.07733  0.020009015  0.019684847            8 
 3304000   0.72526429   -7.6023687    793.71837  0.020019128  0.019678884            8 
 3305000   0.71116652   -7.5848196    793.08564  0.019997116  0.019672914            4 
 3306000   0.71895447    -7.572032    792.04178  0.019964755  0.019666942            3 
 3307000   0.72403472   -7.5655184    791.93783  0.019956099  0.019660999            7 
 3308000   0.72305858   -7.5701226    792.49951  0.019964216   0.01965505            6 
 3309000   0.73054252   -7.5627073    792.19289  0.019950461  0.019649084            4 
 3310000   0.71465346   -7.5538962    792.88231   0.01996179  0.019643124            5 
 3311000   0.73953378   -7.5686879    792.71822  0.019951631  0.019637166            8 
 3312000   0.72272427   -7.5630933    792.07908  0.019929526  0.019631185            9 
 3313000   0.73164391   -7.5687652    793.37083  0.019956002  0.019625217           13 
 3314000   0.71531413   -7.6009639    791.06646  0.019892035  0.019619227           11 
 3315000   0.73931844   -7.5466651    792.04638  0.019910668  0.019613248            6 
 3316000   0.72472322   -7.6073792    791.91202  0.019901287  0.019607266            3 
 3317000    0.7226308   -7.5812869     792.1549  0.019901389  0.019601307            5 
 3318000   0.70059133   -7.6121027    791.02029  0.019866895  0.019595345            4 
 3319000   0.71082706   -7.6131583    790.43811  0.019846292  0.019589375            4 
 3320000   0.73350484   -7.6085217    791.91835  0.019877469  0.019583386            6 
 3321000   0.73426915   -7.5841234    791.11815  0.019851404  0.019577409            6 
 3322000    0.7209241   -7.5854634    792.57641  0.019882009  0.019571444            7 
 3323000   0.71521762   -7.5823716    791.68366  0.019853638  0.019565473            4 
 3324000   0.70633746   -7.5857105    792.87266  0.019877473  0.019559496            5 
 3325000   0.72823752   -7.5886288    792.75703  0.019868597  0.019553529            5 
 3326000   0.72449596   -7.6150537    790.46192  0.019805119   0.01954755            3 
 3327000   0.70982587   -7.6086035    791.21555  0.019818043   0.01954156            4 
 3328000   0.71369978   -7.6010129    792.55863  0.019845719  0.019535576            5 
 3329000   0.71641522   -7.5985822    793.80424  0.019870938  0.019529572            3 
 3330000   0.72004606   -7.5953871    793.51826  0.019857814  0.019523592            7 
 3331000   0.72577236   -7.5868108    792.92985  0.019837132  0.019517637            3 
 3332000   0.71584327   -7.5704797    794.08499  0.019860069  0.019511686           11 
 3333000   0.71986881   -7.5810976     792.3912  0.019811761  0.019505742            7 
 3334000   0.70914497   -7.5826559    792.06585  0.019797687  0.019499787            7 
 3335000   0.71130786   -7.5905483    791.95189  0.019788903  0.019493812            9 
 3336000   0.72598905   -7.5703603    792.24003  0.019790169  0.019487875            7 
 3337000    0.7205597   -7.6023032    793.67146  0.019819985  0.019481922            5 
 3338000   0.71992517   -7.5955916    793.86734  0.019818937  0.019475941            5 
 3339000   0.71419351    -7.587584    792.33053  0.019774646  0.019469974            5 
 3340000   0.72018873   -7.5900507    793.74354  0.019803981  0.019464009            3 
 3341000   0.73312439    -7.598166     792.3218  0.019762591  0.019458035            6 
 3342000    0.7121836   -7.5923203    793.19166  0.019778368   0.01945206            5 
 3343000   0.71173573   -7.5866638    794.13922  0.019796072  0.019446098            5 
 3344000     0.713352   -7.6008349     792.4179  0.019747256  0.019440134            6 
 3345000   0.72233053   -7.6020296    794.00278  0.019780837  0.019434178            4 
 3346000   0.73170464   -7.5809369    792.83294   0.01974579  0.019428227            5 
 3347000   0.71966133   -7.5541724    792.19998  0.019724131   0.01942227            8 
 3348000   0.72836779   -7.6020184    793.64672  0.019754249  0.019416328            4 
 3349000    0.7212494   -7.5851818    791.07903  0.019684459  0.019410389            4 
 3350000   0.73033782   -7.5990908     795.1764  0.019780507   0.01940445            3 
 3351000   0.71591879   -7.5868139    791.60226  0.019685722  0.019398479            8 
 3352000   0.72530456   -7.5854409    794.89401  0.019761685  0.019392528            6 
 3353000    0.7146776   -7.6159986    793.25611  0.019715084  0.019386541            6 
 3354000   0.70616007   -7.6042056    795.01921  0.019753012  0.019380576            6 
 3355000   0.73629902    -7.596041    794.87102  0.019743443   0.01937462            6 
 3356000   0.70470827   -7.5765894    795.42146  0.019751228  0.019368677            6 
 3357000   0.70869347   -7.5851424    792.17574  0.019664774   0.01936272            5 
 3358000   0.72193153   -7.5959555    792.60546  0.019669581  0.019356757            4 
 3359000   0.71772991   -7.5980583     793.0984  0.019675955  0.019350811            3 
 3360000   0.71062166   -7.6098385    794.00873  0.019692677  0.019344874            4 
 3361000   0.71177623   -7.6045272    793.27166  0.019668543  0.019338909            7 
 3362000   0.72346228   -7.5967073     794.4761  0.019692547  0.019332942           11 
 3363000   0.72674554   -7.6083611    792.27155  0.019632064  0.019326995            6 
 3364000   0.72165639   -7.5946709     793.4542  0.019655524  0.019321064            6 
 3365000   0.70947611   -7.6107659    792.70702  0.019631179   0.01931511            4 
 3366000   0.70247545   -7.5993323    793.71276  0.019650247  0.019309146            2 
 3367000   0.70199316   -7.6283951    791.75343  0.019595917  0.019303194            3 
 3368000   0.72474116   -7.6059428    793.81326  0.019641065  0.019297222            7 
 3369000   0.71229229   -7.5990504    793.85843  0.019636352  0.019291263            5 
 3370000   0.71815866   -7.6166983    791.07407  0.019561673  0.019285301           10 
 3371000   0.71523901    -7.604359    791.87808  0.019575746  0.019279332           13 
 3372000   0.72124147   -7.6230579    791.99879  0.019572924  0.019273387            4 
 3373000   0.71542724   -7.5752319    793.39069  0.019601509  0.019267454            4 
 3374000   0.72444867   -7.5804986    792.94938    0.0195848  0.019261532            5 
 3375000   0.70540482   -7.5957379    794.12533  0.019608033  0.019255602            5 
 3376000   0.71975222   -7.6051473    793.12281  0.019577479  0.019249674            5 
 3377000   0.70163303   -7.6032741    794.81533  0.019613447  0.019243765           12 
 3378000   0.70642012   -7.5873431    793.46428  0.019574311  0.019237852            6 
 3379000    0.7027828   -7.5766809    792.88345  0.019554194  0.019231918            6 
 3380000   0.72254444   -7.6090709    793.70996  0.019568786  0.019226008            4 
 3381000   0.70474375   -7.5668724    791.02229  0.019496754  0.019220096            6 
 3382000   0.70360159    -7.597461    793.10963  0.019542421  0.019214179            7 
 3383000    0.7297624    -7.591644    793.18302  0.019538453  0.019208256            4 
 3384000   0.72248221   -7.5837853    793.57328  0.019542289  0.019202336            7 
 3385000   0.71343615   -7.5950344    792.90302  0.019520015  0.019196397            5 
 3386000   0.71612899   -7.6142643    791.97867  0.019491501   0.01919046            4 
 3387000   0.69713031    -7.618075      792.808  0.019506151  0.019184524            4 
 3388000   0.71069365   -7.6277712    791.54229  0.019469261  0.019178576            6 
 3389000   0.72975846   -7.6196851    792.19926  0.019479671  0.019172619           11 
 3390000   0.71575144   -7.6162279    792.93987  0.019492131  0.019166677            8 
 3391000   0.71810523   -7.6196157    791.85098  0.019459623  0.019160741            4 
 3392000   0.70791321   -7.6242578     794.3901  0.019516266  0.019154791            6 
 3393000   0.70012402   -7.5944549    792.97065  0.019475652  0.019148859            5 
 3394000   0.69499817    -7.631007     791.9197   0.01944411  0.019142907            6 
 3395000   0.71296762   -7.6231693    793.00688  0.019465068  0.019136944            3 
 3396000   0.69661614   -7.6150984    793.04774  0.019460339  0.019130996            4 
 3397000    0.7127603   -7.6313244    794.12482  0.019481033   0.01912505            3 
 3398000    0.7085122   -7.6062593    793.89734  0.019469721  0.019119098            4 
 3399000   0.71248024   -7.6229295    793.35881   0.01945079  0.019113139            4 
 3400000   0.70580125   -7.6093539    792.09893  0.019414189  0.019107195           10 
 3401000   0.70473382   -7.6238468    794.04737  0.019456223  0.019101255            4 
 3402000    0.7096564   -7.6120408    793.14049  0.019428289  0.019095327           13 
 3403000   0.70194562   -7.6105387    793.10353  0.019421675  0.019089406           10 
 3404000   0.70620852   -7.6122183    791.88063  0.019386032  0.019083487           16 
 3405000   0.70554182   -7.6241885    793.63765   0.01942334  0.019077588           11 
 3406000   0.70003199   -7.6286349    793.29703  0.019409303  0.019071692            6 
 3407000   0.70783993   -7.6205679    792.61555  0.019386937  0.019065777            3 
 3408000   0.72082836   -7.6201772    793.36495  0.019399573  0.019059872            6 
 3409000   0.69070337   -7.5755115    795.43678  0.019444529  0.019053977            7 
 3410000   0.69950325   -7.6255242    792.84115  0.019375395  0.019048093            3 
 3411000   0.70146628   -7.6268377    793.16247  0.019377565  0.019042207            3 
 3412000   0.71273773   -7.6212993    793.88492   0.01938953  0.019036296            5 
 3413000   0.69717953   -7.6107286    791.38442  0.019322796  0.019030358            5 
 3414000   0.70624311   -7.6344631    792.03039  0.019332903   0.01902443            8 
 3415000    0.7072641   -7.6424917    793.26502   0.01935737  0.019018508            5 
 3416000   0.70008784   -7.6357094    792.42714  0.019331263  0.019012571            4 
 3417000   0.70252477   -7.6663531    792.64392  0.019330892  0.019006618            3 
 3418000   0.70416799    -7.621306    793.79135  0.019353212  0.019000693            6 
 3419000   0.71325227   -7.6275696      792.331  0.019311958  0.018994783            5 
 3420000   0.71447464    -7.628717    794.92745  0.019369577  0.018988877            7 
 3421000   0.70763438   -7.5921943     793.3961  0.019326613     0.018983            3 
 3422000   0.69171707   -7.6384386     793.1417   0.01931477  0.018977122            5 
 3423000   0.69629973   -7.6184425    793.93069  0.019328335  0.018971257            5 
 3424000   0.70167094   -7.6411574    794.25888  0.019330678  0.018965375            3 
 3425000   0.70580157   -7.5971596    794.81445  0.019338551   0.01895949            7 
 3426000    0.7044779   -7.6320547    792.46285  0.019275707  0.018953619            7 
 3427000   0.69003189   -7.6059411     793.6403  0.019298714   0.01894776            5 
 3428000   0.70957943   -7.5874989    795.09986  0.019328565  0.018941917            9 
 3429000   0.70800611   -7.6243218    793.54804  0.019285215  0.018936083            3 
 3430000   0.70034423   -7.6205046    796.28556  0.019346102   0.01893025            5 
 3431000   0.71197066   -7.6283171    794.61709  0.019299939  0.018924387            5 
 3432000   0.70568644   -7.6433292    794.65917  0.019295337  0.018918534            6 
 3433000   0.70759609   -7.6085862    794.84913  0.019294328  0.018912708           10 
 3434000   0.69391461   -7.6335436    796.94864  0.019339658  0.018906865            8 
 3435000    0.6977442   -7.6479083    794.83457  0.019282741  0.018901042           10 
 3436000   0.69992154   -7.6445492    796.46278  0.019316618  0.018895213            3 
 3437000   0.70736381   -7.6207113     795.6922  0.019292314  0.018889405            6 
 3438000   0.70306685   -7.6186012    796.06962  0.019295851  0.018883575            7 
 3439000   0.70646896   -7.6408352     795.6413  0.019279861  0.018877739           10 
 3440000   0.69533686   -7.6324499    795.97218  0.019282272  0.018871898            8 
 3441000   0.69962028   -7.6323121    794.62888  0.019244136   0.01886607            9 
 3442000   0.69847534   -7.6647174    794.21998  0.019228646  0.018860233            7 
 3443000   0.71256221   -7.6501437    792.93055  0.019191852  0.018854371            6 
 3444000   0.70243886   -7.6535447    793.06645  0.019189568  0.018848527            5 
 3445000   0.68698284   -7.6221872    795.73826  0.019248627   0.01884268            3 
 3446000   0.70092203   -7.6364127    796.03842    0.0192503  0.018836859            6 
 3447000   0.70914227   -7.6599905    796.74728  0.019261853   0.01883105            5 
 3448000   0.70332935    -7.622872     795.1669  0.019218071  0.018825255            5 
 3449000   0.70774927   -7.6486274    793.00056  0.019160157   0.01881944           10 
 3450000   0.70508122   -7.6347432    795.13523  0.019206165   0.01881362            6 
 3451000   0.71448139   -7.6489468    796.91479  0.019243572  0.018807797            6 
 3452000   0.68900982   -7.6706679    794.95615  0.019190714  0.018801974            8 
 3453000   0.68910611   -7.6581498    794.19743  0.019166846  0.018796135            3 
 3454000   0.69443784   -7.6591829    795.82746  0.019200624    0.0187903            4 
 3455000   0.70388853   -7.6361088    796.13426  0.019202466  0.018784475            5 
 3456000   0.71462307   -7.6412693    795.68639  0.019186111  0.018778687            5 
 3457000   0.71544427   -7.6354568    795.59641  0.019178392  0.018772879            9 
 3458000   0.70286696   -7.6363058     793.9487  0.019133138  0.018767094            5 
 3459000   0.71025746   -7.6356565    796.06578  0.019178611   0.01876129           12 
 3460000   0.69920585   -7.6414995    796.22101  0.019176807  0.018755504           13 
 3461000   0.69457747   -7.6561724    795.86733   0.01916275  0.018749726            8 
 3462000   0.70460013   -7.6803933    795.22214  0.019141684  0.018743925            6 
 3463000   0.71661656   -7.6591206    795.34961  0.019139224  0.018738107            4 
 3464000    0.7078234   -7.6338245    795.18645  0.019129774  0.018732309            5 
 3465000   0.71240559   -7.6362519    796.24803  0.019149784  0.018726516            7 
 3466000   0.69089576   -7.6337014     796.2137  0.019143434  0.018720749           10 
 3467000   0.69538625   -7.6403249     795.7926  0.019127791  0.018714968           10 
 3468000   0.68964651   -7.6240441    796.36776  0.019136096  0.018709199            6 
 3469000   0.70753364   -7.6544992    795.82519  0.019117546   0.01870343           12 
 3470000   0.70131356   -7.6511331     796.2997  0.019123432  0.018697673            6 
 3471000   0.68871813   -7.6350575    796.04458  0.019111797  0.018691913            4 
 3472000   0.70223238    -7.627723    797.49597  0.019141128  0.018686169            3 
 3473000   0.69158103    -7.654139    795.73044  0.019093254  0.018680409           10 
 3474000   0.70301049   -7.6704367    796.47484  0.019105614   0.01867465            8 
 3475000   0.68348972   -7.6632154    796.62818  0.019103793  0.018668861           14 
 3476000   0.69800853   -7.6535676    794.64669  0.019050793  0.018663074            5 
 3477000   0.69963414   -7.6425429    794.56324  0.019043314  0.018657292            8 
 3478000   0.69990679   -7.6372852    795.87421   0.01906925   0.01865154           10 
 3479000   0.69298746   -7.6569033    795.09637  0.019045137  0.018645778            8 
 3480000   0.69436477   -7.6418079    794.54005  0.019026342  0.018640001            5 
 3481000   0.68868154   -7.6413578    797.30551   0.01908708  0.018634248            8 
 3482000   0.69041224    -7.655467    796.90688  0.019072058   0.01862852            5 
 3483000   0.69001532   -7.6243399    798.15875  0.019096534  0.018622793            3 
 3484000   0.70346646   -7.6378992    795.94253  0.019038044  0.018617074            9 
 3485000   0.69438256   -7.6267007    797.37816   0.01906691  0.018611351            3 
 3486000   0.69402031   -7.6536098    796.12748  0.019031542  0.018605617            6 
 3487000   0.69644376   -7.6749448    795.92407  0.019021223  0.018599874            3 
 3488000   0.68485214   -7.6366399    796.17452  0.019021754   0.01859412            7 
 3489000   0.69638035   -7.6516385    795.83772  0.019008257  0.018588383            5 
 3490000   0.68801196   -7.6624491    795.96958  0.019005959  0.018582631            4 
 3491000   0.69652871   -7.6276124    798.62846  0.019063985  0.018576875            3 
 3492000    0.6949275    -7.651698    796.92061  0.019017769  0.018571149            7 
 3493000   0.69256844   -7.6361928    794.81627  0.018962121  0.018565414            4 
 3494000   0.68318083   -7.6206585    796.83654  0.019004878  0.018559695            7 
 3495000   0.68265925    -7.623226    796.68118  0.018995736  0.018553954            9 
 3496000   0.70917838   -7.6744547    796.98859   0.01899763  0.018548204            5 
 3497000   0.67672547   -7.6551058     796.0034  0.018968721  0.018542446            5 
 3498000   0.68876652   -7.6460933    796.39289  0.018972577  0.018536695            4 
 3499000   0.68475532   -7.6423789    795.57682  0.018947719   0.01853094            3 
 3500000   0.68713263   -7.6510433    796.88986  0.018973568  0.018525192            6 
 3501000    0.6905412   -7.6677185    795.50388  0.018935158  0.018519443            4 
 3502000   0.68135074   -7.6749918    797.12329  0.018968287  0.018513698            6 
 3503000   0.70315861   -7.6466617    796.31708  0.018943693  0.018507957            7 
 3504000   0.69249502   -7.6531901    795.77849  0.018925478  0.018502203            6 
 3505000   0.69420009   -7.6655005    796.02544   0.01892595  0.018496444           14 
 3506000   0.67711088   -7.6584535    794.84309  0.018892448  0.018490692            7 
 3507000   0.68871426   -7.6363997    797.38665  0.018947501  0.018484946            5 
 3508000   0.70317644    -7.697079    796.07305  0.018910895  0.018479203            3 
 3509000   0.69415451    -7.654737    796.63801  0.018918923   0.01847346           14 
 3510000   0.67926774   -7.6640061    795.57443  0.018888282  0.018467725            8 
 3511000   0.67946494     -7.65545     796.8273  0.018912639  0.018461986            6 
 3512000   0.69834772   -7.6398423    796.40083  0.018897134  0.018456261            4 
 3513000   0.68374368   -7.6527536    795.29038  0.018865414  0.018450519            7 
 3514000   0.69170257   -7.6492052     795.9373  0.018875387  0.018444778            5 
 3515000   0.70711355    -7.674203    796.12014  0.018874351  0.018439041            4 
 3516000   0.68540359   -7.6845212     797.4738  0.018901067  0.018433299            6 
 3517000   0.69604902   -7.6809292    796.89578  0.018881997  0.018427553            9 
 3518000   0.68328192   -7.6635227    797.41829  0.018889006  0.018421821            4 
 3519000    0.6759123   -7.6582156    797.75986  0.018891727  0.018416107           10 
 3520000    0.6919362   -7.6805627    795.68898  0.018837334  0.018410385            8 
 3521000   0.70401375   -7.6809646    797.48543  0.018874501  0.018404676            8 
 3522000   0.69298865   -7.6586887    796.82264   0.01885346   0.01839898            4 
 3523000    0.6895026   -7.6635109    797.09932  0.018854653  0.018393275            5 
 3524000   0.69085294   -7.6616691    795.12698  0.018802662  0.018387555            4 
 3525000   0.68095836      -7.6934    796.63078  0.018832879  0.018381837            3 
 3526000    0.6806936   -7.6751145    795.91861  0.018810706  0.018376106            4 
 3527000    0.6829294   -7.6628689    795.64358  0.018798875   0.01837038            7 
 3528000   0.68498638   -7.6649097    795.33426   0.01878624  0.018364661            4 
 3529000   0.68921716   -7.6637013    796.47769  0.018807917  0.018358946            3 
 3530000   0.66510574   -7.6896665    797.09017  0.018817048  0.018353231            6 
 3531000    0.6868871    -7.686439    795.98214  0.018785569  0.018347518            9 
 3532000   0.68705801   -7.6787316    795.21809  0.018762224  0.018341799            4 
 3533000   0.68642814   -7.6808721    796.47303  0.018786514  0.018336075            6 
 3534000   0.67783685   -7.6831096     796.5358  0.018782678  0.018330358            3 
 3535000   0.68636927   -7.6855817    796.55412  0.018777796  0.018324658            6 
 3536000   0.67908347   -7.6720265    795.95251  0.018758308  0.018318956            5 
 3537000   0.68929333   -7.6719368    795.68443  0.018746688  0.018313246            5 
 3538000   0.70255778   -7.6862651    794.19538  0.018706317  0.018307539           10 
 3539000   0.68057553   -7.6602541    795.43158   0.01873014  0.018301822            5 
 3540000    0.6828062   -7.6702433    797.11222  0.018764412   0.01829611            5 
 3541000   0.68950755   -7.6696901    794.86987  0.018706342  0.018290391            6 
 3542000   0.68604164   -7.6628571    795.74812  0.018721723  0.018284696            4 
 3543000   0.67605704   -7.6483121     796.6031  0.018736548  0.018278977            5 
 3544000   0.67435656   -7.6687161    794.42616  0.018680073   0.01827328            3 
 3545000   0.68835133   -7.6859383    795.68757  0.018704456  0.018267572            7 
 3546000     0.677272   -7.6629176    796.59767  0.018720569  0.018261847            5 
 3547000   0.70792855   -7.6584853    796.52756  0.018713644  0.018256124            6 
 3548000   0.70748894   -7.6763097    797.28426  0.018726143  0.018250396            4 
 3549000   0.68625034   -7.7058618    796.33882  0.018698667  0.018244663            4 
 3550000   0.68659642   -7.6837121     796.4763  0.018696627  0.018238934            5 
 3551000   0.68576696   -7.6778214    795.22864  0.018662082  0.018233217            3 
 3552000   0.67295292   -7.6750862    794.81908  0.018647219  0.018227489            5 
 3553000   0.67640716   -7.6863332    795.81911  0.018665426  0.018221756            5 
 3554000   0.67443587   -7.6861263    796.09269  0.018666589  0.018216022            3 
 3555000   0.68712741   -7.6597044    796.40916  0.018668757  0.018210317            7 
 3556000   0.68908573   -7.6819221    794.79552  0.018625692  0.018204608            7 
 3557000   0.67917293   -7.6745553    795.06478  0.018626764  0.018198903           19 
 3558000    0.6813234   -7.6691163    795.64321  0.018635076  0.018193187            9 
 3559000   0.68408424   -7.6669454    796.46857  0.018649166  0.018187488           11 
 3560000   0.69339119   -7.6739096    797.59534  0.018670303  0.018181804            9 
 3561000   0.68530335   -7.6725862    796.17298  0.018631774   0.01817612            9 
 3562000   0.69364119   -7.6373492     797.9501   0.01866812  0.018170443            7 
 3563000   0.69334532   -7.6631945    795.14484  0.018597269  0.018164775            9 
 3564000   0.70248107    -7.666471    795.93488  0.018610524  0.018159113           11 
 3565000    0.6739251   -7.6755824    794.84779  0.018579892  0.018153439            6 
 3566000     0.695502   -7.6811583    797.04304  0.018625982  0.018147747           12 
 3567000   0.68100734   -7.6591615     796.9844  0.018619391  0.018142079           13 
 3568000     0.679185   -7.6768175    795.76773  0.018585756  0.018136407           16 
 3569000   0.68345237    -7.693358    794.49213  0.018550764   0.01813071           12 
 3570000   0.68180716   -7.6686383    797.51473  0.018616123  0.018125019            6 
 3571000   0.69375698   -7.6454383    795.16066  0.018555975  0.018119333            9 
 3572000   0.67725639   -7.6892388    794.21231  0.018528656   0.01811365            3 
 3573000    0.6806306   -7.6707357    797.50894  0.018600358  0.018107965            8 
 3574000   0.65781832   -7.6670403    795.97098  0.018559294  0.018102287            4 
 3575000   0.67517791   -7.6612424    796.97769  0.018577568  0.018096613            6 
 3576000   0.67400534   -7.6766931    796.11436  0.018552255  0.018090948            4 
 3577000   0.67303079   -7.6753304    796.12433  0.018547301   0.01808526            5 
 3578000   0.68395163   -7.7127965    795.52072  0.018528059  0.018079578            7 
 3579000   0.68900486   -7.6857846    795.53385  0.018523187  0.018073894            4 
 3580000   0.67097173    -7.663256    796.46513  0.018539691   0.01806822            9 
 3581000     0.676577   -7.6863005     796.0661  0.018525228  0.018062537            7 
 3582000   0.67807688   -7.6741599    796.55477  0.018531425  0.018056854            5 
 3583000   0.68105009    -7.700917    795.96404  0.018512514  0.018051165            5 
 3584000   0.70144865   -7.6853649    795.71118  0.018501469  0.018045478            9 
 3585000   0.68624011   -7.6656041    795.26472   0.01848593  0.018039828            6 
 3586000   0.68568003   -7.6683229     796.1824  0.018502101  0.018034166            6 
 3587000   0.68774327   -7.6816795    796.19081  0.018497138  0.018028502           15 
 3588000   0.67910979   -7.6795265    794.11893  0.018443862  0.018022821            6 
 3589000   0.66384255   -7.7164847     794.7585  0.018453573  0.018017135           11 
 3590000   0.68830019   -7.6925748    794.40704  0.018440275  0.018011445            7 
 3591000   0.67465302    -7.694986    795.30298  0.018455931  0.018005773            9 
 3592000   0.68176322   -7.7127193    796.41534  0.018476599  0.018000096            9 
 3593000   0.67402305   -7.6895708    796.85983  0.018481766  0.017994414            6 
 3594000   0.69428607   -7.6869319     795.6026  0.018447473  0.017988732            9 
 3595000   0.67050005   -7.6834743    795.14871   0.01843182  0.017983062            3 
 3596000   0.67405897   -7.6762291    795.87802  0.018443595  0.017977402           13 
 3597000   0.66607804   -7.7047683    795.97002  0.018440599  0.017971733            6 
 3598000   0.66970116   -7.6707847     797.1418  0.018462613  0.017966067            8 
 3599000   0.66329674   -7.6926481    795.69714  0.018424033  0.017960407            4 
 3600000   0.67602935   -7.6848416    795.58056  0.018416217  0.017954749            5 
 3601000   0.67793865   -7.6988341    794.70629   0.01839087   0.01794909            6 
 3602000   0.68977265   -7.6870872    796.05695  0.018417013  0.017943433            8 
 3603000   0.69199623   -7.6939886     796.2985  0.018417488  0.017937778            4 
 3604000   0.67255715   -7.6962337    795.57575  0.018395666  0.017932115            5 
 3605000   0.67049416   -7.6738223    796.61561    0.0184146   0.01792646            4 
 3606000   0.68477556   -7.6775808    794.97767  0.018371642  0.017920798            7 
 3607000   0.70054977   -7.6773912    796.03767  0.018391038  0.017915138            7 
 3608000   0.66885973   -7.6926485    794.98416  0.018361608  0.017909501            6 
 3609000   0.66642672   -7.6866611    797.63279  0.018417678  0.017903853            6 
 3610000   0.67837541   -7.7013478    794.36891  0.018337232  0.017898203            5 
 3611000   0.66983729   -7.6950156    795.18398  0.018350964  0.017892542           17 
 3612000   0.68444205   -7.7078256    796.46255  0.018375382  0.017886874           14 
 3613000    0.6917421    -7.679351    795.55041  0.018349258  0.017881222            7 
 3614000   0.68224798   -7.6887696    794.78933  0.018326631  0.017875583           13 
 3615000   0.68717718   -7.7037988    795.48033   0.01833749  0.017869943            9 
 3616000   0.67449114   -7.6766459    796.71482  0.018360869   0.01786431            5 
 3617000   0.66741966   -7.6899657    796.43636  0.018349377  0.017858671            4 
 3618000   0.66801898   -7.6931375    796.04047  0.018335187   0.01785303            7 
 3619000   0.65490841   -7.7055975     796.6248  0.018343576  0.017847385            7 
 3620000   0.66366704    -7.704173    796.83919  0.018343444  0.017841758            5 
 3621000   0.68191343   -7.6829496    795.52852  0.018308214  0.017836139            7 
 3622000   0.66767915   -7.6725207    795.45451  0.018301457  0.017830509            6 
 3623000   0.66753951   -7.7148778    794.41254  0.018272439  0.017824875            7 
 3624000   0.66578192   -7.7232421    795.50892  0.018292608  0.017819237           10 
 3625000   0.66675669   -7.7056631     793.2683  0.018236053  0.017813587           16 
 3626000   0.66376867   -7.7096673    796.85148  0.018313373   0.01780795            9 
 3627000   0.67718825   -7.7105758    794.28482  0.018249353  0.017802309            7 
 3628000   0.67273516   -7.6975047    796.38401   0.01829254  0.017796695           11 
 3629000   0.65861012   -7.7116489    797.87678  0.018321778  0.017791072            8 
 3630000   0.67379118   -7.6920486    796.55999  0.018286501   0.01778546            5 
 3631000   0.65586277   -7.7025928    794.42901  0.018232558  0.017779841            8 
 3632000   0.66932092   -7.6905156    795.92514  0.018261865  0.017774217           14 
 3633000   0.68778398    -7.680886     794.3444   0.01822058  0.017768607           16 
 3634000   0.65339084   -7.6745323    796.69782  0.018269534  0.017763008            5 
 3635000   0.67734122    -7.687364    797.05926  0.018272794  0.017757406            5 
 3636000   0.68390466   -7.6814218    797.45581  0.018276857  0.017751819            5 
 3637000   0.67611317   -7.7104932    796.46357  0.018249097  0.017746215            8 
 3638000   0.67256755   -7.6931708    796.84977  0.018252927  0.017740612           15 
 3639000   0.68043756   -7.7225541    797.06928  0.018252938  0.017735024            9 
 3640000   0.68197981   -7.7010824    796.62179  0.018237678  0.017729436            2 
 3641000   0.66342775    -7.700246    796.28931   0.01822506  0.017723853            7 
 3642000   0.67311326   -7.6946019    798.13702  0.018262333  0.017718268            4 
 3643000   0.65971798   -7.6968383    795.45416   0.01819595  0.017712681            6 
 3644000   0.67332488   -7.7104348    796.89667  0.018223945  0.017707098            7 
 3645000   0.67362762   -7.6980958    797.06605  0.018222818  0.017701505            8 
 3646000   0.66331435    -7.711908    795.89085  0.018190959  0.017695927            6 
 3647000   0.66225979   -7.7011313    796.50384  0.018199978  0.017690353            6 
 3648000   0.66756803   -7.6948032    798.45529  0.018239567  0.017684797            3 
 3649000   0.66950997    -7.704518    795.67869  0.018171158  0.017679219            6 
 3650000   0.66285508   -7.7211474    796.50826   0.01818512  0.017673643            6 
 3651000   0.66805144   -7.7184827     796.5208  0.018180425  0.017668049            9 
 3652000   0.67095813   -7.7240061    796.64677  0.018178322  0.017662481            7 
 3653000   0.65505986   -7.7255117    796.49983  0.018169993  0.017656917            4 
 3654000   0.67299885   -7.7235301     797.1381  0.018179577  0.017651352            6 
 3655000   0.66096758   -7.7272775    795.68734  0.018141526  0.017645774            3 
 3656000   0.67102873   -7.6916458    797.25475  0.018172291  0.017640203            6 
 3657000   0.67046876   -7.7238382    795.24592  0.018121546  0.017634667            5 
 3658000    0.6582085   -7.7141297    796.40429  0.018142981  0.017629112           10 
 3659000   0.65700353   -7.7259153    797.40697  0.018160858  0.017623564           11 
 3660000   0.66543482   -7.7047392    796.37232  0.018132339  0.017618011           17 
 3661000   0.67338054   -7.7319966     798.6079  0.018178273  0.017612464            7 
 3662000   0.65231356   -7.7194373    796.72933   0.01813056  0.017606921           20 
 3663000   0.66151195   -7.7107097     798.9116  0.018175257  0.017601392            8 
 3664000   0.65399814   -7.6920106    798.44987  0.018159795  0.017595873            5 
 3665000   0.66240095   -7.6996431    795.86308  0.018096023  0.017590357           10 
 3666000   0.66324286   -7.7211862    796.45508  0.018104544  0.017584838           13 
 3667000   0.66730467   -7.7420886    796.47697  0.018100104  0.017579306           16 
 3668000    0.6622541   -7.7126483    796.27733  0.018090634  0.017573764           19 
 3669000   0.66940291    -7.727509      796.496   0.01809067  0.017568223            5 
 3670000   0.67115539   -7.7326939    797.29842   0.01810396  0.017562683           14 
 3671000   0.66254806   -7.7449264     795.7281  0.018063382  0.017557143           28 
 3672000   0.65972684   -7.7377956    796.23736   0.01807002  0.017551601           16 
 3673000   0.66236015   -7.7099648    795.78188  0.018054766  0.017546066           15 
 3674000    0.6674379   -7.7238939    795.78691  0.018049966   0.01754054           13 
 3675000   0.66720888   -7.7255329    796.47007  0.018060546  0.017535007            8 
 3676000   0.66484281   -7.7197807    797.34416  0.018075448  0.017529464            7 
 3677000   0.65779135   -7.7276304    796.08254   0.01804194  0.017523911           11 
 3678000   0.65588455   -7.7436393    796.78354  0.018052917  0.017518366            4 
 3679000   0.66346845   -7.7543911     795.9897  0.018030029  0.017512823            5 
 3680000   0.66110439   -7.7376894    796.36304  0.018033583  0.017507283            5 
 3681000   0.66308152   -7.7650694    797.62652  0.018057288  0.017501727            7 
 3682000   0.66584933   -7.7534432    796.48203  0.018026481  0.017496179           11 
 3683000   0.66971744   -7.7398902    796.83469  0.018029566  0.017490638           10 
 3684000   0.66059725   -7.7583939    796.31743  0.018012971  0.017485113           10 
 3685000   0.66131304   -7.7654658    795.98114  0.018000478   0.01747958           12 
 3686000   0.65347439   -7.7633756    796.45624  0.018006336  0.017474054           12 
 3687000   0.65063755   -7.7282345    795.69594  0.017984268  0.017468541            9 
 3688000    0.6602227   -7.7125663    798.18521  0.018035638   0.01746306            8 
 3689000   0.66435591   -7.7534905    797.43988  0.018013913  0.017457564            7 
 3690000   0.68161855   -7.7288027    798.32809   0.01802909  0.017452064            6 
 3691000   0.65926419   -7.7486075    795.66015   0.01796397  0.017446572            9 
 3692000   0.64011968   -7.7262855    797.37447  0.017997799  0.017441078            5 
 3693000   0.65373971   -7.7424209    796.86123  0.017981344  0.017435578            5 
 3694000     0.649992   -7.7267166    799.05976  0.018026073  0.017430081            7 
 3695000   0.65449183   -7.7358067    796.70816  0.017968159  0.017424597            7 
 3696000   0.65530326   -7.7448047    797.23736  0.017975229  0.017419122            6 
 3697000   0.66786881   -7.7292751    796.34544  0.017950262  0.017413638            5 
 3698000    0.6634632   -7.7452068    797.19106  0.017964464  0.017408157            6 
 3699000   0.66240001   -7.7355159    797.68102  0.017970646  0.017402664            4 
 3700000   0.66765847   -7.7317728    798.94185  0.017994186  0.017397181            7 
 3701000   0.66161987   -7.7573531    796.81178  0.017941362  0.017391701            6 
 3702000   0.67475118   -7.7441192    796.48441  0.017929147  0.017386222           10 
 3703000   0.66409843   -7.7239454    797.16143  0.017939541  0.017380746            9 
 3704000   0.65943717     -7.72467    798.08017  0.017955367  0.017375267           11 
 3705000   0.65841191   -7.7278538    796.29707  0.017910415  0.017369791           14 
 3706000   0.65494478   -7.7400805    797.76478  0.017938586  0.017364325            7 
 3707000   0.65906979      -7.7409    796.76756  0.017911329  0.017358865            6 
 3708000   0.66778982   -7.7457631    798.81447  0.017952501  0.017353394            7 
 3709000     0.660366   -7.7380951    797.93733  0.017927953  0.017347909            4 
 3710000    0.6491791   -7.7219838    798.15765  0.017928069  0.017342433            5 
 3711000   0.66341145   -7.7521852    796.62127  0.017888738  0.017336943            5 
 3712000    0.6587276   -7.7523201    796.39285  0.017878791  0.017331462            8 
 3713000   0.65329053   -7.7316278     795.7034  0.017858502  0.017325982            7 
 3714000   0.67529793   -7.7615193    796.65162  0.017874969  0.017320502            3 
 3715000   0.65794977   -7.7276461    798.87539   0.01792004  0.017315038           12 
 3716000   0.65431617   -7.7600133     797.4412  0.017883055   0.01730958            6 
 3717000   0.66277652   -7.7411449    795.84626  0.017842486  0.017304113            7 
 3718000   0.66749075   -7.7437536    796.31075  0.017848098  0.017298649            9 
 3719000   0.65837241   -7.7551205    797.01949   0.01785918   0.01729318           16 
 3720000   0.66325249    -7.752679    796.51277  0.017843028  0.017287707           12 
 3721000   0.66196657   -7.7503865    798.19888  0.017875994  0.017282234           10 
 3722000   0.65473202   -7.7452759    797.49061  0.017855333  0.017276774           27 
 3723000   0.66023733   -7.7393661    796.18093  0.017821222  0.017271305            9 
 3724000   0.65559399   -7.7688536    795.36874  0.017798262  0.017265839           11 
 3725000   0.64717791   -7.7306189    796.43264  0.017817285  0.017260376            7 
 3726000   0.64953203    -7.748871    797.22815  0.017830295  0.017254908           16 
 3727000   0.65803419   -7.7438192    795.73249  0.017792069  0.017249439           15 
 3728000   0.64291852   -7.7662376    796.79337  0.017811011  0.017243976           11 
 3729000    0.6610884   -7.7544015    796.26291   0.01779438  0.017238515           14 
 3730000   0.64985599   -7.7685201      797.024  0.017806613  0.017233071            9 
 3731000   0.65529712   -7.7482282    796.25886  0.017784751  0.017227609            9 
 3732000   0.65241966   -7.7887926    796.96506  0.017795754  0.017222165           12 
 3733000   0.65189258   -7.7388518    797.82609  0.017810208  0.017216719            8 
 3734000   0.64123929   -7.7519411    798.11009  0.017811777  0.017211279            5 
 3735000   0.65330403   -7.7564764    797.88601  0.017802008  0.017205841            9 
 3736000   0.66966928   -7.7494447    797.68593   0.01779278  0.017200416           13 
 3737000   0.66283254    -7.742671    798.17523   0.01779893  0.017194988            7 
 3738000   0.65098759   -7.7467062    797.62757  0.017781959  0.017189553           14 
 3739000   0.66777128   -7.7769426     798.1791  0.017789496  0.017184128            7 
 3740000   0.65370313   -7.7565238    799.05843  0.017804332  0.017178699            4 
 3741000   0.63719304   -7.7654834    798.77785  0.017793323  0.017173276            4 
 3742000   0.66191901   -7.7614557    797.49087  0.017759907  0.017167844           10 
 3743000   0.65265227   -7.7695331    797.24457  0.017749679   0.01716241            7 
 3744000   0.65732051   -7.7313674    798.07181  0.017763351  0.017156985            6 
 3745000   0.65334597   -7.7600811    796.76094  0.017729438  0.017151563            8 
 3746000   0.64683004   -7.7548992    796.84054  0.017726476  0.017146135            5 
 3747000   0.65487576   -7.7705857    796.99289  0.017725133  0.017140719           11 
 3748000   0.66516271   -7.7592641     796.2719  0.017704373  0.017135289            6 
 3749000   0.64568968   -7.7726647    796.98492    0.0177155  0.017129858            4 
 3750000   0.64323706   -7.7433126    796.64087   0.01770313   0.01712445            9 
 3751000   0.65679585   -7.7505555    797.67485  0.017721382  0.017119035            5 
 3752000   0.65764528   -7.7547274    797.77086  0.017718791  0.017113639            6 
 3753000   0.64740433   -7.7562049    798.45491  0.017729259  0.017108242            7 
 3754000   0.65480935   -7.7689497    798.31244  0.017721374  0.017102851           15 
 3755000   0.65841447   -7.7453908    798.85738  0.017728748  0.017097466            5 
 3756000   0.63380859   -7.7443206    798.34357  0.017712628  0.017092091           11 
 3757000   0.63410568   -7.7494417    800.37854  0.017753051  0.017086716            5 
 3758000   0.65042372   -7.7506033    799.72896  0.017733922  0.017081332            7 
 3759000   0.65535156   -7.7538019    798.01702  0.017691253  0.017075949            9 
 3760000   0.64318584   -7.7725561     797.6059  0.017677436  0.017070564            8 
 3761000   0.65980658   -7.8007507    798.15306  0.017684859   0.01706517           10 
 3762000   0.64581275    -7.745773    797.46169  0.017664843  0.017059787            5 
 3763000   0.65382339   -7.7391896    798.93688  0.017692818  0.017054416            8 
 3764000   0.64400861   -7.7829063    797.43364  0.017654836  0.017049038           10 
 3765000   0.64651321   -7.7550677    799.09587  0.017686938  0.017043673            8 
 3766000   0.63313069   -7.7612523    797.98253  0.017657606  0.017038297            6 
 3767000   0.65810024   -7.7710196    796.67706  0.017624039  0.017032912           18 
 3768000   0.65933616   -7.7874718    797.82432  0.017644735   0.01702754            6 
 3769000   0.65525155   -7.7586962     796.4624  0.017609941  0.017022161            5 
 3770000   0.65060114   -7.7773795    797.61349  0.017630714  0.017016779            5 
 3771000   0.64433661   -7.7546362    798.05455  0.017635785  0.017011396           10 
 3772000   0.65347229   -7.7686531    798.88175  0.017649385  0.017006005            6 
 3773000   0.65414399   -7.7605494    798.06204  0.017626602  0.017000619            7 
 3774000   0.65532853   -7.7557501     796.9961  0.017598395  0.016995245           10 
 3775000   0.64150814   -7.7823645    795.95517  0.017570754  0.016989861            6 
 3776000   0.63997801   -7.7613613    796.12934  0.017569945  0.016984481            4 
 3777000   0.64378885   -7.7718668    797.83223  0.017602864  0.016979109            6 
 3778000   0.64912044   -7.7731982    798.64985   0.01761624  0.016973731           10 
 3779000   0.65390782   -7.7521449    798.21246  0.017601933  0.016968368           10 
 3780000   0.65290766   -7.7740601    798.09942  0.017594784  0.016963026           11 
 3781000   0.64773403   -7.7509191    799.35944  0.017617902  0.016957682            9 
 3782000   0.65295497   -7.7384443    798.95719   0.01760438  0.016952346            5 
 3783000   0.63082753   -7.7420825    799.31346  0.017607575  0.016947012            7 
 3784000   0.64659802   -7.7565307    799.38742   0.01760455  0.016941666            6 
 3785000   0.64606722   -7.7704955    799.29401  0.017597842  0.016936319            9 
 3786000   0.65119924   -7.7599061     797.7954  0.017560209  0.016930966           16 
 3787000    0.6451949   -7.7715253    798.30315  0.017566745  0.016925617            6 
 3788000   0.63498369   -7.7813797    798.90782   0.01757541  0.016920271            5 
 3789000   0.64381696   -7.7621917    798.56429  0.017563216  0.016914931           11 
 3790000   0.64383211   -7.7607686    799.45362  0.017578136  0.016909596            5 
 3791000   0.65037285   -7.7630982    797.23022  0.017524625  0.016904257            6 
 3792000    0.6387091    -7.753586    798.13284  0.017539839  0.016898924            7 
 3793000   0.64857298   -7.7599845    797.20185  0.017514761  0.016893588            8 
 3794000   0.65484442   -7.7798114     797.4879  0.017516427  0.016888253            9 
 3795000   0.64433627   -7.7548055    799.09661  0.017547137  0.016882924            8 
 3796000   0.62793635   -7.7350664    799.19796  0.017544739    0.0168776            6 
 3797000   0.63146184   -7.7439811    799.05876  0.017537063  0.016872288           10 
 3798000   0.64788109    -7.771837    797.20429  0.017491756  0.016866973            4 
 3799000   0.64536417   -7.7410747    799.20456  0.017531029  0.016861663            8 
 3800000   0.64976134   -7.7456627    799.91125  0.017541913  0.016856356            8 
 3801000   0.65036288   -7.7357404    799.52219  0.017528769  0.016851053            6 
 3802000   0.63617306     -7.76566    797.67125  0.017483589  0.016845747            4 
 3803000   0.64221018   -7.7352096    798.81101  0.017503966  0.016840433            5 
 3804000    0.6401601   -7.7305394     799.4521  0.017513409  0.016835125            4 
 3805000   0.65336143   -7.7752285    798.49017  0.017487739  0.016829807            3 
 3806000   0.65178482   -7.7535546    795.83545  0.017425019  0.016824476            6 
 3807000   0.64270248   -7.7581353    797.69612  0.017461171  0.016819145            6 
 3808000   0.63534921   -7.7719979    795.60091  0.017410734  0.016813815            3 
 3809000   0.62865244   -7.8066383    797.50078  0.017447729  0.016808489           10 
 3810000   0.62996035   -7.7801772    798.75509  0.017470584  0.016803158            4 
 3811000   0.62929414   -7.8020257    797.15169  0.017430939  0.016797835            9 
 3812000   0.64581853   -7.7665984    798.84814  0.017463452  0.016792507            9 
 3813000   0.63942814   -7.7855424     798.0585  0.017441614   0.01678718            4 
 3814000   0.64347562   -7.7694855    798.35982  0.017443625  0.016781864            5 
 3815000   0.64671931   -7.7845006    796.65887  0.017401898  0.016776549           22 
 3816000   0.63273057    -7.797119     796.3269  0.017390088  0.016771218            4 
 3817000   0.64779825   -7.7723788    797.52986  0.017411795  0.016765886           11 
 3818000   0.63899904   -7.7833332    798.11439  0.017419993  0.016760566            9 
 3819000   0.63272205   -7.7769554    797.79235  0.017408404  0.016755266            6 
 3820000   0.64178218   -7.8021608    797.80466  0.017404116  0.016749956            8 
 3821000   0.62774605   -7.8012829    796.05233  0.017361344  0.016744646           10 
 3822000   0.64028697   -7.7732923    798.99211  0.017420899  0.016739342            6 
 3823000   0.64251862    -7.776594    798.22782  0.017399682  0.016734047            5 
 3824000   0.63705073   -7.7694455    797.98075  0.017389748  0.016728749            6 
 3825000   0.63205087   -7.7887364    795.54615   0.01733216   0.01672345            9 
 3826000   0.63240143   -7.7885422    798.38587  0.017389481   0.01671816            4 
 3827000   0.65262352    -7.797734    798.22371  0.017381406  0.016712874            5 
 3828000   0.64512097    -7.811622    796.94735   0.01734908  0.016707569           10 
 3829000   0.62170559   -7.8069224    797.84537  0.017364094  0.016702254           13 
 3830000   0.65530662   -7.7909382    798.03343  0.017363652  0.016696938           11 
 3831000   0.64897555   -7.7886009    797.67329  0.017351285  0.016691623            4 
 3832000   0.64950486   -7.7962113    797.44411  0.017341774  0.016686317           14 
 3833000   0.64719085    -7.790981    799.12095  0.017373705   0.01668101            7 
 3834000   0.63750488   -7.7933562    797.38527  0.017331448  0.016675703            7 
 3835000   0.63642951   -7.7957154    797.84447  0.017336907  0.016670403            5 
 3836000   0.63069073   -7.7878232    797.31632  0.017320914  0.016665095            6 
 3837000   0.63266479   -7.7920413    797.81571  0.017327246  0.016659801            7 
 3838000   0.62785697    -7.802113    797.73385  0.017320954  0.016654496            6 
 3839000   0.62635279   -7.8068553    797.57955  0.017313093  0.016649196            6 
 3840000    0.6359603    -7.787554    797.58443   0.01730869  0.016643914           10 
 3841000   0.64445106   -7.7774889     798.7962  0.017330474  0.016638637            5 
 3842000   0.65048521   -7.8000366    798.27646   0.01731469  0.016633362            6 
 3843000   0.62023519   -7.8160144    798.52619  0.017315599  0.016628086            6 
 3844000   0.64049292   -7.7959915    798.73983  0.017315727  0.016622816            6 
 3845000   0.62631286   -7.7828779    796.76493  0.017268421  0.016617546           11 
 3846000   0.63363056   -7.8005088    797.29553  0.017275428   0.01661228            9 
 3847000   0.65049666    -7.807122    797.81006  0.017282083  0.016607013            5 
 3848000   0.64623488   -7.7685865    797.21179  0.017264635  0.016601746            9 
 3849000   0.64291561   -7.8117927    796.51517  0.017245067  0.016596474           10 
 3850000     0.631336   -7.7862437    797.51098  0.017262142  0.016591202            7 
 3851000   0.62922683   -7.7833374    797.50697  0.017257573  0.016585944            9 
 3852000   0.63265261   -7.7927902     799.2402  0.017290589  0.016580686            7 
 3853000   0.64331064   -7.8084785    797.44813  0.017247343  0.016575432           10 
 3854000   0.62958563   -7.8042994    797.12102  0.017235794   0.01657017           11 
 3855000   0.62815497   -7.8020034    797.67656  0.017243332  0.016564908           11 
 3856000   0.63558814   -7.7907299     797.9067  0.017243834  0.016559653            7 
 3857000    0.6215979   -7.8020602    796.38452  0.017206476  0.016554388            7 
 3858000     0.641045   -7.8057741     797.9297  0.017235392  0.016549121            8 
 3859000   0.64169333   -7.7898494    796.30647  0.017195873  0.016543857            7 
 3860000   0.63671779   -7.8054493    797.80888  0.017223853  0.016538596            7 
 3861000   0.62793729   -7.7882336    797.21502  0.017206575  0.016533344            7 
 3862000   0.62805163   -7.7782561    797.30864  0.017204139  0.016528079            7 
 3863000   0.63357654   -7.8069438    797.38194  0.017201267  0.016522817           12 
 3864000   0.63325522   -7.8108498    798.07372  0.017211735  0.016517571            7 
 3865000   0.62313687   -7.8058347    798.54283  0.017217396  0.016512311            7 
 3866000   0.63935817   -7.7944712    796.26346   0.01716381  0.016507054            7 
 3867000   0.64121485   -7.8071024    796.11195  0.017156106  0.016501804            9 
 3868000   0.62500722    -7.780542    798.67476  0.017206885  0.016496559            9 
 3869000   0.63895769   -7.7832308    798.02432  0.017188428  0.016491314            5 
 3870000   0.63735977   -7.8056805    796.36308  0.017148214   0.01648607           11 
 3871000   0.63045975   -7.7983232    798.20158  0.017183363  0.016480825           13 
 3872000   0.63375262   -7.8256724    798.99427  0.017195985  0.016475586           18 
 3873000    0.6280652   -7.8101882    797.42962   0.01715788  0.016470342           11 
 3874000   0.64044843   -7.8046962    796.29406  0.017129024  0.016465099           11 
 3875000   0.62811545   -7.8235248    797.17161  0.017143475  0.016459867           11 
 3876000   0.63889783   -7.8211649    797.61102    0.0171485  0.016454629            8 
 3877000   0.62884161   -7.8020781    796.63647  0.017123129   0.01644939           12 
 3878000   0.63176613   -7.7991068    797.69938  0.017141554  0.016444149            8 
 3879000    0.6325798   -7.8080454    797.36659  0.017129986  0.016438917            8 
 3880000   0.64195959   -7.7907312    797.39593  0.017126201  0.016433691           11 
 3881000   0.64088101   -7.8006864    797.01267  0.017113559  0.016428461            5 
 3882000   0.63869632   -7.7906943    796.74124  0.017103324  0.016423224            6 
 3883000   0.63710097   -7.7916484    797.87729    0.0171233  0.016417989           23 
 3884000   0.62955729   -7.8002448    797.11353  0.017102504  0.016412762            7 
 3885000    0.6117316   -7.8111159    797.65211  0.017109655  0.016407531            6 
 3886000   0.63554493   -7.7913899    797.63367  0.017104857  0.016402306            7 
 3887000   0.63493573   -7.8091789    797.26586  0.017092571  0.016397081            8 
 3888000   0.62819834   -7.7991021    795.77313   0.01705618  0.016391865            7 
 3889000   0.63575939   -7.7904474    797.46025  0.017087946  0.016386648           10 
 3890000   0.61825567   -7.7889498    798.07788  0.017096784  0.016381449            3 
 3891000   0.63702861   -7.7805889    798.46419  0.017100664   0.01637625            5 
 3892000   0.60163301   -7.7908593    798.51056  0.017097263  0.016371042            6 
 3893000   0.63948257   -7.7821166    798.70596  0.017097054  0.016365837           12 
 3894000   0.61842847   -7.7875408    797.95652  0.017076625  0.016360646            5 
 3895000   0.63552003   -7.8143513    797.03127  0.017052445  0.016355449            8 
 3896000   0.61748035    -7.804769    798.31131  0.017075447  0.016350251            5 
 3897000   0.63781424    -7.803817    798.18553  0.017068376  0.016345055            5 
 3898000    0.6305329   -7.8078029    798.04704  0.017061036   0.01633986            8 
 3899000   0.63107259   -7.8059261    796.66756  0.017027177  0.016334673           11 
 3900000   0.62542825   -7.8079953    796.41059   0.01701732  0.016329486            8 
 3901000   0.61999639   -7.7900723    797.55346  0.017037372  0.016324302            7 
 3902000   0.62042559   -7.8226281    796.32782   0.01700683  0.016319119            6 
 3903000   0.63176554   -7.8093816    798.06067  0.017039471  0.016313919            6 
 3904000   0.63342495   -7.8165854    798.00943  0.017034013  0.016308727            5 
 3905000   0.64135198   -7.8201803    796.00613    0.0169869  0.016303537            9 
 3906000    0.6261286   -7.8140177    796.08315  0.016984194  0.016298344           12 
 3907000   0.62695708   -7.7870575    797.62106  0.017012649  0.016293158            5 
 3908000    0.6305629   -7.8040965    797.24123  0.017000197  0.016287973            4 
 3909000   0.62788092   -7.8230269    797.75672  0.017006837  0.016282786            7 
 3910000    0.6305042   -7.7958365    797.61035  0.016999368  0.016277606            5 
 3911000   0.61967473   -7.8095969    797.62175  0.016995264   0.01627243            9 
 3912000   0.62905407   -7.7957648    798.54936   0.01701068  0.016267265           15 
 3913000    0.6275837    -7.795816    799.41804  0.017024833  0.016262102            4 
 3914000   0.62358227   -7.8089884    798.48974  0.017000718  0.016256933            5 
 3915000    0.6312184   -7.8232634     797.8204  0.016982128  0.016251767            5 
 3916000   0.63730776       -7.819     797.2302  0.016965232  0.016246596            7 
 3917000    0.6315667   -7.8021857    797.17547  0.016959737  0.016241423            6 
 3918000   0.62164638   -7.7919282    797.47217  0.016961719  0.016236251            5 
 3919000   0.62310152   -7.8073912    797.42427  0.016956372  0.016231077           10 
 3920000   0.62220306   -7.7910416    796.77536  0.016938252  0.016225906           10 
 3921000   0.63225262   -7.8211698     798.2992  0.016966318  0.016220746           10 
 3922000   0.63213544   -7.8087518    797.39943  0.016942874  0.016215589            8 
 3923000   0.62886473   -7.8073347    797.69382  0.016944809  0.016210439           14 
 3924000   0.61811779   -7.8036086    797.07208  0.016927287  0.016205277           10 
 3925000   0.62825634   -7.8213809    797.95424  0.016941704  0.016200118            9 
 3926000   0.62539453   -7.8256586    796.86978   0.01691437  0.016194959           12 
 3927000   0.64234111   -7.7888782    796.89412  0.016910579  0.016189796           15 
 3928000   0.60805242   -7.8291691    796.74868  0.016903188   0.01618464            9 
 3929000    0.6146298    -7.838985    798.44299  0.016934822  0.016179484           11 
 3930000   0.62034582   -7.8311282    796.37159   0.01688659  0.016174322           16 
 3931000    0.6347129   -7.8296201     797.8638  0.016913928  0.016169169            7 
 3932000    0.6146876   -7.8068321    797.57987  0.016903609  0.016164027            8 
 3933000   0.62528192   -7.8028069     797.7845  0.016903646   0.01615889            7 
 3934000   0.62412128   -7.7908001    798.56155   0.01691581  0.016153769            4 
 3935000    0.6174409   -7.7982974    799.47055  0.016930761  0.016148636            4 
 3936000   0.61438351   -7.7964257    798.12292  0.016897928  0.016143511            4 
 3937000   0.61960176   -7.8061443    797.79806  0.016886759  0.016138379           10 
 3938000   0.60538754   -7.7955279    798.93243  0.016906476  0.016133254            6 
 3939000   0.61327103   -7.8010948    797.14946  0.016864463  0.016128125            6 
 3940000   0.60886552   -7.8022699    797.29602  0.016863283  0.016123002            5 
 3941000   0.62832361   -7.8143034    796.92825  0.016851227  0.016117878            5 
 3942000   0.61224247   -7.8189379    797.83034  0.016866023   0.01611276            9 
 3943000   0.62973082   -7.8166762    797.27252  0.016849956  0.016107628            7 
 3944000   0.61474073   -7.8347301    796.88671  0.016837532  0.016102504            7 
 3945000   0.61302169   -7.7962498    797.42223  0.016844576   0.01609738            6 
 3946000     0.616744   -7.8271786    797.49132  0.016841766  0.016092265           11 
 3947000   0.63408427   -7.8250328    797.85282  0.016845132  0.016087152            7 
 3948000   0.63088221    -7.824921    796.58084  0.016814016   0.01608202           10 
 3949000   0.62317496   -7.8361154    796.98681  0.016818326  0.016076898           14 
 3950000   0.62642759   -7.8454392    796.97971  0.016813918  0.016071772           12 
 3951000   0.61182393   -7.8333443    795.58729  0.016780294  0.016066641            6 
 3952000   0.60268426   -7.8161579    797.12238  0.016808417  0.016061513            5 
 3953000   0.61945607   -7.8240694    798.01196  0.016822918  0.016056396           12 
 3954000   0.61128803   -7.8086206    796.26126  0.016781767  0.016051271           12 
 3955000   0.61546535    -7.831998    796.57778  0.016784193  0.016046144           12 
 3956000   0.61725351   -7.8338417    796.07952  0.016769454  0.016041011            7 
 3957000   0.62733367   -7.8342341     797.1698  0.016788177  0.016035882            9 
 3958000   0.60854752   -7.8529009    797.12547  0.016783002   0.01603076           10 
 3959000   0.62280478   -7.8521538    796.80743  0.016772069  0.016025626            5 
 3960000   0.62181102   -7.8443531    798.35062  0.016800308  0.016020506            8 
 3961000   0.60986339   -7.8292901    796.25106  0.016751895   0.01601539           11 
 3962000   0.61493159   -7.8493362    796.70543  0.016757223  0.016010266            8 
 3963000   0.62213496   -7.8401615    796.51502  0.016748991  0.016005153           12 
 3964000   0.61015138   -7.8358701    797.71743  0.016770043  0.016000044           11 
 3965000   0.62424961   -7.8276173    796.85041  0.016747592  0.015994939            9 
 3966000   0.61436844   -7.8302242    797.57574  0.016758609  0.015989834            9 
 3967000     0.622816   -7.8356448    796.57811  0.016733428  0.015984728            8 
 3968000   0.60890236   -7.8583476    796.85546  0.016735036  0.015979627           16 
 3969000   0.62273715   -7.8349325    798.70301   0.01676961  0.015974522           15 
 3970000   0.63264262   -7.8517034    797.20073  0.016733853  0.015969419           22 
 3971000   0.62285433   -7.8228878    796.71255  0.016719394   0.01596432           19 
 3972000    0.6121714   -7.8362743    795.80652  0.016696176  0.015959219           24 
 3973000   0.63213779   -7.8487776    796.55878  0.016707752  0.015954121            7 
 3974000   0.63642803   -7.8202337    796.86119  0.016709889  0.015949031           10 
 3975000   0.61042778    -7.848052    796.97714  0.016708116  0.015943943           12 
 3976000   0.62347212   -7.8531887    796.65266  0.016697113  0.015938862            7 
 3977000   0.61971083   -7.8218583    796.15088  0.016682401  0.015933781           14 
 3978000   0.62070379   -7.8348575    797.26308  0.016701506  0.015928702           13 
 3979000   0.62016102   -7.8432893    797.81268  0.016708819  0.015923619           13 
 3980000   0.60569303   -7.8496376    797.62437  0.016700678  0.015918537           28 
 3981000   0.61771755   -7.8503755    797.49292  0.016693731  0.015913459           24 
 3982000   0.61701691   -7.8322377    797.79107  0.016695778  0.015908391           14 
 3983000   0.61540016    -7.831168    798.49242   0.01670626  0.015903314            6 
 3984000   0.62231877   -7.8612434    797.01921  0.016671252  0.015898238           16 
 3985000   0.63991107   -7.8675722    796.81084  0.016662711  0.015893163           14 
 3986000   0.60727577   -7.8527832    798.28002  0.016689246  0.015888094           18 
 3987000   0.61663247   -7.8509458    798.82349  0.016696419   0.01588303            8 
 3988000   0.62045077   -7.8470561    795.83394  0.016629763  0.015877965            8 
 3989000   0.61186447   -7.8427777     798.6908  0.016685276   0.01587289           13 
 3990000   0.60123293   -7.8323418    798.42695  0.016675584  0.015867835           11 
 3991000   0.60012148   -7.8264369    795.84169  0.016617425  0.015862777           10 
 3992000   0.61387164   -7.8232003    798.46666  0.016668058  0.015857721            8 
 3993000   0.62834931   -7.8497208    797.04568  0.016634228  0.015852672            6 
 3994000   0.61278478   -7.8129544    797.37871  0.016637012  0.015847626           11 
 3995000   0.61746717   -7.8324822    797.65314  0.016638572  0.015842582           16 
 3996000   0.61361054   -7.8280761    797.22623  0.016625505  0.015837538            6 
 3997000   0.61452465    -7.865781    796.63193  0.016608955   0.01583249            7 
 3998000    0.6103712   -7.8503747    797.89224  0.016631071  0.015827451            6 
 3999000   0.63018545   -7.8111723    797.49829  0.016618702   0.01582242            6 
 4000000   0.60000152   -7.7959628    797.92513   0.01662344  0.015817392           11 
 4001000   0.61983385   -7.8246034    797.08691  0.016601827  0.015812367            9 
 4002000   0.61000017   -7.8131339    798.50225   0.01662715  0.015807346            4 
 4003000    0.6186531   -7.8360471    797.75409  0.016607421  0.015802319            6 
 4004000   0.62437271    -7.843555    794.83895  0.016542602   0.01579729            4 
 4005000   0.60697339   -7.8449873    798.42582  0.016613105  0.015792267           13 
 4006000   0.60441798   -7.8401598    796.97745  0.016578829  0.015787238            4 
 4007000   0.61338522   -7.8425705    798.47932  0.016605925  0.015782212            6 
 4008000   0.60685246   -7.8650648    797.84446  0.016588582  0.015777183            6 
 4009000   0.61711744   -7.8419834    799.18016  0.016612209  0.015772158            8 
 4010000   0.60909791   -7.8296451     797.9146  0.016581766  0.015767128            5 
 4011000   0.61894676   -7.8430336    798.24243  0.016584443  0.015762101            5 
 4012000   0.61143455   -7.8683509    797.32139  0.016561179  0.015757081            3 
 4013000   0.60713751   -7.8556092    797.36528  0.016557963  0.015752055            7 
 4014000   0.60584303   -7.8532157    798.72784  0.016582126  0.015747034            6 
 4015000   0.60839982    -7.844545    797.68367  0.016556324  0.015742007            4 
 4016000   0.61088111   -7.8542688    797.25502  0.016543306  0.015736993            8 
 4017000   0.62432161    -7.845535    797.93298  0.016553252  0.015731967            6 
 4018000   0.60902118   -7.8505775    795.85894  0.016506117  0.015726946            5 
 4019000   0.60919116   -7.8275773    796.74035  0.016520286  0.015721916            8 
 4020000   0.61239657   -7.8454268    798.25519  0.016547579  0.015716902            6 
 4021000   0.60579066   -7.8578327    798.37589  0.016545965  0.015711891            6 
 4022000   0.60758705   -7.8648843     799.1866  0.016558648  0.015706877            6 
 4023000   0.60885312   -7.8612549    797.55299  0.016520693  0.015701853           10 
 4024000   0.61487901   -7.8264012    798.24224  0.016530861  0.015696839            8 
 4025000   0.60168593   -7.8474202    797.84906  0.016518614  0.015691831            7 
 4026000   0.60366903   -7.8380817    797.06889  0.016498363  0.015686815            7 
 4027000    0.6103927   -7.8415338    796.78812  0.016488455  0.015681799            8 
 4028000   0.61655088   -7.8499182    796.13638  0.016470878  0.015676795           29 
 4029000    0.6123886   -7.8347836    796.86915  0.016481947  0.015671792           10 
 4030000   0.62613495   -7.8386267     796.8022  0.016476472  0.015666794            5 
 4031000   0.61301854   -7.8363473    796.83221  0.016473005  0.015661797            8 
 4032000   0.60665497   -7.8532258    796.63895  0.016464925  0.015656802            7 
 4033000   0.60068836   -7.8514722    796.70797  0.016462269  0.015651807           15 
 4034000   0.61465238   -7.8576228    798.97587  0.016505038  0.015646814           14 
 4035000   0.60834121   -7.8488002    796.90534  0.016458185  0.015641825            9 
 4036000   0.61719756   -7.8394012    797.77345  0.016472032  0.015636833            5 
 4037000   0.61246872   -7.8493926     798.2091  0.016476945  0.015631844            9 
 4038000   0.61576522   -7.8240288    797.57169   0.01645971  0.015626855            5 
 4039000   0.59744061   -7.8372128    795.06245  0.016403863  0.015621872            4 
 4040000    0.5897435   -7.8573588     796.6198  0.016431927  0.015616885            6 
 4041000   0.61825381   -7.8654702    796.91968  0.016434044  0.015611903            5 
 4042000   0.59935008   -7.8528165    796.70136  0.016425478  0.015606923            5 
 4043000   0.61024368    -7.825515    797.08703  0.016429364  0.015601939            5 
 4044000   0.59253883   -7.8570859    798.11624   0.01644651  0.015596953            6 
 4045000   0.62197218   -7.8443326    796.54901  0.016410157  0.015591972            9 
 4046000   0.61356271   -7.8510158     797.6729  0.016429249  0.015586998            7 
 4047000   0.60478005    -7.862323    796.23242  0.016395528  0.015582015            7 
 4048000      0.60639   -7.8526917    798.14557  0.016430862  0.015577041            8 
 4049000   0.59562035   -7.8713477    796.26343  0.016388068  0.015572065            8 
 4050000   0.61068011   -7.8449164    796.43659  0.016387584  0.015567095            7 
 4051000   0.60789707   -7.8457234    795.93736  0.016373269  0.015562117            6 
 4052000    0.6016861   -7.8582148    797.10493  0.016393241   0.01555715            7 
 4053000   0.60033123   -7.8575243    797.77809  0.016403037  0.015552188            5 
 4054000   0.59772944   -7.8769711    797.09365  0.016384921  0.015547216            5 
 4055000   0.59957963    -7.868502    795.73259   0.01635291   0.01554224            6 
 4056000   0.60462648   -7.8676898    797.30431   0.01638117  0.015537278            9 
 4057000   0.59857765   -7.8483649    797.41203  0.016379345  0.015532313           10 
 4058000   0.60836172   -7.8654234    797.45548  0.016376201  0.015527368            7 
 4059000   0.61021922   -7.8598221    797.08196  0.016364498  0.015522418            7 
 4060000   0.59305047   -7.8563661    796.25215  0.016343435  0.015517461           10 
 4061000   0.60364134   -7.8639261    795.72292   0.01632855  0.015512502           13 
 4062000   0.60098532   -7.8484468    796.93749  0.016349448  0.015507555            9 
 4063000   0.60422974   -7.8678794    798.17297  0.016370764  0.015502607            6 
 4064000   0.61003102   -7.8346436    797.04905   0.01634369  0.015497673           11 
 4065000   0.60435348    -7.866873    797.00297  0.016338724  0.015492742           16 
 4066000   0.61893684   -7.8743874    797.16621  0.016338052  0.015487799            7 
 4067000   0.59703214   -7.8627862    796.61089  0.016322656  0.015482857            5 
 4068000   0.60226414   -7.8703719     796.2921  0.016312113  0.015477917            9 
 4069000   0.60359635   -7.8583573    796.80127  0.016318532  0.015472977            7 
 4070000   0.59724795   -7.8531578    797.47814  0.016328381  0.015468029            7 
 4071000   0.59529673   -7.8851784    796.63965  0.016307207  0.015463083            7 
 4072000   0.60383874   -7.8700728    796.74154  0.016305287  0.015458144            6 
 4073000   0.59694462   -7.8797838    798.10484  0.016329177  0.015453206            4 
 4074000   0.59993087   -7.8761979    797.35686  0.016309869  0.015448266           10 
 4075000   0.60124151   -7.8813692    796.64068  0.016291221   0.01544334           12 
 4076000   0.60858622   -7.8720958    796.92768  0.016293091  0.015438407            5 
 4077000   0.60032762   -7.8763769     796.0298  0.016270742  0.015433466            7 
 4078000   0.60437173   -7.8628633    797.55171  0.016297852  0.015428534           18 
 4079000   0.60970409   -7.8544256    797.42843  0.016291338  0.015423613           10 
 4080000   0.60461122   -7.8597665    798.27715   0.01630468  0.015418687           14 
 4081000   0.60983074    -7.872774    797.31547  0.016281048  0.015413759           15 
 4082000   0.59795987   -7.8768559    798.19267  0.016294967  0.015408838            8 
 4083000   0.59371159    -7.863102     795.9356   0.01624491   0.01540391            6 
 4084000    0.5967398   -7.8744061    795.48583  0.016231755  0.015398986            8 
 4085000   0.60148315   -7.8688677    797.09055  0.016260517   0.01539406           11 
 4086000   0.58917661   -7.8769567    797.37574  0.016262354  0.015389145           15 
 4087000   0.61031083   -7.8540361    798.63032  0.016283956  0.015384234            8 
 4088000   0.59818183   -7.8664333    798.23327  0.016271878   0.01537932            5 
 4089000   0.59645846   -7.8894422    796.55614  0.016233719  0.015374406           12 
 4090000   0.60377697   -7.8520343    795.52329  0.016208706  0.015369487            7 
 4091000   0.60209591   -7.8727456    795.26414  0.016199465  0.015364573           14 
 4092000   0.59665445   -7.8939738    796.87222  0.016228255  0.015359662            7 
 4093000   0.59568751   -7.8725824    795.99999  0.016206531  0.015354758           10 
 4094000   0.60449474   -7.8689457    796.16415  0.016205914  0.015349846            7 
 4095000   0.58754777    -7.850459    798.05113  0.016240357  0.015344945            6 
 4096000   0.58021257   -7.8577776      796.067  0.016196025  0.015340057           14 
 4097000   0.58613408   -7.8552534    799.18562  0.016255504  0.015335176           10 
 4098000   0.58777355   -7.8787945    796.41032  0.016195102  0.015330284           16 
 4099000   0.59214177   -7.8600829    798.20741  0.016227686  0.015325392           10 
 4100000   0.60150444   -7.8595478    797.56342  0.016210639  0.015320504           10 
 4101000    0.5915413   -7.8698304    796.18913   0.01617876  0.015315614           28 
 4102000   0.59819452   -7.8763687     797.2824  0.016197026   0.01531073           16 
 4103000    0.5903529   -7.8926982     797.5083  0.016197666   0.01530584           10 
 4104000   0.60710832   -7.8908497    797.37593  0.016191032  0.015300955           10 
 4105000   0.59792448   -7.8745657    795.43897  0.016147766   0.01529607            7 
 4106000   0.58826972   -7.8676563    797.51523  0.016185972  0.015291189           12 
 4107000   0.58882387   -7.8694618    795.17573  0.016134562  0.015286307           15 
 4108000   0.59993427    -7.902215    798.10727  0.016190102  0.015281422           13 
 4109000   0.60032182    -7.873849    796.62211  0.016156042  0.015276541           11 
 4110000     0.592023   -7.8776077    797.37668   0.01616741  0.015271664           21 
 4111000   0.58749478   -7.8769117    797.75116  0.016171069  0.015266785            6 
 4112000   0.59375901   -7.8890356    797.53037  0.016162662  0.015261908           26 
 4113000   0.59332534   -7.9036712    797.11346  0.016150285  0.015257032            8 
 4114000   0.59475714   -7.8665457    797.88612   0.01616201  0.015252162           13 
 4115000   0.59360844   -7.8912753    797.13552  0.016142882  0.015247292           12 
 4116000   0.58672139   -7.8737118    797.94966  0.016155443  0.015242431            6 
 4117000   0.59422892   -7.8782536    798.00396  0.016152618  0.015237576            6 
 4118000   0.58978516   -7.8621805    796.86779  0.016125704  0.015232723            8 
 4119000   0.57659158   -7.8940207    796.68804  0.016118152   0.01522787            7 
 4120000   0.58586793   -7.8757521     796.4248  0.016108916  0.015223013            7 
 4121000   0.57966444   -7.8540576    797.90315  0.016134902   0.01521816            9 
 4122000   0.59202108    -7.871221    798.08217  0.016134606  0.015213305           10 
 4123000   0.59663774    -7.886435    796.99299  0.016108679  0.015208458           12 
 4124000    0.5844637   -7.8941988    796.48286  0.016094464   0.01520362           12 
 4125000   0.58567139   -7.8698261    797.88523  0.016118894  0.015198766            7 
 4126000   0.59312905   -7.8928425    797.46156   0.01610643  0.015193926           12 
 4127000   0.59816526   -7.8656994     796.1311  0.016075662  0.015189086            9 
 4128000   0.59269533   -7.8977755    796.67265    0.0160827  0.015184249            9 
 4129000   0.59204052    -7.873559    797.58957  0.016097311  0.015179417            5 
 4130000   0.58043908   -7.8587157     798.3106  0.016107962  0.015174588            7 
 4131000   0.58762059   -7.8812144    798.91063  0.016116167  0.015169764            5 
 4132000   0.58020916   -7.8726009    797.33926  0.016080576  0.015164934            5 
 4133000   0.59582761   -7.8765536    796.64562  0.016062699  0.015160105           14 
 4134000   0.59130848   -7.8803441     797.0074  0.016066106  0.015155279            4 
 4135000   0.58705907   -7.8812446    797.67226   0.01607562  0.015150444            5 
 4136000   0.58896548   -7.8971773    797.68976  0.016072086  0.015145607            5 
 4137000   0.59465317   -7.8961899    796.05761  0.016035324  0.015140775            4 
 4138000   0.59423238   -7.8935362    796.37977  0.016037936  0.015135937            9 
 4139000   0.58519056   -7.8821901    795.66557  0.016019682  0.015131106            3 
 4140000   0.59116064   -7.8932427    797.79507  0.016058677  0.015126276            8 
 4141000   0.59095664   -7.8816309    795.51954  0.016009006  0.015121439            8 
 4142000   0.58671742   -7.8919318    795.74041  0.016009585  0.015116609            9 
 4143000   0.58699228   -7.8994179    795.96004  0.016010138  0.015111783            4 
 4144000   0.58526889   -7.8683699    796.36997  0.016014518  0.015106956           11 
 4145000   0.59686845   -7.8761359    796.39658   0.01601119  0.015102137            7 
 4146000   0.58249281    -7.916097    796.78203  0.016015075  0.015097319            9 
 4147000   0.59538653    -7.894961    796.08679  0.015997243  0.015092503           10 
 4148000   0.59897987   -7.8888209    796.08338  0.015993318  0.015087685           12 
 4149000   0.59034293   -7.8951222    798.11693  0.016030307  0.015082867            8 
 4150000    0.5825254   -7.8935631    797.55223  0.016015105  0.015078044            9 
 4151000   0.58269807   -7.9068823    797.95385   0.01601931  0.015073221           10 
 4152000   0.57936592   -7.8929594    796.03668  0.015976973  0.015068406            9 
 4153000   0.57927463   -7.9099449    795.20748  0.015956487  0.015063589           11 
 4154000   0.58123617    -7.884131    796.27645   0.01597409  0.015058773           10 
 4155000   0.59401463   -7.8995219    796.58207  0.015976375  0.015053958            7 
 4156000   0.57976074   -7.9065586    798.39919  0.016008967  0.015049147           10 
 4157000   0.59195936   -7.9265686    795.18731  0.015940729  0.015044342            9 
 4158000   0.59241031   -7.9038684    796.31243  0.015959444  0.015039536            6 
 4159000   0.58966424   -7.9058444    796.03762  0.015950101  0.015034734            7 
 4160000   0.58654557   -7.9049301    796.82216  0.015961982  0.015029933            4 
 4161000    0.5820804   -7.8891716    795.73371  0.015936348  0.015025128           13 
 4162000   0.58105536   -7.8883698    797.12663  0.015960408  0.015020326            5 
 4163000   0.58668721    -7.896292    797.08603  0.015955762  0.015015534            5 
 4164000   0.58739149   -7.8959268    796.87479  0.015947702  0.015010737           11 
 4165000   0.58081266   -7.8767865    796.67408  0.015939858  0.015005945            8 
 4166000   0.57830514   -7.9172281    795.96787  0.015921905  0.015001148            7 
 4167000   0.60570145   -7.8863113    795.36497  0.015906027  0.014996346            8 
 4168000   0.58022702   -7.9157328    795.83965  0.015911701  0.014991552           10 
 4169000    0.5844331   -7.8936805    797.18929  0.015934862  0.014986752            8 
 4170000   0.58017533   -7.8993396    795.89185  0.015905113  0.014981959            5 
 4171000   0.58973151   -7.9130811    795.53568  0.015894184  0.014977157            9 
 4172000   0.58076828    -7.929021    797.92007  0.015938001  0.014972358            4 
 4173000   0.57649811   -7.8921422     795.0039  0.015875947  0.014967556           21 
 4174000   0.58247917   -7.8988244    795.67678  0.015885577  0.014962761           12 
 4175000   0.60156216   -7.9045367    795.43004  0.015876847  0.014957968            8 
 4176000    0.5689631     -7.91281    795.89631   0.01588235  0.014953176            7 
 4177000   0.58224885   -7.9092918     796.7989  0.015896555  0.014948387            8 
 4178000    0.5800704   -7.9062651    794.74533   0.01585179    0.0149436            7 
 4179000   0.58694068   -7.9285045    795.22623  0.015857586  0.014938812           11 
 4180000   0.59326127   -7.9107554    796.64642  0.015882106   0.01493403            7 
 4181000   0.58191896   -7.9214153     796.3516  0.015872431  0.014929252            6 
 4182000   0.58397167    -7.907863    795.04885  0.015842676  0.014924464            7 
 4183000   0.57828413   -7.9233364    795.57766  0.015849423  0.014919677            9 
 4184000   0.58054691   -7.9318607    795.44075  0.015842909  0.014914892            8 
 4185000   0.58193532   -7.9129443    795.67478  0.015843783  0.014910116            9 
 4186000   0.58906013   -7.9231629    795.96156  0.015845707  0.014905334            7 
 4187000   0.58379466   -7.9231871    795.88986  0.015840496  0.014900561            7 
 4188000   0.58039166   -7.9222481    797.52129  0.015869176  0.014895789            6 
 4189000   0.57274592   -7.9307467    795.70221    0.0158292  0.014891015           10 
 4190000   0.57991333   -7.9176956    796.11758  0.015833683  0.014886236            7 
 4191000    0.5747739    -7.907795    794.72622  0.015802239  0.014881464            7 
 4192000   0.58494528   -7.8937858     795.5633   0.01581511  0.014876698            9 
 4193000   0.56551863   -7.9094638    795.55144  0.015811103  0.014871929            9 
 4194000    0.5875361   -7.9116253    796.74667  0.015831082   0.01486716            9 
 4195000   0.57308329   -7.9210392    796.45936    0.0158216    0.0148624           10 
 4196000    0.5847942   -7.8997378    795.49854  0.015798748  0.014857634            5 
 4197000   0.57514515   -7.9128156    796.81939  0.015821209   0.01485287            5 
 4198000   0.57710847    -7.907523    796.09889  0.015803138  0.014848108            8 
 4199000   0.57498064   -7.9190737    796.24634  0.015802301  0.014843349            6 
 4200000   0.57262436   -7.9136985    795.25295  0.015778828  0.014838592            9 
 4201000   0.58066924   -7.9063678    797.00096  0.015809747  0.014833843            5 
 4202000   0.57589953   -7.8878906    795.90505   0.01578425    0.0148291            6 
 4203000   0.58272993   -7.9103943    794.73953  0.015757386  0.014824354            7 
 4204000   0.58988262   -7.9161933    795.86122  0.015775873  0.014819611           11 
 4205000   0.56947874   -7.9002119    796.70539   0.01578885  0.014814864            7 
 4206000   0.58753869   -7.9115566    794.92555  0.015749833   0.01481012            8 
 4207000   0.58149557   -7.9133957    794.76525  0.015742914  0.014805383            8 
 4208000   0.57401479   -7.9026552    795.14068  0.015746607  0.014800645            7 
 4209000   0.57646629   -7.9043139    796.18213  0.015763486  0.014795911            7 
 4210000      0.57105   -7.9171185    796.11578  0.015758428  0.014791183            7 
 4211000   0.57905616   -7.9436242    797.25617  0.015777253  0.014786456           11 
 4212000   0.57116593   -7.9157012    797.36586  0.015775678  0.014781724            6 
 4213000   0.58597294   -7.8936511    795.98486  0.015744617  0.014777003            9 
 4214000   0.57211807    -7.915148    795.77601  0.015736751  0.014772275            7 
 4215000   0.59049757   -7.9126288    795.29946  0.015723596  0.014767554           13 
 4216000    0.5820996   -7.9406428    796.66683  0.015746893  0.014762836           10 
 4217000    0.5801691    -7.914354    796.36167  0.015737129  0.014758129           15 
 4218000   0.57701936    -7.923332    797.46005  0.015755098  0.014753413            9 
 4219000   0.55967791    -7.919335    796.33893   0.01572922  0.014748702            6 
 4220000   0.57915291   -7.9241993    797.02004  0.015738942  0.014743992            5 
 4221000   0.58066448   -7.9035909    795.83464  0.015711811  0.014739285            5 
 4222000   0.56881372   -7.9040852    795.42476  0.015699999  0.014734584           18 
 4223000   0.58132874   -7.9228165    794.59766   0.01567996  0.014729879           11 
 4224000   0.59311099   -7.9254947    796.25657  0.015708976  0.014725175            7 
 4225000   0.56438499   -7.9154716    797.12097  0.015722307  0.014720468            9 
 4226000   0.57927038    -7.912501    796.67977  0.015709887  0.014715763           12 
 4227000   0.56435873   -7.9198413    795.41648  0.015681265  0.014711054           12 
 4228000   0.58294543   -7.9088135    796.09336  0.015690897  0.014706351           12 
 4229000   0.58196837   -7.9267704    794.81791  0.015662054  0.014701648            7 
 4230000   0.57804626   -7.9271759    796.16145   0.01568482  0.014696933            8 
 4231000   0.58988498   -7.9262078    794.23456  0.015643161  0.014692225            9 
 4232000   0.59268729   -7.9143406    795.28345  0.015660118  0.014687522           10 
 4233000   0.57892007   -7.9053515    796.66386  0.015683594  0.014682825            5 
 4234000   0.57589966   -7.9066953    795.19739  0.015651027  0.014678124            5 
 4235000   0.57050469   -7.9088567    795.00263  0.015643499  0.014673427            8 
 4236000   0.58154433   -7.9363422     794.5682   0.01563126  0.014668731           12 
 4237000   0.57393968   -7.9189199    795.60654  0.015647993  0.014664035            8 
 4238000   0.58585454   -7.9366996    796.69637   0.01566573  0.014659343           10 
 4239000   0.56487344   -7.9259554    796.91077  0.015666249  0.014654651            8 
 4240000   0.57493688   -7.9203037    796.18798  0.015648349  0.014649959            9 
 4241000   0.57240479   -7.9313682    795.43932  0.015629948  0.014645266            4 
 4242000   0.57616799   -7.9258651    796.52269  0.015647546  0.014640574            7 
 4243000   0.56563587   -7.9251133    795.88391  0.015631312  0.014635887           10 
 4244000   0.56366414   -7.9179098    795.15935  0.015613402    0.0146312           10 
 4245000   0.56429561    -7.933455      795.821  0.015622713  0.014626512           19 
 4246000   0.57100938   -7.9135548    794.31599  0.015589496  0.014621827            8 
 4247000   0.56979423   -7.9284384      796.271  0.015624186  0.014617144            8 
 4248000   0.56835443   -7.9209607    795.01557   0.01559588  0.014612467           10 
 4249000   0.56557749    -7.954943    796.24586  0.015616338  0.014607783           13 
 4250000   0.57513356   -7.9312103    795.11773  0.015590544  0.014603103           11 
 4251000   0.57103458   -7.9296887    795.17946  0.015588086  0.014598421            8 
 4252000   0.57392689     -7.93751    794.90913  0.015579122  0.014593744           12 
 4253000   0.57194868   -7.9412923    795.60868  0.015589166  0.014589063           10 
 4254000   0.57042571   -7.9334275    796.82474  0.015609323  0.014584382            9 
 4255000   0.56566897     -7.94805    795.19108   0.01557366  0.014579698           10 
 4256000   0.57487713   -7.9474634    795.21388  0.015570447  0.014575017            9 
 4257000   0.57714703   -7.9440534    793.63945  0.015535969  0.014570338           11 
 4258000    0.5703697    -7.946244    794.55974  0.015550331  0.014565661            6 
 4259000   0.57414993   -7.9352855    795.73852  0.015569745  0.014560984            7 
 4260000   0.57340993   -7.9514311    795.36862  0.015558854  0.014556313            8 
 4261000   0.56698434   -7.9339704    795.69001  0.015561488  0.014551646            7 
 4262000   0.58053444    -7.931706    795.27763  0.015549774  0.014546993           18 
 4263000   0.56132512   -7.9460224     795.3623  0.015547781  0.014542334            9 
 4264000    0.5726399   -7.9341502    795.53379  0.015547486  0.014537677            5 
 4265000   0.57029097   -7.9419292    794.58696  0.015525341  0.014533008            8 
 4266000   0.57888825    -7.952621    795.44187  0.015538402  0.014528353            7 
 4267000   0.55438392   -7.9536979    796.19823  0.015549532  0.014523697           15 
 4268000    0.5683039    -7.931816    795.23017  0.015526987  0.014519042            9 
 4269000   0.57311147   -7.9361133    795.67467  0.015532027  0.014514385           11 
 4270000   0.56902602   -7.9673406    795.27381  0.015520566  0.014509734            9 
 4271000   0.57612442   -7.9419857    795.26241   0.01551671  0.014505078            4 
 4272000   0.58187574   -7.9445674    795.15038  0.015510892  0.014500427           11 
 4273000   0.56029097   -7.9397403    793.99378  0.015484706  0.014495773            8 
 4274000   0.57353308   -7.9409271    795.23432  0.015505271  0.014491119           12 
 4275000   0.57469455   -7.9622572    795.20464  0.015501065   0.01448647            9 
 4276000   0.58365573   -7.9638029    792.97763  0.015454039  0.014481821           13 
 4277000   0.56456897    -7.965594    795.01582  0.015490138  0.014477173            9 
 4278000   0.55290413   -7.9543317    794.31394  0.015472844  0.014472524           10 
 4279000   0.55266062   -7.9456337    795.58941  0.015494068  0.014467883            8 
 4280000   0.57065901   -7.9279698    794.04662  0.015460409   0.01446325            8 
 4281000   0.58037985   -7.9425388    793.91633  0.015454262  0.014458617            7 
 4282000   0.57272842   -7.9418461    794.54041  0.015462798  0.014453978           10 
 4283000   0.56349652   -7.9519328    795.67163  0.015481198  0.014449339           12 
 4284000   0.56166049   -7.9503098    794.41606   0.01545316  0.014444708            7 
 4285000   0.57014762   -7.9635068     794.7401  0.015455856  0.014440068            7 
 4286000   0.55957495   -7.9545232    794.47411  0.015447078   0.01443543           11 
 4287000   0.56176911   -7.9622509    793.04014    0.0154156  0.014430794            6 
 4288000   0.56412583   -7.9712261     793.3969  0.015418939  0.014426155            6 
 4289000   0.56628056   -7.9422754    793.56717  0.015418652  0.014421525            8 
 4290000    0.5597774   -7.9699334    795.66495  0.015455807  0.014416894            8 
 4291000   0.55571496   -7.9573339    794.60782  0.015431675   0.01441227            7 
 4292000    0.5510502   -7.9593299    794.38337  0.015423722  0.014407637            6 
 4293000   0.56799086    -7.958405    795.48442  0.015441502  0.014403021            6 
 4294000    0.5613538   -7.9648246    795.53183  0.015438826  0.014398401            5 
 4295000   0.56139552    -7.962464    795.19777   0.01542875  0.014393783            7 
 4296000   0.56465849   -7.9702801     794.8756  0.015418909  0.014389162            8 
 4297000   0.56179193    -7.952788    795.25678  0.015422713  0.014384544           11 
 4298000   0.57331099    -7.948413    793.88595  0.015392546  0.014379926            7 
 4299000   0.56116364   -7.9595657     794.1861  0.015394784  0.014375307            8 
 4300000   0.55130673   -7.9455876    795.92504  0.015424904  0.014370689            7 
 4301000   0.56677535   -7.9581258    794.71682  0.015397908  0.014366075            7 
 4302000   0.56081148   -7.9506062    793.85234  0.015377583  0.014361464            7 
 4303000   0.56983534   -7.9390881    794.36528  0.015383943   0.01435686            7 
 4304000   0.55980093   -7.9556837    793.81564  0.015369727  0.014352247           13 
 4305000   0.56163849   -7.9618307    794.66515  0.015382601  0.014347633            7 
 4306000     0.567462   -7.9629297    794.50403   0.01537591  0.014343023            5 
 4307000   0.56215433   -7.9602645    795.30236  0.015387786  0.014338415            8 
 4308000   0.56505911   -7.9611615     794.4559  0.015367841   0.01433381            6 
 4309000   0.56595385   -7.9348912    794.87557  0.015372391  0.014329212            9 
 4310000     0.558878   -7.9388272    793.09311   0.01533436  0.014324615            8 
 4311000   0.56598072   -7.9664358    795.39527  0.015375305  0.014320017            9 
 4312000   0.54574647   -7.9492249    795.39471  0.015371728  0.014315421            9 
 4313000    0.5706211   -7.9470532    795.13024  0.015363054  0.014310828           13 
 4314000   0.55918378    -7.947908    793.47343  0.015327489  0.014306236            7 
 4315000   0.56729721   -7.9470702    794.31637  0.015340216  0.014301647            9 
 4316000   0.56613473   -7.9546946    795.28213  0.015355308   0.01429706            8 
 4317000   0.55584631   -7.9475201    795.83735  0.015362469  0.014292479           10 
 4318000   0.56001831    -7.951388    794.65074  0.015336011  0.014287898           12 
 4319000   0.55601553   -7.9384341     793.9997  0.015319899  0.014283321            6 
 4320000   0.55198455   -7.9532924    793.03396  0.015297723  0.014278739            9 
 4321000   0.54489012     -7.95056    795.25546  0.015337026  0.014274159           14 
 4322000   0.56055542   -7.9555379    795.41495  0.015336552  0.014269588            8 
 4323000   0.55695714   -7.9515016    794.77419  0.015320653  0.014265019            7 
 4324000   0.55634473   -7.9626791    794.94879  0.015320475  0.014260452           10 
 4325000   0.56570192   -7.9572929    794.13275  0.015301209   0.01425588           10 
 4326000   0.55820838   -7.9454372    793.40368  0.015283628  0.014251313            6 
 4327000   0.55722696   -7.9378954    793.93777  0.015290382  0.014246744            6 
 4328000   0.55480341   -7.9486314     794.3651  0.015295077   0.01424218            9 
 4329000   0.55696603   -7.9520968    793.72635  0.015279247  0.014237616            5 
 4330000   0.55980298   -7.9667829    794.67175  0.015293914  0.014233056           15 
 4331000   0.55419291   -7.9355132    794.16414  0.015280615  0.014228493            8 
 4332000   0.55427464    -7.942261    795.82894  0.015309113  0.014223945            8 
 4333000   0.56139422   -7.9555746    794.85474  0.015286844  0.014219391            9 
 4334000   0.55849088   -7.9526495     793.0347  0.015248321   0.01421484           10 
 4335000   0.55427126   -7.9492077    793.81267  0.015259759  0.014210289           10 
 4336000   0.56202021   -7.9558707    794.24878  0.015264621  0.014205742            7 
 4337000   0.56589107   -7.9401332    794.55302  0.015266948  0.014201192            7 
 4338000   0.54128891   -7.9501468    794.43986  0.015261254  0.014196646           10 
 4339000   0.56020963   -7.9542391    794.76384  0.015263959  0.014192103            7 
 4340000    0.5573196   -7.9642664    793.75447  0.015241061   0.01418756            6 
 4341000   0.55892062   -7.9502549    793.56423  0.015233898  0.014183021           12 
 4342000   0.56129002   -7.9488652    794.84837  0.015255035  0.014178487            7 
 4343000    0.5569672    -7.951042    794.75299  0.015249693  0.014173955            7 
 4344000   0.56524554   -7.9440965    796.60327  0.015281677  0.014169422            9 
 4345000   0.55414801   -7.9299093    796.15228  0.015269511  0.014164895            8 
 4346000   0.56112952   -7.9474819    793.22498  0.015209867  0.014160365            8 
 4347000   0.57192214   -7.9479222    794.81847  0.015236916  0.014155833            6 
 4348000   0.55871927   -7.9630077    794.12613  0.015220142  0.014151303            6 
 4349000   0.54635106   -7.9631147    794.45984  0.015223037  0.014146767           16 
 4350000   0.55202426   -7.9556943    795.21368  0.015233979  0.014142238            7 
 4351000   0.55510789   -7.9673108    793.50688  0.015197787  0.014137707            4 
 4352000   0.56492506   -7.9525359    795.67778  0.015235864  0.014133183            6 
 4353000   0.56848114   -7.9305358    794.77813  0.015215141  0.014128662            7 
 4354000   0.55521333   -7.9394087    795.25333  0.015220742  0.014124136            6 
 4355000   0.54798127   -7.9551888    795.15963  0.015215454  0.014119612           11 
 4356000    0.5500993   -7.9520346    793.54633  0.015181098  0.014115096            6 
 4357000     0.560002   -7.9636324    793.46349  0.015176029  0.014110574            7 
 4358000    0.5575658   -7.9565348    794.53209   0.01519298  0.014106051           13 
 4359000   0.55598026   -7.9555104     794.6737  0.015192202  0.014101531            9 
 4360000   0.55232906   -7.9556083    795.10985  0.015197054  0.014097016            5 
 4361000     0.547616   -7.9608684    794.43901   0.01518075  0.014092501            7 
 4362000   0.54779976   -7.9746721    794.99676  0.015187925   0.01408799            6 
 4363000   0.53808051   -7.9620544    793.13939  0.015148968  0.014083474            7 
 4364000   0.56530518   -7.9638778    793.45931  0.015151606  0.014078958           10 
 4365000   0.55214812    -7.972919    793.32344  0.015145541  0.014074445            6 
 4366000   0.55806858   -7.9649901     795.5068  0.015183746   0.01406993            8 
 4367000    0.5505945    -7.963653    794.89168  0.015168531  0.014065417            8 
 4368000   0.55762585   -7.9671723    792.81221  0.015125386  0.014060903           11 
 4369000   0.54303008   -7.9584533    793.74148  0.015139648  0.014056397           15 
 4370000   0.54015576    -7.972643    794.71564  0.015154761  0.014051888            9 
 4371000   0.55557952   -7.9532326    794.01007  0.015137842  0.014047385            9 
 4372000   0.54333159   -7.9564958    793.71539  0.015128762   0.01404288            7 
 4373000   0.53897778   -7.9644017    793.80541  0.015127018  0.014038377            8 
 4374000   0.55612673   -7.9704129    793.38589  0.015115567  0.014033876            4 
 4375000   0.54523717   -7.9761511    793.38205  0.015112039  0.014029374            8 
 4376000   0.55070166   -7.9728238    794.80424  0.015135669  0.014024877           13 
 4377000   0.55383387   -7.9656832    793.53137  0.015107977  0.014020384            7 
 4378000   0.54393977   -7.9654336    793.54519  0.015104789  0.014015885           12 
 4379000   0.52909678   -7.9584524    794.39228   0.01511746  0.014011387            6 
 4380000   0.56145567   -7.9523723     795.2842  0.015130978  0.014006895           15 
 4381000   0.55670024   -7.9795483    794.44414  0.015111545  0.014002398            5 
 4382000   0.56039849   -7.9643724    795.35717   0.01512546  0.013997905           11 
 4383000   0.54773463   -7.9653446    793.83324  0.015093035  0.013993415            9 
 4384000   0.56638551    -7.974026    794.26756  0.015097847  0.013988923            7 
 4385000   0.55320852   -7.9791007     794.0428  0.015090133  0.013984434            9 
 4386000   0.55565773    -7.948661    793.16735  0.015070059  0.013979944            6 
 4387000   0.55885802   -7.9614127    792.87696  0.015061108  0.013975455            7 
 4388000   0.55540004   -7.9565277    794.42514  0.015087077  0.013970969            7 
 4389000   0.55930142   -7.9770721    792.51121    0.0150473  0.013966481            8 
 4390000   0.55066501     -8.00025    791.60856  0.015026738  0.013961992           10 
 4391000    0.5476418   -7.9597289    793.77884  0.015064504  0.013957503            9 
 4392000   0.54140568   -7.9736129     794.2921  0.015070812  0.013953016           12 
 4393000   0.54717519   -7.9607671    792.36466  0.015030819  0.013948538           11 
 4394000   0.54800021   -7.9644186    793.01135  0.015039663  0.013944052           12 
 4395000   0.54113578   -7.9799713    792.35794  0.015023852  0.013939574            9 
 4396000   0.53364089   -7.9722367    793.89276  0.015049529  0.013935096            8 
 4397000    0.5300037   -7.9668055    792.20161  0.015014055  0.013930617            8 
 4398000    0.5465658    -7.969501    793.10742  0.015027805  0.013926141            7 
 4399000   0.53945424   -7.9617461    793.76586  0.015036862  0.013921669           10 
 4400000    0.5513521   -7.9654235    793.13428  0.015021483  0.013917199            7 
 4401000   0.55236716   -7.9658264    793.71041  0.015028978  0.013912734            8 
 4402000    0.5453602   -7.9852879    793.25544  0.015016951  0.013908262            9 
 4403000   0.54582968   -7.9730638    794.61165  0.015039209  0.013903798            6 
 4404000   0.54090966   -7.9700051    792.89701  0.015003349  0.013899333            7 
 4405000   0.55158587   -7.9739491    791.91131  0.014981296  0.013894872            4 
 4406000   0.55087234   -7.9818618    793.25713   0.01500335  0.013890407            7 
 4407000   0.54358425   -7.9745877    794.75113  0.015028196  0.013885947            6 
 4408000   0.56210227   -7.9736648    793.50746  0.015001275  0.013881489            9 
 4409000   0.54397894   -7.9638226    792.65603   0.01498178  0.013877031            9 
 4410000    0.5392986    -7.979381    792.59662   0.01497726  0.013872577            8 
 4411000    0.5439808   -7.9750305    793.60784  0.014992969  0.013868121            7 
 4412000   0.54394432    -7.972129     793.4865  0.014987279  0.013863666            9 
 4413000    0.5418102   -7.9644311     793.5982  0.014985992  0.013859214            5 
 4414000    0.5418212   -7.9861549    792.11766  0.014954645  0.013854763            8 
 4415000   0.52844466   -7.9776483     793.2906  0.014973397  0.013850315           11 
 4416000   0.53856943   -7.9668944    792.30883   0.01495148  0.013845864            8 
 4417000   0.54755161   -7.9855102    794.38321  0.014987231  0.013841419           11 
 4418000    0.5481659   -7.9874868    793.18952  0.014961323  0.013836979            5 
 4419000   0.54063075   -7.9610226    792.81599  0.014950894  0.013832539            6 
 4420000   0.54530904   -7.9622884      792.971  0.014950434  0.013828098            7 
 4421000   0.56302306   -7.9761372    792.74416  0.014942776  0.013823658            8 
 4422000   0.55272776   -7.9854987    793.78817  0.014959072   0.01381922            5 
 4423000   0.54673858   -7.9793039    793.51499  0.014950542  0.013814781            8 
 4424000   0.53357699   -7.9813403    794.30047  0.014961959  0.013810343            8 
 4425000   0.53875161   -7.9826618    794.35997  0.014959698  0.013805916            8 
 4426000   0.54625112   -7.9855612     792.9711  0.014930168  0.013801494           10 
 4427000    0.5375766    -7.970074    793.56789   0.01493803  0.013797074            7 
 4428000   0.53819532   -7.9810022    793.16621  0.014927097  0.013792646           13 
 4429000   0.54289999    -7.982448    792.93812  0.014919435  0.013788224            8 
 4430000   0.53282359   -7.9700848    792.66204  0.014910874  0.013783804           13 
 4431000   0.55199976   -7.9997174    792.23638  0.014899503  0.013779384            7 
 4432000   0.54838724   -7.9769007     792.8624  0.014907912  0.013774961            4 
 4433000   0.53640811   -7.9764226    793.96135  0.014925208  0.013770544           11 
 4434000   0.54698797   -7.9734657    792.01884  0.014885334  0.013766121           18 
 4435000   0.53500024   -7.9975129    791.83313  0.014878488  0.013761701           12 
 4436000   0.54611365   -7.9914297    791.67502  0.014872164  0.013757284            8 
 4437000   0.54003138   -7.9877196    792.40311  0.014882487   0.01375287            5 
 4438000   0.53769186   -7.9770014    793.65776  0.014902692  0.013748454            7 
 4439000   0.54230809   -7.9904747    792.42016  0.014876101   0.01374404           10 
 4440000   0.53466306   -7.9941956    793.12213  0.014885926  0.013739629            5 
 4441000   0.53031214   -7.9963379      791.253  0.014847501  0.013735219           18 
 4442000   0.52466258   -7.9894025    793.33844  0.014883281  0.013730807            8 
 4443000   0.54824891   -7.9773849    793.34744    0.0148801  0.013726401           10 
 4444000   0.54036418   -7.9842386    792.63572  0.014863406  0.013721998           12 
 4445000   0.54284871   -7.9750445    792.35596  0.014854817  0.013717588            6 
 4446000   0.53366705   -7.9869696    791.46651  0.014834805  0.013713181            9 
 4447000    0.5344803   -7.9991856    794.32599  0.014885053  0.013708783           10 
 4448000   0.53604567   -7.9751888    791.64251  0.014831432   0.01370438            5 
 4449000   0.53099321   -7.9726558    793.20523  0.014857369  0.013699984            9 
 4450000   0.53353306   -7.9739547    794.37248  0.014875889  0.013695589            6 
 4451000   0.54125004   -8.0024056    793.53654  0.014856896  0.013691194            7 
 4452000   0.53420505   -7.9925614     791.9508  0.014823877  0.013686796           10 
 4453000   0.53255897     -7.98823    792.44745  0.014829842  0.013682405            6 
 4454000    0.5333692   -8.0000325    792.72327  0.014831673  0.013678013           10 
 4455000   0.53229055   -7.9779073    794.07647  0.014853656  0.013673624            8 
 4456000   0.54207672   -7.9817189    792.49711  0.014820787  0.013669235            6 
 4457000   0.54330394   -8.0087411    792.60534  0.014819485  0.013664849            9 
 4458000    0.5415182   -7.9945492    791.44654  0.014794499  0.013660463           10 
 4459000   0.53520187   -7.9843766    791.38775  0.014790083  0.013656078            9 
 4460000   0.53921375   -7.9946227    792.00816  0.014798359  0.013651699            7 
 4461000   0.54500692   -7.9941576    791.78423  0.014790858  0.013647316           10 
 4462000   0.52698246    -7.990863    793.12162  0.014812521  0.013642938           10 
 4463000   0.53950768   -7.9962094    792.82879  0.014803734  0.013638558           12 
 4464000   0.53963925   -7.9723986    793.45873  0.014812178  0.013634186           11 
 4465000   0.53833338   -7.9907925    792.70318  0.014794759  0.013629817            9 
 4466000    0.5435392   -8.0046335     791.6851  0.014772449  0.013625443           11 
 4467000   0.52364236    -7.977657    791.71958  0.014769785  0.013621065            6 
 4468000   0.53335988   -7.9914164    790.42626  0.014742358  0.013616688            6 
 4469000   0.52805856   -7.9905041     792.1863  0.014771878  0.013612316            8 
 4470000   0.54782532   -7.9926114    793.81227  0.014798887  0.013607951            9 
 4471000   0.50852851   -7.9968916    792.57451  0.014772506  0.013603583            8 
 4472000   0.54186839    -8.002646    792.43746  0.014766649  0.013599215            6 
 4473000   0.53743138   -8.0057442    793.49046  0.014782965  0.013594855           11 
 4474000    0.5391421    -8.004114    793.18762  0.014774021  0.013590494            8 
 4475000   0.54406009   -7.9955539    792.61394  0.014760036  0.013586138            7 
 4476000   0.53056871   -8.0241861     794.2861  0.014787871  0.013581784            8 
 4477000   0.55076496   -8.0041708    792.67514  0.014754582  0.013577431           12 
 4478000   0.53718658   -7.9976075    793.23738   0.01476175  0.013573076           16 
 4479000   0.54136996   -7.9987657    792.92458  0.014752634  0.013568728           12 
 4480000   0.52465896   -8.0089751    791.77621   0.01472798   0.01356438            6 
 4481000   0.54020506   -8.0073174    792.77568   0.01474328  0.013560028            8 
 4482000   0.52774484   -8.0079258    792.31137  0.014731358  0.013555681           10 
 4483000   0.53254055   -7.9899009    793.20879  0.014744754  0.013551338           10 
 4484000   0.53963157   -7.9909456    792.76875  0.014733288  0.013546993            7 
 4485000   0.52913518   -7.9956444    793.32559  0.014740349   0.01354265           10 
 4486000   0.52520858   -8.0006655    792.40319  0.014719929  0.013538309           12 
 4487000   0.53529014   -8.0049491    792.49994  0.014718445  0.013533966            9 
 4488000   0.52108433   -8.0035222    792.53891  0.014715889  0.013529627           11 
 4489000   0.53822076   -8.0003632    791.46002  0.014692582  0.013525292           14 
 4490000   0.53820636   -8.0060812    791.48002  0.014689681  0.013520958            9 
 4491000    0.5322841    -8.001239    792.12163  0.014698316  0.013516625            7 
 4492000   0.53479934   -8.0074746    792.55626  0.014703107   0.01351229           19 
 4493000   0.52636174   -7.9911557    791.43335  0.014679007  0.013507962           16 
 4494000   0.52288305   -7.9954345    792.14618  0.014688959  0.013503627           17 
 4495000   0.54122385   -8.0043071    790.86308  0.014661904  0.013499295           13 
 4496000   0.53267942   -8.0211858    792.90338  0.014696459  0.013494966           11 
 4497000   0.52032779   -7.9863615    791.68949  0.014670697  0.013490639           10 
 4498000   0.53788012   -7.9950897    791.65626   0.01466682  0.013486324            9 
 4499000    0.5321866   -7.9976937    791.82544  0.014666693  0.013482003           12 
 4500000    0.5294732   -7.9906578    792.33214  0.014672817  0.013477683           12 
 4501000   0.54387244   -7.9984529    791.63587  0.014656666  0.013473358            9 
 4502000   0.52755259   -8.0004364    791.60247  0.014652793  0.013469037           11 
 4503000   0.53854919   -8.0190596    792.46334   0.01466547  0.013464717           12 
 4504000   0.54290858   -8.0075472    792.36681  0.014660428  0.013460405            8 
 4505000   0.53666409   -8.0164632    792.82915  0.014665726  0.013456093            8 
 4506000   0.52427153   -8.0052606     793.0349  0.014666277  0.013451788           14 
 4507000   0.52425053   -8.0066131    792.31597  0.014649729   0.01344748            9 
 4508000   0.52013355   -8.0110699    792.10291  0.014642541  0.013443171           11 
 4509000   0.52907739   -8.0105743     792.5307    0.0146472  0.013438864           11 
 4510000    0.5367703   -8.0062396    792.16894  0.014637268  0.013434562            9 
 4511000   0.54192753   -8.0235263    791.56295  0.014622829  0.013430261            9 
 4512000   0.52957023   -7.9839408    792.14846  0.014630402  0.013425964            6 
 4513000   0.52503604   -7.9923665    791.65154  0.014617984  0.013421661            8 
 4514000   0.52521804   -8.0042342    792.39625  0.014628494  0.013417363            8 
 4515000    0.5237334   -7.9823106    792.06491  0.014619138  0.013413063           15 
 4516000   0.51821731   -7.9944643    791.23545  0.014600595  0.013408768            8 
 4517000   0.53428405   -8.0087177    792.07243  0.014612804  0.013404477           12 
 4518000   0.53005497   -8.0153856    792.22461  0.014612377  0.013400183            9 
 4519000   0.51595807    -8.023416    793.89127  0.014639877  0.013395889           10 
 4520000   0.52837676   -8.0130471    793.16213  0.014623196  0.013391596            6 
 4521000   0.52454464   -7.9904461     792.0967  0.014600323  0.013387306           13 
 4522000   0.52325314   -8.0247782    792.74965  0.014609127   0.01338302            6 
 4523000   0.52365693   -8.0033154    792.78075   0.01460647  0.013378738            6 
 4524000   0.51926852   -8.0196232    793.38334  0.014614341  0.013374455            7 
 4525000   0.53772249   -8.0069141    792.96276  0.014603366  0.013370174            7 
 4526000   0.53820874   -8.0316114    791.07049  0.014565298  0.013365894            8 
 4527000   0.53555073   -8.0129088    792.93239  0.014596355   0.01336161            7 
 4528000   0.51901414    -8.000968    792.51953  0.014585533  0.013357328            7 
 4529000    0.5169162   -8.0070522    791.08269  0.014555875   0.01335305            8 
 4530000   0.52810051   -8.0282237    791.35604   0.01455769  0.013348776            7 
 4531000   0.52613308   -8.0154943    791.18237  0.014551283  0.013344501           12 
 4532000   0.52576497   -8.0075415    791.34588  0.014551079  0.013340228            6 
 4533000   0.52815305   -8.0001242    792.66272  0.014572077   0.01333596            6 
 4534000   0.52604993   -8.0259779    791.12875   0.01454067  0.013331691            9 
 4535000   0.53137067   -8.0272554    791.68903  0.014547759  0.013327421           10 
 4536000   0.52473318   -8.0053586    792.32892  0.014556307  0.013323153           12 
 4537000   0.51970678   -8.0163246    792.82673  0.014562242  0.013318885            9 
 4538000   0.53190742   -8.0066968    792.58957  0.014554678  0.013314619           10 
 4539000   0.53406747   -8.0033373    792.26469  0.014545507  0.013310354            6 
 4540000   0.52612027   -8.0186188    793.15135  0.014558578  0.013306093            8 
 4541000   0.51781286   -8.0030042    791.49936  0.014525056  0.013301832            7 
 4542000   0.52547042   -8.0148251    792.05058  0.014531972  0.013297574           12 
 4543000   0.51413691   -8.0189309    792.35945  0.014534439  0.013293314            9 
 4544000    0.5348129   -8.0281678    792.73765  0.014538176  0.013289058           11 
 4545000     0.518382   -8.0215027    790.48198  0.014493619  0.013284801            7 
 4546000    0.5117804   -8.0233284    791.35508  0.014506436  0.013280544            5 
 4547000   0.52402109   -8.0166365    791.53409  0.014506526   0.01327629            9 
 4548000   0.52130276    -8.010913    791.06166   0.01449468  0.013272036            5 
 4549000   0.52289252   -8.0215253    790.06364  0.014473211  0.013267785            5 
 4550000   0.53110441   -8.0125701     792.4686  0.014514077  0.013263537            8 
 4551000   0.51108959   -8.0211582    793.60074  0.014531618  0.013259286           11 
 4552000   0.52308027   -8.0067536    791.33573   0.01448696  0.013255038            6 
 4553000   0.51550707   -8.0414869    791.98354  0.014495635  0.013250794            5 
 4554000   0.52243838   -7.9980139     792.1986  0.014496388  0.013246552            6 
 4555000   0.51130928   -8.0203069    792.16277   0.01449255   0.01324231            5 
 4556000   0.52359328    -8.017657    791.10312  0.014469987  0.013238066            6 
 4557000   0.52529736   -8.0145216    791.23054  0.014469142   0.01323383            6 
 4558000   0.51635511   -8.0195074    791.34571  0.014468073  0.013229597            7 
 4559000   0.53671477    -8.017914    792.80961  0.014491658  0.013225361            7 
 4560000   0.51768696   -8.0239496    793.48856  0.014500887   0.01322113            7 
 4561000   0.52454688   -8.0194104    791.16099  0.014455181  0.013216901            6 
 4562000   0.51593011   -8.0115196    793.38902  0.014492712  0.013212669           10 
 4563000   0.51636732   -8.0115729    791.00671  0.014446028  0.013208443           12 
 4564000    0.5103625   -8.0362453      791.747   0.01445638  0.013204216           11 
 4565000   0.52211906   -8.0064798     791.2322  0.014443815   0.01319999            7 
 4566000   0.52991328   -8.0211004    791.14602  0.014439079  0.013195768            5 
 4567000   0.52341333   -8.0168837    791.44824  0.014441432  0.013191545            6 
 4568000   0.52902053   -8.0151746    790.91267    0.0144285  0.013187325            5 
 4569000   0.51601602   -8.0265984    791.05982  0.014428026  0.013183109            7 
 4570000   0.51517527   -8.0196194    792.34004  0.014448214  0.013178895           11 
 4571000   0.52002962   -8.0267376    791.72578  0.014433854  0.013174684            7 
 4572000    0.5089368   -8.0206705    790.75816  0.014413061  0.013170469           12 
 4573000    0.5259485   -8.0181228    790.80747  0.014410808  0.013166261           10 
 4574000   0.52336771   -8.0294988    791.89552   0.01442748  0.013162054           10 
 4575000   0.52631891   -8.0135955    792.83506   0.01444144  0.013157844           15 
 4576000    0.5169895   -8.0249204    791.01997   0.01440523  0.013153635            8 
 4577000   0.51270781   -8.0168942    790.16219  0.014386465  0.013149433            8 
 4578000   0.52812528   -8.0228866    791.60508  0.014409587  0.013145234            6 
 4579000   0.52159697   -8.0214352    790.53227  0.014386916  0.013141029            7 
 4580000   0.51881407   -8.0173458    792.41832  0.014418092  0.013136832            8 
 4581000   0.52257764   -8.0340998    791.61689  0.014400366  0.013132641            8 
 4582000   0.51458464   -8.0321871      791.512  0.014395315  0.013128449            9 
 4583000     0.529127   -8.0136861    792.29499  0.014406411  0.013124256           10 
 4584000   0.51384358   -8.0224927    791.62734  0.014391131  0.013120064           14 
 4585000   0.51018259   -8.0339348    792.77789  0.014408904  0.013115874           17 
 4586000   0.51978591   -8.0339207    792.50691  0.014400838  0.013111687           12 
 4587000    0.5072546   -8.0259578    791.88635  0.014386424    0.0131075           16 
 4588000   0.52410952   -8.0219372     790.8508   0.01436448  0.013103308            9 
 4589000   0.51909604   -8.0315664    790.88106  0.014361899   0.01309912           17 
 4590000   0.52186888   -8.0356762    791.85355  0.014376426  0.013094932           18 
 4591000   0.52095332   -8.0270124    790.38867  0.014346705  0.013090746           13 
 4592000   0.52528339   -8.0313027    790.96685  0.014354073   0.01308656            8 
 4593000   0.52355931   -8.0266587    791.71998  0.014364612  0.013082379            6 
 4594000   0.51255102    -8.042535    790.07991  0.014331735  0.013078201           10 
 4595000   0.50675906   -8.0242905    790.70358  0.014339927  0.013074022           11 
 4596000   0.50879035   -8.0516828    792.01828  0.014360645  0.013069846           13 
 4597000   0.51621583   -8.0415581    791.80502  0.014353655  0.013065667           15 
 4598000   0.51054061   -8.0332056    791.14007  0.014338482  0.013061494            8 
 4599000   0.52628469   -8.0192295    791.98314   0.01435064  0.013057326            9 
 4600000   0.51930913    -8.028164    792.27989  0.014352897  0.013053158            9 
 4601000   0.52250056   -8.0347084    791.59607  0.014337392   0.01304899            7 
 4602000    0.5147009   -8.0289445    791.47939  0.014332163  0.013044819           10 
 4603000   0.51254414    -8.048767    791.40351  0.014327676  0.013040654           11 
 4604000   0.51931826   -8.0262447    791.72838  0.014330444  0.013036492           15 
 4605000   0.50131345   -8.0335944    791.57478  0.014324553  0.013032329           14 
 4606000   0.50722501   -8.0417203    791.87236  0.014326827  0.013028166           12 
 4607000    0.5023073   -8.0373442    791.29613  0.014313294  0.013024012           11 
 4608000   0.51301581   -8.0505908    791.77009  0.014318759  0.013019856            7 
 4609000   0.50809993   -8.0332577    791.43041  0.014309511  0.013015702           12 
 4610000   0.53005885   -8.0415686    792.58608  0.014327297  0.013011547           11 
 4611000   0.52663568    -8.021202    790.48459   0.01428621  0.013007397           10 
 4612000   0.52176171   -8.0505587    791.53655   0.01430212  0.013003246            8 
 4613000   0.51985503   -8.0284725    791.49675  0.014298301    0.0129991            5 
 4614000   0.50565363   -8.0363525    791.81585  0.014300965  0.012994952           10 
 4615000   0.51612996   -8.0363331    789.39475  0.014254149  0.012990805           14 
 4616000   0.50956114   -8.0367904     791.3992  0.014287247  0.012986661           12 
 4617000   0.52033308   -8.0385895    791.62201  0.014288174  0.012982522            6 
 4618000   0.51926233   -8.0361201    791.03885  0.014274557  0.012978381            9 
 4619000   0.51981578   -8.0380685    792.45858  0.014297081  0.012974241           13 
 4620000   0.51087722   -8.0364445    790.73937  0.014262976  0.012970107            8 
 4621000   0.51779947   -8.0387164    790.72077  0.014259554  0.012965972            9 
 4622000   0.50881825   -8.0478553    790.80907  0.014258061  0.012961838           11 
 4623000   0.51219465   -8.0372602     791.7973   0.01427279  0.012957708            7 
 4624000   0.51277039   -8.0141549    790.89398  0.014253424  0.012953573           13 
 4625000    0.4992064   -8.0358842    790.59509  0.014244957   0.01294944           11 
 4626000   0.51170499   -8.0483763    791.41227  0.014256598   0.01294531            6 
 4627000   0.51582047   -8.0375276    791.22232  0.014250096  0.012941179           13 
 4628000   0.51298583   -8.0341523    791.72727  0.014256109  0.012937056            9 
 4629000   0.51500565     -8.03916    790.57096  0.014232213  0.012932927           12 
 4630000   0.50482394   -8.0453339    791.13726  0.014239331  0.012928803            8 
 4631000   0.51931714     -8.04022    791.43225  0.014241565   0.01292468           11 
 4632000    0.5077454   -8.0295053    790.73402  0.014225929  0.012920555            8 
 4633000   0.51301717   -8.0397715    789.99437  0.014209554  0.012916434            6 
 4634000   0.52087071   -8.0370599    790.17551  0.014209745  0.012912317            8 
 4635000   0.50904065   -8.0440688    791.21621   0.01422539  0.012908198            9 
 4636000   0.51975484    -8.028955    790.09185  0.014202111  0.012904083            7 
 4637000   0.50299174   -8.0429667    790.44242  0.014205349  0.012899971           14 
 4638000   0.50484759   -8.0317097    791.48227  0.014220969  0.012895857           10 
 4639000   0.50158141   -8.0361338    790.00978  0.014191453  0.012891748           13 
 4640000   0.51448365   -8.0531772    790.27786  0.014193209  0.012887637           10 
 4641000   0.50975537   -8.0415233    791.06316  0.014204251  0.012883531            9 
 4642000    0.5157361   -8.0446738    790.66321  0.014194011  0.012879431           11 
 4643000   0.50863901   -8.0282387     791.4447  0.014204981  0.012875329            8 
 4644000   0.51804649   -8.0368216    791.12568  0.014196197  0.012871227           13 
 4645000   0.52144805    -8.047083    790.81897  0.014187639  0.012867126           10 
 4646000   0.50299284   -8.0346401    791.44139  0.014195749   0.01286302            8 
 4647000   0.49762301   -8.0304286    790.92463  0.014183427  0.012858919            7 
 4648000   0.50625735      -8.0477    790.10734  0.014165722  0.012854819            9 
 4649000   0.50013534   -8.0370557    791.09553  0.014180389  0.012850724            7 
 4650000   0.49439464   -8.0656639    790.30208   0.01416312  0.012846627           13 
 4651000   0.50057628   -8.0473277    791.10656  0.014174489  0.012842532           10 
 4652000   0.50668253   -8.0486043    791.78979  0.014183681  0.012838435           10 
 4653000    0.5171245     -8.03935    790.97101  0.014165968  0.012834343           11 
 4654000   0.50762437    -8.040635     792.0252  0.014181801  0.012830253            9 
 4655000   0.49810089   -8.0428147    791.09925  0.014162178  0.012826163            7 
 4656000   0.50681013    -8.043332    790.15572  0.014142249  0.012822072            7 
 4657000    0.5002387   -8.0559587    789.81951  0.014133196  0.012817985           11 
 4658000   0.50121266   -8.0435979    789.02948  0.014116028  0.012813894           13 
 4659000   0.51547786   -8.0441246    790.77933  0.014144297  0.012809812            8 
 4660000   0.50864412   -8.0410634    789.71452   0.01412222  0.012805729            9 
 4661000   0.50950279   -8.0596874     791.2698  0.014146996  0.012801648            8 
 4662000   0.48924857   -8.0565809    791.18572  0.014142459  0.012797563           11 
 4663000   0.52109274   -8.0422023     790.7268  0.014131224  0.012793483           14 
 4664000   0.50260106   -8.0409205    790.01301  0.014115441  0.012789404           16 
 4665000   0.50844701   -8.0457044    790.79722  0.014126424  0.012785324            6 
 4666000   0.49444971   -8.0473934    790.35904  0.014115571   0.01278125            6 
 4667000    0.5006463   -8.0519751    791.71041  0.014136676  0.012777176           12 
 4668000   0.49610256    -8.050579    790.36982  0.014109715  0.012773106           10 
 4669000   0.50686186   -8.0559151    791.55179  0.014127789  0.012769041            7 
 4670000   0.50097123   -8.0461413    790.30448  0.014102507   0.01276498            9 
 4671000   0.49449147   -8.0479193    790.76857  0.014107767  0.012760922            9 
 4672000   0.51044405   -8.0495938    790.98805  0.014108662  0.012756859           14 
 4673000   0.49758977   -8.0729902    790.35837  0.014094414  0.012752798           11 
 4674000   0.51325576   -8.0540415     791.0008  0.014102853   0.01274874            9 
 4675000   0.50371798   -8.0515933    790.81003  0.014096435  0.012744679           21 
 4676000   0.50055282   -8.0488313    789.47927  0.014069705  0.012740617           13 
 4677000   0.49866715   -8.0556244    791.01127  0.014093993  0.012736564            8 
 4678000   0.51255583   -8.0517378    790.54209  0.014082622  0.012732507           10 
 4679000   0.50287153   -8.0507969    791.50131  0.014096696   0.01272845            8 
 4680000   0.50530045   -8.0466749    789.92791  0.014065668  0.012724397           10 
 4681000   0.49559329   -8.0474485    790.15514  0.014066708  0.012720347           13 
 4682000   0.51042959   -8.0513867     790.4849  0.014069573  0.012716298           12 
 4683000   0.49844176     -8.04552    789.32266  0.014045887  0.012712254           10 
 4684000   0.50286143   -8.0726541    791.13196  0.014075078  0.012708206           16 
 4685000   0.50074273   -8.0504015    790.51789  0.014061151  0.012704161            9 
 4686000   0.51108624   -8.0455024    790.75795  0.014062419  0.012700119           11 
 4687000   0.50038288   -8.0441379     790.5566  0.014055839  0.012696077            7 
 4688000   0.50902328   -8.0367611    789.52915  0.014034577  0.012692035           12 
 4689000   0.50815636   -8.0571462    791.27664   0.01406264  0.012687998            7 
 4690000   0.49093823   -8.0405487    789.42613  0.014026761  0.012683957            7 
 4691000   0.49322287   -8.0433044    790.25075   0.01403842  0.012679922           13 
 4692000   0.51344948   -8.0722096    790.94264  0.014047717  0.012675884            9 
 4693000   0.50012724   -8.0579384    789.78188  0.014024112   0.01267185           12 
 4694000   0.50090846   -8.0421053    790.69246   0.01403729  0.012667814            8 
 4695000   0.50371145   -8.0241587    789.44851  0.014012221  0.012663786           10 
 4696000   0.50593795   -8.0547973    789.14733  0.014003892   0.01265976           12 
 4697000   0.50112201   -8.0339477    789.84664  0.014013318  0.012655732            7 
 4698000   0.50840893   -8.0620948     790.2294  0.014017124  0.012651711            7 
 4699000   0.49937881   -8.0498659    790.65512  0.014021691  0.012647688           20 
 4700000   0.50263033   -8.0559724    789.66604  0.014001171  0.012643671            7 
 4701000   0.50347523   -8.0416004    790.25103  0.014008562  0.012639653            6 
 4702000    0.4985498   -8.0501694    789.74181  0.013996558  0.012635635            9 
 4703000   0.49395835   -8.0616435    790.09708  0.013999877  0.012631618            9 
 4704000   0.50548919   -8.0534073    789.68702  0.013989637  0.012627604            9 
 4705000   0.50465721   -8.0500337     789.6708  0.013986376  0.012623594           10 
 4706000   0.50535349   -8.0618964     790.2037  0.013992841  0.012619581            7 
 4707000   0.49240651   -8.0488668     790.5317  0.013995675  0.012615572           10 
 4708000   0.50164747   -8.0430136    789.01472  0.013965851  0.012611558            7 
 4709000   0.49188871   -8.0654264    789.76299  0.013976127  0.012607546            8 
 4710000   0.49452221   -8.0650887     790.8373  0.013992167  0.012603541           15 
 4711000   0.50014394   -8.0680575    790.36262  0.013980801  0.012599539           11 
 4712000   0.49843729   -8.0498463    790.32249  0.013977124  0.012595537           14 
 4713000    0.5025106   -8.0617856    789.52163  0.013959998  0.012591535           11 
 4714000   0.50265369   -8.0502766    789.54025  0.013957366  0.012587533            7 
 4715000    0.4897981   -8.0542028    789.40266  0.013951973  0.012583531           10 
 4716000   0.50127083   -8.0652324    790.51387  0.013968651   0.01257953            9 
 4717000   0.49268319   -8.0531385    789.45066  0.013946906   0.01257553            8 
 4718000   0.49846292   -8.0620451    790.46857  0.013961929  0.012571532           13 
 4719000   0.49295735   -8.0629618    789.49746  0.013941821  0.012567537            7 
 4720000   0.49930716   -8.0866789     791.4043  0.013972534  0.012563542           10 
 4721000   0.49138241   -8.0590018    789.71638  0.013939779  0.012559549            8 
 4722000   0.49604943   -8.0670599    790.63475  0.013953035  0.012555555            8 
 4723000   0.48869642   -8.0677603    790.08576  0.013940394  0.012551563           13 
 4724000   0.49040434   -8.0548283    790.46734  0.013944174  0.012547575            9 
 4725000   0.50252893   -8.0554623    789.01263  0.013915567  0.012543584            7 
 4726000   0.49964345   -8.0603223    790.52114  0.013939222  0.012539598            9 
 4727000     0.495333   -8.0399769    789.51354   0.01391851  0.012535617            8 
 4728000   0.49723752   -8.0739269    790.12488  0.013926341   0.01253163            6 
 4729000   0.48654023   -8.0509504    789.65398  0.013915098  0.012527649           10 
 4730000   0.49859806   -8.0600928    789.70818  0.013913111  0.012523671           18 
 4731000    0.4843747   -8.0373974    789.19123  0.013901064  0.012519695           13 
 4732000   0.49949253    -8.060424     788.9591  0.013894039  0.012515715           19 
 4733000   0.50027369   -8.0538063    789.15609  0.013894572  0.012511738            8 
 4734000   0.48613958   -8.0613466    789.33566  0.013894798  0.012507762           14 
 4735000   0.49539307    -8.058277    790.08906  0.013905122  0.012503789           13 
 4736000   0.49767125   -8.0718279    790.60883  0.013911332  0.012499815           10 
 4737000    0.4987911   -8.0580445    788.41805  0.013869855  0.012495846            9 
 4738000   0.49294634   -8.0741912    790.70918  0.013907225  0.012491876           12 
 4739000   0.49873637    -8.076458    789.09959  0.013875986  0.012487908            7 
 4740000   0.49814873   -8.0682323    789.05506  0.013872276  0.012483941           12 
 4741000   0.49275825   -8.0594693    789.85599  0.013883428  0.012479974           11 
 4742000   0.50177515   -8.0725325    789.68857  0.013877558  0.012476011           12 
 4743000   0.49212632   -8.0736407    789.87064  0.013877831  0.012472051           14 
 4744000   0.48764477   -8.0794664    791.42013  0.013902124  0.012468091           12 
 4745000   0.48814913   -8.0665692    790.63133  0.013885341  0.012464136           13 
 4746000   0.50059123   -8.0623686    789.33072  0.013859579   0.01246018           14 
 4747000   0.48560159   -8.0650916    790.06575  0.013869562   0.01245622            9 
 4748000   0.48778312   -8.0735311    787.66592  0.013824521  0.012452263           12 
 4749000   0.49879846   -8.0704469    789.07651  0.013846363  0.012448309           13 
 4750000   0.48544138    -8.071959    788.72269   0.01383724  0.012444359            9 
 4751000   0.49148609   -8.0564505     789.5151  0.013848227  0.012440409           12 
 4752000   0.49478264   -8.0774971    789.04098  0.013836998  0.012436459           10 
 4753000   0.48685691   -8.0666688    789.78649  0.013847158  0.012432512            9 
 4754000   0.48834336   -8.0790808    789.51039  0.013839405  0.012428563            9 
 4755000    0.4959195   -8.0611525    788.91781   0.01382611  0.012424617            9 
 4756000   0.48948407   -8.0702836    789.51447  0.013833657  0.012420676           14 
 4757000   0.48235037    -8.064975    789.17988  0.013824887  0.012416734           10 
 4758000   0.48634543   -8.0662115    789.18159  0.013822012  0.012412796            8 
 4759000   0.48650138   -8.0639775     789.1302  0.013818208  0.012408856            8 
 4760000   0.49367519   -8.0654502    789.07208  0.013814287  0.012404922           11 
 4761000   0.49388785   -8.0891736    790.84097  0.013842347  0.012400991            9 
 4762000   0.48749303   -8.0760714    789.20691  0.013810845  0.012397057            8 
 4763000   0.48752272   -8.0597748    789.02544   0.01380477  0.012393124            7 
 4764000    0.4998684   -8.0751523      789.577   0.01381152  0.012389195           11 
 4765000   0.49436936    -8.075568    788.62749  0.013792016  0.012385266           10 
 4766000   0.49613333   -8.0782205    790.46246  0.013821207  0.012381337           10 
 4767000   0.48737215   -8.0788462    788.65846  0.013786771  0.012377409           11 
 4768000   0.48875115   -8.0615309    790.19259  0.013810693  0.012373483           13 
 4769000   0.48168542   -8.0714517    789.03199  0.013787516  0.012369562           15 
 4770000    0.4856686   -8.0747903    789.33419  0.013789905  0.012365638           14 
 4771000   0.48407063   -8.0791052    789.86296  0.013796251  0.012361715            9 
 4772000   0.49176887   -8.0749335    790.00804  0.013795893  0.012357794           13 
 4773000   0.49539155    -8.062436    790.20959  0.013796522  0.012353876           10 
 4774000   0.48938744   -8.0851085    788.00826  0.013755206  0.012349959           12 
 4775000   0.49064378   -8.0804932    789.71308  0.013782078  0.012346039           13 
 4776000   0.48551827    -8.082398    789.61356  0.013777456  0.012342122            9 
 4777000   0.48000727   -8.0788175    790.06794  0.013782498   0.01233821           10 
 4778000   0.49226129   -8.0863921    789.54019  0.013770409  0.012334297            5 
 4779000   0.48712453   -8.0841083    789.11876  0.013760179  0.012330383            7 
 4780000   0.48262539   -8.0839115    789.40729  0.013762331  0.012326471            7 
 4781000   0.47620118   -8.0864337    788.66819   0.01374657  0.012322564            6 
 4782000   0.49054014   -8.0846576    787.30816  0.013719994  0.012318655           11 
 4783000   0.48660007   -8.0852744    789.49043  0.013755147   0.01231475           10 
 4784000   0.47877454   -8.0722288    789.91212  0.013759618  0.012310847            9 
 4785000   0.47854327   -8.0762329    789.19922  0.013744326  0.012306944            8 
 4786000    0.4889953   -8.0781912    790.07445  0.013756694  0.012303044            6 
 4787000   0.49198226   -8.0806404    789.79589  0.013748971  0.012299142           11 
 4788000   0.49774863   -8.0662391    789.36137  0.013738537  0.012295244            6 
 4789000   0.47841372   -8.0653461     789.6152  0.013740085  0.012291349            8 
 4790000   0.49076455   -8.0856808    789.01415   0.01372676  0.012287454           11 
 4791000   0.48420776   -8.0782737    789.06734   0.01372482  0.012283559            9 
 4792000   0.48099209   -8.0803517    789.42973  0.013728258  0.012279666           11 
 4793000    0.4797579   -8.0622011    789.46095  0.013725936  0.012275777            7 
 4794000   0.48899879   -8.0942146    788.36969  0.013704104  0.012271887            9 
 4795000   0.47937704   -8.0772501    789.49622  0.013720824  0.012267997            9 
 4796000    0.4930864   -8.0802101    790.06456  0.013727838  0.012264113            7 
 4797000   0.47623141   -8.0752574    789.46882  0.013714628  0.012260228            8 
 4798000   0.48175558    -8.096154    788.32606  0.013691921  0.012256344           13 
 4799000   0.47106253   -8.0850004    789.37646  0.013707308   0.01225246            8 
 4800000   0.50128715   -8.0851605    788.49026  0.013689067  0.012248578           10 
 4801000   0.47882756   -8.0757095    789.68297  0.013706918  0.012244699           14 
 4802000   0.48370462   -8.0784754    789.50867  0.013701039  0.012240819            9 
 4803000   0.47702324   -8.0792598    788.66602  0.013683566  0.012236942           10 
 4804000   0.47601589   -8.0992345    788.60378  0.013679638  0.012233065           11 
 4805000   0.48104652   -8.0709752    789.32506    0.0136893  0.012229193           13 
 4806000   0.48892856   -8.0782624    787.48703  0.013654582  0.012225321            7 
 4807000   0.47485344   -8.0836069    789.25673   0.01368242   0.01222145            9 
 4808000   0.48485413   -8.0851223    789.12832  0.013677349   0.01221758            9 
 4809000   0.48176725   -8.0870217    790.02315  0.013690011  0.012213712           14 
 4810000   0.48308051   -8.0715646    789.20948  0.013673068  0.012209847           11 
 4811000   0.47720047    -8.076287    788.73985  0.013662091  0.012205983            8 
 4812000   0.47877745   -8.0876753    789.80847  0.013677758  0.012202122            6 
 4813000   0.47736432   -8.0783997    789.08915  0.013662462  0.012198261           10 
 4814000   0.47798427   -8.1116042    789.28458  0.013663007  0.012194396            7 
 4815000    0.4830578   -8.0858507    788.02511  0.013638372  0.012190536            7 
 4816000    0.4829463   -8.0823225     788.3186  0.013640618  0.012186679            8 
 4817000   0.47408014   -8.0881566    788.56919  0.013642121  0.012182823           10 
 4818000   0.48748727   -8.0886078    788.38667  0.013636133  0.012178963            8 
 4819000   0.47298105   -8.0665958    788.26725  0.013631238  0.012175109            8 
 4820000    0.4797327   -8.0805948    789.23361  0.013645118  0.012171257           10 
 4821000   0.47881937   -8.0886207    788.26926  0.013625618  0.012167403            9 
 4822000   0.48251149   -8.0660249    789.08022  0.013636807  0.012163558           10 
 4823000   0.47492266   -8.0785606    789.17649  0.013635643  0.012159715            9 
 4824000   0.47637928   -8.0855277    789.37619  0.013636266  0.012155868           13 
 4825000   0.48431303   -8.1022669    788.61436  0.013620283  0.012152024            7 
 4826000   0.47806705   -8.1059468    789.22665  0.013628033  0.012148181           13 
 4827000   0.48186456   -8.0917661    789.49303  0.013629809  0.012144341            9 
 4828000   0.47820434   -8.0913423    788.04045  0.013601913  0.012140504           10 
 4829000    0.4787546    -8.096375     789.1571  0.013618367  0.012136669           12 
 4830000   0.46509202   -8.0854573    789.09521  0.013614479  0.012132833            9 
 4831000   0.47318571   -8.0935005    789.13529  0.013612352  0.012128997           11 
 4832000   0.48418898   -8.0905602    788.71405   0.01360227   0.01212516            5 
 4833000   0.48140502    -8.103361    789.23616  0.013608459  0.012121324           10 
 4834000   0.49192557   -8.0789025    789.23042  0.013605544  0.012117492           10 
 4835000   0.46752828   -8.0797568    788.76102   0.01359464  0.012113663           12 
 4836000   0.48525906   -8.0970515    788.96463  0.013595338  0.012109833           11 
 4837000   0.48446362   -8.0910655    789.43862  0.013600693  0.012106005            7 
 4838000   0.47586523   -8.0902628    788.56771   0.01358288  0.012102176            6 
 4839000   0.49153638    -8.089545    788.80371  0.013584138  0.012098352           12 
 4840000    0.4947137     -8.08604    788.51939  0.013576436  0.012094531            7 
 4841000   0.48214097    -8.099201    787.86823  0.013562422   0.01209071            7 
 4842000   0.48052666   -8.0829729    788.60077  0.013572229  0.012086892            7 
 4843000   0.48222563   -8.0863232    789.01758  0.013576598  0.012083076            8 
 4844000   0.47243722   -8.0918802     788.4569   0.01356415  0.012079257            6 
 4845000   0.48309287   -8.1070865    788.04249  0.013554222  0.012075443           12 
 4846000   0.46991683   -8.1032895    789.66341  0.013579299  0.012071629            8 
 4847000   0.48371047   -8.0843076    789.45198  0.013572863  0.012067817            9 
 4848000   0.47981369   -8.0921367    787.65695  0.013539208  0.012064008            9 
 4849000   0.48387086   -8.1019692    787.72488  0.013537583  0.012060201            8 
 4850000   0.47744432   -8.0885581     787.9959  0.013539448  0.012056389            7 
 4851000   0.47871875   -8.1021895    788.28791  0.013541674  0.012052582           11 
 4852000   0.49062576   -8.0993079     788.9599  0.013550424  0.012048777            9 
 4853000   0.46561869   -8.1018948    788.18475  0.013534322  0.012044971            6 
 4854000   0.47202046     -8.08104     788.1922  0.013531661  0.012041165            5 
 4855000   0.47167016    -8.092069    789.07795  0.013544077  0.012037359            6 
 4856000   0.48656211   -8.0985961    787.96279  0.013522151  0.012033554            8 
 4857000    0.4705449   -8.0817333    788.23707  0.013524073   0.01202975           13 
 4858000    0.4790997   -8.0962702    789.67294   0.01354592  0.012025949            7 
 4859000   0.47432345   -8.0949164    788.61054  0.013524912  0.012022151            7 
 4860000   0.47148054   -8.0948369    788.32798  0.013517284  0.012018348           10 
 4861000   0.46633947   -8.0989163    787.69651  0.013503677  0.012014549            9 
 4862000   0.48327214   -8.0909264    788.18816  0.013509327  0.012010751            8 
 4863000   0.47284424   -8.1119193    788.89319   0.01351863  0.012006955            6 
 4864000   0.47154315   -8.0893959    788.35748  0.013506673  0.012003163            9 
 4865000   0.47397829   -8.1003526    787.05252  0.013481544   0.01199937            6 
 4866000   0.47245437   -8.1022981    788.24954  0.013499273   0.01199558            5 
 4867000   0.48135008    -8.088899    787.68498  0.013486833   0.01199179            8 
 4868000   0.46748362   -8.1075601    787.76619  0.013485452  0.011988003            8 
 4869000   0.47046253   -8.0879857    787.91475  0.013485225  0.011984218           10 
 4870000   0.47265537   -8.0905585    789.10891   0.01350289  0.011980432           17 
 4871000    0.4603419   -8.0992936    789.96248  0.013514721  0.011976653           11 
 4872000    0.4667755   -8.1016854    789.41097  0.013502514  0.011972877            7 
 4873000   0.47544105   -8.0906607    788.54573  0.013484947  0.011969101            8 
 4874000   0.47128908   -8.0975216    789.24719  0.013494173  0.011965323            8 
 4875000   0.47425875   -8.1064334     787.9738  0.013469638  0.011961546           13 
 4876000   0.46566554   -8.0895058    787.66698  0.013461631  0.011957771            9 
 4877000   0.46471889   -8.1091014    788.77642  0.013477828  0.011953998           14 
 4878000   0.47883619   -8.1047826    788.75647  0.013474725  0.011950224            9 
 4879000   0.46864725    -8.100613    788.43435  0.013466461  0.011946451            7 
 4880000   0.47722096   -8.1171006    786.76754  0.013435238  0.011942679            7 
 4881000   0.47903862   -8.0959611    788.49673  0.013462008   0.01193891           16 
 4882000   0.46647832   -8.1223201    788.79127  0.013464278  0.011935142            9 
 4883000    0.4628993   -8.0974543    788.98816  0.013464881  0.011931376            8 
 4884000   0.46568832   -8.1153084    787.73031  0.013440662   0.01192761            9 
 4885000   0.47534857    -8.098347    786.91681  0.013424033  0.011923846           10 
 4886000   0.46562738   -8.1005473    787.68923   0.01343446  0.011920083            9 
 4887000   0.46603635   -8.0915899    788.84163  0.013451361  0.011916324            7 
 4888000   0.46333895   -8.0928845    788.04174  0.013434972  0.011912561            6 
 4889000   0.47868601   -8.0949954     786.9965  0.013414408  0.011908803           12 
 4890000   0.47407522   -8.0949465    788.33411   0.01343446  0.011905046            8 
 4891000   0.46640196   -8.1008066    787.55387  0.013418419  0.011901291           14 
 4892000   0.46986737   -8.1007456    788.43007  0.013430602  0.011897536           11 
 4893000   0.47159008   -8.1242938    788.06248  0.013421597  0.011893783            7 
 4894000    0.4625285   -8.1071583    787.39319  0.013407458  0.011890031            9 
 4895000   0.47246148   -8.1168214    788.25708  0.013419426  0.011886283           12 
 4896000    0.4677559   -8.0951803    787.03789  0.013395934  0.011882537           19 
 4897000   0.47224805   -8.1020949    788.15314  0.013412177  0.011878792            7 
 4898000   0.46754116   -8.1073251     789.2878  0.013428743  0.011875046            8 
 4899000   0.46701243   -8.0928271     787.3482  0.013393009  0.011871301            6 
 4900000   0.45651684   -8.1054405    788.79347  0.013414855  0.011867559           12 
 4901000   0.45857604   -8.0866029    788.33528  0.013404327  0.011863823           13 
 4902000   0.45328407   -8.0868632      787.955  0.013395128   0.01186008            9 
 4903000   0.46749942   -8.1091234    787.97255  0.013392694  0.011856344           12 
 4904000    0.4633642   -8.1129933    787.51309  0.013382156  0.011852609            6 
 4905000   0.46011387   -8.1142117    787.23103  0.013374635  0.011848872           12 
 4906000   0.46887122   -8.1163138    788.18078  0.013388041  0.011845137           12 
 4907000   0.45428679   -8.1055398    787.30413  0.013370425  0.011841402           12 
 4908000   0.46157532   -8.1044745    787.48194   0.01337072  0.011837671           11 
 4909000   0.46671388   -8.1021622    787.64317  0.013370733  0.011833939            8 
 4910000   0.46432731   -8.1101847    788.82033  0.013387989  0.011830213           11 
 4911000   0.46367073   -8.1018358    787.19794  0.013357733  0.011826485            8 
 4912000   0.47149292   -8.1101647    787.57719  0.013361448  0.011822761           11 
 4913000   0.47121148   -8.1165173    787.37086  0.013355229  0.011819037            9 
 4914000   0.46953769   -8.1290724    787.89059  0.013361325  0.011815315            9 
 4915000   0.46979146   -8.0988252    788.31501  0.013365802  0.011811594            9 
 4916000   0.45920183   -8.0984509    786.29631  0.013328863  0.011807874           12 
 4917000   0.47588159    -8.116019    787.91293  0.013353551  0.011804157           13 
 4918000   0.46792778   -8.1066969    788.14386  0.013354749  0.011800441            7 
 4919000   0.45402596   -8.1075303    787.68801  0.013344311  0.011796725           11 
 4920000   0.47282207   -8.1024043    789.14327  0.013366248  0.011793013            9 
 4921000   0.46036472   -8.1025183    788.35628  0.013350205  0.011789304           16 
 4922000   0.46503351    -8.101837    787.45184  0.013332179  0.011785596            7 
 4923000   0.45489705   -8.1059221    786.99545  0.013321746  0.011781888            8 
 4924000   0.47542726   -8.1241029    788.55076  0.013345362  0.011778181            7 
 4925000   0.46433096   -8.1241901    788.08061  0.013334697  0.011774475            7 
 4926000   0.46603894   -8.1095498    786.24306  0.013300904  0.011770772           10 
 4927000   0.45513799    -8.121634    787.90626  0.013326336  0.011767069            9 
 4928000   0.46361273   -8.1258952    787.90641  0.013323634  0.011763369            8 
 4929000   0.46963613   -8.1115357    787.19846  0.013308962  0.011759666            7 
 4930000   0.45509786   -8.1020539    786.66388  0.013297226  0.011755968            9 
 4931000   0.46321391   -8.1122678    787.56056  0.013309683  0.011752269            6 
 4932000   0.46366243   -8.1079531    787.68601  0.013309104  0.011748573            9 
 4933000   0.47219925   -8.1130414    787.51618  0.013303537  0.011744883            7 
 4934000   0.45755271   -8.1125983    787.82296  0.013306022  0.011741191           18 
 4935000   0.45946205     -8.12002    787.77185  0.013302463    0.0117375           10 
 4936000   0.46599264   -8.1277283    788.10437  0.013305382  0.011733813           19 
 4937000   0.46895107   -8.0969002    786.57783   0.01327692  0.011730124            9 
 4938000   0.45639549   -8.1203394    788.02478   0.01329865  0.011726435           17 
 4939000   0.46900046   -8.1047937    787.79723  0.013292118   0.01172275           16 
 4940000   0.45833445    -8.140213    788.61384  0.013303202   0.01171907           12 
 4941000   0.46596657   -8.1178003    787.67311  0.013284644  0.011715385            8 
 4942000   0.46181212   -8.0989472    788.05513  0.013288398  0.011711705           10 
 4943000   0.45090862   -8.0994927    788.40745  0.013291649  0.011708026           10 
 4944000   0.46173543   -8.1056967    786.65839  0.013259479  0.011704349            7 
 4945000   0.46080372   -8.1133336    787.49195  0.013270845  0.011700674           12 
 4946000   0.45868501   -8.1230346    787.06394  0.013260951  0.011697001           12 
 4947000   0.46565805   -8.1051444    787.22024  0.013260903  0.011693325            9 
 4948000     0.461554   -8.1111949    786.82328  0.013251537  0.011689653            7 
 4949000   0.46730435   -8.1184259    787.28703  0.013256669  0.011685984            7 
 4950000   0.45594996   -8.1185246    787.30791  0.013254342  0.011682315           12 
 4951000   0.45924472   -8.1040053    787.85482   0.01326087  0.011678647           11 
 4952000   0.45769889   -8.1242491    788.22953  0.013264498  0.011674978           10 
 4953000   0.46125647   -8.1242289    787.99416   0.01325786  0.011671312           10 
 4954000   0.45856553   -8.1107604    787.08468  0.013239885  0.011667645           10 
 4955000   0.46441309   -8.1135323    787.21465  0.013239399  0.011663985            8 
 4956000   0.45841703   -8.1055952    787.31997  0.013238498  0.011660322            9 
 4957000   0.45250822   -8.1140003    786.57844  0.013223362  0.011656661            9 
 4958000   0.46032155   -8.1168827    788.24872  0.013248768  0.011653004           11 
 4959000   0.46458084   -8.1328746    786.29093  0.013213197  0.011649346           11 
 4960000   0.45357021   -8.1293742    787.60139   0.01323255  0.011645687            9 
 4961000   0.44458391   -8.1096027    786.38306  0.013209418   0.01164203           10 
 4962000   0.45987675   -8.1199917    786.34411  0.013206102  0.011638371           12 
 4963000   0.46237586   -8.1253687    787.21296  0.013218029  0.011634714           13 
 4964000   0.46003743   -8.1295882    787.34004    0.0132175  0.011631061           11 
 4965000   0.46066104   -8.1284388    786.97583  0.013208725   0.01162741           12 
 4966000   0.46537275   -8.1302271    785.77152  0.013185856  0.011623761           14 
 4967000   0.46676279   -8.1226876    786.99861  0.013203788  0.011620114            6 
 4968000   0.45156077   -8.1315528    787.08603  0.013202597  0.011616469            9 
 4969000   0.46142881   -8.1164339    787.68973  0.013210065  0.011612826            6 
 4970000   0.46407546   -8.1211265    785.28128  0.013167024  0.011609184            7 
 4971000   0.45475039   -8.1187987    787.58298   0.01320296  0.011605543            7 
 4972000   0.45139358   -8.1276156     787.4668  0.013198357  0.011601902           13 
 4973000    0.4578066   -8.1163972    787.65465  0.013198851  0.011598265           10 
 4974000   0.44550799   -8.1201587    787.26111  0.013189604  0.011594627           13 
 4975000   0.45640851   -8.1365336    788.16841  0.013202151  0.011590988            8 
 4976000   0.45342858   -8.1213997    786.86635  0.013177692  0.011587354           11 
 4977000    0.4493876   -8.1275233    786.81579  0.013174198  0.011583721           13 
 4978000   0.45587269   -8.1100023    787.56872  0.013184156  0.011580088            9 
 4979000    0.4526184   -8.1267355     786.7203  0.013167308  0.011576458            8 
 4980000    0.4483335   -8.1290226    788.20569   0.01318952   0.01157283            9 
 4981000   0.45722643   -8.1377377     787.0051  0.013166785  0.011569202           14 
 4982000   0.45462449   -8.1223657    787.61937  0.013174417  0.011565576            9 
 4983000   0.45628379   -8.1261758    787.51172  0.013169973  0.011561951            7 
 4984000   0.45681932   -8.1247399    787.64928  0.013169631  0.011558327            8 
 4985000    0.4576446   -8.1208844    786.41539  0.013146362  0.011554705            8 
 4986000   0.46653546   -8.1313272    787.86827  0.013168008  0.011551088            7 
 4987000   0.46195556   -8.1242247    787.58938  0.013160708  0.011547469            8 
 4988000   0.46128898    -8.130324    787.41339  0.013155129  0.011543851            8 
 4989000   0.46033237   -8.1293132    786.58151  0.013138597  0.011540236           10 
 4990000   0.44365566   -8.1131607    787.64217  0.013153677  0.011536622           11 
 4991000   0.45829836   -8.1350903    787.61559  0.013150598   0.01153301            9 
 4992000   0.46094626   -8.1290864     787.1821  0.013140727  0.011529397           10 
 4993000   0.45230001   -8.1225768    787.19202  0.013138261  0.011525785            9 
 4994000   0.45268365    -8.131075    786.83507  0.013129673  0.011522173            8 
 4995000   0.45131141   -8.1153664     786.9095  0.013128287  0.011518567           11 
 4996000   0.45256102   -8.1301313    787.09281  0.013128716  0.011514959           10 
 4997000   0.45464794   -8.1303542    786.93281  0.013123421  0.011511352           11 
 4998000   0.45580031   -8.1198265    786.90529  0.013120336  0.011507748           13 
 4999000    0.4489551   -8.1256226    786.55113  0.013111808  0.011504142           11 
 5000000   0.45619928   -8.1241244       787.23    0.0131205   0.01150054           10 
 5001000   0.45361815   -8.1272496     787.2056   0.01311747   0.01149694            7 
 5002000   0.44108626   -8.1202498    787.60575  0.013121514  0.011493345           17 
 5003000   0.46302329   -8.1209778    786.76908  0.013104955  0.011489747           13 
 5004000   0.44704141    -8.124883    786.12418  0.013091596  0.011486152           12 
 5005000   0.45496146     -8.12026    787.00251  0.013103605  0.011482556           10 
 5006000   0.44115723   -8.1121936     786.3068  0.013089406  0.011478962           17 
 5007000   0.44550001   -8.1297508    787.23308  0.013102208  0.011475367            9 
 5008000   0.44433082   -8.1235639    786.92446  0.013094457  0.011471775            8 
 5009000   0.44417355   -8.1235259    786.05096   0.01307731  0.011468185            7 
 5010000   0.44425185   -8.1152295    787.87947  0.013105114  0.011464596            7 
 5011000   0.44840882   -8.1248016    786.47539  0.013079149  0.011461009            8 
 5012000   0.43255493   -8.1243638    787.06873  0.013086405  0.011457425           11 
Loop time of 11341.2 on 48 procs for 5000000 steps with 4000 atoms

Performance: 76182.362 tau/day, 440.870 timesteps/s
99.4% CPU use with 48 MPI tasks x no OpenMP threads

MPI task timing breakdown:
Section |  min time  |  avg time  |  max time  |%varavg| %total
---------------------------------------------------------------
Pair    | 707.51     | 752.19     | 787.12     |  64.3 |  6.63
Neigh   | 72.551     | 74.611     | 77.104     |  13.8 |  0.66
Comm    | 682.34     | 718.88     | 761.75     |  67.9 |  6.34
Output  | 13.337     | 13.342     | 13.433     |   0.4 |  0.12
Modify  | 9644.5     | 9671.3     | 9701       |  11.2 | 85.28
Other   |            | 110.9      |            |       |  0.98

Nlocal:        83.3333 ave          90 max          76 min
Histogram: 3 1 4 5 7 10 5 7 3 3
Nghost:        1906.67 ave        1932 max        1886 min
Histogram: 3 3 4 11 8 7 5 5 1 1
Neighs:        11974.2 ave       13004 max       10619 min
Histogram: 1 3 4 3 8 8 8 4 4 5
FullNghs:      23924.0 ave       26160 max       21723 min
Histogram: 3 3 3 4 10 9 6 7 2 1

Total # of neighbors = 1148354
Ave neighs/atom = 287.08850
Neighbor list builds = 268848
Dangerous builds = 0

#clear
#
#next RN
#
#jump SELF
Total wall time: 3:09:04
