
units lj                  # Use reduced LJ style units
atom_style atomic         # Uncharged point particles
atom_modify map hash      # Needed for indexing of clusters etc
                          # Used to be able to find where atoms are in relation to each other.

lattice fcc 1.0 spacing 1 1 1
Lattice spacing in x,y,z = 1.5874011 1.5874011 1.5874011
region box block 0 10 0 10 0 10 units lattice
create_box 2 box
Created orthogonal box = (0.0000000 0.0000000 0.0000000) to (15.874011 15.874011 15.874011)
  3 by 4 by 4 MPI processor grid
create_atoms 1 box
Created 4000 atoms
  using lattice units in orthogonal box = (0.0000000 0.0000000 0.0000000) to (15.874011 15.874011 15.874011)
  create_atoms CPU = 0.003 seconds
set type 1 type/fraction 2 0.8 78393
Setting atom values ...
  3188 settings made for type/fraction
mass 1 1.0
mass 2 1.0
pair_style lj/cut  3.5
pair_modify tail  yes
pair_coeff 1  1  1.0  1.0   # Intearaction between 1 and 1 set with epsilon = 1 and sigma = 1
pair_coeff 1  2  1.5  0.8
pair_coeff 2  2  0.5  0.88

write_data data.0
System init for write_data ...
Neighbor list info ...
  update every 1 steps, delay 10 steps, check yes
  max neighbors/atom: 2000, page size: 100000
  master list distance cutoff = 3.8
  ghost atom cutoff = 3.8
  binsize = 1.9, bins = 9 9 9
  1 neighbor lists, perpetual/occasional/extra = 1 0 0
  (1) pair lj/cut, perpetual
      attributes: half, newton on
      pair build: half/bin/atomonly/newton
      stencil: half/bin/3d
      bin: standard
WARNING: Not all mixed pair coeffs generated from mixing. Use write_data with 'pair ij' option to store all pair coeffs. (../write_data.cpp:312)


#############################
#   M E L T   S Y S T E M   #
#############################

velocity all create 2.4 9622624 mom yes dist gaussian # Assign velocities
                                                    # Temperature 2.4, random number seed, zero linear momentum
                                                                                # Gaussian distribution

timestep 0.002   # simulation timestep
thermo 1000       # output thermodynamic data every 1000 steps bf 100

# Define a fix  in this case with index 1 applied to all
# particles in the simulation. This fix is for simulations
# in the anisotropic NPT ensemble. Note that we use the MTK
# correction.
fix 1 all npt temp 2.4 2.4 0.1 iso 5.68 5.68 0.5 mtk yes tchain 5 pchain 5 # Use NPT ensemble
                                                                         # Set temperature and pressure and damping
                                                                         # Numbers of thermostats in chain and in barostat
run 10000          # run for 10000 steps
Per MPI rank memory allocation (min/avg/max) = 3.642 | 3.644 | 3.648 Mbytes
Step Temp E_pair E_mol TotEng Press Volume 
       0          2.4   -3.6981828            0 -0.099082777   -3.2752093         4000 
    1000    2.3903611   -3.0535617            0   0.53108349    5.5326186    3808.1011 
    2000    2.3764081   -3.0622464            0   0.50147462    5.5540115    3808.2724 
    3000     2.437265   -3.1008388            0   0.55414472    5.7629811    3760.4304 
    4000     2.400598   -3.0499077            0   0.55008905     5.743182    3798.5487 
    5000     2.451884   -3.0438713            0   0.63303516    5.8331129    3788.9884 
    6000    2.3770539   -3.0162864            0   0.54840301    5.8656556    3790.5239 
    7000    2.3817423   -3.0567053            0   0.51501498     5.719398    3790.3117 
    8000    2.4081544   -3.0368319            0   0.57449663    5.8164977    3787.2628 
    9000    2.3341129   -3.1094268            0   0.39086723     5.706446    3761.4805 
   10000    2.4062201   -3.0766683            0   0.53175955    5.6792803     3780.047 
Loop time of 2.59092 on 48 procs for 10000 steps with 4000 atoms

Performance: 666943.579 tau/day, 3859.627 timesteps/s
99.6% CPU use with 48 MPI tasks x no OpenMP threads

MPI task timing breakdown:
Section |  min time  |  avg time  |  max time  |%varavg| %total
---------------------------------------------------------------
Pair    | 1.1625     | 1.2182     | 1.388      |   3.3 | 47.02
Neigh   | 0.21261    | 0.22014    | 0.24984    |   1.2 |  8.50
Comm    | 0.69629    | 0.87147    | 0.94108    |   4.6 | 33.64
Output  | 0.00024586 | 0.00025215 | 0.00031653 |   0.0 |  0.01
Modify  | 0.23268    | 0.2652     | 0.3026     |   4.4 | 10.24
Other   |            | 0.01565    |            |       |  0.60

Nlocal:        83.3333 ave          90 max          73 min
Histogram: 1 0 2 2 10 11 4 10 4 4
Nghost:        1710.50 ave        1743 max        1678 min
Histogram: 3 1 7 6 6 10 3 6 5 1
Neighs:        10100.3 ave       11118 max        8655 min
Histogram: 1 1 2 4 12 6 5 7 8 2

Total # of neighbors = 484816
Ave neighs/atom = 121.20400
Neighbor list builds = 904
Dangerous builds = 203

# Equilibrate just above the melting temperature to avoid step fn in T

fix 1 all npt temp 1.25 1.25 0.1 iso 5.68 5.68 0.5 mtk yes tchain 5 pchain 5
run 2000
Per MPI rank memory allocation (min/avg/max) = 3.644 | 3.646 | 3.649 Mbytes
Step Temp E_pair E_mol TotEng Press Volume 
   10000    2.4062201   -3.0766683            0   0.53175955    5.6792803     3780.047 
   11000    1.2543606   -4.5324995            0    -2.651429     5.774321    2903.1913 
   12000    1.2850002   -4.5264323            0   -2.5994139    5.8194465     2901.161 
Loop time of 0.630443 on 48 procs for 2000 steps with 4000 atoms

Performance: 548186.203 tau/day, 3172.374 timesteps/s
99.6% CPU use with 48 MPI tasks x no OpenMP threads

MPI task timing breakdown:
Section |  min time  |  avg time  |  max time  |%varavg| %total
---------------------------------------------------------------
Pair    | 0.29442    | 0.3115     | 0.33048    |   1.5 | 49.41
Neigh   | 0.040525   | 0.042882   | 0.045387   |   0.4 |  6.80
Comm    | 0.20363    | 0.22627    | 0.24353    |   2.2 | 35.89
Output  | 5.2464e-05 | 5.4039e-05 | 6.8481e-05 |   0.0 |  0.01
Modify  | 0.041679   | 0.044749   | 0.047451   |   0.9 |  7.10
Other   |            | 0.004996   |            |       |  0.79

Nlocal:        83.3333 ave          90 max          74 min
Histogram: 1 3 2 5 2 9 12 5 7 2
Nghost:        2039.46 ave        2063 max        2019 min
Histogram: 1 5 5 8 11 7 3 3 1 4
Neighs:        13166.1 ave       15076 max       11178 min
Histogram: 3 1 2 7 9 11 8 5 1 1

Total # of neighbors = 631972
Ave neighs/atom = 157.99300
Neighbor list builds = 142
Dangerous builds = 14

#############################
# L I N E A R  Q U E N C H  #
#############################

# Define solid atoms. This closely follows ten Wolde  Ruiz-Montero and Frenkel  Faraday Discuss  1996  104  93-110
# Compute components of the per-atom q6 vector
compute q6 all orientorder/atom degrees 1 6 components 6 nnn NULL cutoff 1.3 # compute the Q6 parameter.
                                                                             # Use all neighbours within 1.3 unit cell.

# get number of connections
compute coord_number all coord/atom orientorder q6 0.5

# An atom is solid if it has 8 or more connections (of a possible 14)
variable is_solid atom c_coord_number>=8
group solid dynamic all var is_solid    # Must be dynamic to update
dynamic group solid defined

# do clustering
compute cluster solid cluster/atom 1.3 # Create a cluster where all atoms within are solid and max 1.3 units from another member

# define chunks one chunk per cluster
compute clus_chunks solid chunk/atom c_cluster nchunk every compress yes  # Says which atoms are in which chunk

# count the size of each chunk
compute size_chunks solid property/chunk clus_chunks count


# Find the maximum entry in the vector of chunk sizes
variable max_n equal max(c_size_chunks)


# Thermo style which includes this variable
# thermo_style custom step temp pe vol v_max_n

thermo ${N}  # Print the thermo information every 100 steps
thermo 1000  

# Reset the npt fix at a lower temperature (below freezing)
fix 1  all npt temp  ${temp} ${temp}  0.1  iso  5.68  5.68  0.5  mtk yes tchain  5  pchain  5
fix 1  all npt temp  0.45 ${temp}  0.1  iso  5.68  5.68  0.5  mtk yes tchain  5  pchain  5
fix 1  all npt temp  0.45 0.45  0.1  iso  5.68  5.68  0.5  mtk yes tchain  5  pchain  5

dump dmp2 all dcd ${N} traj.dcd
dump dmp2 all dcd 1000 traj.dcd


compute msd all msd com yes
variable twopoint equal c_msd[4]/6/(step*dt+1.0e-6)
fix 9 all vector 10 c_msd[4]
variable fit equal slope(f_9)/6/(10*dt)
thermo_style custom step temp pe c_msd[4] v_twopoint v_fit v_max_n

fix 1 all npt temp 1.25 ${temp} 0.1 iso 5.68 5.68 0.5 mtk yes tchain 5 pchain 5
fix 1 all npt temp 1.25 0.45 0.1 iso 5.68 5.68 0.5 mtk yes tchain 5 pchain 5
run 5000000 # 5000000  # Run for this many steps
Neighbor list info ...
  update every 1 steps, delay 10 steps, check yes
  max neighbors/atom: 2000, page size: 100000
  master list distance cutoff = 3.8
  ghost atom cutoff = 3.8
  binsize = 1.9, bins = 8 8 8
  4 neighbor lists, perpetual/occasional/extra = 1 3 0
  (1) pair lj/cut, perpetual
      attributes: half, newton on
      pair build: half/bin/atomonly/newton
      stencil: half/bin/3d
      bin: standard
  (2) compute orientorder/atom, occasional
      attributes: full, newton on
      pair build: full/bin/atomonly
      stencil: full/bin/3d
      bin: standard
  (3) compute coord/atom, occasional
      attributes: full, newton on
      pair build: full/bin/atomonly
      stencil: full/bin/3d
      bin: standard
  (4) compute cluster/atom, occasional
      attributes: full, newton on
      pair build: full/bin/atomonly
      stencil: full/bin/3d
      bin: standard
Per MPI rank memory allocation (min/avg/max) = 9.835 | 9.840 | 9.844 Mbytes
Step Temp PotEng c_msd[4] v_twopoint v_fit v_max_n 
   12000    1.2850002   -4.5264323 8.4901155e-31 5.8959133e-33 8.3333333e+20            1 
   13000    1.2398549   -4.5113004    0.8059825 0.0051665543  0.068014258            2 
   14000    1.2361274   -4.5218654    1.6271472 0.0096853996  0.068157346            1 
   15000    1.2534306   -4.5036279    2.4578563  0.013654757  0.068875903            2 
   16000     1.255858   -4.5460075    3.2590845  0.016974398  0.068599228            2 
   17000    1.2317546   -4.5371609    4.0483499  0.019844852  0.067955546            2 
   18000     1.268892   -4.5626864    4.9301851   0.02282493  0.068308768            3 
   19000    1.2424927    -4.526086    5.7666733  0.025292426  0.068641774            3 
   20000    1.2445477   -4.5196284    6.6980804  0.027908668   0.06907358            3 
   21000    1.2643837    -4.552589    7.4927406  0.029733097    0.0695108            3 
   22000     1.249802   -4.5352209    8.3674097  0.031694733  0.069898779            3 
   23000    1.2695771   -4.5628275    9.0854235    0.0329182  0.069853335            3 
   24000    1.2739716   -4.5310577    9.8818485  0.034311973  0.069670863            2 
   25000    1.2298222   -4.5037634    10.707258  0.035690858   0.06946695            3 
   26000    1.2428554   -4.5424224    11.461217  0.036734671  0.069202166            2 
   27000    1.2258615   -4.5525019    12.352236  0.038124185  0.069058741            2 
   28000    1.2416716   -4.5199053    13.128486  0.039072874   0.06888434            1 
   29000    1.2554198   -4.5471877    14.052564   0.04038093  0.068777671            9 
   30000    1.2325143   -4.5428452    14.859145  0.041275402  0.068765148            2 
   31000    1.2446402   -4.5228798    15.686505  0.042168024  0.068752184            2 
   32000    1.2753955    -4.547856    16.544496  0.043084625  0.068799404            2 
   33000     1.209843    -4.566374    17.247457  0.043554185   0.06883694            4 
   34000     1.232857   -4.5114436    18.029353  0.044189591  0.068753389            2 
   35000    1.2530248   -4.5089027    18.915432  0.045036742  0.068655259            3 
   36000    1.2800356    -4.560983    19.744074  0.045703875  0.068655956            3 
   37000    1.2616037   -4.5552537    20.708999  0.046641888   0.06869838            1 
   38000    1.2406195   -4.5625832    21.730808   0.04765528  0.068830749            4 
   39000     1.253412   -4.5403384    22.466494  0.048005329  0.068993251            1 
   40000    1.2512942   -4.5329406    23.287486  0.048515595  0.069109969            5 
   41000    1.2479073   -4.5408171    24.147223  0.049079721  0.069171802            2 
   42000    1.2134755   -4.5512064    25.044908  0.049692277  0.069231021            3 
   43000    1.2533355   -4.5781009    26.017696  0.050421891  0.069330168            2 
   44000    1.2507059   -4.5653439    27.132297  0.051386925  0.069615909            2 
   45000    1.2493162   -4.5287434    28.098238  0.052033774   0.06988509            1 
   46000    1.2298569   -4.5138885    29.051195  0.052628976  0.070132545            5 
   47000    1.2489065   -4.4715971    30.307435  0.053736586  0.070406025            1 
   48000    1.2470951   -4.5473875    31.226062  0.054211912  0.070725797            4 
   49000    1.2549366   -4.5376016    32.267415  0.054876556  0.071098704            2 
   50000    1.2176374    -4.564189    33.140327  0.055233878  0.071449319            3 
   51000    1.2185606   -4.5400992     33.94895  0.055472141  0.071743881            1 
   52000    1.2730753   -4.5372479    34.625682  0.055489875   0.07198181            2 
   53000    1.2737839   -4.5321417    35.760662  0.056227455  0.072185183            2 
   54000    1.2377079   -4.5555559    36.520466  0.056358743  0.072364091            4 
   55000     1.215628   -4.5594756    37.571052  0.056925836  0.072552629            2 
   56000    1.2397254   -4.5380832     38.61815  0.057467484  0.072734289            2 
   57000    1.2344987   -4.5462092    39.430702  0.057647224  0.072913485            1 
   58000    1.2640672   -4.5442185    40.250429  0.057831075  0.073048929            2 
   59000     1.258469   -4.5690576    41.141813  0.058109905    0.0731644            1 
   60000    1.2370898   -4.5261449    41.587487  0.057760398  0.073215732            4 
   61000    1.2323084   -4.5764907    42.361619  0.057871063  0.073231561            4 
   62000    1.2390946   -4.5469996    43.063351  0.057880848  0.073200781            5 
   63000    1.2539392   -4.5504469    43.560422  0.057619606  0.073127617            1 
   64000     1.258665   -4.5074209    44.835965  0.058380162  0.073044063            2 
   65000    1.2469789   -4.6006537    45.151906  0.057887059  0.072942828            1 
   66000    1.2323598   -4.5381919    45.950207  0.058017937  0.072825189            2 
   67000    1.2570073   -4.5134442    46.882615   0.05831171  0.072716539            3 
   68000    1.2640244   -4.5437196    47.653449  0.058398834  0.072625586            2 
   69000    1.2491758   -4.5798491    48.201188  0.058213995  0.072531023            1 
   70000    1.2247511   -4.5326471    49.191921  0.058561811  0.072396285            1 
   71000    1.2512265   -4.5703332    50.164023   0.05887796  0.072289645            1 
   72000    1.2528337   -4.5619677    50.926238  0.058942404  0.072214391            3 
   73000    1.2622398   -4.5475792    51.472236   0.05875826  0.072113778            2 
   74000    1.2391232   -4.5645853    52.472115  0.059090219  0.072006455            3 
   75000    1.2153018   -4.5125019    53.313099  0.059236776  0.071916138            2 
   76000    1.2281322   -4.5700613    53.653174  0.058830234  0.071796498            3 
   77000    1.2264949   -4.5561029    54.442671  0.058920639  0.071652661            2 
   78000    1.2403284   -4.5276325    55.407217  0.059195744  0.071511055            1 
   79000    1.2774376   -4.5827699    56.125031  0.059203618  0.071383522            2 
   80000    1.2357074   -4.5318246    57.150842  0.059532127  0.071264288            1 
   81000    1.2175096   -4.5494758     58.05438  0.059726728     0.071178            2 
   82000    1.2279926   -4.5526342    59.270025  0.060233765  0.071118755            4 
   83000    1.2737822   -4.5670316    59.959073  0.060199872  0.071076315            2 
   84000    1.2147462   -4.5719153    60.647772   0.06016644  0.071022354            2 
   85000    1.2401827   -4.5684753    61.904593  0.060690777  0.071000606            2 
   86000    1.2281367   -4.5411312    62.459228  0.060522508  0.070970085            3 
   87000    1.2550376   -4.5629853    63.079409   0.06042089  0.070924204            3 
   88000    1.2265398   -4.5314851    64.178453   0.06077505  0.070876966            2 
   89000    1.2274913     -4.52917    65.063369  0.060920757  0.070861256            1 
   90000    1.2455623   -4.5588284    66.046937  0.061154571  0.070847297            3 
   91000    1.2033854   -4.5685776    66.500738  0.060898111  0.070824274            2 
   92000    1.2223801   -4.5504067    67.536478  0.061174346  0.070789033            2 
   93000    1.2463174   -4.5289028    68.016971  0.060947106  0.070747108            2 
   94000    1.2478699   -4.5764738     68.81206  0.061003599  0.070698063            2 
   95000    1.2336713    -4.573115      69.8877     0.061305  0.070657303            3 
   96000    1.2418976   -4.5620512    70.368587  0.061083843  0.070617733            2 
   97000    1.2225442   -4.5442458    71.421661  0.061358815  0.070572497            1 
   98000    1.2112142   -4.5558882     71.91982  0.061156309  0.070523829            2 
   99000    1.2182776   -4.5718086    72.571667  0.061087262  0.070462169            2 
  100000    1.2569981    -4.547994    73.757345  0.061464454  0.070414425            1 
  101000    1.2014329   -4.5600017    74.715424  0.061646389  0.070374252            2 
  102000    1.2099401   -4.5790863    75.721423  0.061863907   0.07033893            2 
  103000    1.2249135   -4.5678821    76.265314  0.061703328  0.070305284            2 
  104000    1.2406188   -4.5479389    76.828479  0.061561281  0.070263615            1 
  105000    1.2144144   -4.5660802    77.132227  0.061216053  0.070201122            3 
  106000    1.2199307   -4.5705416    78.323909    0.0615754  0.070137895            2 
  107000    1.2361741   -4.5623188    79.055097   0.06156939  0.070082295            2 
  108000    1.2484911   -4.5528539    80.100234  0.061805736  0.070026813            3 
  109000    1.2667553   -4.6041993    80.532965  0.061569545  0.069964694            4 
  110000    1.2234455   -4.5421996    81.246516  0.061550391  0.069893859            2 
  111000     1.229857   -4.5819661      81.6493  0.061298273  0.069818925            3 
  112000    1.2212151   -4.5312698    82.994835  0.061752109  0.069754245            2 
  113000    1.2199405    -4.558043    83.621722  0.061667937  0.069695074            1 
  114000    1.2307344   -4.5448626    84.499021   0.06176829  0.069628461            3 
  115000    1.2406671   -4.5646008    84.786298  0.061439346  0.069566332            3 
  116000    1.2367541    -4.569633    85.121383  0.061150419  0.069496041            9 
  117000     1.206881   -4.5203139    86.274407  0.061449007  0.069417046            2 
  118000    1.2341075   -4.5316645    87.102562  0.061513109   0.06934282            1 
  119000    1.2057969    -4.558908    87.626254  0.061362923  0.069262474            1 
  120000    1.2427342   -4.5500214    87.900814  0.061042232  0.069167415            2 
  121000    1.2202647   -4.5404683    89.129328  0.061383834  0.069081375            1 
  122000    1.2543442   -4.5639592    89.527842  0.061152897  0.068999688            2 
  123000    1.2295818   -4.5438669    90.282712  0.061167149  0.068921329            1 
  124000    1.2265095   -4.5859725    90.816286   0.06103245  0.068830986            4 
  125000    1.2335176      -4.5934    92.219347  0.061479564  0.068749681            3 
  126000    1.2559323   -4.5643517    92.557584  0.061215333  0.068669091            2 
  127000    1.2588916    -4.588377    93.231582  0.061175579  0.068589632            2 
  128000     1.227147   -4.5510016    94.351195  0.061426559  0.068514671            1 
  129000    1.2340237    -4.583885    94.580663  0.061098619  0.068435327            2 
  130000      1.21249   -4.5581837    95.421468  0.061167607  0.068355097            3 
  131000     1.221479   -4.5901236     96.56977  0.061431151  0.068276753            2 
  132000    1.2438209   -4.5739021    96.976954  0.061222824  0.068196821            2 
  133000    1.2416094   -4.5346564    98.013542  0.061411994  0.068131714            1 
  134000    1.2200193   -4.5961875    98.973674  0.061550792  0.068076945            3 
  135000     1.215695   -4.5495787     100.0611  0.061766112  0.068022526            2 
  136000    1.2305989   -4.5734433    100.41219  0.061527078  0.067970327            2 
  137000    1.2253002   -4.5757893    101.53531   0.06176114  0.067919983            1 
  138000    1.2483539   -4.5555575    102.54553  0.061923629  0.067871909            1 
  139000    1.2141779   -4.5662103    103.11021   0.06181667  0.067831165            3 
  140000    1.2326927   -4.5518146    103.78939  0.061779397  0.067793591            2 
  141000    1.2439527   -4.5313198    105.04829  0.062085276   0.06775882            3 
  142000     1.258065   -4.5720115    105.05895  0.061654312  0.067720989            2 
  143000    1.2293014   -4.5805106    106.12385  0.061843737  0.067681397            2 
  144000    1.2312234   -4.5628645      107.094  0.061975696  0.067637989            3 
  145000    1.2205601   -4.6138555    107.13732  0.061573173  0.067594712            3 
  146000    1.2266038   -4.5848218    108.51916  0.061940158  0.067548637            3 
  147000    1.2295769   -4.5837584     109.1442  0.061873127  0.067504834            3 
  148000    1.2101115   -4.5763254    109.91371   0.06188835  0.067460259            2 
  149000    1.2139026   -4.5739477    110.45465  0.061775528  0.067413966            2 
  150000    1.2252805   -4.6076508    111.35046  0.061861364  0.067371001            1 
  151000    1.2173293   -4.5496854    112.44514  0.062055818  0.067327302            2 
  152000    1.2270374   -4.5749006    112.98131  0.061941506  0.067286472            2 
  153000    1.1946094   -4.5642365    113.43922  0.061786067  0.067247811            2 
  154000    1.2144805   -4.5471401    115.22881  0.062353251  0.067211477            2 
  155000    1.2188044   -4.6003776    114.97537  0.061814713  0.067176619            2 
  156000    1.2195502   -4.5573697    116.21525  0.062080798  0.067141755            3 
  157000    1.2288515   -4.5108972    117.61313   0.06242735  0.067109738            2 
  158000    1.2544628   -4.5539857    117.33063  0.061883242  0.067070995            2 
  159000    1.2547989   -4.5827084    117.84157  0.061761831  0.067027702            3 
  160000    1.2316181   -4.5430918    118.95203  0.061954182  0.066986776            3 
  161000    1.2365959   -4.5689999    119.88365  0.062051577  0.066946025            1 
  162000    1.2277955    -4.528928    121.07034  0.062278981   0.06690976            1 
  163000    1.2349248    -4.575432    121.62664  0.062181308  0.066877281            2 
  164000     1.219382   -4.5981376    122.02967  0.062006945  0.066842432            4 
  165000      1.23287   -4.5781167    123.10259  0.062173025  0.066810932            2 
  166000    1.2458384   -4.5709457    124.32016  0.062409717  0.066788528            2 
  167000    1.2430093   -4.5650538     124.6103  0.062180789  0.066763196            4 
  168000    1.2376684   -4.6109131    125.27619  0.062140967   0.06673596            2 
  169000    1.2191206   -4.6065036     126.5554  0.062404044  0.066711961            3 
  170000    1.2269237   -4.5593578    127.17131  0.062338877  0.066685296            2 
  171000    1.2485867   -4.5720286     127.8459  0.062303069  0.066659547            3 
  172000     1.238617   -4.5877008    128.37578  0.062197569  0.066634448            1 
  173000    1.2351407   -4.5540541    129.27421  0.062270813  0.066609901            3 
  174000    1.2262657   -4.5890734    130.18028  0.062346875  0.066580248            1 
  175000    1.1976501   -4.5850354    131.20756  0.062479792  0.066556837            2 
  176000    1.2251184   -4.5851543     131.6379  0.062328549  0.066537816            2 
  177000    1.2322736   -4.5783382    132.40243  0.062336358  0.066522008            4 
  178000    1.2109973   -4.5824298    133.17099   0.06234597  0.066506197            3 
  179000    1.2302968   -4.5753584    134.95831  0.062829753  0.066494162            1 
  180000    1.2293927   -4.6002699    135.12861  0.062559543  0.066483971            3 
  181000    1.2110288    -4.574063    136.86237  0.063012142  0.066478158            3 
  182000    1.2188624   -4.5967767    137.34705  0.062887844   0.06647766            3 
  183000    1.2501607   -4.5749556    138.11474  0.062893779  0.066472008            2 
  184000    1.2377763   -4.6016718    138.93215  0.062922169   0.06646931            3 
  185000    1.1964953   -4.5153365    140.30992  0.063202666  0.066467066            2 
  186000     1.214342   -4.5605316    140.82669  0.063094393  0.066463423            2 
  187000    1.2431995   -4.5906931    141.48657  0.063051054  0.066464983            2 
  188000    1.2381524   -4.5333331    142.95926  0.063368464  0.066462912            1 
  189000    1.2098295    -4.598328    142.02346  0.062620571  0.066463806            1 
  190000    1.2132693   -4.5680348     143.2306  0.062820437   0.06645913            4 
  191000     1.200426    -4.569681    144.11026   0.06287533  0.066459148            2 
  192000    1.2254009   -4.5500829    145.61409  0.063200559  0.066454597            1 
  193000    1.2272562   -4.6205417    145.47669  0.062813769   0.06645111            2 
  194000    1.2411529   -4.5787809    147.09446  0.063184907  0.066448943            4 
  195000    1.2087258   -4.5562321    147.72749  0.063131405  0.066441048            3 
  196000    1.2249507   -4.6519742    147.55636  0.062736547  0.066432943            2 
  197000    1.2035557   -4.6027513     148.1365  0.062663495  0.066416371            3 
  198000    1.2092287   -4.5820854    149.23361  0.062808759  0.066405488            2 
  199000    1.2050656    -4.575036    149.75063  0.062709642  0.066399031            4 
  200000    1.2107413   -4.5857308    151.53308  0.063138783  0.066391079            2 
  201000    1.2245537   -4.5703418    151.86211  0.062961072  0.066381303            2 
  202000    1.2343926   -4.6021097    152.37978  0.062862944  0.066366864            2 
  203000    1.2354891   -4.5621582    153.18778  0.062884965  0.066350418            2 
  204000    1.2060005   -4.5570925    154.93011  0.063288444  0.066335047            2 
  205000    1.2009211   -4.5586558    155.16652  0.063075821  0.066327265            3 
  206000    1.2275343   -4.6083182    155.55612  0.062927232  0.066315715            3 
  207000    1.2177722   -4.5463184    157.31843  0.063332702   0.06630436            1 
  208000    1.2215108   -4.6134364    157.13011  0.062952768  0.066295326            2 
  209000    1.2272582   -4.5750105    158.75202  0.063298252  0.066289239            1 
  210000    1.2226935   -4.5614443     158.9824  0.063088253  0.066282683            3 
  211000    1.2051119   -4.5855947    159.45378  0.062975426  0.066275226            2 
  212000    1.2089516   -4.6180458    159.98008  0.062885252  0.066264979            3 
  213000     1.228637    -4.583265    161.16081   0.06305196   0.06625509            2 
  214000    1.2098448   -4.5974346    162.17627  0.063152754   0.06624702            1 
  215000    1.2264468   -4.6085479    163.29949  0.063294376  0.066238787            1 
  216000    1.2164212   -4.5992559    163.37465  0.063030342  0.066231376            3 
  217000    1.2153907   -4.5823603    164.55836  0.063194455  0.066224628            2 
  218000     1.226099    -4.617436    163.97252  0.062680628  0.066210912            2 
  219000    1.2341735   -4.5973012    164.56522  0.062619948  0.066194049            2 
  220000    1.2248579   -4.5632192     165.8139  0.062808295  0.066175956            3 
  221000    1.2210091    -4.567091    166.61537  0.062826309  0.066156424            2 
  222000    1.2179957   -4.6001306    166.21007  0.062391167  0.066135093            1 
  223000    1.2135727   -4.6517715    167.45662  0.062577214  0.066112818            1 
  224000    1.2217955   -4.6039912    167.58558  0.062345825  0.066089059            2 
  225000    1.2212794   -4.5968214     169.3578   0.06272511  0.066068543            1 
  226000    1.1996646   -4.5834589    169.60584  0.062539025  0.066042998            2 
  227000    1.2161573   -4.6278779    170.36721  0.062543028  0.066018427            2 
  228000    1.2142667   -4.6029139    171.88474   0.06282337  0.065997055            2 
  229000    1.2130063   -4.6278258    170.99422  0.062224971  0.065969705            3 
  230000    1.2005632   -4.6214583    172.90017  0.062644988   0.06594766            1 
  231000     1.215953   -4.5717323     174.5188   0.06295772  0.065928912            3 
  232000     1.187895   -4.6210337    173.92947  0.062474666    0.0659059            3 
  233000    1.2238219   -4.6296985    174.82968  0.062528499  0.065882995            4 
  234000    1.1949936   -4.5861854    175.67046  0.062560704  0.065861816            4 
  235000    1.2162363   -4.5586199    178.11194  0.063160263  0.065846316            1 
  236000     1.194138   -4.6048075    177.87378  0.062808537  0.065829557            2 
  237000    1.2066071   -4.5871896    178.94347  0.062919645  0.065813711            1 
  238000    1.2187438   -4.6109427    179.92033  0.062997315  0.065797057            1 
  239000       1.1801   -4.5776156    179.80924  0.062694994  0.065782941            2 
  240000    1.2075088   -4.5984674    181.57677  0.063047489  0.065768827            2 
  241000    1.1974528   -4.5794723    182.60224  0.063140471  0.065761311            6 
  242000    1.2076894   -4.5806746    183.50725  0.063191201  0.065756092            2 
  243000    1.2190997   -4.6149582    183.71293   0.06300169  0.065748602            1 
  244000    1.2178635   -4.5936587    185.31961  0.063292216  0.065740181            2 
  245000    1.2092321   -4.6257228    184.96515  0.062913316  0.065731737            1 
  246000    1.2134293   -4.6040925    185.88496  0.062969159  0.065722252            3 
  247000    1.2073395    -4.575196    186.72471  0.062997541  0.065714545            2 
  248000    1.1773117   -4.5939549    187.61797  0.063043672  0.065705024            1 
  249000    1.2102271   -4.5951285    188.48415  0.063080371  0.065695616            2 
  250000    1.2226086    -4.585323     189.5309  0.063176965  0.065688142            2 
  251000    1.2246553    -4.596671    189.87377  0.063039101  0.065679806            2 
  252000    1.2127584   -4.5878746    191.20389  0.063228799  0.065673457            3 
  253000    1.1842312   -4.5985435    191.63992  0.063122502  0.065666846            4 
  254000    1.2065505   -4.6144004    192.92942  0.063297053  0.065660485            3 
  255000    1.2188835   -4.6100591    194.28184  0.063490799  0.065658017            3 
  256000    1.2046568   -4.6255111    192.93287  0.062803668  0.065650486            2 
  257000    1.2012936   -4.6063407    194.97663  0.063221995  0.065641955            2 
  258000    1.2166338   -4.6047578    195.69885  0.063210224  0.065635341            3 
  259000    1.2086188    -4.588625    196.71544  0.063293254  0.065629921            2 
  260000    1.1934783   -4.5866394    197.53136  0.063311334  0.065622818            3 
  261000    1.1941575   -4.5716794    199.02459  0.063545527  0.065614901            2 
  262000    1.2070326   -4.5977262    199.24371  0.063372682  0.065604929            1 
  263000    1.2207319   -4.5932423    200.19762  0.063433974  0.065595735            3 
  264000    1.2408566   -4.5678932    200.31495   0.06323073  0.065587576            2 
  265000    1.2188633   -4.6206002    200.57774  0.063074762  0.065582064            2 
  266000     1.242071   -4.5731642    201.63253  0.063168087  0.065572551            2 
  267000    1.2211488   -4.6017662    202.12875  0.063086376  0.065565072            2 
  268000    1.2261471   -4.5811473    202.93566  0.063101883  0.065558416            1 
  269000    1.1879588   -4.6000886      203.355  0.062997211  0.065550281            2 
  270000    1.2203385   -4.6046696    203.77678  0.062894067  0.065541318            3 
  271000     1.209291   -4.6087285    206.15999  0.063394831  0.065532507            3 
  272000    1.2104073   -4.6280471    206.66183  0.063315512  0.065527174            3 
  273000    1.1973597   -4.6314231    206.34865  0.062987988  0.065522152            1 
  274000    1.2143061   -4.6145971    208.90553  0.063535744  0.065518259            1 
  275000    1.1954042   -4.6103975    209.36445  0.063443772  0.065516918            2 
  276000    1.2017653   -4.5810704     210.1634  0.063455133  0.065516648            2 
  277000    1.1978665   -4.6126501    210.15745  0.063224264  0.065516848            2 
  278000    1.2220098   -4.6188966    212.19709  0.063608239  0.065513644            1 
  279000    1.1872355   -4.6270029    212.52921  0.063479452  0.065509568            2 
  280000    1.1901779   -4.5865112     213.0463  0.063406637    0.0655056            2 
  281000    1.1961243   -4.5911096     215.0574  0.063777404  0.065500977            3 
  282000    1.2122745   -4.5965227    213.90073  0.063209437  0.065497022            1 
  283000    1.1834978   -4.5837993    214.97206   0.06330155  0.065492254            2 
  284000    1.1657457   -4.6035256    216.30678    0.0634703  0.065482446            3 
  285000    1.1937249   -4.6514907     216.3009  0.063245877  0.065475276            1 
  286000      1.21369   -4.5788817    216.85901  0.063187358   0.06547073            4 
  287000    1.2275249   -4.6162255    219.30087   0.06367621   0.06546818            1 
  288000    1.2117121   -4.5902105    219.91343  0.063632357  0.065470627            4 
  289000    1.2054287   -4.5628935    222.02423  0.064020827   0.06547524            3 
  290000     1.196826   -4.5620498    222.14974  0.063836133  0.065476554            2 
  291000    1.2245266   -4.5797166    222.29069  0.063657126  0.065477297            3 
  292000    1.2004784   -4.5986678    222.89739  0.063612267  0.065477314            2 
  293000     1.191605   -4.6204939    224.24871  0.063779496   0.06547826            2 
  294000    1.2420329   -4.6386242    223.25293  0.063280308  0.065478952            3 
  295000    1.2179143   -4.6005953    225.27104  0.063635886  0.065479743            2 
  296000    1.2054277   -4.6280564    225.89748  0.063597265  0.065481405            3 
  297000    1.1910794    -4.631729    226.21261  0.063471552  0.065477877            1 
  298000    1.2417709   -4.5722478    227.55631  0.063634315   0.06547596            4 
  299000     1.204488   -4.6320313    227.31069  0.063353035  0.065475315            4 
  300000    1.1965589   -4.5688697    229.69261  0.063803503  0.065475388            1 
  301000    1.2229468   -4.6092781    229.58504  0.063561749  0.065474727            1 
  302000    1.1937475    -4.593271    230.33723  0.063558839  0.065472454            5 
  303000    1.1928134   -4.5981087     231.6194  0.063701706  0.065471008            2 
  304000    1.2099525   -4.6247801    231.84257  0.063553336  0.065467314            2 
  305000    1.2046764   -4.5967445    232.94084  0.063645039  0.065466272            2 
  306000    1.2059682   -4.6335918    233.08125  0.063475286  0.065464021            2 
  307000    1.2318999    -4.623921    234.03669  0.063527875  0.065462144            2 
  308000    1.2146387   -4.6145996     234.4997  0.063446888  0.065458963            2 
  309000    1.2170298   -4.5884118    234.99093  0.063374037  0.065452654            2 
  310000    1.2176184   -4.6258744    235.77691  0.063380889  0.065446889            3 
  311000    1.2097612   -4.6083753    236.64812  0.063410536  0.065441992            2 
  312000    1.2152871   -4.6049218    237.75272  0.063502328  0.065438193            3 
  313000    1.2119016   -4.6175768    238.69716  0.063550896  0.065434279            3 
  314000    1.2135619   -4.6017747    239.13754  0.063465376  0.065430601            3 
  315000    1.2068778   -4.6214863    239.77881  0.063433548  0.065424798            2 
  316000     1.231119   -4.6232986    240.97326  0.063547799  0.065419295            2 
  317000    1.2137032   -4.6458526    240.09794  0.063117228   0.06541126            5 
  318000    1.1850162    -4.660817    240.77986  0.063097449  0.065402009            2 
  319000    1.1787611     -4.60433    242.81706  0.063431833  0.065394189            2 
  320000    1.1856441   -4.6127352    244.21022   0.06359641  0.065389083            4 
  321000    1.1957058   -4.6259141    243.62905  0.063247417  0.065380988            3 
  322000    1.1851907   -4.6140972    244.69161  0.063325986  0.065372268            2 
  323000    1.2204039   -4.6410116     244.3092  0.063031269  0.065363451            3 
  324000    1.1884678    -4.622704    246.82014  0.063482545   0.06535577            1 
  325000     1.217873   -4.6161683    245.92113    0.0630567  0.065348005            2 
  326000    1.1969619   -4.5755203    248.13618  0.063429493  0.065339986            2 
  327000    1.1983584   -4.5795436    249.12741  0.063488126  0.065329866            4 
  328000     1.192063   -4.6053746    248.89881  0.063236486  0.065321468            3 
  329000     1.213968   -4.6316584     249.7919  0.063270491  0.065311893            2 
  330000    1.1920272   -4.6301106    249.96452  0.063122353  0.065302843            2 
  331000    1.1900816   -4.6566055    250.65485   0.06310545  0.065290715            1 
  332000    1.2138328   -4.6257713    250.78634  0.062948378  0.065279176            2 
  333000    1.2069687   -4.6223531    251.08943  0.062835193  0.065264551            1 
  334000    1.2037544   -4.6410627    252.34535  0.062960416  0.065250756            3 
  335000    1.2036797   -4.6082625    254.40134  0.063283916  0.065240558            2 
  336000    1.2049119   -4.6546205    254.39703  0.063094502  0.065228797            2 
  337000    1.1952113   -4.6480943    255.13372  0.063089446  0.065217119            3 
  338000    1.2080011    -4.624605    255.13968   0.06290426  0.065205231            5 
  339000    1.2017547   -4.5826187    256.54289   0.06306364  0.065192594            4 
  340000    1.1919337   -4.6119132    257.04652  0.063001597  0.065177585            1 
  341000    1.2043793   -4.6152832    256.93017  0.062788409  0.065162846            2 
  342000    1.1893563   -4.6723483    256.45925  0.062490071  0.065146975            2 
  343000    1.1879281   -4.6655973    257.64515  0.062596002  0.065131188            4 
  344000    1.2020994   -4.6517594    258.77348  0.062687375    0.0651127            2 
  345000    1.1750755   -4.6296216    259.45244   0.06266967  0.065095629            3 
  346000    1.1918869   -4.6291672    261.53864  0.062991002  0.065080858            2 
  347000    1.1922988   -4.6094852    261.69575  0.062847203  0.065066193            2 
  348000    1.2000675   -4.6104249    263.24282  0.063037074  0.065053535            3 
  349000    1.1923205   -4.6119491    263.96405  0.063028665   0.06504144            1 
  350000    1.1768768   -4.5912148    265.71584  0.063265677  0.065028362            1 
  351000    1.1918234   -4.6430171    264.41097  0.062775633  0.065016428            5 
  352000    1.2044697   -4.6380178    266.72168  0.063144337  0.065002183            2 
  353000    1.1972248   -4.6305149    266.79076  0.062981766  0.064990243            2 
  354000    1.1711768   -4.6296432    267.94014  0.063074421  0.064979491            3 
  355000    1.1988956   -4.6283254    268.50332  0.063028948  0.064968881            1 
  356000     1.187195   -4.6267495    270.41372  0.063299091  0.064962044            3 
  357000    1.1900682   -4.6163304    270.94444  0.063245667  0.064955725            2 
  358000    1.1968771   -4.6597278    271.07264  0.063098845  0.064949284            1 
  359000    1.1819369   -4.6183385     272.4575  0.063244545  0.064939941            2 
  360000    1.2017412   -4.5941025    273.99544  0.063424871  0.064934394            3 
  361000    1.2184018   -4.6274955    275.03196   0.06348845  0.064929883            1 
  362000     1.203991   -4.6355047    275.34114  0.063384241  0.064927818            2 
  363000    1.2039577    -4.659796    276.42346  0.063458094  0.064923514            3 
  364000    1.1958462   -4.6185099    276.91087  0.063395346  0.064919944            5 
  365000    1.2099691   -4.6208815    277.84128  0.063434082  0.064918051            3 
  366000    1.1776672   -4.6437786    278.42615  0.063393931   0.06491547            6 
  367000    1.1757389   -4.6572829    278.45023  0.063226665  0.064913693            2 
  368000    1.2039023   -4.6382666    280.31594  0.063477342  0.064910837            1 
  369000    1.2171376   -4.6447073    279.42445  0.063103985  0.064907075            3 
  370000    1.1713527   -4.5771313    283.35449  0.063818578  0.064905627            2 
  371000    1.2028832   -4.5974872     284.0166  0.063795284  0.064907298            1 
  372000    1.1907684   -4.6405994    284.37966   0.06370512  0.064909419            2 
  373000    1.2027748   -4.6341603    285.75134  0.063840781  0.064911475            2 
  374000    1.1931385    -4.631083    286.09611  0.063746905  0.064915279            2 
  375000    1.2106686   -4.6387657    288.37374  0.064083054    0.0649185            4 
  376000     1.185641   -4.6517316    287.85235  0.063797064  0.064922685            3 
  377000    1.1994626   -4.6309941    288.13746  0.063690863  0.064923785            2 
  378000      1.21649   -4.6380436    288.77492  0.063662901  0.064926593            5 
  379000    1.1716255   -4.6083611    291.39014  0.064069951  0.064930622            2 
  380000    1.1905834    -4.626239    291.31486  0.063884837  0.064933934            3 
  381000     1.159548   -4.6652462    290.87334   0.06362059   0.06493441            1 
  382000     1.172398     -4.67666    290.89466  0.063458695  0.064936236            3 
  383000    1.1877621   -4.6418151    292.61233  0.063666738  0.064936161            1 
  384000     1.213693   -4.6544868    293.09901  0.063606555  0.064936132            1 
  385000    1.1691385   -4.6424825    294.52508  0.063750018   0.06493519            2 
  386000    1.2019504   -4.6375536    294.48281  0.063575736  0.064930806            5 
  387000    1.2030575   -4.6403936    295.43633  0.063616782  0.064928441            3 
  388000    1.1682531   -4.6121934    295.84772  0.063541176  0.064928643            1 
  389000    1.2045373   -4.6591243    297.61326  0.063756053  0.064928888            3 
  390000    1.1756795   -4.6173198    298.28528   0.06373617  0.064930342            6 
  391000    1.1912762   -4.6710536    297.87569  0.063485868  0.064929118            3 
  392000    1.1997882   -4.6518737    298.67943  0.063494777  0.064928004            2 
  393000    1.1927098   -4.6461013    300.12749  0.063640264  0.064925835            4 
  394000    1.2041697   -4.6290347     300.1519  0.063483903  0.064923951            3 
  395000    1.1773641   -4.6683722    301.63006  0.063635033  0.064923243            7 
  396000    1.2184132   -4.6376753    302.48971  0.063655242   0.06492231            4 
  397000    1.1839185   -4.6153801    303.92533  0.063796248  0.064922392            2 
  398000    1.2104595   -4.6445236    303.99886  0.063651353  0.064920321            2 
  399000     1.203312   -4.6760436    303.63396  0.063415615  0.064919372            3 
  400000    1.1853919   -4.6371062    306.83299  0.063923539  0.064918924            1 
  401000    1.1944773   -4.6005801    306.76836  0.063750697  0.064920247            1 
  402000    1.1991877   -4.6729238    306.16619  0.063467287  0.064920588            3 
  403000    1.1931097   -4.6423506    308.90213  0.063875544  0.064923004            4 
  404000    1.2093104   -4.6505339    309.50681  0.063842163  0.064925244            2 
  405000    1.1796972   -4.6331769    310.20359  0.063827898  0.064928484            3 
  406000    1.1650685   -4.6565235    311.31708  0.063899237  0.064931121            6 
  407000    1.1808891   -4.6184422    312.43276  0.063970671  0.064932612            2 
  408000    1.1725983   -4.6282823    312.51107  0.063829875  0.064934739            2 
  409000    1.1807756   -4.6541878    312.95442  0.063764144  0.064935656            2 
  410000    1.1686666   -4.6219443    315.41529  0.064108799  0.064937481            2 
  411000    1.1543768   -4.6494945    315.45051  0.063959957  0.064937866            2 
  412000    1.1802743   -4.6478987    315.45615  0.063805855  0.064938999            4 
  413000    1.1665264   -4.6616619     316.5878  0.063879701   0.06493892            3 
  414000    1.1799075   -4.6302517    316.69234  0.063746445  0.064939611            4 
  415000    1.1742143    -4.628926    318.57085   0.06397005  0.064941485            5 
  416000    1.1958888   -4.6300327     318.4413  0.063790324  0.064942871            3 
  417000    1.1534139   -4.6539305    319.75776  0.063900432  0.064943133            3 
  418000    1.1875019   -4.6700384    319.24618  0.063645571  0.064943104            1 
  419000    1.1546941   -4.6328042    320.38271  0.063719712  0.064943701            2 
  420000    1.1900055   -4.6761016    321.25681   0.06374143  0.064943968            3 
  421000    1.1811734   -4.6475826    321.43969  0.063626226  0.064943389            4 
  422000    1.2116471   -4.6855345    322.24298  0.063634079  0.064942106            4 
  423000    1.1856896   -4.6206145    324.24495  0.063878043  0.064942148            2 
  424000    1.2083841   -4.5984859    325.83159  0.064039228   0.06494329            1 
  425000    1.1781092   -4.6247904     324.8258  0.063691333  0.064945278            3 
  426000    1.2201705   -4.6468034    326.36854  0.063843611  0.064944489            2 
  427000    1.2002824   -4.6525345    325.46226  0.063517225  0.064943804            3 
  428000     1.190729   -4.6501179    327.58519  0.063782162  0.064943468            1 
  429000    1.2045929   -4.6367382    328.77245  0.063864112  0.064942651            4 
  430000    1.1585376   -4.6483068    328.94244  0.063748535  0.064941379            2 
  431000    1.2003569   -4.6440103    330.00039   0.06380518  0.064940083            4 
  432000     1.168245   -4.6739487    328.00592  0.063272747   0.06493587            1 
  433000    1.1709581   -4.6435781    331.02798  0.063708233  0.064931403            3 
  434000    1.1936527   -4.6273127    332.08574  0.063764543  0.064928201            3 
  435000    1.1742594   -4.6362668    331.24549  0.063456991  0.064925072            1 
  436000    1.1539389   -4.6536258    331.93059  0.063442391  0.064921064            1 
  437000    1.1883371   -4.6534707     332.7638  0.063456103  0.064916008            1 
  438000    1.1868622   -4.6719007     333.5174  0.063454604  0.064911998            4 
  439000    1.1663716   -4.6374118    335.81183  0.063745602   0.06490839            2 
  440000     1.180883   -4.6665447    336.56648  0.063743652  0.064906417            4 
  441000    1.1637192    -4.657007     336.3808   0.06356402  0.064903601            2 
  442000    1.1795985   -4.6548309    338.29885  0.063781834  0.064901301            4 
  443000    1.1905554   -4.6768263    337.67459  0.063520426  0.064898174            3 
  444000    1.1886573   -4.6801494    340.12624  0.063837508  0.064893875            2 
  445000     1.198108   -4.6764916    338.52532  0.063394255   0.06488936            2 
  446000    1.1741565   -4.6346105    340.01537  0.063530525  0.064885311            3 
  447000    1.2118288    -4.674379     340.5948   0.06349642  0.064880764            2 
  448000    1.1678569   -4.6692731    341.24649  0.063475909  0.064875338            1 
  449000    1.2015987   -4.6506553    342.63041   0.06359139  0.064872993            2 
  450000    1.1809541   -4.6646717    342.70463  0.063463821  0.064867936            2 
  451000    1.1550982    -4.676823    343.57282  0.063483522  0.064863549            3 
  452000    1.1443801   -4.6887727    344.63452  0.063538813   0.06485754            2 
  453000    1.1914988    -4.648066    345.94272  0.063639206  0.064852524            1 
  454000    1.1590804   -4.6306144    345.26439   0.06337452  0.064848088            1 
  455000    1.1666631   -4.6700248    346.11545  0.063391108  0.064843373            2 
  456000    1.1851588   -4.6432893    348.03955  0.063603719  0.064838578            1 
  457000    1.1896967   -4.6461488    347.77619  0.063416519  0.064832474            2 
  458000    1.1837894   -4.6533722    345.85546  0.062928577  0.064825397            1 
  459000    1.1784603   -4.6331556    348.70146  0.063308181  0.064818005            2 
  460000    1.1624802    -4.698689    348.53088  0.063139652  0.064809562            4 
  461000    1.1706613   -4.6529946    349.62752  0.063200925  0.064801876            2 
  462000    1.1747628   -4.6420466    351.52522  0.063406424  0.064792746            2 
  463000    1.1651021   -4.6444807    352.86992  0.063511505  0.064784574            2 
  464000    1.1822751   -4.6852026    352.01238  0.063220613  0.064775343            3 
  465000    1.2029424   -4.6645472    353.25831  0.063307941  0.064765608            1 
  466000    1.1792079   -4.6560876     352.1894  0.062980937  0.064756687            1 
  467000    1.1723211    -4.676147    354.15134   0.06319617  0.064746931            2 
  468000    1.1903755   -4.6665834    354.50066  0.063123336  0.064738105            3 
  469000    1.1941521   -4.6627615    355.58126  0.063180749  0.064730268            1 
  470000    1.1765089   -4.6918376    356.48505  0.063206568  0.064723123            2 
  471000    1.1736681     -4.67199    357.15237   0.06319044  0.064716437            2 
  472000    1.1811355   -4.6159981    359.91996  0.063545191  0.064710034            2 
  473000    1.1763012   -4.6465232    359.96519  0.063418815  0.064703724            4 
  474000    1.1831519   -4.6530222    360.10736  0.063310014   0.06469648            1 
  475000    1.1545513   -4.6583291     360.4916  0.063244141  0.064690803            4 
  476000    1.1911469   -4.6518944    359.45538  0.062929864  0.064684158            4 
  477000    1.1623067   -4.6533181    361.81197  0.063209639  0.064676793            2 
  478000    1.1865537   -4.6726498    362.18574  0.063142562  0.064669251            3 
  479000    1.1592512     -4.66819     364.6991     0.063448  0.064661899            2 
  480000    1.1633417   -4.6573975    362.57184  0.062946499  0.064655173            3 
  481000    1.1611176   -4.6588872    364.34443  0.063122736  0.064647388            2 
  482000    1.1437543   -4.6612915    365.71437  0.063228625  0.064640827            3 
  483000    1.1871553   -4.6498501    366.59941  0.063250416  0.064634112            1 
  484000    1.1638155   -4.6623166    368.07785  0.063374285  0.064626794            2 
  485000    1.1882259    -4.654941    367.18396  0.063090028  0.064619336            1 
  486000    1.1591984   -4.6867152    368.82299  0.063241254  0.064611807            3 
  487000    1.2333019   -4.6756818    369.11687  0.063161682  0.064605453            3 
  488000    1.1712615   -4.6889167    368.54821  0.062935145  0.064597792            2 
  489000    1.1773194   -4.6493734    370.59287  0.063154885  0.064589856            2 
  490000     1.161635     -4.66636     370.7303  0.063049371  0.064582497            2 
  491000    1.1654501   -4.6650043    373.31016  0.063358818  0.064575199            3 
  492000    1.1490991   -4.7309522    370.77133  0.062800022  0.064568452            5 
  493000    1.1689312    -4.657632    372.66779  0.062993203  0.064561001            4 
  494000    1.1917437   -4.6715265    375.11159  0.063277934  0.064554329            4 
  495000    1.1657443   -4.6740183    374.61229  0.063066043  0.064549002            2 
  496000    1.1650251   -4.6803884    375.96187  0.063165636  0.064543916            2 
  497000    1.1769097    -4.637467    376.76132  0.063172589  0.064537232            1 
  498000    1.1727447   -4.6651977    377.10918  0.063103946   0.06453027            2 
  499000    1.1681212   -4.6980681    377.34057  0.063016128  0.064524233            2 
  500000    1.1639949   -4.6615924    379.11153  0.063185256  0.064516706            2 
  501000    1.1678453   -4.6748523    380.34586  0.063264448   0.06451082            3 
  502000    1.1834838   -4.7220794    381.07938  0.063260188  0.064505013            2 
  503000    1.1655522   -4.6980956    380.22927  0.062993584  0.064498067            3 
  504000     1.186335   -4.6499566    382.15648  0.063187249   0.06449258            3 
  505000     1.182666   -4.6538725    384.48555   0.06344646  0.064486452            3 
  506000    1.1771901   -4.6803944    381.95413  0.062904172   0.06448042            2 
  507000    1.1935819    -4.668323    384.07971  0.063129473  0.064473844            1 
  508000    1.1527732   -4.6736098    384.32722  0.063045803  0.064466585            1 
  509000     1.175454    -4.672437    385.47981  0.063110643  0.064459795            3 
  510000    1.1333533   -4.6840662    383.98918   0.06274333  0.064453183            4 
  511000    1.1421569   -4.6723646    386.45854  0.063023246   0.06444443            3 
  512000    1.1737261   -4.6581782    386.95625   0.06298116  0.064437227            2 
  513000    1.1893726    -4.692697    387.44734  0.062938165  0.064429588            2 
  514000    1.1741687   -4.7307957    388.15997  0.062931253  0.064420359            3 
  515000    1.1966902   -4.6724495    387.41603  0.062688679  0.064410316            3 
  516000    1.1832288   -4.6785257    389.43202  0.062892768  0.064401116            5 
  517000    1.1714218   -4.7081578    388.99957  0.062701413   0.06439069            4 
  518000     1.152563   -4.7067579    389.99333   0.06274024   0.06438088            2 
  519000     1.181149   -4.6780772    391.25292  0.062821599  0.064370249            3 
  520000    1.1588676   -4.6938074    390.42818  0.062568619  0.064359934            1 
  521000    1.1626714   -4.6967899    391.57167  0.062631425   0.06435034            2 
  522000    1.1792736   -4.6908252    393.02604   0.06274362  0.064340649            2 
  523000    1.1888239   -4.7011444    394.30537  0.062827497  0.064331912            3 
  524000    1.1636787   -4.6552061    395.70909  0.062930835  0.064323077            5 
  525000    1.1711969   -4.6906961    394.91494  0.062684911   0.06431268            8 
  526000    1.2002336   -4.6964582    395.83474  0.062711461  0.064301661            2 
  527000      1.16571   -4.6998468    395.05804  0.062469646  0.064290861            9 
  528000    1.1694075   -4.7101742    397.44853  0.062728619  0.064280626            2 
  529000    1.1590108   -4.6676314    396.84033   0.06251423  0.064269528            4 
  530000    1.1636645   -4.6591031    398.43661  0.062647266  0.064256869            2 
  531000    1.1563661   -4.6865458    399.78691  0.062741198    0.0642461            1 
  532000     1.178817   -4.6700289     398.3213  0.062393687  0.064235044            4 
  533000    1.1766964   -4.6555759    401.49454  0.062772755  0.064225922            2 
  534000    1.1819905    -4.658865    399.85388   0.06239917  0.064216604            3 
  535000    1.1668429   -4.6415044    403.73908  0.062887708  0.064206641            2 
  536000    1.1962622   -4.6578395    402.29845  0.062546401  0.064196911            2 
  537000    1.1535503   -4.6641637    403.41998  0.062603969  0.064186996            5 
  538000    1.1594584   -4.6940829    403.74328  0.062537682  0.064177538            3 
  539000    1.1572383   -4.6704114    406.35428  0.062825338  0.064168147            1 
  540000    1.1523084   -4.6703885     406.6691  0.062757577  0.064158476            5 
  541000    1.1382137   -4.6898714    406.98476  0.062690196  0.064148181            2 
  542000    1.1649436   -4.7004125     408.4094  0.062793573  0.064139376            1 
  543000    1.1778392   -4.6543963    408.64651   0.06271432  0.064129768            2 
  544000    1.1413235   -4.6777947    409.17423  0.062679875  0.064120441            4 
  545000    1.1853166   -4.6582222    411.32992  0.062894483  0.064110751            2 
  546000     1.152127   -4.6679907    410.90368  0.062714236   0.06410046            2 
  547000    1.1532174   -4.6744912    411.60983  0.062707165  0.064091126            4 
  548000    1.1499063   -4.6662565    413.09149  0.062818049  0.064080189            2 
  549000    1.1590782   -4.6871385    411.63127  0.062481977  0.064069486            4 
  550000    1.1662118   -4.6649856    412.52125   0.06250322  0.064058598            8 
  551000    1.1852958   -4.6872687    413.87758  0.062594915  0.064048289            4 
  552000    1.1576105   -4.6865174    414.35634  0.062553795  0.064037133            1 
  553000    1.1485714   -4.6559209    417.10752  0.062855262  0.064027548            3 
  554000    1.1435223   -4.6713289    418.01142   0.06287777  0.064017846            3 
  555000    1.1303945    -4.695831    418.30878  0.062809126  0.064009378            1 
  556000    1.1562209   -4.6855525    418.88365  0.062782321   0.06400117            1 
  557000    1.1740852   -4.7077192    419.16095  0.062711094  0.063993945            3 
  558000     1.174975   -4.7098488    419.81916  0.062697007  0.063986301            2 
  559000    1.1585135   -4.6821372    421.84347  0.062886623  0.063979052            4 
  560000    1.1883678   -4.6851072    422.45917  0.062865948  0.063974506            1 
  561000    1.1688295    -4.692098    421.27812  0.062578449  0.063968202            2 
  562000    1.1794874    -4.674309    423.08983   0.06273574  0.063961276            3 
  563000    1.1596761   -4.6927147    421.76153  0.062427698  0.063954181            2 
  564000    1.1598463   -4.6518048    425.39736   0.06285422  0.063947005            2 
  565000    1.1695058    -4.687714    425.36719  0.062738523  0.063938959            2 
  566000    1.1533034   -4.6485207    426.83242  0.062843407   0.06393144            2 
  567000    1.1576771     -4.68467    427.04099  0.062763227  0.063922825            4 
  568000    1.1806019   -4.6928799      426.491  0.062572036  0.063914281            3 
  569000    1.1653869   -4.6901857    426.68143  0.062489957  0.063904844            3 
  570000    1.1277357   -4.6881139     428.9304  0.062709123  0.063896471            1 
  571000     1.151973    -4.679971    427.51815  0.062393191  0.063887329            3 
  572000    1.2027332   -4.6819221    429.54041   0.06257873  0.063877481            7 
  573000    1.1709693     -4.66848    430.17229  0.062561415   0.06386875            2 
  574000    1.1758669   -4.7027157    429.51792  0.062357422  0.063859495            3 
  575000    1.1550369   -4.7020302    431.77699  0.062576376  0.063850611            3 
  576000    1.1674584   -4.6751186    432.18148  0.062526256  0.063842605            3 
  577000    1.1669538   -4.7156942    434.13503  0.062700034  0.063833678            2 
  578000    1.1663659   -4.6899087     433.8284  0.062547348  0.063824878            1 
  579000    1.1579754   -4.7000169    434.82252  0.062582401   0.06381521            3 
  580000    1.1625156   -4.6534715    435.38769  0.062555703  0.063806531            2 
  581000      1.18943     -4.69811    437.49857  0.062750799  0.063798415            3 
  582000    1.1643626   -4.7022233    435.90195  0.062414369  0.063790893            5 
  583000    1.1270759   -4.7157565    437.44132  0.062527347  0.063782334            1 
  584000    1.1722168   -4.6903839    437.85046  0.062478661  0.063774471            2 
  585000    1.1523734   -4.6881501    438.71196  0.062494581  0.063767425            2 
  586000    1.1566078   -4.7246842    437.38799  0.062199657  0.063758105            1 
  587000    1.1309005   -4.6958338    438.47593  0.062248145  0.063749521            2 
  588000    1.1634964   -4.6770615    440.94528  0.062492245   0.06374116            3 
  589000    1.1655005   -4.7146979     441.8912  0.062519978  0.063732545            4 
  590000    1.1758158   -4.6726119    443.92601  0.062701414  0.063723849            4 
  591000    1.1766047   -4.7007386    443.22281  0.062496166  0.063715515            3 
  592000      1.16575   -4.6980256    443.37096  0.062411452  0.063707515            3 
  593000    1.1659502   -4.7022311    445.63941  0.062624987  0.063700086            1 
  594000    1.1701987   -4.6771459    445.78419   0.06253987  0.063691402            2 
  595000    1.1581845   -4.7362941    445.38774  0.062379235  0.063682706            2 
  596000    1.1496066   -4.6955019    446.19599  0.062387582  0.063674596            5 
  597000    1.1674725    -4.700421    447.24353  0.062429303  0.063666304            4 
  598000    1.1454654   -4.7013867    446.06737  0.062161004   0.06365763            4 
  599000     1.157595   -4.6898976    449.42521  0.062524376  0.063648445            2 
  600000    1.1421551   -4.6867241     450.9849  0.062636791  0.063640538            3 
  601000    1.1317837   -4.6667677    449.72489  0.062357861  0.063631497            2 
  602000     1.156062   -4.6793699    450.83709  0.062408235  0.063622273            3 
  603000    1.1597519   -4.7206235     449.8896  0.062173798  0.063612801            2 
  604000    1.1550339   -4.6763228    451.42731  0.062283017  0.063602168            3 
  605000    1.1684597   -4.6817756      451.068  0.062130578  0.063592271            4 
  606000     1.146839   -4.6884285    452.60197  0.062238995  0.063582263            3 
  607000    1.1510871   -4.6987169    452.30731  0.062096006   0.06357041            5 
  608000    1.1626671   -4.6886197    452.47287  0.062016566  0.063558652            3 
  609000    1.1412071   -4.7128448    452.98369  0.061984632  0.063547501            4 
  610000    1.1890051   -4.6927356    454.15683  0.062043283  0.063536625            2 
  611000    1.1353864   -4.6881074     455.6793  0.062149387  0.063525592            2 
  612000    1.1451663   -4.6908798    455.28745  0.061994478  0.063513861            2 
  613000    1.1699306   -4.6810859    457.26673  0.062162416  0.063501962            2 
  614000    1.1709035   -4.7291502    454.93303  0.061744439  0.063491133            3 
  615000    1.1680357   -4.6960377    456.08788  0.061800526  0.063479982            4 
  616000    1.1532891   -4.7118571    457.44078  0.061883222  0.063467712            2 
  617000    1.1510348    -4.738682    457.10432  0.061737482  0.063455671            3 
  618000    1.1603691   -4.7052281    458.20042  0.061785386  0.063441779            4 
  619000     1.137106   -4.6873493    459.38109   0.06184452  0.063428227            2 
  620000    1.1390812   -4.7500048    457.12002  0.061440863  0.063413611            2 
  621000    1.1425125   -4.6832867    459.44575  0.061654019  0.063398983            3 
  622000    1.1879773   -4.7164503    460.31513  0.061671374  0.063384613            6 
  623000    1.1553512   -4.7199418    459.54929  0.061469943  0.063370165            3 
  624000    1.1325439    -4.738307    461.44585  0.061624712  0.063355011            6 
  625000    1.1587417   -4.6880291    462.29184  0.061638913  0.063340822            2 
  626000    1.1811965   -4.7303141     462.4199  0.061557495  0.063325697            2 
  627000    1.1673274   -4.7143576     461.3452  0.061316481  0.063310433            2 
  628000    1.1305677    -4.690163    464.64174  0.061656282  0.063295013            4 
  629000    1.1486045   -4.7071513    464.92857   0.06159626  0.063280034            1 
  630000    1.1608167   -4.7007407    464.25723  0.061409686  0.063264707            2 
  631000    1.1372895   -4.7194161    463.14089  0.061164935  0.063249836            2 
  632000    1.1355234   -4.7128048    465.75625  0.061413008  0.063234723            3 
  633000    1.1409203   -4.7040497    468.52668  0.061680711  0.063220161            3 
  634000     1.139968   -4.6831396    468.53759  0.061584857  0.063205314            3 
  635000    1.1445125   -4.6990263    470.18581  0.061704174  0.063191595            1 
  636000      1.14773   -4.7205171    468.16875  0.061342865  0.063176457            4 
  637000    1.1506848   -4.7312394    465.84529  0.060942608  0.063160197            6 
  638000    1.1487413   -4.7236255     469.2091  0.061286455  0.063144533            1 
  639000    1.1477794   -4.7127685    470.26681  0.061328483  0.063129431            2 
  640000    1.1456168   -4.7182529    469.77278   0.06116833  0.063113881            2 
  641000    1.1581526   -4.7074144    472.13157  0.061379559  0.063097871            2 
  642000    1.1417487   -4.7107699    473.63666  0.061479317  0.063082963            4 
  643000    1.1447267   -4.7269343    472.83392  0.061279668  0.063067729            4 
  644000     1.128566   -4.7150641     475.0012  0.061464959  0.063052096            4 
  645000    1.1552913   -4.7003287    474.34318  0.061284649  0.063036012            3 
  646000    1.1490669   -4.6890048    475.79503  0.061377067  0.063020939            1 
  647000    1.1483018   -4.7049678    477.35123  0.061482641  0.063006076            6 
  648000    1.1736638   -4.6825611    478.60443  0.061548923  0.062992449            5 
  649000    1.1427765   -4.7449643    477.17028  0.061269938  0.062978717            2 
  650000    1.1286086   -4.7172561    477.68702  0.061241926   0.06296416            2 
  651000    1.1435159   -4.7321212    478.92551  0.061306389   0.06294963            3 
  652000     1.144882   -4.6958997    480.44727  0.061406859  0.062935637            4 
  653000    1.1598925   -4.7004756     479.7457   0.06122329  0.062921639            2 
  654000    1.1487061   -4.7186698    482.30883  0.061456272   0.06290795            4 
  655000    1.1570002   -4.7437544    480.38597  0.061117808  0.062893431            3 
  656000    1.1342383   -4.7292692     482.8549  0.061338275  0.062879214            2 
  657000    1.1281098   -4.7063895    482.59023  0.061211343  0.062865146            3 
  658000    1.1490973   -4.6783671    485.20914  0.061449992  0.062851874            2 
  659000    1.1584353   -4.7060964    485.25033  0.061361954  0.062837742            1 
  660000    1.1364987   -4.7414756    484.61397  0.061188633  0.062824387            4 
  661000    1.1590929   -4.7410293    485.20413  0.061170465  0.062810407            1 
  662000    1.1342881    -4.699449    486.86574  0.061287228  0.062796831            2 
  663000    1.1519494   -4.7243389    487.07666  0.061221299   0.06278463            4 
  664000    1.1490877   -4.7252106    488.67992  0.061330311  0.062771879            4 
  665000    1.1434039   -4.7222058    489.25976  0.061310747  0.062759599            2 
  666000    1.1593485   -4.7042871    491.59475  0.061510855  0.062746604            1 
  667000    1.1429299   -4.7496357    489.94818  0.061212916  0.062734107            3 
  668000    1.1598751   -4.6974066     492.3201  0.061417177  0.062721923            5 
  669000    1.1547203   -4.7547296    490.94419  0.061153984  0.062709075            4 
  670000    1.1422398   -4.7061009    494.00601  0.061443533  0.062697577            2 
  671000    1.1564208    -4.682988    494.56772  0.061421723  0.062685883            2 
  672000    1.1343117   -4.7356347    494.12931  0.061275956  0.062674553            3 
  673000    1.1558442   -4.7534944    495.62085  0.061369595  0.062664082            2 
  674000    1.1430914   -4.7065957    499.62523  0.061773644  0.062654399            6 
  675000    1.1229348   -4.7020841    501.46509  0.061909271  0.062646185            1 
  676000    1.1417062   -4.6688323    502.21655  0.061910325  0.062637809            2 
  677000    1.1279057   -4.7156937    500.91806  0.061659042  0.062629785            3 
  678000    1.1300186   -4.7296128     502.0314  0.061704941  0.062621165            3 
  679000    1.1352087   -4.7044325     501.4597    0.0615439  0.062612508            2 
  680000     1.167208   -4.7479066    501.64134  0.061475654  0.062602094            9 
  681000    1.1654627   -4.6847586    502.38663  0.061476583  0.062593194            4 
  682000    1.1469388   -4.6880637    503.01901  0.061463711  0.062583435            3 
  683000    1.1388098    -4.725207    502.81823  0.061349223  0.062573161            2 
  684000    1.1433347   -4.6915564    505.42132  0.061576671  0.062563253            2 
  685000    1.1362718   -4.7777141    503.35113  0.061234931  0.062552624            1 
  686000    1.1296707   -4.6904851     506.0651  0.061475352  0.062543109            2 
  687000    1.1704063   -4.7158461    508.83073   0.06172134  0.062534127            3 
  688000     1.168822   -4.7687658    506.25931  0.061320169  0.062524827            1 
  689000    1.1394564   -4.7301242    507.92931  0.061433153  0.062514431            2 
  690000    1.1461407   -4.6999944    509.51232  0.061535304  0.062504645            3 
  691000    1.1411819   -4.7004468    509.87109  0.061489519  0.062494184            2 
  692000    1.1567075   -4.6939156    511.72976   0.06162449  0.062483964            3 
  693000    1.1262511    -4.687299    510.97111  0.061444337  0.062473999            2 
  694000    1.1231719    -4.742622    510.98658  0.061357659   0.06246379            9 
  695000    1.1466327   -4.7144041    515.31529  0.061788404  0.062454512            4 
  696000    1.1134846   -4.7819536    509.91773  0.061053368  0.062445041            2 
  697000    1.1353983   -4.7141454    515.39836  0.061621038  0.062434376            1 
  698000    1.1489786    -4.740237    514.14992  0.061383706  0.062425005            2 
  699000    1.1734133   -4.7049324    516.41159  0.061565521  0.062415409            2 
  700000    1.1349858    -4.705601    515.78176  0.061402591  0.062406098            2 
  701000    1.1447647   -4.7091771    518.80279  0.061674131  0.062397013            2 
  702000    1.1455288   -4.7309913    518.60369  0.061562641  0.062388491            1 
  703000    1.1227035   -4.7085657    517.70204  0.061368188  0.062379311            4 
  704000    1.1501036   -4.7459816    516.64256  0.061155606  0.062368908            3 
  705000    1.1534064   -4.7363895    518.55521  0.061294942  0.062358882            2 
  706000    1.1388548   -4.7310314    520.04556  0.061384037  0.062348799            5 
  707000    1.1325843   -4.7036447    519.50043  0.061232959  0.062339473            2 
  708000    1.1639412   -4.6912393    521.59347  0.061392828  0.062329226            2 
  709000    1.1590674   -4.6801002    525.67555  0.061786031  0.062319913            2 
  710000    1.1534587   -4.7138805    522.75314  0.061356002  0.062310769            3 
  711000     1.146437   -4.7424976    521.60771  0.061135456   0.06230137            4 
  712000    1.1655047   -4.7299097    524.13303  0.061345157  0.062292441            3 
  713000    1.1812053    -4.776885    522.57721   0.06107728  0.062283111            3 
  714000    1.1399009   -4.7175231    526.12988  0.061406381  0.062273528            2 
  715000     1.136413   -4.7527007    522.85699  0.060939043  0.062264513            3 
  716000    1.1396052   -4.7098259    526.97895  0.061333676  0.062254675            4 
  717000    1.1456902   -4.7039494    529.42554  0.061532489  0.062246004            4 
  718000    1.1226642    -4.737532    526.13938  0.061065387  0.062235743            5 
  719000    1.1247347   -4.7517596    526.54361  0.061027308  0.062226744            2 
  720000     1.154715   -4.7370947    529.27967  0.061259222  0.062216734            3 
  721000    1.1215321   -4.7632332    528.34181  0.061065858  0.062207231            3 
  722000    1.1465395   -4.7410906    529.39824  0.061103214  0.062197766            2 
  723000    1.1392015   -4.7250466    532.33189  0.061356834  0.062188596            2 
  724000    1.1506192   -4.7401865    532.12633  0.061248427  0.062178788            2 
  725000    1.1392943   -4.7392505    532.89123  0.061251865  0.062168965            3 
  726000    1.1471631   -4.7321763    532.09261  0.061075828  0.062159463            2 
  727000    1.1377917   -4.7085064     535.4296  0.061374324  0.062150052            6 
  728000     1.154266    -4.751314    535.80846  0.061333386  0.062139878            4 
  729000    1.1180781   -4.7302834    534.18822   0.06106404   0.06213106            2 
  730000    1.1312738   -4.7344722    535.58734  0.061140108  0.062121172            2 
  731000    1.1215459   -4.7213716    535.48649  0.061044972  0.062111719            3 
  732000    1.1264358    -4.765821    535.45876  0.060958419  0.062101189            2 
  733000    1.1316878   -4.7513066    537.58974  0.061117524   0.06209041            3 
  734000    1.1500948   -4.7554525    537.06997  0.060975247  0.062080859            2 
  735000    1.1445458   -4.7625989    536.03264  0.060774676  0.062070622            4 
  736000    1.1445092   -4.7529427    538.59813  0.060982579  0.062060312            3 
  737000    1.1279098   -4.6973505    541.02265  0.061173977  0.062050827            1 
  738000    1.1416271    -4.777676    539.21891   0.06088741  0.062040797            4 
  739000    1.1645946   -4.7064813    541.25759  0.061034911   0.06203069            5 
  740000    1.1353401   -4.7647631    542.07165  0.061044104   0.06201971            3 
  741000    1.1334103     -4.75544    541.95154  0.060948216  0.062009603            2 
  742000    1.1452123   -4.7077073    546.38734  0.061364256  0.062000192            1 
  743000    1.1538877   -4.7026783    546.12555  0.061252304  0.061990505            2 
  744000    1.1391485   -4.7544552    545.21607  0.061068108  0.061980306            2 
  745000    1.1540091   -4.7543067    546.70179  0.061152326  0.061970626            2 
  746000     1.135196   -4.7342439    545.77473  0.060966793  0.061961921            1 
  747000    1.1329892   -4.7392632    547.19513  0.061043633  0.061952043            2 
  748000    1.1093727   -4.7498487    547.25416  0.060968601  0.061942974            5 
  749000    1.1301388   -4.7490877    548.97792  0.061078986   0.06193296            3 
  750000    1.1157104   -4.7588897    546.85647   0.06076183  0.061922743            4 
  751000     1.133031   -4.7378668    548.00902  0.060808813  0.061913093            3 
  752000    1.1196735   -4.7197514    552.58704  0.061235265  0.061902986            1 
  753000    1.1298986   -4.7276061     551.4789  0.061031308  0.061892448            2 
  754000    1.1213482   -4.7319129    550.64934   0.06085868  0.061881511            3 
  755000    1.1595749   -4.7427424    550.47101   0.06075839  0.061870849            2 
  756000    1.1282464   -4.7305632    550.86931  0.060721925  0.061859997            2 
  757000     1.136703   -4.7279981     552.3282  0.060802312   0.06184949            1 
  758000    1.1251891   -4.7457315    553.93336  0.060898566  0.061838414            4 
  759000    1.1361781   -4.7300019    554.28118  0.060856519  0.061827562            2 
  760000    1.1512307   -4.7421612    553.17513  0.060655168  0.061816902            2 
  761000    1.1383607   -4.7289305    555.75146  0.060857584  0.061807098            3 
  762000     1.110072   -4.7065958    554.65571  0.060657886  0.061796834            4 
  763000    1.1305451   -4.7407637    556.12727  0.060739108  0.061786268            2 
  764000    1.1044663   -4.7860891    553.61395  0.060385466  0.061775962            6 
  765000     1.098721   -4.7018389    560.52812  0.061059708  0.061765202            2 
  766000    1.1305866   -4.7604396    557.85698  0.060689402  0.061754759            2 
  767000    1.1074421   -4.7715433    559.76364  0.060817431  0.061744197            2 
  768000    1.1308352   -4.7364955    561.72205  0.060950744  0.061735116            4 
  769000    1.1415867   -4.7578391    560.55563  0.060745084  0.061725744            3 
  770000    1.1387371   -4.7754043    561.75911   0.06079644  0.061716112            2 
  771000     1.151131   -4.7390923    563.45185  0.060900545  0.061706439            2 
  772000    1.1477467   -4.7246475     563.4086  0.060816991  0.061697004            1 
  773000    1.1235273   -4.7501554    563.97533   0.06079941  0.061687444            2 
  774000    1.1239265   -4.7618447    564.04164  0.060727997   0.06167739            2 
  775000    1.1137249   -4.7434134    564.82839  0.060734235  0.061667467            7 
  776000    1.1147308   -4.7797482    563.45493  0.060508476  0.061656375            5 
  777000     1.118688   -4.7364127    565.67482  0.060668685  0.061645917            2 
  778000    1.1356972   -4.7304656    565.55736  0.060578124  0.061635297            3 
  779000    1.1489776   -4.7401106    569.49239  0.060921308  0.061625039            2 
  780000     1.135561   -4.7566852    567.39745  0.060619386  0.061614719            3 
  781000    1.1073279   -4.7531741    567.66897   0.06057074  0.061603926            3 
  782000    1.1392458   -4.7542108    570.90202  0.060837811  0.061593496            2 
  783000    1.1218602   -4.7805161    566.97378  0.060342037  0.061582481            3 
  784000    1.1370594   -4.7629091     570.5055  0.060640465  0.061572411            9 
  785000    1.1211633   -4.7384507    571.41915  0.060660207  0.061562481            2 
  786000    1.1230556   -4.7735591    572.52525  0.060700302   0.06155266            4 
  787000      1.12237   -4.7276982    574.15163  0.060795387  0.061542837            2 
  788000    1.1224052   -4.7391142    574.51187  0.060756331  0.061533715            2 
  789000    1.1102585   -4.7422497    575.05249  0.060736427  0.061523617            4 
  790000    1.1313918    -4.741832    575.49951    0.0607067  0.061513975            3 
  791000    1.1240255   -4.7420389    578.07692  0.060901488   0.06150512            2 
  792000    1.1135787   -4.7691515    575.87178  0.060592569  0.061496278            4 
  793000    1.1091448   -4.7612464    576.32549  0.060563839  0.061486623            3 
  794000    1.1225228   -4.7824229    578.14236   0.06067825  0.061477175            4 
  795000    1.1462839   -4.7078997    580.39233   0.06083777  0.061467955            1 
  796000    1.1214369   -4.7310468    579.11065  0.060627162  0.061458704            3 
  797000     1.110411   -4.7905756     578.3751  0.060474184   0.06144919            2 
  798000    1.1172245   -4.7483904    580.69043  0.060640187   0.06143919            3 
  799000    1.1285489   -4.7582164     581.1551  0.060612756  0.061430457            5 
  800000    1.1160649   -4.7064337    582.73595  0.060701661  0.061421469            1 
  801000    1.1306355   -4.7786596    580.43392  0.060386383  0.061412721            2 
  802000    1.1070233   -4.7026788    583.14326  0.060592608  0.061403511            4 
  803000    1.1336818   -4.7352033    585.59426  0.060771509  0.061393843            4 
  804000    1.1166696   -4.7504043    584.33288  0.060565182  0.061383723            2 
  805000    1.1356385   -4.7347085    585.13446  0.060572926  0.061373367            2 
  806000    1.1154454   -4.7603893    586.69178  0.060658786  0.061363763            4 
  807000    1.1212576    -4.741295    585.58141   0.06046896  0.061353551            3 
  808000    1.1196131    -4.770854    585.99678  0.060436961  0.061342916            1 
  809000     1.087084   -4.7629334    586.92814  0.060458193  0.061332588            2 
  810000    1.1095185   -4.7902073    585.50362  0.060236998   0.06132192            4 
  811000    1.1007253   -4.7699535    587.69783  0.060388186  0.061311518            2 
  812000    1.1075778   -4.7159118    591.46502  0.060700433  0.061302184            1 
  813000    1.1474094   -4.7351403     589.3503   0.06040901  0.061292665            4 
  814000    1.1016152   -4.7836496    589.34212   0.06033396  0.061282891            2 
  815000    1.1354771   -4.7399179    588.87679  0.060212351  0.061272793            2 
  816000    1.1138675   -4.7582778    589.18216  0.060169747  0.061263057            2 
  817000    1.1144777   -4.7352025    592.00392  0.060383917  0.061253637            2 
  818000    1.1018547   -4.7624171    594.89603   0.06060473  0.061244709            5 
  819000    1.1388119   -4.7507162    593.82482  0.060421736   0.06123483            3 
  820000    1.1522869   -4.7498889    593.56733  0.060321883  0.061225365            3 
  821000     1.090419   -4.7711002    594.95139  0.060388894  0.061216124            3 
  822000    1.1303188   -4.7607262    594.86464  0.060306634   0.06120691            4 
  823000    1.1185613   -4.7791551      596.505  0.060399453  0.061196809            3 
  824000    1.1267154   -4.7937281    595.16325  0.060190458  0.061186735            5 
  825000    1.0970528   -4.7465156    597.42477  0.060345936  0.061177181            2 
  826000     1.126366   -4.7441617     596.1572  0.060144996  0.061167672            1 
  827000    1.1039897   -4.7476884    596.87668  0.060144768  0.061157457            3 
  828000    1.1303135   -4.7467042    599.64682  0.060350928  0.061148245            1 
  829000     1.113828   -4.7542672    598.23532  0.060136241  0.061138872            4 
  830000    1.1415569    -4.777237    602.18917  0.060460761   0.06112898            2 
  831000    1.0992972   -4.7676743    599.26709  0.060094975  0.061119171            5 
  832000    1.0922805   -4.8177962    600.98103  0.060194414  0.061109622            3 
  833000    1.1042953   -4.7831272    602.52224  0.060276335  0.061100145            6 
  834000     1.139616   -4.7781946     603.8618  0.060337909  0.061090801            2 
  835000     1.146067   -4.7438733    605.56678  0.060435806  0.061081804            2 
  836000    1.0918298   -4.7812262     606.8788  0.060494298  0.061073419            2 
  837000    1.1157599   -4.7853676    603.02049  0.060037882  0.061064214            3 
  838000    1.1093006   -4.7663206    608.36484  0.060497697  0.061055772            3 
  839000    1.1245083   -4.7608365     608.0246  0.060391796  0.061047017            1 
  840000    1.1103706   -4.7469587    608.93766  0.060410482  0.061037957            1 
  841000    1.0989491   -4.7783165    606.43904  0.060091066  0.061028721            4 
  842000    1.1429357   -4.7686108    608.43354  0.060217097  0.061019148            3 
  843000    1.1065889   -4.7647516    607.19729  0.060023457  0.061009174            3 
  844000    1.1033348   -4.7757218    609.82354  0.060211644  0.060999794            2 
  845000    1.1240032    -4.800594    609.37733  0.060096384  0.060989887            3 
  846000    1.1302203   -4.8172421    608.72894   0.05996148  0.060980082            5 
  847000     1.115422    -4.802624    610.75288  0.060089815  0.060970521            3 
  848000    1.1427347   -4.7940711    612.01415    0.0601429  0.060961097            3 
  849000    1.1062769   -4.7943105    609.69309  0.059844238  0.060951154            5 
  850000    1.0942513   -4.7447072    614.30677  0.060226154  0.060941317            1 
  851000    1.1268872    -4.726879     614.4716  0.060171524  0.060931112            2 
  852000    1.1268764   -4.7756473    613.87655  0.060042698  0.060921558            5 
  853000    1.1111669   -4.7754619     613.3957  0.059925333   0.06091114            3 
  854000    1.1258054   -4.7379776    618.24867  0.060328715  0.060901251            2 
  855000    1.1211876   -4.7914956    615.69285   0.06000905  0.060890681            4 
  856000     1.104214    -4.742338    618.70568  0.060232251  0.060879817            1 
  857000    1.0951402    -4.749882    618.25997  0.060118628  0.060869622            3 
  858000    1.1028476   -4.7406104     617.2839  0.059953759  0.060859339            2 
  859000    1.1313197   -4.7759749    616.56338  0.059814065  0.060847834           12 
  860000    1.0927583   -4.8003684    615.59913  0.059651078   0.06083632            2 
  861000    1.1249462    -4.773632    617.57452  0.059772988  0.060824616            1 
  862000    1.1358205   -4.7876691    618.09044  0.059753523   0.06081335            2 
  863000    1.1007029   -4.7348616    620.92143   0.05995765  0.060802644            2 
  864000    1.1131146   -4.7645046     621.7177  0.059965056  0.060791873            2 
  865000    1.1289134   -4.7643997    621.41828  0.059866887  0.060780279            5 
  866000    1.1281722   -4.7951807    618.99192  0.059564272  0.060768591            4 
  867000    1.1153032   -4.7876236    620.96026  0.059684762  0.060756874            3 
  868000     1.102348   -4.7856179    622.49386  0.059763236  0.060745734            3 
  869000    1.1141826   -4.7827033    622.85547   0.05972914  0.060734432            4 
  870000    1.1124034   -4.7602845    623.01498  0.059675765  0.060723079            3 
  871000    1.0888411   -4.8077136    622.54877  0.059562645  0.060711596            1 
  872000    1.1112203   -4.7950414    623.26283  0.059562579  0.060700333            2 
  873000    1.1233054   -4.7819338    624.00072  0.059564788  0.060688722            4 
  874000    1.1129193   -4.7773915    624.07954  0.059504152  0.060677235            1 
  875000    1.1184208   -4.7659364    627.25658  0.059738722  0.060665923            2 
  876000    1.1199258   -4.7842645    625.63625  0.059516386  0.060654604            3 
  877000    1.1289349   -4.7649475    625.09142  0.059396752   0.06064287            2 
  878000    1.1121628   -4.8113011    623.96762   0.05922244   0.06063115            2 
  879000    1.1005892   -4.7568692    630.41349  0.059766163  0.060619582            5 
  880000    1.1405762   -4.7667301    628.21412  0.059489974  0.060608424            5 
  881000    1.1253563    -4.801907    627.79969  0.059383247  0.060597224            2 
  882000    1.0955969    -4.776349    629.78015  0.059503037  0.060585486            2 
  883000    1.1122673    -4.747221    633.22934  0.059761168  0.060574247            3 
  884000     1.111532   -4.7416582    631.66148  0.059545765  0.060562993            1 
  885000    1.1019104   -4.7607945     634.9692  0.059789943   0.06055157            2 
  886000    1.1226214   -4.7883175    631.31026  0.059378316  0.060540675            4 
  887000     1.098393   -4.7857754    634.79371  0.059638642  0.060529305            2 
  888000    1.1023095   -4.7766389    634.94649   0.05958582  0.060517957            3 
  889000    1.1238483   -4.7646784    635.26783  0.059548915  0.060506252            2 
  890000    1.1195808   -4.7447393    634.70223  0.059429048  0.060494606            3 
  891000    1.1208145   -4.7908284    636.76163  0.059554959  0.060482943            2 
  892000    1.1289227   -4.7887436    635.74874  0.059393567  0.060471805            3 
  893000    1.0916573   -4.7630782    637.57642  0.059497613  0.060460765            2 
  894000    1.0939138    -4.795238    637.39593  0.059414237  0.060448758            3 
  895000    1.1174711   -4.7665223    639.17136  0.059513162  0.060437369            3 
  896000    1.0999841    -4.793508     637.9422  0.059332422  0.060426067            4 
  897000    1.1150512   -4.7931338    639.42509   0.05940404  0.060414506            3 
  898000    1.1090491   -4.7623831    639.19836  0.059316849  0.060403341            2 
  899000    1.1026555   -4.8012528     641.2106  0.059437394  0.060392091            2 
  900000    1.1208564   -4.8272743    640.60389  0.059315175  0.060381006            2 
  901000    1.1120893   -4.7699408    643.31425  0.059500023  0.060370325            2 
  902000    1.1407256   -4.7747426    644.46525  0.059540397  0.060359603            2 
  903000     1.103152   -4.7884535     643.6672  0.059400812   0.06034861            2 
  904000      1.10193   -4.8033515    643.60777  0.059329624  0.060337458            2 
  905000     1.128527   -4.7707027    643.86078  0.059287364  0.060325779            1 
  906000    1.0868504    -4.790909    645.14258  0.059339825  0.060314894            1 
  907000    1.1235515   -4.7868654    644.31372  0.059198247  0.060303755            2 
  908000    1.1074409   -4.7863497    645.52175   0.05924392  0.060292132            2 
  909000    1.1117295   -4.7441164    647.17112  0.059329952  0.060280453            2 
  910000    1.1163803   -4.7674633    648.14452  0.059353894  0.060269171            4 
  911000    1.0958823    -4.811491    647.50346  0.059230101  0.060258256            2 
  912000    1.0859123   -4.7981183    649.75177  0.059370593  0.060246849            5 
  913000    1.0904917   -4.7603109    650.06966   0.05933458    0.0602354            4 
  914000    1.0959879   -4.7954049    650.27771  0.059288631   0.06022404            3 
  915000    1.0972895   -4.7863894    648.47282  0.059059455  0.060212546            1 
  916000    1.1052512   -4.7992989    649.14973  0.059056562  0.060200499            4 
  917000    1.0861323   -4.7651319    651.28984  0.059186645  0.060188508            2 
  918000     1.091034   -4.7930433    650.79702  0.059077434  0.060177194            3 
  919000    1.1249111    -4.809325    650.43073  0.058979936  0.060165787            4 
  920000    1.0996126   -4.7810686    652.19484   0.05907562  0.060154445            2 
  921000    1.1207536   -4.7942156     653.9053  0.059166241  0.060143565            3 
  922000    1.1231551   -4.7578019    654.85007  0.059187461  0.060131591            3 
  923000    1.1285977   -4.7624592    653.38206  0.058990796  0.060119854            4 
  924000    1.0910523   -4.8348989    652.08855  0.058810295  0.060107245            3 
  925000    1.1083709   -4.8232661    653.28772   0.05885475  0.060094329            3 
  926000    1.1271774   -4.7809957    655.98251  0.059033703  0.060081976            1 
  927000     1.075222   -4.7818627    657.43563   0.05910065  0.060069299            2 
  928000    1.1132293    -4.815119    655.68639  0.058879884  0.060057264            7 
  929000    1.0831136   -4.8111975    658.67409  0.059084508  0.060044912            6 
  930000    1.1073617   -4.7910725    656.45336  0.058821985  0.060031936            2 
  931000    1.1156184   -4.8110036    657.16048  0.058822098  0.060019578            2 
  932000    1.1043742   -4.8115954     658.7452  0.058900679  0.060007143            2 
  933000    1.1119079   -4.7999224    659.19901  0.058878083  0.059994621            2 
  934000    1.1032066   -4.8147615    658.80506  0.058779895  0.059982255            1 
  935000    1.1107983   -4.7876209     662.2972  0.059028271  0.059970135            2 
  936000    1.0885287   -4.7632058    664.37005  0.059149755  0.059957779            2 
  937000    1.1135285   -4.7913182    661.69687  0.058848886  0.059946148            2 
  938000    1.0850469   -4.8089174    662.80271  0.058884391  0.059934285            4 
  939000    1.1199079   -4.7877978    665.61517  0.059071279  0.059922743            2 
  940000     1.069213   -4.7849232     662.0271  0.058690346  0.059911101            5 
  941000    1.0977048    -4.780097    666.95357  0.059064255  0.059898786            1 
  942000    1.1285636   -4.8392048    665.76818   0.05889669  0.059886869            5 
  943000    1.0795766   -4.8204094    662.97817  0.058587678  0.059875004            4 
  944000    1.1182475   -4.8017821    665.68426    0.0587645  0.059862894            3 
  945000    1.0921406     -4.77444    666.02568  0.058732423  0.059850874            5 
  946000    1.0682362   -4.8171417    668.19853  0.058861745  0.059838395            2 
  947000    1.0967777   -4.8170104    666.83813  0.058679877  0.059826219            2 
  948000    1.1009521   -4.7948096    666.46293  0.058584997   0.05981238            3 
  949000    1.0881139    -4.822958    665.49515  0.058438281   0.05979869            3 
  950000    1.1030613   -4.8260969    667.01784  0.058510337  0.059785284            3 
  951000    1.0709881   -4.7833311    667.40946  0.058483128  0.059772587            2 
  952000      1.10255   -4.8134962    669.32746  0.058589588  0.059760053            2 
  953000    1.0997093   -4.8047155    668.98782   0.05849841  0.059747265            1 
  954000    1.1038079   -4.7965543    671.70887  0.058674779  0.059735071            3 
  955000    1.1013122   -4.7970894    670.70634  0.058525858  0.059723008            3 
  956000    1.1003462   -4.8274642    671.48633   0.05853263  0.059710527            3 
  957000    1.0978546   -4.8179775     671.6005  0.058481409   0.05969817            2 
  958000    1.0915762   -4.7583666    676.70324  0.058864235  0.059686007            1 
  959000    1.0980313   -4.7822362    675.33286  0.058683773  0.059673874            2 
  960000    1.1271857   -4.8107099    674.32192  0.058534889  0.059661731            1 
  961000    1.0818261    -4.776134    677.08491  0.058713572  0.059649174            2 
  962000    1.1134194   -4.8080637    672.92207  0.058291933  0.059636235            2 
  963000    1.1043874   -4.8079094    674.13463   0.05833633  0.059623181            2 
  964000    1.0848219   -4.8064439    674.20081  0.058281536  0.059610145            6 
  965000    1.0959986   -4.8026722    675.45042  0.058329051  0.059597323            2 
  966000    1.1146585   -4.8214633    677.77706  0.058469381  0.059584785            1 
  967000      1.09241   -4.8131942    676.09859   0.05826427  0.059571936            5 
  968000    1.0822629   -4.7923603    681.86221  0.058700259   0.05955957            3 
  969000    1.0902262   -4.8348051    678.88502  0.058383644  0.059546685            2 
  970000    1.0782737   -4.8188876    680.57858   0.05846895  0.059534363            1 
  971000    1.0956147   -4.8219307    679.96409  0.058355998  0.059521928            2 
  972000    1.0770209   -4.8089925    681.30114  0.058410592  0.059509651            3 
  973000      1.10751   -4.7706203    683.66864  0.058553326   0.05949726            1 
  974000    1.0921414   -4.7936137     685.8357  0.058678619  0.059484564            2 
  975000    1.0687555   -4.8257537    682.95031  0.058371821  0.059472178            2 
  976000    1.0808516   -4.8290701    684.67581  0.058459342  0.059459494            2 
  977000    1.1311615   -4.7855932    684.39012  0.058375138  0.059447065            4 
  978000    1.0943573   -4.7865722    687.78912  0.058605072  0.059435047            2 
  979000    1.0862021   -4.8092579    683.84592  0.058209561  0.059423139            4 
  980000    1.0961888   -4.8171502     684.5943  0.058213801  0.059410637            4 
  981000    1.1049276   -4.8025177    685.94714   0.05826938  0.059398212            2 
  982000    1.0761407   -4.8049411    687.80944  0.058368079  0.059385296            4 
  983000    1.0883117   -4.8264249    687.84889  0.058312045  0.059371999            3 
  984000    1.0806039   -4.8179726    686.82611  0.058166168   0.05935917            3 
  985000      1.09996     -4.81282    688.74029   0.05826906  0.059346372            2 
  986000    1.0771065   -4.8125443    686.81194  0.058046986  0.059332913            2 
  987000    1.0881712   -4.8099869    690.82742  0.058327205    0.0593193            1 
  988000    1.0967457   -4.8328559    686.43261  0.057897487    0.0593055            5 
  989000     1.105568    -4.815395    688.12041   0.05798116  0.059292087            2 
  990000    1.0891183   -4.8838142    686.29708  0.057769114  0.059278294            2 
  991000    1.0991715   -4.8212958    689.72554   0.05799912  0.059264207            3 
  992000    1.0861095   -4.8107611    689.55328  0.057926183  0.059250428            4 
  993000    1.0909632   -4.8102052    690.95608  0.057985572  0.059236313            3 
  994000    1.0953355   -4.8409052    691.08537  0.057938076    0.0592226            2 
  995000    1.0866618   -4.7789235    690.68845  0.057846604  0.059208701            2 
  996000     1.098057   -4.7843675    691.85228    0.0578859  0.059194277            3 
  997000    1.0976095   -4.7895885    695.13255  0.058102019  0.059180025            2 
  998000    1.0940863   -4.8036508    690.97673  0.057696788  0.059165593            3 
  999000     1.106704    -4.795731    693.34386  0.057836491  0.059151379            2 
 1000000    1.1054543   -4.7948398    691.36939  0.057614116  0.059137033            2 
 1001000    1.0896064   -4.8354234    693.21173  0.057709934  0.059122512            5 
 1002000    1.0824559   -4.8201685     697.5585  0.058013848  0.059108835            5 
 1003000    1.1141016   -4.8805371      693.252  0.057598206  0.059094336            2 
 1004000    1.0722312   -4.8322266    696.29373  0.057793304   0.05907969            1 
 1005000    1.1065032   -4.8035149    699.02307  0.057962112  0.059065423            2 
 1006000    1.0765251   -4.8243324    696.32222  0.057680767  0.059051411            2 
 1007000    1.0845167   -4.8217263    696.04522  0.057600564  0.059037162            2 
 1008000    1.0881493   -4.8177475    697.10857   0.05763133  0.059023015            3 
 1009000    1.1067871   -4.8524281    697.71641  0.057624414  0.059008502            6 
 1010000    1.0942532   -4.8087813    700.79676  0.057821515  0.058994506            2 
 1011000    1.1208061   -4.8017339    701.59617  0.057830215  0.058980213            9 
 1012000    1.1068175    -4.827422    698.86757  0.057548384   0.05896635            2 
 1013000    1.1033131   -4.8148914    701.39159  0.057699209  0.058952344            2 
 1014000    1.1020384   -4.8272711    702.39653  0.057724895  0.058938416            3 
 1015000    1.0867866   -4.8604284    701.20005   0.05756979  0.058924891            4 
 1016000    1.0772281   -4.8169892    702.89694  0.057652308  0.058910864            5 
 1017000    1.0719329   -4.7810854    706.55655  0.057895489  0.058897384            6 
 1018000    1.1092238   -4.8379316    704.98535  0.057709999  0.058884618            3 
 1019000    1.0912113   -4.8227884    705.03542   0.05765746  0.058871096            3 
 1020000    1.0939934   -4.8232584    707.71365  0.057819743  0.058857232            3 
 1021000    1.0841095   -4.8226598    708.01304  0.057787548   0.05884387            5 
 1022000    1.0690352   -4.8332458    706.94435  0.057643864  0.058830574            2 
 1023000    1.0875509   -4.8235549     710.2031  0.057852973  0.058817089            2 
 1024000    1.0905909   -4.8225978    707.34544   0.05756392  0.058803856            4 
 1025000    1.1249122   -4.8254203    708.17343  0.057575075  0.058790058            2 
 1026000    1.0947659    -4.825048    707.84388  0.057492193  0.058776041            2 
 1027000    1.0843941   -4.8103962     710.1771  0.057625535  0.058762307            3 
 1028000    1.0840462   -4.8260834    707.72521  0.057370721  0.058748089            3 
 1029000    1.0985348   -4.8338739    710.40265  0.057531799  0.058734397            2 
 1030000    1.1092228   -4.8084548    709.68801  0.057418124  0.058720569            3 
 1031000    1.0820908   -4.8071152    711.09387  0.057476064  0.058706195            5 
 1032000    1.0784563   -4.8265879    710.57228  0.057378253  0.058692149            3 
 1033000    1.0821635    -4.835422    712.40908  0.057470884  0.058678322            2 
 1034000    1.0820787   -4.8331877    710.13201  0.057231787   0.05866429            2 
 1035000    1.0748986   -4.8079727    714.57606  0.057534304  0.058650351            3 
 1036000    1.0916907   -4.8042472    717.46166   0.05771088  0.058636452            3 
 1037000    1.1007967   -4.8131959    716.37214  0.057567674  0.058622783            3 
 1038000      1.07752   -4.8175788    717.38853  0.057593813  0.058609774            3 
 1039000    1.0864379   -4.8191914    718.51542  0.057628763  0.058596325            2 
 1040000    1.0994399   -4.8072687    716.97335  0.057449788  0.058582629            3 
 1041000    1.0993418   -4.8176762    717.06456  0.057401902  0.058568984            5 
 1042000    1.0821848   -4.8637181    715.77874  0.057243981  0.058555311            1 
 1043000    1.0731562   -4.8483178    717.66419   0.05733974  0.058541659            5 
 1044000    1.1003999   -4.8412218    720.20328  0.057487491  0.058527923            3 
 1045000    1.0895109   -4.8481305    718.96581  0.057333797  0.058514107            2 
 1046000    1.0872435   -4.8414348    718.71735   0.05725919  0.058500793            3 
 1047000    1.0649535   -4.8186679    723.42159  0.057578923  0.058487377            2 
 1048000    1.0827374   -4.8079092     723.1521  0.057502552  0.058473951            4 
 1049000    1.0873032   -4.8581892    720.84514   0.05726447  0.058460582            2 
 1050000    1.0761852   -4.8548618    721.23058  0.057240522  0.058446909            2 
 1051000    1.0939393   -4.8552692    722.20097  0.057263001  0.058433337            2 
 1052000    1.0851248   -4.8192578    723.55055  0.057315474  0.058420019            3 
 1053000    1.0649504   -4.8465632    722.05278  0.057142512  0.058406159            2 
 1054000    1.0648738    -4.816833     725.7201   0.05737825  0.058392448            5 
 1055000     1.050061   -4.8469637     724.4901  0.057226706  0.058379223            2 
 1056000    1.0758696   -4.8213934    725.98163  0.057290217  0.058366045            2 
 1057000    1.0896466   -4.8103879    726.34494   0.05726466  0.058352964            6 
 1058000    1.0734352   -4.8368096    722.75713   0.05692794  0.058339666            5 
 1059000    1.0896699   -4.8495856    725.32072  0.057075914  0.058325957            6 
 1060000    1.0846765   -4.8536874    726.78908  0.057137506  0.058312409            4 
 1061000    1.0772736   -4.8077588     730.0757  0.057341792   0.05829936            4 
 1062000    1.1030214      -4.8321    728.84289  0.057191061  0.058286308            4 
 1063000     1.084255   -4.8065195    731.78508  0.057367911  0.058273581            4 
 1064000    1.0989676   -4.8538163    728.21074  0.057034049  0.058260481            3 
 1065000    1.0425658   -4.8023529    730.71168  0.057176188  0.058247214            3 
 1066000    1.0706744   -4.8463249    729.41162  0.057020921   0.05823357            1 
 1067000    1.0789883   -4.8098898    731.27372  0.057112911  0.058219623            6 
 1068000    1.0828174   -4.8499245    730.84044  0.057025627  0.058206264            1 
 1069000    1.0639667    -4.868969    731.29313  0.057007572  0.058192935            2 
 1070000    1.0788575   -4.8521516    732.11298  0.057018145   0.05817933            3 
 1071000     1.098965   -4.8444584    731.47206  0.056915037  0.058165478            4 
 1072000    1.0931829   -4.8329541    734.40827  0.057090195  0.058151793            3 
 1073000    1.0996671   -4.8398814    732.30726  0.056873816  0.058137841            3 
 1074000    1.0948855   -4.8208901    735.86984  0.057097287  0.058124035            4 
 1075000    1.0869352   -4.8119702    735.84326  0.057042113   0.05811027            3 
 1076000    1.0725042    -4.804298    735.14589  0.056935091  0.058096667            2 
 1077000    1.0992949   -4.7988225    739.39169  0.057210747  0.058082923            3 
 1078000    1.1008862   -4.8427316    733.47607  0.056700377    0.0580693            2 
 1079000    1.0840611   -4.8177542    738.59365  0.057043069  0.058055402            2 
 1080000    1.0628998   -4.8497221    738.69977  0.056998439  0.058041723           11 
 1081000    1.0492223   -4.8381584    738.35758  0.056919333  0.058027809            3 
 1082000    1.0755631   -4.8633681    737.22025  0.056779132  0.058013847            4 
 1083000     1.071766   -4.8200412     740.7371  0.056997315  0.058000149            3 
 1084000    1.0898139   -4.8436453    740.33355  0.056913711  0.057986316            1 
 1085000    1.1024809   -4.8371243    741.19041  0.056927067   0.05797313            2 
 1086000    1.0692582   -4.9268097    739.60087  0.056752676   0.05795961            4 
 1087000    1.0691081   -4.8411705    741.57811  0.056852048  0.057945835            2 
 1088000    1.0524074   -4.8367109    742.75806   0.05689017  0.057932459            5 
 1089000     1.061117   -4.8726938    741.49152   0.05674101  0.057918927            5 
 1090000    1.0908336   -4.8436723    741.88469  0.056719013   0.05790532            2 
 1091000      1.07403   -4.8258429    745.14999  0.056916437  0.057891986            3 
 1092000    1.0799788    -4.848457    744.32268  0.056801181  0.057878735            2 
 1093000    1.0849282   -4.8569532    745.69721  0.056854011  0.057865839            2 
 1094000    1.0993422   -4.8714183    743.22488  0.056613717  0.057852474            3 
 1095000     1.086587   -4.8069084    747.52752  0.056889461  0.057839487            2 
 1096000    1.0514753   -4.8415151    748.67989  0.056925174  0.057826588            3 
 1097000    1.0575212   -4.8550297    746.04226  0.056672915  0.057813397            3 
 1098000    1.0723718   -4.8484245    746.47982   0.05665451  0.057800067            2 
 1099000    1.0802932   -4.8150375    751.18252  0.056959548  0.057786894            3 
 1100000    1.0752208   -4.8735946    747.12631  0.056600478  0.057773295            5 
 1101000    1.0765084   -4.8700519    746.11772  0.056472731  0.057759646            2 
 1102000    1.0947628   -4.8349985    751.03099  0.056793027  0.057746806            5 
 1103000    1.0545376   -4.8738551    749.84611  0.056652018  0.057733502            2 
 1104000    1.0744575   -4.8446502    750.63381  0.056660161  0.057720078            3 
 1105000    1.0919819   -4.8721627    750.20676  0.056576679  0.057706169            2 
 1106000    1.0655776   -4.8028478    752.93754  0.056731279  0.057692839            4 
 1107000    1.0807461   -4.8420385    753.77458  0.056743043  0.057679269            2 
 1108000    1.0738081   -4.8438125    754.46007  0.056743387  0.057665982            2 
 1109000    1.1021469   -4.8289194    754.81053  0.056718555  0.057652791            3 
 1110000    1.0629316    -4.854534     753.0834  0.056537792  0.057639743            3 
 1111000    1.0773135   -4.8446829    754.43151  0.056588022  0.057626588            2 
 1112000    1.0694545   -4.8804048    752.65287  0.056403842  0.057613723            3 
 1113000    1.0527045   -4.8354561     758.4282  0.056785579   0.05760066            2 
 1114000     1.111738   -4.8344218    759.09349  0.056784373  0.057588051            4 
 1115000     1.078181   -4.8545839    755.85605  0.056491483  0.057575121            3 
 1116000     1.072738   -4.8639536    756.19931  0.056466496  0.057562421            3 
 1117000    1.0720181   -4.8770085    757.94723  0.056546347  0.057549545            2 
 1118000    1.0796831   -4.8969822    758.49511  0.056536607  0.057536376            3 
 1119000    1.0609169   -4.8758678    759.47257  0.056558875  0.057523399            5 
 1120000    1.0720446   -4.8428266     760.5077  0.056585394   0.05751024            4 
 1121000    1.0566982   -4.8976267    760.48915  0.056533538  0.057496931            2 
 1122000    1.0834936   -4.8581955    759.56206  0.056414295  0.057483623            7 
 1123000    1.0694064   -4.8311923    761.92195  0.056539177  0.057470428            1 
 1124000    1.0668823   -4.8376507    759.23441  0.056289621  0.057457632            3 
 1125000    1.0864406   -4.8385304    765.22859  0.056683599  0.057444614            2 
 1126000    1.0733136   -4.8724367    759.37011  0.056199683  0.057431043            2 
 1127000    1.0969732   -4.8339617    765.80691   0.05662577    0.0574176            1 
 1128000    1.0710397   -4.8434776     762.2789  0.056314931   0.05740408            3 
 1129000    1.0769255   -4.8389244    763.30727  0.056340956  0.057390387            4 
 1130000    1.0836098   -4.8718735    764.36603  0.056369176  0.057377172            3 
 1131000    1.0682963   -4.8352134    765.21791  0.056382104  0.057363594            3 
 1132000    1.0547515    -4.867265    764.63014  0.056289027  0.057350279            2 
 1133000    1.0750405   -4.8355463    767.10921  0.056421683    0.0573369            5 
 1134000    1.0720977   -4.8476533    767.05216  0.056367737  0.057323832            4 
 1135000    1.0611018   -4.8740837    763.76529  0.056076747  0.057310482            7 
 1136000    1.0571628   -4.8342585    767.09913  0.056271943  0.057297443            4 
 1137000    1.0827395   -4.8646371    767.50274  0.056252033  0.057283753            3 
 1138000    1.0629565   -4.8791577    769.46435  0.056346247  0.057270368            3 
 1139000    1.0918905   -4.8523482    767.57807   0.05615877  0.057257113            4 
 1140000    1.0683725   -4.8668284    771.27751  0.056379935  0.057244084            4 
 1141000    1.0375286   -4.8890128    770.12739  0.056246523  0.057231183            3 
 1142000    1.0598225    -4.919376    768.68083  0.056091713  0.057217793            2 
 1143000    1.0640366   -4.8676379    770.08751  0.056145196  0.057204631            6 
 1144000    1.0573062   -4.8276446    773.46263  0.056341975  0.057191407            2 
 1145000     1.089854   -4.8475744    771.56052  0.056154332   0.05717849            4 
 1146000    1.0921129   -4.8637039    775.44456  0.056387766   0.05716587            4 
 1147000    1.0560449   -4.8802905    773.73974  0.056214744  0.057153308            4 
 1148000    1.0609655   -4.8839759    774.47953  0.056219478  0.057141082            2 
 1149000    1.0762411   -4.8533325    773.74838  0.056117521  0.057128064            5 
 1150000    1.0748439   -4.8794595    774.52076  0.056124692  0.057115101            2 
 1151000    1.0735361   -4.8641789      775.006  0.056111063  0.057102265            3 
 1152000    1.0774748   -4.8539679    775.70974  0.056113263  0.057089146            1 
 1153000    1.0756814   -4.8703972    775.34915  0.056038534  0.057075715            2 
 1154000    1.0705574   -4.8084486    781.75564  0.056452602  0.057062926            3 
 1155000    1.0518924   -4.8399325    778.36867  0.056159355  0.057049839            8 
 1156000    1.0499439   -4.8667335    777.74754  0.056065999  0.057036708            3 
 1157000    1.0839385   -4.8455105    778.37932  0.056063045  0.057023599            2 
 1158000    1.0575493   -4.8118008    783.03129  0.056349402  0.057010426            1 
 1159000    1.0705765   -4.8255686     777.6549  0.055914215  0.056996985            2 
 1160000     1.074376   -4.8533227     777.4286  0.055849756   0.05698419            3 
 1161000    1.0705901    -4.888012     781.0648  0.056062647  0.056971122            6 
 1162000    1.0804613   -4.8293222    781.70142  0.056060056  0.056957654            3 
 1163000    1.0774696   -4.8415541    781.98174  0.056031939  0.056944502            3 
 1164000    1.0855511   -4.8890887     781.0481   0.05591696  0.056931207            2 
 1165000    1.0732875   -4.8641316    780.89211  0.055857805  0.056917635            8 
 1166000    1.0610207   -4.8206286    784.97328  0.056101578  0.056904355            2 
 1167000    1.0483129   -4.8542991    784.33272  0.056007763  0.056890923            3 
 1168000    1.0509443   -4.8532912    785.22905  0.056023762  0.056877291            2 
 1169000     1.078695   -4.8654658    781.41148  0.055703699  0.056863951            4 
 1170000    1.0790689   -4.8893524    783.67575  0.055817361  0.056850314            3 
 1171000    1.0564513   -4.8558023    785.35811  0.055889418  0.056837188            4 
 1172000      1.07342   -4.8726871     785.5583  0.055855965  0.056823977            3 
 1173000    1.0596892   -4.8572137    783.94088  0.055693441  0.056810833            1 
 1174000    1.0645767   -4.8704621     786.7095  0.055842525  0.056797712            3 
 1175000    1.0540583    -4.880391    786.07947  0.055750317  0.056784447            3 
 1176000    1.0568508   -4.8680228    785.26449  0.055645159  0.056771038            2 
 1177000    1.0754192   -4.8654862    787.92314  0.055786118  0.056758111            1 
 1178000    1.0447813   -4.8615641    788.35026  0.055768977  0.056745059            4 
 1179000    1.0462243   -4.8740564    787.73424  0.055678134  0.056731635            2 
 1180000    1.0585051   -4.8563343     789.6644   0.05576726  0.056718297            4 
 1181000    1.0710775   -4.8605389    791.31734  0.055836674  0.056705165            4 
 1182000    1.0457045   -4.8709653    792.08392   0.05584348  0.056691759            6 
 1183000    1.0441204   -4.9163811    787.24294  0.055455265  0.056678019            3 
 1184000    1.0642849    -4.867502    791.76838  0.055726941  0.056664092            3 
 1185000    1.0542398   -4.8584898    790.59746  0.055597571   0.05665018            1 
 1186000    1.0758306   -4.8545112    792.67774  0.055696862   0.05663648            2 
 1187000     1.072615   -4.8859951      791.355  0.055557076  0.056622412            1 
 1188000     1.055838   -4.8360504    794.12877   0.05570488   0.05660866            3 
 1189000    1.0928456   -4.8370422    792.73152  0.055560101  0.056594903            3 
 1190000     1.062345   -4.8600331    791.53207  0.055429417  0.056581425            6 
 1191000    1.0735875    -4.902601    793.76751  0.055539288  0.056567917            5 
 1192000    1.0567619   -4.8772575    794.70689  0.055558367  0.056554145            2 
 1193000    1.0599383   -4.8520607    795.88393  0.055594016  0.056540725            4 
 1194000    1.0513675   -4.8826571    793.21064  0.055360877  0.056527188            3 
 1195000    1.0443922   -4.8793242    796.07093  0.055514012    0.0565135            4 
 1196000    1.0479866   -4.9082377    794.68583  0.055371086  0.056499415            4 
 1197000    1.0606526   -4.8788308    791.45781  0.055100098  0.056485439            1 
 1198000    1.0695125   -4.8757233    798.96178  0.055576084  0.056471356            4 
 1199000    1.0544547   -4.8782056    795.31331  0.055276154  0.056457674            3 
 1200000     1.040959   -4.8490873    797.23911  0.055363827  0.056444032            2 
 1201000    1.0505359   -4.9145946    799.46695  0.055472311  0.056430247            4 
 1202000    1.0847036   -4.8854972    795.77908  0.055170485  0.056416541            6 
 1203000    1.0610922   -4.8799294    797.93244  0.055273791  0.056402819            4 
 1204000    1.0442967   -4.8894413     797.4703  0.055195895  0.056388708            5 
 1205000    1.0427754   -4.8861854    798.44261  0.055217331  0.056374462            1 
 1206000    1.0408957   -4.8429054    798.95968  0.055207275  0.056360768            2 
 1207000    1.0573825   -4.8575728    801.92932  0.055366565  0.056347001            2 
 1208000    1.0848349   -4.8800458    801.49899  0.055291045  0.056333384            4 
 1209000     1.069471   -4.9076253     801.2345  0.055227081  0.056319557            4 
 1210000    1.0467621   -4.8531493    802.34215  0.055257724  0.056305729            3 
 1211000    1.0605858   -4.8742395    808.09962  0.055608287  0.056292243            3 
 1212000    1.0655953   -4.8989424    801.72943  0.055124411  0.056278644            5 
 1213000    1.0490914   -4.8639772    804.24422  0.055251733  0.056265056            8 
 1214000    1.0512036    -4.869939    804.73541  0.055239937  0.056251677            5 
 1215000    1.0695379   -4.8778896    807.50988  0.055384766   0.05623868            2 
 1216000    1.0493323   -4.8526574    807.56916  0.055343281   0.05622546            9 
 1217000    1.0481347   -4.8955528    810.71422  0.055513162  0.056212858            3 
 1218000    1.0646506   -4.8832638    811.72614  0.055536819  0.056200077            3 
 1219000    1.0477669    -4.886158    808.16868  0.055248064   0.05618708            2 
 1220000    1.0833475   -4.8944616    813.11435  0.055540598   0.05617457            4 
 1221000     1.065758    -4.877814     813.3541  0.055511473  0.056161768            1 
 1222000    1.0741974   -4.8506324    812.99781  0.055441749  0.056149202            5 
 1223000    1.0613135   -4.8488712    812.90242  0.055389917  0.056136431            3 
 1224000    1.0592676    -4.875902    811.57759  0.055254465  0.056123239            5 
 1225000    1.0435478   -4.8748055     813.2423  0.055322605  0.056110163            4 
 1226000    1.0602102   -4.8912109    812.10873   0.05520043  0.056097391            3 
 1227000    1.0513152   -4.8790757    812.55439   0.05518571  0.056084373            3 
 1228000    1.0624922   -4.8581399    817.00831  0.055443018   0.05607142            6 
 1229000      1.04523   -4.8830791    812.75062  0.055109209  0.056058703            2 
 1230000    1.0399707   -4.8678973    815.25432  0.055234033  0.056046082            4 
 1231000    1.0529401   -4.8520568    816.74636  0.055290168  0.056033508            2 
 1232000    1.0604965    -4.881253    815.32954  0.055149455  0.056020551            3 
 1233000    1.0611605   -4.8810277    820.21749  0.055435083  0.056008143            2 
 1234000    1.0506565   -4.8749642    818.63897  0.055283561  0.055995773            2 
 1235000    1.0431133   -4.8923187    818.48078  0.055228123  0.055983312            5 
 1236000    1.0383057   -4.9106372    817.30807  0.055104373   0.05597071            4 
 1237000    1.0627382   -4.8640791    820.41725  0.055269284  0.055957823            4 
 1238000     1.064161   -4.9036202    818.18708  0.055074521  0.055945178            2 
 1239000    1.0416532   -4.8634612    822.82668  0.055342123  0.055932702            3 
 1240000     1.039555   -4.8982494    820.84241   0.05516414  0.055920173            3 
 1241000    1.0573461   -4.8662022    820.16056  0.055073903    0.0559074            2 
 1242000    1.0460196   -4.8624716    821.62939  0.055128112   0.05589475            4 
 1243000    1.0520108   -4.8911009    822.29984   0.05512871  0.055882482            3 
 1244000    1.0511534   -4.8857116    822.37668  0.055089542  0.055870312            4 
 1245000    1.0454905   -4.8896261    826.87845  0.055346617  0.055858432            2 
 1246000    1.0516026   -4.8662099    828.03817   0.05537976  0.055846518            7 
 1247000    1.0496271   -4.8777427    825.83352  0.055188019  0.055834356            2 
 1248000    1.0659664   -4.8646363    825.28642  0.055107266   0.05582214            3 
 1249000    1.0694098   -4.8994155    825.74972  0.055094057  0.055809761            6 
 1250000    1.0660988   -4.8887864    828.18212  0.055212141  0.055797472            2 
 1251000    1.0546949   -4.8859971    825.40706   0.05498315  0.055785081            3 
 1252000    1.0561051   -4.8978956    828.98274  0.055177233   0.05577286            3 
 1253000    1.0575306   -4.8955029    827.00899  0.055001928  0.055760647            4 
 1254000    1.0450538   -4.9046181    829.15618  0.055100756  0.055748263            4 
 1255000    1.0508503    -4.890691      829.022  0.055047941  0.055736071            4 
 1256000    1.0351998   -4.8820226    831.42629  0.055163634  0.055723779            3 
 1257000    1.0436134   -4.8546366    831.67497  0.055136235  0.055711435            1 
 1258000    1.0490974   -4.8793236    832.22382  0.055128764  0.055698742            5 
 1259000    1.0671891   -4.9185213    829.62634  0.054913048   0.05568582            5 
 1260000    1.0650313   -4.8763336    832.38431  0.055051872  0.055673034            4 
 1261000    1.0593824   -4.9209012    826.67832  0.054631134  0.055659891            5 
 1262000    1.0149489    -4.883302    831.16531  0.054884133  0.055646781            2 
 1263000    1.0523593   -4.8996104    831.41295  0.054857017  0.055633876            2 
 1264000    1.0609015   -4.8928997    832.25882  0.054869384  0.055620891            3 
 1265000     1.047054    -4.867779    834.61532  0.054981247  0.055607759            3 
 1266000     1.050581   -4.8994598    833.83374   0.05488637  0.055594716            4 
 1267000    1.0412085   -4.9072747    831.33004  0.054678376  0.055581574            3 
 1268000    1.0405188   -4.8619876     834.1223  0.054818763  0.055568707            2 
 1269000    1.0526116   -4.8610708    836.77503  0.054949766  0.055555667            4 
 1270000    1.0366746   -4.8738753    834.96504  0.054787732  0.055542558            4 
 1271000    1.0555652   -4.9246817    831.50455  0.054517739  0.055529393            2 
 1272000    1.0531366   -4.8610845    837.03685   0.05483732  0.055516249            3 
 1273000    1.0499982    -4.910891    834.66458  0.054638949  0.055502886            2 
 1274000     1.022348   -4.9285155    833.84064  0.054542167  0.055489424            5 
 1275000    1.0538087   -4.8963098    835.10007  0.054581704  0.055475618            3 
 1276000     1.041737   -4.8784589    835.70369   0.05457835  0.055462299            2 
 1277000    1.0492104   -4.9183795    832.04046  0.054296558   0.05544877            2 
 1278000     1.059802   -4.9200215    835.23334  0.054462268  0.055435693            5 
 1279000    1.0123291   -4.9007484    836.99692  0.054534592   0.05542247            5 
 1280000    1.0147556   -4.9144602    836.59555  0.054465856   0.05540948            4 
 1281000    1.0339889   -4.8860942    840.27133  0.054662459  0.055396272            5 
 1282000    1.0558843   -4.9051716    838.35728  0.054495403  0.055382974            2 
 1283000    1.0692976   -4.9336975      835.969  0.054297805  0.055369954            4 
 1284000    1.0530424   -4.8920139    841.64854  0.054624126  0.055356646            2 
 1285000    1.0582684   -4.8779302    840.77133   0.05452473  0.055343343            5 
 1286000    1.0836419   -4.8901461    841.96642  0.054559773  0.055329715            4 
 1287000    1.0448252   -4.9242487    838.87753  0.054317374  0.055316673            3 
 1288000    1.0453347   -4.8957591    838.92635  0.054278361  0.055303336            3 
 1289000    1.0516688   -4.9213249    841.98279   0.05443385  0.055290048            5 
 1290000    1.0227628   -4.9131657    841.54947  0.054363661  0.055276542            4 
 1291000    1.0566904    -4.890841    842.03668     0.054353  0.055263457            3 
 1292000    1.0402638   -4.8992858      843.294  0.054392028  0.055250481            2 
 1293000     1.034544   -4.9462165    841.58149  0.054239591   0.05523722            4 
 1294000    1.0495318   -4.9045631    845.46382  0.054447696  0.055223988            3 
 1295000    1.0499498    -4.923148    845.48515  0.054407024  0.055210897            2 
 1296000    1.0422479   -4.9264271    843.16846  0.054216079   0.05519806            8 
 1297000     1.027424   -4.8890987    847.19603  0.054433052  0.055184603            4 
 1298000    1.0452848   -4.8990861    847.28289  0.054396693  0.055171416            2 
 1299000    1.0387664   -4.9073504    848.75592  0.054449315   0.05515844            3 
 1300000      1.03654   -4.9290187    844.57512  0.054139431  0.055145338            3 
 1301000    1.0478185   -4.9278862    844.80564  0.054112583  0.055132185            2 
 1302000    1.0428886   -4.9147576    849.10028  0.054345896   0.05511895            4 
 1303000    1.0482308   -4.9196559    847.62038  0.054209541  0.055105151            4 
 1304000    1.0429177   -4.9202544    850.61254  0.054359186  0.055091474            3 
 1305000     1.049672   -4.9158255    845.49302  0.053990615  0.055077376            2 
 1306000    1.0291344   -4.9023334    849.04973  0.054176221  0.055063625           10 
 1307000    1.0455128   -4.9192955    849.22508   0.05414595  0.055049748            3 
 1308000    1.0363635   -4.8772007     850.8998  0.054211252  0.055035862            2 
 1309000    1.0447485   -4.9044741    847.29219   0.05394017  0.055022002            3 
 1310000    1.0407672    -4.871332    849.89167  0.054064356  0.055008143            2 
 1311000    1.0391035   -4.8876864    850.36227   0.05405303  0.054994456            4 
 1312000    1.0163557   -4.9430978    851.95022  0.054112692  0.054980562            3 
 1313000    1.0384884   -4.8964324    854.91031   0.05425935  0.054966771            7 
 1314000    1.0295471   -4.9127483    851.66634  0.054012325  0.054953315            4 
 1315000    1.0658728   -4.9158664    852.18243  0.054003956  0.054939449            5 
 1316000    1.0394602   -4.9011406    850.57319  0.053861017  0.054925833            3 
 1317000     1.027358   -4.9132078    854.82226  0.054088981  0.054912362            4 
 1318000    1.0336641   -4.8819026    853.71866  0.053978165  0.054898839            3 
 1319000    1.0479529   -4.8947565    855.47561  0.054048244   0.05488545            4 
 1320000    1.0242967   -4.9420103    854.31592  0.053934086  0.054872069            2 
 1321000    1.0731398   -4.9067573    856.92362   0.05405776  0.054858612            3 
 1322000    1.0398275   -4.9054319    857.04376  0.054024442  0.054845159            3 
 1323000    1.0399646   -4.8973923    858.88044  0.054099297  0.054831868            3 
 1324000    1.0369932   -4.9434339    854.53314  0.053784815  0.054818818            2 
 1325000    1.0292416   -4.9191109    854.21518  0.053724225  0.054805349            3 
 1326000    1.0576118   -4.8899901    860.61882   0.05408615   0.05479238            2 
 1327000    1.0353718   -4.9153002     858.7151  0.053925842  0.054779145            6 
 1328000    1.0338546   -4.9280987    858.67232   0.05388255  0.054765694            2 
 1329000    1.0439543   -4.9124815    860.64581  0.053965752  0.054752209            3 
 1330000    1.0529412   -4.9226785    857.88204  0.053752008  0.054738647            3 
 1331000    1.0200286   -4.9392513    858.70886  0.053763389  0.054725589            3 
 1332000    1.0588779    -4.874868    865.29985  0.054135376  0.054712224            5 
 1333000    1.0411374   -4.9260778    862.17355  0.053899322  0.054699012            2 
 1334000    1.0334381   -4.9279177    862.58881  0.053884858  0.054685799            4 
 1335000    1.0357498   -4.9184642    859.04464  0.053623261  0.054672404            4 
 1336000    1.0690098   -4.9565046    860.48373  0.053672887  0.054659248            4 
 1337000    1.0554365   -4.9218996    862.78982  0.053776478  0.054646064            2 
 1338000    1.0481749   -4.9100035    864.36745  0.053834545  0.054632565            4 
 1339000    1.0310395   -4.9337519    864.46629  0.053800491  0.054619436            3 
 1340000    1.0403759   -4.9052229    864.09318  0.053737138  0.054606294            2 
 1341000     1.034921   -4.8950928    868.67184  0.053981596  0.054593302            2 
 1342000    1.0253508   -4.9132758    866.87676  0.053829903  0.054580453            3 
 1343000    1.0179733   -4.8831659    868.18019    0.0538707  0.054567698            1 
 1344000    1.0617043    -4.960217    865.46778  0.053662436   0.05455503            3 
 1345000    1.0511704   -4.9322288    868.59049  0.053816015   0.05454217            3 
 1346000    1.0556496   -4.9072141    867.77263  0.053725398    0.0545292            2 
 1347000    1.0333761   -4.9057029    868.41973  0.053725546   0.05451623            2 
 1348000    1.0447902   -4.8770907    873.92055  0.054025751  0.054503328            1 
 1349000    1.0292284   -4.9138442    870.68076  0.053785567  0.054490879            4 
 1350000    1.0184279    -4.914781    871.87225  0.053819275  0.054478383            5 
 1351000    1.0502586   -4.9388868    872.66867  0.053828564   0.05446583            4 
 1352000    1.0367131   -4.8883623    874.33023  0.053891163  0.054453293            3 
 1353000    1.0541956   -4.9370769    873.27208  0.053786159  0.054440732            3 
 1354000    1.0093377   -4.9010281    871.28996  0.053624444  0.054427722            3 
 1355000    1.0310499   -4.9428723    876.74325  0.053920249  0.054414996            2 
 1356000    1.0426176   -4.8691041    874.53996  0.053745081   0.05440186            6 
 1357000    1.0262122   -4.9458565    874.23565  0.053686788  0.054389176            2 
 1358000    1.0489587   -4.9033876    875.12304  0.053701708  0.054376171            2 
 1359000    1.0156381   -4.9227643    873.86022  0.053584757  0.054363398            3 
 1360000    1.0380069   -4.9446805    874.18336  0.053565157  0.054350257            2 
 1361000    1.0492109    -4.918555    875.04368  0.053578477  0.054337361            5 
 1362000    1.0481339   -4.9149087    877.73289  0.053703676  0.054324268            2 
 1363000    1.0358146   -4.9448106    875.32371  0.053516979  0.054311141            2 
 1364000    1.0286546   -4.9281922    876.96155  0.053577807  0.054297892            3 
 1365000    1.0303645   -4.9435102    876.65316  0.053519729  0.054284988            2 
 1366000    1.0268116   -4.9369724    878.65636  0.053602755  0.054271906            2 
 1367000     1.042176   -4.9390593    877.49549  0.053492776  0.054259246            1 
 1368000    1.0277716   -4.9287942    878.12239  0.053491861  0.054246663           10 
 1369000    1.0299297   -4.9281855     880.1489  0.053576145  0.054233786            2 
 1370000    1.0497973   -4.9517278    876.25013  0.053299886  0.054221008            7 
 1371000    1.0446301   -4.9234168    879.41853  0.053453594  0.054207785            3 
 1372000    1.0173593    -4.921937     880.8714  0.053502879  0.054194794            5 
 1373000   0.99674301    -4.921073    879.07685  0.053354992  0.054182096            2 
 1374000    1.0174148   -4.9277451    880.92306  0.053428133  0.054169404            3 
 1375000    1.0287175    -4.916407    883.53656   0.05354767  0.054156673            2 
 1376000    1.0331453   -4.9167465     886.0722  0.053662318  0.054143899            4 
 1377000    1.0514205   -4.9347629    882.32485  0.053396566  0.054131424            2 
 1378000    1.0290065   -4.9246719    884.08828  0.053464458  0.054118822            3 
 1379000    1.0238492   -4.9131248    884.97073  0.053479015  0.054106296            1 
 1380000    1.0479811   -4.9251091    884.61344  0.053418686  0.054093573            3 
 1381000    1.0297094   -4.9404728    883.38303  0.053305758  0.054080712            4 
 1382000    1.0409772    -4.882484    889.77988  0.053652911  0.054068303            2 
 1383000    1.0417678   -4.9408722    886.45936  0.053414037  0.054056044            2 
 1384000    1.0710368    -4.927298    886.60624  0.053384287   0.05404339            2 
 1385000    1.0392586   -4.9460842    885.06767  0.053253169  0.054030881            5 
 1386000    1.0325976   -4.9127751    891.09878  0.053577368  0.054018298            3 
 1387000    1.0353559   -4.9588667    889.41775   0.05343774  0.054006149            1 
 1388000    1.0247329   -4.9082489    891.31281  0.053513017  0.053993868            8 
 1389000    1.0325344   -4.9544214    891.66809  0.053495806  0.053981716            5 
 1390000    1.0342864   -4.9389573    890.56677  0.053391293  0.053969505            4 
 1391000    1.0310743   -4.9149522    892.08776   0.05344403  0.053957257            6 
 1392000    1.0209237   -4.9174742    894.20669  0.053532488  0.053945133            3 
 1393000     1.003835   -4.9350467     893.5421  0.053454301   0.05393281            4 
 1394000    1.0601019   -4.9623498    890.82909  0.053253771  0.053920035            2 
 1395000    1.0211065   -4.8994485    892.47889  0.053314151  0.053907491            5 
 1396000    1.0130393   -4.9665056    892.91299  0.053301874   0.05389516            5 
 1397000    1.0281336   -4.9634541    889.92254  0.053085334  0.053882672            3 
 1398000    1.0342919   -4.9290106    895.49919   0.05337978  0.053870248            2 
 1399000    1.0572078   -4.9349224    893.27344  0.053209044  0.053857826            6 
 1400000    1.0165639   -4.9337593    897.37989   0.05341547  0.053845675            2 
 1401000    1.0223977   -4.9094191    898.02057  0.053415452  0.053833704            3 
 1402000    1.0238065   -4.9273729    893.87745   0.05313109  0.053821513            4 
 1403000    1.0432874   -4.9723468     892.1919  0.052993104  0.053809184            3 
 1404000    1.0143829    -4.965413    896.51424  0.053211909  0.053796698            2 
 1405000    1.0111776   -4.9281965      898.371  0.053284164  0.053784457            5 
 1406000    1.0018779   -4.9162811    900.20559  0.053355002   0.05377199            3 
 1407000     1.026715   -4.9774107    895.02203  0.053010071  0.053759429            3 
 1408000    1.0360372   -4.9694114    897.98702  0.053147906  0.053746789            3 
 1409000    1.0513937   -4.9054389     899.7046  0.053211769  0.053734595            4 
 1410000    1.0202632    -4.941569    895.48056  0.052924383  0.053722079            3 
 1411000    1.0202522    -4.949183      898.874   0.05308729    0.0537096            3 
 1412000    1.0172449   -4.9625311    898.06895  0.053002181  0.053697734            3 
 1413000    1.0155233   -4.9479329    897.47768  0.052929799   0.05368539            2 
 1414000    1.0282905   -4.9933748    897.86933  0.052915448  0.053672964            2 
 1415000    1.0240635   -4.9194984    904.72625  0.053281875  0.053660992            2 
 1416000     1.029536   -4.9831368       899.52  0.052937853  0.053648756            2 
 1417000    1.0083279   -4.9375649    901.40556  0.053011383  0.053636426            5 
 1418000     1.013014   -4.9613148    899.76746  0.052877731   0.05362407            3 
 1419000    1.0323616   -4.9629052    903.18128  0.053040949  0.053612015            2 
 1420000    1.0224154   -4.9135354    906.42405    0.0531939  0.053599534            2 
 1421000    1.0093448    -4.934981    903.93632  0.053010575  0.053587375            2 
 1422000    1.0434966   -4.9350165    907.01655  0.053153806  0.053575202            3 
 1423000    1.0477514    -4.938902    906.02051  0.053058123  0.053563387            1 
 1424000    1.0356205    -4.959623    906.70996   0.05306121  0.053551366            3 
 1425000    1.0375366   -4.9815399    909.26304  0.053173277   0.05353939            3 
 1426000    1.0196732   -4.9590194    907.50419  0.053033204  0.053527444            3 
 1427000    1.0066139   -4.9849991    906.27063  0.052924003  0.053515292            5 
 1428000    1.0195679   -4.9493243    907.92668  0.052983583  0.053503429            7 
 1429000    1.0481137   -4.9284442    912.15761  0.053193236  0.053491989            8 
 1430000    1.0326405   -4.9482862     911.0369  0.053090729  0.053480631            2 
 1431000    1.0430656   -4.9307784    913.20807  0.053180065  0.053469255            3 
 1432000    1.0383364   -4.9517073    909.73412  0.052940766  0.053458128            3 
 1433000    1.0354532   -4.9082711    917.23686  0.053340129  0.053446895            5 
 1434000    1.0286783   -4.9441771    911.31536  0.052958819   0.05343551            4 
 1435000    1.0245618   -4.9441141    912.61231  0.052997231  0.053423976            4 
 1436000    1.0434257   -4.9305498    913.72076   0.05302465  0.053412408            6 
 1437000    1.0306393   -4.9198239    916.35527  0.053140529  0.053401418            2 
 1438000   0.98899578   -4.9774207    914.38255  0.052989253  0.053390104            3 
 1439000    1.0048415   -4.9104149    916.45815  0.053072629  0.053378882            1 
 1440000    1.0288473   -4.9228026    921.27686  0.053314633  0.053367864            3 
 1441000     1.043816   -4.9540998    916.61942  0.053008294  0.053356905            2 
 1442000    1.0139575   -4.9563204    919.94356  0.053163636  0.053345858            4 
 1443000   0.99523928   -4.9817121    916.82024  0.052946422  0.053334814            5 
 1444000    1.0281494   -4.9844991    916.76565  0.052906605  0.053323436            5 
 1445000   0.98400037   -4.9639044    915.81911  0.052815404  0.053311931            3 
 1446000    1.0264215   -4.9596418    917.99939  0.052904529  0.053300361            2 
 1447000    1.0092093   -4.9243036    919.23584  0.052939175  0.053289058            3 
 1448000     1.045742   -4.9546013    919.87709  0.052939519  0.053277634            8 
 1449000    1.0188744   -4.9588964    917.52213  0.052767548  0.053265835            4 
 1450000    1.0141905    -4.944527    919.11071  0.052822455  0.053254545            4 
 1451000    1.0087979   -4.9654517    919.03963  0.052781968  0.053243014            3 
 1452000   0.99274943   -4.9267703    923.56192  0.053005161  0.053231521            5 
 1453000     1.026262   -4.9634592    922.36065  0.052899785   0.05321976            2 
 1454000    1.0476096   -4.9854347    920.27236  0.052743716  0.053208169            5 
 1455000    1.0162938   -4.9586239      922.733  0.052848396  0.053196537            2 
 1456000    1.0307965   -4.9727795    922.97462  0.052825928  0.053184894            7 
 1457000   0.99757358   -4.9582108    921.58014  0.052709914  0.053173255            8 
 1458000      1.00986   -4.9584703    921.72519  0.052682052  0.053161259            3 
 1459000    1.0206936   -4.9381273    922.36387  0.052682423  0.053149464            3 
 1460000    1.0117873   -4.9093239    925.05111  0.052799721  0.053137796            4 
 1461000    1.0154161   -4.9590412    924.28195  0.052719709  0.053126226            3 
 1462000    1.0351929   -4.9532169    924.92045  0.052720044  0.053114399            3 
 1463000     1.001424   -4.9496936    925.12691  0.052695768   0.05310256            2 
 1464000    1.0159371   -4.9319748    926.91175   0.05276137   0.05309094            7 
 1465000    1.0188524   -4.9684976     920.7836  0.052376769  0.053079049            7 
 1466000    1.0199195   -4.9371219    926.85211     0.052686  0.053067448            4 
 1467000    1.0271505   -4.9734373    926.63351  0.052637668   0.05305575            3 
 1468000    1.0292014   -4.9291239    927.94265  0.052676127  0.053044222            3 
 1469000   0.99389423   -4.9876793    928.77346  0.052687399  0.053032596            3 
 1470000    1.0068176   -4.9637701    930.66157  0.052758592   0.05302084            2 
 1471000    1.0355593    -4.974368    927.69043  0.052554409    0.0530092            2 
 1472000    1.0308946   -4.9998884    927.68675  0.052518498  0.052997644            3 
 1473000    1.0485692   -4.9638167    930.87709  0.052663334    0.0529862            8 
 1474000    1.0030187   -4.9612624    929.63332  0.052557289  0.052974879            4 
 1475000    1.0454998   -4.9923435    930.69852  0.052581837  0.052963377            2 
 1476000    1.0363461   -4.9655617     931.1284  0.052570483  0.052951918            2 
 1477000    1.0159255   -4.9638917    934.66002  0.052734147  0.052940588            2 
 1478000    1.0152682   -4.9767758    931.29212  0.052508577  0.052928996            7 
 1479000    1.0210846    -4.981309    930.95181    0.0524539  0.052917779            2 
 1480000    1.0197963   -4.9344331    936.18459  0.052713096  0.052906399            6 
 1481000    1.0020952   -4.9787647    934.12463  0.052561593  0.052894831            5 
 1482000    1.0085762   -4.9424092    934.88265   0.05256875  0.052883505            4 
 1483000    1.0087822   -4.9607679    932.59403  0.052404699  0.052872323            3 
 1484000    1.0001904   -4.9338963    938.41024  0.052695993  0.052860823            2 
 1485000    1.0209546   -4.9798379    931.71407   0.05228474  0.052849186            3 
 1486000    1.0143483   -4.9596337    933.53907  0.052351899  0.052837528            2 
 1487000    1.0272823   -4.9574877    937.32982  0.052529131  0.052825972            3 
 1488000    1.0080603    -4.960731    936.91107  0.052470378  0.052814682            5 
 1489000    1.0207272   -4.9870956    938.64604  0.052532239  0.052803257            2 
 1490000    1.0018183   -4.9632096    936.17767   0.05235893  0.052791827            4 
 1491000    1.0114721   -4.9909188    935.26418  0.052272758  0.052780387            3 
 1492000   0.99326668   -4.9422921    943.56163  0.052701164  0.052769049            1 
 1493000    1.0050386   -4.9651534    940.39553  0.052489145  0.052758012            2 
 1494000    1.0052163   -4.9387944    942.13388  0.052550975  0.052746907            6 
 1495000   0.99250159   -4.9656444     939.2759  0.052356516   0.05273562            3 
 1496000    1.0193413   -4.9646141    940.72271  0.052402112  0.052724335            3 
 1497000    1.0521689   -4.9762107    940.74921  0.052368582  0.052713254            1 
 1498000   0.99858694   -4.9681095    942.84675  0.052450309  0.052701907            2 
 1499000    1.0210533   -4.9686918    942.37593  0.052389145  0.052690901            2 
 1500000    1.0132529   -4.9884158    942.10216  0.052339009  0.052679565            3 
 1501000   0.99641604    -4.964381    943.20325   0.05236527  0.052668548            4 
 1502000    1.0162083   -4.9935825    940.72152  0.052192716  0.052657194            2 
 1503000    1.0171833   -4.9663098    943.61471  0.052318403  0.052646018            3 
 1504000    1.0044736   -4.9749963    943.19353   0.05226028  0.052634935            4 
 1505000    1.0073158   -4.9551065    945.83168  0.052371632  0.052623975            3 
 1506000    1.0035203   -4.9816828     946.4463  0.052370867  0.052612747            2 
 1507000    1.0079335   -4.9487974    948.19616  0.052432878  0.052601354            3 
 1508000    1.0046819   -4.9662691    948.55394  0.052417879  0.052589944            3 
 1509000   0.99437844   -5.0048646    943.09531  0.052081694   0.05257857            8 
 1510000    1.0022687   -4.9809517    943.94702  0.052094206  0.052566843            3 
 1511000   0.99904175     -4.95752     949.6918  0.052376561    0.0525552            2 
 1512000    1.0124372   -4.9634966    943.88784  0.052022037  0.052543715            4 
 1513000    1.0230854   -4.9427608    949.49451  0.052296459  0.052532096            7 
 1514000    1.0254081   -4.9543604    949.65102  0.052270532  0.052520859            6 
 1515000   0.95701074   -4.9427365    948.61648  0.052179124  0.052509179            2 
 1516000    1.0133789   -4.9677082    948.86596  0.052158419  0.052497399            3 
 1517000     1.015096    -4.991386    949.84519  0.052177829  0.052486087            4 
 1518000    1.0092051   -4.9870281    946.92928  0.051983382  0.052474826            1 
 1519000    1.0067133    -4.939736    955.49944  0.052419324  0.052463245            2 
 1520000    1.0016447   -4.9789725    946.41987  0.051887054  0.052451519            4 
 1521000    1.0165377   -4.9629371    951.04746  0.052106479  0.052439903            2 
 1522000    1.0244156   -4.9462226    956.77715  0.052385959  0.052428505            2 
 1523000    1.0139167   -4.9568451    949.78393  0.051968917  0.052417109            6 
 1524000    1.0070686   -4.9858316    949.89176  0.051940713   0.05240555            2 
 1525000    1.0245721   -4.9814001    950.74542  0.051953301    0.0523939            2 
 1526000     1.007978   -4.9893915     955.1006  0.052157088  0.052382198           14 
 1527000   0.99639495   -4.9777931    953.98975  0.052062309  0.052370605            4 
 1528000   0.99371207   -4.9740001    953.08418  0.051978849  0.052358817            2 
 1529000    1.0043269   -4.9720338    952.91256    0.0519355   0.05234724            3 
 1530000    1.0357051   -4.9808213    955.25804  0.052029305   0.05233538            2 
 1531000   0.99773218    -4.977158    955.23736  0.051994195  0.052323844            2 
 1532000    1.0116568   -4.9489878    954.25032  0.051906567  0.052312164            3 
 1533000   0.99480833   -5.0032124    952.01535  0.051751215  0.052300489            3 
 1534000    1.0211103   -4.9740456    954.39273  0.051846628  0.052288621            6 
 1535000   0.98994424   -4.9686766    949.51247  0.051547908  0.052276662            3 
 1536000    1.0298524   -5.0011217    956.78063  0.051908671  0.052264784            4 
 1537000    1.0040435   -4.9448847    956.60831  0.051865556  0.052253373            3 
 1538000    0.9917821   -4.9886438    958.24918   0.05192074   0.05224173            3 
 1539000    0.9888665    -4.972384    956.12388  0.051771923  0.052230103            6 
 1540000   0.99740966   -5.0100461    959.77999  0.051936147  0.052218595            2 
 1541000    1.0041441   -4.9831583    958.34512   0.05182485  0.052206912            1 
 1542000     1.024486   -4.9747519    958.61788  0.051805981  0.052195444            5 
 1543000   0.98733859   -4.9737799    959.22141  0.051805002  0.052183888            2 
 1544000     1.021215    -5.006292    959.55275  0.051789332  0.052172045            3 
 1545000    1.0046752   -4.9959664    959.04246  0.051728288  0.052160275            4 
 1546000   0.98874089   -4.9869981    961.21108  0.051811723   0.05214866            3 
 1547000    1.0151085   -4.9718143    958.70594  0.051643285  0.052137174            7 
 1548000    1.0229886   -4.9934223    962.84335  0.051832652  0.052125743            4 
 1549000   0.99421495   -4.9913586    959.55893  0.051622495  0.052113914            3 
 1550000    1.0086305   -5.0074467    962.77691    0.0517622  0.052102548            2 
 1551000   0.99664572   -4.9575705    962.30972  0.051703724  0.052090767            1 
 1552000   0.99173385   -4.9569786    963.02462  0.051708796  0.052079392            2 
 1553000   0.99942449   -4.9753393    964.03758  0.051729855  0.052068022            2 
 1554000   0.99472569   -5.0010675    964.22401  0.051706564  0.052056743            3 
 1555000   0.98551717   -4.9859023    965.28898  0.051730385   0.05204553            3 
 1556000    1.0001978   -4.9892022    964.15141  0.051636215  0.052034272            4 
 1557000   0.99441518   -5.0072035    965.76525  0.051689427  0.052022871            2 
 1558000    1.0015246   -5.0009928    964.43357  0.051585022  0.052011455            3 
 1559000   0.98866457   -4.9779869    967.42302  0.051711729  0.052000084            3 
 1560000   0.98102922   -4.9507271    970.18761  0.051826261  0.051988733            1 
 1561000    1.0164211   -4.9782003    969.15412  0.051737888  0.051977306            4 
 1562000   0.99740158   -4.9870084    966.68714  0.051573151  0.051965542            2 
 1563000    1.0260026   -4.9922505    965.75682  0.051490553  0.051953961            5 
 1564000    1.0122377   -5.0058942     965.9605  0.051468484  0.051942583            2 
 1565000   0.99728272   -4.9287422    974.36903  0.051883335  0.051931331            4 
 1566000    1.0105958   -4.9623538    971.30927  0.051687381  0.051920409            2 
 1567000    1.0026085   -5.0003028     964.9642  0.051316964  0.051908888            4 
 1568000    1.0068482    -4.999991    968.05993  0.051448763  0.051897408            2 
 1569000   0.98876253   -4.9736739    973.60295  0.051710375  0.051886164            6 
 1570000   0.96222678   -4.9662244    973.44218  0.051668905  0.051874941            1 
 1571000   0.99621392    -4.999297    972.39651  0.051580549  0.051863835            3 
 1572000   0.98612403   -4.9878887    971.57559  0.051504219  0.051852593            2 
 1573000   0.97278556   -5.0072871    971.60931  0.051473263  0.051841211            2 
 1574000   0.99465741   -4.9891144    973.18198  0.051523823  0.051829908            2 
 1575000   0.98982875   -4.9848463    979.53875  0.051827447    0.0518184            4 
 1576000   0.98821931   -4.9726558    975.60047  0.051586319  0.051807126            2 
 1577000    1.0222541   -4.9910162    976.69355  0.051611369  0.051795762            3 
 1578000    1.0074881   -4.9761398    975.91625  0.051537614  0.051784252            4 
 1579000   0.99716726   -5.0013926    976.36037  0.051528413  0.051773017            4 
 1580000   0.99158361   -4.9878979    973.28827  0.051333769  0.051761536            2 
 1581000   0.98302763     -5.01064    971.22901  0.051192758   0.05174991            5 
 1582000    1.0147461   -4.9874053    975.48574  0.051384626  0.051738195            3 
 1583000    0.9707679   -5.0125486    975.23995  0.051339227  0.051726515            5 
 1584000    1.0086109   -4.9897208     979.0976  0.051509764  0.051714559            1 
 1585000   0.99513258   -5.0042443    972.80557  0.051146455  0.051702608            3 
 1586000   0.99471725   -4.9793319    976.18438  0.051291739  0.051690551            2 
 1587000    1.0144801   -5.0032724    978.02486  0.051356063  0.051678765            2 
 1588000   0.99461155    -5.003207    979.89035  0.051421618  0.051666976            2 
 1589000    0.9779836   -4.9655272    979.36455  0.051361682  0.051655179            3 
 1590000    1.0123148   -5.0161491    976.75557   0.05119264  0.051643358            2 
 1591000    0.9870444   -4.9529719    979.26799  0.051292059  0.051631353            3 
 1592000    1.0022766   -4.9700646    977.80004     0.051183  0.051619341            2 
 1593000   0.98525028   -4.9972517    978.05282  0.051164094  0.051607418            7 
 1594000    1.0005405   -4.9947601    980.85808  0.051278653    0.0515956            2 
 1595000    0.9906382   -5.0371793     978.1554  0.051105298  0.051583448            4 
 1596000   0.99376933   -4.9866161    978.30619   0.05108115  0.051571098            5 
 1597000    1.0101432   -4.9922549    981.49925  0.051215782  0.051559115            2 
 1598000     1.013282   -4.9705069    980.14246  0.051112978  0.051547296            2 
 1599000   0.99621505   -4.9871089    979.68698  0.051057275  0.051535344            4 
 1600000    1.0097387    -5.030601    980.20955  0.051052581  0.051523154            3 
 1601000    1.0123821   -5.0098985    979.06952  0.050961353  0.051510573            8 
 1602000   0.99834568   -5.0133636    979.57815     0.050956  0.051498373            4 
 1603000   0.97559579    -4.992323    977.54528  0.050818532  0.051486302            4 
 1604000   0.99887796   -5.0164402    982.26197  0.051031898  0.051474406            3 
 1605000   0.98423805   -4.9884217    980.86176  0.050927402  0.051462487            4 
 1606000   0.98839282   -4.9684418    987.31244  0.051230409  0.051450475            3 
 1607000    1.0063633   -5.0028201    980.00192  0.050819432  0.051438566            4 
 1608000   0.97300003    -5.004807    984.28542  0.051009816  0.051426487            4 
 1609000    1.0085545   -4.9557713    988.69159  0.051206318  0.051414576            5 
 1610000    1.0070207   -4.9854689    989.58588  0.051220801  0.051403083            3 
 1611000    1.0123498   -4.9824815    985.64436  0.050985121  0.051391445            2 
 1612000    1.0134431   -5.0114284    986.97001  0.051022023  0.051379757            4 
 1613000   0.99119488   -4.9892316    987.97097  0.051042104   0.05136783            6 
 1614000   0.98906781   -4.9955969    990.05938  0.051118308  0.051355746            4 
 1615000   0.99903894   -4.9649886    991.20389  0.051145712     0.051344            2 
 1616000   0.97400929   -4.9892199    991.17231  0.051112434  0.051332319            3 
 1617000   0.98114046   -5.0102643    987.85787  0.050910012  0.051320509            4 
 1618000   0.98982494   -5.0062729    988.95624  0.050935117  0.051308536            4 
 1619000   0.97442967   -4.9946463    989.82227  0.050948233  0.051296944            3 
 1620000   0.98150015   -5.0012454    992.07535  0.051032683  0.051285302            6 
 1621000     1.015738   -5.0025789    988.84409  0.050835086  0.051273502            3 
 1622000   0.99133595   -4.9962974    990.95567  0.050912232  0.051261862            2 
 1623000     1.034262   -4.9911292    989.25339  0.050793458   0.05125054            2 
 1624000   0.97961247    -5.016292    989.57806  0.050778841   0.05123866           10 
 1625000   0.98612568   -5.0323168    989.04907  0.050720465  0.051226695            4 
 1626000   0.98888151   -5.0181854    991.77263  0.050828856  0.051214653            3 
 1627000    1.0019934   -5.0122473    993.89469  0.050906304  0.051202849            7 
 1628000   0.99756931    -5.020639    994.66842  0.050914641  0.051191102            4 
 1629000   0.99002072   -5.0023777    993.35057  0.050815969  0.051179358            4 
 1630000    1.0059154   -5.0216252    993.14546  0.050774308  0.051167646            5 
 1631000     1.021483   -5.0051852    993.49572  0.050761073  0.051155677            5 
 1632000   0.96467987   -4.9965566    995.74039  0.050844587  0.051144088            6 
 1633000   0.97475882   -5.0022322      997.696  0.050913247  0.051132505            7 
 1634000   0.99283292   -5.0283249     996.0498  0.050798134   0.05112089            3 
 1635000   0.99661785    -5.010537    996.56425  0.050793285  0.051109561            2 
 1636000   0.97803485   -5.0232947    997.31371  0.050800413  0.051097952            3 
 1637000   0.97193749   -5.0128087    997.90753   0.05079961  0.051086699            3 
 1638000   0.99356541    -4.997985    998.03983  0.050775327  0.051075268            3 
 1639000   0.97704939   -5.0279936    997.33347  0.050708433  0.051063806            4 
 1640000   0.97975511   -5.0224056    995.08175  0.050563097  0.051052428            2 
 1641000    1.0141473   -5.0232613    993.83396  0.050468919  0.051041011            3 
 1642000   0.99003854   -5.0259559    1001.0612  0.050804974  0.051029399            5 
 1643000   0.97571585    -5.004641    1000.6395  0.050752662  0.051017799            9 
 1644000   0.99548233   -5.0340387    1001.0075  0.050740446  0.051006342            3 
 1645000     1.009496   -5.0237114    1002.1183  0.050765872   0.05099474            3 
 1646000    0.9760927   -5.0030333    1002.1257  0.050735402  0.050983177            1 
 1647000   0.98481165    -5.021257    997.70733  0.050481043  0.050971596            2 
 1648000   0.95825244   -5.0283121    999.77623  0.050555028  0.050959812            5 
 1649000    1.0001529   -5.0073754    1002.1658   0.05064513   0.05094805            6 
 1650000   0.97933393   -5.0254081    1004.4918  0.050731908  0.050936313            5 
 1651000   0.97932303   -4.9885145    1004.7918  0.050716322  0.050924936            3 
 1652000   0.97289691   -5.0044965     1004.678  0.050679885  0.050913388            4 
 1653000   0.99415988   -5.0166719    1003.3085  0.050580184  0.050901959            4 
 1654000   0.97087415   -5.0314423    1006.0003  0.050685221  0.050890689            4 
 1655000   0.97791439   -5.0131848    1005.6676  0.050637846  0.050879457            6 
 1656000   0.99236091   -5.0164064    1008.0551  0.050727412  0.050868155            3 
 1657000   0.98619566   -5.0057544    1005.4953   0.05056806  0.050857071            4 
 1658000   0.98156733    -5.017221    1007.8355  0.050655181   0.05084576            4 
 1659000   0.98936117    -5.018331    1006.1402   0.05053949  0.050834532            6 
 1660000   0.97006087   -5.0341452    1006.3592   0.05052004  0.050823381            4 
 1661000    1.0010886   -5.0238705    1007.7464  0.050559223  0.050812153            7 
 1662000   0.99005233   -4.9956678    1008.8999  0.050586637  0.050800843            6 
 1663000   0.98529087   -5.0305287    1009.7689  0.050599763  0.050789624            3 
 1664000   0.97642129   -4.9916157     1012.823  0.050722308  0.050778706            4 
 1665000   0.95570367   -4.9957588     1013.102  0.050705803  0.050767785            4 
 1666000   0.98405206   -5.0095548    1009.3333  0.050486859  0.050756361            5 
 1667000   0.98089586   -5.0102272    1015.0725  0.050743476  0.050745494            3 
 1668000   0.97676339   -5.0071637    1010.7289  0.050496048  0.050734645            4 
 1669000   0.99017571   -5.0137556    1010.6362  0.050461165  0.050723417            4 
 1670000   0.97433095   -5.0425208    1009.5019  0.050374345  0.050712275            4 
 1671000   0.99792944   -4.9922588    1010.4876  0.050393359  0.050701111            3 
 1672000   0.98214915   -5.0089965    1016.1724  0.050646549  0.050690074            3 
 1673000   0.99656156   -5.0449616    1011.1087   0.05036405  0.050678788            5 
 1674000   0.99351231    -5.027804     1013.216  0.050438871  0.050667762            2 
 1675000   0.99895674   -4.9822786    1019.6929  0.050730991  0.050657049            3 
 1676000   0.99328471   -5.0425754     1011.802  0.050308374  0.050646213            3 
 1677000    1.0000654   -5.0078575    1016.0653  0.050490227  0.050635169            4 
 1678000   0.99777992   -5.0207442    1016.6448  0.050488915  0.050624081            4 
 1679000   0.98782316   -5.0404473    1015.9484   0.05042428   0.05061288            3 
 1680000   0.97498991   -5.0069986    1013.3621  0.050265979  0.050601491            6 
 1681000   0.97856454   -4.9662693    1018.4792  0.050489747   0.05059034            3 
 1682000   0.99052028    -5.003032    1016.2397  0.050348777  0.050579143            2 
 1683000   0.96225542   -5.0016657    1014.4036  0.050227945  0.050567624            3 
 1684000   0.98433305   -4.9795943    1020.3654   0.05049314  0.050556311            4 
 1685000   0.97111774     -5.02567    1013.4582  0.050121571  0.050544991            5 
 1686000   0.98998581   -5.0159545    1017.0536  0.050269553  0.050533766            3 
 1687000   0.98344298   -5.0129494    1018.7578  0.050323939   0.05052247            4 
 1688000   0.97958267   -5.0329146    1016.4589  0.050180635  0.050510936            3 
 1689000   0.98320924    -5.059459    1016.0618  0.050131332  0.050499534            4 
 1690000   0.96735894    -5.026813    1019.5947  0.050275874  0.050488257            3 
 1691000   0.99208152   -5.0422542    1020.1195  0.050272004  0.050476984            4 
 1692000   0.98322759   -5.0149881    1019.2703   0.05020047  0.050466027            5 
 1693000   0.98557065   -5.0503705    1019.3444  0.050174466  0.050454857            4 
 1694000   0.97728144   -5.0231367    1021.1896  0.050235616  0.050443751            2 
 1695000   0.98313702   -5.0080949    1024.3791  0.050362788  0.050432571            4 
 1696000   0.98191712    -5.018189    1022.4722  0.050239399  0.050421412            2 
 1697000    1.0006362   -5.0205166    1019.8518  0.050081112  0.050409922            8 
 1698000   0.99953835   -5.0072747    1025.1134  0.050309843  0.050398631            3 
 1699000   0.96251961   -5.0203799    1026.3709  0.050341913  0.050387442            4 
 1700000   0.98787692   -5.0323026    1024.7708  0.050233865  0.050376463            3 
 1701000   0.96222482   -5.0377183     1026.556  0.050291791  0.050365489            3 
 1702000   0.98616477    -4.996016    1024.9328  0.050182763  0.050354356            3 
 1703000   0.98705933   -5.0106502    1029.0372  0.050354141  0.050343455            6 
 1704000   0.99723571   -5.0299959    1023.2499  0.050041564  0.050332374            3 
 1705000   0.98235259   -5.0208995      1027.77   0.05023314  0.050321221            8 
 1706000   0.99549503   -5.0032139    1028.6039  0.050244425   0.05031034            1 
 1707000   0.98170733   -5.0320741    1026.3648  0.050105681  0.050299339            3 
 1708000   0.99080615    -5.047415    1030.7665  0.050291108  0.050288356            2 
 1709000   0.98250437     -5.04474    1025.2664  0.049993486  0.050276995            4 
 1710000   0.96931986   -5.0334829    1029.6878  0.050179718   0.05026578            4 
 1711000   0.97165269   -5.0597019     1025.049  0.049924457  0.050254679            5 
 1712000   0.97894531    -5.004025    1027.8793  0.050033066  0.050243473            4 
 1713000   0.98667394   -4.9979465    1031.3472  0.050172562  0.050232602            3 
 1714000   0.98290019   -5.0190364      1031.99  0.050174542  0.050221735            4 
 1715000   0.96108475   -5.0391239    1033.2254  0.050205313  0.050210742            3 
 1716000   0.99550607   -5.0390939    1034.5778  0.050241735  0.050199975            2 
 1717000   0.97926173   -5.0435431    1031.2052  0.050048786  0.050189382            3 
 1718000   0.96689706   -5.0331509    1030.4942  0.049985166  0.050178377            8 
 1719000    1.0040839   -5.0406597    1034.8097  0.050165293  0.050167709            3 
 1720000   0.96848415   -5.0247049     1033.145  0.050055473  0.050156797            2 
 1721000   0.97868178   -5.0024065     1035.877  0.050158676     0.050146            3 
 1722000   0.93624953   -5.0048527    1033.1586  0.049997998  0.050135488            3 
 1723000   0.97535479    -5.040643    1033.4443  0.049982797  0.050124617            3 
 1724000    0.9776681   -5.0409609    1034.3957  0.049999792  0.050113702           13 
 1725000   0.96654745   -5.0001096    1037.6515  0.050128094  0.050102947            2 
 1726000   0.95987719   -5.0031248     1037.935  0.050112738  0.050092075            2 
 1727000   0.96794519   -5.0421419    1033.1422  0.049852453  0.050081387            2 
 1728000   0.95610324    -5.043047    1037.0523  0.050012168  0.050070475            3 
 1729000   0.96625405   -5.0253605    1038.8047  0.050067705  0.050060017            2 
 1730000   0.97149474   -5.0492839    1037.6256  0.049981963  0.050049173            3 
 1731000   0.95167123   -5.0429382    1039.4933  0.050043005  0.050038471           10 
 1732000   0.95140286   -5.0254719    1041.5239  0.050111813   0.05002787            6 
 1733000     0.953946   -5.0191676    1042.3416  0.050122215  0.050017543            3 
 1734000   0.97638097   -5.0474763    1039.5632  0.049959784  0.050007204            3 
 1735000   0.99806075   -5.0522369    1042.2134  0.050058281  0.049996778            5 
 1736000   0.98590892   -5.0063775    1042.8413  0.050059586  0.049986437            2 
 1737000   0.99912994   -5.0229841    1046.1591  0.050189939    0.0499761            2 
 1738000   0.96038185   -5.0321793    1039.6983  0.049851278  0.049965629            3 
 1739000   0.97021246   -5.0346728    1038.9441  0.049786473  0.049955366            5 
 1740000     0.975178   -5.0374693    1043.7646  0.049988727  0.049944863            4 
 1741000   0.96486425   -5.0455178    1041.0966  0.049832308  0.049934606            3 
 1742000   0.97760126   -5.0097919    1045.4261  0.050010816  0.049924409            3 
 1743000   0.96949857   -4.9991641    1050.0202  0.050201768  0.049914035            3 
 1744000   0.97285722   -5.0368215    1042.3645  0.049807173  0.049903962            4 
 1745000   0.97126796   -5.0301279    1046.0577     0.049955   0.04989367            7 
 1746000    0.9808338   -5.0358402    1047.1309  0.049977612  0.049883393            6 
 1747000   0.96911952   -5.0412957    1050.7639  0.050122299  0.049873308            5 
 1748000   0.97898697   -5.0452116    1051.2781  0.050118139  0.049863113            5 
 1749000   0.97146018   -5.0249494    1047.4301   0.04990614  0.049853039            5 
 1750000   0.98703497   -5.0392626    1049.1681  0.049960384  0.049842775            5 
 1751000   0.97971605   -5.0757182    1045.5988  0.049761985   0.04983229            2 
 1752000    0.9616219   -5.0678352    1045.6164  0.049734417  0.049821925            2 
 1753000   0.97345448   -5.0367043    1048.6491  0.049850213  0.049811638            4 
 1754000   0.95495287   -5.0179573    1049.4199  0.049858414  0.049801184            3 
 1755000   0.94392244   -5.0420146    1049.6908  0.049842868  0.049790949            4 
 1756000   0.96753583   -5.0736005    1048.9609  0.049779846  0.049780796            3 
 1757000   0.96327011   -5.0554897    1049.6649  0.049784903  0.049770493            3 
 1758000   0.96508008   -5.0509178    1051.0104  0.049820366  0.049760295            2 
 1759000   0.98692744   -5.0670422    1052.6459  0.049869522  0.049750098            3 
 1760000   0.96165293   -5.0411626    1051.0848  0.049767274  0.049739837            7 
 1761000   0.97319666    -5.038982     1051.362  0.049752128  0.049729717            4 
 1762000    0.9593542   -5.0088668    1055.8682  0.049937011  0.049719378            4 
 1763000   0.98626256   -5.0685677    1053.2142  0.049783239  0.049709362            3 
 1764000   0.95590766   -5.0345131    1051.5336  0.049675622  0.049699125            2 
 1765000   0.96044496   -5.0571731    1054.9111  0.049806946  0.049688962            3 
 1766000   0.96910386   -5.0623612    1054.2572  0.049747885  0.049678624            5 
 1767000   0.95569901   -5.0629903    1053.1175  0.049665985  0.049668299            6 
 1768000   0.95485268   -5.0286428    1055.5693  0.049753456  0.049658027            5 
 1769000   0.97519784   -5.0047661    1060.5385  0.049959418  0.049647865            4 
 1770000   0.97358238   -5.0862476    1057.0519  0.049767041  0.049637757            3 
 1771000   0.98540146   -5.0461465    1053.0272  0.049549558  0.049627407            5 
 1772000   0.96555196   -5.0598234    1053.1107  0.049525521  0.049616929            8 
 1773000    0.9697753   -5.0810767    1050.5635  0.049377869  0.049606219            4 
 1774000   0.95689009    -5.034652    1054.5007  0.049534981  0.049595615            2 
 1775000   0.98281242   -5.0708677    1056.0335  0.049579035  0.049585239            2 
 1776000   0.98651285   -5.0411376     1057.051  0.049598866  0.049574532            2 
 1777000   0.96957844   -5.0543112    1053.5927  0.049408776  0.049563948            4 
 1778000   0.95068779   -5.0332277    1058.2559  0.049599545  0.049553433            4 
 1779000   0.96751296   -5.0437594    1057.7251  0.049546801  0.049542787            3 
 1780000   0.97291191   -5.0446967    1056.5615  0.049464488  0.049532202            2 
 1781000   0.94220551   -5.0646952    1056.1115  0.049415659    0.0495216            3 
 1782000   0.96464501   -5.0620773    1058.7593   0.04951175  0.049511184            3 
 1783000   0.95540615   -5.0580719    1062.1372  0.049641856  0.049500714            2 
 1784000    0.9909168   -5.0129966    1063.9144  0.049697049  0.049490339            2 
 1785000   0.96219369   -5.0620122    1063.7551  0.049661768  0.049479912            2 
 1786000   0.96441806   -5.0438443    1062.1367  0.049558452   0.04946966            3 
 1787000   0.94691711   -5.0101293    1065.8849  0.049705507  0.049459439            4 
 1788000   0.97296107   -5.0630414    1057.9895  0.049309729  0.049448971            4 
 1789000   0.96358472   -5.0542339    1063.5646  0.049541858  0.049438754            7 
 1790000   0.97615007   -5.0639209    1060.1761  0.049356428  0.049428427            3 
 1791000   0.96522791   -5.0488118    1062.3851  0.049431654  0.049418055            5 
 1792000   0.96951395   -5.0744986    1061.1521  0.049346729  0.049407295            4 
 1793000   0.97386525   -5.0642029    1064.3835  0.049469394  0.049396841            1 
 1794000   0.99479924   -5.0221169    1065.7353  0.049504611   0.04938616            4 
 1795000   0.93939162   -5.0548392    1065.4876  0.049465532  0.049375961            3 
 1796000    0.9724547   -5.0313313    1067.2935  0.049521785  0.049365651            4 
 1797000   0.96943922   -5.0569198    1067.8399  0.049519566  0.049355282            3 
 1798000   0.97245017   -5.0483926    1067.0083  0.049453479  0.049344756            6 
 1799000   0.97981131   -5.0453442    1065.5425   0.04935809  0.049334238            6 
 1800000   0.95921974   -5.0636642    1065.8551  0.049345144  0.049323795            3 
 1801000   0.96071595    -5.069068    1064.7189  0.049265171  0.049313232            3 
 1802000   0.95189507   -5.0546905    1064.3655   0.04922149  0.049302996            3 
 1803000   0.97589964   -5.0429407    1068.5143  0.049385946  0.049292884            2 
 1804000   0.97673532   -5.0558494     1068.207  0.049344374  0.049282646            4 
 1805000   0.98290976   -5.0475889    1066.7545  0.049249979  0.049272236            4 
 1806000    0.9594161   -5.0845188    1069.0959  0.049330745  0.049261925            3 
 1807000   0.96577723   -5.0468436    1069.8333  0.049337452  0.049251599            7 
 1808000   0.97157316   -5.0300298    1073.1478  0.049462935  0.049241261            3 
 1809000   0.95632579   -5.0892868    1068.4079  0.049217243  0.049230938           10 
 1810000   0.96316699   -5.0504287    1072.0207  0.049356384  0.049220752            4 
 1811000   0.97156759   -5.0057899    1073.5779  0.049400786  0.049210566            4 
 1812000   0.96022523   -5.0305302    1073.0433   0.04934894  0.049200474            3 
 1813000   0.93845436   -5.0494816    1075.0816  0.049415407  0.049190259            6 
 1814000   0.96503812    -5.085704    1069.2737  0.049121358      0.04918           10 
 1815000   0.97087932   -5.0590506    1073.0314  0.049266821  0.049169648            7 
 1816000   0.93905906   -5.0737967    1072.9734   0.04923703  0.049159354            3 
 1817000   0.97994257    -5.018083    1075.2738  0.049315437  0.049149209            4 
 1818000   0.95765762    -5.074888    1068.7535  0.048989434  0.049139101            4 
 1819000   0.95105766   -5.0751957    1072.4805  0.049133244  0.049128757            4 
 1820000   0.94764055    -5.072406    1073.2086  0.049139587  0.049118508            5 
 1821000   0.95702348   -5.0470281    1075.1602  0.049201914  0.049108602            5 
 1822000   0.96159807   -5.0464264    1074.8109  0.049158933  0.049098474            3 
 1823000   0.97111469   -5.0734939     1076.008  0.049186688  0.049088057            2 
 1824000   0.95779381    -5.092688    1075.5882  0.049140544  0.049077738           11 
 1825000    0.9564328   -5.0898762    1074.9856  0.049086099  0.049067249            3 
 1826000   0.95025951   -5.0643839    1077.8334  0.049189182  0.049056694           12 
 1827000   0.93311886   -5.0575741    1072.8831  0.048936465  0.049046245            6 
 1828000   0.95600037   -5.0827672    1075.3699  0.049023062  0.049035812            4 
 1829000   0.94745181   -5.0502839    1078.1098  0.049121095   0.04902559            3 
 1830000   0.94996385    -5.081064    1076.1889  0.049006779  0.049015401            2 
 1831000   0.97490062   -5.0457637    1078.7192  0.049095176  0.049004996            5 
 1832000   0.97526621   -5.0898038    1076.7142  0.048977176  0.048994488            4 
 1833000   0.96816984   -5.0697745    1076.2135  0.048927689  0.048983915            4 
 1834000   0.95707835   -5.0853907    1074.3934  0.048818309  0.048973132            7 
 1835000   0.94529285   -5.0676981    1079.2564   0.04901255  0.048962831            4 
 1836000   0.94430796    -5.060555    1080.6928  0.049051052  0.048952422            3 
 1837000   0.95730425   -5.0543199    1081.9994  0.049083626  0.048941983            6 
 1838000   0.96921736    -5.059699    1076.7317  0.048818087   0.04893136            5 
 1839000   0.96215256    -5.086647    1082.3503  0.049046142  0.048920768            3 
 1840000   0.94094728   -5.0865433     1077.977  0.048821424   0.04891044            5 
 1841000   0.95205283   -5.0635833    1078.8042  0.048832349  0.048900019            4 
 1842000   0.93887285   -5.0586183    1081.8202  0.048942282  0.048889548            4 
 1843000   0.95175067   -5.0978452    1080.9538   0.04887655  0.048879204            7 
 1844000   0.97371555   -5.0459894    1082.8713  0.048936699  0.048868881            3 
 1845000   0.95716545   -5.0724469    1081.4137   0.04884434  0.048858579            2 
 1846000   0.97457511    -5.103737    1081.5912  0.048825894  0.048848252            6 
 1847000   0.97033168   -5.0549822    1084.3471    0.0489238  0.048837814            2 
 1848000   0.93846437   -5.0978355    1081.3128  0.048760497  0.048827575            7 
 1849000   0.95117369   -5.0567492    1085.0792  0.048903875  0.048817356            5 
 1850000   0.95452225   -5.0891278    1083.9311  0.048825726    0.0488068            5 
 1851000   0.97348337   -5.0648238    1086.0791  0.048896051  0.048796315            6 
 1852000   0.97223857   -5.0661044    1082.2756  0.048698505  0.048785761            2 
 1853000   0.96340486   -5.0470736    1085.5281  0.048818497  0.048775029            5 
 1854000   0.95571209   -5.0674058    1086.5182  0.048836667   0.04876434            4 
 1855000   0.94107085    -5.086496    1081.3315  0.048577336  0.048753842            5 
 1856000   0.93887753   -5.1041944    1084.5846  0.048697223  0.048743007            5 
 1857000   0.96274292   -5.0786451    1086.5629  0.048759776  0.048732383            2 
 1858000   0.96300892   -5.0728503    1085.6204  0.048691264  0.048722001            4 
 1859000   0.95563428   -5.0657788    1089.5751  0.048842349  0.048711835            5 
 1860000   0.97218975   -5.0886924    1087.9375  0.048742722  0.048701382            6 
 1861000    0.9612591   -5.0817774    1088.5254  0.048742853  0.048691127            2 
 1862000   0.95598781   -5.0979946     1086.403  0.048621687  0.048680966            8 
 1863000   0.95686372   -5.0890817     1091.179  0.048809224  0.048670633            2 
 1864000   0.97434503   -5.0810451    1088.2836  0.048653593  0.048660356            4 
 1865000   0.97248645   -5.0598848    1090.3136  0.048718212  0.048649976            4 
 1866000     0.956363    -5.093794    1086.6201  0.048527158  0.048639451            2 
 1867000   0.96699349   -5.1006916     1089.063  0.048610204  0.048628964            2 
 1868000   0.94642553     -5.09708    1089.7413  0.048614443  0.048618675            2 
 1869000   0.95479045   -5.0969587    1089.5298  0.048578998  0.048608247            2 
 1870000    0.9528035    -5.090087    1092.2412  0.048673849  0.048597678            2 
 1871000   0.95464088   -5.1040039    1091.7815  0.048627363   0.04858723            4 
 1872000   0.95401492   -5.0614598     1089.888  0.048517093   0.04857689            5 
 1873000   0.96974535   -5.0602289    1090.2166  0.048505809  0.048566482            4 
 1874000   0.95500932   -5.0833916    1092.3772  0.048576004  0.048555857            3 
 1875000   0.95756384   -5.0925944    1090.5757   0.04847003  0.048545325            4 
 1876000   0.95910466   -5.0622264    1093.6779  0.048581995  0.048534712            6 
 1877000   0.96094447    -5.067687    1093.5305  0.048549571  0.048524168            9 
 1878000   0.93896708   -5.1141042    1094.2852  0.048557208  0.048513572            5 
 1879000   0.94657552   -5.0632227    1095.8863  0.048602374  0.048503118            2 
 1880000    0.9457718    -5.073308    1092.5434  0.048428341  0.048492601            5 
 1881000   0.94971821   -5.0661516    1096.5102  0.048578337  0.048482196            3 
 1882000   0.95604103   -5.0803023    1096.6423  0.048558373  0.048471902            3 
 1883000   0.94143109   -5.0760479    1096.4857  0.048525655  0.048461457            2 
 1884000   0.95895959   -5.0528128    1096.7347  0.048510914  0.048451274            7 
 1885000   0.92855396   -5.1000399    1097.7987  0.048532214  0.048441025            3 
 1886000   0.96434191   -5.0942015    1096.9813  0.048470365  0.048430645            3 
 1887000   0.96332214   -5.0879653    1097.7595  0.048479045  0.048420151            7 
 1888000   0.95561981   -5.1157142    1094.3308  0.048302029  0.048409719            3 
 1889000   0.96668387   -5.1143271     1091.887   0.04816865  0.048399121            3 
 1890000   0.94002688   -5.1299003     1098.112  0.048417638  0.048388533            4 
 1891000   0.97492645   -5.1191198    1099.2231  0.048440995  0.048377866            3 
 1892000   0.93101555   -5.0783865     1097.701  0.048348351  0.048367422            2 
 1893000   0.95779028   -5.0977236    1100.7383   0.04845652  0.048356794            3 
 1894000   0.94427803   -5.1257554    1095.3967  0.048195914  0.048346003            6 
 1895000   0.96959445   -5.1067721    1099.6989   0.04835967  0.048335348            6 
 1896000   0.93655698   -5.0880377    1094.0434  0.048085592  0.048324827            8 
 1897000   0.94165242   -5.0842545    1105.0966  0.048545801  0.048314304            3 
 1898000   0.96732815   -5.1295786    1097.8112  0.048200352  0.048303725            5 
 1899000   0.93166143   -5.1095195    1101.5266   0.04833801   0.04829328            3 
 1900000   0.94732941   -5.0956081    1103.3815  0.048393924  0.048282925            2 
 1901000   0.93897471   -5.0913088    1103.6937  0.048382156  0.048272493            2 
 1902000   0.94141097   -5.0804275    1102.1027   0.04828701  0.048262144            3 
 1903000   0.95054329   -5.0718634    1103.7345  0.048333093  0.048251603            3 
 1904000   0.95649661   -5.0602161    1108.8008  0.048529447  0.048241287            8 
 1905000   0.96019401   -5.1007491    1108.2161  0.048478395   0.04823086            3 
 1906000    0.9485986   -5.1131181    1101.3653   0.04815343  0.048220477            7 
 1907000   0.94885794   -5.1068484    1102.2738   0.04816788  0.048210132            2 
 1908000   0.93932886   -5.0688957    1103.3493  0.048189611  0.048199663            4 
 1909000   0.93618469   -5.0964999    1106.4623  0.048300257  0.048189245            7 
 1910000   0.94589001   -5.0944537    1103.9456  0.048165167   0.04817891            2 
 1911000   0.92159094   -5.0887691    1107.2369  0.048283484  0.048168487            3 
 1912000    0.9358562   -5.1192223    1101.2435  0.047997013  0.048158003            4 
 1913000   0.95786197   -5.1191478    1101.5807  0.047986612  0.048147488            3 
 1914000    0.9640671   -5.1070002    1101.6586  0.047964932  0.048137211            4 
 1915000   0.95518821   -5.1241883    1105.4223  0.048103668  0.048126634            6 
 1916000   0.95709737   -5.0998885     1104.598   0.04804271    0.0481162            7 
 1917000   0.93120142   -5.0697529    1104.9022  0.048030873  0.048105706            6 
 1918000   0.93293692   -5.0903786    1108.1476  0.048146838  0.048095187            9 
 1919000   0.93601108   -5.0925052    1106.5751   0.04805346  0.048084523            5 
 1920000   0.94365544   -5.1185601    1105.6139  0.047986714  0.048073816            7 
 1921000   0.93739655   -5.1010386    1106.7855  0.048012561  0.048063097            7 
 1922000   0.96268808   -5.1394853    1109.2296  0.048093549  0.048052317            4 
 1923000   0.93451704   -5.0732181    1109.1917  0.048066895  0.048041541            4 
 1924000   0.94693442   -5.1132125    1107.6569  0.047975437   0.04803097            4 
 1925000   0.94296309   -5.0809883    1107.9283  0.047962266  0.048020395            3 
 1926000   0.94291991   -5.1004254    1107.0602  0.047899799  0.048009746            6 
 1927000    0.9377465   -5.0833857     1111.915  0.048084891   0.04799924            4 
 1928000   0.92861247   -5.0829864    1110.0507  0.047979369  0.047988725            5 
 1929000   0.94880781   -5.1014853     1109.404  0.047926558  0.047978093            7 
 1930000   0.94595686   -5.0681001    1112.0478   0.04801588  0.047967607            8 
 1931000   0.96207287   -5.0834487    1114.4423  0.048094353   0.04795706            3 
 1932000   0.94236178   -5.1079443    1110.4927  0.047899101  0.047946499            4 
 1933000   0.94085293   -5.1009032    1110.4697  0.047873326  0.047935689            2 
 1934000   0.95206436   -5.0983488    1115.1395  0.048049791  0.047925082            5 
 1935000   0.94283615   -5.0683814    1111.1318   0.04785236  0.047914445            5 
 1936000   0.94910304   -5.0828337    1113.1088   0.04791274  0.047903848            4 
 1937000   0.94458943   -5.0981886    1113.9065  0.047922326  0.047893372            2 
 1938000   0.94979607   -5.1551331    1110.2663  0.047741067  0.047882649            7 
 1939000    0.9341537   -5.1388315    1110.7489   0.04773719  0.047871862            3 
 1940000   0.95062269   -5.0947337    1115.2859   0.04790747  0.047860971           13 
 1941000   0.95640566   -5.1195834     1108.444  0.047589043  0.047850228            2 
 1942000   0.92316853   -5.1180477     1112.877  0.047754764  0.047839198            4 
 1943000   0.93419801   -5.1102255     1112.966  0.047734004  0.047828289            5 
 1944000   0.92608791   -5.1090346    1111.8432  0.047661318  0.047817406            6 
 1945000   0.96015672   -5.1305668    1112.9768  0.047685383  0.047806449            3 
 1946000   0.94224313   -5.1009606    1116.4185  0.047808262  0.047795428            3 
 1947000   0.93884497    -5.113551    1116.0247  0.047766849  0.047784625            4 
 1948000   0.93655606   -5.1252028    1110.7026  0.047514656   0.04777353            8 
 1949000   0.94343786    -5.098083     1115.065  0.047676801  0.047762549            4 
 1950000   0.92996428   -5.1311264    1113.1794  0.047571768  0.047751461            4 
 1951000   0.93691516   -5.0785789    1120.6147  0.047864972  0.047740566            5 
 1952000    0.9212022   -5.0948594    1116.5491  0.047666882  0.047729837            2 
 1953000   0.94420144    -5.117679    1112.0353  0.047449876  0.047718744            3 
 1954000   0.92582126   -5.1133199     1115.789  0.047585681  0.047707759            3 
 1955000   0.95072835   -5.0993375    1117.0757  0.047616187  0.047696655            4 
 1956000   0.93941255   -5.1387947    1114.6496   0.04748848  0.047685761            4 
 1957000   0.93199456   -5.1298626    1117.0434  0.047566146   0.04767478            6 
 1958000   0.92483182   -5.1097085    1112.2355  0.047337228    0.0476638            2 
 1959000   0.90151945   -5.1263862    1115.7161  0.047461124  0.047652806            6 
 1960000   0.95492107   -5.0919559    1117.6025  0.047517113  0.047642112            2 
 1961000   0.94958979   -5.0937781    1120.1851  0.047602629  0.047631597            3 
 1962000    0.9388502   -5.1300766     1119.065  0.047530793  0.047620995            2 
 1963000   0.92782939     -5.12115    1120.9373  0.047586064  0.047610187            4 
 1964000   0.93157245   -5.0958323    1122.5294  0.047629387  0.047599437            3 
 1965000    0.9372291   -5.0865772    1121.7551   0.04757231  0.047588858            5 
 1966000   0.94456276   -5.1004333    1125.0955  0.047689703  0.047578212            7 
 1967000   0.94870902    -5.104827    1119.4473  0.047426171  0.047567461            3 
 1968000   0.94562539   -5.1388548    1119.0276  0.047384299  0.047556685            3 
 1969000   0.93989009   -5.1465007    1118.1631  0.047323647  0.047545757            4 
 1970000   0.94578903   -5.0940648    1120.8495  0.047413263   0.04753478           11 
 1971000   0.94554686   -5.0900099    1120.3831  0.047369487  0.047523902            9 
 1972000   0.94183587   -5.0873521    1122.4553  0.047433035  0.047513297            5 
 1973000   0.92124322   -5.1216367    1124.1742  0.047481592  0.047502618            2 
 1974000   0.93852551   -5.1122869    1121.9967  0.047365616  0.047491599            4 
 1975000   0.92712515   -5.1396544    1118.1987  0.047181379  0.047480626           11 
 1976000   0.91876627   -5.0850752    1125.7942  0.047477824  0.047469822            4 
 1977000   0.92484036   -5.0561652    1127.2988  0.047517233  0.047459215            5 
 1978000   0.93325359   -5.1135324    1126.1959  0.047446743   0.04744856            4 
 1979000   0.92928627   -5.1305879    1122.6445  0.047273223  0.047437691            8 
 1980000   0.95110313   -5.1199729    1120.8121  0.047172228  0.047426986           11 
 1981000   0.93955865   -5.1254752    1125.5974  0.047349714  0.047416089            3 
 1982000   0.93597124   -5.1534763    1123.8003  0.047250264  0.047405433            2 
 1983000   0.95586763    -5.117732    1128.5781  0.047427219  0.047394831            4 
 1984000   0.94429729   -5.1417815     1128.615  0.047404863  0.047384033            6 
 1985000   0.93160641   -5.1525119     1127.992  0.047354828  0.047373268            5 
 1986000   0.95324214   -5.0918864    1127.8843  0.047326464  0.047362645            5 
 1987000   0.92922455   -5.1032394    1129.0161  0.047350112  0.047351957            8 
 1988000   0.90893959   -5.1075719     1129.111  0.047330272  0.047341372            5 
 1989000   0.93310296   -5.1357146    1128.9952  0.047301624  0.047330682            4 
 1990000   0.94294127   -5.1242949    1128.0347  0.047237636   0.04731989            3 
 1991000    0.9529469   -5.1268206    1127.9055  0.047208502   0.04730902            3 
 1992000   0.94791031   -5.1070184    1129.1779  0.047238032  0.047298244            9 
 1993000   0.93844679   -5.1030711    1132.2563  0.047343046  0.047287506            4 
 1994000   0.93908118   -5.1431404    1127.8934  0.047136969  0.047276806            2 
 1995000   0.92699298   -5.1084182     1131.766  0.047275106   0.04726603            5 
 1996000    0.9586643    -5.121458    1130.3972  0.047194274  0.047255136            4 
 1997000   0.92329609   -5.1224638    1130.9884   0.04719531  0.047244197            5 
 1998000   0.95659104    -5.125126     1128.623   0.04707303  0.047233414           10 
 1999000     0.932412   -5.1079593    1128.8712  0.047059829  0.047222749            5 
 2000000   0.95301378    -5.122281    1132.6399  0.047193327  0.047212077            2 
 2001000   0.92502282   -5.1345462     1129.577  0.047042189  0.047201314            3 
 2002000   0.91214541   -5.1267345    1132.4365  0.047137717  0.047190683            7 
 2003000   0.94562473   -5.1219386    1129.4551  0.046990144  0.047179797            3 
 2004000   0.91207696   -5.1272915    1134.2203  0.047164849  0.047169005            4 
 2005000   0.94330585   -5.0994234    1135.4473  0.047192324  0.047158313            3 
 2006000   0.94157998   -5.1260457    1129.9976  0.046942404  0.047147576            8 
 2007000   0.93172536   -5.1160985    1134.9002  0.047122578  0.047136863            5 
 2008000   0.94364459   -5.1298385    1131.1373  0.046942948  0.047126182            2 
 2009000   0.92669651   -5.1387287    1132.5917   0.04697991  0.047115402            3 
 2010000   0.92249022   -5.1146288    1140.0254  0.047264734   0.04710477            8 
 2011000   0.94532165   -5.1119549     1136.257  0.047085073  0.047094111           12 
 2012000   0.92573308   -5.1098795    1134.8586   0.04700375  0.047083495            5 
 2013000   0.93559379   -5.1398452    1137.6999  0.047098026  0.047072658            2 
 2014000   0.93185431   -5.1313678    1136.6686  0.047031968  0.047062049            6 
 2015000   0.92939498   -5.1297291    1136.1173  0.046985828   0.04705134            6 
 2016000   0.92265568    -5.138971    1136.3769  0.046973252  0.047040573            3 
 2017000   0.91843026   -5.1284495     1136.569  0.046957899   0.04702983            3 
 2018000   0.94074723   -5.1295359    1137.0328  0.046953784  0.047019238            2 
 2019000   0.94169234   -5.1089656    1138.4381  0.046988531  0.047008553            5 
 2020000   0.93462518   -5.1218758    1137.4767  0.046925608  0.046997644            9 
 2021000   0.93784619   -5.1063141    1137.1457  0.046888739  0.046986959            4 
 2022000   0.93273595   -5.1291333    1138.7862  0.046933161  0.046976231            5 
 2023000   0.93092036   -5.1230888    1135.2017  0.046762303  0.046965454            7 
 2024000   0.94226206   -5.1493844    1137.6033  0.046838081  0.046954632            4 
 2025000   0.92044127   -5.1386106    1138.1045  0.046835576  0.046943718            4 
 2026000   0.93049025   -5.1499064    1134.1559  0.046650047  0.046932811            6 
 2027000   0.93200495   -5.1503812     1133.388   0.04659546  0.046921716            3 
 2028000     0.936938   -5.1321395    1138.3291  0.046775523  0.046910681            5 
 2029000   0.90526611   -5.1243607    1143.3528  0.046958797  0.046899631            4 
 2030000   0.92992979   -5.1521441    1136.7434  0.046664341  0.046888772            2 
 2031000   0.94073719   -5.1301085    1140.2075  0.046783501  0.046877752            9 
 2032000   0.91994665   -5.1186139     1139.953  0.046750042  0.046866928            2 
 2033000   0.93155099    -5.124888    1140.9997  0.046769951  0.046856119            4 
 2034000   0.92327519   -5.1327009    1138.8386  0.046658416  0.046845193            8 
 2035000   0.93677426   -5.1530688     1140.799  0.046715765  0.046834192            5 
 2036000   0.93755063   -5.1643064    1139.4026  0.046635666  0.046823265            3 
 2037000   0.93563825   -5.1500534    1142.3584  0.046733692  0.046812254            5 
 2038000   0.91839717   -5.1450834     1142.092   0.04669987  0.046801178            3 
 2039000   0.91738013   -5.1444089    1142.9217  0.046710877  0.046790247            4 
 2040000   0.94367442    -5.129847    1140.5101  0.046589464  0.046779277            4 
 2041000   0.92703094   -5.1455833    1141.0573  0.046588979  0.046768169            2 
 2042000   0.91837485   -5.1275597    1145.7385  0.046757202  0.046757373            3 
 2043000   0.93386216   -5.1381049    1141.5186  0.046562188  0.046746432            3 
 2044000   0.92506809   -5.1570895    1143.1997  0.046607944  0.046735536            4 
 2045000   0.93730214   -5.1233876    1147.8967  0.046776556  0.046724699            3 
 2046000   0.93060351   -5.1259083    1147.8607  0.046752229   0.04671383            5 
 2047000   0.90786988   -5.1223557    1146.4512  0.046672007  0.046702998            2 
 2048000   0.93369185   -5.0883481    1146.5073  0.046651502  0.046692317            2 
 2049000   0.90916068   -5.1377741    1145.4432  0.046585456  0.046681424            7 
 2050000   0.91697501   -5.1442129    1144.2896  0.046515836  0.046670573            6 
 2051000   0.93879487   -5.1236323    1145.7632  0.046553031  0.046659734            5 
 2052000   0.91018816   -5.1256358    1144.1114  0.046463263  0.046648921            2 
 2053000   0.91702882   -5.1439472    1145.0437  0.046478473   0.04663804            4 
 2054000   0.92645857   -5.1173467    1147.1194  0.046540059  0.046627185            6 
 2055000   0.92840749   -5.1421033    1148.4391  0.046570929  0.046616301            4 
 2056000   0.92462414   -5.1659232    1148.0839  0.046533881  0.046605286           11 
 2057000   0.93350989   -5.1244448     1154.065  0.046753564  0.046594679            3 
 2058000   0.92254561   -5.1289554    1152.6833  0.046674899  0.046584039            4 
 2059000   0.93121858   -5.1553692    1143.8875  0.046296239  0.046573413            9 
 2060000   0.91905952    -5.148199    1151.7845  0.046593225  0.046562747            5 
 2061000   0.93389427   -5.1392085    1152.3653  0.046594102  0.046552029            5 
 2062000   0.91251868   -5.1336369     1152.069  0.046559529  0.046541415            5 
 2063000   0.92337312   -5.1366084    1150.5839  0.046476971  0.046530937            3 
 2064000   0.90101854   -5.1381967    1149.8296  0.046423998  0.046520231            3 
 2065000   0.93958902   -5.1382519    1150.3745  0.046423507  0.046509604            3 
 2066000   0.91809685   -5.1350417    1150.3407  0.046399673  0.046498883            3 
 2067000   0.90694019   -5.1802395    1153.3081  0.046496858  0.046488037            5 
 2068000   0.91380079   -5.1316707    1155.0788  0.046545727  0.046477285            4 
 2069000   0.92278872   -5.1491139    1148.3265  0.046251268  0.046466596           10 
 2070000   0.90811062   -5.1412358    1154.5374  0.046478962  0.046455887            3 
 2071000   0.92337073   -5.1605406    1150.4799  0.046293252  0.046445158            9 
 2072000   0.90564455   -5.1312065    1156.0418  0.046494604  0.046434523            5 
 2073000   0.95197359   -5.1411957    1153.7521  0.046380129   0.04642385            3 
 2074000    0.9292095   -5.1337049    1156.6224  0.046473097  0.046413306            3 
 2075000   0.93331576   -5.1329156    1151.5318  0.046246256  0.046402605            2 
 2076000   0.93993452   -5.1361785    1152.7328  0.046272192  0.046392102            4 
 2077000   0.91099373   -5.1468157    1154.9198  0.046337659  0.046381438            6 
 2078000   0.92929478    -5.140846    1154.6329  0.046303856  0.046370645            2 
 2079000   0.90244056   -5.1515469    1151.8156  0.046168653  0.046359894            6 
 2080000   0.91697757   -5.1408916    1154.8077  0.046266336  0.046349133            9 
 2081000   0.91613181   -5.1950461    1152.0987  0.046135618  0.046338187            2 
 2082000    0.8998336   -5.1351641    1157.4751  0.046328652  0.046327241            3 
 2083000   0.88965835   -5.1674521    1153.2065  0.046135643  0.046316367            4 
 2084000   0.92768267   -5.1418992     1153.067  0.046107924  0.046305708            3 
 2085000   0.91730989   -5.1914528    1153.4819  0.046102393  0.046294968            6 
 2086000   0.90837449   -5.1342417    1156.6706   0.04620768  0.046284216            3 
 2087000   0.91191083   -5.1522237    1156.9601  0.046197096  0.046273555            3 
 2088000   0.92011939   -5.1342285    1159.9178  0.046293017  0.046262873            2 
 2089000   0.91578978   -5.1509694    1160.5653  0.046296685  0.046252133            4 
 2090000   0.90068069   -5.1514584    1155.3328  0.046065901  0.046241301            3 
 2091000   0.90023203   -5.1631968    1158.0431  0.046151883  0.046230418            5 
 2092000   0.90149888    -5.167304    1156.1392  0.046053985  0.046219297            4 
 2093000   0.89361339   -5.1474566    1154.9035  0.045982781  0.046208283            6 
 2094000   0.94651786   -5.1583464    1158.8549  0.046118073  0.046197306            5 
 2095000   0.90608028   -5.1235211    1158.7095  0.046090274  0.046186483            4 
 2096000   0.91109829   -5.1444334    1160.4544  0.046137659  0.046175373            7 
 2097000   0.91283725   -5.1355202    1161.8948  0.046172896  0.046164402            5 
 2098000   0.92129782   -5.1950781    1157.6823  0.045983569  0.046153706            3 
 2099000   0.91542242   -5.1341995    1164.6385  0.046237831   0.04614298            4 
 2100000   0.91524014   -5.1596501    1163.0485  0.046152717   0.04613219            4 
 2101000   0.90741744   -5.1656734     1163.328  0.046141838  0.046121432            5 
 2102000   0.91797304   -5.1642158    1160.7272  0.046016777  0.046110692            6 
 2103000   0.92498215   -5.1671479    1159.9889  0.045965642  0.046099846            3 
 2104000   0.90752536   -5.1673835    1162.3434  0.046037049  0.046089019            8 
 2105000    0.9164014   -5.1687726    1162.2669  0.046012148  0.046077997            7 
 2106000   0.92383602   -5.1314147    1165.8864  0.046133521  0.046067311            3 
 2107000   0.91977723   -5.1222342    1163.5253  0.046018246  0.046056536            4 
 2108000   0.92427093   -5.1528381    1162.7015  0.045963849   0.04604578            3 
 2109000   0.91750066   -5.1594627    1166.1072  0.046076623  0.046034886            5 
 2110000   0.92457106   -5.1712994    1160.2454  0.045823279  0.046023889            4 
 2111000   0.88603777   -5.1564535    1165.2707  0.045999949  0.046012902            3 
 2112000   0.91285087   -5.1924045    1158.6952   0.04571872  0.046001825            5 
 2113000   0.91623098   -5.1764384    1163.1189  0.045871544  0.045990804            6 
 2114000   0.90393099   -5.1633748    1160.0063   0.04572715  0.045979845            3 
 2115000   0.90237345   -5.1352408    1164.0966  0.045866691   0.04596884            6 
 2116000   0.90708338   -5.1530403    1167.1691  0.045966016  0.045958061            4 
 2117000   0.92050204    -5.139378    1161.9077  0.045737196  0.045947071            4 
 2118000   0.90358218   -5.1445928     1166.248  0.045886371  0.045936041            5 
 2119000   0.93552724   -5.1516231     1164.866  0.045810368  0.045925109            4 
 2120000   0.90046114   -5.1584738    1165.1843   0.04580127  0.045914091            3 
 2121000   0.91541171   -5.1374352    1169.0717   0.04593241  0.045903089            3 
 2122000   0.92022672   -5.1597514    1165.0137  0.045751401  0.045892154            5 
 2123000   0.90118141   -5.1699369     1160.396  0.045548594  0.045880937            6 
 2124000   0.91063279   -5.1588665    1165.0304  0.045708976  0.045869929            6 
 2125000   0.92848313   -5.1564456     1164.661   0.04567298  0.045858861            4 
 2126000   0.91669757   -5.1668932    1163.4879  0.045605515  0.045847825            4 
 2127000   0.90399818   -5.1637797    1169.6121  0.045824014  0.045836561            2 
 2128000   0.93403299   -5.1472784    1163.3806  0.045558453  0.045825414            2 
 2129000   0.89605353   -5.1523105    1165.5418  0.045621646  0.045814263            3 
 2130000   0.89236549    -5.174366    1163.3638  0.045515017  0.045803158            4 
 2131000   0.90623088    -5.142589    1165.7836  0.045588285    0.0457919            6 
 2132000   0.92271456   -5.1733849    1167.8745  0.045648627   0.04578056            3 
 2133000   0.90901119   -5.1717764    1165.5578  0.045536715  0.045769265            4 
 2134000   0.93146701    -5.182297    1161.4952  0.045356732  0.045757826            5 
 2135000   0.89919011   -5.1753395    1170.7967  0.045698543  0.045746678            4 
 2136000   0.90946826   -5.1798615    1167.0703  0.045531771  0.045735374            5 
 2137000   0.91110808   -5.1842647     1165.434  0.045446654   0.04572413            2 
 2138000   0.92203939   -5.1725082    1165.7971  0.045439552  0.045712785            2 
 2139000   0.90625058   -5.1359414    1173.4045  0.045714686   0.04570165            4 
 2140000   0.90590821   -5.1859725    1164.1689  0.045333678   0.04569051            3 
 2141000   0.91279837   -5.1842469    1166.9589  0.045421099  0.045679296            7 
 2142000    0.9144608   -5.1755172    1166.7536  0.045391907   0.04566826            6 
 2143000   0.90222064   -5.1498166    1169.2543  0.045467967  0.045656905            5 
 2144000   0.92071216   -5.1978488    1164.6023  0.045265946  0.045645822            5 
 2145000   0.91505739   -5.1636421    1172.7166  0.045560087  0.045634568            2 
 2146000     0.905081   -5.1999584    1168.3414  0.045368959  0.045623247            4 
 2147000   0.89548617   -5.1750835     1170.832  0.045444495  0.045611797            4 
 2148000   0.92301504   -5.1796135    1167.2323  0.045283688  0.045600431            4 
 2149000   0.90735617   -5.2053587    1165.7018  0.045203265  0.045588957            3 
 2150000   0.93011134   -5.1561528    1166.7927  0.045224523  0.045577525            6 
 2151000   0.88054757   -5.1963487    1165.2813  0.045144943  0.045566102            3 
 2152000   0.92552009   -5.1651422    1170.8716  0.045340444  0.045554453            4 
 2153000   0.91482913   -5.1826452    1166.0499  0.045132756     0.045543            5 
 2154000   0.91607406   -5.1744636    1169.1842  0.045233063  0.045531414            3 
 2155000   0.92110222   -5.1658999    1167.3503  0.045141155  0.045519994            3 
 2156000   0.90675526   -5.1963456     1166.392  0.045083179  0.045508366            2 
 2157000   0.91041524   -5.1719538    1169.2909  0.045174272  0.045496817            4 
 2158000   0.88910514   -5.1862885    1172.8209  0.045289653  0.045485448            8 
 2159000   0.91124272   -5.2031533    1169.0283  0.045122291  0.045473756            4 
 2160000   0.90916644    -5.161259    1171.4177  0.045193583  0.045462145            2 
 2161000   0.89494596    -5.175828    1167.5226  0.045022465  0.045450608            4 
 2162000   0.91744156   -5.1783348    1173.4037  0.045228326  0.045439034            4 
 2163000   0.92294478   -5.1680093    1168.4427  0.045016284  0.045427468            4 
 2164000   0.89752529   -5.1745843    1170.2465  0.045064944  0.045416025            3 
 2165000     0.901182   -5.1984183    1170.6631  0.045060167  0.045404438           16 
 2166000   0.89862162   -5.1984873    1166.2952  0.044871315  0.045392758            3 
 2167000   0.92052607   -5.1762834    1173.6937   0.04513512  0.045380938            3 
 2168000   0.90772503   -5.1624564    1173.9247  0.045123184   0.04536957            8 
 2169000   0.89114896   -5.1765717    1171.8194  0.045021494  0.045357943            6 
 2170000   0.91650014   -5.1836036    1172.5074  0.045027166   0.04534641            3 
 2171000   0.90499661   -5.2111922    1173.4009  0.045040724  0.045334986            9 
 2172000   0.91529309   -5.1573893    1174.1153  0.045047394  0.045323606            3 
 2173000   0.89942143   -5.1395258    1173.0512  0.044985856  0.045312211            4 
 2174000   0.90293379     -5.19666     1173.707  0.044990301   0.04530096            3 
 2175000   0.87929527   -5.1765111    1175.6219  0.045042983    0.0452895            3 
 2176000   0.91248583   -5.1599982    1175.7725  0.045028053  0.045278032            2 
 2177000   0.89997083   -5.1891403    1176.5825  0.045038374  0.045266499            4 
 2178000   0.90236171   -5.1839396    1170.7441  0.044794309  0.045254817            2 
 2179000   0.89938607   -5.2071062    1175.0346  0.044937839  0.045243301            2 
 2180000   0.91683006   -5.1597652    1176.5928   0.04497679  0.045231893            3 
 2181000   0.90453952   -5.2025773    1172.3655  0.044794649  0.045220546            3 
 2182000   0.91281438   -5.1709361    1176.0905   0.04491638  0.045209088            4 
 2183000   0.92499745   -5.1715959    1175.9744  0.044891374  0.045197566            4 
 2184000   0.88710164   -5.1707409    1175.6687  0.044859154  0.045186168            4 
 2185000   0.91284454   -5.2236654    1169.6061  0.044607402  0.045174699            6 
 2186000   0.88545664   -5.1655403    1180.4203  0.044999249   0.04516315            3 
 2187000   0.90638498   -5.1574058     1179.894   0.04495862  0.045151619            5 
 2188000   0.90488284     -5.21197    1177.4237  0.044843987  0.045140176            4 
 2189000   0.88088155    -5.192068    1176.5416  0.044789919  0.045128676            3 
 2190000   0.89492277   -5.2144981    1174.4115  0.044688414  0.045117195           12 
 2191000    0.9023749   -5.1740377    1180.7151   0.04490777  0.045105658            8 
 2192000   0.90286743   -5.1675064    1178.0022  0.044784148  0.045094299            6 
 2193000   0.88977659   -5.1872574    1181.4731  0.044895619  0.045082899            6 
 2194000   0.90960916   -5.2178533    1179.0965  0.044784885  0.045071359            6 
 2195000   0.88194552   -5.2014816    1180.7077  0.044825654  0.045059889            5 
 2196000   0.89122842   -5.1433344         1182   0.04485428  0.045048411            4 
 2197000   0.89373969   -5.1729376    1179.0241  0.044720987  0.045037107            2 
 2198000   0.89183931   -5.1872245    1183.5616  0.044872672  0.045025778            4 
 2199000   0.88452621   -5.1846904    1183.5273  0.044850968  0.045014467            4 
 2200000   0.89661092   -5.1918037    1182.3849  0.044787306  0.045003201            5 
 2201000   0.91400604   -5.1744156    1183.6877  0.044816285  0.044991944            2 
 2202000   0.90114043   -5.2096697     1185.668  0.044870876  0.044980761            3 
 2203000   0.90558856   -5.1562297    1186.6818  0.044888856  0.044969572            3 
 2204000   0.90412786   -5.1983927    1185.8295  0.044836262  0.044958381            5 
 2205000   0.91743668   -5.1965695    1183.4195  0.044724848  0.044947146            6 
 2206000   0.89883094   -5.1953306    1182.9374  0.044686362  0.044935908            3 
 2207000   0.88118927   -5.1831051    1183.2021  0.044676111  0.044924659            4 
 2208000   0.89721053   -5.2060339    1182.4971   0.04462927  0.044913503            3 
 2209000   0.90621703   -5.1919044    1182.7826  0.044619834  0.044902302            2 
 2210000   0.90043438   -5.2032705    1185.4418  0.044699918  0.044891071            3 
 2211000   0.89374946   -5.1914896    1185.2825  0.044673695  0.044879876            4 
 2212000   0.89614202    -5.180226    1187.6187  0.044741512   0.04486884            6 
 2213000   0.91216983   -5.2031985    1187.4805   0.04471609  0.044857703            8 
 2214000   0.90232644   -5.1988581    1182.1768  0.044496265  0.044846499            7 
 2215000   0.89947951     -5.16442     1190.158   0.04477645  0.044835333            3 
 2216000   0.89078345   -5.1943283    1184.9779  0.044561444  0.044824116            4 
 2217000    0.8986161   -5.2195085    1183.1656  0.044473223  0.044812679            4 
 2218000   0.89065298   -5.2138254    1184.1425  0.044489876  0.044801274            4 
 2219000   0.87959221   -5.2080444    1184.7652  0.044493209  0.044790048            5 
 2220000   0.88503549   -5.1730546    1193.2011  0.044789833  0.044778863            3 
 2221000   0.90776244   -5.1782958    1189.5608   0.04463308   0.04476777            6 
 2222000   0.89527822   -5.1816442    1188.5424  0.044574798  0.044756539            3 
 2223000    0.8979198   -5.2277491    1187.4352  0.044513239  0.044745246            4 
 2224000   0.90662671   -5.1904151    1190.2428  0.044598427   0.04473406            6 
 2225000   0.89742206   -5.2179471    1191.9998  0.044644189  0.044722957            4 
 2226000   0.90294067   -5.1771121    1192.5096  0.044643217   0.04471177            3 
 2227000   0.89537532    -5.193256    1190.4946  0.044547768  0.044700572            3 
 2228000   0.90329558   -5.1655474    1189.3853  0.044486286  0.044689356            5 
 2229000   0.88202024   -5.1921617    1190.0337  0.044490566  0.044678209            4 
 2230000      0.90819   -5.1916812    1189.4339  0.044448203  0.044666935            3 
 2231000   0.91124937   -5.2178775    1190.0741  0.044452191  0.044655709            3 
 2232000   0.89812425   -5.1589459    1189.6143  0.044415111  0.044644448            4 
 2233000   0.89122993   -5.2211295    1185.6933  0.044248892  0.044633177            6 
 2234000   0.89773704   -5.1638367    1194.4406  0.044555377  0.044621839            3 
 2235000   0.90931813   -5.2064195    1192.0144   0.04444498  0.044610645            6 
 2236000   0.90051495   -5.1846446    1194.3573   0.04451242  0.044599344            4 
 2237000   0.91123021    -5.169669    1194.2641  0.044489051  0.044588235            4 
 2238000   0.90252502   -5.1848058    1191.8068  0.044377672  0.044577027            4 
 2239000   0.89316709   -5.2128341    1188.8918   0.04424936  0.044565834            3 
 2240000   0.87916115   -5.2045897    1192.1459  0.044350668  0.044554704            7 
 2241000   0.89424361   -5.2085149    1188.6047  0.044199194  0.044543409            5 
 2242000   0.88888723   -5.1788037    1196.6106  0.044477051  0.044532154           11 
 2243000   0.89465077   -5.2046299    1193.7277  0.044350115  0.044521034            4 
 2244000   0.89596844   -5.2085801    1193.0576  0.044305466  0.044509821            4 
 2245000   0.90638857    -5.224901     1194.465  0.044337975   0.04449862            4 
 2246000    0.8546212   -5.2020303    1194.0942  0.044304473  0.044487366            9 
 2247000   0.89625447   -5.1793331    1192.2305   0.04421564  0.044476087            3 
 2248000   0.89506414   -5.1898752    1193.3619  0.044237911  0.044464806            6 
 2249000   0.88237064   -5.2371929    1192.4731  0.044185307  0.044453484           12 
 2250000   0.89057114   -5.2493689    1192.6221   0.04417119  0.044441953            4 
 2251000   0.87706188   -5.2193032    1195.4732  0.044257115  0.044430645            4 
 2252000    0.8834275   -5.2286119    1191.1754  0.044078426  0.044419417            3 
 2253000   0.88031808   -5.1757472    1196.7509  0.044265087  0.044408234            3 
 2254000   0.89656879   -5.2089358    1196.5563  0.044238253  0.044397107            3 
 2255000   0.88791784    -5.170137     1196.818  0.044228308  0.044385876            3 
 2256000   0.90427119   -5.2232304    1193.5777  0.044089012  0.044374488            4 
 2257000   0.90487305    -5.240371    1193.2465  0.044057248  0.044363093            3 
 2258000   0.90004299   -5.1929183    1195.6079  0.044124884  0.044351749            6 
 2259000    0.8871272   -5.2106221    1197.9527   0.04419185   0.04434046            8 
 2260000    0.9055955   -5.2162331    1197.0373  0.044138543  0.044329185            8 
 2261000   0.88711132   -5.2059271    1197.9999    0.0441545  0.044317916            3 
 2262000    0.8742295   -5.2143271    1200.0238  0.044209543  0.044306607            3 
 2263000   0.88646871   -5.2175037    1196.2538  0.044051177  0.044295337            2 
 2264000   0.89090181    -5.214917      1198.45  0.044112558  0.044284091            8 
 2265000   0.87116751   -5.2298296    1197.3096  0.044051126  0.044272789            8 
 2266000   0.87864449   -5.2345034    1196.4857  0.044001385  0.044261486            4 
 2267000   0.90396152   -5.2383068    1194.6153  0.043913224  0.044250165            4 
 2268000   0.88925224   -5.1941115    1200.2516  0.044100954  0.044238733            4 
 2269000   0.89876561    -5.228553    1194.5416   0.04387181   0.04422728            4 
 2270000   0.89218221   -5.2457479    1194.7102   0.04385867  0.044215834            4 
 2271000    0.8911492   -5.1965633    1200.6483  0.044057256  0.044204479            3 
 2272000    0.9064505   -5.2140783    1200.9063  0.044047326  0.044193098            3 
 2273000   0.88761994   -5.2499492    1194.7265  0.043801384  0.044181742            5 
 2274000   0.89605495   -5.2340964    1197.5417  0.043885286  0.044170272            5 
 2275000   0.90210203   -5.1926693    1200.9075  0.043989286  0.044159074            3 
 2276000   0.88725192   -5.2167658    1198.7554   0.04389116  0.044147722            5 
 2277000   0.88169343   -5.1894408    1198.5047  0.043862709  0.044136383            5 
 2278000   0.89003967   -5.2016428    1197.8461  0.043819363   0.04412523            4 
 2279000   0.89982527   -5.2071139    1199.3251  0.043854216  0.044113756           10 
 2280000   0.87010467   -5.2405281    1197.2005  0.043757328  0.044102329            6 
 2281000   0.88393485   -5.2109472    1200.3434  0.043852965  0.044090907            8 
 2282000   0.90732489   -5.2124548     1194.882  0.043634313   0.04407939            7 
 2283000   0.87060097   -5.2097861     1201.276   0.04384859  0.044067948            3 
 2284000   0.87703428   -5.2107687    1201.8674  0.043850972  0.044056546            2 
 2285000   0.86497056   -5.2472407    1201.6765  0.043824819  0.044045064            6 
 2286000   0.88908779   -5.2135156     1200.808  0.043773987  0.044033612            2 
 2287000   0.87970492   -5.2008782    1201.4291  0.043777477  0.044022258            5 
 2288000   0.89461233   -5.2395339    1201.3286  0.043754682  0.044010768            4 
 2289000   0.88326388   -5.2191131    1198.2681  0.043624148  0.043999523            8 
 2290000   0.87515144   -5.2262093    1198.5253  0.043614456  0.043987881            5 
 2291000   0.89467837   -5.2235246    1199.2681  0.043622441  0.043976348            7 
 2292000   0.88830717   -5.2055138     1201.885  0.043698554  0.043964928            3 
 2293000   0.90383437   -5.2370159    1203.7381  0.043746842  0.043953577            6 
 2294000   0.90840812   -5.2361942    1200.2589  0.043601385  0.043942107            5 
 2295000   0.87640079   -5.1987239    1203.8159  0.043711542  0.043930522            7 
 2296000   0.88210618   -5.2218601    1202.6482  0.043650122  0.043918988            5 
 2297000    0.8677815   -5.2361372    1201.4201  0.043586564  0.043907419            2 
 2298000   0.87336925   -5.1971162    1203.4628  0.043641674  0.043895963            2 
 2299000   0.87975265   -5.2327299    1206.6937  0.043739802  0.043884422            4 
 2300000   0.86774093   -5.2014457    1203.4829  0.043604454  0.043873046            3 
 2301000   0.88987745   -5.2228656     1201.139  0.043500617  0.043861512            5 
 2302000   0.87631417   -5.2430492    1201.6834  0.043501426  0.043849933            3 
 2303000   0.88241867   -5.2037643    1203.4467  0.043546342  0.043838295            3 
 2304000   0.85316772   -5.2396111    1201.1186  0.043443238  0.043826791            6 
 2305000   0.87538843   -5.2381009    1202.1079  0.043460156  0.043815227            7 
 2306000   0.86812441   -5.2409606    1205.2435  0.043554623   0.04380386            6 
 2307000   0.89129858    -5.221954    1202.6261  0.043441198  0.043792337           12 
 2308000   0.85721414   -5.1971701    1206.0701  0.043546725  0.043780867            6 
 2309000   0.89247895   -5.1945032    1205.4304  0.043504777  0.043769398            9 
 2310000   0.88080019   -5.2101235    1206.3938  0.043520698  0.043757896            3 
 2311000   0.89003847    -5.220983    1204.9345  0.043449246  0.043746407            3 
 2312000   0.88712383   -5.2281439    1205.4364  0.043448543  0.043735103            3 
 2313000   0.88694554   -5.2017052    1208.0934  0.043525486  0.043723712            4 
 2314000   0.86224128   -5.2204782    1206.4714  0.043448265  0.043712376            7 
 2315000   0.88477656   -5.2418584      1200.18  0.043203024  0.043700988            9 
 2316000   0.89330459   -5.2170029     1205.142  0.043362909  0.043689407            6 
 2317000   0.89671966   -5.1933271    1205.2518  0.043348145  0.043677897            9 
 2318000    0.8816567    -5.216076    1206.7597  0.043383655  0.043666493           11 
 2319000   0.88441683    -5.233019    1208.0323  0.043410677  0.043655047            3 
 2320000   0.88452698   -5.2409841    1206.7509  0.043345938  0.043643562            3 
 2321000   0.87327724   -5.2305348    1206.4087  0.043314977  0.043632163           12 
 2322000   0.86077452   -5.2259247    1209.2053  0.043396688  0.043620796            5 
 2323000   0.89253299   -5.2610568     1210.117  0.043410712  0.043609405            5 
 2324000   0.91215332    -5.218753    1207.4725  0.043297206  0.043597918            4 
 2325000   0.87665311   -5.2096611    1209.9376   0.04336694  0.043586571            3 
 2326000   0.87454713    -5.231544    1211.6014  0.043407903  0.043575144            3 
 2327000   0.87360026   -5.2027619    1213.2966  0.043449957  0.043563685            4 
 2328000   0.88600339   -5.2211178    1212.5328  0.043403954  0.043552294            5 
 2329000   0.88632841    -5.222593    1210.3456  0.043307057  0.043540921            6 
 2330000   0.88682591   -5.2188136    1212.8203  0.043376977   0.04352962            9 
 2331000   0.87082234   -5.2214495    1210.6475   0.04328069  0.043518308            3 
 2332000   0.85798348   -5.2684939    1209.2692  0.043212879  0.043507009            9 
 2333000   0.87438323   -5.2580456     1206.782  0.043105514  0.043495654            7 
 2334000   0.88421098   -5.2520074    1212.9068  0.043305729  0.043484218            8 
 2335000   0.87062648   -5.2123869     1211.336   0.04323112  0.043472978            3 
 2336000   0.87266691   -5.2378799    1211.8589  0.043231267  0.043461658            5 
 2337000    0.8716136   -5.2279589    1212.1882  0.043224511  0.043450377            3 
 2338000   0.87720693    -5.244844    1215.3946   0.04332031   0.04343905            3 
 2339000     0.869141   -5.2502041    1214.0822  0.043255031  0.043427733            6 
 2340000   0.87657991   -5.2494468    1212.3021  0.043173152  0.043416317            4 
 2341000    0.8642513   -5.2334061    1212.0821  0.043146879  0.043404846            3 
 2342000   0.85493795   -5.2385621     1216.199  0.043274943  0.043393415            4 
 2343000   0.86833459   -5.2489905    1217.0572  0.043286998  0.043382032            3 
 2344000   0.88528173   -5.2069714    1211.7902  0.043081278  0.043370685            4 
 2345000   0.87122386    -5.254202    1211.5289  0.043053621  0.043359243            5 
 2346000   0.87897688   -5.2632831    1210.3406   0.04299306  0.043347767            3 
 2347000   0.88478332   -5.2251026    1215.3855  0.043153866   0.04333632            8 
 2348000   0.90445511   -5.2496492    1214.7785  0.043113946  0.043324893            2 
 2349000    0.8802843   -5.2322673    1216.7796  0.043166581  0.043313509            3 
 2350000   0.87765899   -5.2210555    1214.8378  0.043079354  0.043302153            3 
 2351000   0.88412731   -5.2949494    1211.3378  0.042936971  0.043290731            8 
 2352000   0.87334966   -5.2578332    1214.9569  0.043046944  0.043279284            2 
 2353000   0.87083366   -5.2330815    1213.6778  0.042983347  0.043267995            6 
 2354000   0.89414375    -5.263016     1214.545  0.042995789   0.04325662            5 
 2355000   0.85478714   -5.2498731    1210.5818  0.042837289  0.043245207            5 
 2356000   0.88264551   -5.2463921    1216.2898  0.043021002  0.043233802            4 
 2357000   0.88501229   -5.2349665    1214.5219  0.042940247  0.043222486            7 
 2358000   0.87549728   -5.2216252     1216.513  0.042992403  0.043211159            8 
 2359000   0.86772309   -5.2380933    1218.1272  0.043031198  0.043199729            5 
 2360000   0.85786069    -5.233708    1216.3084  0.042948743  0.043188374           10 
 2361000   0.87804992   -5.2404547    1216.6499  0.042942605  0.043177053            4 
 2362000    0.8784676   -5.2739494    1217.5663  0.042956758  0.043165688            4 
 2363000   0.86031047   -5.2100741    1216.1805  0.042889704  0.043154405            4 
 2364000   0.86169512   -5.2783483    1217.0163  0.042901027  0.043143077           13 
 2365000   0.88237676   -5.2316115    1216.9218  0.042879556  0.043131727            4 
 2366000   0.86212712   -5.2253222    1222.6405  0.043062853  0.043120518            7 
 2367000   0.86799701   -5.2505636    1221.8439  0.043016614  0.043109317           14 
 2368000   0.86112211   -5.2434051    1222.9251  0.043036496  0.043098135            4 
 2369000   0.86959278   -5.2059841     1222.737  0.043011715  0.043086919            4 
 2370000   0.87416666   -5.2394573    1219.0318  0.042863285  0.043075781            3 
 2371000   0.87491921   -5.2663354    1219.9394  0.042877105  0.043064475            4 
 2372000   0.87804529   -5.2469379    1221.1779   0.04290254  0.043053268            5 
 2373000   0.85544779   -5.2465087    1220.5219  0.042861425   0.04304201            3 
 2374000   0.86273161   -5.2718391    1220.0494  0.042826782  0.043030849            5 
 2375000   0.87218251   -5.2490457    1223.3508  0.042924591  0.043019519            3 
 2376000   0.88817418    -5.247591    1224.8766  0.042960038  0.043008384            5 
 2377000   0.86435292   -5.2406958    1223.2512   0.04288498  0.042997323            4 
 2378000   0.88201953   -5.2628626    1223.4211  0.042872902  0.042986313            3 
 2379000   0.85318587   -5.2536618    1224.7712  0.042902172  0.042975168            7 
 2380000    0.8695754    -5.235892    1224.6846  0.042881112  0.042963969            5 
 2381000   0.87982052    -5.252541    1226.1462   0.04291426  0.042952933            7 
 2382000   0.86890904   -5.2368456    1223.5993  0.042807141  0.042941883            3 
 2383000   0.86165962      -5.2955     1223.281  0.042778045  0.042930813            5 
 2384000   0.87227498    -5.257912    1225.4679  0.042836546   0.04291975            5 
 2385000   0.87735324   -5.2515413    1224.9609   0.04280087  0.042908712            6 
 2386000   0.87523855   -5.2485869    1228.9975  0.042923912  0.042897676            3 
 2387000    0.8615548   -5.2684553    1228.7533  0.042897406  0.042886666            5 
 2388000   0.87169462   -5.2900323    1225.9934  0.042783131  0.042875621            6 
 2389000   0.85511478   -5.2326693    1224.6772  0.042719312  0.042864635            4 
 2390000   0.85861021   -5.2877102    1225.5983  0.042733554  0.042853672           10 
 2391000   0.88126202   -5.2767225    1226.4391  0.042744985  0.042842678            4 
 2392000   0.87780048    -5.273187    1225.8913  0.042708031  0.042831635            4 
 2393000   0.87559116   -5.2389871    1229.9194  0.042830458  0.042820746            6 
 2394000   0.87953532     -5.23333    1229.8502  0.042810158  0.042809885            8 
 2395000   0.88499104   -5.2281926    1229.7415  0.042788501  0.042799007            3 
 2396000   0.86822586   -5.2482724    1230.3169  0.042790655  0.042788216           10 
 2397000   0.86515075   -5.2932983    1230.7373  0.042787419  0.042777277            7 
 2398000   0.87391769   -5.2513853    1228.3401  0.042686271  0.042766338            3 
 2399000   0.85766533   -5.2333287    1233.3708  0.042843227  0.042755505            4 
 2400000   0.88210792   -5.2631206    1228.2316  0.042646932  0.042744661            2 
 2401000   0.85926486   -5.2581641    1229.7377  0.042681443  0.042733878           10 
 2402000   0.85611794   -5.2857807    1229.6011  0.042658933   0.04272304            5 
 2403000   0.89248485     -5.25524    1232.6916  0.042748355  0.042712283            3 
 2404000   0.87083252    -5.239388    1230.6023  0.042658151  0.042701423            3 
 2405000   0.88079489   -5.2422075    1233.7566  0.042749708  0.042690615            4 
 2406000   0.88014526   -5.2372585     1230.215  0.042609276  0.042679847            3 
 2407000   0.86799925   -5.2253885    1234.1202  0.042726775  0.042668966            5 
 2408000   0.85954332    -5.258296    1231.3312  0.042612515  0.042658099            5 
 2409000   0.87258074   -5.2429521    1233.8173  0.042680826  0.042647219            3 
 2410000   0.84536111   -5.2698354    1230.0406  0.042532525  0.042636255            4 
 2411000   0.86460356   -5.2473006    1232.5784  0.042602599  0.042625249            4 
 2412000   0.86949296   -5.2700759    1228.8399  0.042455775  0.042614369            8 
 2413000   0.86300252   -5.2710708    1236.0341  0.042686631  0.042603378            6 
 2414000   0.86573609   -5.2486697    1229.9917   0.04246036  0.042592426            7 
 2415000   0.87778024   -5.2407191    1232.7633  0.042538415  0.042581572            6 
 2416000    0.8645876   -5.2629231    1232.1315  0.042499019  0.042570642            8 
 2417000   0.85768399   -5.2339745    1232.3001  0.042487246  0.042559715            3 
 2418000    0.8720578   -5.2877243    1232.9157  0.042490892  0.042548771            4 
 2419000   0.86896952   -5.2656989    1232.2632  0.042450848  0.042537683            3 
 2420000   0.86684533   -5.2944972    1228.0376  0.042287797  0.042526535            5 
 2421000   0.86699912    -5.303336    1230.2275  0.042345706  0.042515386           12 
 2422000   0.85194705   -5.2556239     1232.487  0.042405967  0.042504241            6 
 2423000   0.85447384   -5.2498279    1239.9267  0.042644335  0.042493343            6 
 2424000   0.86835292   -5.2962698    1231.4429  0.042335083   0.04248236            6 
 2425000   0.87174496   -5.2636407    1234.0545   0.04240737  0.042471351            3 
 2426000   0.85622112   -5.2470031    1236.6842   0.04248022  0.042460398            4 
 2427000   0.87991587   -5.2803881    1234.3237  0.042381667  0.042449534            3 
 2428000   0.85832522   -5.2820306     1235.286  0.042397242   0.04243853            3 
 2429000   0.86746221   -5.2586033    1237.9613  0.042471568  0.042427519            6 
 2430000   0.87100754   -5.2717214     1236.174  0.042392798  0.042416554            5 
 2431000   0.85467471   -5.2598951     1235.743  0.042360587  0.042405579            2 
 2432000   0.84018476   -5.2785102    1238.7651   0.04244672  0.042394638            5 
 2433000   0.85654075   -5.2985773    1234.4326  0.042280881  0.042383667            7 
 2434000   0.85690251   -5.2737655    1236.2015  0.042324071  0.042372821            5 
 2435000   0.87248626   -5.2617094    1237.3984  0.042347653  0.042361982            4 
 2436000   0.86492073   -5.3140602    1231.9874  0.042145164  0.042351106            4 
 2437000   0.85677235   -5.2604857    1240.5589  0.042420973  0.042340244            3 
 2438000   0.87532965   -5.2846286    1237.6951  0.042305684  0.042329382            7 
 2439000   0.87132077   -5.2963925    1234.7354  0.042187214  0.042318487            5 
 2440000   0.87356246   -5.2830399    1236.8545    0.0422423  0.042307545            8 
 2441000   0.88079664   -5.2566552    1240.1643  0.042337987  0.042296682            5 
 2442000   0.84849409   -5.2529083    1238.2275  0.042254557  0.042285988            6 
 2443000   0.88927763   -5.2481779     1241.535   0.04235008  0.042275212            7 
 2444000   0.85403804   -5.2441414    1241.5824  0.042334368  0.042264461            4 
 2445000   0.85435174    -5.254261    1238.4009  0.042208618  0.042253667            2 
 2446000   0.86800443   -5.2705759    1236.9562  0.042142145  0.042242829            8 
 2447000    0.8649087   -5.2768273    1239.9708  0.042227585  0.042231869            6 
 2448000    0.8640168   -5.2744739    1240.4997  0.042228338  0.042220907            7 
 2449000   0.86058901   -5.2636547    1236.8432  0.042086676  0.042210113            4 
 2450000   0.85449864   -5.2683765    1238.7008  0.042132681  0.042199332            6 
 2451000    0.8422227   -5.2670886    1239.7762  0.042152054  0.042188495            5 
 2452000   0.85004394   -5.2740363    1242.2557  0.042219132  0.042177706           10 
 2453000   0.85786015   -5.2723395    1241.5334  0.042177382  0.042166903            5 
 2454000   0.85269023   -5.2688985    1244.5417  0.042262352  0.042156167            7 
 2455000   0.85442146    -5.289136    1244.0167  0.042227316  0.042145424            5 
 2456000   0.84945054   -5.2943622    1240.8427  0.042102424  0.042134543            8 
 2457000   0.86904771   -5.3000368    1242.5817   0.04214427  0.042123679            6 
 2458000   0.86373002   -5.3065195    1238.8153  0.041999435  0.042112789            5 
 2459000   0.86667495   -5.2689302    1242.4976  0.042107145  0.042101893            5 
 2460000    0.8452044    -5.266017    1241.8798    0.0420691  0.042091267            3 
 2461000   0.85802221    -5.262335    1240.4485  0.042003538  0.042080425           10 
 2462000   0.87382488   -5.2836098    1241.1401  0.042009888  0.042069684            6 
 2463000   0.84914728   -5.2938325    1242.0819  0.042024695  0.042058831            6 
 2464000   0.85868661   -5.2866955    1244.7349  0.042097364  0.042048025            4 
 2465000   0.85931587   -5.3164631    1243.4231  0.042035941   0.04203736            6 
 2466000   0.85838906   -5.2500048    1242.7047  0.041994616  0.042026507            5 
 2467000   0.86980249   -5.2783113    1243.6963   0.04201109  0.042015727            2 
 2468000    0.8554859   -5.2817449    1242.5338  0.041954815  0.042004745            4 
 2469000   0.84131954    -5.302084    1241.7117  0.041910073  0.041993816            5 
 2470000   0.85725448   -5.2391781     1250.638  0.042194263  0.041983058            4 
 2471000   0.84732941   -5.2735108    1246.3437  0.042032364  0.041972459            3 
 2472000   0.83349099   -5.2571042    1242.6623  0.041891259  0.041961769            4 
 2473000   0.85517916   -5.2934358    1246.7874  0.042013323  0.041951188            7 
 2474000   0.86130016    -5.295254    1247.6527  0.042025487  0.041940515           10 
 2475000   0.85794613   -5.2643108    1246.3181  0.041963574  0.041929779            5 
 2476000   0.85495147   -5.2874621    1246.5551  0.041954601  0.041919153            5 
 2477000   0.84099244   -5.2852438    1251.7715  0.042113158  0.041908509            7 
 2478000   0.87992391   -5.2978573    1249.8325  0.042030955  0.041897932            4 
 2479000    0.8518225   -5.3055419    1247.6717  0.041941364  0.041887225            5 
 2480000   0.86045806   -5.3257943    1247.2012  0.041908642  0.041876507            3 
 2481000   0.85057017   -5.3195189    1245.6826  0.041840744  0.041865762           18 
 2482000   0.87867008   -5.2762309    1250.5441   0.04198711  0.041855176            9 
 2483000   0.85539493   -5.2803096    1249.1968  0.041924982  0.041844634            5 
 2484000   0.86021671   -5.2945321    1247.3815  0.041847206  0.041834005            6 
 2485000   0.84748259   -5.2759036    1251.1257  0.041955925  0.041823447            8 
 2486000   0.87815781   -5.3203131    1244.4721  0.041716012  0.041812779            7 
 2487000   0.85565151   -5.2834719    1248.4137  0.041831313  0.041802166            3 
 2488000   0.84981242   -5.3031455    1249.0083  0.041834417  0.041791638            8 
 2489000   0.84542368   -5.2895772    1249.9538  0.041849262  0.041780928            5 
 2490000   0.84395935   -5.2883147    1249.1892  0.041806867  0.041770287            8 
 2491000   0.86393414   -5.2813812    1248.7447  0.041775215  0.041759745            4 
 2492000   0.83968312   -5.3086648    1248.4983  0.041750211   0.04174905            7 
 2493000   0.85093131   -5.2717274    1252.3434  0.041861994  0.041738486            9 
 2494000   0.86533025   -5.3074812    1249.8394  0.041761541  0.041727972            6 
 2495000   0.86642894    -5.293842    1250.2866   0.04175974   0.04171734            7 
 2496000   0.86263936   -5.2881423    1255.0947  0.041903535  0.041706772            4 
 2497000   0.87341298   -5.3296893    1252.1158   0.04178734  0.041696085            7 
 2498000   0.85140224    -5.285298    1250.3408  0.041711395  0.041685428            5 
 2499000   0.84822083   -5.2817697    1252.8927  0.041779802  0.041674764            5 
 2500000   0.86196961     -5.28372    1254.8065  0.041826883  0.041664094            4 
 2501000    0.8607378   -5.3139992    1250.4261  0.041664204  0.041653422            4 
 2502000   0.84905949   -5.2913852    1253.9906  0.041766273  0.041642917            7 
 2503000   0.86264771   -5.2911589    1256.8297  0.041844111  0.041632422           15 
 2504000   0.86691484   -5.2567859    1258.5652  0.041885158  0.041622002            6 
 2505000   0.85567202   -5.3113207    1251.9225  0.041647456  0.041611481            6 
 2506000   0.85474811   -5.2869452    1256.1968  0.041772973  0.041601126            5 
 2507000   0.82664627   -5.2765557    1258.8147   0.04184333  0.041590802            4 
 2508000   0.85124484    -5.295822    1256.1406  0.041737793  0.041580411            7 
 2509000   0.85839238   -5.2949355    1257.3976  0.041762906  0.041570075            5 
 2510000   0.85834993   -5.2820847    1257.9613  0.041764984  0.041559679            7 
 2511000    0.8394565   -5.2850078    1261.9026  0.041879152  0.041549477            3 
 2512000   0.84349767   -5.2789693    1261.1441  0.041837318  0.041539219            4 
 2513000    0.8577262    -5.310959    1260.5582  0.041801239  0.041528963           11 
 2514000    0.8527092   -5.3212058    1256.1577  0.041638746  0.041518576            4 
 2515000   0.86386096   -5.3196479     1256.566  0.041635719  0.041508246            6 
 2516000   0.84797074   -5.3149193     1254.608   0.04155432  0.041497895            6 
 2517000   0.83340454   -5.2857269     1260.155   0.04172146  0.041487647            4 
 2518000   0.86665122   -5.2855813     1260.875   0.04172872  0.041477418            4 
 2519000   0.85868604   -5.2936266     1261.751  0.041741135  0.041467257            6 
 2520000   0.84874708   -5.2999837    1261.7177  0.041723468  0.041457064            7 
 2521000   0.86301193   -5.3045716    1262.4723  0.041731862  0.041446979            3 
 2522000   0.84853149   -5.3217261    1260.3374  0.041644774  0.041436704            6 
 2523000   0.86558154   -5.2830692     1260.066  0.041619302  0.041426438            4 
 2524000    0.8253671   -5.2759558    1262.8597  0.041695049  0.041416237            3 
 2525000   0.86824694    -5.321369    1261.9181  0.041647462  0.041406045            9 
 2526000   0.84679197   -5.3098656    1259.8959  0.041564262  0.041395798            4 
 2527000   0.87348833   -5.2981176    1261.7681  0.041609555  0.041385509            6 
 2528000   0.83651039   -5.2822982    1260.4043  0.041548139  0.041375317            7 
 2529000   0.85505837   -5.3274057    1259.7647  0.041510634  0.041365123            5 
 2530000   0.85832971   -5.2863788    1260.6809  0.041524405  0.041355007            3 
 2531000   0.82700342   -5.3263101    1259.9913  0.041485293  0.041344788            3 
 2532000   0.85325862   -5.3010254    1260.0156  0.041469707  0.041334517            5 
 2533000   0.84661106   -5.2860948    1265.7255  0.041641188  0.041324235            5 
 2534000   0.86041459   -5.2868517    1264.0937  0.041571089  0.041314011           12 
 2535000    0.8646245    -5.310787    1261.3277  0.041463764  0.041303625            7 
 2536000   0.84424393   -5.2893809    1261.6741  0.041458797  0.041293355            3 
 2537000   0.83786739   -5.3216516    1260.5865   0.04140673  0.041283071            7 
 2538000   0.85262785   -5.2934085    1267.5271  0.041618303  0.041272758            7 
 2539000   0.85769523   -5.2760662    1265.5624  0.041537429   0.04126252            3 
 2540000   0.84332545   -5.3308128    1264.6673  0.041491711  0.041252236            6 
 2541000   0.84855434   -5.3187069    1258.7676  0.041281897  0.041241925            7 
 2542000   0.84596457   -5.2998569    1264.4986  0.041453533  0.041231698            4 
 2543000   0.83771832    -5.301933     1264.609   0.04144085  0.041221394            7 
 2544000   0.84219132   -5.2543244    1267.3571  0.041514581  0.041211239            9 
 2545000   0.84228231   -5.3188624     1266.035  0.041454977  0.041201112            9 
 2546000   0.84920932   -5.2977417    1265.3757  0.041417114  0.041190932            4 
 2547000   0.83592694   -5.3053513    1268.7113  0.041509989  0.041180792            5 
 2548000   0.85889788   -5.3340076    1262.9525  0.041305354  0.041170656           12 
 2549000   0.83532441   -5.2884772    1268.0988  0.041457395  0.041160483            8 
 2550000   0.83518423   -5.3092087    1271.9354  0.041566517  0.041150294            4 
 2551000    0.8395636    -5.301114    1267.2307  0.041396533  0.041140074            6 
 2552000   0.85549055   -5.3351864    1265.8863  0.041336413  0.041129892            6 
 2553000   0.85353814   -5.2966895    1266.7316  0.041347814  0.041119621            4 
 2554000   0.85335394   -5.3096194    1263.0129  0.041210288  0.041109457            3 
 2555000   0.87180906   -5.3114423    1266.0852  0.041294365  0.041099272            5 
 2556000   0.86015492   -5.2824732    1266.8768  0.041304017  0.041088981            4 
 2557000   0.83597432   -5.3227854    1268.7757  0.041349749  0.041078729            8 
 2558000   0.83420948   -5.3046275    1267.8467  0.041303321  0.041068596            5 
 2559000   0.85813373   -5.2992425     1271.898  0.041419108  0.041058412            4 
 2560000    0.8409624   -5.2966226    1269.0755  0.041311051  0.041048191            8 
 2561000   0.85954193   -5.2805975    1268.9547  0.041290989  0.041038051            3 
 2562000   0.83083374   -5.2990461    1269.6119  0.041296251  0.041027947            6 
 2563000   0.84023826   -5.2766137    1270.4673  0.041307948  0.041017787            4 
 2564000   0.83336552   -5.3299276    1263.8384  0.041076391  0.041007513           10 
 2565000   0.85633686   -5.3021217       1273.2  0.041364523  0.040997303            5 
 2566000   0.83867997   -5.3033948    1272.6762  0.041331393  0.040987155            3 
 2567000   0.84609869   -5.3315854      1268.54  0.041181014   0.04097691            7 
 2568000   0.85143449   -5.3044979    1274.2397  0.041349939  0.040966725            4 
 2569000   0.84764102   -5.3195704    1271.5533    0.0412467  0.040956566            8 
 2570000   0.84470987    -5.297574    1270.1366  0.041184716  0.040946402           10 
 2571000   0.84801122   -5.3175315    1271.9539    0.0412276  0.040936231            4 
 2572000   0.82397556   -5.3314172    1270.0977  0.041151429  0.040925936            6 
 2573000   0.85298597   -5.3350985    1269.7584  0.041124446  0.040915693            4 
 2574000   0.86029381   -5.3423812      1268.32    0.0410619  0.040905424           15 
 2575000   0.83164089   -5.2742417    1273.8996  0.041226524  0.040895296            2 
 2576000   0.85167425   -5.2734624    1277.0537  0.041312554  0.040885298            3 
 2577000    0.8351928   -5.3281175    1270.2258  0.041075727  0.040875149            6 
 2578000   0.83127343   -5.2974698     1275.069  0.041216351  0.040865018           10 
 2579000   0.83464439   -5.3219475    1267.7148  0.040962737  0.040854848           13 
 2580000   0.84590434   -5.3306541    1271.6804   0.04107495  0.040844655           11 
 2581000   0.81883607   -5.3019421    1269.2685  0.040981159  0.040834465            7 
 2582000   0.83726255   -5.3378566    1268.7573  0.040948789  0.040824224            6 
 2583000   0.83119278    -5.298813    1272.6332  0.041057983  0.040814055            7 
 2584000   0.82682099   -5.3017702    1275.2631  0.041126905  0.040803795            5 
 2585000     0.850392   -5.3149669    1272.0502  0.041007421   0.04079359            6 
 2586000   0.84218401   -5.3241113    1270.4047  0.040938538  0.040783301            9 
 2587000   0.82706109   -5.3177587      1269.48  0.040892927  0.040773005            5 
 2588000   0.84763541   -5.2988472    1274.1569   0.04102772  0.040762722            6 
 2589000   0.83877892   -5.3067013    1274.3279  0.041017379  0.040752325            5 
 2590000   0.85979611   -5.3280108    1272.6162  0.040946466  0.040742046            3 
 2591000   0.81425708   -5.3485091    1276.6766  0.041061258  0.040731742           11 
 2592000   0.82442551    -5.308442    1273.8619  0.040954923  0.040721429           11 
 2593000   0.83641568   -5.2983332    1275.8002  0.041001419  0.040711211            5 
 2594000   0.83991996    -5.293349    1277.3914  0.041036731  0.040700987            4 
 2595000   0.84099292   -5.3246412    1278.0659  0.041042578  0.040690744            4 
 2596000    0.8490473    -5.293658    1275.5724  0.040946725   0.04068061            8 
 2597000   0.79608458   -5.3540483    1269.6252  0.040740122  0.040670304            4 
 2598000   0.82602255    -5.326845    1274.8227  0.040891156  0.040659968            5 
 2599000   0.83029396   -5.3266744    1272.7443  0.040808781  0.040649669            3 
 2600000   0.83407176   -5.3491883    1273.1607  0.040806431  0.040639352            8 
 2601000   0.82120215   -5.3243815    1271.9198  0.040750986  0.040628976            3 
 2602000   0.83784747    -5.309903    1276.8849  0.040894342  0.040618615            9 
 2603000   0.84089758   -5.2982676    1275.9067  0.040847312  0.040608358            8 
 2604000   0.84017416   -5.3140343    1276.7849   0.04085973   0.04059808            8 
 2605000   0.82920266   -5.3145409    1280.0251  0.040947701  0.040587877            5 
 2606000   0.82976675   -5.3173144    1277.5951  0.040854282  0.040577656            5 
 2607000   0.83402159   -5.3178669    1281.1842  0.040953336  0.040567484           11 
 2608000   0.85410574    -5.344068    1280.2823  0.040908815  0.040557285            4 
 2609000   0.81382749   -5.3171854    1280.1155  0.040887807  0.040547163            8 
 2610000   0.83821606   -5.3105847    1278.5765  0.040823005  0.040536989            4 
 2611000   0.83665725   -5.3468313    1277.7288  0.040780314  0.040526767           11 
 2612000   0.83416084   -5.3087618    1280.8127   0.04086309  0.040516685            9 
 2613000    0.8298606   -5.3374418    1280.8875  0.040849838   0.04050657            6 
 2614000   0.82395401   -5.3403558    1277.0816  0.040712879  0.040496497            7 
 2615000   0.82189317   -5.3296377    1282.5217  0.040870673  0.040486495            4 
 2616000   0.82360635   -5.3402983    1276.9534  0.040677669  0.040476491            6 
 2617000   0.82772927   -5.3322468    1284.8772  0.040914444   0.04046642            3 
 2618000   0.85279519   -5.3198026    1278.4134  0.040693069  0.040456502            6 
 2619000    0.8310806   -5.3362157     1282.688  0.040813543  0.040446378            5 
 2620000   0.82569286   -5.3226125     1280.521  0.040729041  0.040436373            3 
 2621000   0.83580192   -5.3374103    1278.4424  0.040647411  0.040426323            4 
 2622000   0.82041801   -5.3434663    1279.7121  0.040672263  0.040416199            3 
 2623000   0.84163123   -5.3363561    1278.0474  0.040603869  0.040406013            4 
 2624000   0.83390926   -5.3436496    1282.4095  0.040726929   0.04039593            9 
 2625000   0.82692078   -5.3277555    1282.2697  0.040706975  0.040385728            3 
 2626000   0.83007716   -5.3175676     1279.423  0.040601137  0.040375662            8 
 2627000   0.82626604   -5.3465799    1280.9466  0.040634013   0.04036559            7 
 2628000   0.82528954   -5.2967914    1282.5897  0.040670654   0.04035538            3 
 2629000   0.82928805   -5.3411961    1278.6181  0.040529291  0.040345312            6 
 2630000   0.82526428    -5.314666    1286.7142  0.040770411  0.040335184            6 
 2631000   0.83312751   -5.3607285    1279.9654  0.040541156  0.040325116           10 
 2632000   0.82074791    -5.350243    1283.1836  0.040627646  0.040314899            5 
 2633000   0.83163116   -5.3552494    1280.3254  0.040521756  0.040304728            5 
 2634000   0.83903403   -5.3361426    1280.7884  0.040521021  0.040294554            3 
 2635000    0.8272351   -5.3779044    1281.3934  0.040524777  0.040284326            9 
 2636000   0.83730794   -5.3524556    1277.4203  0.040383798  0.040274066           11 
 2637000   0.82559238   -5.3507145    1278.8598  0.040413976  0.040263932            7 
 2638000   0.84571389    -5.347601      1283.05  0.040531021  0.040253823            3 
 2639000   0.82387631   -5.3163302    1285.1685   0.04058256  0.040243653            5 
 2640000    0.8300169   -5.3578924    1283.2268  0.040505898  0.040233558            7 
 2641000   0.81647356   -5.3384127    1288.5825   0.04065955   0.04022338            5 
 2642000   0.80934778    -5.321495    1284.5728   0.04051769  0.040213295            8 
 2643000   0.83495577   -5.3424885    1285.1567   0.04052077  0.040203221            4 
 2644000    0.8142269   -5.3325998    1282.8484  0.040432689  0.040193018           10 
 2645000   0.79290213   -5.3642326    1280.3633  0.040339107  0.040182801            3 
 2646000   0.81447675   -5.3189304    1283.4847  0.040422168  0.040172486            5 
 2647000   0.81911563   -5.3649565    1282.8484  0.040386865    0.0401624            3 
 2648000   0.83428226   -5.3843981    1282.2578  0.040353027  0.040152283            4 
 2649000   0.83611931   -5.3685166    1284.3797  0.040404546  0.040142109            8 
 2650000   0.82081119   -5.3598455    1284.3117   0.04038716  0.040131828            7 
 2651000   0.85469865   -5.3289483    1284.1139  0.040365707   0.04012161            5 
 2652000   0.82118625   -5.3467265    1286.6577   0.04043042  0.040111318            8 
 2653000    0.8352797   -5.3722016    1284.7021  0.040353755  0.040101187            8 
 2654000   0.83929074   -5.3557303    1283.3035  0.040294635  0.040091022            5 
 2655000   0.83264228    -5.340635     1288.341  0.040437572  0.040080948            6 
 2656000   0.82723225   -5.3295417    1282.5737  0.040241394  0.040070852            4 
 2657000    0.8220452   -5.3203502    1287.1351  0.040369311  0.040060761            3 
 2658000   0.81364523    -5.323676    1287.1295  0.040353946  0.040050808            5 
 2659000   0.82061673   -5.3331184     1285.936  0.040301367  0.040040754            5 
 2660000   0.81741223   -5.3225383    1286.7425  0.040311481  0.040030662            5 
 2661000    0.8374396   -5.3676765    1284.4824  0.040225554  0.040020548            4 
 2662000   0.82519859   -5.3487321    1287.8956  0.040317293  0.040010511            3 
 2663000   0.81790315   -5.3295845    1290.6299  0.040387719  0.040000427            4 
 2664000   0.81803249   -5.3639098    1281.5672  0.040089065   0.03999024            7 
 2665000   0.80969625   -5.3674834      1285.92  0.040210132  0.039979981           11 
 2666000   0.82948617   -5.3644671    1285.1211  0.040170078   0.03996978            3 
 2667000   0.82560869   -5.3568438    1283.9887  0.040119632  0.039959578            5 
 2668000   0.81506816   -5.3230134    1286.7289  0.040190183  0.039949444            7 
 2669000   0.81174801   -5.3067775    1290.8413  0.040303525  0.039939412            8 
 2670000   0.83847114   -5.3523465    1289.9484  0.040260562   0.03992934            6 
 2671000   0.82305787   -5.3216757    1291.5382   0.04029509  0.039919228            6 
 2672000   0.83822311   -5.3325634     1289.765  0.040224706  0.039909214            5 
 2673000   0.81820809   -5.3606115    1288.3382  0.040165177   0.03989911            3 
 2674000   0.84446163    -5.361301    1289.7234  0.040193324  0.039888936            6 
 2675000    0.8106355    -5.338325    1289.2924  0.040164872  0.039878962            6 
 2676000   0.82598805   -5.3171876    1292.1552  0.040239014  0.039869014            6 
 2677000   0.82984145   -5.3515557    1289.4533  0.040139873  0.039859039            5 
 2678000   0.81040266   -5.3484991    1291.4708  0.040187664  0.039848923            4 
 2679000    0.8182372   -5.3687632    1286.9223  0.040031177  0.039838753            7 
 2680000   0.81454254   -5.3368278    1287.5626  0.040036151  0.039828636            5 
 2681000   0.82454248   -5.3393061     1286.982  0.040003171  0.039818412            5 
 2682000   0.81057049   -5.3500344    1286.3399  0.039968306  0.039808225            7 
 2683000   0.82624782   -5.3479082    1292.5613  0.040146642  0.039798049            4 
 2684000   0.80662921   -5.3474067    1293.4873  0.040160436  0.039787956            7 
 2685000   0.83223504   -5.3382857    1294.4918  0.040176654  0.039777821            6 
 2686000   0.82220843   -5.3540098    1291.5792  0.040071333  0.039767783            4 
 2687000   0.83319888   -5.3574959    1292.8028  0.040094369   0.03975773            9 
 2688000   0.80889189   -5.3481019     1293.858  0.040112164  0.039747756           10 
 2689000   0.81694053   -5.3789875    1294.0076  0.040101884   0.03973768            5 
 2690000   0.81420619   -5.3637673    1289.8341  0.039957687  0.039727637            7 
 2691000   0.82397208   -5.3700249     1291.641  0.039998793  0.039717627            4 
 2692000    0.8338011   -5.3588755    1290.7442  0.039956173   0.03970756            3 
 2693000   0.83558449   -5.3852122    1290.6315  0.039937848  0.039697353            6 
 2694000   0.82694683   -5.3697616    1292.7519  0.039988613  0.039687181            4 
 2695000   0.84840119   -5.3798928    1290.3179  0.039898514  0.039677079            4 
 2696000   0.83431065   -5.3270469    1297.7045  0.040112034  0.039666977            7 
 2697000   0.83616292   -5.3638767     1293.706  0.039973611  0.039656827            4 
 2698000   0.81917036   -5.3336465    1292.2863  0.039914947  0.039646682            6 
 2699000    0.8062547   -5.3496384     1293.801  0.039946926  0.039636637            4 
 2700000   0.82753217   -5.3723365    1293.2732  0.039915841  0.039626582            8 
 2701000    0.8115337   -5.3552847    1292.9216  0.039890213  0.039616507            6 
 2702000   0.83774919    -5.365671    1293.2296  0.039884951  0.039606376            5 
 2703000   0.83028735   -5.3619178    1292.9587  0.039861841  0.039596365            5 
 2704000   0.82437672   -5.3927251     1294.155  0.039883969   0.03958635            4 
 2705000   0.81334029   -5.3468735      1292.48  0.039817622  0.039576216            6 
 2706000   0.82682428   -5.3544774    1298.0467  0.039974338  0.039566176           12 
 2707000   0.82608119   -5.3710648    1292.1103  0.039776822  0.039556101            3 
 2708000   0.83130615   -5.3882015    1292.4991  0.039774097   0.03954615            5 
 2709000   0.80914135   -5.3644716    1299.0308  0.039960344  0.039536208            8 
 2710000   0.81119569   -5.3455692    1297.2262  0.039890103  0.039526324            7 
 2711000   0.79858842   -5.3500729    1298.1521  0.039903853  0.039516425            4 
 2712000   0.83391553   -5.3456045    1295.5648  0.039809636  0.039506466            6 
 2713000   0.82943073   -5.3790006    1298.4732  0.039884297  0.039496477            9 
 2714000    0.8198878   -5.3500843    1297.1377  0.039828597  0.039486615            4 
 2715000   0.82542576   -5.3578882    1302.1301   0.03996716  0.039476716            9 
 2716000   0.81031533   -5.3501325    1300.8969  0.039914607  0.039466798            3 
 2717000   0.82850875   -5.3323504    1302.1348  0.039937886  0.039456948            4 
 2718000   0.81182291   -5.3464761    1298.3249   0.03980638  0.039447058            5 
 2719000   0.81259122    -5.367713     1301.342   0.03988421  0.039437239            7 
 2720000   0.82018763   -5.3357895    1300.1357  0.039832588  0.039427468            5 
 2721000   0.80877489   -5.3531717    1303.5617  0.039922875  0.039417633            6 
 2722000   0.80516144   -5.3480963    1301.3752  0.039841269   0.03940784            3 
 2723000    0.8023138   -5.3434213     1304.107  0.039910241  0.039398057            5 
 2724000   0.82781967   -5.3461327    1302.9036  0.039858773  0.039388276            2 
 2725000   0.84397103    -5.345649     1304.883  0.039904679  0.039378463            7 
 2726000   0.83100434   -5.3449921    1301.7247  0.039793493  0.039368674            4 
 2727000   0.80437941   -5.3670009    1297.1802  0.039640025  0.039358798            6 
 2728000   0.80449354   -5.3548353    1300.5092  0.039727189  0.039348899            5 
 2729000   0.80949332   -5.3730534    1300.7527  0.039720065  0.039339018            6 
 2730000   0.80113121   -5.3351282    1302.5621  0.039760746  0.039329206            4 
 2731000   0.80356359   -5.3916082    1301.2744  0.039706895  0.039319327           12 
 2732000    0.8196789   -5.3549755    1305.3239  0.039815882  0.039309433            5 
 2733000   0.81196574   -5.3859496    1299.4972  0.039623648  0.039299508            8 
 2734000   0.79526534   -5.3355299    1300.6739  0.039645022   0.03928961            7 
 2735000   0.81919278   -5.3449635    1298.9438  0.039577813  0.039279679            7 
 2736000   0.81426688   -5.3460042    1306.4425  0.039791743  0.039269834            2 
 2737000   0.82797646   -5.3760924    1302.8383  0.039667467  0.039259976            6 
 2738000   0.81664374   -5.3924098    1299.8726  0.039562715  0.039249973            5 
 2739000   0.81774697   -5.3948991    1300.8738  0.039578732  0.039240033            5 
 2740000   0.82123044   -5.3934106    1296.1125  0.039419481   0.03923004            2 
 2741000   0.82013105   -5.3836085    1302.6379  0.039603488  0.039219986            4 
 2742000   0.80674905   -5.3522242    1304.5059  0.039645816  0.039210006            6 
 2743000   0.81910966   -5.3591633    1301.3736  0.039536202  0.039200073            6 
 2744000    0.7951246    -5.364533    1300.1823  0.039485614  0.039190172            6 
 2745000   0.82431817   -5.3905341    1300.5964  0.039483801  0.039180192            7 
 2746000   0.81395037   -5.3691213    1302.3009  0.039521148  0.039170207            4 
 2747000   0.81085045   -5.3400463    1306.4119  0.039631474  0.039160294            4 
 2748000   0.80511888    -5.389025    1304.1598  0.039548756  0.039150338            3 
 2749000   0.80987606   -5.3767641    1302.2343  0.039476002  0.039140341            7 
 2750000   0.82685093   -5.4070383    1301.0238  0.039424965  0.039130343            8 
 2751000   0.80244421   -5.3782032    1303.8308  0.039495664  0.039120264            7 
 2752000   0.79699865   -5.3785998     1303.082  0.039458637  0.039110286            6 
 2753000   0.81371669   -5.4027188     1299.002  0.039320802  0.039100315            5 
 2754000   0.81057247   -5.3765191    1305.5076  0.039503378  0.039090359            4 
 2755000   0.81680255   -5.4014503     1302.616  0.039401572  0.039080397           12 
 2756000   0.84314619   -5.3824568    1304.9055  0.039456504   0.03907039            7 
 2757000   0.80194025   -5.3709293    1303.3172  0.039394183   0.03906053           10 
 2758000   0.80024999   -5.3556314    1305.3762  0.039442113  0.039050671            5 
 2759000   0.81989418   -5.3744688    1304.6606  0.039406204  0.039040756           15 
 2760000    0.8039312   -5.3824384    1307.1555  0.039467254  0.039030842            8 
 2761000   0.79507164   -5.3652923    1304.8656  0.039383848  0.039020937            6 
 2762000   0.79955499   -5.3869958    1304.1746   0.03934874  0.039011053            5 
 2763000   0.81866211   -5.4274299    1301.8683  0.039264938  0.039001077            9 
 2764000   0.78648202    -5.366521    1308.5898  0.039453381  0.038991139            4 
 2765000   0.81517398   -5.4149689    1304.8034  0.039324997  0.038981263            4 
 2766000   0.80085097   -5.4089211    1304.9447  0.039315036  0.038971324            4 
 2767000   0.81419175   -5.3793304    1307.1114  0.039366081  0.038961442            5 
 2768000   0.82467326   -5.3777891    1308.1029  0.039381712  0.038951647            7 
 2769000     0.812002   -5.3734352    1309.4092  0.039406802  0.038941807           13 
 2770000   0.78619957   -5.3836486    1306.1469  0.039294432  0.038931899            6 
 2771000   0.81254852   -5.3980518    1305.9342  0.039273854  0.038922039            4 
 2772000   0.80565964   -5.4038673    1304.6536  0.039221188  0.038912189            4 
 2773000   0.81343953   -5.3902813     1303.485  0.039171925  0.038902262            3 
 2774000   0.80515687   -5.3864282    1304.8314  0.039198251  0.038892348            6 
 2775000    0.8183752   -5.3761907    1306.9886  0.039248908  0.038882454            4 
 2776000   0.80432498   -5.3794618    1303.4672  0.039129058  0.038872611            4 
 2777000   0.80612742   -5.3907882    1307.4886  0.039235645  0.038862742            4 
 2778000   0.81443609   -5.4033062    1306.0735  0.039179072  0.038852858            5 
 2779000   0.79008385   -5.3672144    1310.1104  0.039286027  0.038843005            5 
 2780000   0.80336674   -5.3938973    1305.7288  0.039140551  0.038833066            9 
 2781000   0.79890358    -5.390251    1305.6079  0.039122853  0.038823213            5 
 2782000     0.819754   -5.3931902    1309.5178  0.039225911   0.03881323            6 
 2783000   0.79423424   -5.4032203    1308.4719  0.039180497   0.03880336            7 
 2784000   0.82897597   -5.4070003    1307.6555  0.039141988  0.038793484            4 
 2785000   0.79180263   -5.3811965    1309.3479  0.039178573    0.0387837           24 
 2786000   0.80938169   -5.3993283     1311.634   0.03923289  0.038773793            6 
 2787000   0.81311078   -5.4146517    1309.3343  0.039150051  0.038763905           17 
 2788000    0.8175063    -5.424618    1306.6951  0.039057122  0.038754044           18 
 2789000   0.79858398   -5.3896133    1310.0225  0.039142539  0.038744162            6 
 2790000   0.80379114    -5.395818    1306.2757  0.039016598  0.038734244            6 
 2791000   0.79889656   -5.4092212    1311.4566  0.039157309  0.038724343            6 
 2792000    0.7947952   -5.3831597    1307.8805  0.039036548  0.038714412            3 
 2793000   0.79605533    -5.375845     1308.035  0.039027181  0.038704461           12 
 2794000   0.80211244   -5.3948276    1308.9288   0.03903987  0.038694491            5 
 2795000   0.80006733   -5.3905532    1307.0777  0.038970714  0.038684506            6 
 2796000   0.79996688   -5.3894253    1309.5585  0.039030714  0.038674528            3 
 2797000   0.79343765   -5.3852172    1312.8239  0.039114049  0.038664589            5 
 2798000   0.78601076   -5.4203931    1304.9675  0.038866081  0.038654736            4 
 2799000   0.80442808   -5.3709004    1310.3709  0.039013068  0.038644789            4 
 2800000   0.81046905   -5.3766566    1308.5764  0.038945726  0.038634946            6 
 2801000   0.79967606   -5.3936323    1311.3605  0.039014653  0.038625114            6 
 2802000   0.77555062   -5.3800341    1315.2141  0.039115336  0.038615255            5 
 2803000   0.80286733   -5.3963856    1312.3028   0.03901483  0.038605327            5 
 2804000    0.8073586   -5.3834635    1314.8704  0.039077223  0.038595469            5 
 2805000   0.80077579   -5.3976623    1315.0724  0.039069293  0.038585594           12 
 2806000   0.80125898   -5.4016231     1312.096  0.038966975  0.038575784            4 
 2807000   0.78720025   -5.3651543    1310.9173    0.0389181  0.038565919            6 
 2808000   0.80279931   -5.3890221    1311.1194   0.03891024  0.038556019            5 
 2809000   0.80272056   -5.4182556    1307.1438  0.038778443  0.038546077            7 
 2810000   0.83486585   -5.3634012    1314.1374  0.038972046  0.038536225            6 
 2811000   0.79792879   -5.4034092    1309.2817  0.038814231  0.038526299            4 
 2812000   0.79470481   -5.3983776    1308.8228   0.03878683  0.038516327           11 
 2813000   0.79747748   -5.3936024    1310.3139  0.038817214   0.03850646            3 
 2814000   0.80157097   -5.3871505    1316.1505  0.038976265  0.038496634            5 
 2815000   0.79314683   -5.4051227    1311.8967  0.038836491  0.038486776            4 
 2816000   0.79490544   -5.3731147    1314.1322  0.038888856  0.038476943           10 
 2817000   0.80854616   -5.4030125      1309.58  0.038740386  0.038467026            7 
 2818000   0.78537627   -5.4099904    1315.4516  0.038900273  0.038457076            7 
 2819000   0.81323167   -5.3919639    1312.3527  0.038794865   0.03844712            8 
 2820000   0.80326369   -5.3984371     1310.276  0.038719741  0.038437247            5 
 2821000   0.79134476   -5.4144067     1312.793  0.038780368  0.038427259            8 
 2822000   0.80906036   -5.4115376    1312.9656  0.038771723  0.038417247           12 
 2823000   0.81396567   -5.3881343    1315.2798    0.0388263  0.038407329            8 
 2824000   0.79541558   -5.3840765    1314.9615  0.038803161   0.03839741            6 
 2825000   0.80172994   -5.3955159    1313.6795  0.038751609   0.03838748            6 
 2826000   0.80303237   -5.3843886    1315.9207  0.038803985  0.038377559            5 
 2827000   0.79152754   -5.3931028    1314.6672  0.038753307  0.038367723            4 
 2828000   0.80427676   -5.4292854    1314.5458  0.038736026  0.038357828            3 
 2829000   0.81454872   -5.3603607    1322.9211  0.038969045  0.038347952            5 
 2830000   0.78319127   -5.4090983    1313.0977   0.03866601  0.038338127            9 
 2831000   0.78683503   -5.4245177    1313.9162  0.038676446  0.038328211            6 
 2832000   0.80415182   -5.4262917    1314.9933  0.038694482  0.038318231           13 
 2833000   0.81853442   -5.4035495    1313.9073  0.038648878  0.038308358            6 
 2834000   0.80104909   -5.4470015    1313.8584  0.038633803  0.038298418            3 
 2835000   0.80155752   -5.4093523    1318.8141  0.038765847  0.038288378            9 
 2836000   0.81228816   -5.3876978    1315.8292  0.038664469  0.038278544            4 
 2837000   0.80176127   -5.4360981    1313.7974  0.038591158  0.038268665            4 
 2838000   0.80615351   -5.3797344     1315.289  0.038621358  0.038258763            4 
 2839000   0.80740624   -5.4045517    1318.6056  0.038705108  0.038248915            5 
 2840000    0.7890625   -5.3800174    1317.1555   0.03864893  0.038239078            6 
 2841000   0.79357284   -5.4043404    1318.3274  0.038669699  0.038229297            5 
 2842000   0.78914687   -5.3906607    1318.1464  0.038650785  0.038219435            7 
 2843000   0.79184256    -5.398061    1320.7329  0.038713005  0.038209656            4 
 2844000   0.79453897    -5.407046    1318.7221  0.038640474  0.038199883            7 
 2845000   0.80279392   -5.4217178    1318.3924  0.038617234  0.038190053            6 
 2846000   0.80021519   -5.4241164    1314.9594  0.038503145  0.038180265            7 
 2847000   0.79448114   -5.4282828    1318.4168   0.03859082   0.03817045            5 
 2848000   0.80128452   -5.4132373     1317.572  0.038552551  0.038160697           13 
 2849000   0.79294969   -5.4265631    1321.3181  0.038648594  0.038150927            6 
 2850000   0.79910186   -5.4176446     1318.546  0.038553977  0.038141181            5 
 2851000   0.78472635   -5.4360979    1317.4338  0.038507943  0.038131409            8 
 2852000   0.80071717     -5.40993    1318.7328    0.0385324  0.038121628            3 
 2853000   0.79786887   -5.3894389    1320.1839  0.038561277   0.03811187           11 
 2854000   0.79593023   -5.4290396    1318.9105  0.038510583  0.038102108            4 
 2855000   0.79626063   -5.4167573     1319.454  0.038512961  0.038092249            8 
 2856000    0.8117745   -5.4268578    1313.9389  0.038338553   0.03808234            5 
 2857000    0.7937458   -5.4115469    1319.2363   0.03847965  0.038072474            4 
 2858000   0.80521615   -5.4110998    1321.4237  0.038529964   0.03806258            5 
 2859000   0.79762076   -5.3929241    1321.5486   0.03852013  0.038052786            6 
 2860000   0.78147321   -5.3902851    1318.8072  0.038426784  0.038043079            6 
 2861000   0.81986056   -5.4148057    1319.7463  0.038440707  0.038033281            7 
 2862000   0.79158748   -5.4553736    1316.6378  0.038336764  0.038023501            8 
 2863000    0.7965363   -5.4062238     1318.929  0.038390064   0.03801369            4 
 2864000   0.79782419   -5.4332843    1316.3406  0.038301346  0.038003911            8 
 2865000   0.79884032   -5.4506223    1318.5345  0.038351788  0.037994119           16 
 2866000   0.79069717     -5.40672    1323.1694  0.038473175  0.037984326            9 
 2867000   0.79388896   -5.4130491    1321.8433  0.038421209  0.037974576            7 
 2868000   0.79891514   -5.4118709    1319.2722  0.038333106  0.037964742            5 
 2869000   0.79540075   -5.4456344    1319.6999  0.038332167  0.037954963            9 
 2870000   0.79150893   -5.4412183    1318.6873   0.03828941  0.037945124            6 
 2871000    0.7824529   -5.4380837     1318.312  0.038265179   0.03793529            6 
 2872000   0.78646701   -5.4347942    1320.1006  0.038303756  0.037925402            3 
 2873000   0.79574774   -5.3928535    1322.2631  0.038353147  0.037915586            5 
 2874000   0.80012894   -5.4203701    1319.0842  0.038247627  0.037905864            3 
 2875000    0.7997941   -5.4384766    1318.6421   0.03822151  0.037896043            5 
 2876000   0.79633532   -5.4519489     1322.169  0.038310414  0.037886251            3 
 2877000   0.78054043    -5.439517    1321.5989  0.038280585  0.037876427            8 
 2878000   0.81041331   -5.4312964    1318.6162  0.038180919  0.037866657            7 
 2879000    0.7970077    -5.386033      1325.69  0.038372408  0.037857001            9 
 2880000   0.79008847   -5.4058762    1323.8819  0.038306769  0.037847355           11 
 2881000   0.78783922   -5.4289539    1321.1027  0.038213082  0.037837586            5 
 2882000   0.79033281   -5.4133914    1326.2824  0.038349597  0.037827858            4 
 2883000   0.80679532   -5.4281172    1322.4367  0.038225134  0.037818037            4 
 2884000   0.77531265   -5.4336118    1322.6251  0.038217321   0.03780824           10 
 2885000   0.78085344   -5.4341957     1320.324   0.03813761  0.037798456           13 
 2886000   0.79440485   -5.4002263    1322.8276  0.038196685  0.037788681           14 
 2887000   0.79870878   -5.4184733      1324.43  0.038229708   0.03777893            3 
 2888000   0.78717049   -5.4527381    1323.3539  0.038185419   0.03776908            4 
 2889000   0.77566688   -5.4190838    1323.3606  0.038172396  0.037759333           11 
 2890000   0.79718776   -5.4509883    1320.8686   0.03808733   0.03774959            5 
 2891000   0.79178848   -5.4206389     1320.172  0.038054077  0.037739785           12 
 2892000   0.77680867   -5.4222878     1323.939  0.038149463   0.03772999            3 
 2893000   0.81741437   -5.4317579    1325.7811  0.038189339  0.037720224            3 
 2894000   0.78831295   -5.4384117    1320.9314  0.038036494  0.037710482            9 
 2895000   0.79177774   -5.4287305    1326.1208  0.038172735  0.037700831            3 
 2896000   0.78712776   -5.4102328    1329.3259   0.03825178  0.037691203            5 
 2897000   0.78836997    -5.425017    1325.9613  0.038141792  0.037681578            4 
 2898000   0.79235222   -5.4377571    1324.0833  0.038074629  0.037671893           13 
 2899000   0.81246258   -5.4145405    1328.1824  0.038179327  0.037662259            7 
 2900000   0.78950705    -5.405174    1329.1367  0.038193584  0.037652674            4 
 2901000   0.78484853   -5.4151912    1326.3009  0.038098956  0.037643045            4 
 2902000   0.79768703    -5.441273    1331.7523   0.03824237  0.037633401           14 
 2903000   0.77669062   -5.4313023    1327.8657  0.038117627  0.037623829            6 
 2904000   0.79277448    -5.406428    1331.2494    0.0382016  0.037614276            5 
 2905000   0.76601114    -5.436409    1331.9588  0.038208801   0.03760475           13 
 2906000   0.78833071   -5.4254839    1329.4932   0.03812495  0.037595205           10 
 2907000   0.78464709   -5.4298421    1327.1422  0.038044439  0.037585609            9 
 2908000   0.77652225   -5.4227108    1329.9547  0.038111952  0.037576102            6 
 2909000   0.78504938   -5.4249899    1327.3864  0.038025277  0.037566525            4 
 2910000   0.78691273   -5.4274209    1328.9058   0.03805572  0.037556924            2 
 2911000   0.79964863   -5.4313893    1330.5305   0.03808916   0.03754729            5 
 2912000   0.78104144   -5.4388153    1327.5921  0.037991989   0.03753762            4 
 2913000   0.77609788   -5.4723392    1325.9749  0.037932685  0.037527921            9 
 2914000   0.79070167   -5.4432877    1329.5359  0.038021501  0.037518207            4 
 2915000   0.78274733   -5.4711737    1330.9182  0.038047976  0.037508579            9 
 2916000   0.78760619   -5.4297021      1331.68    0.0380567  0.037498911            6 
 2917000   0.79953002   -5.4516196    1328.5408  0.037953972   0.03748929            8 
 2918000   0.78624129   -5.4246245     1332.798  0.038062541  0.037479666            5 
 2919000   0.76760391   -5.4410175    1328.8656  0.037937239   0.03747017            4 
 2920000   0.79277537   -5.4436784    1330.2293  0.037963164  0.037460573            4 
 2921000   0.78886576    -5.424189    1329.1956  0.037920679  0.037451117            4 
 2922000   0.78431131   -5.4359746    1331.1425  0.037963223  0.037441539           10 
 2923000   0.79335435   -5.4425267    1328.8125   0.03788381  0.037431919           15 
 2924000   0.78612167   -5.4134709    1333.8798   0.03801527  0.037422322            7 
 2925000   0.79831085   -5.4189494    1328.7394  0.037855824  0.037412721            5 
 2926000   0.78679601   -5.4522478    1329.1757  0.037855311   0.03740308           12 
 2927000   0.78471437   -5.4397762    1330.5615  0.037881834  0.037393482            3 
 2928000   0.78287756   -5.4012593    1334.2911  0.037975042  0.037383878            4 
 2929000   0.79430261   -5.4398959    1330.6112  0.037857381   0.03737433           16 
 2930000   0.77740814   -5.4412799    1332.7392  0.037904983   0.03736466           11 
 2931000   0.78887814   -5.4570757    1331.0987  0.037845409  0.037355018           10 
 2932000   0.77771881   -5.4356893    1335.8388  0.037967223  0.037345487            9 
 2933000   0.75973886   -5.4287979    1331.4518  0.037829633  0.037335997            7 
 2934000   0.77692271   -5.4228964    1334.9479  0.037916038  0.037326463            5 
 2935000   0.76904364   -5.4319145    1327.9782  0.037705229  0.037316956           12 
 2936000   0.77622633   -5.4490554    1329.8144  0.037744504  0.037307402            8 
 2937000   0.77419328   -5.4378085    1340.0274  0.038021432  0.037297839            7 
 2938000   0.79584315   -5.4335136    1331.8666   0.03777702  0.037288364            4 
 2939000    0.7751308   -5.4309374    1336.1782  0.037886417  0.037278895            3 
 2940000   0.77264044   -5.4194557    1334.9976  0.037840068   0.03726948           12 
 2941000   0.77011926   -5.4888837    1330.5197   0.03770032  0.037259884            5 
 2942000   0.77089951   -5.4497487    1333.5173  0.037772415  0.037250366            7 
 2943000   0.77890709   -5.4431062     1331.493  0.037702259  0.037240905            6 
 2944000   0.76684435    -5.453777    1333.4744  0.037745538  0.037231394            8 
 2945000   0.79298596   -5.4278337    1333.7673   0.03774101  0.037221905            7 
 2946000   0.77968301   -5.4467495      1334.69  0.037754299  0.037212409            5 
 2947000   0.76733101     -5.43447    1334.3326  0.037731381  0.037203004            8 
 2948000   0.78688909   -5.4725955    1333.4197  0.037692778  0.037193612            9 
 2949000   0.78218813   -5.4251329    1336.3931  0.037764018  0.037184178            8 
 2950000    0.7721608   -5.4144886    1337.0443  0.037769613   0.03717473            4 
 2951000   0.77532924   -5.4266952    1337.1932  0.037761019  0.037165303            5 
 2952000   0.75955874   -5.4817489    1335.4372  0.037698656  0.037155859           12 
 2953000   0.78181077   -5.4714065    1335.4476  0.037686183  0.037146322            8 
 2954000    0.7828298   -5.4617175    1333.3772   0.03761502  0.037136854            7 
 2955000   0.77277303   -5.4602609    1336.8567  0.037700415  0.037127264            4 
 2956000   0.79397686   -5.4495373    1332.9591  0.037577784  0.037117763            6 
 2957000   0.77113268   -5.4749456    1335.9034  0.037648051   0.03710819            8 
 2958000   0.78244809   -5.4428196     1339.425  0.037734534  0.037098723           10 
 2959000   0.77024223   -5.4452537    1337.5703  0.037669549  0.037089256           16 
 2960000   0.76588356   -5.4235013    1339.4555  0.037709897  0.037079733            5 
 2961000   0.77260621   -5.4783637    1335.7845  0.037593845  0.037070226            5 
 2962000    0.7802656   -5.4724992    1337.4874  0.037629064  0.037060709            5 
 2963000   0.78400214   -5.4462095    1338.4077  0.037642247  0.037051158            9 
 2964000   0.77724965   -5.4431561    1334.5696  0.037521638  0.037041707            8 
 2965000   0.78214671    -5.414894    1339.7252  0.037653883  0.037032294            5 
 2966000   0.77901027   -5.4542363    1337.2168  0.037570713  0.037022834            6 
 2967000   0.78233333   -5.4445811    1339.4144  0.037619774  0.037013436            3 
 2968000   0.78667121    -5.435942    1334.4884   0.03746879  0.037003946            6 
 2969000   0.78114918   -5.4748696    1336.3395  0.037508125  0.036994422            5 
 2970000   0.78840757   -5.4279576    1338.3531  0.037551996  0.036984956            2 
 2971000   0.79175172   -5.4751236    1336.1426  0.037477353  0.036975476            6 
 2972000   0.76182799   -5.4335675    1343.5162  0.037671494  0.036965956            4 
 2973000   0.79287022   -5.4556785    1337.0423   0.03747736  0.036956466            4 
 2974000   0.76938987   -5.4904362    1334.0956  0.037382191  0.036946839            9 
 2975000   0.79250564    -5.463175    1333.7362  0.037359556  0.036937247            9 
 2976000   0.77559556   -5.4824821    1336.4482  0.037422945   0.03692761           11 
 2977000    0.7810473   -5.4849672    1333.1238  0.037317317  0.036918028            5 
 2978000   0.78873703   -5.4503514    1335.2224   0.03736351    0.0369084            5 
 2979000   0.77089308   -5.4574982    1339.6868  0.037475854  0.036898751            3 
 2980000   0.77708348   -5.4699957    1333.4343  0.037288432  0.036889163            7 
 2981000   0.79724475    -5.453681    1337.6535   0.03739387  0.036879589            5 
 2982000    0.7797849    -5.451921    1335.8929  0.037332128  0.036870083           10 
 2983000   0.78983411   -5.4724561     1337.603  0.037367386  0.036860536           13 
 2984000   0.76901859   -5.4914297    1332.8056   0.03722089  0.036850887            5 
 2985000   0.76435589   -5.4852317    1333.5529  0.037229283  0.036841192            5 
 2986000   0.77643061   -5.4769286    1337.8618  0.037337066  0.036831523            7 
 2987000   0.78771892   -5.4837927    1340.3826  0.037394894  0.036821898            4 
 2988000   0.76905701   -5.4780385    1335.6958  0.037251669  0.036812331            5 
 2989000   0.77293408   -5.4683429    1336.9672  0.037274651  0.036802743            5 
 2990000   0.76133724   -5.4503295    1339.8282  0.037341922  0.036793242            9 
 2991000   0.77624994     -5.43566    1340.2957  0.037342463  0.036783746            3 
 2992000   0.75570111   -5.4822697    1339.0884  0.037296358  0.036774171            5 
 2993000   0.78554491   -5.4608102    1337.8598  0.037249689  0.036764585            4 
 2994000   0.77146184   -5.4576696    1341.2829  0.037332524  0.036755063            6 
 2995000   0.76749336   -5.4628635    1339.5898  0.037272949  0.036745576            7 
 2996000   0.77725944   -5.4703247     1339.602  0.037260848  0.036735986           11 
 2997000   0.77418204   -5.4588783     1339.245   0.03723849  0.036726506            3 
 2998000    0.7738996   -5.4476762    1340.0488  0.037248411  0.036717035           10 
 2999000   0.76953876   -5.4818497    1338.3629  0.037189142   0.03670753           14 
 3000000   0.77029219   -5.4295914    1342.7439  0.037298442  0.036698014            6 
 3001000   0.77006836   -5.4313552    1341.7733  0.037259061  0.036688588            7 
 3002000   0.76718165   -5.4385837    1344.3075  0.037316998  0.036679164            7 
 3003000   0.77595154   -5.4276108     1342.343  0.037250057   0.03666969            3 
 3004000   0.75470772    -5.484662     1341.071  0.037202369  0.036660197            6 
 3005000   0.75220975   -5.4936572    1338.0886  0.037107283  0.036650639           15 
 3006000   0.76477085    -5.487478    1338.2634  0.037099783  0.036641072            5 
 3007000   0.75657253   -5.4862599    1340.1058  0.037138505  0.036631546            8 
 3008000   0.76904357   -5.4646127    1342.0284  0.037179421   0.03662207            5 
 3009000   0.77168347   -5.4683147    1344.8699   0.03724576  0.036612593            4 
 3010000   0.77741866   -5.4798825    1342.4241  0.037165672  0.036603081            5 
 3011000   0.74761683   -5.4638588    1343.6113  0.037186188  0.036593664           10 
 3012000   0.78733209   -5.4585595    1340.9205  0.037099393  0.036584186            8 
 3013000   0.76686512   -5.4455266    1341.4318  0.037101223  0.036574736            2 
 3014000   0.77462616   -5.4871902    1339.2488  0.037028557  0.036565283            6 
 3015000   0.77493437   -5.4725946    1340.4812  0.037050338  0.036555745            8 
 3016000   0.75010642   -5.4518412    1339.8479  0.037020554    0.0365463            4 
 3017000   0.76625914   -5.4573992    1344.4818  0.037136277    0.0365368            5 
 3018000   0.78295447   -5.4500025    1345.9953  0.037165763  0.036527405            7 
 3019000   0.76243071   -5.4838969    1338.2911  0.036940794  0.036517939            9 
 3020000   0.77001032   -5.4854933    1344.5721  0.037101878  0.036508497            4 
 3021000   0.78353185   -5.4455924    1344.4118  0.037085175  0.036499023            4 
 3022000   0.76988079   -5.4732379    1342.8971  0.037031134  0.036489597            7 
 3023000   0.77562266   -5.4665613    1344.7514  0.037070003  0.036480124            5 
 3024000   0.77927563   -5.4806493    1346.5122  0.037106266  0.036470721            4 
 3025000   0.76919981   -5.4639703    1345.1242  0.037055764  0.036461293            6 
 3026000   0.77946788   -5.4598506    1346.0634  0.037069381  0.036451828            4 
 3027000   0.77374895   -5.4794799    1345.7446   0.03704836  0.036442497            5 
 3028000   0.77781403   -5.4807723    1349.4543  0.037138219  0.036433149           11 
 3029000    0.7647463   -5.4716962    1350.4632  0.037153714  0.036423774            3 
 3030000   0.75375623   -5.4714099    1347.5172  0.037060429  0.036414462           10 
 3031000   0.78321825   -5.4739849    1345.7489  0.036999586  0.036405113            6 
 3032000   0.76721774   -5.4828719    1344.8919  0.036963827  0.036395739            5 
 3033000   0.76296967    -5.450514    1349.4665  0.037077329  0.036386373            9 
 3034000   0.78235555   -5.4722868    1347.9046   0.03702221     0.036377            5 
 3035000   0.76733979   -5.4962782    1342.5066  0.036861797  0.036367635           19 
 3036000   0.77817812   -5.4739335    1347.6948  0.036992062   0.03635823            9 
 3037000   0.76684101    -5.458289    1347.2406  0.036967418   0.03634891            6 
 3038000     0.769065   -5.4762654    1349.8527  0.037026902  0.036339624            6 
 3039000   0.77619791   -5.4586497    1348.4254  0.036975579  0.036330379            9 
 3040000   0.77644297   -5.4764541    1350.4007  0.037017564  0.036321136            5 
 3041000   0.76338011   -5.4992681    1343.8535  0.036825975  0.036311868            4 
 3042000   0.76259235   -5.4808219    1351.3612  0.037019539  0.036302587            6 
 3043000   0.76212999   -5.4920357    1347.6076  0.036904578  0.036293358            5 
 3044000     0.766884   -5.4873987    1351.0827  0.036987591  0.036284103            6 
 3045000   0.79066593    -5.463538    1350.4325   0.03695765   0.03627486            8 
 3046000   0.75706511   -5.5005752    1347.0921  0.036854129  0.036265502            5 
 3047000   0.75930482     -5.46354    1347.5486  0.036854519  0.036256273           11 
 3048000   0.77208605   -5.4518152     1348.853  0.036878089  0.036246971            4 
 3049000   0.77080102    -5.495438    1349.8216  0.036892468  0.036237692            4 
 3050000   0.76523951   -5.4707973    1347.9146  0.036828269  0.036228365            4 
 3051000     0.753071   -5.4815543    1351.7009  0.036919613  0.036219117            3 
 3052000   0.75112763   -5.4416124    1348.9539  0.036832511  0.036209927            4 
 3053000   0.75558122   -5.4778938    1348.9353  0.036819939   0.03620067           12 
 3054000   0.75676478   -5.4729534    1350.8279  0.036859525  0.036191328            6 
 3055000   0.76344471    -5.474104    1353.1374  0.036910458  0.036182015            7 
 3056000     0.756169   -5.5090065     1350.443  0.036824908  0.036172707           10 
 3057000   0.77817737   -5.4858722    1350.0427   0.03680195  0.036163422            5 
 3058000   0.76020074   -5.4745249    1350.9451  0.036814504  0.036154139           10 
 3059000   0.76020168    -5.484307    1352.3829  0.036841638  0.036144843            6 
 3060000    0.7785109   -5.5023547    1349.1118  0.036740517  0.036135568            7 
 3061000   0.76451994    -5.506923    1348.8093   0.03672028  0.036126279           12 
 3062000   0.77154536   -5.4820483    1349.8033  0.036735339  0.036117003           10 
 3063000   0.78138874    -5.485447    1349.9758   0.03672804  0.036107786            9 
 3064000   0.76529611    -5.435749    1351.1069  0.036746815   0.03609855            4 
 3065000   0.76551581   -5.4683907    1351.7159  0.036751384  0.036089335            7 
 3066000   0.75614407   -5.4714918    1348.9526   0.03666429  0.036080118            4 
 3067000   0.76569313   -5.5086366    1350.8149  0.036702936  0.036070739            6 
 3068000    0.7615921   -5.4968783     1354.411  0.036788651   0.03606145            4 
 3069000   0.74148713   -5.5057969    1349.8646  0.036653214  0.036052157           18 
 3070000   0.75806295   -5.4919422    1350.3378   0.03665412   0.03604284           19 
 3071000   0.76869522   -5.4929369    1349.0069  0.036606071  0.036033511            4 
 3072000   0.76771208   -5.4673761    1352.9227  0.036700377  0.036024254            3 
 3073000   0.75803231   -5.4965262    1349.7583  0.036602622  0.036014987            5 
 3074000   0.74660064   -5.4989918    1352.6833  0.036670011   0.03600566            5 
 3075000   0.75199001   -5.4695447    1355.4021  0.036731765   0.03599636            6 
 3076000   0.78154319   -5.4882608    1350.2553  0.036580389  0.035987104            3 
 3077000   0.75303702   -5.5075287     1348.256  0.036514353  0.035977733            5 
 3078000   0.75169855   -5.4973019    1352.4433  0.036615856  0.035968316            5 
 3079000   0.75769703   -5.5075919    1350.3636  0.036547678  0.035958935           10 
 3080000   0.77168034   -5.4934151    1350.6116  0.036542521  0.035949519            7 
 3081000   0.74569671    -5.509396    1348.2962  0.036468037  0.035940166           16 
 3082000     0.766421   -5.4894856    1348.0246  0.036448859  0.035930798           11 
 3083000   0.76623541   -5.4912466    1351.7936  0.036538912  0.035921407            6 
 3084000   0.75138648   -5.5061156    1353.3079  0.036567983  0.035912056            8 
 3085000    0.7581058   -5.5138483     1352.138  0.036524527  0.035902674           11 
 3086000   0.76028278   -5.4902509    1354.1209  0.036566237  0.035893358            7 
 3087000    0.7471569   -5.4981841    1352.1788  0.036501965  0.035884075            8 
 3088000   0.76014841   -5.4918983     1352.331  0.036494252  0.035874766            4 
 3089000   0.75138152   -5.4825541    1351.5072  0.036460213  0.035865513            9 
 3090000   0.75904777   -5.5013564    1349.9132  0.036405427  0.035856286            9 
 3091000   0.75254315   -5.5147339    1349.9562  0.036394806  0.035847012            8 
 3092000   0.76687523   -5.4987435    1353.5263  0.036479255  0.035837717            5 
 3093000   0.76458316    -5.480996    1353.0629  0.036454976  0.035828496           10 
 3094000   0.74826485   -5.5045713     1354.664  0.036486317  0.035819218            4 
 3095000   0.74636651   -5.5152312    1353.4637  0.036442209  0.035809945            7 
 3096000   0.76068454   -5.5082498    1351.8094  0.036385913  0.035800649            4 
 3097000   0.75450948   -5.4965853    1354.3536  0.036442621  0.035791456            6 
 3098000   0.77206755   -5.5296911    1351.5918  0.036356568  0.035782237            5 
 3099000   0.76122547   -5.4854719    1356.8646  0.036486625  0.035773009            6 
 3100000   0.75587544   -5.4907149    1355.9958    0.0364515  0.035763774            4 
 3101000   0.75551491    -5.485189    1353.5922  0.036375152  0.035754565            8 
 3102000   0.75515833   -5.5120953    1352.8172  0.036342608  0.035745307            5 
 3103000    0.7559446   -5.4706565    1356.4703  0.036429002  0.035736027            9 
 3104000   0.75754727    -5.525105    1354.3837  0.036361245   0.03572679            9 
 3105000   0.75954953   -5.4782794    1356.1186  0.036396096  0.035717467           15 
 3106000   0.72844132   -5.5041001    1354.1681  0.036332049  0.035708222            7 
 3107000   0.74591983    -5.515383    1354.0343  0.036316767  0.035698975           12 
 3108000   0.74200447   -5.4851188    1354.2971  0.036312126  0.035689675            5 
 3109000   0.75124061   -5.5134299    1355.0454  0.036320505  0.035680414            5 
 3110000   0.75791817   -5.5086802    1354.0493  0.036282135  0.035671152           11 
 3111000   0.76022747   -5.5020186    1355.7164   0.03631513  0.035661874            4 
 3112000   0.75608467   -5.5157893    1356.1035  0.036313825  0.035652584           10 
 3113000    0.7601712   -5.4890719    1356.0254   0.03630007  0.035643358           10 
 3114000    0.7794606   -5.5090086    1355.3381  0.036270019  0.035634122           15 
 3115000   0.75432634   -5.4699481    1356.7048  0.036294937  0.035624971           16 
 3116000   0.75859461   -5.4834213    1358.2557  0.036324768  0.035615782           16 
 3117000   0.74624559   -5.5203862    1353.8406  0.036195076  0.035606548            7 
 3118000   0.74614125   -5.4913884    1361.3329   0.03638371  0.035597335           11 
 3119000   0.74748956   -5.5143052    1354.9184  0.036200662  0.035588149            9 
 3120000   0.74884851   -5.5050847    1356.0812  0.036220119  0.035578899           11 
 3121000   0.76126614   -5.5277998    1358.6904  0.036278179  0.035569577            7 
 3122000   0.75596007   -5.4977963    1356.9999  0.036221436  0.035560343            8 
 3123000   0.74871967   -5.4853049     1356.417  0.036194285  0.035551112            5 
 3124000   0.75738065   -5.4894468    1356.5287  0.036185679  0.035541903           18 
 3125000   0.75738867   -5.5013098    1359.0104  0.036240278  0.035532733            4 
 3126000   0.75285545   -5.5367691    1355.3438  0.036130939  0.035523474           14 
 3127000   0.74700835   -5.4823171    1355.0758  0.036112243  0.035514212            8 
 3128000   0.74350323   -5.4950977    1357.9616   0.03617758  0.035504975            5 
 3129000   0.75391728   -5.4923232    1358.0941  0.036169545  0.035495818            6 
 3130000   0.76167503    -5.513337     1358.848  0.036178063   0.03548665           10 
 3131000   0.75649993    -5.506839    1358.1201  0.036147133  0.035477478           12 
 3132000   0.75734715   -5.5277938    1356.7072  0.036097998  0.035468213            4 
 3133000   0.72365421   -5.5145184    1362.0067  0.036227435  0.035458986           10 
 3134000   0.75424773   -5.5010166    1359.8095  0.036157452  0.035449767            7 
 3135000   0.74639625   -5.5144371    1358.7955  0.036118966  0.035440608            7 
 3136000   0.75019118   -5.5214955    1357.7394  0.036079384  0.035431347            6 
 3137000   0.75689914   -5.4888259    1361.2273  0.036160538  0.035422102           10 
 3138000   0.74956185   -5.4731306     1358.801  0.036084581   0.03541291            9 
 3139000   0.75986773   -5.5026937    1358.4185  0.036062931  0.035403684            7 
 3140000   0.75839304   -5.5131387    1359.3473  0.036076096  0.035394562           11 
 3141000   0.75768809   -5.5324079    1356.7926  0.035996831  0.035385366            5 
 3142000   0.73675499   -5.5220967    1359.0794  0.036046028  0.035376152           13 
 3143000   0.74564378   -5.5196539    1355.7644  0.035946664   0.03536695           11 
 3144000   0.73777722   -5.4899189    1361.1023  0.036076714  0.035357815            7 
 3145000   0.75926683   -5.5182382    1358.0413  0.035984135  0.035348644            6 
 3146000   0.75222359   -5.4951423    1359.5944  0.036013839  0.035339455            9 
 3147000   0.73593143   -5.5263886     1361.509  0.036053093  0.035330231            5 
 3148000   0.74709884   -5.5173933    1359.8877  0.035998721  0.035321014            3 
 3149000    0.7616869   -5.5256686    1357.1096  0.035913771  0.035311833            9 
 3150000   0.73199802   -5.5216479    1362.2533  0.036038447  0.035302577            6 
 3151000   0.74951607   -5.5364614    1354.0077  0.035808942  0.035293305            8 
 3152000   0.75769298   -5.5233909    1361.2655  0.035989464   0.03528409            7 
 3153000   0.72742637   -5.5133478    1358.0434  0.035892891  0.035274813            4 
 3154000   0.73895583   -5.5113848    1360.7923  0.035954142  0.035265588            5 
 3155000   0.75893443   -5.5244211     1356.713  0.035834996  0.035256347            7 
 3156000   0.73342319   -5.5196466    1359.0947  0.035886532  0.035247106            8 
 3157000   0.73728279   -5.5174512    1360.8041  0.035920287  0.035237861            9 
 3158000    0.7533475   -5.5047732    1358.7044  0.035853504  0.035228619           13 
 3159000   0.72779894   -5.5337812    1354.4503  0.035729934  0.035219317            7 
 3160000   0.75049546   -5.5264079    1359.2634  0.035845553  0.035210023            6 
 3161000   0.75038757   -5.5327015    1358.0424  0.035802024  0.035200783            6 
 3162000    0.7546352   -5.5148752    1363.2541  0.035928054  0.035191581            4 
 3163000   0.74023789   -5.5106461    1361.6311  0.035873936  0.035182394           10 
 3164000   0.74900889   -5.5287205    1361.3659  0.035855613   0.03517325            6 
 3165000   0.74259566   -5.5357222    1362.6135  0.035877133  0.035164051            7 
 3166000   0.72904879   -5.5188966    1361.1493   0.03582726  0.035154785           10 
 3167000   0.75118249   -5.5375184    1359.5607  0.035774148  0.035145534           11 
 3168000   0.74789512   -5.5218918     1359.816  0.035769572   0.03513629            5 
 3169000   0.75816872   -5.5481787    1362.0776  0.035817756  0.035127062            8 
 3170000   0.73956676   -5.5209277    1359.7747  0.035745917   0.03511783           14 
 3171000   0.74594151   -5.5260544    1361.3377   0.03577572    0.0351086            4 
 3172000   0.77251645   -5.5390814    1359.1216  0.035706222  0.035099482            8 
 3173000   0.74482255   -5.5532526    1363.5532  0.035811355  0.035090248            7 
 3174000   0.76046633   -5.5321427    1361.4333  0.035744416  0.035081054            7 
 3175000    0.7372118   -5.5272784    1362.6831   0.03576596  0.035071933            9 
 3176000   0.74260999    -5.514185    1358.3479  0.035640951  0.035062833           11 
 3177000   0.76577926   -5.5364806    1363.1171   0.03575483  0.035053657           13 
 3178000   0.73882907   -5.5023851    1361.8062  0.035709205  0.035044523            8 
 3179000   0.76167432   -5.5473197    1361.7532  0.035696582  0.035035334            7 
 3180000   0.73808897   -5.5202641    1364.9097  0.035768074  0.035026083            8 
 3181000    0.7414289   -5.5341961    1362.8562  0.035703035  0.035016912           13 
 3182000   0.71928597   -5.5477189    1364.5234  0.035735474  0.035007743           10 
 3183000   0.74921265   -5.5221591    1363.7319  0.035703525  0.034998523            7 
 3184000   0.74324722   -5.5332179    1360.1455  0.035598449  0.034989301            8 
 3185000   0.74051055   -5.5553828    1360.8061  0.035604555  0.034980043            7 
 3186000   0.73497099    -5.528435    1359.8917  0.035569463  0.034970878            9 
 3187000   0.73542265   -5.5285124    1363.6424  0.035656376  0.034961733            7 
 3188000   0.73743208   -5.5377316    1365.5934  0.035696188  0.034952558            6 
 3189000   0.73547556   -5.5226055    1367.2251  0.035727635  0.034943353            4 
 3190000   0.73101051   -5.5357243    1358.9823  0.035501106  0.034934222           12 
 3191000   0.73905472   -5.5503982    1361.3026  0.035550574  0.034925059            4 
 3192000    0.7416669   -5.5482795    1362.7378  0.035576905  0.034915921            4 
 3193000    0.7510661   -5.5349136    1362.4873  0.035559225  0.034906771            4 
 3194000   0.75080368   -5.5108307    1366.5888  0.035655103  0.034897672            4 
 3195000   0.74197253   -5.5292785    1361.1675  0.035502542  0.034888578            6 
 3196000   0.74751869   -5.5449943    1364.9142  0.035589126  0.034879458            4 
 3197000   0.73854103   -5.5516377    1366.3262  0.035614799  0.034870352            6 
 3198000   0.74081456   -5.5481234    1365.5642  0.035583807  0.034861227            9 
 3199000   0.74309496   -5.5396883    1361.2363  0.035459944  0.034851997            7 
 3200000   0.73263875    -5.559399    1361.0541  0.035444117  0.034842799            6 
 3201000   0.74947489   -5.5586503    1361.8172  0.035452909  0.034833649            3 
 3202000   0.75458478   -5.5679725    1363.3686  0.035482213  0.034824478            4 
 3203000   0.73261023   -5.5373783     1362.375  0.035445285  0.034815322            5 
 3204000   0.73805566   -5.5359841    1362.9624  0.035449502   0.03480619           10 
 3205000   0.72210843    -5.520779    1367.3808  0.035553323  0.034797064            6 
 3206000    0.7500546   -5.5586394    1364.1619  0.035458564  0.034787891           16 
 3207000   0.74048313   -5.5316911    1364.3889  0.035453407  0.034778777            8 
 3208000    0.7463705   -5.5485494    1364.7154  0.035450837  0.034769695            5 
 3209000   0.73787343   -5.5480331    1361.8339   0.03536496  0.034760529           11 
 3210000   0.72652207    -5.528265    1369.1923  0.035544972  0.034751386           10 
 3211000   0.74031298   -5.5426918    1364.1438  0.035402881  0.034742198            6 
 3212000    0.7251913   -5.5401005    1367.1831  0.035470712   0.03473297           10 
 3213000    0.7449651   -5.5235897    1366.0177  0.035429446   0.03472376            7 
 3214000   0.73688039   -5.5575877    1363.1393  0.035343791  0.034714603            5 
 3215000   0.73178698   -5.5458848    1363.0094  0.035329429  0.034705344            8 
 3216000   0.73318643   -5.5093494    1369.4577  0.035485532   0.03469612           10 
 3217000   0.72776826   -5.5149039    1363.1604  0.035311377  0.034686968            8 
 3218000   0.73582415   -5.5415603    1372.4181  0.035540141  0.034677844           13 
 3219000   0.73625107   -5.5367544    1363.8206  0.035306529    0.0346687            9 
 3220000   0.72979713   -5.5466567    1365.3336   0.03533472   0.03465957            7 
 3221000   0.72800921   -5.5503001    1364.5388  0.035303187  0.034650438           14 
 3222000   0.71550976   -5.5748752    1366.3667  0.035339507  0.034641231            7 
 3223000   0.73180446   -5.5599448     1364.844  0.035289171  0.034632051           11 
 3224000   0.73221429    -5.567825    1365.5712  0.035297023  0.034622914            6 
 3225000   0.74470367   -5.5369505    1368.8513  0.035370835  0.034613782            7 
 3226000   0.72011975   -5.5398143    1366.1488  0.035290061  0.034604669            7 
 3227000   0.72639882   -5.5501427    1367.3764  0.035310824  0.034595561            9 
 3228000   0.73688568   -5.5483426    1366.9124  0.035287908  0.034586389            7 
 3229000   0.72571216   -5.5273983    1368.5955  0.035320416  0.034577245            6 
 3230000   0.73382673   -5.5391108    1368.0191  0.035294611  0.034568063            5 
 3231000   0.72991619   -5.5721008    1364.7644  0.035199743  0.034558905            7 
 3232000   0.74097792    -5.566752    1367.1439  0.035250204  0.034549681           10 
 3233000   0.72470367   -5.5371572    1364.4825    0.0351707  0.034540531           13 
 3234000   0.72526542   -5.5307011    1366.9665  0.035223832  0.034531437            5 
 3235000   0.73118474   -5.5490844    1369.3632  0.035274684  0.034522327           15 
 3236000   0.72523453   -5.5480368    1369.3566  0.035263612  0.034513239            8 
 3237000    0.7319259   -5.5282354    1367.4605  0.035203906  0.034504154           21 
 3238000   0.73387741   -5.5692917    1364.6561  0.035120859  0.034494992           10 
 3239000   0.70781893   -5.5696604    1365.2026  0.035124076  0.034485875            9 
 3240000   0.72258457   -5.5408363    1365.6164  0.035123878  0.034476677            4 
 3241000   0.72415091   -5.5511193    1365.3081  0.035105113  0.034467516           12 
 3242000   0.71544039   -5.5711485    1367.4706  0.035149871  0.034458321            9 
 3243000   0.74228045   -5.5394362    1365.6441  0.035092098  0.034449158            9 
 3244000   0.72871205   -5.5681586     1366.294  0.035097975  0.034440084            5 
 3245000   0.73254007   -5.5337857    1370.2192  0.035187961   0.03443102            4 
 3246000   0.73429038    -5.529843    1372.0832  0.035224974  0.034421908           17 
 3247000   0.72170849   -5.5655444    1366.8847  0.035080707  0.034412783            5 
 3248000    0.7328986   -5.5323927    1369.8091  0.035144939  0.034403709            4 
 3249000   0.72833366   -5.5670551    1362.6442   0.03495035  0.034394518           10 
 3250000   0.74002795   -5.5378498    1367.8016  0.035071836  0.034385315            9 
 3251000   0.72258863   -5.5180791    1364.2251   0.03496937  0.034376154            7 
 3252000   0.73578111    -5.564583    1364.6351  0.034969124   0.03436695            5 
 3253000   0.71691445   -5.5567107    1365.7537  0.034987031  0.034357805           26 
 3254000   0.73597225   -5.5432582    1371.5374  0.035124394  0.034348615            5 
 3255000   0.74043097   -5.5553236    1366.0128  0.034972165  0.034339417            7 
 3256000   0.73753447   -5.5332801    1371.5385  0.035102849  0.034330303            7 
 3257000    0.7151298   -5.5396719    1368.9575  0.035026034   0.03432122            4 
 3258000   0.72768742   -5.5550402    1365.5969  0.034929325  0.034312058            5 
 3259000   0.70914902    -5.546141    1372.4016  0.035092606  0.034302906            8 
 3260000   0.72226666   -5.5643861    1367.3363  0.034952359  0.034293783            4 
 3261000   0.72352216   -5.5579844    1371.1166  0.035038244  0.034284664            7 
 3262000   0.72827044   -5.5657338    1362.6194  0.034810428  0.034275486            7 
 3263000   0.72710785   -5.5520659    1366.8368  0.034907467  0.034266272            6 
 3264000   0.72953174   -5.5481002    1367.9104  0.034924183  0.034257071            6 
 3265000   0.74411467   -5.5633598    1362.0321  0.034763454  0.034247867            6 
 3266000   0.70834295   -5.5728615     1367.883  0.034902098  0.034238693            9 
 3267000   0.71850415   -5.5719765     1365.152  0.034821752  0.034229564            4 
 3268000   0.71967171   -5.5766316    1367.7797  0.034878103  0.034220398           13 
 3269000   0.73232512   -5.5495018    1367.8814  0.034870025    0.0342112            4 
 3270000   0.74076398   -5.5658746    1366.5568  0.034825607  0.034202062           11 
 3271000   0.72420502   -5.5792624    1366.1392   0.03480432  0.034192868           17 
 3272000   0.73401169   -5.6004443    1369.7415  0.034885429  0.034183648           19 
 3273000   0.75199495   -5.5806342    1370.1206  0.034884422  0.034174506            6 
 3274000   0.72493132   -5.5567671    1372.3657  0.034930914  0.034165363            8 
 3275000   0.72197832   -5.5706909    1364.6592  0.034724153  0.034156219           21 
 3276000   0.73444136   -5.5768956    1369.5403  0.034837716  0.034147082            7 
 3277000   0.73469724   -5.5629525    1372.6666  0.034906587  0.034137968            6 
 3278000   0.72554504    -5.549473    1371.3885  0.034863445  0.034128887            4 
 3279000    0.7525018   -5.5057121    1373.3726  0.034903238  0.034119859            6 
 3280000   0.72135859   -5.5707032    1371.2989  0.034839912  0.034110813            9 
 3281000   0.71721138   -5.5611328    1372.8102  0.034867677  0.034101755           13 
 3282000   0.73595758   -5.5616477    1373.0424  0.034862948  0.034092687            8 
 3283000   0.70487927   -5.5772024    1372.5688  0.034840309  0.034083542           16 
 3284000   0.72878923   -5.5557718    1368.1458  0.034717463  0.034074386            8 
 3285000   0.71820185   -5.5704198    1367.6981  0.034695537  0.034065255            9 
 3286000   0.72791167   -5.5676993    1369.1429   0.03472162  0.034056067            8 
 3287000   0.74326977   -5.5549944    1371.8638  0.034780038  0.034046938           10 
 3288000    0.7243886   -5.5603912    1370.2248  0.034727919  0.034037853            8 
 3289000   0.71128597   -5.5982961    1366.9069  0.034633294  0.034028696            9 
 3290000   0.73327245   -5.5582437    1370.9005  0.034723923  0.034019533            8 
 3291000   0.72823883   -5.5795027    1370.9049  0.034713484  0.034010354            9 
 3292000   0.73603873   -5.5664364    1368.6771  0.034646546  0.034001185           25 
 3293000    0.7325696    -5.568497    1369.4199   0.03465482  0.033991981           12 
 3294000   0.72574208   -5.5976297    1364.2343  0.034513113  0.033982759            9 
 3295000   0.71845694   -5.5741081    1371.2566  0.034680237  0.033973525           22 
 3296000   0.70878757   -5.5845639    1368.0025  0.034587443   0.03396438           23 
 3297000   0.74311756   -5.5754237    1367.2544  0.034558043  0.033955215           13 
 3298000   0.71441782   -5.5531904    1369.5879  0.034606528  0.033946063           15 
 3299000   0.73910371   -5.5861683     1371.643  0.034647949    0.0339369            8 
 3300000   0.73661131   -5.5552396    1370.4532  0.034607404   0.03392775            3 
 3301000   0.73300254   -5.5952615    1367.8173  0.034530378  0.033918594            8 
 3302000    0.7192908   -5.6018276    1366.0476  0.034475258  0.033909378           10 
 3303000   0.72279196   -5.6115538    1368.8043  0.034534371  0.033900175            5 
 3304000   0.72555693   -5.5707955    1368.6569  0.034520201  0.033891012            6 
 3305000    0.7229575    -5.569556    1369.4628  0.034530076  0.033881818            4 
 3306000   0.72884474   -5.5760394    1365.0998  0.034409655  0.033872637            9 
 3307000   0.71799057   -5.5751567    1371.1045  0.034550562  0.033863416           10 
 3308000   0.70835765   -5.5838234    1366.8093  0.034431914  0.033854184            8 
 3309000   0.71325099   -5.6040379    1368.9524  0.034475481  0.033844921            5 
 3310000   0.71047305   -5.5999464     1367.402  0.034426032  0.033835655            5 
 3311000   0.73702595   -5.5899713    1368.2326  0.034436539   0.03382647            5 
 3312000   0.69172614   -5.5600469    1368.4258  0.034431004  0.033817262            6 
 3313000   0.70679692   -5.5851951    1367.7259  0.034403006  0.033808059           35 
 3314000   0.71698402    -5.592954    1368.6191  0.034415085   0.03379887           11 
 3315000   0.70497716   -5.5887595    1368.2972  0.034396612  0.033789608            9 
 3316000   0.73001451   -5.5870749    1371.1836  0.034458776  0.033780393           11 
 3317000   0.72722589   -5.5873009    1367.9672  0.034367582  0.033771157            9 
 3318000   0.72720128   -5.5827817    1369.7378  0.034401692  0.033761977           24 
 3319000   0.72927694   -5.5741744    1373.1105   0.03447601  0.033752822            7 
 3320000   0.71201761   -5.5647054    1368.2328  0.034343192  0.033743675            6 
 3321000   0.70925554   -5.5530343    1367.1984  0.034306897  0.033734551            4 
 3322000   0.72733192     -5.55588     1370.412  0.034377182  0.033725394            5 
 3323000   0.70240398   -5.5880659    1371.0604  0.034383097  0.033716247            7 
 3324000   0.73654441    -5.593132    1368.6539  0.034312422  0.033707029           18 
 3325000   0.73204731   -5.5689169    1373.8447  0.034432198   0.03369782           18 
 3326000   0.71634791   -5.5945525    1370.3979  0.034335485  0.033688592            7 
 3327000   0.72043283   -5.5804189    1367.3216  0.034248113  0.033679353           10 
 3328000    0.7144774   -5.6180122    1367.4206    0.0342403  0.033670159           12 
 3329000   0.72459867   -5.6025674    1369.1739  0.034273904  0.033660907           12 
 3330000   0.71478114   -5.5762963    1369.7758  0.034278674  0.033651639            8 
 3331000   0.70054287   -5.5915192    1372.3653  0.034333166  0.033642428            3 
 3332000   0.73156539   -5.5865177    1369.1405   0.03424221  0.033633192           10 
 3333000   0.70950311    -5.585261    1367.4818  0.034190464  0.033623981            5 
 3334000   0.72980506    -5.604395    1367.5354   0.03418155  0.033614699            5 
 3335000   0.70730755   -5.6018298    1371.3762  0.034267272  0.033605471            9 
 3336000   0.71162048   -5.5756874    1370.3333  0.034230947   0.03359624           11 
 3337000   0.71426728   -5.5873569    1369.0811   0.03418942   0.03358688            4 
 3338000    0.7306913   -5.5989027     1366.845  0.034123353  0.033577538           14 
 3339000   0.72456983   -5.5454906    1371.5748  0.034231176  0.033568317            6 
 3340000   0.72940083   -5.5649467    1373.0324  0.034257297  0.033559066            5 
 3341000   0.71647639   -5.5777943    1367.2395  0.034102551  0.033549775           14 
 3342000    0.7260259   -5.5747086    1368.6551  0.034127647  0.033540519            9 
 3343000   0.70714871    -5.576169    1368.6298  0.034116805  0.033531232            9 
 3344000   0.72023839   -5.5961141    1367.8361  0.034086823   0.03352192            8 
 3345000   0.71877552   -5.5711394    1368.9715  0.034104921  0.033512645           11 
 3346000   0.71557593   -5.5774145    1366.6878  0.034037851  0.033503358           12 
 3347000   0.71315289   -5.5986127    1370.0171  0.034110575  0.033494116            8 
 3348000   0.71004687   -5.5828859    1369.9208   0.03409799  0.033484793           14 
 3349000   0.72669465   -5.5773397    1372.1009  0.034142054  0.033475513            9 
 3350000   0.70230452   -5.5774221    1366.3833  0.033989635  0.033466187           10 
 3351000   0.71679079   -5.5831268    1371.3108  0.034102029  0.033456867            6 
 3352000   0.70237043   -5.6003926    1370.8758  0.034081041  0.033447594            6 
 3353000   0.70765489   -5.6170276    1366.0885  0.033951897  0.033438248           18 
 3354000   0.71743713   -5.6133481    1367.0708  0.033966178  0.033428972           10 
 3355000   0.70479812    -5.602148    1365.4214  0.033915088  0.033419682            9 
 3356000   0.70058166   -5.5952883    1369.0784   0.03399579   0.03341034           12 
 3357000   0.71335895   -5.5961033    1365.5855  0.033898956  0.033401035            7 
 3358000   0.71412977   -5.5950759    1367.3337  0.033932243  0.033391711           11 
 3359000   0.72855042   -5.5965859    1369.3589  0.033972384  0.033382399           11 
 3360000   0.71112661   -5.6256018    1365.4419  0.033865127  0.033373012           11 
 3361000   0.72606363    -5.585033    1370.1052  0.033970674  0.033363698           24 
 3362000   0.72525609    -5.581561    1370.3593  0.033966867  0.033354418           13 
 3363000    0.7110979   -5.6001271     1371.561  0.033986544  0.033345137            7 
 3364000    0.7055354    -5.639095    1365.7472  0.033832421  0.033335796           12 
 3365000   0.72737534    -5.623149    1369.6185  0.033918238  0.033326446           10 
 3366000   0.71041789   -5.6176072    1364.9142  0.033791696  0.033317108           10 
 3367000   0.71892426   -5.5718125    1370.3858  0.033917081  0.033307825            6 
 3368000   0.71583286   -5.6007503     1369.166  0.033876831    0.0332985            9 
 3369000    0.6969316   -5.5964407    1368.6866  0.033854917  0.033289251           11 
 3370000   0.73582771    -5.596921    1373.1658  0.033955634  0.033279997            7 
 3371000     0.712772   -5.6136172    1369.5148  0.033855304  0.033270789            9 
 3372000    0.7056755   -5.6088488    1369.7652  0.033851454   0.03326159            5 
 3373000   0.71683747   -5.6077846    1369.0844  0.033824597  0.033252296            6 
 3374000   0.71296026   -5.6064013    1368.0265  0.033788443  0.033243037            6 
 3375000   0.70938036   -5.6069811    1369.2241  0.033808002  0.033233806            9 
 3376000   0.70818202   -5.5825581    1370.2167  0.033822488  0.033224525            8 
 3377000   0.70574381   -5.5965512    1371.1021  0.033834323  0.033215344            5 
 3378000   0.71455207   -5.5822284    1372.0961  0.033848829  0.033206104            8 
 3379000   0.71809193   -5.5909197    1371.1765  0.033816133    0.0331969            6 
 3380000   0.70842002   -5.5974764    1371.1074  0.033804423  0.033187721            8 
 3381000   0.70576321   -5.6069833    1368.7069  0.033735258  0.033178513           11 
 3382000   0.69996452   -5.5978893    1371.5744  0.033795939  0.033169243           17 
 3383000   0.70191725   -5.5684614    1370.4287  0.033757727  0.033160029           15 
 3384000   0.70367628    -5.573743     1372.711  0.033803954  0.033150865           15 
 3385000   0.69984813   -5.5976719     1369.895  0.033724644  0.033141664           10 
 3386000    0.6968249   -5.5994585    1371.7807  0.033761092  0.033132427            7 
 3387000   0.71096344    -5.609446    1370.2086  0.033712445  0.033123205           12 
 3388000   0.69593956   -5.5948959    1372.5657  0.033760472  0.033114028           16 
 3389000   0.69759599   -5.6105494    1368.8032  0.033657992  0.033104819            9 
 3390000   0.70984743   -5.6083655    1373.9284   0.03377405  0.033095657           13 
 3391000   0.72335969    -5.602106    1370.9702  0.033691394  0.033086425           19 
 3392000    0.7204168   -5.6350331    1368.7849  0.033627772  0.033077222            7 
 3393000   0.71219979   -5.6065904    1371.9195  0.033694851  0.033067981            9 
 3394000   0.71761432    -5.595724    1371.0978  0.033664747  0.033058784            6 
 3395000   0.71657973   -5.6118838    1374.7559  0.033744623  0.033049606           13 
 3396000   0.68998464    -5.605885     1371.729   0.03366041  0.033040464            5 
 3397000   0.70932816   -5.6153429    1368.4817   0.03357084  0.033031272           12 
 3398000   0.70334257    -5.622204    1370.7205  0.033615864  0.033022078           11 
 3399000   0.70207627    -5.622715    1372.7275   0.03365518   0.03301283            7 
 3400000   0.71958655   -5.5996841    1371.5915  0.033617439  0.033003696           10 
 3401000   0.69578327   -5.6384908    1370.3378  0.033576834  0.032994534            9 
 3402000   0.72749578   -5.6100905    1373.5606  0.033645909  0.032985337           16 
 3403000   0.71321127   -5.6210953    1371.8256  0.033593535  0.032976159           19 
 3404000   0.69428786   -5.5929552    1372.3763  0.033597148  0.032967027           12 
 3405000   0.68129924   -5.6178808    1374.3068  0.033634527  0.032957828            5 
 3406000   0.70650281   -5.6210593    1369.0332  0.033495626  0.032948577            8 
 3407000   0.70022067   -5.6256423    1372.8903  0.033580137  0.032939309            8 
 3408000   0.69681491   -5.6408475    1371.4386  0.033534787  0.032930052           10 
 3409000   0.70242132   -5.6042446    1373.2309  0.033568762  0.032920815            9 
 3410000   0.70285044   -5.6394008    1371.7968  0.033523872  0.032911579            9 
 3411000   0.71818837   -5.6365434    1373.4162  0.033553606  0.032902408           17 
 3412000   0.70815189   -5.6045548    1374.8334  0.033578386  0.032893321            6 
 3413000    0.7198074   -5.5856762    1376.7276  0.033614797  0.032884187           10 
 3414000   0.70672284   -5.6174905    1374.2553  0.033544603  0.032875101           20 
 3415000    0.7187861   -5.6121834    1373.1487  0.033507777  0.032865982            7 
 3416000   0.70046312   -5.5913613    1374.3071  0.033526228  0.032856872           12 
 3417000   0.69433198   -5.6153107    1377.1969  0.033586891  0.032847755           16 
 3418000   0.72303456   -5.6270179    1372.5656   0.03346415  0.032838576           11 
 3419000   0.70706374   -5.6050663    1371.9239  0.033438722  0.032829409            8 
 3420000    0.6971109   -5.6183166     1371.333  0.033414547  0.032820274           11 
 3421000   0.70544019   -5.6114099     1373.301  0.033452717  0.032811107            8 
 3422000   0.70352918   -5.6089976    1372.3684  0.033420233  0.032801985            8 
 3423000   0.72026366   -5.6176262    1375.7492  0.033492774  0.032792885            5 
 3424000   0.71645195   -5.6102243    1372.8513  0.033412463  0.032783776            5 
 3425000   0.69225685   -5.6070015    1374.4147  0.033440747  0.032774626            8 
 3426000   0.71771548   -5.6119434    1374.3742      0.03343  0.032765534            9 
 3427000   0.69820042     -5.61794     1374.134  0.033414405  0.032756364            8 
 3428000   0.70778279   -5.6293836    1371.8791  0.033349841  0.032747246            8 
 3429000   0.70769177   -5.6282704     1374.962  0.033415038  0.032738136            8 
 3430000   0.70445417   -5.6425662    1376.1024  0.033433003  0.032729031            5 
 3431000   0.70467955   -5.6127159    1375.0136  0.033396814  0.032719861            8 
 3432000   0.69411797   -5.6296788    1376.6417  0.033426615  0.032710786            9 
 3433000   0.70587385   -5.6338309    1373.1742  0.033332708  0.032701686            8 
 3434000   0.69922348   -5.6434425    1372.6544  0.033310387  0.032692564           15 
 3435000    0.7156302   -5.6361956     1373.627  0.033324285  0.032683438           14 
 3436000   0.70428748   -5.6261242    1373.4451  0.033310175  0.032674375            5 
 3437000   0.69696277   -5.6271337    1373.1249  0.033292719  0.032665219            8 
 3438000   0.68315072   -5.6679158    1374.8987   0.03332603  0.032656111           10 
 3439000   0.68302195   -5.6556587    1371.4378  0.033232475  0.032646956            8 
 3440000   0.70881945   -5.6100658    1375.2938  0.033316226  0.032637873           10 
 3441000   0.69015008   -5.6669937    1371.9562  0.033225714  0.032628762            6 
 3442000   0.69294414   -5.6278252    1374.6409  0.033281061  0.032619659           10 
 3443000   0.71331918   -5.6163054    1375.6685  0.033296266  0.032610623           19 
 3444000   0.68087187     -5.60607    1374.8792  0.033267498   0.03260156           12 
 3445000     0.697571   -5.6368277    1377.6729  0.033325422  0.032592494           19 
 3446000   0.69546653   -5.6084754     1378.472  0.033335074  0.032583463           22 
 3447000   0.71994155   -5.6079567    1380.3247  0.033370194  0.032574456           11 
 3448000   0.70449227   -5.6236752    1377.4938  0.033292098  0.032565479           10 
 3449000   0.70433915    -5.622788      1373.71  0.033191021  0.032556479            6 
 3450000   0.70580008   -5.6360877    1374.8319  0.033208499  0.032547471            4 
 3451000    0.7026514   -5.6436552    1377.4609  0.033262361  0.032538452            4 
 3452000   0.70014219   -5.6432267    1376.5959  0.033231844  0.032529469            8 
 3453000   0.69963057   -5.5957002    1379.5225  0.033292849  0.032520482            5 
 3454000   0.71066498   -5.6169147    1380.0099   0.03329497  0.032511525            8 
 3455000   0.69488098   -5.6344922    1378.7754  0.033255558  0.032502535            8 
 3456000   0.69717769   -5.6271475    1377.4882  0.033214897  0.032493572            7 
 3457000   0.69895743    -5.647174    1379.5559  0.033255131  0.032484631           14 
 3458000   0.70473467   -5.6251078    1380.7632  0.033274609  0.032475626            8 
 3459000   0.69487523   -5.6447852    1377.8733  0.033195368  0.032466618           31 
 3460000   0.70799059   -5.6332998    1377.0815  0.033166703  0.032457627           11 
 3461000   0.69537424   -5.6361183    1377.9766  0.033178671  0.032448626           18 
 3462000   0.70512866   -5.6154194     1379.489  0.033205492  0.032439647            7 
 3463000   0.70657892   -5.6398857     1378.344  0.033168351  0.032430683           10 
 3464000   0.69078861   -5.6211869    1381.3328  0.033230677  0.032421772            7 
 3465000   0.69502535   -5.6327443    1378.6145  0.033155712  0.032412801           22 
 3466000   0.70696049   -5.6458966    1378.6493  0.033146983  0.032403782            9 
 3467000   0.69806219   -5.6255026    1382.3605  0.033226625  0.032394839           12 
 3468000   0.69805592   -5.6269986    1381.0308  0.033185091  0.032385909           16 
 3469000   0.70228817   -5.6693455    1375.9739  0.033054048  0.032376947           16 
 3470000   0.69540169   -5.6438897    1378.0897  0.033095333  0.032367958           21 
 3471000   0.69204236   -5.6596354    1378.6157  0.033098429   0.03235896            7 
 3472000   0.69957989   -5.6622711    1376.9524  0.033048973  0.032350002           17 
 3473000   0.69813815   -5.6386387    1379.6842  0.033105006  0.032341074           17 
 3474000   0.69245629   -5.6297846    1381.5109  0.033139293  0.032332184           10 
 3475000   0.70032291   -5.6482843    1374.5993  0.032964011  0.032323278            5 
 3476000   0.68572034   -5.6400748    1379.4193  0.033070082  0.032314364            6 
 3477000   0.68399321   -5.6449844    1380.0447  0.033075561  0.032305435            7 
 3478000   0.69946375   -5.6219762    1378.9442  0.033039683  0.032296585            7 
 3479000   0.69705904   -5.6625676     1380.148   0.03305902  0.032287731            8 
 3480000   0.70210802   -5.6488896    1383.7698   0.03313625  0.032278894           25 
 3481000   0.70494789   -5.6325828     1382.994  0.033108158  0.032270069           11 
 3482000   0.70223704   -5.6292574    1386.4552  0.033181486  0.032261261           13 
 3483000   0.69056184   -5.6512602    1380.8561  0.033037997  0.032252392           11 
 3484000   0.71294964   -5.6222623    1381.5937  0.033046157  0.032243554           24 
 3485000   0.70900652   -5.6376563    1385.4062  0.033127838  0.032234739           11 
 3486000   0.69044295   -5.6339839    1385.2358  0.033114262  0.032225937            8 
 3487000    0.6931424    -5.632112    1385.9002  0.033120644  0.032217184           14 
 3488000   0.69400312   -5.6127912    1385.7482  0.033107517  0.032208415            7 
 3489000   0.68738057   -5.6362714    1382.4229  0.033018603  0.032199659            6 
 3490000   0.69828727   -5.6330973    1383.0333  0.033023717  0.032190867            8 
 3491000   0.69275237   -5.6332323    1381.5398  0.032978607  0.032182116           12 
 3492000   0.68833419   -5.6340848    1383.2555  0.033010107  0.032173367           15 
 3493000   0.69493206   -5.6413416    1384.4946  0.033030218  0.032164529            6 
 3494000   0.69660054   -5.6436725    1381.2362  0.032943049  0.032155738           11 
 3495000   0.70216433   -5.6848699    1378.9726  0.032879652  0.032146902            8 
 3496000   0.69416429    -5.650292    1383.7265  0.032983565  0.032138043            8 
 3497000   0.66507273   -5.6429129    1385.4283  0.033014687  0.032129209           24 
 3498000   0.69257209   -5.6674497    1380.8352  0.032895826    0.0321204           11 
 3499000   0.68427551   -5.6320234     1382.056  0.032915499  0.032111543            7 
 3500000   0.71612799   -5.6387737    1385.5762  0.032989909  0.032102754            9 
 3501000   0.70256337   -5.6358855    1386.7104  0.033007483  0.032093932            8 
 3502000   0.69704503   -5.6491659    1387.7053  0.033021732   0.03208519           16 
 3503000   0.69199963   -5.6528473    1385.1267  0.032950964  0.032076416            7 
 3504000   0.66413943    -5.630271    1386.4123  0.032972135  0.032067686            6 
 3505000   0.69864131   -5.6480771    1385.6867  0.032945475  0.032058906            5 
 3506000   0.69921989   -5.6319997    1383.9147  0.032893961  0.032050131           10 
 3507000   0.68162435   -5.6441256    1384.4498  0.032897296  0.032041331           10 
 3508000   0.69510209   -5.6528776    1382.2819   0.03283642  0.032032604           11 
 3509000   0.68853768   -5.6483383    1381.2314  0.032802113  0.032023813           18 
 3510000   0.68441194    -5.664178    1384.2664  0.032864824  0.032015002            6 
 3511000   0.68317401   -5.6704456    1381.8386   0.03279784  0.032006216           11 
 3512000   0.69022141   -5.6489972    1383.6014   0.03283033  0.031997422            5 
 3513000   0.71734592   -5.6400778    1385.6705  0.032870065  0.031988618           18 
 3514000    0.6774745   -5.6584273    1385.0897  0.032846938  0.031979848            8 
 3515000   0.69313527   -5.6696427    1382.4925  0.032776019  0.031971024            8 
 3516000   0.69903024   -5.6625983    1381.1526  0.032734941  0.031962205           15 
 3517000   0.69270996    -5.637852    1382.8687  0.032766296  0.031953415           24 
 3518000   0.68554444    -5.677633    1382.3126  0.032743808  0.031944651           11 
 3519000   0.68387376   -5.6800898    1384.1612   0.03277828   0.03193584           13 
 3520000   0.69388182   -5.6539333    1381.5621  0.032707435  0.031927054           10 
 3521000    0.6808806   -5.6656766    1384.8115  0.032775052  0.031918246           14 
 3522000   0.70160589   -5.6617677    1385.8991   0.03279148  0.031909461            6 
 3523000    0.6968905   -5.6319933    1385.2062  0.032765782  0.031900672           12 
 3524000   0.69760382   -5.6297666    1388.8166   0.03284186  0.031891933           10 
 3525000   0.69179222   -5.6601952    1386.8541  0.032786148  0.031883202           10 
 3526000   0.69512818   -5.6768657    1382.3875  0.032671287  0.031874416            9 
 3527000   0.68643164   -5.6448225     1387.436  0.032781305  0.031865678           12 
 3528000    0.6974688   -5.6262713    1384.7701  0.032709044   0.03185696            8 
 3529000   0.67543032   -5.6761931     1386.899  0.032750048  0.031848217           23 
 3530000   0.70511397   -5.6533068    1386.9435   0.03274182  0.031839512            8 
 3531000   0.68713542   -5.6471689    1388.4512   0.03276813  0.031830766           11 
 3532000   0.68427269    -5.680349    1384.9495  0.032676234  0.031822018           11 
 3533000   0.69482956   -5.6557887    1386.7113  0.032708542  0.031813324            6 
 3534000   0.68057037   -5.6559434    1385.3653  0.032667546  0.031804639            8 
 3535000    0.6903022   -5.6808517    1385.7107  0.032666448  0.031795908           10 
 3536000   0.68683429   -5.6548917     1387.432  0.032697774  0.031787251            9 
 3537000   0.70508319   -5.6621276    1389.0005  0.032725486  0.031778618           11 
 3538000   0.68247854   -5.6667699    1386.4713  0.032656664  0.031769966           11 
 3539000   0.67018674   -5.6915673    1383.7332  0.032582962  0.031761229            7 
 3540000   0.67925884   -5.6733113    1385.1101  0.032606169  0.031752541            9 
 3541000   0.68117564   -5.6642493    1388.7063  0.032681595  0.031743898           12 
 3542000   0.68060555   -5.6536888    1388.1053  0.032658228  0.031735246            7 
 3543000   0.68328752   -5.6573859    1388.7387  0.032663908  0.031726642           10 
 3544000   0.67245827   -5.6582718    1388.3911  0.032646517  0.031717966           11 
 3545000   0.69144997   -5.6708952    1385.4605  0.032568418  0.031709298            7 
 3546000    0.6848927   -5.6943629    1386.7256  0.032588963  0.031700589           17 
 3547000   0.69526891    -5.681547    1383.5078  0.032504178  0.031691915           10 
 3548000   0.67254023    -5.682589    1384.3405  0.032514573  0.031683216           10 
 3549000    0.6845196   -5.6734624    1387.8217  0.032587154  0.031674531           13 
 3550000   0.67433089   -5.6554485     1387.568  0.032572018  0.031665853           11 
 3551000   0.67225025   -5.6670324    1388.6731  0.032588779  0.031657174           14 
 3552000   0.69493318   -5.6870263    1384.5089  0.032481909  0.031648508           11 
 3553000   0.68924099   -5.6593316    1393.2163  0.032676994  0.031639903           13 
 3554000   0.68404806   -5.6592334    1384.2196  0.032456847  0.031631263            6 
 3555000   0.67803354   -5.6750616    1386.9807  0.032512441    0.0316226           13 
 3556000   0.66732205   -5.6852655    1390.2623    0.0325802  0.031613891           12 
 3557000   0.67749301   -5.6758515    1388.2433  0.032523739  0.031605278            6 
 3558000   0.68419428   -5.6667852    1386.5814  0.032475675  0.031596638           10 
 3559000   0.68477932   -5.6634066    1383.8411  0.032402386  0.031587999            8 
 3560000   0.67772983   -5.6886155    1387.1927   0.03247174  0.031579374           11 
 3561000   0.66845928   -5.6511379    1392.7717  0.032593178  0.031570735            9 
 3562000   0.67499403    -5.679734    1389.3747  0.032504556  0.031562131           14 
 3563000   0.68373243   -5.6598602    1390.8118  0.032529043  0.031553464            6 
 3564000   0.67560261   -5.6608561    1388.5619  0.032467311  0.031544844            4 
 3565000   0.68884745   -5.6721412    1385.7539  0.032392563  0.031536265            6 
 3566000   0.69344275   -5.6395532    1389.6977  0.032475641  0.031527633           15 
 3567000   0.68139684   -5.6684404    1387.8003   0.03242221  0.031519029            6 
 3568000   0.69064699   -5.6911886    1384.8756  0.032344815  0.031510332           16 
 3569000   0.68675972   -5.6900309    1391.3463  0.032486839  0.031501703            6 
 3570000   0.67137083   -5.6983414    1387.2114  0.032381219  0.031493054            7 
 3571000   0.68402944   -5.6655176    1385.7949  0.032339094  0.031484408           16 
 3572000   0.67252969   -5.6371596    1388.4546  0.032392092  0.031475743            9 
 3573000   0.68265297   -5.6484902    1392.6086  0.032479908  0.031467095           12 
 3574000   0.67926437   -5.6939381     1386.229  0.032322071  0.031458474           11 
 3575000   0.66586541   -5.6574163    1389.9596  0.032399992   0.03144983            9 
 3576000   0.67886827   -5.6981912    1385.5739  0.032288728  0.031441123           12 
 3577000   0.68119532   -5.6700797    1389.3686  0.032368106  0.031432405           10 
 3578000   0.69675089   -5.6934198    1387.2175  0.032308959  0.031423718           15 
 3579000   0.68108533   -5.6896493    1385.5075  0.032260118  0.031415056           45 
 3580000   0.66234077   -5.6827552    1387.9661  0.032308337   0.03140635           18 
 3581000   0.67229499   -5.6951758    1386.9788  0.032276338  0.031397672            8 
 3582000   0.68685391   -5.6835526    1386.5426  0.032257178  0.031389035           14 
 3583000   0.68084985   -5.6801616    1386.4256  0.032245455  0.031380382            6 
 3584000   0.66317544   -5.6998795    1392.4205  0.032375849  0.031371785           21 
 3585000   0.66651197   -5.6883026    1390.5997  0.032324493  0.031363205            8 
 3586000   0.68693398   -5.6400384    1391.9735  0.032347405  0.031354633           13 
 3587000   0.67257189   -5.7114087    1388.5281  0.032258342  0.031346043           17 
 3588000    0.6976553   -5.6771663     1387.987  0.032236785  0.031337392           12 
 3589000   0.66944095   -5.6722362    1388.3685   0.03223666  0.031328783           10 
 3590000   0.67239138   -5.6721571    1388.3138  0.032226411  0.031320177           18 
 3591000   0.67008809     -5.66931    1387.4601  0.032197626  0.031311563            9 
 3592000   0.66104583   -5.6789187    1388.3499  0.032209306  0.031302923           13 
 3593000   0.67699563   -5.6996821    1386.5137  0.032157752  0.031294239            9 
 3594000   0.66340793   -5.6817687     1388.601  0.032197203  0.031285575            7 
 3595000   0.67608851   -5.6974494    1386.3832  0.032136837  0.031276926           13 
 3596000   0.68250312   -5.6895325    1387.8667  0.032162279   0.03126825           14 
 3597000   0.67325862   -5.6865427    1388.0092  0.032156641  0.031259596           10 
 3598000   0.68418648   -5.7002527    1386.3998  0.032110427  0.031250996           13 
 3599000   0.68307798   -5.6762682    1387.1428  0.032118709  0.031242369           11 
 3600000   0.67042877   -5.7023203     1388.986  0.032152454  0.031233706           31 
 3601000   0.67452404   -5.6822815    1393.2517  0.032242241  0.031225062           22 
 3602000   0.67750973   -5.6569057    1388.3916   0.03212085  0.031216459            4 
 3603000   0.68624101   -5.7031403    1385.9828  0.032056222  0.031207788           15 
 3604000   0.67993848   -5.7003694    1388.6669  0.032109391  0.031199074           13 
 3605000   0.66898233   -5.6955251    1385.7576  0.032033231  0.031190362            8 
 3606000   0.68118235    -5.700295     1386.543  0.032042498  0.031181731            9 
 3607000   0.67674273   -5.6608941    1392.5708  0.032172878  0.031173141           10 
 3608000    0.6650183   -5.7067095    1385.3131  0.031996331  0.031164558            8 
 3609000   0.66174115   -5.6996309    1385.5653  0.031993288  0.031155901           12 
 3610000   0.68612582   -5.6982708     1387.846  0.032037074  0.031147261            5 
 3611000   0.68243686   -5.7263949    1384.4554  0.031949953  0.031138587            8 
 3612000   0.66126123   -5.7217618    1386.2446  0.031982387  0.031129898           12 
 3613000   0.67265384   -5.6893966    1387.6681  0.032006368  0.031121275            6 
 3614000   0.66042716   -5.6970638    1387.4742  0.031993042  0.031112651           26 
 3615000   0.66125728   -5.6793244    1388.0376  0.031997179  0.031104019           14 
 3616000   0.65470677     -5.69333    1393.2286  0.032107961  0.031095403            7 
 3617000    0.6760125   -5.6906217    1391.0379  0.032048611  0.031086806           10 
 3618000   0.65909619    -5.682138     1385.888  0.031921134  0.031078208            4 
 3619000   0.66849501   -5.6913903    1392.9292  0.032074451  0.031069584           10 
 3620000   0.65319426   -5.7060824    1388.9044  0.031972936  0.031060957           11 
 3621000   0.66551645   -5.6914497    1390.5099  0.032001057  0.031052363            6 
 3622000   0.68388341   -5.6736256     1396.424   0.03212829  0.031043795           10 
 3623000   0.68460979    -5.683853    1387.5394  0.031915065  0.031035324           14 
 3624000   0.66925937   -5.7012137    1391.8498  0.032005376  0.031026792            9 
 3625000   0.67170006   -5.6880009    1391.2506  0.031982772  0.031018263            5 
 3626000   0.66639587   -5.6759927    1390.3019  0.031952149  0.031009783           10 
 3627000   0.66770113   -5.6852475    1393.0937  0.032007484  0.031001292            7 
 3628000   0.66276414   -5.7223957    1390.2062  0.031932337  0.030992769           15 
 3629000   0.67066937   -5.6943072    1391.2828  0.031948259  0.030984238           13 
 3630000   0.67700982   -5.6880646    1391.5926  0.031946569  0.030975758            7 
 3631000   0.67223605   -5.7125984     1390.594  0.031914854  0.030967266            7 
 3632000   0.66944784   -5.6834094    1390.2806  0.031898875  0.030958716           19 
 3633000   0.66223769   -5.6729456    1392.9522  0.031951377  0.030950182            5 
 3634000   0.67732846   -5.6744809    1392.1121   0.03192332  0.030941669            8 
 3635000   0.67976484   -5.7012222    1392.8343  0.031931092   0.03093315           10 
 3636000   0.67794549   -5.6880013    1395.3281  0.031979466  0.030924556           11 
 3637000   0.66624362    -5.688907    1390.8174  0.031867321  0.030916004           16 
 3638000   0.67917781   -5.7048431    1387.1751  0.031775131  0.030907421           31 
 3639000   0.65678219   -5.6812955    1391.5279  0.031866077  0.030898828            9 
 3640000   0.65454835   -5.6714249    1392.3016  0.031875038   0.03089025           40 
 3641000   0.66251574   -5.6946049    1393.1272  0.031885179  0.030881684            7 
 3642000   0.68231139   -5.7029753    1389.5175  0.031793829  0.030873094           18 
 3643000   0.67688321   -5.7299942    1387.1588  0.031731146   0.03086446           29 
 3644000   0.66899298   -5.7147058    1387.6566  0.031733822  0.030855899           19 
 3645000   0.66562695   -5.7223779    1393.9895  0.031869901  0.030847373           15 
 3646000   0.67518788   -5.7149217    1390.2055  0.031774672   0.03083883            9 
 3647000   0.66173648   -5.7251265    1389.2448  0.031744009  0.030830244            6 
 3648000   0.67651664   -5.7237994    1389.4877  0.031740855   0.03082167           12 
 3649000    0.6735423   -5.6946123    1392.5791  0.031802757  0.030813133           13 
 3650000   0.66895543   -5.7192104    1392.9911   0.03180345  0.030804593           12 
 3651000   0.67434183   -5.7034588    1393.9302  0.031816173  0.030796025           15 
 3652000   0.67091053   -5.7085068    1391.8928  0.031760971  0.030787473            4 
 3653000   0.65183115   -5.7068839    1391.0058  0.031732043  0.030778947            9 
 3654000   0.65865652   -5.7131371    1394.0622  0.031793063  0.030770421            9 
 3655000   0.68160574   -5.6949381    1391.1966   0.03171903  0.030761916           13 
 3656000   0.67803732   -5.7082114    1394.9885  0.031796783  0.030753409           10 
 3657000    0.6690323   -5.7106532    1392.6437  0.031734657  0.030744865           12 
 3658000   0.67446719   -5.7212537    1388.3118  0.031627297  0.030736328           11 
 3659000   0.66858868   -5.7134803    1391.7439  0.031696819   0.03072775           19 
 3660000   0.66951931   -5.7372441     1390.581   0.03166168  0.030719215           13 
 3661000   0.66121133   -5.7052482    1391.1553  0.031666105  0.030710728           15 
 3662000    0.6640755   -5.7044069    1391.0137  0.031654236  0.030702252           21 
 3663000   0.66137494   -5.7190051    1393.2652  0.031696815  0.030693769            8 
 3664000   0.66552806   -5.7055243    1391.3038  0.031643555  0.030685254           12 
 3665000   0.65748328   -5.7301858    1387.8189  0.031555681  0.030676708            7 
 3666000   0.65383719    -5.690497    1392.8311  0.031661008  0.030668157           13 
 3667000   0.64955104   -5.7428013    1388.8948  0.031562921  0.030659632            9 
 3668000   0.68344415   -5.6854416    1391.7296  0.031618721   0.03065114            8 
 3669000   0.66519017   -5.7122382    1391.8592  0.031613046  0.030642651            7 
 3670000   0.66732892   -5.7259733    1390.5759  0.031575292  0.030634148           10 
 3671000   0.66550053   -5.6936102    1393.9351  0.031642948  0.030625689            7 
 3672000   0.65874609   -5.6825722    1395.5875  0.031671831  0.030617233           11 
 3673000   0.65652863   -5.7201932    1393.3086  0.031611502  0.030608763           10 
 3674000   0.65514463   -5.7085867    1390.8888  0.031548014  0.030600356           14 
 3675000   0.66830458   -5.7149218    1391.9676  0.031563891  0.030591912           10 
 3676000   0.65652387   -5.7181496    1392.4276  0.031565732   0.03058341           13 
 3677000   0.67064634   -5.7171573    1395.2251   0.03162055  0.030574932           12 
 3678000   0.66349015   -5.7334583     1392.358   0.03154699  0.030566476           30 
 3679000   0.64736633   -5.6892758    1393.7683   0.03157036  0.030558003            9 
 3680000   0.66822961   -5.7431098    1389.8416  0.031472862  0.030549541            9 
 3681000   0.66332794   -5.7234822    1390.1124  0.031470442  0.030541042           12 
 3682000   0.67980573    -5.737289    1389.4925  0.031447865  0.030532576           11 
 3683000   0.66628435   -5.7036726    1390.1995  0.031455324  0.030524114           10 
 3684000   0.67510007   -5.7346954    1390.2804  0.031448615  0.030515586            8 
 3685000   0.67100619   -5.6983824    1393.2694  0.031507675  0.030507087           11 
 3686000   0.64884574   -5.7120557    1390.6889  0.031440787  0.030498619           15 
 3687000   0.66572786   -5.7087938    1397.4019  0.031583986  0.030490196           18 
 3688000   0.68562233   -5.7376344    1392.1809  0.031457449  0.030481737           11 
 3689000   0.66309685   -5.7464582    1390.7739   0.03141714  0.030473286           16 
 3690000    0.6590075     -5.70691    1391.6135  0.031427586  0.030464816            8 
 3691000   0.65059102   -5.7223435    1392.2617  0.031433706  0.030456398           13 
 3692000   0.66387337   -5.7383643    1387.9965  0.031328921  0.030447934           17 
 3693000   0.66783895   -5.7135274    1392.8201  0.031429282  0.030439467            7 
 3694000   0.65837268    -5.696032    1398.3035  0.031544475  0.030431029            7 
 3695000   0.64711001   -5.7269856    1394.0979  0.031441089   0.03042261           12 
 3696000   0.65894087   -5.7243951    1392.6527  0.031399997  0.030414151           21 
 3697000    0.6508534   -5.7257418    1397.5691  0.031502324  0.030405746           11 
 3698000   0.66129144   -5.7149858     1395.011   0.03143616  0.030397318            9 
 3699000   0.65557817   -5.6939421      1395.37  0.031435748  0.030388985           18 
 3700000   0.66253923   -5.7477293    1396.3191  0.031448629  0.030380576            7 
 3701000   0.65445649   -5.7195908    1396.1118  0.031435464  0.030372173           14 
 3702000   0.64407066   -5.6894123    1395.1789  0.031405973  0.030363803            9 
 3703000   0.66180779   -5.7082463    1395.2412  0.031398893  0.030355447           11 
 3704000   0.67692046   -5.7219691    1396.8736  0.031427141  0.030347018           10 
 3705000   0.65395616   -5.7218444    1396.0459  0.031400043  0.030338606           12 
 3706000   0.66364498   -5.7530874    1392.5352  0.031312627  0.030330174            5 
 3707000   0.66006433   -5.7294179    1396.7343  0.031398578   0.03032175           34 
 3708000   0.66225136    -5.729558     1392.389  0.031292453  0.030313345           19 
 3709000   0.65243782   -5.7040043    1396.7546  0.031382101  0.030304935           19 
 3710000   0.64264756   -5.7498197    1391.2149  0.031249211  0.030296535            7 
 3711000   0.66724494   -5.7398695    1393.1616  0.031284505   0.03028809           11 
 3712000   0.67425202   -5.7442297    1395.1986  0.031321807  0.030279666           13 
 3713000      0.65237   -5.7435971    1395.6424  0.031323332  0.030271258           10 
 3714000   0.64980887   -5.7095841    1394.9141  0.031298556  0.030262881           16 
 3715000   0.65243774   -5.7593892    1389.8925  0.031177489  0.030254468           18 
 3716000   0.65744501   -5.7506729     1392.581  0.031229391  0.030246022           14 
 3717000   0.65557159     -5.72299    1392.1299  0.031210875  0.030237588           14 
 3718000   0.66603966   -5.7405348    1393.3681  0.031230233  0.030229165            9 
 3719000   0.66147657   -5.7034377    1391.8297  0.031187363  0.030220733           19 
 3720000   0.65271618   -5.7519845     1391.496  0.031171505  0.030212344           15 
 3721000   0.66062761   -5.7028303    1395.2006  0.031246094  0.030204001           27 
 3722000   0.64831985   -5.7250368    1393.5512   0.03120077  0.030195675           11 
 3723000   0.66001288   -5.7475019    1396.5387  0.031259259  0.030187301           11 
 3724000   0.65805832   -5.7419992    1395.3055  0.031223271  0.030178929            7 
 3725000   0.66252092   -5.7405144    1397.0874  0.031254753  0.030170571           12 
 3726000   0.65303975   -5.7135643    1396.7539  0.031238905  0.030162235            9 
 3727000   0.64224321   -5.7386659    1398.6772  0.031273527  0.030153886            7 
 3728000   0.65754829   -5.7384838      1394.12  0.031163269  0.030145517            6 
 3729000   0.65008898   -5.7729905    1390.9717  0.031084556  0.030137137            9 
 3730000   0.66597653   -5.7348906    1395.4208  0.031175622  0.030128763           13 
 3731000   0.65474559   -5.7420182    1392.3519  0.031098719  0.030120411            9 
 3732000    0.6538009   -5.7200231    1395.5251  0.031161244  0.030112114            8 
 3733000   0.65581685   -5.7350872    1393.4462  0.031106486  0.030103801           10 
 3734000   0.65692969   -5.7347824    1397.9189  0.031197976  0.030095471           10 
 3735000   0.64706831   -5.7102686    1396.6791  0.031161962  0.030087173           17 
 3736000   0.65344191   -5.7390461     1396.067  0.031139967  0.030078876           17 
 3737000   0.63557358   -5.7492844    1396.7206   0.03114621  0.030070535            7 
 3738000    0.6577013   -5.7533046    1396.8458  0.031140669   0.03006218           24 
 3739000    0.6550397   -5.7316175    1398.4652  0.031168432  0.030053857           21 
 3740000   0.65467064   -5.7215663    1395.7904  0.031100498  0.030045517           13 
 3741000   0.65226121    -5.709256    1399.2295  0.031168795  0.030037176           27 
 3742000   0.65737719   -5.7187099    1396.3102  0.031095452  0.030028857           21 
 3743000   0.66877352   -5.7406126    1395.6038  0.031071418  0.030020527           32 
 3744000   0.64315006   -5.7345376    1394.0443  0.031028407  0.030012166           34 
 3745000   0.64514997   -5.7315666     1395.686  0.031056654   0.03000383           32 
 3746000    0.6372766   -5.7363977    1397.3337  0.031085018  0.029995521            9 
 3747000   0.66875508   -5.7437586    1395.2156  0.031029615   0.02998722           12 
 3748000   0.65695159   -5.7201654    1395.4109  0.031025679   0.02997894            7 
 3749000    0.6508399   -5.7381853    1395.5947  0.031021488  0.029970695            8 
 3750000   0.65613982   -5.7542078    1392.2454  0.030938786  0.029962371           18 
 3751000   0.66207917   -5.7202621    1397.9602    0.0310575  0.029954062           14 
 3752000   0.65265891   -5.7348083    1400.2139  0.031099279  0.029945758            8 
 3753000   0.63669969    -5.716781    1396.4905  0.031008315  0.029937455            4 
 3754000   0.64551969   -5.7357662    1396.8204   0.03100738  0.029929153           18 
 3755000    0.6520026   -5.7391709     1397.304  0.031009852  0.029920905           10 
 3756000   0.66051885   -5.7154586    1399.0851  0.031041113  0.029912627           15 
 3757000    0.6406634   -5.7287667    1398.8074  0.031026692  0.029904393           18 
 3758000   0.65843756   -5.7575872    1395.3102  0.030940886  0.029896143            6 
 3759000   0.64293754   -5.7424792    1399.7475  0.031031025  0.029887875            5 
 3760000   0.64382344   -5.7524719    1397.6161  0.030975534  0.029879594           13 
 3761000    0.6431275   -5.7738108    1396.9561  0.030952674  0.029871313           12 
 3762000   0.64722541     -5.74588    1395.9052  0.030921168  0.029863006           14 
 3763000   0.64516844   -5.7299647    1393.3437  0.030856225   0.02985468            8 
 3764000   0.65816372   -5.7288625    1397.9237  0.030949427  0.029846458           17 
 3765000   0.65046026   -5.7374674    1395.5121  0.030887828  0.029838184            5 
 3766000   0.64169832   -5.7535072     1396.623  0.030904208  0.029829882           23 
 3767000   0.65423788   -5.7462035    1392.1911  0.030797962   0.02982158           12 
 3768000   0.64121838   -5.7434747    1396.0092  0.030874231  0.029813289            8 
 3769000   0.65676113   -5.7570655    1396.5361  0.030877688  0.029804994           10 
 3770000   0.64598499   -5.7540462    1396.8366   0.03087614  0.029796716           14 
 3771000   0.63913337   -5.7533039    1395.0837  0.030829216  0.029788427           17 
 3772000   0.63836679   -5.7422106    1395.6634  0.030833851  0.029780073           14 
 3773000    0.6494708   -5.7498559    1394.1455  0.030792153  0.029771755            7 
 3774000   0.66658186   -5.7326096    1400.7442    0.0309297  0.029763481            9 
 3775000   0.64393083   -5.7479305    1397.2013  0.030843295  0.029755217           14 
 3776000   0.64348585   -5.7656648    1393.2997  0.030749022  0.029746944            9 
 3777000   0.64310138     -5.75141    1396.2003  0.030804878   0.02973865           14 
 3778000   0.63915323   -5.7439834      1399.86  0.030877449  0.029730343            9 
 3779000    0.6398041   -5.7512971    1397.4715  0.030816608   0.02972206            9 
 3780000   0.65510086   -5.7293837    1397.4451  0.030807873  0.029713809            9 
 3781000   0.64653139    -5.773988     1396.485  0.030778564  0.029705543            8 
 3782000   0.64738395   -5.7296071       1397.1  0.030783976  0.029697302           19 
 3783000   0.65800598   -5.7506145    1398.7981  0.030813246  0.029689068           21 
 3784000   0.64353839   -5.7259425    1398.7856  0.030804827   0.02968083            9 
 3785000   0.63851666   -5.7489245     1396.184  0.030739411  0.029672635            9 
 3786000   0.64762985   -5.7579654    1396.9239  0.030747577  0.029664376           12 
 3787000   0.65016719   -5.7387114    1398.5239  0.030774666  0.029656128           19 
 3788000   0.64460471   -5.7506956    1394.0035  0.030667096  0.029647878           11 
 3789000   0.63016535   -5.7502784    1399.0017  0.030768929  0.029639605           17 
 3790000   0.65135488   -5.7731665    1399.2732   0.03076678   0.02963132           15 
 3791000   0.63476242   -5.7809666    1393.4899  0.030631537  0.029623048            7 
 3792000   0.65035895   -5.7383492     1399.376  0.030752814  0.029614764           19 
 3793000   0.63451644   -5.7453086    1401.2102  0.030785003  0.029606545           11 
 3794000   0.64462935   -5.7766881    1396.4141  0.030671546  0.029598294           21 
 3795000   0.63878528   -5.7403868    1398.5646  0.030710685  0.029590049           18 
 3796000   0.64954369   -5.7593952    1394.0007  0.030602404  0.029581814           19 
 3797000    0.6390465   -5.7494004    1392.6877  0.030565527  0.029573494           14 
 3798000   0.64021106   -5.7794325    1393.0983  0.030566488  0.029565165            9 
 3799000    0.6360374   -5.7524482     1393.692  0.030571467  0.029556875           13 
 3800000   0.64446322   -5.7845853    1397.0348  0.030636728  0.029548577            6 
 3801000    0.6464267   -5.7817565    1394.1854  0.030566198  0.029540286           22 
 3802000    0.6448921   -5.7890795    1397.3319  0.030627124  0.029532007           10 
 3803000   0.64100746   -5.7719519    1396.1345  0.030592833  0.029523711            9 
 3804000   0.65487288   -5.7571598    1397.0785   0.03060547  0.029515441           10 
 3805000   0.64836388   -5.7624526    1397.9329  0.030616139  0.029507196           22 
 3806000   0.64194852   -5.7504605    1401.0833  0.030677074  0.029498927           14 
 3807000   0.62801541   -5.7520046    1394.6688  0.030528606  0.029490675           13 
 3808000    0.6395837   -5.7637852    1395.5401  0.030539655  0.029482402           16 
 3809000   0.63342757   -5.7868129    1394.2135  0.030502615   0.02947413           11 
 3810000   0.63462179   -5.7876372     1396.953  0.030554528  0.029465858           14 
 3811000   0.64652622    -5.761307    1399.3382  0.030598666  0.029457577           12 
 3812000   0.64889719   -5.7793344     1392.021  0.030430679    0.0294493            6 
 3813000   0.63397874   -5.7570435    1399.0187  0.030575633  0.029441047            6 
 3814000   0.63047665   -5.7653946    1394.2361   0.03046312  0.029432834            7 
 3815000   0.63819747   -5.7725157    1394.5329  0.030461619  0.029424568            6 
 3816000   0.62188899   -5.7734604    1396.2547  0.030491237  0.029416291           14 
 3817000   0.64667032   -5.7636874    1397.8243  0.030517516  0.029408092           18 
 3818000   0.63102431   -5.7536303    1397.0359  0.030492315   0.02939995           16 
 3819000   0.63847755   -5.7731105    1398.0314  0.030506053  0.029391736           10 
 3820000   0.64817167   -5.7653354    1397.0263  0.030476142   0.02938353           10 
 3821000   0.64558133   -5.7725843    1398.7671  0.030506131  0.029375302           18 
 3822000   0.64134473   -5.7818642    1395.2487  0.030421435  0.029367065           15 
 3823000   0.63837218   -5.7773434    1402.3942  0.030569234  0.029358836           13 
 3824000    0.6553382   -5.7632609    1395.5896  0.030412954  0.029350641           13 
 3825000   0.63314734     -5.74939    1398.4208  0.030466684  0.029342473           12 
 3826000   0.64479204   -5.7680302    1401.7733  0.030531741    0.0293343           11 
 3827000   0.64960771   -5.7809514    1399.8188  0.030481204  0.029326167           10 
 3828000   0.62442649   -5.7701843    1401.7842  0.030516027   0.02931802           16 
 3829000   0.64528188    -5.781557    1397.5138  0.030415117  0.029309843            8 
 3830000   0.63492926   -5.7855106     1399.924  0.030459617  0.029301698           14 
 3831000   0.63129468    -5.769067     1398.905    0.0304295  0.029293572           12 
 3832000   0.65222272    -5.772807    1402.0373  0.030489676  0.029285441           12 
 3833000    0.6350433   -5.7663856    1401.2063  0.030463656  0.029277335           28 
 3834000   0.64385738   -5.7634255    1397.1402  0.030367333  0.029269201           12 
 3835000   0.63611646   -5.7781266    1400.0565  0.030422784  0.029261064           25 
 3836000   0.63212857   -5.7640992    1397.0365  0.030349245  0.029252897           11 
 3837000   0.62786888   -5.8094391    1397.4959  0.030351313  0.029244723           12 
 3838000   0.64515063   -5.7701801    1399.7483  0.030392312   0.02923658           22 
 3839000   0.63309464   -5.7665418    1399.4873   0.03037873  0.029228436           38 
 3840000   0.64980127   -5.7545873    1399.4052  0.030369037  0.029220326           15 
 3841000   0.65543037   -5.7799702    1400.5615  0.030386217  0.029212215           16 
 3842000   0.63933208   -5.7718037    1400.3075  0.030372798   0.02920409           20 
 3843000   0.63302271    -5.790281    1401.6161  0.030393272  0.029195965           18 
 3844000   0.61961298   -5.7816445    1396.0961  0.030265697  0.029187853           13 
 3845000   0.63787025   -5.7816571    1400.6824  0.030357227  0.029179751            7 
 3846000   0.63971621   -5.7464505    1403.1202  0.030402155  0.029171665           10 
 3847000   0.63373489   -5.7742409    1397.6661  0.030276105  0.029163579           12 
 3848000   0.62464562   -5.7948994    1402.2267  0.030367003  0.029155461           19 
 3849000   0.64231107   -5.7766685     1400.398  0.030319521  0.029147367           19 
 3850000   0.63652537   -5.7704353    1395.7291  0.030210586  0.029139239            9 
 3851000   0.61488149   -5.7733629    1401.7171  0.030332319  0.029131116            9 
 3852000   0.61737335   -5.7707641    1401.2746  0.030314872  0.029123056           12 
 3853000   0.63244255   -5.7780975    1397.5422  0.030226279   0.02911496           14 
 3854000   0.63773057   -5.7752805    1403.4398  0.030345956  0.029106887           16 
 3855000   0.64506461     -5.76265    1400.4249  0.030272911  0.029098897           11 
 3856000   0.61700722   -5.8050028    1399.4799  0.030244639  0.029090811           14 
 3857000   0.63687809   -5.7705362     1401.063     0.030271  0.029082714           19 
 3858000   0.63881723   -5.7828972    1400.4506  0.030249927  0.029074623           12 
 3859000   0.64402122   -5.7769935    1402.1667  0.030279146  0.029066549           27 
 3860000   0.63229306   -5.7734398    1401.1899  0.030250213  0.029058442           10 
 3861000   0.62531791   -5.8097746     1403.583  0.030294031  0.029050335           10 
 3862000   0.62248911   -5.8064413    1399.9507  0.030207809  0.029042237           19 
 3863000   0.64823716   -5.8144671    1395.7556  0.030109491  0.029034105           12 
 3864000    0.6263664   -5.7707881    1401.7696  0.030231401  0.029026017           16 
 3865000   0.62329926   -5.7999837    1401.2738   0.03021289   0.02901795           23 
 3866000   0.63423601   -5.7666251    1401.8332  0.030217131  0.029009875           11 
 3867000   0.63051794   -5.7844073    1401.0373  0.030192167  0.029001801           38 
 3868000   0.62757584    -5.763906    1401.6623  0.030197826  0.028993735            9 
 3869000   0.63618431   -5.7861533    1396.9763  0.030089091  0.028985654           17 
 3870000   0.63304055   -5.8037869    1398.0169  0.030103722  0.028977568           22 
 3871000   0.64116847   -5.7577017    1403.0017  0.030203258  0.028969506           19 
 3872000    0.6317761   -5.7948704    1403.6181  0.030208724  0.028961463           17 
 3873000   0.62827768   -5.7904993    1398.2222  0.030084823  0.028953385           12 
 3874000   0.63043721   -5.7765345    1402.3065  0.030164914  0.028945291           15 
 3875000   0.63876113   -5.7815702    1400.9615  0.030128204  0.028937229           10 
 3876000   0.61970846   -5.7833378    1400.6564  0.030113871  0.028929164           38 
 3877000    0.6368461   -5.7730883    1402.8353  0.030152938  0.028921098           12 
 3878000   0.62671179   -5.7839858    1398.0203  0.030041695  0.028913061           17 
 3879000    0.6342288   -5.7818401    1403.1882  0.030144973   0.02890503           43 
 3880000   0.63660211   -5.7974766    1397.9667  0.030025058  0.028896971           11 
 3881000   0.64179318   -5.7972575    1398.5237  0.030029281  0.028888927            8 
 3882000   0.62248178   -5.7954416     1400.311  0.030059912  0.028880876           10 
 3883000   0.63043175   -5.7883444    1397.6242  0.029994511  0.028872783           35 
 3884000    0.6325139   -5.7719585    1402.6882  0.030095439  0.028864716           25 
 3885000   0.62382459   -5.7904092    1399.2589  0.030014134  0.028856644           11 
 3886000   0.61559898   -5.7879225     1398.485  0.029989813  0.028848569           11 
 3887000   0.62923226   -5.8234096      1399.22  0.029997856  0.028840495           11 
 3888000   0.63229285    -5.795987    1402.8055   0.03006699  0.028832439           26 
 3889000   0.63077732   -5.8011723    1398.6063  0.029969279  0.028824405           14 
 3890000   0.62873348   -5.8018557    1403.8001  0.030072838   0.02881636           14 
 3891000   0.62159896   -5.7936008    1401.3404   0.03001243  0.028808294           16 
 3892000   0.63481212   -5.7790374    1403.2605   0.03004583  0.028800269           14 
 3893000   0.64500119   -5.8086595    1402.0195  0.030011547  0.028792247           10 
 3894000   0.62009587   -5.7813039    1400.3078   0.02996721  0.028784218           46 
 3895000   0.64336849   -5.8039966    1400.4925  0.029963469  0.028776191           27 
 3896000   0.62804719   -5.7987348    1399.4816  0.029934154  0.028768123           16 
 3897000   0.62272615   -5.8016867     1401.892  0.029978018  0.028760069           18 
 3898000   0.62845247   -5.8132073    1403.0205  0.029994452  0.028751988           15 
 3899000   0.61628226   -5.7973702    1403.7014  0.030001313  0.028743909           17 
 3900000   0.62152809    -5.775568     1403.315  0.029985363   0.02873584           12 
 3901000   0.62459535    -5.778893    1399.3209  0.029892354  0.028727795           26 
 3902000   0.63949902   -5.8099099    1400.9542  0.029919576  0.028719768           29 
 3903000   0.62736171   -5.7942377    1404.4466  0.029986475  0.028711722           18 
 3904000   0.63089352   -5.8046034    1403.7979  0.029964947  0.028703701           14 
 3905000   0.62886572   -5.8389762    1397.8369  0.029830066  0.028695633           10 
 3906000   0.63867814   -5.8197223    1398.3238  0.029832817  0.028687553           29 
 3907000    0.6295397   -5.8134319    1399.8525  0.029857788  0.028679496           28 
 3908000   0.61240635   -5.8009953    1400.1212  0.029855876  0.028671444           16 
 3909000   0.63043568   -5.8001489    1398.3517  0.029810516  0.028663404            9 
 3910000   0.63238618   -5.8233874    1399.7056  0.029831749  0.028655348            8 
 3911000   0.62665511   -5.8025603    1403.7426  0.029910137   0.02864733           17 
 3912000    0.6142051   -5.8085545    1398.7787  0.029796752  0.028639303           35 
 3913000    0.6325005   -5.7980933    1398.5246  0.029783725  0.028631259           23 
 3914000   0.62668769   -5.7843988    1399.3211  0.029793074  0.028623204           14 
 3915000   0.62370867   -5.8059555    1395.3374  0.029700668  0.028615133           21 
 3916000   0.61482247   -5.8275097    1399.5962  0.029783713  0.028607042           18 
 3917000   0.62412296   -5.8191465    1403.4596  0.029858302  0.028598952           14 
 3918000   0.61799079   -5.8441275    1397.9354  0.029733185  0.028590875           11 
 3919000    0.6218726   -5.8064871     1401.437  0.029800056   0.02858279           16 
 3920000   0.63744783   -5.8219888    1399.9578  0.029761009  0.028574741           28 
 3921000   0.61538814   -5.7923916    1403.6677  0.029832264   0.02856669           24 
 3922000   0.62255763   -5.8132263    1399.4924  0.029735943  0.028558623           25 
 3923000   0.63668567   -5.8029889    1401.0972  0.029762453   0.02855057           13 
 3924000   0.62412488   -5.8139752    1396.5403  0.029658093  0.028542558           34 
 3925000    0.6191696   -5.8147865    1398.9521  0.029701743  0.028534553           21 
 3926000   0.62827715   -5.8190821    1397.0249  0.029653271  0.028526533           12 
 3927000   0.63161658   -5.7872907    1404.3876  0.029801961  0.028518536           29 
 3928000    0.6212534   -5.8011049    1399.9811  0.029700888  0.028510516           10 
 3929000   0.62121925   -5.8199172    1399.2829   0.02967852  0.028502482           17 
 3930000   0.63707912   -5.8251153    1398.3746   0.02965171  0.028494446           15 
 3931000   0.62524648   -5.8220817    1401.3969  0.029708236  0.028486411           22 
 3932000   0.61457348   -5.7937947    1402.2207  0.029718139  0.028478362           10 
 3933000   0.63417416   -5.8062513    1399.3553  0.029649871  0.028470326           17 
 3934000   0.62800561    -5.825197    1400.0948  0.029657999  0.028462281           21 
 3935000   0.61733916   -5.8267454    1401.4505  0.029679172  0.028454262           16 
 3936000   0.62816391   -5.8203289    1399.9381   0.02963961  0.028446236           28 
 3937000   0.62180724   -5.7895331     1401.954  0.029674752  0.028438216           28 
 3938000   0.62590039   -5.8106663    1399.6173  0.029617769  0.028430213           25 
 3939000   0.63189384   -5.8198116    1400.9346  0.029638118  0.028422169           28 
 3940000   0.61611506   -5.7969937    1398.0148   0.02956884  0.028414135           29 
 3941000   0.62803393   -5.8331412    1401.7532  0.029640387  0.028406113           30 
 3942000   0.63042917   -5.7938392    1401.7139  0.029632036  0.028398116           15 
 3943000   0.62044013   -5.8157306    1401.1229  0.029612032   0.02839011            9 
 3944000   0.61994567   -5.8148096    1402.2219  0.029627744  0.028382122           13 
 3945000   0.62732476   -5.8082006    1398.1988  0.029535251  0.028374123            8 
 3946000   0.61925436    -5.829585    1397.8538  0.029520481  0.028366108           12 
 3947000   0.60673528   -5.8399201    1397.1643  0.029498445  0.028358047           14 
 3948000   0.61037724   -5.8060078    1402.9313    0.0296127  0.028349991           21 
 3949000    0.6204996   -5.8227991    1399.6755  0.029536498  0.028341968            9 
 3950000   0.61610368   -5.8366057    1400.3134  0.029542477  0.028333944           14 
 3951000   0.62649253   -5.8480704    1396.4246  0.029452978  0.028325913           18 
 3952000   0.61235672   -5.8113856    1400.3204  0.029527673   0.02831791           15 
 3953000   0.62797721   -5.8145441    1400.3459  0.029520742  0.028309898            4 
 3954000   0.61656309   -5.8161814    1399.9287  0.029504483  0.028301889           17 
 3955000   0.63205158   -5.8165656    1400.1645   0.02950199  0.028293849           15 
 3956000    0.6290184   -5.8167679    1399.2219  0.029474677  0.028285864           10 
 3957000   0.61764485   -5.8085197    1401.5888  0.029517075  0.028277864            7 
 3958000    0.6199539   -5.8221722    1399.6172  0.029468106  0.028269868           10 
 3959000   0.61628195   -5.7925459    1405.1635  0.029577407  0.028261901            6 
 3960000   0.62262433   -5.7987835    1401.3366  0.029489407  0.028253948           33 
 3961000   0.62601507   -5.8063411    1402.0198  0.029496335  0.028245943            8 
 3962000    0.6200492   -5.8217169    1399.6128  0.029438264  0.028237926           21 
 3963000   0.61040483   -5.8158174    1398.9992  0.029417932  0.028229878           19 
 3964000   0.62751274   -5.8065651    1399.1662  0.029414022  0.028221838           18 
 3965000   0.61001535   -5.8297146    1398.7708  0.029398294  0.028213836           13 
 3966000   0.62271143   -5.8376802    1396.4758  0.029342658  0.028205805           16 
 3967000   0.61746892   -5.8197857    1400.4955  0.029419703  0.028197774            7 
 3968000   0.60667816   -5.8107813    1395.8543  0.029314816  0.028189766           11 
 3969000   0.62283947   -5.8108362    1401.6753  0.029429649  0.028181739           13 
 3970000   0.60986855   -5.8401362     1401.864  0.029426196  0.028173728           42 
 3971000   0.62052179   -5.8241318    1397.9057  0.029335719  0.028165739           15 
 3972000   0.62870209   -5.8115964    1399.2931  0.029357442  0.028157721           14 
 3973000   0.62082609   -5.8125674    1395.8742  0.029278341  0.028149705           27 
 3974000   0.62301238   -5.8263096    1396.8251  0.029290914  0.028141665           15 
 3975000   0.61490451   -5.8219588    1397.5129  0.029297965  0.028133633            9 
 3976000   0.61425498   -5.8286743    1396.8502  0.029276706  0.028125591           13 
 3977000   0.60815231    -5.874725    1396.0834  0.029253277  0.028117529           12 
 3978000   0.61196767   -5.8419696    1396.7861  0.029260643  0.028109496            9 
 3979000   0.62595132   -5.8404699    1394.2824  0.029200853   0.02810146           14 
 3980000   0.61729502   -5.8418824    1396.8884  0.029248082  0.028093417           14 
 3981000   0.61762764   -5.8313463    1397.6379  0.029256424  0.028085373           13 
 3982000   0.60824208   -5.8402034     1399.268  0.029283191  0.028077355           20 
 3983000   0.61218357   -5.8384931    1398.1827  0.029253132  0.028069311           15 
 3984000   0.61674404   -5.8463478    1396.3494  0.029207442  0.028061248           29 
 3985000    0.6211321   -5.8208067    1397.6204  0.029226693  0.028053209           20 
 3986000   0.61469816   -5.8450534    1395.2225  0.029169227  0.028045143           14 
 3987000   0.61003847   -5.8620388    1398.9373  0.029239555  0.028037052           15 
 3988000   0.62097028   -5.8425084    1397.9999  0.029212635   0.02802899            9 
 3989000   0.61026285   -5.8542473    1399.7227  0.029241303  0.028020931           20 
 3990000   0.61196581   -5.8090719    1400.0517  0.029240845  0.028012957           28 
 3991000   0.60690152   -5.8453733    1399.9426  0.029231242  0.028004957           11 
 3992000   0.60072177   -5.8352812    1398.0713  0.029184856  0.027996974           11 
 3993000   0.61415569   -5.8506028     1400.356  0.029225228  0.027988928           15 
 3994000    0.6185933    -5.857424    1395.6588  0.029119904  0.027980892           14 
 3995000   0.61832594   -5.8398861    1396.2168  0.029124256  0.027972863           39 
 3996000   0.60659999   -5.8571995    1394.4765  0.029080675  0.027964799           13 
 3997000   0.61582758   -5.8346416    1396.6926  0.029119601  0.027956741           19 
 3998000   0.60776146   -5.8490879    1397.5102   0.02912936   0.02794871           20 
 3999000   0.61116403   -5.8679611    1394.7039  0.029063597  0.027940645           29 
 4000000   0.60458012   -5.8376421    1395.5421  0.029073794  0.027932591           23 
 4001000   0.62344761   -5.8423213    1398.0685  0.029119147   0.02792453           11 
 4002000   0.62155286   -5.8461824    1398.6091  0.029123127  0.027916534           13 
 4003000   0.62903134    -5.842716    1398.5267  0.029114137  0.027908556           11 
 4004000   0.59819555   -5.8171169    1399.4246  0.029125555  0.027900599           16 
 4005000   0.61147576   -5.8449069    1399.0299   0.02911007  0.027892633            9 
 4006000   0.60952943   -5.8197995    1397.0841  0.029062326  0.027884675           16 
 4007000   0.60389576   -5.8419188    1397.5086  0.029063902  0.027876699           19 
 4008000   0.61584752   -5.8650439    1395.8472  0.029022106  0.027868704           23 
 4009000   0.61251001   -5.8282108    1398.4132  0.029068206  0.027860715           13 
 4010000    0.6277915   -5.8213461    1396.9911  0.029031403  0.027852736           16 
 4011000   0.62155203   -5.8211036    1398.5073  0.029055665  0.027844743           12 
 4012000    0.6144621   -5.8213876    1396.7398   0.02901171   0.02783677           11 
 4013000   0.61452444   -5.8330894    1399.5942  0.029063756  0.027828772           33 
 4014000   0.61243539   -5.8361818    1399.7595  0.029059946  0.027820797           26 
 4015000   0.59776223   -5.8192827    1401.2481  0.029083605  0.027812855           26 
 4016000   0.60608519    -5.834292    1398.1044   0.02901113  0.027804906           24 
 4017000   0.62729484    -5.846852    1400.7733  0.029059275  0.027796941           19 
 4018000   0.59105617    -5.859034    1396.8164  0.028969976  0.027788944           16 
 4019000   0.59892137   -5.8407125    1398.9048   0.02900607  0.027780933           18 
 4020000   0.62921694   -5.8645346    1395.9091  0.028936756  0.027772932           51 
 4021000   0.60933062   -5.8632287    1397.0228  0.028952639  0.027764958           31 
 4022000    0.6114538   -5.8479077    1398.8334  0.028982956  0.027756983           35 
 4023000   0.60297731   -5.8643764    1397.3633  0.028945301  0.027749029           14 
 4024000   0.61074366   -5.8445832    1399.0273  0.028972567  0.027741052           18 
 4025000   0.61011399   -5.8454347    1398.7834  0.028960319  0.027733111           19 
 4026000   0.60985623   -5.8201972    1399.5149  0.028968267  0.027725161           15 
 4027000   0.59780369   -5.8355458    1397.0482  0.028910029  0.027717201           19 
 4028000   0.59606743   -5.8545964    1398.3424  0.028929626  0.027709268           29 
 4029000   0.60229273   -5.8617318    1395.4971  0.028863596  0.027701283           21 
 4030000   0.61003104   -5.8483058    1398.7341  0.028923369  0.027693346           16 
 4031000   0.60770872   -5.8479442    1398.1041  0.028903169  0.027685405           18 
 4032000   0.59969521    -5.856312    1398.2516   0.02889905  0.027677437           12 
 4033000   0.59941222   -5.8566355    1397.9087  0.028884799  0.027669509           18 
 4034000    0.6058038   -5.8785699    1398.7813  0.028895664  0.027661562           36 
 4035000   0.62167034   -5.8575293    1398.6375  0.028885533  0.027653607           40 
 4036000   0.59693515    -5.845784    1400.7752  0.028922513   0.02764563           21 
 4037000   0.60103338   -5.8547219    1400.1487  0.028902418  0.027637672           24 
 4038000   0.60396254   -5.8438565    1398.8756  0.028868985  0.027629722           34 
 4039000   0.60664751   -5.8544495    1399.2651  0.028869874  0.027621792           16 
 4040000     0.604029   -5.8405947    1397.4926  0.028826168  0.027613864           37 
 4041000   0.59054098   -5.8616763    1398.0325  0.028830167  0.027605957           22 
 4042000   0.60162391   -5.8637277    1397.2788  0.028807495  0.027598045           26 
 4043000   0.60063207   -5.8657369    1397.7085  0.028809227  0.027590124           35 
 4044000   0.58978273   -5.8584853    1399.6449  0.028842006  0.027582208           25 
 4045000   0.60042652   -5.8288279     1399.528  0.028832469  0.027574305            7 
 4046000   0.60061504   -5.8286477     1402.163  0.028879613  0.027566408            8 
 4047000   0.60097208   -5.8836266    1398.6908  0.028800981  0.027558508           19 
 4048000   0.60530187   -5.8484196    1399.9325  0.028819427  0.027550602           34 
 4049000   0.60159986   -5.8542263    1403.2639  0.028880875  0.027542692           11 
 4050000   0.60972995    -5.872248    1399.1105  0.028788283  0.027534791           23 
 4051000   0.60089685   -5.8538262    1397.7213  0.028752598  0.027526889            9 
 4052000   0.60066141   -5.8705226    1400.4103  0.028800803   0.02751901           14 
 4053000   0.59340374   -5.8636724     1401.265  0.028811271  0.027511116           21 
 4054000   0.60608009    -5.863224    1403.3483  0.028846989  0.027503251           17 
 4055000   0.61638746   -5.8539036    1399.7354  0.028765626  0.027495393           34 
 4056000   0.60600851   -5.8586287    1397.5225  0.028713069  0.027487502           18 
 4057000   0.60573909   -5.8442072    1400.6966   0.02877119  0.027479619           19 
 4058000   0.60225703   -5.8426438    1401.8496  0.028787778  0.027471764           36 
 4059000   0.59249479   -5.8674692     1399.509  0.028732631  0.027463907           11 
 4060000   0.60377182   -5.8533189    1398.4873  0.028704584   0.02745603           18 
 4061000    0.5895479   -5.8436258    1401.5005  0.028759346  0.027448214           17 
 4062000   0.60624555   -5.8543504    1399.0472  0.028701937  0.027440369           12 
 4063000   0.60211284   -5.8552511    1400.2371  0.028719277  0.027432529           15 
 4064000   0.60109777   -5.8627703    1401.2162  0.028732287  0.027424688           22 
 4065000   0.59956176   -5.8644904     1401.424  0.028729478  0.027416848           10 
 4066000   0.59582354   -5.8475763    1402.2535  0.028739414  0.027409022           16 
 4067000    0.5987386   -5.8489328    1396.0068  0.028604351  0.027401203           34 
 4068000   0.59619906   -5.8492418    1402.6117  0.028732623  0.027393384           16 
 4069000   0.60414376   -5.8546767    1401.4947  0.028702686  0.027385562           16 
 4070000   0.59675234   -5.8302821    1402.4831  0.028715871  0.027377742           30 
 4071000   0.59620721    -5.854419    1401.3941  0.028686524  0.027369949           41 
 4072000   0.60155016   -5.8663891    1400.1917  0.028654873  0.027362129           19 
 4073000   0.59406784   -5.8628116    1400.2689  0.028649417  0.027354306           37 
 4074000   0.60015933   -5.8603505    1399.7665  0.028632109  0.027346492           45 
 4075000   0.60062407   -5.8706197    1399.4667   0.02861895  0.027338684           10 
 4076000   0.59230224   -5.8418426    1399.1188  0.028604816  0.027330873           25 
 4077000   0.58820219   -5.8571416    1399.8877  0.028613517  0.027323042           22 
 4078000   0.60571681   -5.8641647    1400.7172   0.02862345  0.027315254           59 
 4079000   0.59220299    -5.860633    1403.1636  0.028666413  0.027307445           29 
 4080000   0.60818315   -5.8612328    1400.8138  0.028611392  0.027299637           13 
 4081000   0.59239431   -5.8783165    1400.8871  0.028605879  0.027291844           33 
 4082000   0.59272011   -5.8820454    1402.8598  0.028639143  0.027284046           25 
 4083000   0.57940458   -5.8799968    1399.1074  0.028555543  0.027276259           21 
 4084000   0.58819164   -5.8596775     1398.176  0.028529547   0.02726845           19 
 4085000   0.59583558   -5.8640423    1400.9565  0.028579285  0.027260659           28 
 4086000   0.59567381    -5.860822      1401.73  0.028588065  0.027252867           23 
 4087000   0.60461877   -5.8499723    1399.2896   0.02853131  0.027245059           35 
 4088000   0.59670061   -5.8768079    1401.6047  0.028571524   0.02723726           28 
 4089000   0.60139222   -5.8674212    1402.0269  0.028573142  0.027229456           11 
 4090000   0.60148845   -5.8632946    1399.6411  0.028517544  0.027221646           35 
 4091000    0.6022721   -5.8843333    1400.7253  0.028532659  0.027213853           25 
 4092000   0.57991825   -5.8622166    1402.3787  0.028559358  0.027206043           11 
 4093000   0.60056614   -5.8820349    1399.1806  0.028487268  0.027198255           17 
 4094000   0.59818723   -5.8664325    1400.9008  0.028515322  0.027190473           15 
 4095000   0.58870793   -5.8663623    1400.3577  0.028497308  0.027182683           11 
 4096000   0.60560291   -5.8775987    1399.6225  0.028475393  0.027174926           11 
 4097000   0.61159801   -5.8709744    1402.2418  0.028521718  0.027167165           25 
 4098000   0.58700019   -5.8917554    1399.4432   0.02845785  0.027159418           15 
 4099000   0.58027125   -5.8795196    1399.2604   0.02844719  0.027151642           24 
 4100000   0.59890533   -5.8727143    1401.0523  0.028476673  0.027143851           18 
 4101000   0.58980508   -5.8749251    1398.1006   0.02840975  0.027136071           23 
 4102000   0.58881288     -5.88827    1403.0708  0.028503795  0.027128285           21 
 4103000   0.59075637   -5.8914845    1397.4379  0.028382442    0.0271205           35 
 4104000   0.58438177   -5.8822371    1401.0625  0.028449125  0.027112713           12 
 4105000   0.59449288   -5.8503526     1401.178   0.02844454  0.027104939           13 
 4106000   0.60389905   -5.8914472    1398.9824  0.028393051  0.027097186            6 
 4107000   0.57682608   -5.8537976    1402.7869  0.028463333  0.027089429           21 
 4108000    0.5967766   -5.8797866    1399.2607  0.028384872  0.027081644           36 
 4109000   0.60784729   -5.8803174    1401.0732  0.028414723  0.027073882           13 
 4110000   0.59554623    -5.880686    1400.8817  0.028403927  0.027066104           21 
 4111000   0.58987405   -5.8768649    1401.5567    0.0284107  0.027058333           19 
 4112000   0.59592401   -5.8801828    1402.2777  0.028418403  0.027050606           13 
 4113000   0.59876796   -5.8947499    1400.3436  0.028372308  0.027042839           15 
 4114000   0.60033433   -5.8743279     1401.579  0.028390435  0.027035071           14 
 4115000   0.59460375   -5.9013464    1397.7577   0.02830615  0.027027268           16 
 4116000   0.59190578   -5.8904629     1395.553  0.028254637  0.027019477           14 
 4117000   0.58951583   -5.8757692    1399.8979  0.028335719  0.027011697           35 
 4118000   0.60166397   -5.8854959    1401.8006  0.028367342  0.027003915           18 
 4119000   0.58729014   -5.8811157    1399.2052  0.028307948  0.026996153           49 
 4120000   0.59479412   -5.8993113    1396.0696  0.028237653  0.026988383           26 
 4121000   0.59376495   -5.8912223    1397.6934  0.028263638  0.026980589           22 
 4122000     0.593222   -5.9048241    1397.3205  0.028249242  0.026972796           16 
 4123000   0.59991438   -5.8987057    1400.5736  0.028308141  0.026965009           20 
 4124000   0.58492306   -5.8888418    1398.2577   0.02825448  0.026957253           20 
 4125000   0.60433717   -5.8682865    1400.8304  0.028299604  0.026949503           27 
 4126000   0.58807909   -5.8666562    1400.6006  0.028288104  0.026941802           26 
 4127000   0.58880753   -5.8666346    1399.5203  0.028259436  0.026934075           37 
 4128000   0.59344889   -5.8794061    1398.5963  0.028233937  0.026926312           35 
 4129000   0.59095206   -5.9078635    1398.6969   0.02822913   0.02691854           34 
 4130000   0.60234857   -5.9337392    1392.9836  0.028107014  0.026910728           23 
 4131000   0.59147754   -5.8950949    1399.5169  0.028232003   0.02690292           25 
 4132000   0.59919565   -5.8904608     1397.827   0.02819109  0.026895113           44 
 4133000    0.6000986    -5.905936    1398.7321  0.028202518   0.02688732           42 
 4134000   0.59233468   -5.9061662    1397.6398  0.028173678  0.026879514           45 
 4135000   0.58618627    -5.901645    1400.1959  0.028218379  0.026871719           29 
 4136000    0.5854131   -5.8900714    1397.1854  0.028150899  0.026863933           41 
 4137000   0.58618096   -5.8806085    1400.5111  0.028211085  0.026856187           16 
 4138000   0.58601939   -5.8664999    1398.6676  0.028167142  0.026848459           35 
 4139000   0.58466293   -5.8810213     1401.143  0.028210176  0.026840733           34 
 4140000   0.58560673   -5.8642648    1401.9137  0.028218875  0.026833037           22 
 4141000   0.59929591   -5.9023435    1398.8055  0.028149512  0.026825338           19 
 4142000   0.58292848   -5.8981849    1400.0962  0.028168682  0.026817597           46 
 4143000   0.58963506   -5.9055865    1399.7144  0.028154203  0.026809877           37 
 4144000   0.58707539   -5.9006226    1397.9371  0.028111669  0.026802133           22 
 4145000   0.56755142   -5.8826857    1399.6218  0.028138757  0.026794379           37 
 4146000   0.59184869   -5.8816663    1398.2747  0.028104895  0.026786643           35 
 4147000   0.60208175   -5.9164508    1400.6036  0.028144915  0.026778919           32 
 4148000   0.58726778   -5.8937049    1398.1825   0.02808949  0.026771179           24 
 4149000   0.58019273   -5.8923785    1395.5008  0.028028858  0.026763448           21 
 4150000   0.58671923   -5.8835144    1395.9976   0.02803208  0.026755704           14 
 4151000   0.58407867    -5.903475    1397.3766  0.028053011  0.026747948           17 
 4152000   0.59524689   -5.8906036    1400.1258  0.028101432  0.026740202           16 
 4153000   0.59628212   -5.9053999    1399.9155  0.028090447  0.026732458           32 
 4154000   0.57531688   -5.8990257    1398.9755  0.028064827  0.026724696           23 
 4155000   0.58163003   -5.8766896    1402.7269  0.028133311  0.026716956           42 
 4156000   0.58615575   -5.8894199    1397.6999  0.028025743  0.026709247           31 
 4157000   0.57899463    -5.910406    1394.4268  0.027953388  0.026701515           32 
 4158000   0.59339518   -5.8843753    1398.1238  0.028020759  0.026693788           31 
 4159000   0.58382465   -5.9117714    1398.9574  0.028030724  0.026686094           48 
 4160000   0.58189867   -5.8913471    1400.0677  0.028046228  0.026678391           10 
 4161000   0.59524049   -5.9017808    1400.3703  0.028045549  0.026670708           11 
 4162000   0.57757083   -5.9022152     1400.264  0.028036681  0.026663026           10 
 4163000   0.57360805   -5.9266883    1399.3713  0.028012077  0.026655336           16 
 4164000   0.59031594   -5.8909643    1397.3871   0.02796564  0.026647669           33 
 4165000   0.59160847   -5.8860956    1400.3067  0.028017341  0.026639982           32 
 4166000   0.57415828   -5.9065869    1398.6794  0.027978064  0.026632297           48 
 4167000    0.5861562   -5.9025584    1399.7193  0.027992146  0.026624586           23 
 4168000   0.58509942   -5.9215587    1397.6051   0.02794316  0.026616884           53 
 4169000   0.59798282   -5.9093496     1397.802  0.027940393  0.026609202           21 
 4170000    0.5870847   -5.9029878    1401.3627  0.028004849  0.026601529           15 
 4171000   0.57677931   -5.8704627    1401.9795   0.02801046  0.026593875           10 
 4172000   0.57615433   -5.9086842    1400.6175  0.027976541  0.026586246           18 
 4173000   0.58007427   -5.8912606    1400.1236  0.027959973    0.0265786           11 
 4174000   0.60244672    -5.901972    1400.4003  0.027958798  0.026570972           28 
 4175000   0.57844257   -5.8624591    1403.0189   0.02800437  0.026563374           12 
 4176000   0.58987704   -5.8779047    1401.7645  0.027972632  0.026555797           10 
 4177000   0.58288596   -5.8918684    1401.6135  0.027962922  0.026548202           17 
 4178000   0.59665312   -5.8983062    1401.0072  0.027944137  0.026540583           13 
 4179000   0.59364775   -5.9264743     1400.539  0.027928113  0.026532951           25 
 4180000   0.57450343   -5.9194692    1404.7432  0.028005248  0.026525363           32 
 4181000   0.58472153   -5.8886335    1400.1311  0.027906623  0.026517775           15 
 4182000   0.57034874   -5.9106114    1397.9032  0.027855555  0.026510168           11 
 4183000    0.5912115   -5.9177442    1404.0061  0.027970477  0.026502552           20 
 4184000   0.58409483   -5.8983076    1398.8849  0.027861792  0.026494946           32 
 4185000   0.59269566   -5.9060965    1398.6365  0.027850188  0.026487337           48 
 4186000   0.58343573   -5.9102176    1401.2815  0.027896191  0.026479706           33 
 4187000   0.57706738   -5.9260845    1400.9923  0.027883774  0.026472095           26 
 4188000   0.58632653   -5.9202143    1397.9012  0.027815608  0.026464466           59 
 4189000   0.58963295    -5.924513    1398.4131  0.027819151  0.026456834           77 
 4190000   0.57833899   -5.9259961    1399.6434  0.027836981  0.026449193           60 
 4191000   0.59980312   -5.9435534    1403.6817  0.027910635  0.026441533           48 
 4192000   0.59042342   -5.9266098    1397.3191  0.027777496  0.026433888           17 
 4193000   0.59197034   -5.9147226    1401.2871  0.027849731  0.026426273           46 
 4194000   0.57088515   -5.9217131    1397.5399  0.027768636  0.026418657           35 
 4195000   0.58779208   -5.9147277    1401.7272  0.027845198   0.02641104           47 
 4196000   0.60010503    -5.921707    1397.7126   0.02775883  0.026403429           30 
 4197000   0.59519226   -5.9056046    1402.3787  0.027844863  0.026395834           24 
 4198000   0.58130149   -5.8952979    1400.3327  0.027797616   0.02638824           22 
 4199000   0.56271495   -5.9224903    1399.1931  0.027768379   0.02638065           15 
 4200000   0.58756366   -5.9148434    1401.7177  0.027811859  0.026373049           35 
 4201000   0.57191441   -5.9105672    1402.0228  0.027811291  0.026365481           10 
 4202000   0.57961402   -5.8869073    1404.1905  0.027847661  0.026357922           20 
 4203000   0.58815485   -5.9153767    1401.8934  0.027795492  0.026350365           14 
 4204000   0.57454648   -5.9107345     1397.779  0.027707323  0.026342776           22 
 4205000   0.59362254   -5.9014303    1403.1176  0.027806533  0.026335211           19 
 4206000   0.59245364   -5.9190987    1400.2572  0.027743248  0.026327621           14 
 4207000   0.58712054   -5.9060582    1399.0882  0.027713497  0.026320027           16 
 4208000   0.57919219   -5.9398248     1398.132  0.027687976  0.026312421           12 
 4209000   0.58535838   -5.9182141    1397.6595  0.027672041  0.026304821           19 
 4210000   0.57156154   -5.9185171    1400.3175  0.027718081  0.026297202           29 
 4211000   0.57764144   -5.9236994    1398.5153  0.027675834  0.026289588           29 
 4212000   0.58009075   -5.9189109    1399.5677  0.027690086   0.02628198           33 
 4213000   0.57532668   -5.9071976    1402.2693  0.027736952  0.026274368           25 
 4214000   0.57599147   -5.9327421     1400.769  0.027700701  0.026266782           47 
 4215000   0.57563192   -5.9184799    1397.1859  0.027623288  0.026259194           37 
 4216000   0.57899536   -5.9515216    1395.5966  0.027585322  0.026251566           33 
 4217000   0.58058667    -5.920801    1399.8209  0.027662257  0.026243946           23 
 4218000   0.57479465   -5.9101081    1399.1839  0.027643114  0.026236362           15 
 4219000   0.57741006   -5.9317983    1398.9015  0.027630985   0.02622877           30 
 4220000   0.58054364   -5.9249661    1401.1498  0.027668835   0.02622117           18 
 4221000   0.56348449   -5.9355054     1397.757  0.027595298  0.026213611           18 
 4222000   0.58416118   -5.9088414    1399.6642  0.027626406  0.026206035           13 
 4223000   0.57065341   -5.9243383    1402.6708  0.027679194  0.026198478           21 
 4224000   0.58214696   -5.9051392     1398.136  0.027583176   0.02619089           44 
 4225000   0.57882685   -5.9416652    1399.6187  0.027605892   0.02618335           32 
 4226000   0.57723606   -5.9232649    1399.9675  0.027606238  0.026175823           39 
 4227000   0.58075025   -5.9170884    1399.6397  0.027593244   0.02616828           48 
 4228000    0.5835039   -5.9286797    1397.0177  0.027535038   0.02616072           42 
 4229000   0.56658964   -5.9226312    1401.6145  0.027619107  0.026153125           57 
 4230000   0.56890509   -5.9256916    1399.0708  0.027562466  0.026145557           51 
 4231000   0.57709776   -5.9057788    1399.8675  0.027571644  0.026138008           38 
 4232000   0.57348026   -5.9362341    1402.1767  0.027610599  0.026130476           33 
 4233000   0.57849185   -5.9283237    1401.9429  0.027599474  0.026122917           29 
 4234000    0.5785179   -5.9232469    1402.5387  0.027604682  0.026115385           20 
 4235000   0.57009345   -5.9175595    1399.3485   0.02753539  0.026107849           36 
 4236000   0.57206801   -5.9050718    1401.1113  0.027563567  0.026100318           21 
 4237000   0.56760284   -5.9438718    1397.4925  0.027485888  0.026092766           25 
 4238000   0.58194964   -5.9273654     1396.118  0.027452376   0.02608522            8 
 4239000   0.57546171   -5.9374302    1397.7506  0.027477993  0.026077674           22 
 4240000   0.56616312   -5.9266105    1399.1551  0.027499118  0.026070112           13 
 4241000   0.57370726   -5.9352122    1400.3813  0.027516727  0.026062569           30 
 4242000   0.58375034   -5.9324585    1399.9245  0.027501268  0.026055059           11 
 4243000   0.57041181   -5.9106885    1405.0405  0.027595264   0.02604756           31 
 4244000   0.57263418   -5.9347426    1399.3265  0.027476565   0.02604008           17 
 4245000   0.57930314   -5.9238807    1399.1638  0.027466898  0.026032571           25 
 4246000   0.57132591   -5.9267344    1401.1774  0.027499949  0.026025083           13 
 4247000   0.56049866   -5.9287217    1400.1216  0.027472757  0.026017588           16 
 4248000   0.57302747   -5.9240509    1401.5413   0.02749414  0.026010107           11 
 4249000   0.56123804   -5.9244894    1401.4484  0.027485848  0.026002639           19 
 4250000   0.55615567   -5.9253877    1400.0498  0.027451957  0.025995153           19 
 4251000   0.55995991    -5.921931    1398.1658  0.027408566  0.025987684           14 
 4252000   0.57510237     -5.91403    1399.7447  0.027433064   0.02598021           16 
 4253000   0.56877429   -5.9206412    1403.2553    0.0274954  0.025972741           17 
 4254000   0.57111838    -5.931006    1401.6914  0.027458301  0.025965254           35 
 4255000   0.56490054   -5.9176392    1404.4186   0.02750526  0.025957769           14 
 4256000   0.57875098   -5.9305456    1403.8758   0.02748817  0.025950299           25 
 4257000   0.56946422   -5.9522765    1401.2619  0.027430545  0.025942804           53 
 4258000   0.57244942   -5.9447746    1399.3274  0.027386241  0.025935298           53 
 4259000   0.57096746   -5.9558153    1396.8199  0.027330749  0.025927782           41 
 4260000   0.58344697   -5.9658665    1397.8084   0.02734367  0.025920264           45 
 4261000   0.56776817   -5.9518659    1398.6866  0.027354428  0.025912754           23 
 4262000   0.57013935   -5.9488353    1397.0278  0.027315575  0.025905259           36 
 4263000   0.55908366   -5.9464604    1400.6615  0.027380201  0.025897779           28 
 4264000   0.57035375   -5.9570629    1399.7876    0.0273567  0.025890288           15 
 4265000   0.56777854   -5.9542824    1399.8046  0.027350618  0.025882814           14 
 4266000   0.57697688    -5.948998    1405.2196  0.027449983  0.025875334           15 
 4267000   0.56897825   -5.9380671    1399.6822  0.027335407  0.025867876           16 
 4268000   0.57188256   -5.9463236    1398.0719  0.027297561  0.025860419           16 
 4269000   0.57757304   -5.9283409     1400.538  0.027339307  0.025852945           23 
 4270000   0.57836159   -5.9379073    1400.4297  0.027330789  0.025845498           11 
 4271000    0.5700154   -5.9363926    1401.3673  0.027342686  0.025838052           17 
 4272000   0.57915015   -5.9361247    1401.7859   0.02734445    0.0258306           20 
 4273000   0.58904737   -5.9509727    1399.9567  0.027302378  0.025823149           37 
 4274000    0.5705019   -5.9448478    1397.7794  0.027253536  0.025815701           19 
 4275000   0.57873303   -5.9463759    1399.9012  0.027288523  0.025808215           34 
 4276000   0.57607902   -5.9601526    1399.8653  0.027281441  0.025800747           11 
 4277000   0.57179659   -5.9327916    1401.5105  0.027307117  0.025793282           23 
 4278000   0.55613169   -5.9474936     1400.078  0.027272829  0.025785794           23 
 4279000   0.56490226    -5.947018    1397.2927  0.027212212  0.025778315          103 
 4280000   0.57103038    -5.963189    1396.9301  0.027198795  0.025770841           38 
 4281000   0.57389099   -5.9492622    1398.3844  0.027220751  0.025763363           68 
 4282000   0.55863977   -5.9515722    1399.4189  0.027234527  0.025755896           43 
 4283000   0.57360824   -5.9528279    1398.0721  0.027201963   0.02574843           26 
 4284000   0.56875685   -5.9767127    1397.4918  0.027184325  0.025740952           85 
 4285000   0.56820866   -5.9444873    1400.2165   0.02723097  0.025733493           93 
 4286000   0.58005478   -5.9629056     1398.915  0.027199311  0.025726041           52 
 4287000   0.57135215   -5.9649951     1398.229  0.027179632   0.02571859           51 
 4288000   0.57687288    -5.959139     1400.872  0.027224659  0.025711145           66 
 4289000   0.55033216   -5.9358644    1400.6678  0.027214342  0.025703719           51 
 4290000   0.57781582   -5.9519956    1398.9533  0.027174695    0.0256963           77 
 4291000   0.57249921   -5.9564904    1402.1804  0.027231035  0.025688892           82 
 4292000   0.56472676   -5.9242541    1404.1863  0.027263636  0.025681478           76 
 4293000   0.56951538   -5.9513933    1400.0881  0.027177734  0.025674075           93 
 4294000   0.56546927   -5.9721425    1399.3006   0.02715612  0.025666681           84 
 4295000   0.55713933   -5.9466492    1401.0795  0.027184314  0.025659276           47 
 4296000   0.57020535   -5.9334053    1403.1205  0.027217577   0.02565187           92 
 4297000   0.55600472   -5.9502876    1400.1385  0.027153411  0.025644476          103 
 4298000   0.56964043   -5.9411399    1400.0933  0.027146217  0.025637098           76 
 4299000   0.56090338   -5.9380852    1400.3032  0.027143971    0.0256297           40 
 4300000   0.55846586   -5.9570162    1401.6521    0.0271638  0.025622298           26 
 4301000   0.55553096   -5.9711175    1398.2782  0.027092115  0.025614895           62 
 4302000    0.5659005   -5.9735756     1399.544  0.027110336  0.025607465           11 
 4303000   0.56669161   -5.9652352     1401.612  0.027144086  0.025600076           21 
 4304000   0.55661783   -5.9519692    1398.8689  0.027084668  0.025592678           25 
 4305000   0.56508286   -5.9357402    1402.0131  0.027139239  0.025585273           32 
 4306000   0.56114447   -5.9383546    1400.5795  0.027105193  0.025577897           23 
 4307000   0.54645443   -5.9557383    1401.5291  0.027117272  0.025570512           59 
 4308000   0.56739951   -5.9732505    1398.8767  0.027059671  0.025563103           22 
 4309000   0.56097237    -5.951572    1400.1821  0.027078636  0.025555708           24 
 4310000   0.57360802   -5.9671221    1398.5516  0.027040828  0.025548332           79 
 4311000   0.55772515    -5.940925    1403.0112  0.027120761  0.025540939           32 
 4312000   0.55709557   -5.9448245    1398.9226  0.027035455   0.02553355           19 
 4313000   0.55537859   -5.9603235    1399.1629   0.02703383  0.025526159           35 
 4314000   0.56572115   -5.9374102    1403.5847   0.02711298   0.02551881           14 
 4315000   0.55949061   -5.9497624    1398.1235  0.027001226  0.025511447           25 
 4316000   0.56324808   -5.9494888    1399.5714  0.027022927  0.025504081           17 
 4317000   0.57427847   -5.9484628    1404.1238  0.027104543  0.025496741           28 
 4318000   0.55601443   -5.9411246    1402.7884  0.027072495  0.025489425           16 
 4319000   0.56297531   -5.9308305    1399.5652  0.027004037  0.025482098           23 
 4320000   0.55745332    -5.915008    1404.9677  0.027102001  0.025474784           60 
 4321000   0.55998053   -5.9489672    1401.5387  0.027029598  0.025467469           45 
 4322000   0.56439663   -5.9575654    1399.6111  0.026986177  0.025460128           37 
 4323000   0.55124418   -5.9388913    1399.7903   0.02698339  0.025452757           50 
 4324000   0.56181934   -5.9459675    1401.2927  0.027006104  0.025445389           36 
 4325000   0.56056554   -5.9542431    1401.1415  0.026996946  0.025438045           18 
 4326000   0.57376582   -5.9505117     1400.392  0.026976268  0.025430712           41 
 4327000   0.55032822   -5.9545049    1400.7083  0.026976124  0.025423373           24 
 4328000   0.54322032   -5.9431325    1403.3303  0.027020377  0.025416054           42 
 4329000   0.55226913   -5.9404069     1402.634  0.027000732   0.02540876           23 
 4330000   0.56533739   -5.9506771    1402.3673  0.026989363   0.02540147           47 
 4331000   0.54665649   -5.9388423    1402.1685  0.026979306  0.025394183           47 
 4332000   0.57524248   -5.9428556    1402.5922   0.02698123  0.025386906           32 
 4333000   0.55833057   -5.9402006    1403.8512  0.026999215  0.025379625           27 
 4334000   0.56590015   -5.9476585    1403.4829  0.026985904    0.0253723           27 
 4335000   0.56467186   -5.9568457    1401.9247  0.026949725  0.025364997           27 
 4336000   0.56038337   -5.9652037    1401.8435  0.026941949   0.02535767           29 
 4337000   0.55323401   -5.9656865    1402.0297  0.026939315  0.025350346           34 
 4338000   0.55889721   -5.9521533    1401.8927  0.026930473  0.025343047           30 
 4339000   0.55947377   -5.9618895     1399.962  0.026887187  0.025335727           38 
 4340000   0.56618416   -5.9517814    1401.6889   0.02691415  0.025328421           29 
 4341000   0.55665471   -5.9772943    1396.9047  0.026816108  0.025321107           40 
 4342000   0.56111473   -5.9766164    1401.7241  0.026902428  0.025313788           16 
 4343000   0.56749748   -5.9760187    1398.4508  0.026833426  0.025306472           16 
 4344000   0.55703504   -5.9558517    1404.7465  0.026948022  0.025299157           13 
 4345000   0.55281879   -5.9720186     1400.133  0.026853337  0.025291831           21 
 4346000   0.56072551   -5.9805254    1401.4731  0.026872855  0.025284486           18 
 4347000   0.56040402   -5.9582764    1400.7293  0.026852414  0.025277147           31 
 4348000   0.55536025   -5.9716716    1397.8469  0.026790994  0.025269792           41 
 4349000   0.55949973   -5.9609685    1399.6094  0.026818605  0.025262468           33 
 4350000   0.55893614   -5.9497422    1400.4003  0.026827591  0.025255155           17 
 4351000   0.54990842    -5.958729    1398.9691  0.026794015  0.025247839           24 
 4352000   0.55831156   -5.9792751    1398.4641  0.026778188  0.025240536           18 
 4353000   0.56978102    -5.976454    1397.6114  0.026755713  0.025233214           25 
 4354000   0.55948797   -5.9520845     1399.551  0.026786691  0.025225926           29 
 4355000   0.56359998   -5.9695599     1400.113  0.026791294  0.025218628           21 
 4356000   0.55223114   -5.9820781    1396.8171   0.02672209  0.025211319           45 
 4357000   0.54814666   -5.9741627    1395.0327  0.026681828  0.025203981           34 
 4358000   0.55245809   -5.9851162    1399.3913   0.02675905   0.02519664           29 
 4359000   0.55142832   -5.9790826    1400.5238  0.026774562  0.025189325           26 
 4360000   0.54276945   -5.9504513    1401.7103    0.0267911  0.025182038           19 
 4361000   0.54775423   -5.9655325    1397.6585   0.02670753  0.025174734           23 
 4362000   0.54639446   -5.9811756    1399.0954  0.026728859   0.02516742           22 
 4363000   0.54757735   -5.9610104    1400.6194  0.026751841   0.02516008           36 
 4364000   0.54367753   -5.9879943    1396.2339  0.026661966  0.025152756           51 
 4365000   0.54814138   -5.9945458    1396.9679  0.026669873  0.025145419           36 
 4366000   0.56629361   -5.9822048    1398.8799  0.026700259  0.025138077           14 
 4367000   0.55484458   -6.0045404     1397.604  0.026669797  0.025130732           23 
 4368000   0.54582913   -5.9883182    1398.5598  0.026681926  0.025123399           29 
 4369000   0.56172376   -5.9991341    1398.8184  0.026680751  0.025116087           30 
 4370000   0.56799238    -5.986473    1399.6777  0.026691032  0.025108784           28 
 4371000   0.57073673   -5.9873981    1401.0409  0.026710915  0.025101487           21 
 4372000   0.54643041   -6.0152447    1397.1884  0.026631374  0.025094173           24 
 4373000   0.54257029   -6.0058803    1396.1574  0.026605636  0.025086841           18 
 4374000    0.5438456   -6.0015793    1399.4189  0.026661692  0.025079525           26 
 4375000   0.55765314   -5.9934002    1401.2863  0.026691169  0.025072213           10 
 4376000   0.55158168   -5.9858653    1401.3897  0.026687037  0.025064915           20 
 4377000   0.54461483   -5.9858031    1396.4499  0.026586891  0.025057631           33 
 4378000   0.55780364   -5.9727391    1397.0779  0.026592773  0.025050357           18 
 4379000   0.54844711   -5.9947265     1399.884    0.0266401  0.025043079           55 
 4380000    0.5511638   -5.9754592    1400.9652   0.02665459  0.025035798           51 
 4381000    0.5431336   -5.9919857    1399.9504  0.026629202  0.025028533           21 
 4382000   0.54435679   -5.9976652    1397.3941  0.026574511  0.025021246           71 
 4383000   0.55067441   -5.9847925    1397.6298  0.026572929  0.025013957           26 
 4384000    0.5491568   -5.9873638    1398.8576  0.026590207  0.025006674           45 
 4385000   0.54433223   -5.9673577    1397.6058  0.026560353  0.024999433           27 
 4386000   0.55561521     -5.95248    1401.3119  0.026624714  0.024992216           58 
 4387000   0.54635454   -5.9929468    1399.1524  0.026577623  0.024984992           83 
 4388000   0.55199665   -5.9955649    1398.8976  0.026566728  0.024977751           56 
 4389000   0.54341222   -5.9612123    1401.3924  0.026608043  0.024970517           28 
 4390000   0.54026498   -5.9833388    1401.5645  0.026605249  0.024963291           77 
 4391000   0.54972748   -5.9742217     1399.343   0.02655703  0.024956066           38 
 4392000   0.54975771   -5.9630355    1402.0914  0.026603131  0.024948851          114 
 4393000    0.5347205   -5.9712387    1401.8299  0.026592114  0.024941632           48 
 4394000    0.5333994   -5.9697622    1399.9585  0.026550571  0.024934419           38 
 4395000   0.54689649   -5.9628138    1398.2306  0.026511766  0.024927222           35 
 4396000   0.54350003    -5.985068     1399.251   0.02652508  0.024920036           48 
 4397000   0.55860112   -5.9804091    1399.7261  0.026528051  0.024912825           64 
 4398000   0.56005625   -5.9867922    1399.8957  0.026525232  0.024905625           52 
 4399000    0.5454225   -6.0025333    1398.6344   0.02649531  0.024898428           35 
 4400000   0.54648587   -5.9955061    1399.0032  0.026496273  0.024891195           55 
 4401000   0.54652934   -5.9930553    1402.5298  0.026557028  0.024883982           27 
 4402000   0.54634674    -5.986529    1399.7118  0.026497649  0.024876783           25 
 4403000   0.54578551   -5.9836035    1399.3879  0.026485501  0.024869583           33 
 4404000   0.53571753    -5.998748    1399.1832  0.026475613  0.024862381           47 
 4405000   0.54715918   -5.9890257    1399.4881  0.026475371  0.024855158           57 
 4406000   0.55386235   -5.9862545    1398.8444  0.026457188  0.024847941           25 
 4407000   0.55060997   -6.0079569    1398.1715   0.02643846  0.024840697           61 
 4408000   0.55261965   -6.0096112    1399.1457   0.02645088  0.024833446           36 
 4409000   0.54358228   -6.0080601     1398.092  0.026424964  0.024826187           67 
 4410000   0.53939098   -6.0061939    1396.4692  0.026388307  0.024818949           90 
 4411000   0.52455909   -6.0083185    1398.3841    0.0264185  0.024811704           35 
 4412000   0.54706902   -5.9981862    1395.9263  0.026366091  0.024804463           48 
 4413000   0.55146832   -6.0016423    1396.4499  0.026370002  0.024797201           71 
 4414000   0.53549601   -6.0025765    1398.0108  0.026393497  0.024789939          101 
 4415000   0.54372406   -6.0243113    1397.3739  0.026375498  0.024782685          123 
 4416000   0.54738983   -6.0135388    1395.8777  0.026341292  0.024775438           67 
 4417000   0.54585063   -6.0009998    1399.1124  0.026396355  0.024768207           73 
 4418000   0.54987999   -5.9886857    1396.6433  0.026343807  0.024760989           64 
 4419000   0.55417617   -6.0220759    1397.9974  0.026363381  0.024753771           95 
 4420000   0.53499283   -5.9987037    1402.5737  0.026443697  0.024746535           55 
 4421000    0.5510017   -5.9917617    1396.1525   0.02631668  0.024739297          122 
 4422000   0.54949989    -6.003932    1398.2051  0.026349411  0.024732085          151 
 4423000   0.54768231    -5.997263    1398.3218  0.026345652  0.024724864           54 
 4424000   0.53984941   -5.9759127     1399.621   0.02636417  0.024717669           90 
 4425000   0.54697998   -5.9855966    1396.0957  0.026291821  0.024710481           31 
 4426000   0.54481642   -6.0070494    1395.2725  0.026270381   0.02470329           59 
 4427000   0.53348851   -5.9959744    1398.4846  0.026324912  0.024696095           65 
 4428000   0.54380745   -6.0251224    1399.6058  0.026340066  0.024688887          142 
 4429000   0.53759533   -6.0261373    1396.5122  0.026275913  0.024681688          115 
 4430000   0.53745002   -5.9979937    1397.2485  0.026283833  0.024674499          176 
 4431000   0.54501954   -6.0329917    1395.6438  0.026247722  0.024667279          144 
 4432000   0.54812913   -5.9965219    1396.8293  0.026264089  0.024660072           58 
 4433000   0.53755726    -6.008608    1397.9435  0.026279109  0.024652878          101 
 4434000   0.54171027   -6.0137193    1398.0293  0.026274796  0.024645694          130 
 4435000   0.54904105   -6.0129014    1397.9116  0.026266658  0.024638494          119 
 4436000   0.53581933   -5.9915342    1395.8948   0.02622285  0.024631303          187 
 4437000   0.53884065   -6.0074771    1396.5349  0.026228963  0.024624101          228 
 4438000   0.53373651    -5.999204    1399.7349  0.026283139  0.024616897          191 
 4439000   0.54087977   -6.0094201    1396.4308  0.026215191  0.024609684          188 
 4440000   0.53427486    -6.003362    1396.2392   0.02620569  0.024602498          203 
 4441000   0.54085336   -5.9954199    1399.1511  0.026254431  0.024595311          188 
 4442000   0.54565651   -5.9940656    1396.7052  0.026202635   0.02458813           77 
 4443000   0.52790347   -6.0208251    1395.5415   0.02617491  0.024580952           54 
 4444000   0.54097572   -6.0208838    1397.9151   0.02621353  0.024573781          215 
 4445000   0.53408126   -6.0068168    1401.5101   0.02627503  0.024566606           71 
 4446000   0.52580939   -6.0179902    1396.4401  0.026174091  0.024559418          113 
 4447000   0.52992887   -6.0162859    1395.5966  0.026152399  0.024552219          187 
 4448000    0.5409686   -6.0127349    1396.8969   0.02617088  0.024545023          197 
 4449000   0.53591591   -6.0225924    1399.2932  0.026209882  0.024537837           78 
 4450000   0.55161737    -6.028058    1397.7892  0.026175828  0.024530639          115 
 4451000   0.54362598   -6.0262337    1395.0158  0.026118022  0.024523447          112 
 4452000   0.54140697   -6.0354212    1395.2024  0.026115649  0.024516253           93 
 4453000   0.53534715   -6.0245329    1392.7105   0.02606315  0.024509051          154 
 4454000   0.53964678   -6.0200282    1398.5478  0.026166512  0.024501851           62 
 4455000    0.5633106   -6.0180713    1393.8199  0.026072202  0.024494667          224 
 4456000   0.53258433   -6.0084108    1396.1767  0.026110426  0.024487488          115 
 4457000   0.53538563   -6.0282954    1396.8217  0.026116627  0.024480308          142 
 4458000   0.53772053   -6.0253939    1396.3462   0.02610188  0.024473121           61 
 4459000   0.53455454   -6.0378466    1395.8549  0.026086845  0.024465933           90 
 4460000   0.54892586   -6.0357385    1396.5979  0.026094878  0.024458738          101 
 4461000   0.54071357   -6.0486271    1393.9625  0.026039798   0.02445155           99 
 4462000   0.53783713    -6.048464    1396.1867  0.026075502  0.024444342          186 
 4463000   0.54166604   -6.0403011    1394.3456  0.026035283   0.02443714          135 
 4464000   0.53073046   -6.0395505    1395.2782   0.02604686  0.024429917          231 
 4465000   0.54078677   -6.0340529    1393.9248  0.026015767  0.024422699          103 
 4466000   0.54345824   -6.0476051    1394.3589  0.026018041  0.024415502          223 
 4467000   0.53424219   -6.0392771    1395.1185  0.026026387  0.024408295          116 
 4468000   0.53514473   -6.0458854    1394.4032  0.026007222  0.024401092          137 
 4469000   0.53600379   -6.0314083    1398.1458  0.026071191  0.024393912          225 
 4470000    0.5209729   -6.0434554    1397.2296  0.026048278  0.024386737          157 
 4471000   0.53759791   -6.0150682    1396.2404  0.026024015   0.02437957          196 
 4472000   0.53919888   -6.0353199    1393.9351  0.025975237  0.024372395          162 
 4473000   0.52410524    -6.019016    1395.2922  0.025994712  0.024365227          197 
 4474000   0.52037404   -6.0565345    1392.6281  0.025939281  0.024358059          248 
 4475000   0.53166417   -6.0405756    1397.8941  0.026031548  0.024350881          186 
 4476000   0.53621405   -6.0183655    1395.6957  0.025984803  0.024343706          141 
 4477000   0.53178492     -6.06332    1396.1488  0.025987432  0.024336544          249 
 4478000    0.5364608   -6.0337217    1396.8149  0.025994025  0.024329378          204 
 4479000   0.54247913   -6.0393534    1396.1983  0.025976749   0.02432221          154 
 4480000   0.53899549   -6.0286357    1397.0784  0.025987321  0.024315049          135 
 4481000   0.53323414   -6.0291595    1396.8164  0.025976649  0.024307897           64 
 4482000    0.5396003    -6.047754    1397.3398  0.025980586  0.024300751           69 
 4483000   0.54641904   -6.0289961    1395.8395  0.025946901  0.024293609          159 
 4484000   0.55253899    -6.029713    1395.9073  0.025942375  0.024286471          166 
 4485000   0.53562987   -6.0259615    1397.0536   0.02595789   0.02427935          184 
 4486000   0.53188535   -6.0137057    1397.2998  0.025956677   0.02427222          203 
 4487000   0.54102689   -6.0216988    1396.1791  0.025930078  0.024265101          167 
 4488000   0.53105682   -6.0182222    1395.6699  0.025914846  0.024257984          189 
 4489000   0.54175347   -6.0326771    1393.1735   0.02586273  0.024250869          263 
 4490000   0.54428841   -6.0195517    1395.0005  0.025890879  0.024243774          294 
 4491000   0.52526363   -6.0242618    1393.3505  0.025854495  0.024236668          224 
 4492000   0.53323187   -6.0217937    1392.7995  0.025838519  0.024229564          219 
 4493000   0.53642378   -6.0279437    1395.8418  0.025889195  0.024222449          271 
 4494000   0.51790888   -6.0252567     1394.885  0.025865691  0.024215352          322 
 4495000   0.53788041   -6.0351688    1394.9628  0.025861379  0.024208239          234 
 4496000   0.52977668    -6.055268    1394.2705  0.025842796  0.024201121          147 
 4497000   0.53484487   -6.0361557     1394.582  0.025842821  0.024194015          167 
 4498000   0.52935664   -6.0436563    1397.3124  0.025887661  0.024186934          198 
 4499000   0.52853619   -6.0318439    1395.9247  0.025856203  0.024179835          127 
 4500000   0.53915728   -6.0435934    1395.4672  0.025841986  0.024172747          199 
 4501000   0.53827428   -6.0440804    1396.2372  0.025850501   0.02416568          189 
 4502000   0.54362134   -6.0259961    1395.5667  0.025832347  0.024158598          233 
 4503000   0.52941605   -6.0294712    1395.5545  0.025826385  0.024151523          242 
 4504000   0.52854992   -6.0201613    1394.8102  0.025806879  0.024144441          209 
 4505000   0.52433964   -6.0097113    1396.7205  0.025836487  0.024137374          187 
 4506000    0.5355602   -6.0174278    1395.9964  0.025817362  0.024130295          164 
 4507000   0.53102363   -6.0224403    1397.0108  0.025830389  0.024123219          206 
 4508000   0.52869913   -6.0266941    1395.6513  0.025799529  0.024116168           89 
 4509000   0.53677443    -6.034996    1399.1444  0.025858364  0.024109135           62 
 4510000   0.53286168   -6.0362142    1394.7404  0.025771256  0.024102086          100 
 4511000   0.52580218   -6.0330474    1395.8108  0.025785317  0.024095021          138 
 4512000   0.52591326      -6.0337    1398.5393  0.025829995  0.024087952          118 
 4513000   0.53650602   -6.0265874    1398.0824  0.025815835  0.024080904          117 
 4514000   0.53431064    -6.039365    1397.2896   0.02579548  0.024073874          103 
 4515000    0.5320534   -6.0305596    1397.5447  0.025794476  0.024066827          196 
 4516000   0.54394562   -6.0293872    1394.0598  0.025724457  0.024059787          205 
 4517000   0.54089082   -6.0373459    1396.0926  0.025756264  0.024052722          237 
 4518000   0.52686867   -6.0391151    1396.7613  0.025762898  0.024045667          142 
 4519000   0.53199545    -6.056939    1394.5378  0.025716195   0.02403861          207 
 4520000   0.52923157   -6.0321277    1394.5991  0.025711636  0.024031557           59 
 4521000   0.53126499   -6.0163798    1398.5975  0.025779649  0.024024517          152 
 4522000   0.53718543   -6.0208316    1398.0122  0.025763162   0.02401749           82 
 4523000   0.52249672   -6.0334878    1393.9384  0.025682408   0.02401044           84 
 4524000   0.53027265   -6.0562518    1392.3982  0.025648361  0.024003402           89 
 4525000   0.53053438   -6.0361792    1391.6558  0.025629021  0.023996348          143 
 4526000   0.52875108   -6.0443887    1393.9138  0.025664932  0.023989312          178 
 4527000   0.52594295   -6.0588803    1393.9132  0.025659251  0.023982255          122 
 4528000   0.53944894     -6.04452    1396.4508  0.025700287  0.023975213          266 
 4529000   0.52828666   -6.0482041    1393.9298  0.025648225  0.023968161          246 
 4530000   0.52744023   -6.0386611    1394.7044  0.025656814  0.023961114          234 
 4531000   0.52815071    -6.031065    1394.5163  0.025647692  0.023954074          288 
 4532000    0.5321622   -6.0393278    1395.1795  0.025654228  0.023947039          255 
 4533000   0.53469288    -6.052886    1395.0792  0.025646723   0.02393999          219 
 4534000   0.51270787   -6.0433027    1396.6426  0.025669802  0.023932958          203 
 4535000   0.53015935   -6.0728518    1395.2103  0.025637822  0.023925934          271 
 4536000   0.51992677   -6.0618274    1393.9499  0.025609016  0.023918904          293 
 4537000   0.51273881   -6.0662531    1393.0319  0.025586509  0.023911869          234 
 4538000   0.52429014   -6.0533944    1393.5432  0.025590259  0.023904822          247 
 4539000   0.53618066   -6.0384578    1391.3435  0.025544237  0.023897788          248 
 4540000   0.53087289   -6.0625849    1391.8177  0.025547315  0.023890742          288 
 4541000   0.51625983   -6.0645637    1393.6948  0.025576136  0.023883704          318 
 4542000   0.53143424   -6.0558959    1394.1924  0.025579635  0.023876666          177 
 4543000   0.51569382   -6.0687825    1396.4081  0.025614647  0.023869623          141 
 4544000   0.53363674   -6.0641363    1393.5838  0.025557215  0.023862585          271 
 4545000   0.53203843    -6.067818    1390.5224   0.02549546  0.023855548          219 
 4546000   0.52225434   -6.0835026    1393.5081  0.025544583   0.02384852          125 
 4547000   0.51603863   -6.0836143    1392.7078  0.025524299  0.023841482          210 
 4548000    0.5215271   -6.0747001    1395.4054  0.025568114  0.023834435          306 
 4549000   0.51712675   -6.0710358    1394.4107  0.025544271  0.023827404          212 
 4550000    0.5248627   -6.0671817    1392.0763  0.025495903  0.023820373          320 
 4551000   0.52197826   -6.0581409    1395.6061  0.025554935  0.023813335          275 
 4552000    0.5158688   -6.0478401    1394.2239  0.025524016  0.023806322          188 
 4553000   0.51933652   -6.0707811     1392.085  0.025479262  0.023799313          103 
 4554000   0.52660053   -6.0610797     1394.741   0.02552227  0.023792294          262 
 4555000   0.51247646   -6.0719583    1393.3813  0.025491792  0.023785288          193 
 4556000   0.51980017   -6.0728089    1393.6494  0.025491101  0.023778269          253 
 4557000   0.52464291   -6.0869407    1391.8715  0.025452993   0.02377125          278 
 4558000   0.52105716   -6.0734778    1394.8342  0.025501576  0.023764226          255 
 4559000   0.51937575   -6.0904214    1390.3592  0.025414184  0.023757198          404 
 4560000   0.52186375   -6.0847609    1391.3396  0.025426528  0.023750168          219 
 4561000   0.51751622    -6.095269    1392.1627  0.025435992  0.023743147          277 
 4562000   0.53322305   -6.0814054    1393.1615  0.025448661  0.023736112          351 
 4563000   0.52653546   -6.0800942    1393.3943  0.025447335  0.023729075          492 
 4564000   0.51993542   -6.0768617    1395.5163  0.025480505  0.023722051          575 
 4565000   0.51889942   -6.0935278    1392.1355  0.025413208  0.023715028          503 
 4566000   0.52843882   -6.0830921    1391.3668  0.025393612  0.023708004          469 
 4567000   0.52369424   -6.0763401    1393.8924  0.025434137  0.023700981          384 
 4568000    0.5160375    -6.072527    1393.3279  0.025418269  0.023693957          320 
 4569000   0.52503413   -6.0875126    1393.9148  0.025423411  0.023686937          434 
 4570000    0.5246183   -6.0959851    1391.9854  0.025382667  0.023679908          438 
 4571000   0.52543661   -6.0972877    1393.7831  0.025409887  0.023672893          549 
 4572000    0.5177382   -6.0856566    1393.4939  0.025399058  0.023665872          407 
 4573000    0.5235676   -6.0811555    1391.2884  0.025353314  0.023658862          415 
 4574000   0.52532396   -6.0951584    1392.7444  0.025374297  0.023651856          494 
 4575000    0.5156798   -6.0957311    1392.3174  0.025360972  0.023644849          301 
 4576000   0.50916963   -6.1033553    1392.8082  0.025364369  0.023637861          282 
 4577000   0.51786389   -6.0814951    1391.5247  0.025335458   0.02363088          443 
 4578000   0.51660793   -6.0869684    1393.9105  0.025373353   0.02362388          331 
 4579000   0.50916076   -6.0962493    1393.3596  0.025357785  0.023616898          424 
 4580000   0.52229049    -6.095669    1395.2181  0.025386065  0.023609914          300 
 4581000     0.518999   -6.1028836    1393.2445   0.02534462  0.023602922          359 
 4582000   0.51935837   -6.0778157    1391.0629  0.025299412  0.023595936          407 
 4583000   0.51948939   -6.0894034     1391.196  0.025296312  0.023588954          308 
 4584000    0.5318031   -6.0901915    1391.5248  0.025296772  0.023581983          327 
 4585000    0.5142026   -6.1005411    1392.0144  0.025300153  0.023575014          312 
 4586000   0.50697432   -6.0775987     1388.711   0.02523461  0.023568039          334 
 4587000   0.51452197   -6.0935515    1389.7685   0.02524832  0.023561073          272 
 4588000   0.51995109   -6.0842649    1392.0524  0.025284299  0.023554108          354 
 4589000   0.52203054   -6.0795381    1388.5039  0.025214351  0.023547137          363 
 4590000   0.52620716   -6.0718113    1392.4068  0.025279717  0.023540156          302 
 4591000   0.51201852   -6.0957701    1389.6933  0.025224956  0.023533172          395 
 4592000   0.52089771   -6.0938419    1390.9539   0.02524234  0.023526202          358 
 4593000   0.51104017    -6.099338    1393.6813  0.025286328  0.023519239          319 
 4594000   0.51685683   -6.1019516    1391.8372  0.025247373  0.023512289          328 
 4595000   0.51720433   -6.0950509    1392.1611  0.025247752  0.023505345          361 
 4596000   0.51120896   -6.1074888    1390.5794  0.025213581  0.023498392          361 
 4597000   0.51184317    -6.086163    1392.2451  0.025238291  0.023491458          379 
 4598000   0.50801572   -6.0851874    1391.0392  0.025210947  0.023484515          321 
 4599000   0.51242954    -6.085046    1392.7181  0.025235886  0.023477578          425 
 4600000   0.50835579   -6.0940115    1390.7468  0.025194688  0.023470647          388 
 4601000   0.51460459   -6.0863109    1392.5854  0.025222514  0.023463718          433 
 4602000   0.52172302   -6.0835975    1394.4441   0.02525069  0.023456797          437 
 4603000   0.51095115   -6.0845516    1394.6613  0.025249137  0.023449879          454 
 4604000   0.50881988   -6.0737285    1392.5289  0.025205055  0.023442965          540 
 4605000   0.50790587   -6.0906744    1391.3375  0.025178022   0.02343604          456 
 4606000   0.52118373   -6.0870894     1390.319  0.025154128  0.023429123          349 
 4607000   0.50555268   -6.0699514    1392.2785  0.025184113  0.023422227          338 
 4608000   0.51024827   -6.0823541    1390.5788   0.02514791  0.023415322          237 
 4609000   0.52523126   -6.0578474    1396.2437  0.025244877  0.023408413          283 
 4610000   0.51705948     -6.08203    1393.1805  0.025184029   0.02340151          300 
 4611000   0.51536458   -6.0920102    1393.1283  0.025177623  0.023394602          400 
 4612000   0.50790452   -6.0894731    1393.8994  0.025186098  0.023387691          327 
 4613000   0.51400768   -6.0885379    1391.7774  0.025142305  0.023380783          370 
 4614000   0.51916009   -6.1043173    1390.0851  0.025106291  0.023373873          464 
 4615000   0.50391247   -6.0867596    1392.1783  0.025138648  0.023366966          430 
 4616000    0.5108134   -6.0837277    1392.2781  0.025135003  0.023360056          462 
 4617000   0.51703221   -6.0778848     1392.807  0.025139105  0.023353156          442 
 4618000   0.51887293   -6.0921846    1391.7609  0.025114784  0.023346262          438 
 4619000   0.50842777   -6.0837813     1388.128  0.025043804  0.023339339          465 
 4620000   0.52050702   -6.0962878    1393.8043   0.02514077  0.023332431          450 
 4621000    0.5179947   -6.1105656    1393.6914  0.025133293  0.023325524          339 
 4622000   0.51262643   -6.0906899    1392.0744  0.025098702  0.023318611          372 
 4623000   0.51360909   -6.1042915    1391.5844   0.02508444    0.0233117          441 
 4624000   0.51830176   -6.0957581    1391.5573  0.025078527  0.023304804          384 
 4625000   0.52076586   -6.1003406    1390.0944  0.025046746  0.023297906          406 
 4626000   0.51005163   -6.0908304    1388.0669  0.025004808  0.023291013          502 
 4627000   0.52066902   -6.0938676    1392.6963  0.025082781  0.023284127          489 
 4628000   0.50550999   -6.0950346    1390.3813  0.025035677  0.023277236          563 
 4629000   0.51400982   -6.0863786    1391.2156  0.025045286  0.023270346          478 
 4630000   0.50280766   -6.0950227    1388.0966   0.02498374  0.023263449          541 
 4631000   0.50713854   -6.1087579     1391.512  0.025039805  0.023256558          538 
 4632000    0.5109273   -6.1057605    1388.7426  0.024984574  0.023249674          583 
 4633000   0.50538219   -6.0983345    1392.8834  0.025053661  0.023242785          519 
 4634000    0.5132027   -6.1083089    1392.4465  0.025040399  0.023235898          569 
 4635000   0.50680667   -6.0855502    1393.8573  0.025060362  0.023229017          596 
 4636000   0.50327924   -6.1187954    1394.7521  0.025071039  0.023222159          479 
 4637000   0.52626437    -6.087557    1393.3501  0.025040438  0.023215301          561 
 4638000   0.51424264   -6.0806413    1395.1936  0.025068161  0.023208464          483 
 4639000   0.50569837    -6.091293    1395.5004  0.025068268  0.023201623          568 
 4640000   0.49522453   -6.0911158    1391.8861  0.024997955  0.023194777          460 
 4641000   0.51281111   -6.1130402    1390.2873  0.024963861  0.023187918          507 
 4642000   0.51585532   -6.0973269    1390.8642  0.024968839  0.023181059          431 
 4643000   0.50187604   -6.0828561    1390.6354  0.024959355  0.023174208          367 
 4644000   0.50182084   -6.0981915    1389.5857  0.024935143  0.023167359          488 
 4645000   0.51026227   -6.0978684    1388.9595  0.024918542  0.023160514          560 
 4646000   0.49836035   -6.1084134    1391.1595  0.024952639  0.023153661          570 
 4647000   0.50916787   -6.1092709    1392.0784  0.024963746  0.023146815          593 
 4648000   0.50130261   -6.1238049     1391.904   0.02495525  0.023139951          547 
 4649000   0.50876001   -6.1036868    1392.4824  0.024960249  0.023133094          636 
 4650000   0.50836905   -6.1115051    1394.2582  0.024986706  0.023126239          557 
 4651000   0.52312817   -6.1078938      1389.32  0.024892854  0.023119387          581 
 4652000   0.50874256   -6.1113578    1390.4941  0.024908536  0.023112529          547 
 4653000   0.51974253   -6.1090764    1392.1144  0.024932202  0.023105683          513 
 4654000   0.50894886   -6.0897876     1392.551  0.024934662  0.023098853          464 
 4655000   0.50354174   -6.1190708    1389.6446  0.024877276  0.023092023          561 
 4656000   0.51054204   -6.1258379    1391.9357  0.024912939  0.023085183          657 
 4657000   0.51242861   -6.1089177    1389.3257  0.024860885  0.023078342          657 
 4658000   0.50217427   -6.1208165    1390.9303  0.024884254  0.023071484          670 
 4659000   0.51221406   -6.1316132    1390.6621  0.024874117  0.023064624          643 
 4660000   0.51100375   -6.1189015    1391.6387  0.024886244  0.023057769          555 
 4661000   0.50491015   -6.1236144    1387.1024    0.0247998  0.023050935          719 
 4662000   0.50416809   -6.1328225    1387.3674  0.024799217   0.02304407          693 
 4663000   0.50681929   -6.1207882     1388.261  0.024809869  0.023037214          674 
 4664000   0.50823649   -6.1279906    1388.0915  0.024801521  0.023030357          561 
 4665000   0.51151436   -6.1093841    1392.0215  0.024866407  0.023023517          552 
 4666000    0.5047359   -6.1194801    1392.2095  0.024864436  0.023016678          635 
 4667000    0.5085762   -6.1269376    1389.8253  0.024816536  0.023009838          677 
 4668000   0.50186458   -6.1472926    1388.4309  0.024786326  0.023002996          650 
 4669000   0.50769775   -6.1187154    1390.3431  0.024815148  0.022996145          614 
 4670000    0.5058442   -6.1440833    1385.2524  0.024718993  0.022989301          636 
 4671000   0.49699035   -6.1157567     1390.229  0.024802487  0.022982453          599 
 4672000   0.49374141   -6.1248512    1390.1316  0.024795441  0.022975622          640 
 4673000   0.49579605   -6.1340514    1386.9022  0.024732546  0.022968802          665 
 4674000   0.49968121   -6.1153787    1387.8445  0.024744055  0.022961977          572 
 4675000    0.5035767   -6.1357219    1388.8026   0.02475584  0.022955156          596 
 4676000   0.50651693   -6.1336173    1386.9106  0.024716828  0.022948344          637 
 4677000   0.51002242   -6.1195729    1389.5537  0.024758637  0.022941531          640 
 4678000   0.50506019   -6.1226223    1393.4991  0.024823627   0.02293472          650 
 4679000   0.50364201   -6.1320834    1389.1949  0.024741663  0.022927917          607 
 4680000    0.5012031   -6.1336116    1387.7342  0.024710366   0.02292111          685 
 4681000   0.49953261   -6.1385259    1391.6388    0.0247746  0.022914295          672 
 4682000   0.50456626   -6.1235295    1389.5097  0.024731412  0.022907493          725 
 4683000   0.50736318   -6.1357041    1389.4168  0.024724479  0.022900685          601 
 4684000   0.49850877    -6.127827    1387.2877  0.024681322   0.02289388          582 
 4685000   0.50245094   -6.1173793    1389.8663   0.02472192  0.022887074          598 
 4686000   0.50279305   -6.1384012    1389.2638  0.024705928  0.022880275          622 
 4687000   0.49907748   -6.1317752    1389.1617  0.024698843  0.022873486          588 
 4688000   0.49450156   -6.1331936     1388.393   0.02467991  0.022866705          654 
 4689000   0.50343859   -6.1193095    1389.5588  0.024695365  0.022859922          662 
 4690000   0.49962142   -6.1574753    1387.1568  0.024647419  0.022853127          713 
 4691000   0.50300511   -6.1368352    1389.7406  0.024688066  0.022846341          744 
 4692000   0.52015388   -6.1379326    1390.3653  0.024693899  0.022839572          750 
 4693000   0.49280556   -6.1277444    1392.4683  0.024725981  0.022832799          661 
 4694000   0.50620501    -6.120305    1390.4376  0.024684662  0.022826031          726 
 4695000   0.49650455   -6.1236502    1387.2867  0.024623477  0.022819262          741 
 4696000     0.493602    -6.129174     1388.029  0.024631407  0.022812493          759 
 4697000   0.48925467   -6.1397145    1385.8252  0.024587063   0.02280572          798 
 4698000   0.49892056   -6.1268288    1387.9936  0.024620292  0.022798949          780 
 4699000    0.4956422   -6.1301934    1389.1146  0.024634933  0.022792187          760 
 4700000   0.50290868   -6.1343389    1391.1814  0.024666337  0.022785422          841 
 4701000   0.50390801   -6.1392234    1389.3598  0.024628799  0.022778672          790 
 4702000   0.50684579   -6.1321598    1388.9132  0.024615646   0.02277191          770 
 4703000   0.50118907   -6.1362561    1389.2526  0.024616425  0.022765133          742 
 4704000   0.50949675   -6.1355239    1391.1546  0.024644888  0.022758363          760 
 4705000   0.48797126   -6.1582179    1388.5775  0.024594005    0.0227516          752 
 4706000    0.4925005   -6.1251714    1389.7945  0.024610328  0.022744829          808 
 4707000   0.50381026   -6.1386084    1387.5561  0.024565471  0.022738073          810 
 4708000   0.49460333   -6.1387199    1389.8512  0.024600878  0.022731307          758 
 4709000    0.5052639   -6.1486058    1389.4142   0.02458792  0.022724545          803 
 4710000   0.49980364   -6.1497679    1390.1931   0.02459648  0.022717784          778 
 4711000   0.50341275   -6.1444247    1389.3609  0.024576539  0.022711029          745 
 4712000   0.50628969   -6.1441726    1385.9902  0.024511711  0.022704282          843 
 4713000   0.49921894    -6.131865    1389.1799  0.024562909  0.022697548          872 
 4714000   0.49689898   -6.1586768    1389.5023  0.024563398  0.022690803          821 
 4715000   0.50095048   -6.1459653    1392.6922  0.024614567  0.022684065          787 
 4716000   0.50004811   -6.1211988    1389.6958  0.024556401  0.022677343          838 
 4717000   0.50223252   -6.1359201    1391.5631  0.024584182  0.022670617          876 
 4718000   0.50520464   -6.1314962    1387.9679  0.024515471  0.022663885          818 
 4719000   0.50255792   -6.1440873    1391.1297   0.02456611  0.022657146          864 
 4720000   0.50524125   -6.1494061    1387.6221  0.024498977  0.022650423          920 
 4721000   0.49423199   -6.1360093    1389.1635  0.024520996  0.022643695          896 
 4722000   0.49552473   -6.1427382    1387.3894  0.024484494  0.022636965          842 
 4723000   0.49133206   -6.1238659    1389.5897  0.024518133  0.022630259          785 
 4724000   0.49017607   -6.1508842    1389.1873  0.024505844  0.022623549          946 
 4725000   0.47890258   -6.1530308    1387.9088  0.024478109   0.02261683          904 
 4726000   0.50154508   -6.1271814    1388.4202  0.024481947  0.022610123          932 
 4727000   0.50708863   -6.1636169    1391.3067  0.024527655  0.022603409          897 
 4728000   0.49175919   -6.1524939    1387.3435  0.024452613  0.022596689         1005 
 4729000   0.49273043   -6.1393165    1391.0899  0.024513462  0.022589964          958 
 4730000   0.48569636   -6.1586332    1385.1018  0.024402779  0.022583245         1026 
 4731000   0.50824563   -6.1425096     1387.864  0.024446277  0.022576538         1079 
 4732000   0.49369396   -6.1488897    1388.3789  0.024450178  0.022569832         1168 
 4733000   0.49888829    -6.165079    1388.4261  0.024445843  0.022563122          902 
 4734000    0.4940662   -6.1528264    1385.7881  0.024394241  0.022556413         1055 
 4735000   0.49999521   -6.1718439    1387.9528  0.024427188  0.022549698         1088 
 4736000   0.49136731    -6.144779    1388.0888  0.024424424  0.022542993         1115 
 4737000   0.49148295   -6.1653175     1388.254  0.024422173  0.022536283         1147 
 4738000   0.50347231    -6.162774    1389.1841  0.024433378  0.022529575         1109 
 4739000   0.48796886     -6.17002    1388.7954  0.024421387  0.022522871         1119 
 4740000   0.48302409   -6.1551481    1389.1747  0.024422903  0.022516167         1158 
 4741000   0.49291653   -6.1550546    1388.0303  0.024397636  0.022509462         1098 
 4742000   0.49008033   -6.1577003    1385.3415  0.024345239  0.022502752         1251 
 4743000   0.49365456   -6.1550143    1388.6606  0.024398422  0.022496048         1164 
 4744000   0.49619379   -6.1677377     1386.313  0.024352041  0.022489348         1187 
 4745000    0.4872332   -6.1571735    1391.0764  0.024430565  0.022482654         1163 
 4746000    0.5048087   -6.1605503    1387.8304  0.024368422  0.022475964         1195 
 4747000   0.49960821   -6.1392247    1388.5312  0.024375591  0.022469282         1187 
 4748000   0.49614557   -6.1664694    1386.3963  0.024332988  0.022462597         1210 
 4749000   0.47790917   -6.1618152    1387.9922  0.024355868  0.022455909         1209 
 4750000   0.48384719   -6.1627499    1388.6669  0.024362577  0.022449216         1184 
 4751000   0.48840855   -6.1819608    1387.3922   0.02433509  0.022442518         1182 
 4752000   0.49648574   -6.1451582    1385.1773  0.024291128   0.02243583         1177 
 4753000   0.48568152   -6.1706414    1387.3649  0.024324372  0.022429137         1215 
 4754000     0.492352   -6.1453517    1387.2077  0.024316501  0.022422464         1270 
 4755000   0.48883653   -6.1467276    1385.2318  0.024276758  0.022415783         1228 
 4756000   0.48581059   -6.1561486    1385.5549  0.024277314   0.02240911         1190 
 4757000   0.49074213   -6.1695095    1387.4132  0.024304765  0.022402444         1242 
 4758000   0.49361861   -6.1350318    1383.5577   0.02423213  0.022395758         1273 
 4759000   0.48786844   -6.1551151    1386.0072  0.024269931  0.022389078         1317 
 4760000   0.50386559   -6.1641843    1386.5024  0.024273501  0.022382405         1261 
 4761000   0.48449299   -6.1519886    1385.0486  0.024242957  0.022375728         1328 
 4762000   0.49996419   -6.1636901    1386.8173  0.024268818  0.022369038         1277 
 4763000   0.49345895   -6.1639018    1388.1267  0.024286632  0.022362353         1336 
 4764000   0.49253306    -6.185793    1386.9436  0.024260838  0.022355676         1358 
 4765000   0.49667635   -6.1704493    1384.3708  0.024210752  0.022348986         1333 
 4766000   0.49176975   -6.1538776    1384.0164  0.024199475  0.022342299         1406 
 4767000   0.49030111   -6.1546511    1385.3154  0.024217108  0.022335617         1382 
 4768000   0.48927491    -6.165024    1385.7309   0.02421929   0.02232893         1318 
 4769000   0.48347206   -6.1686268      1385.06  0.024202488  0.022322237         1313 
 4770000    0.4879484   -6.1818747    1384.3548  0.024185094  0.022315555         1341 
 4771000   0.48144569   -6.1800522    1386.7237  0.024221402  0.022308854         1409 
 4772000   0.48930851   -6.1717757    1385.4472  0.024194034  0.022302159         1475 
 4773000   0.48897088   -6.1895898    1381.6429  0.024122546  0.022295469         1492 
 4774000   0.49344132   -6.1718833    1384.6125  0.024169329  0.022288786         1429 
 4775000   0.49893084    -6.184208    1386.8671  0.024203615  0.022282099         1436 
 4776000   0.49256086   -6.1771416    1385.5058  0.024174793  0.022275415         1529 
 4777000   0.48799339   -6.1722885    1386.6618    0.0241899  0.022268731         1395 
 4778000   0.49367595   -6.1953565    1386.6842  0.024185227  0.022262048         1474 
 4779000   0.48281465   -6.1777876    1384.3766  0.024139928  0.022255361         1486 
 4780000   0.48709219   -6.1705596    1382.2652  0.024098068  0.022248678         1433 
 4781000    0.4892942   -6.1953881    1385.7273  0.024153374  0.022241993         1488 
 4782000   0.48412228   -6.1883853    1383.3681  0.024107209  0.022235311         1493 
 4783000   0.48369778   -6.1906233    1382.3785  0.024084928  0.022228628         1509 
 4784000   0.49639917   -6.1836756    1382.5213  0.024082381  0.022221947         1487 
 4785000   0.49756635   -6.1937281    1382.6253  0.024079159  0.022215267         1495 
 4786000   0.48260945   -6.1965263    1384.0236  0.024098474  0.022208589         1521 
 4787000   0.48629412   -6.2012455    1384.3508  0.024099137    0.0222019         1488 
 4788000   0.48576086   -6.2020593     1383.933  0.024086833  0.022195223         1575 
 4789000   0.49024762   -6.2030892    1383.7313  0.024078292  0.022188539         1516 
 4790000   0.48257938    -6.198432    1383.0418  0.024061269  0.022181868         1486 
 4791000   0.49034677   -6.2092153    1383.3273  0.024061214  0.022175191         1477 
 4792000   0.47413304   -6.1822104    1381.8486  0.024030477  0.022168511         1538 
 4793000   0.49311979   -6.1792894    1383.6252  0.024056353  0.022161839         1589 
 4794000   0.47893847   -6.1877821    1384.0323  0.024058412  0.022155165         1564 
 4795000   0.48281205    -6.206435     1379.612  0.023976572  0.022148495         1520 
 4796000   0.49252362   -6.1807938    1382.2056  0.024016639  0.022141839         1563 
 4797000   0.48263717   -6.2040123    1382.6014  0.024018509  0.022135174         1519 
 4798000   0.48166974   -6.2100477     1382.813  0.024017177  0.022128513         1482 
 4799000   0.49354538   -6.1838423    1384.1611  0.024035582  0.022121852         1499 
 4800000   0.47401899    -6.199887     1383.877  0.024025643  0.022115196         1467 
 4801000   0.48298888   -6.2038071    1384.3508  0.024028862  0.022108544         1392 
 4802000    0.4723993    -6.206532    1384.0143  0.024018019  0.022101899         1475 
 4803000   0.48696036   -6.2028668    1384.1113  0.024014701  0.022095252         1494 
 4804000    0.4854035   -6.1997621    1383.9976  0.024007729  0.022088599         1450 
 4805000   0.48832112   -6.2016793    1383.8724  0.024000563  0.022081955         1457 
 4806000   0.47839797   -6.2004731    1381.1881  0.023949023  0.022075307         1551 
 4807000   0.47891314   -6.1932398    1382.7442  0.023971019  0.022068658         1563 
 4808000    0.4864949   -6.1858999    1382.7684  0.023966452  0.022062011         1455 
 4809000   0.47827857   -6.2090345    1380.8027  0.023927405  0.022055367         1528 
 4810000   0.48554605   -6.2039289    1381.4267  0.023933241  0.022048731         1577 
 4811000   0.47638938   -6.1874651    1383.5602  0.023965222  0.022042083         1577 
 4812000    0.4912112   -6.2018613    1380.4826  0.023906945  0.022035444         1531 
 4813000   0.48965413    -6.208442      1381.59   0.02392115  0.022028806         1526 
 4814000   0.47964343   -6.2083577    1380.5727  0.023898573  0.022022173         1601 
 4815000   0.47365225   -6.2125616    1380.7511  0.023896696  0.022015535         1587 
 4816000   0.48235551   -6.2215959    1383.1596   0.02393341  0.022008896         1592 
 4817000   0.48241277   -6.2025131    1379.9195  0.023872388  0.022002248         1555 
 4818000    0.4788332   -6.2217624    1381.1624   0.02388893  0.021995613         1633 
 4819000   0.47675004   -6.2039273    1379.7937  0.023860304  0.021988969         1698 
 4820000   0.47444849   -6.1971656    1381.2921   0.02388126  0.021982332         1639 
 4821000   0.48580449   -6.2072189    1381.8708   0.02388631  0.021975703         1694 
 4822000   0.47877743   -6.1867821    1382.4195  0.023890839  0.021969085         1597 
 4823000   0.47680062    -6.217626    1380.5149  0.023852977  0.021962465         1719 
 4824000   0.47579967   -6.2091611    1382.2161   0.02387742  0.021955844         1697 
 4825000   0.47227563   -6.2097402    1383.5273  0.023895118  0.021949229         1598 
 4826000   0.47444075    -6.200072    1382.2713  0.023868478  0.021942604         1609 
 4827000   0.48238164   -6.2096708    1379.7695  0.023820342  0.021935988         1651 
 4828000   0.49497789   -6.2068102     1380.731  0.023832005  0.021929373         1706 
 4829000   0.47943615   -6.2103718    1381.6991  0.023843775  0.021922755         1696 
 4830000   0.47842435   -6.2160148    1381.3921  0.023833542  0.021916141         1734 
 4831000   0.47694805   -6.2107326     1384.859  0.023888412  0.021909517         1739 
 4832000   0.48334525   -6.2055807    1381.1429   0.02381938  0.021902891         1718 
 4833000   0.47738168   -6.2203994    1380.2114  0.023798389  0.021896265         1769 
 4834000   0.47965252   -6.2051089    1382.7694  0.023837564  0.021889645         1714 
 4835000   0.47870199   -6.2162241    1380.4533  0.023792714  0.021883027         1731 
 4836000   0.47248181   -6.2261361    1378.5584  0.023755142   0.02187641         1684 
 4837000   0.48763926   -6.2082757     1381.932  0.023808353  0.021869787         1759 
 4838000   0.47766294   -6.2249748    1382.4473  0.023812307  0.021863183         1705 
 4839000   0.48141609   -6.2222607    1384.3714  0.023840521  0.021856576         1745 
 4840000   0.48004001   -6.2237104    1379.3278  0.023748758  0.021849973         1810 
 4841000   0.47852675   -6.2160048    1380.3583   0.02376159   0.02184337         1797 
 4842000   0.47379985    -6.216835    1379.0651  0.023734427  0.021836758         1720 
 4843000   0.46682019   -6.2289682    1379.1847  0.023731583  0.021830152         1843 
 4844000   0.48249325   -6.2037757    1380.7872  0.023754253  0.021823543         1816 
 4845000   0.47001677   -6.2032056    1378.1787  0.023704484  0.021816941         1848 
 4846000   0.47306023   -6.2249036    1380.3384  0.023736731  0.021810334         1763 
 4847000   0.47405061   -6.2192355    1379.0144  0.023709071  0.021803739         1773 
 4848000   0.47625814   -6.2199555    1381.8459  0.023752852  0.021797153         1712 
 4849000   0.47300295   -6.2119708    1384.7485  0.023797837  0.021790559         1731 
 4850000   0.46576975   -6.2292729    1380.1125  0.023713273  0.021783966         1725 
 4851000   0.46398986   -6.2299586    1381.7931  0.023737256  0.021777378         1715 
 4852000   0.47522462   -6.2338112    1378.2707  0.023671866  0.021770779         1824 
 4853000   0.46517375   -6.2242843    1382.3227  0.023736566  0.021764193         1775 
 4854000   0.47002306   -6.2254742    1380.3217  0.023697324  0.021757608         1807 
 4855000   0.48219063   -6.2185075    1378.3328  0.023658304  0.021751023         1757 
 4856000   0.47549625   -6.2104156    1380.6461   0.02369313  0.021744436         1771 
 4857000   0.46836058   -6.2217819    1380.7101   0.02368935  0.021737862         1739 
 4858000   0.47016825   -6.2308428    1378.9244  0.023653843  0.021731276         1700 
 4859000    0.4734892   -6.2231319    1379.2724  0.023654943  0.021724694         1762 
 4860000   0.47811913   -6.2259156    1380.8839  0.023677707  0.021718117         1763 
 4861000    0.4721957   -6.2292443    1381.5502   0.02368426  0.021711546         1763 
 4862000   0.47820094   -6.2446058    1377.5417  0.023610684   0.02170498         1850 
 4863000   0.47232857   -6.2287007    1378.3864  0.023620304  0.021698412         1901 
 4864000   0.48080092   -6.2272963    1379.4066  0.023632926  0.021691845         1773 
 4865000   0.47582697   -6.2264878    1378.0128  0.023604193  0.021685283         1802 
 4866000   0.47538133   -6.2246645    1378.9374  0.023615177   0.02167871         1846 
 4867000   0.47290051   -6.2325764    1378.8464  0.023608767  0.021672136         1956 
 4868000   0.48143939   -6.2260735    1376.7944   0.02356879  0.021665568         1876 
 4869000    0.4863357   -6.2314468    1379.0581  0.023602693  0.021659015         1866 
 4870000   0.47911328   -6.2315699    1377.0877  0.023564129  0.021652462         1900 
 4871000   0.48069422     -6.21652    1379.6952  0.023603901  0.021645915         1866 
 4872000   0.47770934   -6.2172261    1380.0905  0.023605817  0.021639365         1924 
 4873000   0.46689841   -6.2415226    1378.5544  0.023574704  0.021632812         1860 
 4874000   0.46835569   -6.2312898    1380.3563  0.023600676  0.021626268         1863 
 4875000   0.47280573   -6.2301759    1379.2839  0.023577503  0.021619716         1843 
 4876000   0.47426361   -6.2397775    1377.5549  0.023543118  0.021613168         1994 
 4877000   0.46648108   -6.2421983    1379.0905  0.023564529  0.021606626         1838 
 4878000    0.4721729   -6.2353832    1379.5472  0.023567501  0.021600087         1801 
 4879000   0.45764842   -6.2381056    1379.7645  0.023566381  0.021593544         1884 
 4880000     0.469392   -6.2279676    1379.4881  0.023556833  0.021587016         1907 
 4881000    0.4780207   -6.2271281    1376.7916  0.023505969  0.021580472         1868 
 4882000   0.48429698   -6.2288355     1378.349  0.023527738  0.021573931         1874 
 4883000   0.46973311   -6.2562955    1375.3921  0.023472458  0.021567386         1859 
 4884000    0.4695383   -6.2455628    1380.9838   0.02356306  0.021560846         1912 
 4885000   0.46680156   -6.2386153    1379.2346  0.023528397  0.021554315         1979 
 4886000   0.46601586   -6.2368931    1379.4551  0.023527341  0.021547777         1920 
 4887000   0.47139697   -6.2261156    1378.3188  0.023503152  0.021541253         1889 
 4888000   0.47039531   -6.2347437    1377.0958  0.023477492  0.021534732         1865 
 4889000   0.46206564   -6.2343557    1378.7835  0.023501457  0.021528211         1913 
 4890000   0.46685752   -6.2580907    1377.4476  0.023473885  0.021521697         1894 
 4891000   0.47867751   -6.2311173    1379.2521  0.023499831  0.021515179         1960 
 4892000   0.47754619   -6.2379512    1380.1263   0.02350992   0.02150866         1904 
 4893000   0.46907558   -6.2302715    1377.9977  0.023468863  0.021502148         1900 
 4894000   0.47694633   -6.2385377    1378.7475  0.023476834  0.021495631         1911 
 4895000   0.47816755   -6.2503023    1377.2979  0.023447359  0.021489117         1913 
 4896000   0.47950544   -6.2314831     1377.941  0.023453516  0.021482606         1945 
 4897000   0.47387434   -6.2446547    1377.3113  0.023438011    0.0214761         1963 
 4898000   0.47589913   -6.2345721    1378.2814  0.023449731  0.021469595         1933 
 4899000   0.46333196   -6.2435015    1373.6036  0.023365375  0.021463083         2045 
 4900000   0.47003754   -6.2564696    1376.5505  0.023410723  0.021456568         2008 
 4901000   0.46141635   -6.2410578    1376.6596  0.023407801  0.021450052         2011 
 4902000   0.47144458   -6.2520419    1378.6516   0.02343689  0.021443539         2003 
 4903000   0.47570066   -6.2417155    1378.7673  0.023434076  0.021437027         2044 
 4904000   0.47461158   -6.2689151    1377.1415  0.023401671  0.021430522         2119 
 4905000   0.45737752   -6.2453484    1375.1589  0.023363217  0.021424021         2029 
 4906000   0.46318722   -6.2398313    1376.1247   0.02337486  0.021417524         2117 
 4907000    0.4686969    -6.236053    1378.9913  0.023418778  0.021411021         1983 
 4908000   0.46702887   -6.2487076     1377.485   0.02338843  0.021404525         2003 
 4909000   0.47774885   -6.2335771     1377.992  0.023392272  0.021398035         2087 
 4910000   0.46771412   -6.2556359     1377.465  0.023378564  0.021391547         2127 
 4911000   0.47680984   -6.2468667    1376.1926  0.023352214  0.021385047         2136 
 4912000   0.46125196   -6.2462573    1379.7554  0.023407902  0.021378565         2156 
 4913000   0.46673882   -6.2339741    1379.0423  0.023391043  0.021372085         2104 
 4914000   0.45897241   -6.2593257    1376.9852  0.023351397  0.021365603         2218 
 4915000   0.45848887   -6.2717428     1375.784  0.023326281   0.02135911         2135 
 4916000   0.45233833   -6.2474235     1375.273  0.023312873  0.021352621         2049 
 4917000   0.46364797   -6.2473887    1379.9232  0.023386943  0.021346131         2078 
 4918000   0.47608697   -6.2444251    1378.1492  0.023352128   0.02133965         2168 
 4919000   0.46487214   -6.2606732    1377.9743  0.023344418  0.021333172         2100 
 4920000   0.45773522   -6.2477849     1377.465  0.023331047  0.021326696         2119 
 4921000   0.46557146   -6.2507923    1378.6078  0.023345658  0.021320223         2185 
 4922000   0.47315033   -6.2510891    1376.8905  0.023311839  0.021313751         2160 
 4923000   0.46009452    -6.252154     1376.653  0.023303084  0.021307278         2197 
 4924000   0.46127477   -6.2701889    1376.8686  0.023302001  0.021300805         2156 
 4925000   0.46115348   -6.2618986    1378.6948  0.023328168  0.021294331         2116 
 4926000   0.46214164   -6.2577057    1377.5171   0.02330351   0.02128786         2055 
 4927000   0.46603694   -6.2766997    1375.2938  0.023261177  0.021281399         2100 
 4928000   0.45548107   -6.2610301    1376.8541  0.023282842  0.021274932         2096 
 4929000   0.46230745   -6.2513659    1376.3313  0.023269279  0.021268473         2071 
 4930000   0.44950753   -6.2396799    1376.8179  0.023272784  0.021262022         2117 
 4931000   0.45084808   -6.2503602    1377.1061  0.023272934  0.021255574         2137 
 4932000   0.47256276   -6.2700308    1377.6954  0.023278173  0.021249109         2137 
 4933000   0.47094438   -6.2656391    1376.4417  0.023252276  0.021242661         2183 
 4934000   0.46860834   -6.2621612     1378.103  0.023275622  0.021236215         2156 
 4935000     0.458315   -6.2528632    1377.2973    0.0232573  0.021229772         2159 
 4936000   0.46102722   -6.2518818     1376.856  0.023245138  0.021223338         2133 
 4937000   0.46080377   -6.2490202    1376.5483  0.023235236    0.0212169         2179 
 4938000   0.45462319   -6.2585324    1377.3541  0.023244129   0.02121046         2162 
 4939000   0.46404083     -6.25364    1375.7394  0.023212179  0.021204022         2231 
 4940000   0.46359908     -6.25266    1376.7638   0.02322476  0.021197588         2117 
 4941000   0.46968987   -6.2586413     1374.623  0.023183954   0.02119115         2107 
 4942000   0.45937758   -6.2370473    1375.0323  0.023186165  0.021184726         2091 
 4943000   0.46663254   -6.2727918    1377.0946  0.023216242  0.021178292         2181 
 4944000   0.45726567   -6.2469198    1376.9181  0.023208572  0.021171858         2113 
 4945000   0.46184513   -6.2601368    1374.9861   0.02317132  0.021165433         2225 
 4946000    0.4560362   -6.2681214    1375.2281  0.023170711  0.021159013         2182 
 4947000   0.46200448   -6.2598394    1375.3387  0.023167891  0.021152581         2149 
 4948000   0.45679483   -6.2579694    1377.6128  0.023201509  0.021146154         2217 
 4949000   0.45247138   -6.2614191     1376.851  0.023183994  0.021139734         2201 
 4950000   0.45665451   -6.2701859    1375.6206  0.023158596  0.021133313         2198 
 4951000   0.46344527   -6.2634529    1374.9747  0.023143046  0.021126893         2217 
 4952000    0.4603146   -6.2585798     1377.046  0.023173229  0.021120477         2276 
 4953000   0.46577114    -6.249726    1377.0686  0.023168931  0.021114064         2173 
 4954000   0.45992166   -6.2486635    1377.8654  0.023177657  0.021107658         2136 
 4955000   0.46268346   -6.2662336    1378.3394  0.023180953  0.021101248         2230 
 4956000   0.45600748   -6.2572991    1375.1391  0.023122462  0.021094842         2241 
 4957000   0.46111016   -6.2730702    1376.4218  0.023139361  0.021088432         2275 
 4958000   0.46235559   -6.2699854    1375.5447  0.023119953  0.021082028         2143 
 4959000   0.45875383   -6.2638523    1376.1284    0.0231251  0.021075611         2261 
 4960000   0.45526108   -6.2698663    1377.1724  0.023137978  0.021069214         2163 
 4961000   0.45863213   -6.2699729    1375.2679  0.023101321  0.021062813         2269 
 4962000    0.4570856   -6.2695447    1374.9108  0.023090669  0.021056415         2231 
 4963000   0.45637482   -6.2609821     1377.669  0.023132329  0.021050027         2266 
 4964000   0.46823356   -6.2693903    1375.6959  0.023094545  0.021043644         2157 
 4965000   0.45976889      -6.2569    1373.0381  0.023045286  0.021037259         2211 
 4966000    0.4594997   -6.2623389    1375.0457  0.023074334  0.021030877         2212 
 4967000   0.45484693   -6.2784152    1377.0163   0.02310275  0.021024506         2191 
 4968000   0.46854737   -6.2655951    1375.9608  0.023080394  0.021018127         2226 
 4969000   0.45451434   -6.2529272    1376.5368  0.023085409  0.021011756         2222 
 4970000   0.46041693   -6.2650788    1377.0075  0.023088656  0.021005384         2297 
 4971000   0.46108105   -6.2665278    1374.1384  0.023035914  0.020999018         2178 
 4972000   0.45682239   -6.2575547     1373.937  0.023027906   0.02099265         2242 
 4973000   0.45539344   -6.2766847    1373.5842  0.023017364  0.020986286         2184 
 4974000   0.45543599   -6.2704917    1374.3342  0.023025301  0.020979922         2237 
 4975000   0.45554771   -6.2723169    1374.0522   0.02301595   0.02097356         2206 
 4976000   0.45469626    -6.282925    1376.7301  0.023056172  0.020967205         2225 
 4977000   0.46320746   -6.2780209    1376.0074  0.023039437  0.020960844         2206 
 4978000   0.45251728   -6.2712556    1376.6532   0.02304562  0.020954488         2226 
 4979000   0.44221937   -6.2724985    1374.2929  0.023001488  0.020948131         2240 
 4980000   0.46398648   -6.2750861    1374.9137  0.023007257  0.020941784         2212 
 4981000   0.45330708   -6.2577315    1373.5667  0.022980103  0.020935442         2166 
 4982000   0.45649339   -6.2608936    1375.7879  0.023012644  0.020929097         2136 
 4983000   0.46377511   -6.2832887    1374.1262  0.022980237  0.020922752         2257 
 4984000   0.45936132   -6.2836344    1375.5982  0.023000238  0.020916405         2300 
 4985000   0.45725154   -6.2752824    1376.0546  0.023003253  0.020910052         2388 
 4986000   0.45072649   -6.2713631     1375.143  0.022983404  0.020903709         2292 
 4987000   0.46064622   -6.2630337     1374.773  0.022972611  0.020897367         2324 
 4988000   0.45538992   -6.2656894    1375.3995  0.022978474  0.020891029         2272 
 4989000   0.45536908   -6.2793415    1372.2506  0.022921271  0.020884693         2328 
 4990000   0.45890436   -6.2687152    1375.3096  0.022967762  0.020878357         2300 
 4991000   0.45245995   -6.2771362    1372.6776  0.022919215  0.020872023         2314 
 4992000   0.44597603   -6.2814028    1375.3622  0.022959439  0.020865689         2330 
 4993000    0.4523479   -6.2618433    1375.4295  0.022955964  0.020859368         2344 
 4994000   0.44665242   -6.2762787    1377.3676  0.022983706  0.020853037         2341 
 4995000   0.45444134   -6.2740148    1374.1251   0.02292501  0.020846714         2391 
 4996000   0.46242662    -6.267867    1374.6959  0.022929942   0.02084039         2352 
 4997000   0.45535261   -6.2863786    1374.7421  0.022926124  0.020834068         2357 
 4998000   0.45264061    -6.283801    1375.1094  0.022927662  0.020827738         2310 
 4999000   0.44424443   -6.2707874     1375.835  0.022935171   0.02082141         2385 
 5000000   0.45772405   -6.2751703    1374.0522   0.02290087  0.020815092         2404 
 5001000   0.44865676   -6.2756613    1373.6079  0.022888887  0.020808784         2353 
 5002000   0.45677054   -6.2819968    1377.9931  0.022957369  0.020802474         2400 
 5003000   0.46197141   -6.2783792    1376.3672  0.022925698  0.020796171         2354 
 5004000   0.45140055    -6.281325    1373.6776  0.022876326  0.020789871         2438 
 5005000   0.45740358   -6.3000393    1375.2323   0.02289764  0.020783577         2415 
 5006000   0.44082771   -6.2741218    1374.6254  0.022882963  0.020777268         2428 
 5007000   0.45413585   -6.2754216     1373.304  0.022856402  0.020770963         2335 
 5008000    0.4516871   -6.2826486    1375.0453  0.022880813  0.020764663         2365 
 5009000   0.45629329   -6.2601517    1375.1862  0.022878588  0.020758374         2389 
 5010000   0.44779439   -6.2815854    1373.8865  0.022852403  0.020752084         2422 
 5011000   0.44781372   -6.2789294    1374.6564  0.022860646  0.020745791         2311 
 5012000   0.44736679   -6.2785414    1373.5364  0.022837463  0.020739501         2348 
Loop time of 12880.2 on 48 procs for 5000000 steps with 4000 atoms

Performance: 67079.548 tau/day, 388.192 timesteps/s
99.4% CPU use with 48 MPI tasks x no OpenMP threads

MPI task timing breakdown:
Section |  min time  |  avg time  |  max time  |%varavg| %total
---------------------------------------------------------------
Pair    | 937.76     | 997.12     | 1075.6     | 107.2 |  7.74
Neigh   | 86.965     | 90.345     | 94.865     |  20.1 |  0.70
Comm    | 800.44     | 895.53     | 957.05     | 127.5 |  6.95
Output  | 15.321     | 15.326     | 15.431     |   0.4 |  0.12
Modify  | 10721      | 10760      | 10787      |  15.9 | 83.54
Other   |            | 121.8      |            |       |  0.95

Nlocal:        83.3333 ave          91 max          75 min
Histogram: 1 0 5 10 2 14 9 3 1 3
Nghost:        2372.83 ave        2394 max        2354 min
Histogram: 1 2 9 6 7 8 7 3 4 1
Neighs:        16317.6 ave       19314 max       13930 min
Histogram: 3 6 8 4 8 3 8 4 3 1
FullNghs:      32634.5 ave       36051 max       29340 min
Histogram: 1 0 8 10 7 7 9 3 1 2

Total # of neighbors = 1566455
Ave neighs/atom = 391.61375
Neighbor list builds = 268771
Dangerous builds = 0

#clear
#
#next RN
#
#jump SELF
Total wall time: 3:34:43
