
units lj                  # Use reduced LJ style units
atom_style atomic         # Uncharged point particles
atom_modify map hash      # Needed for indexing of clusters etc
                          # Used to be able to find where atoms are in relation to each other.

lattice fcc 1.0 spacing 1 1 1
Lattice spacing in x,y,z = 1.5874011 1.5874011 1.5874011
region box block 0 10 0 10 0 10 units lattice
create_box 2 box
Created orthogonal box = (0.0000000 0.0000000 0.0000000) to (15.874011 15.874011 15.874011)
  3 by 4 by 4 MPI processor grid
create_atoms 1 box
Created 4000 atoms
  using lattice units in orthogonal box = (0.0000000 0.0000000 0.0000000) to (15.874011 15.874011 15.874011)
  create_atoms CPU = 0.003 seconds
set type 1 type/fraction 2 0.8 78393
Setting atom values ...
  3188 settings made for type/fraction
mass 1 1.0
mass 2 1.0
pair_style lj/cut  3.5
pair_modify tail  yes
pair_coeff 1  1  1.0  1.0   # Intearaction between 1 and 1 set with epsilon = 1 and sigma = 1
pair_coeff 1  2  1.5  0.8
pair_coeff 2  2  0.5  0.88

write_data data.0
System init for write_data ...
Neighbor list info ...
  update every 1 steps, delay 10 steps, check yes
  max neighbors/atom: 2000, page size: 100000
  master list distance cutoff = 3.8
  ghost atom cutoff = 3.8
  binsize = 1.9, bins = 9 9 9
  1 neighbor lists, perpetual/occasional/extra = 1 0 0
  (1) pair lj/cut, perpetual
      attributes: half, newton on
      pair build: half/bin/atomonly/newton
      stencil: half/bin/3d
      bin: standard
WARNING: Not all mixed pair coeffs generated from mixing. Use write_data with 'pair ij' option to store all pair coeffs. (../write_data.cpp:312)


#############################
#   M E L T   S Y S T E M   #
#############################

velocity all create 2.4 5833274 mom yes dist gaussian # Assign velocities
                                                    # Temperature 2.4, random number seed, zero linear momentum
                                                                                # Gaussian distribution

timestep 0.002   # simulation timestep
thermo 1000       # output thermodynamic data every 1000 steps bf 100

# Define a fix  in this case with index 1 applied to all
# particles in the simulation. This fix is for simulations
# in the anisotropic NPT ensemble. Note that we use the MTK
# correction.
fix 1 all npt temp 2.4 2.4 0.1 iso 5.68 5.68 0.5 mtk yes tchain 5 pchain 5 # Use NPT ensemble
                                                                         # Set temperature and pressure and damping
                                                                         # Numbers of thermostats in chain and in barostat
run 10000          # run for 10000 steps
Per MPI rank memory allocation (min/avg/max) = 3.642 | 3.644 | 3.648 Mbytes
Step Temp E_pair E_mol TotEng Press Volume 
       0          2.4   -3.6981828            0 -0.099082777   -3.2752093         4000 
    1000    2.3707629   -3.0461458            0   0.50910958    5.9367474    3767.5951 
    2000    2.3903717   -3.0619188            0   0.52274237    5.5232529    3812.2794 
    3000    2.4059498   -3.1224719            0   0.48555053    5.5631752    3773.5177 
    4000    2.4122048   -2.9877237            0   0.62967899    5.7047662     3836.565 
    5000    2.4078006   -3.0538538            0   0.55694416    5.7045324    3773.6916 
    6000    2.4010529   -3.0681222            0   0.53255677    5.3844213    3829.1784 
    7000    2.4275244   -3.0634281            0   0.57694819    5.6621307    3799.8635 
    8000    2.4128756    -3.092253            0   0.52615559     5.892818    3761.2322 
    9000     2.404126   -3.0481441            0   0.55714332    5.6062273    3813.5631 
   10000    2.3846509    -3.055383            0   0.52069906    5.4636933    3820.1467 
Loop time of 2.58487 on 48 procs for 10000 steps with 4000 atoms

Performance: 668506.528 tau/day, 3868.672 timesteps/s
99.6% CPU use with 48 MPI tasks x no OpenMP threads

MPI task timing breakdown:
Section |  min time  |  avg time  |  max time  |%varavg| %total
---------------------------------------------------------------
Pair    | 1.1279     | 1.2067     | 1.3148     |   2.9 | 46.68
Neigh   | 0.21167    | 0.21906    | 0.22723    |   0.7 |  8.47
Comm    | 0.76841    | 0.86946    | 0.97049    |   3.8 | 33.64
Output  | 0.00026671 | 0.0002735  | 0.00042695 |   0.0 |  0.01
Modify  | 0.24687    | 0.27433    | 0.2932     |   2.2 | 10.61
Other   |            | 0.01502    |            |       |  0.58

Nlocal:        83.3333 ave          93 max          73 min
Histogram: 1 1 4 6 9 7 7 11 1 1
Nghost:        1694.81 ave        1721 max        1659 min
Histogram: 1 3 3 7 5 2 7 12 5 3
Neighs:        9991.94 ave       11183 max        8515 min
Histogram: 2 1 3 6 8 6 9 6 5 2

Total # of neighbors = 479613
Ave neighs/atom = 119.90325
Neighbor list builds = 909
Dangerous builds = 207

# Equilibrate just above the melting temperature to avoid step fn in T

fix 1 all npt temp 1.25 1.25 0.1 iso 5.68 5.68 0.5 mtk yes tchain 5 pchain 5
run 2000
Per MPI rank memory allocation (min/avg/max) = 3.644 | 3.645 | 3.649 Mbytes
Step Temp E_pair E_mol TotEng Press Volume 
   10000    2.3846509    -3.055383            0   0.52069906    5.4636933    3820.1467 
   11000    1.2352291   -4.5275889            0   -2.6752085    5.8548664    2895.5093 
   12000    1.2403562   -4.4915155            0   -2.6314462    6.0859181    2894.5658 
Loop time of 0.628898 on 48 procs for 2000 steps with 4000 atoms

Performance: 549532.447 tau/day, 3180.165 timesteps/s
99.6% CPU use with 48 MPI tasks x no OpenMP threads

MPI task timing breakdown:
Section |  min time  |  avg time  |  max time  |%varavg| %total
---------------------------------------------------------------
Pair    | 0.28552    | 0.30755    | 0.34841    |   2.3 | 48.90
Neigh   | 0.040484   | 0.042376   | 0.046378   |   0.6 |  6.74
Comm    | 0.18602    | 0.23212    | 0.25753    |   3.0 | 36.91
Output  | 5.0223e-05 | 5.1592e-05 | 6.6373e-05 |   0.0 |  0.01
Modify  | 0.03915    | 0.042085   | 0.044353   |   0.7 |  6.69
Other   |            | 0.004715   |            |       |  0.75

Nlocal:        83.3333 ave          91 max          76 min
Histogram: 1 0 7 6 17 1 6 5 2 3
Nghost:        2039.31 ave        2058 max        2008 min
Histogram: 1 1 2 4 7 4 8 8 6 7
Neighs:        13197.2 ave       14859 max       11888 min
Histogram: 4 5 6 3 13 4 6 4 0 3

Total # of neighbors = 633466
Ave neighs/atom = 158.36650
Neighbor list builds = 143
Dangerous builds = 18

#############################
# L I N E A R  Q U E N C H  #
#############################

# Define solid atoms. This closely follows ten Wolde  Ruiz-Montero and Frenkel  Faraday Discuss  1996  104  93-110
# Compute components of the per-atom q6 vector
compute q6 all orientorder/atom degrees 1 6 components 6 nnn NULL cutoff 1.3 # compute the Q6 parameter.
                                                                             # Use all neighbours within 1.3 unit cell.

# get number of connections
compute coord_number all coord/atom orientorder q6 0.5

# An atom is solid if it has 8 or more connections (of a possible 14)
variable is_solid atom c_coord_number>=8
group solid dynamic all var is_solid    # Must be dynamic to update
dynamic group solid defined

# do clustering
compute cluster solid cluster/atom 1.3 # Create a cluster where all atoms within are solid and max 1.3 units from another member

# define chunks one chunk per cluster
compute clus_chunks solid chunk/atom c_cluster nchunk every compress yes  # Says which atoms are in which chunk

# count the size of each chunk
compute size_chunks solid property/chunk clus_chunks count


# Find the maximum entry in the vector of chunk sizes
variable max_n equal max(c_size_chunks)


# Thermo style which includes this variable
# thermo_style custom step temp pe vol v_max_n

thermo ${N}  # Print the thermo information every 100 steps
thermo 1000  

# Reset the npt fix at a lower temperature (below freezing)
fix 1  all npt temp  ${temp} ${temp}  0.1  iso  5.68  5.68  0.5  mtk yes tchain  5  pchain  5
fix 1  all npt temp  0.45 ${temp}  0.1  iso  5.68  5.68  0.5  mtk yes tchain  5  pchain  5
fix 1  all npt temp  0.45 0.45  0.1  iso  5.68  5.68  0.5  mtk yes tchain  5  pchain  5

dump dmp2 all dcd ${N} traj.dcd
dump dmp2 all dcd 1000 traj.dcd


compute msd all msd com yes
variable twopoint equal c_msd[4]/6/(step*dt+1.0e-6)
fix 9 all vector 10 c_msd[4]
variable fit equal slope(f_9)/6/(10*dt)
thermo_style custom step temp pe c_msd[4] v_twopoint v_fit v_max_n

fix 1 all npt temp 1.25 ${temp} 0.1 iso 5.68 5.68 0.5 mtk yes tchain 5 pchain 5
fix 1 all npt temp 1.25 0.45 0.1 iso 5.68 5.68 0.5 mtk yes tchain 5 pchain 5
run 5000000 # 5000000  # Run for this many steps
Neighbor list info ...
  update every 1 steps, delay 10 steps, check yes
  max neighbors/atom: 2000, page size: 100000
  master list distance cutoff = 3.8
  ghost atom cutoff = 3.8
  binsize = 1.9, bins = 8 8 8
  4 neighbor lists, perpetual/occasional/extra = 1 3 0
  (1) pair lj/cut, perpetual
      attributes: half, newton on
      pair build: half/bin/atomonly/newton
      stencil: half/bin/3d
      bin: standard
  (2) compute orientorder/atom, occasional
      attributes: full, newton on
      pair build: full/bin/atomonly
      stencil: full/bin/3d
      bin: standard
  (3) compute coord/atom, occasional
      attributes: full, newton on
      pair build: full/bin/atomonly
      stencil: full/bin/3d
      bin: standard
  (4) compute cluster/atom, occasional
      attributes: full, newton on
      pair build: full/bin/atomonly
      stencil: full/bin/3d
      bin: standard
Per MPI rank memory allocation (min/avg/max) = 9.836 | 9.842 | 9.847 Mbytes
Step Temp PotEng c_msd[4] v_twopoint v_fit v_max_n 
   12000    1.2403562   -4.4915155 6.072454e-30 4.2169818e-32 8.3333333e+20            2 
   13000    1.2267947   -4.5132793   0.76795736 0.0049228034  0.064039294            2 
   14000    1.2523844   -4.5511135    1.5868686 0.0094456461  0.066447447            2 
   15000    1.2332993   -4.5279015      2.40443  0.013357944  0.067406017            1 
   16000    1.2560894   -4.5359901    3.2117461  0.016727844  0.067913154            2 
   17000    1.2583281   -4.5550199    4.1120174  0.020156948  0.068509311            2 
   18000    1.2382931   -4.5270805    4.8883025  0.022631029  0.068698039            4 
   19000    1.2517217   -4.5329841    5.8203763  0.025527966  0.069089234            2 
   20000    1.2570401   -4.5308141    6.6090306  0.027537627   0.06935765            1 
   21000     1.258866   -4.5392123    7.4450348  0.029543788  0.069315402            4 
   22000     1.269166   -4.5194948     8.166569  0.030933973  0.069121801            2 
   23000    1.2204072    -4.475965    9.0401961  0.032754333  0.068956813            1 
   24000    1.2246368   -4.5569384    9.8227555  0.034106789   0.06877143            2 
   25000    1.2227626   -4.4900753    10.679309  0.035597695  0.068754221            2 
   26000    1.2445346   -4.5038845    11.527078  0.036945762  0.068772442            3 
   27000    1.2441646   -4.5473965    12.501326  0.038584337  0.068955593            1 
   28000    1.2484889   -4.5409334    13.322337  0.039649811  0.069298148            1 
   29000    1.2568593   -4.5722154    14.302321  0.041098622  0.069558081            2 
   30000    1.2506756   -4.5287246    15.119721  0.041999224  0.069863634            2 
   31000    1.2644388    -4.522405    15.979667  0.042956093  0.070084441            3 
   32000    1.2219436   -4.5229529    16.701533  0.043493576  0.070183416            2 
   33000    1.2513121   -4.5366126    17.528516  0.044263929  0.070183806            2 
   34000    1.2640137   -4.5290188    18.441432  0.045199588  0.070214196            1 
   35000    1.2426924    -4.573856    19.216778  0.045754233   0.07016936            3 
   36000    1.2677259   -4.4859773    19.964086  0.046213162  0.070128136            1 
   37000    1.2687949    -4.553128    20.912759  0.047100809  0.070136871            2 
   38000    1.2620452   -4.5102971    21.952939   0.04814241  0.070199282            2 
   39000    1.2526078   -4.5178972    22.904969  0.048942241  0.070346569            1 
   40000    1.2499874   -4.5220795     23.87469  0.049738936  0.070548861            5 
   41000    1.2454412   -4.5182191    24.882622  0.050574435  0.070771186            3 
   42000    1.2360923   -4.5351657    25.854276  0.051298166  0.071029142            4 
   43000    1.2403546   -4.5474359    26.691608  0.051727922  0.071296563            3 
   44000    1.2062476   -4.5478483    27.748407    0.0525538  0.071567437            4 
   45000    1.2555136   -4.5669772    28.461877   0.05270718  0.071758534            2 
   46000    1.2496731   -4.5596133    29.379079  0.053222969  0.071878955            4 
   47000    1.2443019   -4.5461841    29.947346  0.053098131  0.071941652            2 
   48000    1.2365055   -4.5484763    30.635432  0.053186514  0.071941272            3 
   49000    1.1980051   -4.5535219    31.210887  0.053079739  0.071879088            3 
   50000    1.2212115   -4.5112185    32.059099  0.053431831  0.071739544            5 
   51000    1.2417165   -4.5115259     32.67398  0.053388856  0.071556143            1 
   52000     1.256538   -4.5315086    33.519212  0.053716685  0.071404335            1 
   53000    1.2404565   -4.5766537    34.194636   0.05376515   0.07125602            2 
   54000    1.2518588   -4.5739408    34.883017  0.053831816  0.071123839            2 
   55000    1.2419347   -4.5379676    35.588569  0.053922074  0.070900704            2 
   56000    1.2335304    -4.583514    36.050503  0.053646581  0.070676387            1 
   57000    1.2213546   -4.5721675    37.106772  0.054249666  0.070471702            1 
   58000     1.226304   -4.5679161    37.945847  0.054519895  0.070268549            2 
   59000    1.2361258   -4.5640116    38.871485  0.054903228   0.07010115            2 
   60000    1.2524158   -4.5343234     39.39513  0.054715458  0.069940696            1 
   61000     1.224324   -4.5293577    40.421091   0.05522007  0.069795228            2 
   62000     1.256401   -4.5558517    41.149365  0.055308286  0.069664435            4 
   63000    1.2435707   -4.5657589    41.827734  0.055327691  0.069511267            1 
   64000    1.2428329   -4.5570673    42.278847  0.055050582  0.069334299            1 
   65000     1.236231   -4.5551685     42.99474  0.055121461  0.069145504            1 
   66000    1.2497215   -4.5548447    43.937783  0.055476998  0.068970716            2 
   67000     1.259915   -4.5415408    44.769122  0.055682987  0.068819931            2 
   68000    1.2491152   -4.5350188    45.461076  0.055712102  0.068662814            3 
   69000    1.2483558   -4.5525359    46.188073  0.055782696  0.068507994            2 
   70000    1.2313047   -4.5794151    47.186004  0.056173814  0.068348646            1 
   71000    1.2608103   -4.5420688    47.858054  0.056171424    0.0682262            3 
   72000    1.2089924   -4.5583876    48.583276  0.056230643  0.068096958            2 
   73000    1.2326487   -4.5585377    49.132381  0.056087193  0.067973631            2 
   74000    1.2648948   -4.5935557     49.89613  0.056189336  0.067854227            3 
   75000    1.2243542   -4.5706333    50.524728  0.056138586  0.067739367            1 
   76000    1.2388063    -4.574416    51.502423  0.056471954  0.067625847            2 
   77000     1.279406   -4.5509854    52.408099  0.056718722  0.067540861            3 
   78000    1.2378934   -4.5291859    53.486498  0.057143694  0.067460185            3 
   79000    1.2403393    -4.565474    53.860006  0.056814352     0.067388            2 
   80000    1.2356476   -4.5658664     54.73346   0.05701402  0.067288621            4 
   81000    1.2291358   -4.5343212     55.59449  0.057195977  0.067199677            1 
   82000    1.2024493   -4.5550384    56.280968  0.057196105  0.067128106            1 
   83000    1.2120235   -4.5291959    57.228408  0.057458241  0.067053963            2 
   84000    1.2597924   -4.5188421    57.809183   0.05735038  0.066976916            2 
   85000    1.2468809   -4.5520616    58.586166  0.057437417  0.066910397            2 
   86000    1.2345929   -4.5449892    59.318141  0.057478818  0.066841542            1 
   87000    1.2423015   -4.5172095    60.366496  0.057822313  0.066796827            1 
   88000    1.2527558   -4.5439354    61.359198  0.058105301  0.066762094            1 
   89000    1.2403759   -4.5591882     61.92225  0.057979635  0.066709195            6 
   90000    1.2373412   -4.5912644    62.587278  0.057951183  0.066654608            1 
   91000    1.2445658   -4.5718073    63.359663  0.058021669  0.066618113            2 
   92000    1.2399559   -4.5813256    64.162609  0.058118305  0.066587593            2 
   93000    1.2288811   -4.5721555     65.19503  0.058418485  0.066573128            2 
   94000    1.2540606   -4.5570822    66.179941   0.05867016  0.066564701            1 
   95000    1.2336821   -4.5810401    67.112484    0.0588706  0.066550369            1 
   96000    1.2434291    -4.563421    68.219967  0.059218721  0.066557538            3 
   97000    1.2375881   -4.5367549    68.924862  0.059213799  0.066574008            1 
   98000    1.2415108   -4.5727244    69.932931  0.059466777  0.066605517            2 
   99000    1.2401099   -4.5798893    70.933552  0.059708377  0.066653638            2 
  100000    1.2179083   -4.5876118    71.835982  0.059863318  0.066705126            5 
  101000    1.2490707   -4.5725016    72.836791  0.060096362  0.066754545            2 
  102000     1.250736   -4.5642055    73.991207  0.060450333  0.066810631            3 
  103000    1.2483103   -4.5323469    74.919607  0.060614569  0.066862171            2 
  104000    1.2561513   -4.5640614    75.243268   0.06029108  0.066917953            1 
  105000    1.2328032   -4.5837912    75.850033  0.060198439  0.066951468            2 
  106000    1.2375944    -4.566358    76.763053  0.060348312  0.066971647            5 
  107000    1.2198887   -4.5485464    77.477897  0.060341041  0.066991226            2 
  108000    1.2311344   -4.5836884    78.230111  0.060362739  0.067010905            2 
  109000    1.2303287   -4.5778007    78.835188   0.06027155  0.067027288            3 
  110000    1.2307232    -4.550836     79.66887  0.060355204   0.06703602            2 
  111000    1.1970542   -4.5539558    80.563615  0.060483194  0.067045022            1 
  112000    1.2249892   -4.5669052    81.449579  0.060602365  0.067060842            2 
  113000    1.2610449   -4.5749344    81.875497   0.06038016  0.067064558            2 
  114000    1.2467395   -4.5549716       82.443   0.06026535  0.067071834            2 
  115000    1.2197482   -4.5628022    83.320143  0.060376915  0.067065635            3 
  116000    1.2181657   -4.5477151    84.259856  0.060531506   0.06705241            1 
  117000    1.2314355   -4.5707733    84.637254  0.060282944  0.067037852            4 
  118000    1.2521908     -4.56265    85.373401   0.06029195  0.067017468            2 
  119000    1.2279137   -4.5792754     86.10532  0.060297843  0.066989304            2 
  120000    1.2392698    -4.580026    86.611633  0.060146967  0.066963322            3 
  121000    1.2517657   -4.5853828    87.731185  0.060420926   0.06693307            3 
  122000    1.2205612   -4.5573223    88.514338  0.060460613    0.0669064            2 
  123000    1.2432647   -4.5682536    89.561439  0.060678481  0.066893102            1 
  124000    1.2334516   -4.5505849    90.233661  0.060640901    0.0668789            2 
  125000     1.188288   -4.5366194    91.711105  0.061140736  0.066875295            3 
  126000    1.2155396   -4.5438366    92.634417  0.061266149  0.066880278            1 
  127000    1.2470111   -4.5156727    93.288821  0.061213137  0.066881601            4 
  128000    1.2282113    -4.570245     93.98097  0.061185527   0.06688733            6 
  129000    1.2390298   -4.5105667    94.931235  0.061325087   0.06689733            4 
  130000    1.2295441   -4.5687856    95.632947  0.061303171  0.066913654            2 
  131000    1.2561512   -4.5902064    96.636231  0.061473429  0.066933662            2 
  132000    1.2032771   -4.5359223    97.962004  0.061844699  0.066958421            1 
  133000     1.212786   -4.5842937    98.733024  0.061862797  0.066981392            4 
  134000     1.212761   -4.5580915    99.896159  0.062124477  0.067013093            4 
  135000    1.2128086   -4.5288329    100.93573  0.062306004  0.067054381            1 
  136000    1.2132355   -4.5691824    101.14382  0.061975382   0.06708166            3 
  137000    1.2478738   -4.6037338    101.36457   0.06165728  0.067099577            1 
  138000    1.2428192   -4.5827842    102.70346     0.062019  0.067114067            2 
  139000    1.2521401   -4.5228483    103.68265  0.062159861  0.067140419            1 
  140000    1.2043788   -4.5923379    104.16262  0.062001559  0.067163448            2 
  141000    1.2148808   -4.5576198    106.09513  0.062703978  0.067189608            2 
  142000    1.2362387   -4.5770671    106.32036  0.062394578  0.067218193            2 
  143000    1.2256184   -4.5980733    107.24302  0.062495934  0.067244314            1 
  144000    1.2383765   -4.5391342    108.30772  0.062678078  0.067266971            1 
  145000    1.2272872   -4.5765136    108.54394  0.062381574  0.067296857            2 
  146000    1.2451076   -4.5598118    109.44593   0.06246914  0.067324079            3 
  147000    1.2382452   -4.5510856    110.34941  0.062556356  0.067344264            2 
  148000    1.2014891   -4.5549876    111.08525     0.062548    0.0673621            3 
  149000    1.2083823   -4.5605488    111.84966   0.06255574  0.067372696            2 
  150000     1.215324   -4.5768599    112.80785  0.062671028  0.067386619            2 
  151000    1.2536525   -4.5555041     113.9192  0.062869318  0.067408505            1 
  152000    1.2460947   -4.5462974    114.72454  0.062897226  0.067430677            2 
  153000    1.2198232   -4.5741336    115.45522  0.062884108  0.067458742            6 
  154000    1.2439713   -4.5771626    116.00589  0.062773752  0.067485739            2 
  155000    1.2275255   -4.6174547    117.18531  0.063002856  0.067513054            1 
  156000    1.2055202   -4.5425719    118.19125  0.063136349  0.067530039            1 
  157000    1.2446759   -4.5525841    119.10399  0.063218677  0.067551433            2 
  158000    1.2196804   -4.6082985    119.37159  0.062959697  0.067571791            1 
  159000    1.2406835   -4.5735716    120.33189  0.063067029  0.067592341            2 
  160000     1.213201   -4.5405267    121.15586  0.063102013  0.067604104            1 
  161000    1.2310712   -4.5917572    121.59715  0.062938485  0.067610747            4 
  162000    1.1993073   -4.5638839    122.27389  0.062898089  0.067613363            2 
  163000    1.2208978   -4.5569795    122.98037  0.062873402  0.067624855            4 
  164000     1.250586   -4.5933148    124.74706  0.063387733  0.067640862            4 
  165000    1.2177365   -4.5907974    125.54086  0.063404473  0.067655859            1 
  166000    1.2054559   -4.6001824     125.8242  0.063164757  0.067668778            3 
  167000    1.2147689   -4.5833464     126.9881  0.063367316  0.067684441            2 
  168000     1.221328   -4.5781361     127.8352  0.063410318  0.067699264            2 
  169000    1.2269842    -4.546752    128.62296   0.06342355  0.067711716            2 
  170000     1.210684    -4.565676    129.13575  0.063301839  0.067728617            2 
  171000    1.2104632   -4.5934743    130.00132   0.06335347  0.067744965            2 
  172000    1.2150808   -4.5444895    131.61392  0.063766433  0.067760899            2 
  173000    1.2161919   -4.6041812    132.13535   0.06364901  0.067771165            1 
  174000    1.2410238   -4.5670083    132.50179  0.063458711  0.067786135            2 
  175000     1.236322   -4.5591867    133.36208  0.063505754  0.067794634            2 
  176000    1.1838121   -4.5621218    134.16444   0.06352483  0.067794302            2 
  177000    1.2360212   -4.6084633    134.16343  0.063165456  0.067793787            3 
  178000    1.2304034   -4.5811242    134.88364  0.063147772  0.067787283            1 
  179000    1.1976582   -4.6030303    135.29984  0.062988752  0.067775042            2 
  180000      1.21583   -4.5958689    135.51547  0.062738646  0.067754768            3 
  181000    1.2355439   -4.5864852    136.11527   0.06266817  0.067733706            2 
  182000    1.2186592   -4.5823853    136.38063  0.062445343  0.067708777            2 
  183000    1.2347781   -4.5898706    137.05159  0.062409648   0.06768005            2 
  184000    1.2060009   -4.5796245     137.9489  0.062476855   0.06764938            2 
  185000    1.2327087   -4.5260927    138.82018  0.062531611  0.067615294            2 
  186000    1.2047138   -4.6011815    139.78689  0.062628537  0.067581114            1 
  187000    1.2118899   -4.5657056    140.22566  0.062489155  0.067549646            2 
  188000     1.229514    -4.571565     141.1851  0.062582048  0.067517883            1 
  189000    1.1865943   -4.5829027    141.44894  0.062367259   0.06748929            2 
  190000    1.2300525   -4.6003154    142.33672  0.062428386  0.067457605            1 
  191000    1.1851512   -4.5771559    144.05544  0.062851412  0.067428377            2 
  192000    1.2349337   -4.5855179    144.36051  0.062656472  0.067399861            3 
  193000    1.2104702   -4.5921854    145.17012  0.062681399  0.067374575            1 
  194000    1.2357589   -4.5870281     145.0672  0.062314089  0.067345282            2 
  195000    1.2074744   -4.5748262    145.86151   0.06233398  0.067314463            3 
  196000     1.255919   -4.5862324     146.3094  0.062206376  0.067279509            5 
  197000    1.2299751   -4.5741118    147.67793  0.062469513  0.067243663            2 
  198000    1.2136546   -4.5678634    149.18315   0.06278752  0.067210666            2 
  199000     1.210034     -4.58245    149.57488  0.062636045   0.06718544            2 
  200000    1.2157408   -4.5823884    150.56903  0.062737096  0.067159803            1 
  201000    1.2009878   -4.5788459    151.72807    0.0629055  0.067141864            2 
  202000    1.2423682   -4.5635239    152.65142  0.062975006  0.067124003            3 
  203000     1.229114   -4.5951178    153.19159  0.062886532  0.067103245            2 
  204000    1.2188454   -4.5875738    153.59671  0.062743752  0.067081717            5 
  205000    1.2257001   -4.6160811    154.30546  0.062725797  0.067057651            2 
  206000    1.1982381   -4.5576479    155.21303  0.062788444   0.06703484            7 
  207000    1.2178936   -4.5806431    155.48079  0.062592912  0.067008959            2 
  208000     1.201189    -4.584081    157.04341  0.062918034  0.066982784            2 
  209000     1.217558   -4.6233309    156.71606  0.062486465  0.066959717            2 
  210000     1.212995   -4.5838598    157.96692  0.062685285  0.066934115            3 
  211000    1.2137612   -4.5947957    158.59465  0.062636119   0.06691147            2 
  212000    1.2198633   -4.6049158    159.51924  0.062704102  0.066889234            2 
  213000    1.2063972   -4.6064367    159.81321   0.06252473   0.06686827            4 
  214000    1.2195749   -4.6018301    160.64678  0.062557158  0.066839447            3 
  215000    1.2236098   -4.5937036    161.87029  0.062740422  0.066816868            2 
  216000    1.1949431   -4.5713241    162.95332  0.062867794  0.066794841            2 
  217000    1.2295725   -4.6110864    162.99987  0.062595955  0.066774796            2 
  218000    1.2096889   -4.6330723    163.72228  0.062584968   0.06675704            3 
  219000    1.2185694   -4.5640888    165.03372  0.062798221  0.066738623            1 
  220000    1.2106898   -4.5897114    166.06877  0.062904838  0.066720983            2 
  221000    1.2013939   -4.5991043    166.88819  0.062929181  0.066706988            2 
  222000    1.2411854   -4.6036921    167.69752  0.062949518  0.066691095            2 
  223000    1.2330613   -4.5685897    168.69701  0.063040737    0.0666809            1 
  224000    1.2450124   -4.5918419     170.5206  0.063437723   0.06666979            3 
  225000     1.227184   -4.6066378    169.10588  0.062631808  0.066653387            1 
  226000    1.1898349   -4.5941955    171.13165  0.063101642  0.066639207            1 
  227000    1.2005764   -4.6011156     171.7687  0.063057527  0.066625003            2 
  228000    1.2102684   -4.5995092    172.18786  0.062934159   0.06661065            1 
  229000    1.2384058   -4.6248073    173.24904  0.063045502  0.066596678            2 
  230000    1.1951682   -4.6142125    174.54713  0.063241714  0.066585599            2 
  231000    1.2206731   -4.5887332    174.91277  0.063099843  0.066574367            1 
  232000    1.2183715   -4.5944837    175.50354  0.063040064  0.066560012            1 
  233000    1.2131074   -4.5767301     176.7494  0.063215093  0.066544545            2 
  234000      1.23391   -4.5857751    175.30208  0.062429514  0.066520959            2 
  235000    1.2081159   -4.5883619    176.17259  0.062472551   0.06649428            1 
  236000    1.2184355   -4.5934988    177.96605  0.062841119  0.066469574            4 
  237000    1.2187953   -4.6262055    178.58988  0.062795318  0.066449459            1 
  238000    1.1951974   -4.6575266     178.3134  0.062434665  0.066426862            2 
  239000    1.2398444   -4.5946829    180.52567  0.062944793  0.066408702            3 
  240000    1.2037198   -4.5659353    181.20914   0.06291984  0.066389941            3 
  241000    1.2351493   -4.6071928    182.04055  0.062946249  0.066372035            3 
  242000    1.2149294   -4.5912848    183.32809  0.063129509  0.066354988            3 
  243000    1.2284086    -4.582954    183.82457  0.063039976  0.066339598            2 
  244000    1.2041934   -4.5872306    183.96058  0.062828065  0.066324688            7 
  245000    1.2352972    -4.583945     185.7204  0.063170203  0.066312046            2 
  246000    1.2223864   -4.6091756    185.85702  0.062959694  0.066299014            1 
  247000     1.195409   -4.6377612    185.97911  0.062745989  0.066282449            1 
  248000    1.2120158   -4.6112409    187.71488  0.063076235   0.06626682            3 
  249000    1.2290748   -4.5973944    187.38421  0.062712251  0.066247265            3 
  250000    1.2253096   -4.6403468    188.00506  0.062668354  0.066226686            4 
  251000    1.2097438   -4.5755614    188.90263  0.062716678   0.06620661            1 
  252000    1.2102161   -4.6356769    189.44821  0.062648216  0.066188908            3 
  253000    1.2272288   -4.6527664    189.89175  0.062546688  0.066168952            2 
  254000    1.2210154   -4.6060255    191.52839  0.062837397  0.066148661            4 
  255000    1.1962334   -4.6138925    192.29141  0.062840329  0.066128536            1 
  256000    1.2056621   -4.6074129    192.90533  0.062794702  0.066111717            4 
  257000    1.2204323   -4.5825823    194.34837  0.063018278  0.066095966            3 
  258000    1.2519392   -4.5534271    194.77833  0.062912897  0.066078532            2 
  259000    1.1994344   -4.5826191    195.05444   0.06275883   0.06605873            3 
  260000    1.2001315   -4.5899519    195.97366  0.062812071   0.06604032            2 
  261000    1.2079633   -4.6413881    195.68244  0.062478428  0.066019168            5 
  262000    1.2343391   -4.6126885    196.69998  0.062563607  0.065997653            2 
  263000    1.2061619   -4.6319488    196.98078  0.062414695   0.06597617            1 
  264000    1.1890552   -4.5785065    198.61348   0.06269365  0.065956413            2 
  265000    1.2145122   -4.5931882    199.32008   0.06267927  0.065934586            4 
  266000    1.1976964   -4.5977453    200.34825  0.062765743  0.065914044            2 
  267000    1.2120065   -4.6116171    200.24662  0.062498946    0.0658954            2 
  268000    1.2014785   -4.6080724    201.04802   0.06251493  0.065877259            1 
  269000    1.1899088   -4.6255885    201.64376  0.062467089    0.0658533            6 
  270000    1.1861604   -4.5848865    203.55479  0.062825552  0.065832143            1 
  271000    1.2064943   -4.6314306     203.5907  0.062604765   0.06581441            2 
  272000    1.2214506   -4.6237594    204.79617  0.062743924  0.065797276            6 
  273000    1.2259528   -4.6417236    205.70216  0.062790646  0.065782357            2 
  274000    1.1965475   -4.6092105    207.42906  0.063086696   0.06576762            3 
  275000    1.2317611   -4.6169612     207.9388  0.063011757  0.065756363            4 
  276000    1.2100398   -4.6198802    208.41017  0.062925776  0.065739177            2 
  277000    1.2000504   -4.5910258    207.92501  0.062552651  0.065720598            1 
  278000    1.2228278    -4.604042    209.84119  0.062902036  0.065704969            2 
  279000    1.2056437   -4.5862966    210.54425  0.062886574  0.065694387            1 
  280000    1.1865012   -4.5578694     211.8844  0.063060835  0.065685065            4 
  281000    1.2094311   -4.6367379    212.44628  0.063003049  0.065673129            4 
  282000    1.2061215   -4.5908298    212.94969  0.062928396  0.065659016            2 
  283000    1.1808861   -4.5730397    215.42965  0.063436291  0.065648422            1 
  284000    1.2285758   -4.5984527    215.38697  0.063200401  0.065637784            2 
  285000     1.174547   -4.6259579    216.18621  0.063212342  0.065628064            1 
  286000    1.2049895   -4.6087836    216.39353  0.063051728  0.065617892            4 
  287000    1.2149254   -4.6198909    215.91659  0.062693551  0.065604459            5 
  288000    1.2435541   -4.5989621    216.83319  0.062741086  0.065590019            2 
  289000    1.1826074   -4.5844507    217.90709  0.062833648  0.065574338            2 
  290000    1.2108632   -4.5966979    218.20635  0.062702975  0.065557499            2 
  291000    1.1906014   -4.5966034    218.85746  0.062673958  0.065540556            3 
  292000     1.193415    -4.598093    218.30547   0.06230179  0.065521093            2 
  293000    1.2103089   -4.6105352    219.89068   0.06254001  0.065503149            3 
  294000    1.1988293   -4.5888955    221.24252  0.062710464  0.065486494            1 
  295000    1.1864097   -4.5967833    221.65308  0.062613865  0.065467722            2 
  296000    1.1939168   -4.6157531    222.44205  0.062624452  0.065450436            1 
  297000    1.2100838   -4.5910649      223.253  0.062641134  0.065430906            3 
  298000    1.1873923   -4.6150855    223.43217  0.062481033  0.065413339            4 
  299000     1.212876   -4.5996313    225.21607   0.06276925  0.065395542            4 
  300000    1.1896373   -4.5884052    225.61643   0.06267123   0.06537655            2 
  301000    1.1918644   -4.6063763    226.67288  0.062755505  0.065356425            2 
  302000    1.1792016   -4.6095398     226.5934  0.062525772  0.065337162            3 
  303000    1.2129984   -4.6236169    227.15331  0.062473407   0.06531639            3 
  304000    1.2316202   -4.6127887    227.93149  0.062481221   0.06529611            1 
  305000    1.1858404   -4.6158509    229.20592  0.062624568  0.065277873            1 
  306000    1.2175854    -4.609646    230.22134  0.062696445  0.065261481            4 
  307000    1.2164891   -4.5803074    230.75656  0.062637504  0.065243418            1 
  308000    1.2042691   -4.6046292    231.30291  0.062581957  0.065226966            2 
  309000     1.201483   -4.6081841    232.19113  0.062618967  0.065209413            2 
  310000    1.2153855   -4.5952998    232.86899   0.06259919  0.065192715            3 
  311000    1.2247029   -4.6369193    233.46426  0.062557411  0.065175014            1 
  312000    1.2227443   -4.6170322    234.89536  0.062739145  0.065157741            2 
  313000    1.1919966   -4.6123565    235.66541  0.062743718  0.065141524            5 
  314000    1.2062508   -4.6447363    235.46551  0.062490845  0.065123885            4 
  315000    1.2029333   -4.5977569    237.98331  0.062958548  0.065107721            3 
  316000    1.2061674   -4.6457636    237.10666  0.062528128  0.065089424            1 
  317000    1.2040558   -4.6199909    238.53039   0.06270515  0.065074747            2 
  318000    1.1987763    -4.666893    237.84056  0.062327191  0.065056887            3 
  319000    1.2073297   -4.5957923    239.45181   0.06255272  0.065042175            3 
  320000    1.1659076   -4.6166702    239.99101  0.062497658  0.065028338            1 
  321000    1.2067554   -4.6198841    242.35391  0.062916382  0.065015497            1 
  322000    1.1904505   -4.6178842    242.05631  0.062643973  0.065003675            5 
  323000    1.1775321   -4.6123317    243.46026  0.062812245  0.064993458            4 
  324000    1.1940249   -4.6118177    244.80216  0.062963518  0.064983749            3 
  325000    1.2270574   -4.6432304    244.33929  0.062651101  0.064973122            2 
  326000     1.218679    -4.592628    246.33058   0.06296794  0.064963704            2 
  327000    1.2037423   -4.6261551    246.00417  0.062692193  0.064954467            1 
  328000    1.2089275   -4.6047561    247.12365  0.062785481  0.064946269            1 
  329000    1.2015253   -4.6145739    248.79858  0.063018889  0.064936918            2 
  330000    1.1881529   -4.6214882    249.39972  0.062979728  0.064928369            2 
  331000    1.1950825   -4.6195591    249.62718  0.062846722  0.064920807            1 
  332000    1.2076744   -4.6366583    250.02766  0.062757946  0.064909957            1 
  333000    1.1713931    -4.656021    249.71593  0.062491474  0.064899011            2 
  334000    1.1748333    -4.614793    251.19345  0.062673016  0.064889319            4 
  335000    1.1981201   -4.6192283    252.70597  0.062862182  0.064880198            3 
  336000    1.2136604   -4.6246184    253.23392  0.062806031  0.064872725            2 
  337000    1.1888073   -4.5970356    254.83295  0.063015072  0.064867418            3 
  338000    1.2064999   -4.6503202    254.63663  0.062780234  0.064861453            2 
  339000    1.1815466   -4.6079958    256.92432  0.063157405  0.064855668            2 
  340000    1.1720347    -4.600295    257.99288  0.063233549  0.064852004            6 
  341000    1.2050358   -4.6417202    256.66404  0.062723373  0.064845469            2 
  342000     1.211622   -4.6062814    258.06174  0.062880542  0.064838011            4 
  343000    1.1667905   -4.6035475    259.61188  0.063073829  0.064828672            1 
  344000    1.2056279   -4.5994783    260.93331  0.063210589  0.064820837            2 
  345000    1.1954385     -4.60975    260.36398  0.062889851  0.064811526            2 
  346000    1.1816125   -4.6015889     261.5093  0.062983935  0.064803329            1 
  347000    1.1919531   -4.6155059    262.60987  0.063066732  0.064795692            2 
  348000    1.2105875   -4.6208353      262.124  0.062769156  0.064787267            1 
  349000    1.1989355   -4.6550458    262.06679  0.062575643  0.064780355            3 
  350000    1.2089642   -4.5990803    263.96479   0.06284876  0.064770735            1 
  351000    1.1968368   -4.6093929     264.9555  0.062904915  0.064763562            2 
  352000    1.2107477   -4.6718569    265.22339  0.062789628  0.064756655            4 
  353000    1.2138946   -4.6183101    266.60931   0.06293893  0.064749147            2 
  354000    1.2103318   -4.6341397    267.37454  0.062941275  0.064744124            2 
  355000    1.2136304   -4.5877941    267.62248  0.062822178  0.064738219            2 
  356000    1.2002588   -4.6379777    268.83596  0.062929766  0.064730853            2 
  357000    1.2119384   -4.6256464    269.29514  0.062860676  0.064724584            2 
  358000    1.2058004   -4.6253968    270.45387  0.062954811  0.064717047            1 
  359000    1.2048568   -4.5719456    272.01118  0.063140941   0.06471212            2 
  360000    1.1894201   -4.6478535    272.04486  0.062973348  0.064707283            3 
  361000    1.1876193   -4.5853857    272.67641  0.062944693  0.064699595            2 
  362000     1.168924   -4.6090542     274.3514    0.0631564   0.06469452            3 
  363000    1.2289615   -4.6528686    272.45181  0.062546328  0.064687374            2 
  364000    1.1879396   -4.6311846    273.91791  0.062710143  0.064679876            2 
  365000    1.1946789   -4.6227459    274.59134  0.062692087  0.064671611            4 
  366000     1.198578   -4.6246066    275.41041  0.062707288  0.064663083            4 
  367000    1.1741459   -4.6212677    276.18565  0.062712455  0.064653976            3 
  368000    1.2038302   -4.6409069    276.78026   0.06267669  0.064646595            1 
  369000    1.2205409   -4.6321145    277.88734  0.062756852  0.064636501           10 
  370000    1.1982709   -4.6203466    278.89258  0.062813644   0.06462702            3 
  371000    1.1835354   -4.6171658    280.17422  0.062932215  0.064618171            2 
  372000    1.1584686   -4.6153128    279.06343   0.06251421  0.064606919            1 
  373000    1.1946601   -4.6379958     280.1086  0.062580116  0.064595199            1 
  374000    1.1852305   -4.6755451    279.79612  0.062343164   0.06458171            3 
  375000    1.1997306   -4.6315368    280.78161  0.062395912  0.064569805            5 
  376000    1.1863576   -4.6241798    282.57892  0.062628306  0.064557151            2 
  377000    1.2128225   -4.6590177    282.88193  0.062529162  0.064545956            1 
  378000     1.179071   -4.6750475    282.71412  0.062326745  0.064532841            3 
  379000    1.2088602   -4.6196428    284.82646   0.06262675  0.064519408            2 
  380000    1.1994877    -4.599458    285.29883  0.062565533  0.064505345            3 
  381000    1.1793075    -4.619145    286.35916  0.062633237  0.064492988            5 
  382000    1.2034151   -4.6162862    286.10207  0.062413192  0.064480235            3 
  383000     1.202801   -4.6605681    287.29566  0.062509935  0.064468922            3 
  384000    1.2006522    -4.649132    287.98752  0.062497292  0.064458373            5 
  385000    1.1807523   -4.6050315    289.11985  0.062580054  0.064447688            2 
  386000     1.189893   -4.6485225     289.8088  0.062566666  0.064437458            1 
  387000    1.1992616   -4.6661445    290.93674  0.062647877  0.064427817            3 
  388000    1.1757953   -4.6767658    291.05329  0.062511445  0.064417691            2 
  389000    1.1789861   -4.6464494    292.37057  0.062632942  0.064407071            5 
  390000    1.2088034    -4.608524    293.14421  0.062637651  0.064397713            5 
  391000       1.1856   -4.6527263    293.94114  0.062647302  0.064389234            2 
  392000    1.1794125   -4.6412417     295.7112  0.062863774  0.064380948            1 
  393000     1.206991    -4.640673    295.10604  0.062575495  0.064372251            4 
  394000    1.1938925   -4.6707232    295.59417  0.062519917   0.06436349            2 
  395000    1.2008202   -4.6373226    295.10875  0.062259229  0.064353151            2 
  396000    1.1849565   -4.6438436    296.54423  0.062404089  0.064342487            2 
  397000    1.2086589   -4.6226631    299.25899  0.062816748   0.06433082            1 
  398000     1.162627   -4.6346158    298.91349  0.062586576    0.0643211            3 
  399000    1.1888007   -4.6470906    299.13729  0.062476459  0.064309538            5 
  400000       1.2022   -4.6987681    300.05875  0.062512239  0.064297643            3 
  401000    1.1816775   -4.6451162     300.6371  0.062476538  0.064286753            3 
  402000     1.173458   -4.6181704    302.02948  0.062609759  0.064273737            3 
  403000    1.1977238   -4.6456073    302.79046  0.062611757  0.064263215            4 
  404000    1.1974025   -4.6183864     302.8439  0.062467801  0.064252604            3 
  405000    1.1819476   -4.6300165     304.1802  0.062588519   0.06424307            1 
  406000    1.1812941   -4.6161302    304.81876  0.062565426  0.064233261            1 
  407000    1.1886113   -4.6441768    305.94342  0.062641978   0.06422324            2 
  408000    1.1760146   -4.6541333    306.71927  0.062646909  0.064213154            2 
  409000     1.191037   -4.6353825    306.75212  0.062500433  0.064202111            2 
  410000    1.1865942    -4.675453     307.3376  0.062466991  0.064190925            2 
  411000    1.1651173    -4.634735    309.05631  0.062663486  0.064181584            4 
  412000    1.1697245    -4.628016    309.67717  0.062636968  0.064172775            2 
  413000    1.1990175   -4.6694982    309.48878  0.062447291  0.064163791            3 
  414000    1.1806881   -4.6434558    310.72098  0.062544481  0.064153587            2 
  415000     1.182084   -4.6648485    311.15978  0.062481884  0.064144753            1 
  416000     1.211952   -4.6526029    311.55083  0.062410021  0.064136987            5 
  417000    1.1988094   -4.6578971    312.43431  0.062436913  0.064127412            2 
  418000    1.1595533   -4.6762963      313.092   0.06241866  0.064119036            2 
  419000    1.1875623    -4.656941    314.90861  0.062630989  0.064110253            2 
  420000    1.1713928   -4.6373104    315.11617   0.06252305  0.064102912            3 
  421000    1.1834253   -4.6338475    316.72869  0.062693724  0.064096843            2 
  422000    1.1841964    -4.653554    316.34641   0.06246967  0.064089559            2 
  423000    1.1757256   -4.6260339    319.30954  0.062905742  0.064082851            2 
  424000     1.219799   -4.6530035    320.00166  0.062893408  0.064078776            4 
  425000    1.1905173   -4.6344334    319.45417  0.062638072  0.064073231            1 
  426000    1.1844842   -4.6984379    320.02847  0.062603379  0.064068113            4 
  427000    1.1757572   -4.6101399    321.19637  0.062684693  0.064063247            3 
  428000    1.1642617   -4.6312817    323.75101  0.063035632  0.064057611            2 
  429000    1.1960163   -4.6406243    324.04701  0.062946194  0.064052971            4 
  430000     1.166737   -4.6544824    323.95934  0.062782818  0.064047949            5 
  431000    1.1735094   -4.6712239     323.8514   0.06261628   0.06404194           10 
  432000    1.1828203   -4.6913921    324.28251  0.062554497  0.064036869            2 
  433000    1.1758087   -4.6797276     324.7698  0.062503811  0.064030457            4 
  434000    1.1893244   -4.6549611    326.18386   0.06263131  0.064024677            1 
  435000     1.222556   -4.6683025    327.44691  0.062729293  0.064019028            3 
  436000    1.1983848   -4.6508277    327.42695  0.062581603  0.064012842            2 
  437000    1.1984586   -4.6817527    328.72263  0.062685476  0.064007379            2 
  438000    1.1619375   -4.6453006    327.83447  0.062373376  0.064001093            2 
  439000    1.1604479   -4.6736323    327.86941  0.062237929  0.063993556            2 
  440000    1.1752934   -4.6329941    331.14109  0.062716115  0.063985971            2 
  441000    1.1789265   -4.6188566    332.74946  0.062877827  0.063981472            2 
  442000    1.2043252   -4.6656088    332.89808  0.062763589  0.063977062            2 
  443000     1.169813   -4.6099726    334.17239  0.062861622  0.063972383            2 
  444000    1.1441239   -4.6523442    332.43372  0.062393715  0.063967979            1 
  445000    1.1625019   -4.6738022    332.89613  0.062340099  0.063961321            2 
  446000    1.2100433   -4.6167072    335.89845  0.062761295  0.063955171            2 
  447000    1.1689658   -4.6735309    335.58448  0.062562357  0.063948632            5 
  448000    1.1750975   -4.6555719    336.95683  0.062677981  0.063942411            3 
  449000    1.2023161   -4.6220266    338.63324  0.062849525  0.063937782            3 
  450000    1.1990671   -4.6617201    337.73829  0.062544127  0.063932143            3 
  451000    1.1667241   -4.6200765    339.01169   0.06264074  0.063925406            3 
  452000    1.1476837   -4.6531708    340.89714  0.062849768  0.063920173            5 
  453000    1.1712756   -4.6887788    341.53686  0.062828708  0.063918049            2 
  454000     1.176566   -4.6409662     343.2462  0.063004074  0.063916629            1 
  455000    1.1616732   -4.6466505    344.39395  0.063075814  0.063916482            2 
  456000     1.177452   -4.6555224    344.03106  0.062871174   0.06391523            1 
  457000    1.1861761   -4.6359693    346.06748  0.063104938  0.063915044            3 
  458000     1.168276   -4.7042156    345.24162  0.062816889  0.063913579            1 
  459000    1.1730469   -4.6638917    345.51315  0.062729329  0.063909653            3 
  460000    1.1813205   -4.6726729    347.12625  0.062885191  0.063906243            2 
  461000    1.1907199   -4.6625403     346.3643  0.062611046  0.063902233            2 
  462000    1.1702973   -4.6793401    347.01006  0.062592002  0.063899561            2 
  463000    1.1706421   -4.6514196    350.00108  0.062995155   0.06389752            1 
  464000    1.1599676    -4.660562    350.27579  0.062908727   0.06389571            1 
  465000    1.1793609    -4.674385    350.17867  0.062756035  0.063893022            2 
  466000    1.1852976   -4.6294681    352.01136  0.062949099  0.063890142            3 
  467000      1.20114   -4.6232839    351.81534  0.062779325  0.063887582            2 
  468000    1.1708152   -4.6830627    352.76378  0.062814063  0.063883577            2 
  469000     1.180389   -4.6457228     353.6134  0.062831094  0.063879869            2 
  470000    1.1679386   -4.6405007    354.85688  0.062917887  0.063875912            2 
  471000    1.1522219   -4.6782125    353.84736   0.06260569  0.063871181            4 
  472000     1.198233   -4.6759925    355.31561  0.062732277  0.063867975            2 
  473000    1.1730082   -4.6774506    356.01417  0.062722722  0.063864952            2 
  474000    1.1573889   -4.6814416    356.75561  0.062720747  0.063861425            4 
  475000     1.190119   -4.6379632    359.35861   0.06304537  0.063858726            2 
  476000     1.181245    -4.654382    360.75473   0.06315734  0.063857591            4 
  477000    1.1819189   -4.6764993    361.32229   0.06312409  0.063854996            6 
  478000    1.1848755   -4.6266663    360.41894  0.062834543  0.063852889            3 
  479000    1.1845233   -4.6871139    360.14869  0.062656349  0.063849723            3 
  480000    1.1955537   -4.6430142     362.6061  0.062952447  0.063847024            1 
  481000    1.1785019   -4.6395868    363.82925   0.06303348  0.063844463            4 
  482000    1.1955952   -4.6605533    361.98296    0.0625835  0.063841104            3 
  483000    1.1725469   -4.7075384    362.35327  0.062517817    0.0638351            4 
  484000     1.198354   -4.6688267    363.88288  0.062652011  0.063829482            3 
  485000    1.1763087   -4.6881638    364.70762   0.06266454  0.063823418            3 
  486000    1.1792213   -4.6559773    365.33772  0.062643642  0.063818464            1 
  487000    1.1926397   -4.6461294    365.84556   0.06260191  0.063812066            4 
  488000    1.1727286   -4.6965215    365.58481  0.062429099  0.063805187            1 
  489000    1.1631693    -4.683399    366.28886  0.062421415  0.063797952            2 
  490000    1.1954068   -4.6800262    366.99634  0.062414344   0.06378954            2 
  491000    1.1966876   -4.6678953    367.06716  0.062299247  0.063781191            2 
  492000    1.1621778   -4.6817543     367.7228  0.062283671  0.063771691            2 
  493000    1.1856617   -4.6653873    369.28306  0.062421071  0.063761995            2 
  494000    1.1735411   -4.6397059    370.43783  0.062489512  0.063754199            1 
  495000    1.1535922   -4.6392519    371.52769  0.062546749  0.063746332            4 
  496000    1.1881438   -4.6879426    371.15092  0.062357345  0.063738721            2 
  497000    1.1662147   -4.6620939    372.87444  0.062520866  0.063729855            4 
  498000    1.1736336   -4.6665421    371.77528  0.062211393  0.063721511            2 
  499000    1.2051195   -4.6240922    374.78537  0.062589408  0.063714441            4 
  500000     1.149705    -4.667041    374.41049  0.062401749  0.063706516            2 
  501000    1.1696889   -4.6378509    375.71902  0.062494848  0.063699028            2 
  502000     1.171799   -4.7019612    374.14868  0.062109674  0.063690984            2 
  503000    1.1609912   -4.6778671    376.40974  0.062360792  0.063683628            1 
  504000    1.2032109   -4.6296267    377.08569  0.062348824  0.063676462            2 
  505000    1.1814171   -4.6182475    379.87987  0.062686447  0.063669339            2 
  506000     1.157429   -4.6736134    378.03375  0.062258522  0.063662739            1 
  507000    1.1760563   -4.6939567    378.67002  0.062240306  0.063654833            2 
  508000    1.1581958   -4.6851541    380.65744  0.062443806  0.063647166            2 
  509000    1.1782886   -4.6581086    380.96957  0.062372229  0.063641484            2 
  510000    1.1600323   -4.6580901    382.22935  0.062455776  0.063634654            2 
  511000    1.1833835   -4.6422765    381.89567  0.062279138  0.063627595            3 
  512000     1.187286   -4.6944986    380.95317  0.062004097  0.063621132            3 
  513000    1.1785333   -4.6969976    384.33565  0.062432691  0.063614035            2 
  514000    1.1752542    -4.673484    384.33006   0.06231032  0.063607077            2 
  515000    1.1772353   -4.6773942    385.54303  0.062385604  0.063601158            2 
  516000    1.1842848   -4.6614518    387.54592  0.062588165  0.063595503            2 
  517000    1.1476832   -4.6713331    388.33423   0.06259417  0.063589034            6 
  518000    1.1702492   -4.6898525    386.47034  0.062173479  0.063583163            2 
  519000    1.1897385   -4.6565685    389.60263   0.06255662  0.063575907            1 
  520000    1.1711183   -4.6562151    390.01246  0.062501997  0.063568529            2 
  521000    1.1507001   -4.6880909    388.77421  0.062183975  0.063561547            3 
  522000    1.1736108    -4.670648    390.96035  0.062413848  0.063554529            1 
  523000     1.147582   -4.7038818    389.73159  0.062098723  0.063545572            3 
  524000     1.180152   -4.6840088    389.70837  0.061976521  0.063535664            2 
  525000    1.1796549   -4.7080509    389.68292  0.061854431  0.063525066            2 
  526000    1.1814459   -4.6967808    389.89086  0.061769781  0.063513681            3 
  527000    1.1660482   -4.6982588    390.44724  0.061740551   0.06350254            3 
  528000    1.1781342   -4.6734973    393.13925  0.062048493  0.063490908            1 
  529000    1.1655465   -4.7094671    390.94965  0.061586271  0.063478491            6 
  530000    1.1594424   -4.7005497    392.89073  0.061775271  0.063465707            5 
  531000    1.1957649   -4.6694538    393.70167    0.0617862  0.063453623            3 
  532000    1.1571231   -4.6808539    394.37299  0.061775217  0.063441383            2 
  533000    1.1592818   -4.6468596    395.37463  0.061815921  0.063429817            2 
  534000    1.1628913   -4.6862439    395.99176  0.061796467  0.063417234            4 
  535000    1.1730744   -4.6650615    397.01184   0.06183985  0.063404532            3 
  536000    1.1633698   -4.6903921    396.72157  0.061679349  0.063391632            2 
  537000    1.1695632   -4.7188128    397.33221   0.06165925  0.063378192            4 
  538000    1.1448789   -4.6980084    397.13427  0.061513982  0.063364578            3 
  539000    1.1883071   -4.6881311    398.26594  0.061574821   0.06335194            4 
  540000    1.1513207   -4.6673662    400.39632  0.061789555  0.063338443            2 
  541000    1.1910204    -4.671519    399.72108  0.061571331  0.063323424            4 
  542000     1.179672   -4.6868059     401.9496  0.061800369  0.063308938            5 
  543000    1.1766032   -4.6828794    400.28852  0.061431634  0.063294912            4 
  544000    1.1808582    -4.658735    401.80599  0.061551163  0.063280009            2 
  545000    1.1673741   -4.6657483    402.49008  0.061542825  0.063266298            2 
  546000    1.1519387   -4.6911155    401.52537  0.061282871  0.063251283            3 
  547000    1.1737587   -4.6579542    403.37786  0.061453056   0.06323652            2 
  548000    1.1806725   -4.7076277    403.14445  0.061305421  0.063221836            2 
  549000    1.1784138   -4.6943408    405.03313  0.061480438  0.063207412            4 
  550000    1.1417131   -4.6971611    406.23435  0.061550659  0.063193975            2 
  551000    1.1764373   -4.7068311    405.57754  0.061339616   0.06318009            2 
  552000    1.1776918   -4.6882472    408.24543  0.061631254  0.063166379            2 
  553000    1.1865936   -4.6907083    409.05192  0.061641339  0.063152919            2 
  554000    1.1741899   -4.7138877     408.8548  0.061500421  0.063139526            5 
  555000    1.1631143   -4.6981531    407.25979  0.061150119  0.063126375            2 
  556000    1.1742023   -4.6821238    410.48199   0.06152308  0.063113327            2 
  557000    1.1660632   -4.6623103    411.37256  0.061545865  0.063100602            2 
  558000    1.1600301   -4.6605722    413.31861  0.061726196  0.063086753            3 
  559000    1.1890133    -4.644752    411.98931  0.061417607  0.063072634            2 
  560000    1.1483908   -4.7091216     411.0471  0.061167723  0.063058745            4 
  561000    1.1794888   -4.6967667    412.13939  0.061220944  0.063044564            3 
  562000    1.1526872   -4.6793373    414.42357  0.061450707  0.063031667            1 
  563000    1.1519376   -4.6753149    415.98877  0.061573234  0.063018962            2 
  564000     1.132295    -4.684309    415.51848  0.061394575  0.063004776            5 
  565000    1.1383013   -4.6641473    416.75929  0.061468921  0.062991422            2 
  566000    1.1694993   -4.6759345    417.83255  0.061518338  0.062978581            3 
  567000    1.1755187   -4.7018799    416.93535  0.061277976  0.062965462            6 
  568000    1.1734322   -4.7062466     418.0545  0.061334287  0.062950844            2 
  569000    1.1789812   -4.6529483    418.16529  0.061242719   0.06293738            1 
  570000    1.1701771   -4.6980303    418.96575  0.061252302  0.062923794            2 
  571000    1.1603379   -4.6972499    419.14016  0.061170484  0.062909888            1 
  572000    1.1702706   -4.6883692     420.7884  0.061303671  0.062896623            2 
  573000    1.1460852   -4.6556331    422.86024  0.061497999  0.062883817            2 
  574000    1.1408722   -4.7104819    422.22424  0.061298525  0.062870514            4 
  575000    1.1889611   -4.6721591    422.69918   0.06126075  0.062857476            4 
  576000     1.148333   -4.7010062     422.4758  0.061122077  0.062842804            3 
  577000    1.1593866    -4.706511    423.31863  0.061137872  0.062829789            4 
  578000    1.1571053   -4.7124188    423.34405  0.061035763  0.062815647            3 
  579000    1.1242538    -4.645969    425.56999  0.061250718   0.06280194            3 
  580000      1.16755   -4.7173971    424.65064  0.061013022  0.062787354            2 
  581000    1.1757183   -4.6840902     425.0382  0.060963598  0.062772373            2 
  582000    1.1414879   -4.7007436    424.15981  0.060733077  0.062756415            3 
  583000    1.1555982   -4.6900743    426.75139  0.060999342  0.062741299            3 
  584000    1.1574041   -4.7579377    426.79134   0.06090059  0.062727652            4 
  585000    1.1458702   -4.7165515    428.73302   0.06107308  0.062712464            2 
  586000    1.1336076   -4.6975048    428.47176  0.060931707  0.062698934            3 
  587000     1.142687   -4.6669663    432.64759  0.061420726   0.06268556            2 
  588000    1.1661146   -4.6960653    431.28176  0.061122699  0.062672892            2 
  589000    1.1516605   -4.6874868    432.14528  0.061141098  0.062660732            4 
  590000    1.1778409    -4.699706    432.93037  0.061148358  0.062647657            2 
  591000    1.1691056   -4.7038158    433.11562  0.061071012  0.062634302            2 
  592000    1.1551933   -4.6777793    434.93865  0.061224473  0.062621014            2 
  593000    1.1447283   -4.7073652    435.01419  0.061131842  0.062607635            3 
  594000    1.1445048   -4.6856738     434.8175  0.061001333  0.062593769            1 
  595000    1.1602031   -4.6823271    436.53921  0.061139945   0.06258101            1 
  596000    1.1398602   -4.6988554    437.67843  0.061196648  0.062569097            3 
  597000    1.1396908   -4.6796233    437.19662  0.061026887  0.062555707            2 
  598000    1.1592254   -4.6903818    437.26793  0.060934773  0.062541926            1 
  599000    1.1456424    -4.728553    438.24746  0.060969318  0.062527188            3 
  600000    1.1283532   -4.6945289    439.61105  0.061057091   0.06251331            3 
  601000    1.1704709   -4.7219497     440.0682  0.061018885  0.062499458            2 
  602000    1.1629466   -4.6941676    439.46373   0.06083385  0.062485138            2 
  603000    1.1726631   -4.7104653    439.36249  0.060718973  0.062470646            3 
  604000    1.1769069   -4.6966549    443.65071  0.061210087  0.062456542            2 
  605000    1.1727447   -4.6940543    441.60736   0.06082746  0.062443188            2 
  606000    1.1389334   -4.7184942    441.39706  0.060698165  0.062428447            1 
  607000    1.1463811   -4.6837624    443.49916   0.06088676   0.06241497            3 
  608000    1.1820475   -4.6961599    445.56089  0.061069201  0.062401513            2 
  609000    1.1396137   -4.7212025    445.53944  0.060965988  0.062388188            2 
  610000    1.1296355   -4.6872982    443.98741  0.060654018  0.062374744            4 
  611000    1.1602788   -4.7212023    445.70531   0.06078905  0.062360853            2 
  612000      1.13635   -4.6993516    445.46581  0.060657109  0.062346985            1 
  613000    1.1372348   -4.7040614     446.4924  0.060697716  0.062333117            1 
  614000    1.1640536   -4.7083665    446.57759  0.060610422  0.062318475            2 
  615000    1.1631046   -4.6838133    449.30854  0.060881916  0.062304671            3 
  616000    1.1284539   -4.7492635    447.71373  0.060567334  0.062290007            3 
  617000    1.1303256   -4.6812523    450.60315  0.060859421  0.062275646            4 
  618000    1.1525168   -4.6779807    452.15213  0.060969812  0.062261541            1 
  619000    1.1698937   -4.7144581     449.7088   0.06054238  0.062247484            3 
  620000    1.1656357   -4.6990814     450.9023  0.060605148   0.06223335            2 
  621000    1.1656122   -4.7159176    452.77901  0.060759395  0.062219601            2 
  622000    1.1498417   -4.6742509    454.60294  0.060906074  0.062205403            3 
  623000    1.1383675   -4.6953798    455.80431  0.060969009  0.062191157            2 
  624000    1.1436166   -4.6882041    456.16575  0.060919571  0.062177457            3 
  625000    1.1454424   -4.6711428    455.74126  0.060765501  0.062164528            2 
  626000    1.1538357   -4.6923313    457.16459  0.060857905  0.062151309            2 
  627000    1.1395632   -4.6817049    458.55817  0.060946062  0.062138155            2 
  628000     1.137589   -4.6762524    460.50785   0.06110773  0.062126523            2 
  629000    1.1538294   -4.7080165    459.22266   0.06084031  0.062115013            1 
  630000    1.1578608   -4.7093838    459.81466  0.060822046  0.062103707            2 
  631000    1.1521716   -4.6949785    460.75134  0.060849357   0.06209259            1 
  632000    1.1803819    -4.731562    459.65935  0.060609091  0.062081175            4 
  633000    1.1676635    -4.698022    461.38883  0.060741026   0.06206937            2 
  634000    1.1546246   -4.7110863    461.99379  0.060724735  0.062057119            3 
  635000    1.1395912   -4.7001646    462.63477  0.060713225  0.062045158            3 
  636000    1.1478573   -4.6643668    463.06752  0.060674465  0.062031532            4 
  637000    1.1423859   -4.7004788    463.98135  0.060698763   0.06201911            5 
  638000    1.1563355   -4.7132236    463.16529  0.060497033  0.062005999            3 
  639000    1.1564056   -4.6880195    464.92278  0.060631557  0.061993978            3 
  640000    1.1490897    -4.708169    467.03278  0.060811559  0.061981878            2 
  641000    1.1328509   -4.7046701    466.69391  0.060672635  0.061968621            2 
  642000    1.1431311   -4.7099023    467.17529  0.060640614  0.061955453            3 
  643000    1.1390534   -4.7134915    466.99322  0.060522709  0.061943317            3 
  644000     1.140509   -4.7041704    466.59059  0.060376628  0.061930159            1 
  645000    1.1773505   -4.6894405     467.8119  0.060440813  0.061916926            5 
  646000    1.1461119   -4.7250796     467.3141  0.060283037  0.061902682            2 
  647000    1.1344328   -4.7378723     470.6947  0.060625283  0.061888836            3 
  648000    1.1646391   -4.7237426    469.96056  0.060437315  0.061876258            2 
  649000    1.1419508   -4.7045249    472.76145  0.060703832   0.06186347            3 
  650000    1.1384268   -4.6802412    473.84607  0.060749496  0.061852166            6 
  651000    1.1482813   -4.6782418    474.15018  0.060695108   0.06184039            2 
  652000    1.1574363   -4.6694192    475.01465  0.060712506  0.061828952            2 
  653000    1.1884404   -4.7152782    475.78387  0.060717697  0.061816375            4 
  654000    1.1425598   -4.7134738    472.78159  0.060242303  0.061803956            3 
  655000    1.1566606   -4.7171732    475.33345  0.060474994  0.061791374            1 
  656000    1.1360281   -4.6969336    475.71799  0.060431656  0.061779193            2 
  657000     1.130232   -4.7355745    475.52484  0.060315175  0.061767311            2 
  658000    1.1551591   -4.7024329      477.945  0.060530016  0.061754918            2 
  659000    1.1339768   -4.6669326    479.93625  0.060689966  0.061742635            2 
  660000    1.1333239   -4.7168048    479.42911  0.060533979  0.061730498            8 
  661000    1.1690138   -4.7123181     478.9793  0.060385691  0.061717644            5 
  662000    1.1383726   -4.7101046    479.04385  0.060302599  0.061705404            2 
  663000    1.1377033   -4.7173653     481.4135   0.06050949  0.061692818            2 
  664000    1.1467153   -4.7425336    481.38894  0.060415278  0.061680119            2 
  665000    1.1497597   -4.7317986      483.583  0.060599374  0.061668308            2 
  666000    1.1395546   -4.7273137    482.23185  0.060339321  0.061655431            1 
  667000     1.155689   -4.7007177    482.54106  0.060287488  0.061642937            2 
  668000     1.154977   -4.7156695     483.2951  0.060291305  0.061629772            2 
  669000    1.1365692   -4.6989741    485.08361  0.060423967  0.061617355            2 
  670000    1.1616606    -4.720351    486.39672  0.060497104  0.061604038            3 
  671000    1.1526367   -4.7546731    484.84861  0.060214681  0.061591427            6 
  672000    1.1285635   -4.7107855     489.3659  0.060685255  0.061580586            4 
  673000    1.1430417    -4.710621    487.59005  0.060375192  0.061569688            2 
  674000    1.1536324   -4.7258024    488.05035  0.060342525  0.061559067            4 
  675000    1.1163079   -4.7160949     488.8811  0.060355691  0.061547921            2 
  676000    1.1321677    -4.700185    489.83622   0.06038415  0.061536765            4 
  677000    1.1381593   -4.7283029    489.69299  0.060277325  0.061525555            4 
  678000    1.1307873   -4.7384335      490.852  0.060330875   0.06151457            3 
  679000    1.1322535   -4.7161629     494.0578  0.060635468  0.061503749            2 
  680000    1.1619933   -4.7020208    493.51679  0.060479999  0.061493951            3 
  681000    1.1415221   -4.6936793    495.76065  0.060665767  0.061485214            4 
  682000    1.1297848   -4.7090866    495.04989  0.060489967  0.061476377            2 
  683000    1.1065877   -4.6999977    496.56009  0.060585663  0.061466847            2 
  684000    1.1226978   -4.6930268    498.15296   0.06069115  0.061458046            3 
  685000    1.1380213   -4.7195352    497.77821   0.06055696  0.061449333            5 
  686000    1.1324365   -4.7368613    499.77879  0.060711709  0.061439787            2 
  687000    1.1477853   -4.7194817    499.20164  0.060553329  0.061430447            1 
  688000    1.1357362   -4.7294684    498.26458  0.060351814  0.061421149            2 
  689000    1.1564465   -4.7431058    500.25074  0.060504443  0.061411852            1 
  690000    1.1402309   -4.7262793    499.13558  0.060282075  0.061401647            1 
  691000     1.155979   -4.7153574    501.99385  0.060539538  0.061391649            2 
  692000    1.1228176   -4.7096775    500.75119  0.060302408  0.061382157            2 
  693000    1.1410191    -4.733419     504.3537  0.060648593  0.061373329            3 
  694000    1.1299427   -4.6997205    505.79534   0.06073431  0.061365081            2 
  695000    1.1311166   -4.7128431     507.5465  0.060856895   0.06135721            2 
  696000    1.1357356   -4.7149768    506.75236  0.060674373  0.061349601            2 
  697000     1.136182   -4.7437627    503.08687  0.060149076   0.06134156            5 
  698000    1.1250008   -4.6881043    509.54176  0.060833543  0.061333461            1 
  699000    1.1627149   -4.7259009    507.85765  0.060545737  0.061325077            2 
  700000    1.1521156   -4.7290826    509.81288   0.06069201   0.06131674            3 
  701000    1.1468392   -4.7513473    508.57448  0.060458213  0.061308262            1 
  702000    1.0934046   -4.7242215    510.34266  0.060581987  0.061299301            2 
  703000    1.1372727   -4.7187442    510.39998  0.060502606  0.061290041            2 
  704000    1.1568177   -4.7240139    511.22174  0.060513937  0.061280307            2 
  705000    1.1415095   -4.7210601    510.75267  0.060372656  0.061270985            2 
  706000    1.1086511   -4.7453835    511.03455  0.060320414  0.061261685            3 
  707000    1.1471874   -4.7115441    513.27161  0.060498775  0.061252004            1 
  708000    1.1428966   -4.7397297    512.24277  0.060292228   0.06124145            3 
  709000    1.1459255   -4.7258903    511.87039  0.060163421  0.061231439            4 
  710000    1.1216229   -4.7209428    514.02791  0.060331914  0.061221299            5 
  711000    1.1400837   -4.7398955    514.81831  0.060339699  0.061211317            3 
  712000    1.1623936   -4.7230128     514.8329   0.06025666  0.061200984            4 
  713000    1.1326718   -4.7459234    514.48533  0.060131525  0.061191316            3 
  714000    1.1368605   -4.7177189    517.04066  0.060345548   0.06118176            3 
  715000     1.147329   -4.7464957    516.99059  0.060255314  0.061171625            2 
  716000    1.1560298   -4.7039755     517.1914  0.060194529  0.061160709            6 
  717000    1.1226288   -4.7322165    515.09273  0.059866659  0.061149313            7 
  718000    1.1171613   -4.7493701    517.79201  0.060096566  0.061138522            4 
  719000    1.1259418   -4.7366746    520.06336  0.060276235  0.061126943            2 
  720000     1.121856   -4.7351585    521.08371  0.060310615  0.061116361            2 
  721000    1.1349961   -4.7576444    520.60506  0.060171644  0.061105925            2 
  722000    1.1113575   -4.7014394    521.72002  0.060216992  0.061095989            3 
  723000    1.1406717   -4.7333278    522.01024  0.060167156  0.061085949            5 
  724000    1.1409642   -4.7453202    521.74044  0.060052998  0.061075154            4 
  725000    1.1446729   -4.7165262    523.92823  0.060221635  0.061064203            2 
  726000    1.1312284   -4.7259304    525.13144  0.060276795  0.061052974            2 
  727000    1.1309205   -4.7622115    523.33114  0.059987521  0.061041974            4 
  728000    1.1156387   -4.7313377    523.61075  0.059937128  0.061030878            3 
  729000    1.1392781   -4.7034851    524.91488  0.060003987  0.061020005            3 
  730000    1.1174179   -4.7477218    523.82864   0.05979779  0.061008787            2 
  731000    1.1185197   -4.7087747    526.99529  0.060076982  0.060997206            2 
  732000    1.1198013   -4.6763728    527.60003  0.060063756  0.060985447            5 
  733000    1.1131496   -4.7306692    529.52291  0.060200422  0.060974231            3 
  734000    1.1137554   -4.7266407    529.76086   0.06014542  0.060962437            6 
  735000    1.1548245    -4.752686    529.01855  0.059979428  0.060951161            2 
  736000    1.1389958   -4.7465564    531.04268  0.060127115  0.060940244            2 
  737000    1.1150035   -4.7657334    529.14116  0.059830524  0.060929243            6 
  738000    1.1179681   -4.7515093    529.93047   0.05983858  0.060917934            2 
  739000     1.138891    -4.717377    531.70736  0.059957979  0.060906322            3 
  740000    1.1237716   -4.7543441    531.18351  0.059817963  0.060894565            3 
  741000    1.1164422   -4.7301608    532.35526  0.059869012  0.060883391            1 
  742000    1.1681629   -4.7180757    531.80125  0.059726106  0.060872117            2 
  743000    1.1440233   -4.7085388    533.84913  0.059875407  0.060860239            2 
  744000    1.1493159   -4.7824675    531.44173  0.059525283  0.060848228            2 
  745000    1.0893113   -4.7460337    534.29927  0.059765019  0.060835959            4 
  746000    1.1282879   -4.7446451    532.72251   0.05950877   0.06082258            2 
  747000    1.1505517   -4.7463367    532.76956  0.059434355  0.060809892            3 
  748000    1.1408528   -4.7610196    532.02436  0.059271877  0.060796103            4 
  749000    1.1302634   -4.7248594    533.67761  0.059376681  0.060782559            3 
  750000    1.1355702   -4.7708199    534.20145  0.059355717   0.06076764            3 
  751000    1.1519798   -4.7737945     532.8427   0.05912591  0.060753603            1 
  752000     1.154364   -4.7391545     537.6388  0.059578767  0.060741121            2 
  753000    1.1447283   -4.7053601     536.7565  0.059402003  0.060728082            2 
  754000    1.1501669   -4.7573321    538.13727  0.059475825  0.060714516            3 
  755000     1.131329   -4.7496865    538.43467  0.059429875  0.060701015            4 
  756000    1.1115923   -4.7407211    541.15904  0.059651569  0.060687765            1 
  757000    1.1246968   -4.6929644    541.59864  0.059621163  0.060674546            2 
  758000    1.1281833    -4.664028    545.10277  0.059927745  0.060662561            2 
  759000    1.1501594   -4.7521319    540.90317    0.0593877  0.060650423            6 
  760000    1.1387699    -4.771141    543.50817  0.059595194  0.060637641            2 
  761000    1.1210196   -4.7838209    540.65311  0.059204239  0.060624701            1 
  762000    1.1367025   -4.7605125    545.05095  0.059607496  0.060612391            2 
  763000    1.1226844   -4.7298407    546.41417  0.059678263  0.060600385            1 
  764000     1.136537   -4.7344493    545.69857  0.059522095  0.060588409            2 
  765000    1.1410302   -4.7244702    547.67972    0.0596601  0.060576837            3 
  766000    1.1132357   -4.7160198    547.68393  0.059582673  0.060564556            3 
  767000    1.1319999   -4.7463903    546.77037  0.059405733    0.0605526            2 
  768000    1.1322871   -4.7436519    548.14595  0.059477642  0.060540869            2 
  769000    1.1166635   -4.7580849     549.1163  0.059505451  0.060528994            4 
  770000    1.1476834   -4.7378581    551.06095   0.05963863  0.060517905            3 
  771000    1.1424026   -4.7337111    550.59369  0.059510774  0.060506589            2 
  772000    1.1249034   -4.7685084    550.00938  0.059370615  0.060495189            3 
  773000    1.1297908   -4.7324195    551.35603  0.059438986  0.060484283            3 
  774000    1.1416391   -4.7742861    551.65537   0.05939442  0.060472567            1 
  775000    1.1098655   -4.7663027     553.5996  0.059526839  0.060461221            4 
  776000    1.1419612   -4.7416551    552.35249  0.059316203  0.060449935            2 
  777000    1.1163429   -4.7538117     552.4579   0.05925117  0.060439083            2 
  778000    1.1224724   -4.7822518    552.70638  0.059201626  0.060427731            2 
  779000    1.1366342   -4.7332731     555.3233  0.059405574  0.060415945            4 
  780000    1.1547311   -4.7753609     555.2154  0.059317885  0.060404259            1 
  781000    1.1458366   -4.7562481    553.56964  0.059066329  0.060392617            3 
  782000    1.1306794   -4.7475759    558.18318  0.059482436  0.060381199            2 
  783000    1.1471443     -4.70941    557.78055  0.059363618  0.060370266            4 
  784000    1.1078048   -4.7560743    559.95227  0.059518736  0.060359659            4 
  785000    1.1217913   -4.7522753    562.66638  0.059731038  0.060349167            1 
  786000    1.1222875    -4.719477    562.49432  0.059636802  0.060338194            6 
  787000    1.1291861   -4.7420269    560.17621  0.059315566  0.060327258            3 
  788000    1.1448839   -4.7416701    563.84234  0.059627997  0.060315927            1 
  789000    1.1290654   -4.7451725    561.60293  0.059315898  0.060304302            2 
  790000    1.1354868   -4.7556983     562.6977  0.059356297  0.060293191            2 
  791000    1.1386649   -4.7175489    564.32359  0.059452549  0.060281863            2 
  792000    1.0825696   -4.7554342    563.95262  0.059338449   0.06026992            3 
  793000    1.1396028   -4.7759082    561.98467  0.059056817  0.060258159            3 
  794000    1.1367899   -4.7438188    564.03939  0.059198088  0.060245923            1 
  795000    1.1184478   -4.7743757    561.40352  0.058847329  0.060232439            2 
  796000     1.122649   -4.7675188    562.63354  0.058902172  0.060219088            2 
  797000    1.1521117   -4.7474684     562.2203  0.058785058  0.060205882            3 
  798000    1.1202112   -4.7971496    562.18212  0.058707406  0.060192083            3 
  799000    1.1131659   -4.7705685    564.21083  0.058845518  0.060177976            3 
  800000    1.1269643   -4.7271921    567.36131  0.059100137  0.060164847            1 
  801000     1.138079   -4.7810903    566.85241   0.05897341  0.060151012            2 
  802000    1.1192533   -4.7397071    569.13945  0.059137515  0.060137678            3 
  803000    1.1215763   -4.7343278    568.23131  0.058969626  0.060124174            2 
  804000    1.1364174   -4.7993987    566.58681   0.05872583   0.06011064            2 
  805000    1.1334647   -4.7507662    569.37196  0.058941196  0.060096545            3 
  806000    1.1175468   -4.7747707    569.94429  0.058927242  0.060083232            6 
  807000    1.1144493   -4.7634217    568.70602  0.058726354  0.060069719            2 
  808000    1.1461177   -4.7348974    571.84268  0.058977174  0.060057365            2 
  809000    1.1217106   -4.7963816    572.18082  0.058939104  0.060044751            3 
  810000    1.1413838   -4.7437653    571.87354  0.058834727  0.060031315            3 
  811000    1.0866035   -4.7214803    573.32732  0.058911562  0.060018429            2 
  812000    1.1334546   -4.7395341     575.6486  0.059077237  0.060005516            2 
  813000    1.1164209   -4.7920191    572.69594  0.058701921  0.059991768            1 
  814000    1.1241312   -4.7441914    575.44062  0.058910792  0.059978057            4 
  815000     1.112068   -4.7455718    574.10483  0.058701925  0.059965021            1 
  816000    1.1031384    -4.754982    575.19168  0.058740981  0.059951431            3 
  817000    1.1128078   -4.7331594     577.6357   0.05891837  0.059937428            2 
  818000    1.1084628    -4.775838    576.03969   0.05868375  0.059923247            3 
  819000    1.1144283    -4.768005     578.3665   0.05884885   0.05991033            3 
  820000    1.1234774   -4.7845003     576.4403  0.058581331  0.059896586            4 
  821000    1.1030218   -4.7123784     581.1475  0.058987769  0.059882356            2 
  822000    1.1422232   -4.7381075    580.61353  0.058861874  0.059868903            2 
  823000    1.1146306   -4.7631631    577.47752  0.058472815  0.059855344            3 
  824000    1.1265713   -4.7546339    579.55308  0.058611759  0.059841284            1 
  825000    1.1296846   -4.7954772    577.66247  0.058349744  0.059827009            2 
  826000    1.1234323   -4.7715793    582.35706   0.05875273  0.059812862            4 
  827000    1.1096317   -4.7718019    580.91658  0.058536536  0.059798843            4 
  828000    1.1368958   -4.7818283    581.48164  0.058522709  0.059784155            3 
  829000    1.1164534   -4.7589386    583.81411  0.058686581  0.059770411            4 
  830000    1.1198778   -4.7456401     584.8586  0.058720743  0.059756517            2 
  831000      1.09837   -4.7512496    584.73259  0.058637444  0.059742316            2 
  832000    1.1223449   -4.7707952    583.37051   0.05843054  0.059727604            1 
  833000    1.1261561   -4.7727285     585.5092   0.05857435  0.059713663            5 
  834000     1.111901   -4.7334066     585.0311  0.058456345  0.059699583            2 
  835000    1.1410463   -4.7184393    586.94211  0.058577057  0.059685895            2 
  836000    1.1055045   -4.7351892    586.64367   0.05847724  0.059671535            3 
  837000    1.1452362   -4.7570608    585.53942  0.058297434  0.059656983            3 
  838000    1.1066753   -4.7749138    585.17656  0.058191782  0.059642074            4 
  839000     1.099528   -4.7589138    587.57313  0.058360461  0.059626879            3 
  840000    1.1052089   -4.7809756    588.26017  0.058359144  0.059611749            3 
  841000    1.1017633   -4.7288229    589.58937  0.058421459  0.059596553            2 
  842000    1.1367614   -4.7773943    587.14001  0.058109661  0.059581091            4 
  843000    1.1063605   -4.7600746    588.05992  0.058131664   0.05956602            2 
  844000     1.116705     -4.75973    589.56097  0.058210996  0.059550633            1 
  845000    1.1204982   -4.7589933    589.69565   0.05815539  0.059535756            3 
  846000    1.1202879   -4.7768743    591.49239  0.058263631  0.059520893            3 
  847000    1.1212656   -4.7430149    590.79675  0.058126402  0.059505097            2 
  848000    1.1078184   -4.7999545    591.42012  0.058119116  0.059489948            4 
  849000    1.1146563   -4.8062531    592.54244   0.05816082  0.059474957            1 
  850000    1.1066304   -4.7760551    592.84866  0.058122418  0.059460164            4 
  851000    1.1147542   -4.8061519    591.09997  0.057882879  0.059444375            2 
  852000    1.1205696   -4.7627717    594.60473   0.05815774  0.059428845            3 
  853000    1.1189898    -4.783773    593.59268  0.057990688  0.059413832            2 
  854000    1.1082711   -4.7193753    597.56668  0.058310566  0.059399476            3 
  855000    1.1184255    -4.789257    595.69661  0.058060098  0.059384616            3 
  856000    1.1339221   -4.7810256    596.31686  0.058052654  0.059369932            3 
  857000    1.1078811   -4.7412931    595.95186  0.057949422  0.059355264            3 
  858000    1.1165535   -4.7590705    599.20766  0.058198103  0.059340432            4 
  859000    1.1033835   -4.7489216    597.90827  0.058004294  0.059326149            2 
  860000    1.1276713   -4.7858557    600.04429  0.058143826  0.059311582            7 
  861000    1.1347214   -4.7645594    599.46034  0.058019777  0.059296931            2 
  862000    1.1114239   -4.7944549     598.2603  0.057836456   0.05928124            2 
  863000    1.0899405   -4.7412996    599.38263  0.057877813  0.059265711            2 
  864000    1.1012233   -4.7655593    601.63847  0.058028402  0.059250479            2 
  865000    1.1142952   -4.8014123    601.55446  0.057953224  0.059235296            2 
  866000    1.1024369   -4.7949629      602.565  0.057983545  0.059220274            4 
  867000    1.1308471   -4.8022265    601.94422  0.057856999  0.059204956            5 
  868000    1.1355452   -4.8187772    602.49977   0.05784368  0.059189922            2 
  869000    1.0834064   -4.7914476    604.00058  0.057921038  0.059174727            2 
  870000     1.118574   -4.7833161    603.32719  0.057789961  0.059160101            2 
  871000    1.1201086   -4.7545516    606.90501  0.058065922  0.059144988            3 
  872000    1.1153409   -4.7879289    605.04314  0.057821401  0.059130884            8 
  873000    1.1221814   -4.7883453    606.34928  0.057879848  0.059116288            5 
  874000    1.0838487   -4.7777694     606.6723  0.057844422   0.05910119            4 
  875000    1.1207439   -4.7727166    605.81642  0.057696802  0.059086323            3 
  876000    1.1072166   -4.7536104    607.58161  0.057798859  0.059071942            4 
  877000    1.0977483   -4.7628615    607.06607  0.057683967  0.059056762            2 
  878000    1.0979897   -4.7781683    608.46042  0.057750609  0.059042225            2 
  879000    1.1077131   -4.7954173    609.84984  0.057816632  0.059027701            3 
  880000    1.0692112   -4.7815819    612.38987  0.057991465  0.059013101            2 
  881000    1.1250524   -4.7748152    610.05856  0.057705123    0.0589989            5 
  882000    1.1188599   -4.7842897    610.90613  0.057719777  0.058984827            4 
  883000    1.1063069    -4.790258    612.95682  0.057847944  0.058970673            1 
  884000    1.1154314    -4.802858    613.75111  0.057857382  0.058956609            4 
  885000    1.0965505   -4.7906124    613.89134  0.057805211  0.058942954            3 
  886000    1.1112234   -4.7468572    616.60078  0.057994806  0.058928824            2 
  887000    1.0985426   -4.7832672    614.42668  0.057725167  0.058914863            2 
  888000    1.1032801    -4.770864    616.92467  0.057894582  0.058901687            2 
  889000    1.1109322   -4.7617738    620.52803  0.058167232  0.058888584            2 
  890000    1.1210534   -4.7906163    616.41308   0.05771658   0.05887515            1 
  891000    1.1273439   -4.7559945    621.58022  0.058135075  0.058862083            2 
  892000    1.1092411   -4.7926686    619.43438   0.05786943  0.058849413            4 
  893000      1.11681    -4.767085    623.00733  0.058138049  0.058836654            2 
  894000    1.0823604   -4.7705398    622.98787  0.058071204  0.058823957            3 
  895000    1.1095163   -4.7697468    622.79816  0.057988655  0.058811631            6 
  896000    1.1026709   -4.7420025     622.6538  0.057910509  0.058799307            2 
  897000    1.0984063   -4.7991822    623.27478   0.05790364  0.058786765            2 
  898000     1.102228    -4.785891     621.2343  0.057649805  0.058773983            2 
  899000    1.0997598   -4.8016815    623.45926  0.057791922   0.05876064            9 
  900000    1.0819291   -4.7554274    624.56593  0.057830178  0.058747313            4 
  901000     1.110341   -4.7652066     623.8305  0.057697975  0.058734083            2 
  902000    1.0903591   -4.7734927    625.64446  0.057801595  0.058720733            4 
  903000    1.1291881   -4.7903199    625.51005  0.057725179  0.058706939            2 
  904000     1.109993   -4.7943327    623.30547    0.0574581  0.058692919            3 
  905000    1.0905274   -4.7885143    623.36137  0.057399757  0.058678268            5 
  906000    1.1213201   -4.8007239    626.49836  0.057624941  0.058664053            2 
  907000    1.1104792   -4.7748077    626.50192  0.057561734  0.058648978            2 
  908000    1.0844742   -4.7995308    626.13501  0.057464667  0.058634739            2 
  909000    1.1185541   -4.7935517    626.18037  0.057405608  0.058620019            2 
  910000    1.1077957   -4.8212597    624.73561   0.05721022  0.058605304            4 
  911000     1.100282   -4.7833956    626.67555  0.057324877  0.058590436            3 
  912000    1.1159443   -4.7742054    628.92758  0.057467798  0.058575543            3 
  913000    1.1078454   -4.7650614    628.04717  0.057324495  0.058560502            4 
  914000    1.1028717   -4.7976157    628.05783  0.057262749  0.058545182            3 
  915000    1.1069182   -4.8124435    626.81993  0.057087425  0.058529956            3 
  916000    1.0984037   -4.7667279    628.88105  0.057212614  0.058514379            4 
  917000     1.105173   -4.7468261    631.81403   0.05741676  0.058499297            2 
  918000    1.1060001   -4.7872306    627.22019    0.0569372  0.058484084            6 
  919000     1.107213   -4.8048617    628.55671  0.056996437  0.058468429            2 
  920000    1.1217218   -4.7711412    628.58047  0.056936637  0.058452645            4 
  921000    1.1059322   -4.8149854     629.2133  0.056932076  0.058436402            5 
  922000    1.0973148   -4.8178242    629.27165  0.056875601   0.05842025            3 
  923000    1.1258233   -4.7796542    632.37096  0.057093803  0.058404391            1 
  924000    1.1024045   -4.8086241    631.94027   0.05699317  0.058388812            3 
  925000    1.0909726   -4.8454955    631.21824  0.056866508  0.058373179            3 
  926000    1.1049859   -4.8227279    631.95097  0.056871038  0.058357316            4 
  927000    1.1115956   -4.7631902     635.4563  0.057124802  0.058341976            2 
  928000    1.0843134   -4.7993908    631.92411  0.056746059  0.058326713            2 
  929000     1.094333   -4.8003361    636.39755  0.057086253  0.058311363            5 
  930000    1.0988716   -4.7854203    636.04403  0.056993192  0.058296503            3 
  931000    1.0856867    -4.800007    635.99089  0.056927219  0.058281333            2 
  932000    1.1100216   -4.7946114    639.16749  0.057150169  0.058266086            4 
  933000    1.1104434   -4.8183191    639.12974  0.057085543  0.058250948            2 
  934000    1.0903269   -4.8198195    640.03934   0.05710558  0.058236121            2 
  935000    1.1100872   -4.8155156    640.46599   0.05708253   0.05822169            3 
  936000     1.116495   -4.8103087    640.42275  0.057017695  0.058207037            8 
  937000    1.0982007   -4.8130481    642.70792  0.057160078  0.058192312            2 
  938000    1.1222436   -4.8228625    640.09455  0.056866964  0.058177541            3 
  939000    1.0803557   -4.7793661    642.22066  0.056995089  0.058162538            3 
  940000    1.0920037   -4.8149563    643.66436  0.057062443  0.058147252            2 
  941000    1.1048215   -4.7908406    644.54135  0.057079467  0.058132195            2 
  942000    1.1064178   -4.8172029    644.30523  0.056997985  0.058117164            3 
  943000    1.0861561   -4.8565216    643.85493  0.056897749  0.058101819            3 
  944000    1.1007222   -4.7993293    644.17642  0.056865857  0.058086554            2 
  945000     1.106883   -4.8239098    647.72389  0.057118508  0.058071971            4 
  946000    1.1080502   -4.7960442    646.65658   0.05696411  0.058057235            3 
  947000    1.0757351    -4.835998    643.85021  0.056657005  0.058042455            5 
  948000    1.1110428    -4.789783    646.58883  0.056837977  0.058027062            3 
  949000    1.1384213   -4.7856382    644.81768  0.056622557  0.058011865            3 
  950000    1.0865768   -4.7923412    648.30976  0.056869277  0.057995972            5 
  951000    1.1146027   -4.8007678    648.51093  0.056827106  0.057980684            2 
  952000    1.1222615   -4.7757056    650.15028  0.056910914   0.05796649            2 
  953000    1.0930334   -4.7660778    650.94486  0.056920677  0.057952004            3 
  954000    1.0872224   -4.7892139    651.62233  0.056920189  0.057937677            4 
  955000    1.1256983   -4.8051077    648.58713  0.056595735  0.057922758            3 
  956000    1.1066147   -4.7956494    651.31341  0.056774182  0.057908292            2 
  957000    1.1080259    -4.798664    651.63699  0.056743033  0.057893352            3 
  958000    1.0956622   -4.7853276    655.33961  0.057005881  0.057878468            4 
  959000    1.1177156   -4.8105569    656.06847  0.057009773  0.057864546            2 
  960000    1.0926182   -4.8026449    655.87352  0.056933465  0.057850601            3 
  961000    1.1074252   -4.8163137    654.22956  0.056731665  0.057835827            2 
  962000    1.0936514   -4.8118888     655.1442  0.056751923  0.057821827            4 
  963000    1.0974548   -4.7913814     654.4621  0.056633965  0.057807254            2 
  964000    1.0798703   -4.8045247    655.41952  0.056657981  0.057792132            2 
  965000    1.1019237   -4.8216726    654.70022  0.056537152  0.057777576            3 
  966000    1.1281943   -4.8047732    658.11518  0.056773221  0.057762844            3 
  967000    1.1129118   -4.7756065    658.70358  0.056765217  0.057748056            5 
  968000    1.0728851   -4.8078149    657.45718  0.056599275  0.057733164            4 
  969000    1.0903449   -4.7778875    657.22542  0.056520934  0.057718709            4 
  970000    1.1018785   -4.8197096    660.09907  0.056709542  0.057704774            2 
  971000    1.0860546   -4.8058759    660.09743  0.056650998   0.05769138            3 
  972000     1.094538   -4.7727564    661.43665  0.056707532  0.057677526            4 
  973000    1.0915282   -4.8185978    661.54441   0.05665848  0.057663598            5 
  974000    1.0919459    -4.815017    662.70681  0.056699762  0.057649495            3 
  975000    1.1086517   -4.8135007    661.07666  0.056502278  0.057635556            2 
  976000    1.0970705   -4.7619938    664.90012  0.056770843  0.057621555            1 
  977000    1.0815861     -4.81557    661.88106  0.056455225  0.057606852            1 
  978000    1.0892803   -4.8047487    662.33507  0.056436185  0.057592386            4 
  979000    1.1078037   -4.8199764     665.8111  0.056674422  0.057577597            3 
  980000    1.1043448    -4.801573    663.12083  0.056387826  0.057563243            3 
  981000    1.0861804   -4.8340079    662.58577  0.056284894  0.057548021            3 
  982000    1.0937178   -4.8155263    666.46268  0.056556575  0.057533525            2 
  983000    1.0914808   -4.8328384    665.07359  0.056381281  0.057518779            3 
  984000    1.0688741   -4.8226764     664.5794  0.056282131  0.057503988            2 
  985000    1.0913347   -4.8112465     664.3011  0.056201447  0.057489103            2 
  986000    1.0808275   -4.8146636    666.46829  0.056327611  0.057474501            8 
  987000    1.0804338   -4.7906256    668.34561  0.056429045    0.0574598            2 
  988000    1.0806785   -4.8488296    669.75704  0.056490979  0.057444828            5 
  989000    1.1076138   -4.8005351    670.25489  0.056475808  0.057430549            2 
  990000    1.1158906   -4.8201455    669.90594  0.056389389  0.057416098            7 
  991000    1.0676697   -4.7939632    672.04976  0.056512761  0.057401628            2 
  992000    1.1034391    -4.795307    672.64526  0.056505819  0.057387256            2 
  993000    1.0921998   -4.8195865    673.27383  0.056501664  0.057372963            6 
  994000    1.0895522   -4.8288696    672.86588  0.056410621  0.057358744            2 
  995000    1.0849478   -4.7981187    675.33348  0.056560593  0.057344802            4 
  996000    1.0836679   -4.7978246    676.80388   0.05662683  0.057330714            1 
  997000    1.1138456     -4.81173    672.72583  0.056229173  0.057316835            2 
  998000    1.0915295   -4.8596046    673.11938  0.056205693  0.057302056            3 
  999000    1.1005965   -4.8104511    677.98708  0.056555479  0.057287864            1 
 1000000    1.1074603    -4.820137    676.28898  0.056357415  0.057273701            3 
 1001000      1.10565   -4.8006216     676.2066  0.056294256  0.057259649            2 
 1002000    1.1000665   -4.7822708    676.84748  0.056291374  0.057245312            1 
 1003000    1.0936369   -4.8083901    675.78794   0.05614722  0.057231411            2 
 1004000    1.0885187   -4.8020074    680.05085  0.056445123  0.057217313            3 
 1005000    1.1083749   -4.8078038    679.32653  0.056328899   0.05720345            2 
 1006000    1.0867013   -4.8449201    676.96724  0.056077471   0.05718914            4 
 1007000    1.0766407   -4.8051055    679.63323  0.056242406  0.057175269            3 
 1008000    1.1009664   -4.8579937    676.11412  0.055895678  0.057160907            2 
 1009000    1.0814359   -4.8526367    680.14148    0.0561729  0.057146554            2 
 1010000     1.084033   -4.8388002    677.59285  0.055907001  0.057132441            3 
 1011000     1.074095   -4.8000641    682.12002  0.056224862  0.057118332            5 
 1012000    1.0878199   -4.8374903    679.93678  0.055989524  0.057104112            5 
 1013000    1.1130961   -4.8098441    681.27329    0.0560442  0.057089957            2 
 1014000    1.0859197   -4.8402094    681.56787  0.056013139  0.057075034            1 
 1015000    1.0982553    -4.795789     686.3671  0.056351979  0.057060544            2 
 1016000    1.0767828   -4.8321227    679.95929  0.055770939  0.057045759            4 
 1017000    1.0822915   -4.8800414    682.36771  0.055913447  0.057031097            3 
 1018000    1.1087541    -4.807719    684.52718  0.056035296  0.057016043            2 
 1019000    1.0931027   -4.7915076    685.03112  0.056021517  0.057001126            2 
 1020000    1.1270239   -4.8302237    684.90306  0.055956132  0.056986186            4 
 1021000    1.0803719   -4.7767942    687.22967  0.056091223  0.056971184            2 
 1022000    1.0896794   -4.8414209    681.91087  0.055602647  0.056956574            1 
 1023000    1.0859556   -4.8185713    681.50302  0.055515072  0.056941648            5 
 1024000    1.0978371   -4.8369592     685.7955  0.055810181  0.056926369            7 
 1025000    1.0884926   -4.8047822    687.85037  0.055922794  0.056911607           15 
 1026000    1.0929643   -4.8507535    686.04808  0.055721904  0.056896667            5 
 1027000    1.0754689   -4.8037829    688.42979  0.055860905  0.056881815            3 
 1028000    1.0980782   -4.8184005    690.36739  0.055963634  0.056866986            2 
 1029000    1.0892437    -4.814005    688.82515   0.05578435  0.056851995            2 
 1030000    1.0686332   -4.8506377    688.30474  0.055688085   0.05683744            6 
 1031000    1.0914144   -4.8035426    689.97843  0.055769353  0.056822576            6 
 1032000    1.0763066   -4.8225341    690.89597  0.055789403  0.056808192            5 
 1033000     1.090838   -4.8163604     692.5665   0.05587016  0.056793745            2 
 1034000    1.0871635   -4.8110773    690.80112  0.055673849  0.056779122            3 
 1035000    1.0914363   -4.8298872    693.45033   0.05583336  0.056764434            2 
 1036000    1.0884567   -4.8170352    695.81646  0.055969792   0.05674942            2 
 1037000    1.0768894   -4.8136019    693.57308  0.055735541  0.056734753            2 
 1038000    1.0794753   -4.8036741     695.4178  0.055829946  0.056720223            2 
 1039000    1.0936267   -4.8368515    694.88318  0.055733331  0.056706011            3 
 1040000    1.0978378   -4.8411894    695.38958  0.055720319  0.056691672            3 
 1041000    1.1040871   -4.8500845    693.14648   0.05548723  0.056677357            5 
 1042000    1.0949909   -4.7975258    700.76365  0.056043158  0.056662766            2 
 1043000    1.0839315   -4.8087651    697.39858  0.055720564  0.056648765            1 
 1044000    1.0886754   -4.8367956    699.14791  0.055806826  0.056634695            4 
 1045000    1.0754414    -4.808024    698.54735   0.05570553  0.056620727            7 
 1046000    1.0972169   -4.8250868    698.48176  0.055647049   0.05660618            2 
 1047000    1.0917846   -4.7896675    699.01269  0.055636158  0.056591631            1 
 1048000    1.0889206   -4.8102938    699.58279  0.055628403  0.056577035            2 
 1049000    1.0708912   -4.8392303    699.73396  0.055587381  0.056562529            4 
 1050000     1.077412   -4.8201872    702.49374  0.055753472  0.056548102            2 
 1051000    1.0756087   -4.8255872    699.93454  0.055497505  0.056534052            3 
 1052000    1.0872872   -4.8198803     705.4896  0.055884791  0.056519919            5 
 1053000     1.080602    -4.842817    700.93533  0.055471298  0.056505751            2 
 1054000    1.0830264   -4.8399381     702.0481  0.055506649  0.056491835            2 
 1055000    1.0619945   -4.8482677    706.01998  0.055767771  0.056477751            2 
 1056000    1.0662378   -4.7991492    701.76103  0.055378869  0.056463374            3 
 1057000     1.068872   -4.8366793    702.24128  0.055364339   0.05644925            2 
 1058000    1.0780418    -4.837721    705.06083  0.055534092  0.056435133            3 
 1059000    1.0944837   -4.8621157     702.9582  0.055316194  0.056420728            5 
 1060000    1.0678298   -4.8327659    708.02373  0.055662243  0.056406767            2 
 1061000    1.0551958   -4.8582633    706.83067  0.055516075  0.056392594            3 
 1062000    1.0954389   -4.8428115    707.72484  0.055533964  0.056378501            2 
 1063000    1.0625827   -4.8197319    708.38474  0.055533454  0.056364275            5 
 1064000    1.0906808    -4.840386     706.6612  0.055346272  0.056350392            4 
 1065000    1.1026516   -4.8438664    710.36638  0.055584224  0.056337022            4 
 1066000    1.1002954   -4.8020555    712.34554    0.0556868   0.05632344            4 
 1067000    1.0870309   -4.8562481    711.74801  0.055587942   0.05630997            2 
 1068000    1.0742779   -4.8136393    712.01583  0.055556791  0.056296842            4 
 1069000    1.0770563   -4.8072989    712.86595  0.055571091  0.056283563            2 
 1070000     1.057471   -4.8367283    713.89795  0.055599529  0.056270598            3 
 1071000    1.0679191   -4.8093547     714.1029  0.055563562  0.056257583            2 
 1072000    1.0984291   -4.8419029    715.61468  0.055629251  0.056244639            3 
 1073000    1.0948397   -4.8448585    713.49177  0.055412533  0.056231366            2 
 1074000    1.0540264   -4.8145558    715.91929  0.055549293  0.056218255            2 
 1075000    1.0651715   -4.8400851    714.46754   0.05538508  0.056205146            5 
 1076000    1.0612548   -4.8399014     715.9992   0.05545223  0.056191973            2 
 1077000    1.0873695   -4.8417116    715.16716  0.055336363   0.05617903            2 
 1078000    1.0781326   -4.8784012    717.00367     0.055427  0.056165726            1 
 1079000    1.0769372   -4.8214709    717.99097  0.055451882  0.056152644            3 
 1080000    1.0658528   -4.8016229    718.34877  0.055428146  0.056139291            2 
 1081000    1.0922311   -4.8297129    719.12536  0.055436738  0.056125609            3 
 1082000    1.0736044   -4.8039243    720.49214  0.055490769  0.056112436            5 
 1083000    1.0789227   -4.8358814    720.21529  0.055418228  0.056099442            7 
 1084000    1.0744446   -4.8432988    719.52906   0.05531435  0.056085802            3 
 1085000    1.0870193   -4.8319573    721.37754  0.055405341  0.056072503            2 
 1086000    1.0662035   -4.8482139    720.38036  0.055277805  0.056059157            5 
 1087000     1.092756   -4.8415172    719.60238  0.055167309  0.056045302            2 
 1088000    1.0811599   -4.8174194    719.71143  0.055124956  0.056031748            2 
 1089000    1.0607799   -4.8533905    722.68362  0.055301777  0.056018266            3 
 1090000    1.0787122   -4.8153819    723.82848  0.055338569   0.05600492            5 
 1091000    1.0728089   -4.8371314     723.7458   0.05528153  0.055991539            4 
 1092000    1.0884936   -4.8394172    722.84062   0.05516183  0.055978069            2 
 1093000    1.1072662    -4.820348    724.48845  0.055236997  0.055964404            4 
 1094000     1.078009   -4.8199302     726.0005  0.055301683  0.055951232            1 
 1095000    1.0849345   -4.8319408     726.7722  0.055309909  0.055938252            4 
 1096000    1.0919143   -4.8687385    724.22338  0.055065646  0.055924929            2 
 1097000    1.0764901   -4.8640672    725.86112   0.05513986  0.055911642            6 
 1098000    1.0829193    -4.836625    727.06814   0.05518125  0.055898515            5 
 1099000    1.0635697   -4.8492925    730.04057  0.055356428  0.055885482            2 
 1100000    1.0840967   -4.8514534    726.59797  0.055045301  0.055872388            1 
 1101000    1.0485777   -4.8343855     729.5148  0.055216076  0.055859258            2 
 1102000    1.0668187   -4.8542311    733.04752  0.055433115  0.055846395            3 
 1103000    1.0664076   -4.8553915    732.51375  0.055342532  0.055833792            3 
 1104000    1.0805342   -4.8632895    729.64216  0.055075646  0.055821191            4 
 1105000     1.084331   -4.8482734    730.08288  0.055059041  0.055808181            3 
 1106000    1.0713408   -4.8446186    731.64339  0.055126837  0.055795537            6 
 1107000    1.0566092   -4.8427208    734.64644  0.055303105  0.055782853            1 
 1108000    1.0705511   -4.8485521    731.84803  0.055042722  0.055770041            3 
 1109000    1.0918796   -4.8841392    732.33775  0.055029888  0.055757078            2 
 1110000    1.0611963    -4.851842    732.48281  0.054991202  0.055744216            2 
 1111000    1.0625905   -4.8692245    732.42448  0.054937329  0.055730875            3 
 1112000     1.078739   -4.8550196     734.7975   0.05506576   0.05571784            3 
 1113000    1.0769165   -4.8489387    734.07859  0.054962458   0.05570478            2 
 1114000    1.0780361   -4.8287073    737.22857  0.055148756  0.055692111            3 
 1115000    1.0430261   -4.8616346     735.1006  0.054940254  0.055678837            1 
 1116000    1.0639476   -4.8504982    736.77625  0.055016148  0.055665406            2 
 1117000    1.0798133   -4.8642166    736.93009  0.054978371   0.05565234            5 
 1118000    1.0518319   -4.8539411    737.74234  0.054989739  0.055639621            3 
 1119000    1.0793034   -4.8584456     735.4588  0.054770539  0.055626492            1 
 1120000    1.0772106   -4.8532046    738.38305  0.054939215  0.055612954            4 
 1121000    1.0788537   -4.8425272    739.48278  0.054971958   0.05559989            6 
 1122000    1.0657626   -4.8288934    738.21878  0.054829083  0.055586459            4 
 1123000    1.0491504   -4.8461754    736.41032  0.054646061   0.05557282            3 
 1124000    1.0752507    -4.859124    740.31823  0.054887176  0.055559143            2 
 1125000    1.0526435   -4.8156171    742.03733  0.054965728  0.055545861            2 
 1126000      1.06335   -4.8390971    742.89968  0.054980735  0.055532045            5 
 1127000    1.0628108    -4.872264     740.9209  0.054785633  0.055518453            2 
 1128000    1.0592417   -4.8819429    738.06933  0.054526399  0.055503848            3 
 1129000    1.0594324   -4.8692403    740.14901  0.054631607  0.055489462            7 
 1130000    1.0417615   -4.8490759    741.37542  0.054673704  0.055475506            4 
 1131000    1.0569396    -4.861031    740.10073  0.054531442   0.05546135            4 
 1132000    1.0499921   -4.8690814    743.99108  0.054769661  0.055447468            5 
 1133000    1.0409317   -4.8575531    741.23819  0.054518843   0.05543375            2 
 1134000    1.0520884   -4.8784022     741.1939  0.054467512  0.055419764            5 
 1135000    1.0621046   -4.8609609    743.71326  0.054604498  0.055405427            2 
 1136000    1.0595811   -4.8408522    742.91913  0.054498176  0.055391102            2 
 1137000    1.0588423    -4.859533    744.33354  0.054553909  0.055376538            2 
 1138000     1.067493   -4.8490533    743.73476  0.054462124  0.055362274            2 
 1139000    1.0729613   -4.8600242    744.10694  0.054441538  0.055347898            4 
 1140000    1.0631433   -4.8513748    747.44085  0.054637489  0.055333937            2 
 1141000    1.0682641   -4.8894375    743.84024  0.054326631  0.055319875            3 
 1142000    1.0645504   -4.8449766    746.48273  0.054471886  0.055305611            1 
 1143000     1.065132    -4.868713    743.97067  0.054241081  0.055291392            2 
 1144000    1.0562344   -4.8247188    748.42041  0.054517804  0.055277027            3 
 1145000    1.0906513   -4.8433731     747.0124  0.054367714  0.055262857            3 
 1146000    1.0615259   -4.8436786    746.92769  0.054314114   0.05524827            2 
 1147000    1.0665173   -4.8451303    746.33737  0.054223872  0.055233518            4 
 1148000     1.065056   -4.8461164    747.43456  0.054256283  0.055218887            2 
 1149000     1.073233   -4.8545099    747.50446  0.054214132  0.055204362            2 
 1150000    1.0906397   -4.8353502    751.90018   0.05448552  0.055189953            3 
 1151000    1.0846422   -4.8749056    750.45827  0.054333787  0.055175897            2 
 1152000    1.0506317   -4.9047557    747.53462  0.054075132  0.055161721            2 
 1153000    1.0618296   -4.8685639    752.75049   0.05440521  0.055147888            3 
 1154000    1.0555667    -4.856697    755.07548  0.054525959  0.055134174            3 
 1155000    1.0747422   -4.8467715    756.59906  0.054588677  0.055120697            2 
 1156000     1.087739   -4.8686537    753.01012  0.054282736   0.05510698            2 
 1157000    1.0696986   -4.8583513      755.306  0.054401181  0.055093336            3 
 1158000    1.0639745   -4.8637785    756.34433  0.054428924  0.055079729            4 
 1159000    1.0904135   -4.8099441    757.79775  0.054486464  0.055066104            3 
 1160000    1.0860371   -4.8432527    757.81173  0.054440498  0.055053091            3 
 1161000    1.0681823   -4.8465241     758.3161  0.054429809   0.05503925            2 
 1162000    1.0729933   -4.8731376    756.72375  0.054268771  0.055025992            6 
 1163000     1.093912   -4.8286451    761.47202   0.05456234  0.055013035            3 
 1164000    1.0680193   -4.8639788    760.36324  0.054436085  0.054999914            3 
 1165000    1.0983233    -4.858161    761.04951  0.054438448  0.054986541            4 
 1166000    1.0520998   -4.8289658    758.35407  0.054199119  0.054973415            3 
 1167000    1.0560417   -4.9004578    757.91324  0.054121197  0.054959813            5 
 1168000    1.0629577   -4.8617515    763.06881  0.054442694  0.054946352            3 
 1169000    1.0511841   -4.8862484    759.89617  0.054169958  0.054933422            3 
 1170000    1.0743952   -4.8595654    762.54662  0.054312437  0.054920292            3 
 1171000    1.0630145   -4.9135713    761.40061  0.054184501  0.054907193            3 
 1172000    1.0828305   -4.8904901    761.91036  0.054174514  0.054894082            3 
 1173000    1.0598455   -4.8802838     762.6318  0.054179582  0.054881426            5 
 1174000    1.0623069   -4.8666219    764.55529  0.054269967  0.054868723            6 
 1175000      1.07273   -4.8799188    765.06014  0.054259585  0.054855838            5 
 1176000    1.0481856   -4.8712506     766.8201  0.054338159  0.054842806            2 
 1177000    1.0647463   -4.8776403    765.38771  0.054190577  0.054829643            7 
 1178000    1.0720516   -4.8537143    764.79623  0.054102733  0.054816563            6 
 1179000    1.0621931   -4.8768017    767.31428  0.054234823  0.054803353            2 
 1180000    1.0727931   -4.8613123    769.43079  0.054338332  0.054790384            2 
 1181000    1.0523062   -4.8933838    765.63915  0.054024778  0.054777158            2 
 1182000    1.0492786   -4.8888879    764.55598  0.053902706  0.054763575            4 
 1183000    1.0543506   -4.8717456    771.08169  0.054316828  0.054750395            8 
 1184000    1.0717172   -4.8749661    768.26241  0.054072523  0.054737088            7 
 1185000    1.0582051   -4.8608648    771.45125  0.054251143  0.054723998            5 
 1186000    1.0387068   -4.8155705    770.48885  0.054137778  0.054711339            3 
 1187000    1.0506917    -4.817524     772.9737  0.054266617  0.054698296            1 
 1188000     1.064499   -4.8877534    770.44137  0.054043306  0.054685007            4 
 1189000    1.0719956   -4.8870413     770.2795  0.053986508  0.054671604            2 
 1190000    1.0727821   -4.8705947    771.72867  0.054042624  0.054658187            2 
 1191000    1.0761837   -4.8516326    771.32177  0.053968778  0.054644818            3 
 1192000    1.0664853   -4.8835349    772.78561   0.05402584  0.054631747            2 
 1193000     1.050614   -4.8770642    771.47991  0.053889348  0.054618373            2 
 1194000    1.0608165   -4.8559293    773.64163  0.053995088  0.054605055            5 
 1195000    1.0538233   -4.8690895    774.25077  0.053992383  0.054591494            2 
 1196000    1.0567021   -4.8800888    773.61991  0.053903283   0.05457828            5 
 1197000    1.0654811   -4.8836975    769.68244   0.05358413   0.05456442            3 
 1198000    1.0472415   -4.8819368    775.08607   0.05391528  0.054550651            3 
 1199000     1.063615   -4.8751212    776.60271  0.053975724  0.054537192            6 
 1200000    1.0438175   -4.8960949    772.38413  0.053637787  0.054523593            2 
 1201000    1.0523576   -4.8701436    775.22243  0.053790066  0.054509759            6 
 1202000    1.0611661   -4.8639288    774.95914  0.053727062  0.054495881            2 
 1203000      1.05852   -4.9170007    775.89682  0.053747355  0.054482253            1 
 1204000    1.0722128   -4.8633819    777.46127  0.053810996  0.054468789            2 
 1205000    1.0584282   -4.8971646    776.87847  0.053726035  0.054455333            6 
 1206000    1.0612609   -4.8838311    776.71753  0.053670365  0.054441897            2 
 1207000    1.0851324   -4.8883201    774.40015  0.053465904  0.054428198            8 
 1208000    1.0814469    -4.912866    777.47515  0.053633771  0.054414744            3 
 1209000    1.0599949   -4.8705585    781.53112  0.053868977  0.054401354            3 
 1210000    1.0393921   -4.8739384     780.3691  0.053744429  0.054388107            3 
 1211000    1.0591606   -4.8735099    783.73737  0.053931831  0.054374969            2 
 1212000    1.0980621   -4.8835687    780.58793  0.053670787  0.054361663            3 
 1213000    1.0679359   -4.8670151    784.34632  0.053884743  0.054348287            3 
 1214000    1.0582697   -4.8939584    783.51729  0.053783449  0.054335597            4 
 1215000     1.059515   -4.8532567    783.36624  0.053728823  0.054322766            3 
 1216000    1.0437479   -4.8828448    784.23514  0.053744184  0.054309836            3 
 1217000    1.0898666   -4.9248484    782.16163  0.053558041  0.054297128            5 
 1218000    1.0518122   -4.8574654    786.60079  0.053817788   0.05428436            1 
 1219000    1.0403723    -4.855773    787.68138   0.05384751   0.05427168            3 
 1220000    1.0553516   -4.8743246    787.06159  0.053761037  0.054258656            3 
 1221000    1.0613587   -4.8814793    787.47253  0.053745054   0.05424611            2 
 1222000    1.0579907   -4.9068229     787.3336  0.053691598  0.054233355            2 
 1223000    1.0589361   -4.8614879     790.6434  0.053873222  0.054220333            1 
 1224000    1.0618912   -4.8701209    789.06583  0.053721802  0.054207612            3 
 1225000    1.0680117   -4.8795931    790.49692  0.053775301  0.054194456            2 
 1226000     1.061833   -4.8963265    786.38766  0.053452125  0.054181582            2 
 1227000    1.0509971    -4.927529    787.22308    0.0534653  0.054168529            3 
 1228000      1.06433   -4.8815273    788.43926  0.053504293  0.054155645            3 
 1229000    1.0152078   -4.9039438    788.41506  0.053459117  0.054142226            3 
 1230000    1.0492972   -4.8918019    790.76649  0.053574966  0.054129014            2 
 1231000    1.0672464   -4.8611024    787.95405  0.053341054  0.054115695            3 
 1232000    1.0561041   -4.9174621    789.82032  0.053423993  0.054102284            3 
 1233000    1.0469173    -4.872177    788.58411  0.053297115  0.054089098            2 
 1234000    1.0623587   -4.8848973    792.27669  0.053503288  0.054075865            2 
 1235000     1.047036   -4.8808643    790.23452  0.053322167  0.054062455            2 
 1236000    1.0788799   -4.8841982    791.09575  0.053337092  0.054048849            4 
 1237000    1.0486226   -4.8884106    792.01215  0.053355709  0.054035244            4 
 1238000    1.0595593   -4.8948499    794.64891  0.053490099  0.054021776            4 
 1239000    1.0520353   -4.8606651    791.48391  0.053234054  0.054008062            3 
 1240000    1.0407879    -4.896624    791.37807   0.05318401   0.05399422            5 
 1241000    1.0506192   -4.8318241     797.1421   0.05352821  0.053980761            5 
 1242000    1.0674497   -4.9130517    790.46375   0.05303702  0.053967464            4 
 1243000    1.0447236   -4.8815806    792.94896  0.053160965  0.053953558            2 
 1244000    1.0566954   -4.8673869    795.01227  0.053256449  0.053939822            2 
 1245000    1.0267513   -4.8928925    794.18732  0.053158455  0.053926412            3 
 1246000    1.0576505   -4.8956799    794.15151  0.053113397  0.053913046            3 
 1247000    1.0824808   -4.9486177    794.11516  0.053068375  0.053899531            3 
 1248000    1.0541645   -4.8958852    797.62291  0.053260077  0.053886082            5 
 1249000     1.076819   -4.8830205     797.2182  0.053190432  0.053872673            3 
 1250000    1.0187008   -4.9173657    797.20344  0.053146896   0.05385854            3 
 1251000    1.0444047   -4.9253098     796.1317   0.05303302  0.053844495            2 
 1252000    1.0688147   -4.9288082    800.65584  0.053291789  0.053830883            4 
 1253000    1.0556817   -4.8727359    799.10916  0.053146392  0.053817502            4 
 1254000    1.0489037   -4.8365926    802.28457   0.05331503  0.053804172            3 
 1255000    1.0580517   -4.9053161    801.13741  0.053196375  0.053790611            2 
 1256000    1.0768398   -4.9006884    798.97073  0.053010266  0.053776758            5 
 1257000    1.0417742   -4.8798748    802.65411  0.053212285  0.053763322            2 
 1258000    1.0374379   -4.8674607    801.83179  0.053115513  0.053749764            6 
 1259000    1.0461723   -4.9012142    803.39151  0.053176563  0.053736321            6 
 1260000    1.0485061   -4.9369721     801.6123  0.053016686  0.053722952            5 
 1261000    1.0748159   -4.8903907    804.87313  0.053190136  0.053709575            4 
 1262000    1.0790845   -4.8649983    799.65802   0.05280362    0.0536958            5 
 1263000    1.0287783   -4.8804962    805.82904  0.053168978   0.05368211            3 
 1264000    1.0425026   -4.9036892     802.6596  0.052917959  0.053668375            2 
 1265000    1.0401493   -4.9100277    800.12319  0.052709038  0.053654611            3 
 1266000    1.0202683   -4.9316099    803.18404  0.052868881  0.053640452            3 
 1267000     1.070649   -4.9141686    801.28367  0.052702162   0.05362621            2 
 1268000    1.0316689   -4.8970689    799.29339  0.052529797  0.053611847            2 
 1269000    1.0439047   -4.9235233    802.43999  0.052695035  0.053597639            4 
 1270000    1.0699842   -4.9006824     805.7525  0.052870899  0.053583356            2 
 1271000    1.0405256   -4.8961723    804.77194  0.052765011  0.053569312            4 
 1272000    1.0654989   -4.8780127     806.4955  0.052836445  0.053555244            3 
 1273000    1.0476755   -4.9144362    806.62997  0.052803742   0.05354107            1 
 1274000      1.07165   -4.9087743    802.89385  0.052517913  0.053526654            2 
 1275000    1.0448035   -4.8847854    808.04173  0.052813185  0.053512203            2 
 1276000    1.0468232   -4.9074699    807.90436  0.052762824   0.05349755            3 
 1277000    1.0659677   -4.9173071    803.89682  0.052459986  0.053483136            2 
 1278000    1.0408029    -4.917559    806.86499   0.05261248  0.053468624            2 
 1279000    1.0551486   -4.8945751    803.77968   0.05237032  0.053453954            3 
 1280000    1.0106277   -4.8998315    810.36638  0.052758228  0.053439387            3 
 1281000    1.0471473   -4.9017744    808.05359  0.052566588  0.053425198            2 
 1282000     1.033746   -4.9220443    808.57974  0.052559786  0.053410776            2 
 1283000    1.0365444   -4.9132056    807.41005  0.052442845  0.053396014            2 
 1284000     1.062571   -4.8594913    811.32888  0.052656339  0.053381696            4 
 1285000    1.0523201   -4.8949469    811.61086  0.052633649  0.053367529            2 
 1286000    1.0308723   -4.9056719    815.17673   0.05282379  0.053353588            2 
 1287000    1.0439939   -4.9436585    808.62963  0.052358821  0.053339352            4 
 1288000    1.0688467   -4.9022562    811.78385  0.052522247  0.053325023            2 
 1289000    1.0457795   -4.9338629    811.94008  0.052491601  0.053310778            1 
 1290000    1.0523659   -4.8503513    814.81632  0.052636713  0.053296748            2 
 1291000    1.0571154   -4.9046218    812.47064  0.052444529  0.053282896            2 
 1292000    1.0614811   -4.8737305    819.58691  0.052862933  0.053269003            3 
 1293000    1.0457672   -4.8949851     815.7702  0.052576063  0.053255532            5 
 1294000    1.0428953   -4.9074675    815.59051  0.052523861  0.053241958            2 
 1295000    1.0379436   -4.8908613    815.09938  0.052451697  0.053228493            1 
 1296000    1.0457661   -4.8782087    821.16874  0.052801488  0.053214762            2 
 1297000    1.0521231   -4.9138177    817.40683  0.052519072  0.053201123            6 
 1298000     1.043911   -4.9016983    817.69646  0.052497204  0.053187556            4 
 1299000    1.0228305   -4.9436804    818.24985  0.052492292  0.053173667            2 
 1300000    1.0321847    -4.890673    817.72541  0.052418295  0.053159484            1 
 1301000    1.0609841   -4.9276183    819.93404  0.052519475  0.053145572            3 
 1302000    1.0340241    -4.890919    819.27419  0.052436904  0.053131556            4 
 1303000    1.0502095   -4.8918539    821.58483  0.052544438     0.053118            6 
 1304000    1.0783621   -4.8883516    820.87883  0.052459025  0.053104422            4 
 1305000    1.0431851   -4.9299567    821.66092  0.052468769  0.053090617            4 
 1306000    1.0451302   -4.9309145    821.42276  0.052413397  0.053076748            3 
 1307000    1.0382336   -4.9313353    821.70391  0.052391221  0.053062651            4 
 1308000     1.035886   -4.9294308    820.29908  0.052261664  0.053048361            3 
 1309000     1.035394   -4.8794547    822.21782   0.05234389   0.05303425            2 
 1310000    1.0303715   -4.9051131    822.26504  0.052306936  0.053020278            4 
 1311000    1.0548045   -4.9226126    821.64496  0.052227623  0.053006545            3 
 1312000    1.0370669   -4.8714867    827.08773   0.05253352   0.05299273            3 
 1313000    1.0452252   -4.8985322    822.59334  0.052208259  0.052978878            3 
 1314000    1.0722882   -4.9069275    822.16827   0.05214157  0.052965056            5 
 1315000    1.0183836   -4.9289443    824.38325  0.052242285  0.052950981            3 
 1316000    1.0463282   -4.9021349    827.78106  0.052417747  0.052936867            2 
 1317000    1.0569961   -4.8859004    828.01757  0.052392911  0.052923228            3 
 1318000    1.0541237   -4.9115371    829.60259  0.052453376  0.052909861            4 
 1319000    1.0431277   -4.9191164     826.2329  0.052200714  0.052896403            2 
 1320000    1.0512447   -4.9021736    831.33406  0.052483211  0.052882868            2 
 1321000    1.0169165   -4.9203535    828.09348  0.052239053  0.052869299            2 
 1322000    1.0399936   -4.9074429    827.25048    0.0521464  0.052855559            3 
 1323000    1.0462339   -4.9012485    828.81664  0.052205634  0.052842139            4 
 1324000    1.0675304   -4.9006716    828.19068  0.052126805  0.052828707            3 
 1325000     1.050232   -4.9114346     828.5679  0.052111188  0.052814966            2 
 1326000    1.0627773   -4.9402905    827.93855  0.052032337  0.052801137            4 
 1327000     1.016679   -4.9081129    830.90766  0.052179581  0.052787481            5 
 1328000    1.0323915   -4.9081599    835.61049  0.052435397  0.052773803            2 
 1329000    1.0290286    -4.906189    828.88799  0.051974416  0.052760399            3 
 1330000    1.0420137   -4.9221636    831.82323   0.05211925  0.052746596            2 
 1331000     1.050962   -4.8570959    833.48601  0.052184198  0.052733894            2 
 1332000     1.048265   -4.9599515     832.8936  0.052107958  0.052720421            2 
 1333000    1.0447359   -4.9274603    835.75074  0.052247483  0.052707407            9 
 1334000    1.0520514     -4.92179    832.90266  0.052030401  0.052693875            3 
 1335000    1.0529377   -4.8943552    836.10358  0.052191235  0.052680687            4 
 1336000    1.0492105   -4.9158931    831.07228  0.051838341  0.052667127            4 
 1337000    1.0283917   -4.9011206     834.9262  0.052039778  0.052653695            3 
 1338000    1.0500239   -4.9162984    836.17563  0.052078701  0.052640307            4 
 1339000    1.0496078   -4.9190293    834.81444  0.051955093  0.052626687            3 
 1340000    1.0589999   -4.9394274    835.12152  0.051935418  0.052613123            2 
 1341000    1.0242434   -4.9176058     837.5225  0.052045892  0.052599736            3 
 1342000     1.044001   -4.8935926    838.57694  0.052072587   0.05258614            3 
 1343000    1.0351423   -4.9220922    840.22855  0.052136296  0.052572771            3 
 1344000    1.0374753   -4.9194649    841.39894  0.052170073  0.052559318            3 
 1345000    1.0693631   -4.8842376    842.97824  0.052229135  0.052546646            4 
 1346000    1.0368217   -4.9159969    842.20799  0.052142644  0.052533947            5 
 1347000    1.0495962   -4.8939609    841.39833  0.052053844  0.052521364            2 
 1348000     1.031762   -4.9032041    841.63519  0.052029871  0.052508682            3 
 1349000    1.0394369   -4.9251403    844.85365  0.052190119   0.05249599            3 
 1350000    1.0548817    -4.926695    840.06555  0.051855898  0.052483487            8 
 1351000     1.019741   -4.9241262    842.21395  0.051950034  0.052471136            3 
 1352000    1.0522939   -4.9493977     847.6826  0.052248681  0.052458459            6 
 1353000    1.0317985    -4.947113    843.20682  0.051934394  0.052445911            4 
 1354000    1.0245506   -4.9278209    844.88953  0.051999602  0.052433061            7 
 1355000    1.0242617    -4.890741    849.20327  0.052226524   0.05242062            5 
 1356000    1.0216145    -4.888723    847.72703  0.052097286  0.052408718            2 
 1357000    1.0159131     -4.89525    847.50636  0.052045342  0.052396579            2 
 1358000    1.0170304   -4.8933117    847.00287  0.051976121    0.0523842           10 
 1359000    1.0316639   -4.9126235    846.62608   0.05191477  0.052371585            4 
 1360000    1.0323437   -4.9052778    849.59932  0.052058782  0.052359021            2 
 1361000    1.0557698   -4.9224472    851.19129  0.052118007  0.052346908            4 
 1362000    1.0309487   -4.9189756    851.06151  0.052071801  0.052334707            4 
 1363000    1.0345383   -4.9444578    847.69769  0.051827934  0.052322276            4 
 1364000    1.0369387   -4.9443954    849.75848  0.051915841  0.052309769            2 
 1365000    1.0382112   -4.9371229     848.7231  0.051814597  0.052297282            3 
 1366000    1.0448393   -4.9349693    848.76798  0.051779403  0.052284925            7 
 1367000    1.0555252   -4.9177894    850.89661  0.051871288  0.052272423            3 
 1368000    1.0281057   -4.9215912    852.38679  0.051924147  0.052260189            3 
 1369000    1.0525818   -4.9333488    852.40964  0.051887609  0.052247986            3 
 1370000    1.0390063   -4.9480785    850.45299  0.051730717  0.052235377            3 
 1371000    1.0378581   -4.9178162    851.99458  0.051786687  0.052223136            3 
 1372000    1.0157035   -4.9390784     854.6368  0.051909427  0.052211127            4 
 1373000    1.0370232   -4.9155962    857.46748  0.052043426  0.052199241            3 
 1374000    1.0379133   -4.9283876    853.13451  0.051742753  0.052187291            3 
 1375000    1.0440974   -4.9508838       855.63  0.051856363  0.052174756            2 
 1376000    1.0506022   -4.9195893    858.23389  0.051976374  0.052162859            5 
 1377000    1.0516327   -4.9256324    856.27085  0.051819829  0.052151177            2 
 1378000    1.0437075   -4.9224186    857.48879  0.051855878  0.052139008            6 
 1379000    1.0448087   -4.9213394    860.20691   0.05198253  0.052126908            2 
 1380000    1.0361202   -4.9452842    856.35269  0.051712119  0.052114782            4 
 1381000    1.0422967   -4.9284923    859.28581  0.051851666   0.05210293            8 
 1382000    1.0344367   -4.9139316    859.36744  0.051819069  0.052091149            3 
 1383000    1.0255364   -4.9221582    861.49062  0.051909534  0.052079462            1 
 1384000     1.025434    -4.955535    858.81467  0.051710903  0.052068023            3 
 1385000    1.0058384   -4.9388004    862.59423  0.051900977  0.052056264            4 
 1386000    1.0516169   -4.8944089    865.54422  0.052040898  0.052044727            5 
 1387000    1.0295672    -4.923883    864.98106  0.051969542  0.052033187            3 
 1388000    1.0427018   -4.9163629     862.6539  0.051792381   0.05202135            4 
 1389000    1.0341278   -4.9554998      864.297  0.051853672  0.052009654            3 
 1390000    1.0369398   -4.9581529    864.12048  0.051805784  0.051997838            5 
 1391000    1.0312245   -4.9381512    865.05619  0.051824598   0.05198614            2 
 1392000    1.0374783   -4.9416525    864.96774  0.051782073  0.051974347            4 
 1393000    1.0317505    -4.937829    863.90389  0.051681257  0.051962931            5 
 1394000    1.0072867   -4.9319435    866.26741  0.051785474  0.051951764            3 
 1395000    1.0412541   -4.9303545    865.61623  0.051709452  0.051940387            6 
 1396000    1.0339213   -4.9321051    865.72373  0.051678828  0.051928877            1 
 1397000    1.0169107   -4.9271825    870.27007  0.051913032  0.051917547            5 
 1398000    1.0521324   -4.9352134    869.91246  0.051854582  0.051906338            2 
 1399000    1.0326849   -4.8853186    873.31642  0.052020277  0.051895448            2 
 1400000    1.0368435   -4.8905519     873.9831  0.052022804   0.05188464            2 
 1401000     1.005569   -4.9297351     874.6712    0.0520266  0.051873386            2 
 1402000    1.0153475   -4.9350844    873.86875  0.051941794  0.051862336            2 
 1403000    1.0173807   -4.9425384     868.1748  0.051566572  0.051851269            6 
 1404000    1.0170837   -4.9161928    876.38052  0.052016888  0.051840225            1 
 1405000    1.0362055   -4.8972141    875.39649    0.0519215  0.051829464            2 
 1406000    1.0381308   -4.9253421    869.51082  0.051535729  0.051818366            3 
 1407000    1.0356764   -4.9261456    874.61136  0.051801194  0.051807011            7 
 1408000    1.0270388   -4.9536106    870.71114  0.051533567  0.051795513            2 
 1409000    1.0197183   -4.9154368    872.62954  0.051610453  0.051783766            2 
 1410000    1.0323329   -4.9384286    871.84167  0.051527285  0.051772286            5 
 1411000     1.015469   -4.9145342    872.69096  0.051540926  0.051760658            2 
 1412000    1.0330774   -4.9106129    877.41619  0.051783297  0.051749135            3 
 1413000    1.0389823   -4.9582146    874.77338  0.051590787  0.051737477            5 
 1414000    1.0211616   -4.9158907     876.4069  0.051650572   0.05172611            4 
 1415000     1.030444   -4.9197007    877.29633   0.05166645  0.051714736            7 
 1416000    1.0189402   -4.9376579    877.75101  0.051656721  0.051703353            4 
 1417000    1.0464687   -4.9394077     876.5174  0.051547718   0.05169195            3 
 1418000    1.0140264    -4.930007    879.84897  0.051707156  0.051680885            2 
 1419000    1.0513865   -4.9425328    876.38153  0.051467086  0.051669422            2 
 1420000    1.0266076    -4.939706    877.74371  0.051510781  0.051658085            3 
 1421000    1.0208264   -4.9316729    878.61572   0.05152567   0.05164667            4 
 1422000    1.0246645   -4.9381287    879.32854  0.051531208  0.051635193            1 
 1423000    1.0009937   -4.9594892    878.92323   0.05147126  0.051623414            2 
 1424000    1.0135557   -4.9435603    878.68782  0.051421338  0.051611795            3 
 1425000    1.0247176   -4.9573677    876.68654  0.051268219   0.05160004            3 
 1426000    1.0280376   -4.9792281    879.61875   0.05140362  0.051588451            3 
 1427000    1.0278808   -4.9445139    883.02245  0.051566366  0.051576698            3 
 1428000    1.0138871   -4.9577267    879.20134  0.051307268  0.051565272            2 
 1429000    1.0359732   -4.9294169    887.29318  0.051743246  0.051553734            2 
 1430000    1.0131935   -4.9618475    883.17444  0.051467042  0.051542102            2 
 1431000    1.0035881   -4.9383619    881.60045  0.051339416  0.051530409            3 
 1432000    1.0280233   -4.9315892    883.77996  0.051430398  0.051518585            2 
 1433000    1.0329619   -4.9329891    881.37989  0.051254937  0.051506946            3 
 1434000    1.0236211   -4.9499488    880.11408  0.051145634  0.051495092            3 
 1435000    1.0283799   -4.9357092    882.70821  0.051260639  0.051483479            4 
 1436000    1.0199731   -4.9764319     882.1007  0.051189688  0.051471838            9 
 1437000    1.0243219   -4.9218686    884.67792  0.051303521  0.051460227            4 
 1438000    1.0310335   -4.9342025    885.20041  0.051298123  0.051448371            2 
 1439000    1.0137782    -4.989906     884.3109  0.051210962   0.05143641            7 
 1440000    1.0360464   -4.9396422    888.22422  0.051401864  0.051424602            3 
 1441000   0.99901835   -4.9315695    888.10212  0.051359133  0.051412672            3 
 1442000    1.0146482   -4.9860567    883.06216  0.051032256   0.05140087            3 
 1443000    1.0165449   -4.9248933    890.04352  0.051400064  0.051388957            3 
 1444000    1.0197145   -4.9555696    890.73975  0.051404648  0.051377026            3 
 1445000    1.0012826   -4.9506578    888.72507  0.051252888  0.051365136            6 
 1446000    1.0440229   -4.9648314    892.28898  0.051422832  0.051353604            4 
 1447000    1.0217562   -4.9435355    889.11856  0.051204709  0.051342279            2 
 1448000    1.0347291   -4.9463669      891.718  0.051318946  0.051330843            4 
 1449000    0.9913635   -4.9643977    887.03987  0.051014485  0.051319693            4 
 1450000    1.0149186   -4.9512112    894.64782  0.051416541  0.051308348            4 
 1451000    1.0591516   -4.9012862    896.91533  0.051511333  0.051297626            4 
 1452000    1.0009227   -4.9156668    898.33226  0.051557177  0.051287119            5 
 1453000    1.0047418   -4.9528093    895.33857  0.051349998  0.051276405            5 
 1454000    1.0248287   -4.9425666    894.75104  0.051281009  0.051265781            4 
 1455000    1.0114486   -4.9180301    899.75391  0.051532297   0.05125538            5 
 1456000    1.0118359   -4.9330019    898.64487  0.051433429  0.051244717            2 
 1457000    1.0659823   -4.9693378    899.19083  0.051429354  0.051234312            2 
 1458000    1.0453164   -4.9612646    899.09846  0.051388801  0.051223906            2 
 1459000   0.99484091   -4.9237243     899.5266  0.051378033  0.051213143            6 
 1460000     1.033919   -4.9670528    897.55007  0.051230027  0.051202781            2 
 1461000    1.0326311   -4.8932558    900.93776  0.051388191  0.051192015            2 
 1462000    1.0052434   -4.9289627    899.03489  0.051244579   0.05118165            3 
 1463000    1.0199479   -4.9709352    896.40827  0.051059938  0.051170623            7 
 1464000    1.0221017   -4.9619139    900.59919  0.051263615  0.051159688            4 
 1465000    1.0186403   -4.9369535    902.06665  0.051312096  0.051148831            2 
 1466000    1.0224317   -4.9464056    902.25813  0.051287979  0.051138138            7 
 1467000    1.0206906   -4.9653475    903.18157  0.051305474  0.051127671            4 
 1468000    1.0052669   -4.9186758     901.2281  0.051159633  0.051116978            4 
 1469000    1.0325995   -4.9714554    901.17414  0.051121746  0.051106332            3 
 1470000     1.010888   -4.9486346    902.28779  0.051150102  0.051095635            7 
 1471000    1.0246197   -4.9730992    902.38534  0.051120856  0.051085126            3 
 1472000    1.0261476   -4.9506587    907.26432  0.051362337  0.051074685            3 
 1473000     1.000313   -4.9824045    904.05773  0.051146059  0.051064213            3 
 1474000    1.0166754   -4.9590714    904.00599  0.051108434  0.051053655            2 
 1475000     1.039208   -4.9636942    905.84397  0.051177626  0.051042987            6 
 1476000    1.0059694   -4.9693894    906.09132  0.051156917  0.051032612            3 
 1477000    1.0373204   -4.9773168    907.24753  0.051187516  0.051022167            2 
 1478000    1.0333663   -4.9150297    909.68623  0.051290383  0.051012022            3 
 1479000     1.028994   -4.9606897    905.69632  0.051030895  0.051001568            4 
 1480000    1.0195061   -4.9562338    906.73139  0.051054696  0.050991154            8 
 1481000    1.0095535   -4.9591004    908.32101  0.051109667  0.050980939            3 
 1482000     1.031304     -5.00201    906.65475  0.050981486  0.050970833            4 
 1483000    1.0272896   -4.9564415    911.60811   0.05122545  0.050960371            4 
 1484000    1.0326464   -4.9551626    908.97537  0.051043091  0.050950217            4 
 1485000    1.0201154   -4.9289375    914.21289  0.051302631  0.050939774            4 
 1486000    1.0171775   -4.9649049    911.74421  0.051129666  0.050929511            3 
 1487000    1.0280289   -4.9471034    912.09046  0.051114686  0.050918839            2 
 1488000    1.0002206   -4.9421683    912.06504  0.051078911  0.050908652            4 
 1489000   0.99048161   -4.9357314    915.48651  0.051236093  0.050898558            7 
 1490000    1.0091626   -4.9536205    912.09906  0.051012251   0.05088841            1 
 1491000    1.0247139   -4.9718879    909.27058  0.050819952  0.050878062            3 
 1492000   0.98995861   -4.9443457    914.52467  0.051079349  0.050867841            6 
 1493000    1.0087727   -4.9800041    916.68279  0.051165594  0.050857594            6 
 1494000    1.0251366   -4.9596727    913.40523  0.050948529  0.050847445            5 
 1495000    1.0393148   -4.9516855    915.41642  0.051026556  0.050837249            4 
 1496000    1.0178623   -4.9655886     917.9654  0.051134436  0.050827102            2 
 1497000    1.0074004   -4.9499495    915.58073  0.050967531  0.050816852            5 
 1498000    1.0082037   -4.9873053    917.13425   0.05101993  0.050806396            4 
 1499000     1.030532   -4.9597761    917.24978  0.050992316  0.050796167            2 
 1500000    1.0064095   -5.0022182    914.58307  0.050810171  0.050785712            5 
 1501000    1.0162353   -4.9713865    917.58931  0.050943222   0.05077546            4 
 1502000    1.0297498   -4.9721389    918.04123  0.050934378  0.050765271            2 
 1503000    1.0171083   -4.9890598    916.47604  0.050813708  0.050755007            2 
 1504000   0.99559013   -4.9605232    920.41417  0.050998125  0.050744763            6 
 1505000    1.0185722   -4.9743862    919.10422  0.050891707  0.050734685            2 
 1506000    1.0289733   -4.9630761    923.44918  0.051098339  0.050724792            3 
 1507000     1.012794   -4.9670069     921.2617   0.05094347  0.050714888            4 
 1508000    0.9867183   -4.9651953    923.31626  0.051023224  0.050704927            3 
 1509000    1.0224412   -4.9635736    923.18602  0.050982219  0.050694968            5 
 1510000    1.0057151     -4.97737    925.20656  0.051059964  0.050685009            1 
 1511000    1.0090934   -4.9482339    925.34639  0.051033885  0.050675078            3 
 1512000    1.0205544   -4.9800849    921.45197  0.050785492  0.050665365            3 
 1513000    1.0044663    -4.987532    923.07865  0.050841521   0.05065523            5 
 1514000    1.0201404   -4.9745669    922.42933    0.0507722  0.050645127            2 
 1515000   0.99979048    -4.978171    923.08698  0.050774862  0.050635105            4 
 1516000    1.0179844   -4.9656081    927.69823  0.050994845   0.05062476            5 
 1517000     1.003836    -4.961998    927.59372  0.050955489  0.050614788            2 
 1518000    1.0216133   -5.0087654    924.42058  0.050747726  0.050604619            2 
 1519000    1.0087603   -4.9808515    925.60559  0.050779328  0.050594547            2 
 1520000   0.99549172   -4.9812076    926.23768  0.050780574  0.050584587            5 
 1521000   0.98612331   -4.9515516    927.59703  0.050821665  0.050574466            3 
 1522000    1.0055465   -4.9681765    929.21497   0.05087686  0.050564226            4 
 1523000    1.0043183   -4.9432087    928.32328  0.050794664  0.050553871            4 
 1524000    1.0028828   -4.9927417    925.95463  0.050631815  0.050543687            2 
 1525000    1.0201699   -4.9730877    928.56658  0.050741343  0.050533696            7 
 1526000    1.0140932   -4.9909634    927.61038  0.050655875  0.050523287            2 
 1527000   0.99296717   -5.0030534    929.06374  0.050702016  0.050512843            3 
 1528000   0.98300635   -4.9526168    932.90408  0.050878277  0.050502719            2 
 1529000    1.0153448   -4.9837332    929.32491   0.05064993   0.05049276            3 
 1530000   0.99835273   -4.9513525    933.59683    0.0508495  0.050482937            3 
 1531000    1.0396701   -4.9613879     931.7829  0.050717554   0.05047291            5 
 1532000   0.97701752   -4.9620191    934.18828   0.05081529  0.050463079            2 
 1533000    1.0060202    -4.973922    931.41673  0.050631481  0.050453092            3 
 1534000   0.98999904   -4.9910581    931.55955  0.050606234   0.05044302            3 
 1535000    1.0154577   -4.9437917    938.60723  0.050955876  0.050433147            3 
 1536000    1.0100895   -4.9611389    932.66207  0.050600156  0.050423672            1 
 1537000    1.0105974   -4.9572057    941.28147  0.051034563  0.050414221            3 
 1538000   0.98336563   -4.9710278    935.67771  0.050697752  0.050404624            2 
 1539000   0.97651179    -4.964992    937.53903  0.050765596  0.050394993            3 
 1540000   0.99893646   -4.9828654     934.4702  0.050566569   0.05038526           11 
 1541000    1.0077677   -4.9996844    933.59164  0.050486245  0.050375434            2 
 1542000    1.0078358   -4.9832704    938.73104  0.050731249  0.050365517            4 
 1543000   0.99115261   -4.9776748    938.58252   0.05069035   0.05035596            2 
 1544000    0.9877515   -5.0005504    937.54258  0.050601391  0.050346177            2 
 1545000   0.98955425   -4.9971543    940.72805  0.050740456  0.050336559            3 
 1546000    1.0313151     -4.93261    943.59251  0.050862037  0.050326951            7 
 1547000   0.97461623   -5.0009846    937.61583  0.050507209  0.050317418            4 
 1548000   0.99255363   -4.9824053    936.61958  0.050420951  0.050307385            2 
 1549000    1.0036363   -4.9618469    941.59832  0.050656247  0.050297664            3 
 1550000   0.97407623    -4.949169     942.5138  0.050672785  0.050287916            4 
 1551000    0.9858834   -4.9783142     943.1678  0.050675252  0.050278307            2 
 1552000    1.0061865   -4.9964806    939.96489  0.050470624   0.05026847            4 
 1553000   0.99183467   -4.9792448    942.85898   0.05059342  0.050258895            5 
 1554000   0.98512511   -4.9640208    941.83744  0.050506083  0.050249178            2 
 1555000     1.005946   -4.9815525    945.26533  0.050657306  0.050239433            5 
 1556000    1.0106241   -4.9778685    944.58711  0.050588427  0.050229742            3 
 1557000    1.0110187   -5.0016678     944.4037   0.05054612  0.050220204            3 
 1558000    1.0177411   -4.9777918    945.12821  0.050552429  0.050210923            3 
 1559000   0.99909201   -4.9588696    949.08176  0.050731332  0.050201223            4 
 1560000    1.0089224   -5.0202864     943.0857  0.050378509  0.050191433            4 
 1561000    1.0133156   -4.9906858     944.0493  0.050397678  0.050181775            4 
 1562000    1.0113531    -4.967694    948.49904  0.050602808  0.050172088            3 
 1563000   0.99377637   -4.9695045    948.86065  0.050589712  0.050162321            3 
 1564000   0.99948019   -4.9918743    946.61303  0.050437608  0.050152964            3 
 1565000   0.99279694   -4.9994898    948.22526  0.050491228  0.050143135            3 
 1566000    1.0097705   -4.9645947    948.65729  0.050481976  0.050133501            5 
 1567000    1.0042699   -4.9587216    947.14321  0.050369241  0.050123642            5 
 1568000    1.0270407   -4.9668086    949.81952  0.050479354  0.050114087            3 
 1569000   0.98403911   -4.9610706    951.37938  0.050530029  0.050104664            2 
 1570000    1.0100267   -4.9705943    949.82762  0.050415479   0.05009528            4 
 1571000   0.99962818   -4.9794941    952.10162  0.050504011  0.050085735            2 
 1572000    1.0112874   -5.0095835    950.46933  0.050385355  0.050076002            5 
 1573000    1.0068659   -4.9694867    951.22822  0.050393527  0.050066248            4 
 1574000   0.99605972   -5.0030302    950.46417  0.050321059  0.050056384            6 
 1575000   0.98806219   -4.9879964    950.91717  0.050313078  0.050046859            3 
 1576000   0.99993461   -4.9905769    952.97306  0.050389862  0.050037325            8 
 1577000    0.9914085   -4.9611544    956.79566  0.050559906  0.050027773            4 
 1578000   0.99007648   -5.0092945    954.77077  0.050420932  0.050018356            3 
 1579000   0.98969293   -4.9888136    954.52003  0.050375767  0.050008749            4 
 1580000    1.0136705   -5.0027755    951.52741  0.050186045  0.049999024            4 
 1581000    1.0079861   -4.9823074    952.49783  0.050205451  0.049989251            3 
 1582000    1.0146493   -4.9552868    956.82256  0.050401526  0.049979561            3 
 1583000    1.0091286   -5.0132935    953.03985  0.050170554  0.049969682            6 
 1584000   0.99722652   -5.0053758    954.44213  0.050212654   0.04995964            4 
 1585000   0.97258357   -4.9792148    954.30476  0.050173752  0.049949724            2 
 1586000    1.0167354   -5.0112342    953.14771  0.050081322   0.04993993            2 
 1587000    1.0059792   -5.0007525    956.05666  0.050202513   0.04992994            5 
 1588000   0.99331937   -4.9825344    957.57856  0.050250764  0.049920233            4 
 1589000   0.98487988    -4.974607    961.30582  0.050414612  0.049910398            3 
 1590000   0.98396893   -4.9763977    956.18673  0.050114608  0.049900755            3 
 1591000   0.96952543   -5.0079089     957.9044  0.050173078   0.04989112            3 
 1592000   0.99895842   -5.0207632    954.75435  0.049976672  0.049881455            3 
 1593000    0.9966369   -4.9901107    962.56144  0.050353706  0.049871962            3 
 1594000    1.0172504   -5.0218485    957.82136  0.050074308  0.049862363            3 
 1595000   0.99529407   -4.9914839    961.03597  0.050210866  0.049852667            2 
 1596000   0.99724767   -5.0014622    960.45438  0.050149038  0.049843136            3 
 1597000    1.0020195   -5.0099048    964.63428  0.050335748  0.049833723            4 
 1598000   0.98435152   -4.9915849    959.87109  0.050055856  0.049824261            2 
 1599000    1.0295721   -4.9953619    962.28014  0.050150101  0.049814651            4 
 1600000   0.98387206   -5.0090206    964.25273  0.050221496  0.049805125            2 
 1601000   0.98605806    -4.981021    965.07071  0.050232704  0.049795646            2 
 1602000   0.98012473   -5.0027332    964.67067  0.050180538  0.049785784            2 
 1603000   0.99655322   -4.9849508    965.05283  0.050169101  0.049776108            3 
 1604000   0.99651653   -5.0060369    964.95642  0.050132815  0.049766595            5 
 1605000   0.99193127   -5.0226241    965.90202  0.050150676  0.049757216            2 
 1606000   0.99541624   -4.9589147    966.65635   0.05015859  0.049747789            5 
 1607000   0.97141839   -4.9349876    971.16589  0.050361226  0.049738519            2 
 1608000    1.0119016   -4.9782258    970.15666  0.050277605  0.049729304            6 
 1609000   0.98818865   -5.0021258    966.92103  0.050078777  0.049719883            3 
 1610000   0.99707229   -4.9824488    971.15448  0.050266795  0.049710591            5 
 1611000   0.98062726   -4.9945066    967.61303  0.050052402  0.049701215            4 
 1612000   0.99231433   -5.0035638    970.57778  0.050174616  0.049691764            3 
 1613000   0.98484099   -4.9852904    968.68859  0.050045908  0.049682615            2 
 1614000    1.0029036   -4.9887349    971.54713  0.050162491  0.049673322            8 
 1615000   0.99238684   -5.0053888    968.31695  0.049964755  0.049663897            3 
 1616000   0.97531972   -5.0362037    968.57152  0.049946964  0.049654457            3 
 1617000   0.98767124   -5.0081171    970.90807  0.050036491  0.049644816            3 
 1618000    1.0131942   -5.0051326    977.33254  0.050336452  0.049635535            2 
 1619000   0.98521697   -5.0065869    970.76773  0.049967456  0.049626277            5 
 1620000    0.9839299   -5.0173207    971.31799  0.049964917  0.049616727            3 
 1621000   0.99634791   -4.9924459    973.19937  0.050030813  0.049607126            2 
 1622000    1.0083445   -5.0447526    972.80578  0.049979746  0.049597715            7 
 1623000    0.9941266   -4.9931499    974.03402  0.050012016  0.049588175            3 
 1624000   0.98561602   -5.0326742    973.81146    0.0499698  0.049578798            4 
 1625000   0.99905263   -5.0262994    974.42646  0.049970588  0.049569793            6 
 1626000   0.99782918   -4.9724691     975.4688  0.049993276  0.049560611            2 
 1627000   0.99312688   -4.9629781    979.60518   0.05017441    0.0495515            4 
 1628000    1.0001266   -4.9864288    976.59265  0.049989386  0.049542341            1 
 1629000    1.0099571   -5.0386646    972.04506  0.049726062  0.049532838            6 
 1630000    1.0072445   -5.0063001    977.66754  0.049983003  0.049523402            6 
 1631000   0.99939743   -5.0266959     972.5287  0.049689797  0.049514005            9 
 1632000   0.98890943   -5.0014428    979.78722  0.050029985   0.04950463            2 
 1633000   0.97206482    -4.995275    978.93425   0.04995582  0.049495259            3 
 1634000   0.98416587    -5.054379    976.36504  0.049794219  0.049485925            3 
 1635000    1.0054136   -4.9767974     979.3518  0.049915994  0.049476637            5 
 1636000     1.000879    -4.951224     981.8521  0.050012841  0.049467551            6 
 1637000     0.983298   -5.0075408    980.38184  0.049907444  0.049458372            4 
 1638000   0.97718021   -4.9762139    980.12021  0.049863666  0.049449244            3 
 1639000   0.98003147   -5.0101964    979.83534  0.049818758  0.049439933            2 
 1640000   0.95934578   -5.0343813    980.78552  0.049836663  0.049430523            3 
 1641000   0.97526623   -5.0209833    980.55671  0.049794674  0.049421146            3 
 1642000   0.99780752   -4.9953492    982.09302  0.049842317   0.04941212           10 
 1643000   0.99113952   -4.9707049    983.36451  0.049876471  0.049403158            4 
 1644000   0.98932517   -5.0307318    980.78197  0.049715226  0.049393987            7 
 1645000   0.99188021   -4.9944477    984.03994  0.049850048  0.049384795            4 
 1646000   0.96930972   -5.0409133    984.26866  0.049831342  0.049375604            6 
 1647000   0.96247166   -5.0604182    982.63201  0.049718276  0.049366394            2 
 1648000   0.96629353    -5.010279    983.95442  0.049754977  0.049357027            6 
 1649000    1.0032997   -5.0032153    986.32835  0.049844772  0.049347842            4 
 1650000   0.98103999   -4.9931061     986.9338  0.049845141  0.049338452            4 
 1651000     1.025553   -5.0151776    984.36655   0.04968537  0.049329246            5 
 1652000   0.99020839   -5.0266454     986.7692  0.049776493  0.049320165            6 
 1653000   0.98501208   -4.9925078    986.80057  0.049747962    0.0493108            2 
 1654000   0.98206752   -5.0186796    988.68269  0.049812711   0.04930159            8 
 1655000   0.99950022   -5.0518388    987.74335  0.049735315  0.049292481            5 
 1656000    1.0019082   -5.0021019    988.02896  0.049719654  0.049283284            5 
 1657000   0.99373156   -5.0096872    991.91331  0.049884998  0.049274255            6 
 1658000   0.98362557   -5.0610339    986.26851  0.049571196  0.049265234            3 
 1659000   0.99252373   -5.0153543    990.04296   0.04973091  0.049256102            2 
 1660000   0.96940977   -5.0000503    993.38153  0.049868551  0.049247202            3 
 1661000   0.99487965   -5.0218983    994.42612  0.049890935  0.049238401            3 
 1662000   0.98366954   -5.0428306    992.12585   0.04974558  0.049229455            3 
 1663000   0.98480369    -5.016688    993.40921  0.049779976  0.049220506            6 
 1664000   0.99114787   -5.0174898    989.56302  0.049557443  0.049211231            6 
 1665000   0.98301619   -5.0121654     991.9745  0.049648373  0.049202038            3 
 1666000    0.9967807   -5.0087579    991.16171  0.049577916  0.049192998            3 
 1667000   0.95575411   -5.0216373    994.34901  0.049707509  0.049183833            4 
 1668000   0.97372715   -5.0286842    995.55579  0.049737999  0.049174778            3 
 1669000   0.97861389    -4.990808    996.44778  0.049752735  0.049165727            3 
 1670000   0.98295423   -5.0441488    992.61328  0.049531601  0.049156647            6 
 1671000   0.98634154   -5.0423979    991.94503  0.049468633  0.049147519            6 
 1672000   0.99604168    -5.009665    997.75667  0.049728701  0.049138448            4 
 1673000   0.98672377   -5.0344794       992.97   0.04946055  0.049129155            3 
 1674000   0.98244085    -5.019861    997.79391  0.049671143  0.049119878            1 
 1675000   0.97459463   -4.9908069    995.40178  0.049522477   0.04911075            3 
 1676000   0.99225829   -5.0304063    995.70947  0.049508227  0.049101606           10 
 1677000   0.98487855   -5.0140429    996.52159  0.049519061  0.049092323            4 
 1678000   0.98152551   -5.0219424    996.25606  0.049476364  0.049082956            3 
 1679000   0.97890436   -5.0431949    995.16757  0.049392871  0.049073369            4 
 1680000    1.0076444   -5.0185987    998.14438   0.04951113  0.049064169            5 
 1681000   0.99759046    -5.024496    996.63648  0.049406924  0.049054669            5 
 1682000    0.9619428   -5.0301763    997.90092  0.049440196  0.049045079            7 
 1683000   0.97174531   -5.0547031    997.95008  0.049413254  0.049035787            9 
 1684000   0.97543918   -5.0267019    998.50628  0.049411435  0.049026485            3 
 1685000   0.97558635    -4.993588    999.67491  0.049439907  0.049017244            6 
 1686000   0.98198223   -5.0005384    1001.2815   0.04948999  0.049008134            6 
 1687000   0.97078338   -5.0395301    999.79368  0.049387161  0.048999018            5 
 1688000   0.98936099   -5.0141773    1001.4108  0.049437737  0.048989805            3 
 1689000   0.96778497   -5.0344771    1000.3905  0.049358127  0.048980562            3 
 1690000   0.98966277   -5.0119976    1003.3552  0.049475109  0.048971385            3 
 1691000   0.97805154     -5.03631    997.37753  0.049151268  0.048962236            2 
 1692000   0.99413049   -5.0287354    1003.4182  0.049419731  0.048953146            4 
 1693000    1.0096727    -5.027128    998.85961  0.049166155  0.048944092            6 
 1694000   0.96671984   -5.0349724    1002.5777  0.049320038  0.048934722            5 
 1695000   0.99831106   -5.0403376    1001.4121  0.049233636  0.048925525            5 
 1696000   0.98207523   -5.0068113    1006.1596  0.049437874  0.048916402            5 
 1697000   0.96293034   -5.0457569    1004.5357  0.049328999  0.048907343            1 
 1698000    0.9705479   -5.0330157    1003.9885  0.049273092  0.048898089            3 
 1699000   0.98464584   -5.0434376    1004.9531  0.049291404  0.048888731            3 
 1700000   0.99879537   -5.0176765    1003.7335  0.049202621   0.04887941            3 
 1701000   0.97544439   -5.0219221    1005.7712  0.049273528   0.04887013            4 
 1702000   0.97708902   -5.0516546    1001.7392  0.049047162  0.048860664            2 
 1703000    1.0029262   -5.0166877    1007.2065  0.049285894   0.04885122            2 
 1704000   0.96439036   -5.0454893    1008.3494  0.049312864  0.048841964            2 
 1705000   0.98438237   -5.0578408     1004.914   0.04911603  0.048832562            6 
 1706000   0.97727046   -5.0402957    1009.5072  0.049311604   0.04882346            3 
 1707000   0.96596914   -5.0363445    1011.6317  0.049386433  0.048814227            2 
 1708000   0.97365196   -5.0525654    1003.9022  0.048980397  0.048805078            2 
 1709000   0.94112351   -5.0396064    1007.3449  0.049119608  0.048795925            2 
 1710000   0.98794473   -5.0319029    1011.9469  0.049315151  0.048786706            3 
 1711000   0.96993227   -5.0486714    1010.5045  0.049216078  0.048777714            3 
 1712000   0.97198534   -5.0645393     1006.847  0.049009297  0.048768476            8 
 1713000   0.97161949   -5.0233533    1011.4038  0.049202365  0.048759412            4 
 1714000   0.96207711    -5.041083     1011.918   0.04919866  0.048750428            6 
 1715000    0.9828045   -5.0074447     1015.062  0.049322743  0.048741376            8 
 1716000   0.97192932   -5.0276031    1011.2871  0.049110676  0.048732327            7 
 1717000   0.99703225   -5.0253852    1010.5208  0.049044885  0.048723095            4 
 1718000   0.99294017   -5.0345813    1013.3254  0.049152377   0.04871391            3 
 1719000   0.99597903   -5.0359063    1009.3779  0.048932417  0.048704747            7 
 1720000    0.9775566   -5.0415242    1011.3239  0.048998251  0.048695519            6 
 1721000   0.98782751   -5.0410249     1016.906  0.049240075  0.048686128            4 
 1722000   0.97514152   -5.0415904    1012.5019  0.048998352  0.048676904            7 
 1723000   0.98977507   -5.0263448    1014.8289  0.049082457  0.048667494            4 
 1724000   0.95979058   -5.0007616    1014.9306  0.049058904  0.048658187            4 
 1725000    0.9643142   -5.0366722    1017.2334  0.049141711  0.048648983            2 
 1726000   0.94401528   -5.0185605    1018.3195  0.049165679  0.048639918            4 
 1727000   0.97420086   -5.0406278     1018.153  0.049129176  0.048630662            7 
 1728000    0.9687792   -5.0450657    1014.1886  0.048909559  0.048621264            3 
 1729000    0.9759353   -5.0465498    1016.9044  0.049012164  0.048611989            4 
 1730000   0.96750767   -5.0641042    1015.0041  0.048892297  0.048602669            4 
 1731000   0.98118955   -5.0466605    1015.3395  0.048880199  0.048593249            3 
 1732000   0.97097027   -5.0423485    1017.3948  0.048950866  0.048584018            4 
 1733000   0.96828015   -5.0511405    1016.9843  0.048902878  0.048574633            4 
 1734000   0.99750587     -5.03919    1016.4198  0.048847548  0.048565269            7 
 1735000   0.97308602   -5.0457604    1018.9622  0.048941509  0.048556015            3 
 1736000   0.98419258    -5.065042    1018.1729  0.048875425  0.048546756            8 
 1737000   0.98643639   -5.0512648    1017.6728  0.048823299  0.048537346            3 
 1738000    1.0004933   -5.0664986    1017.3251  0.048778533  0.048527866            3 
 1739000   0.99161096   -5.0121979    1020.7894  0.048916495  0.048518505            7 
 1740000   0.96722146   -5.0313599    1022.7594  0.048982728  0.048509337            3 
 1741000   0.95908495    -5.034603     1026.596  0.049138237  0.048500192            7 
 1742000   0.97353491   -5.0357246    1023.7643  0.048974563  0.048491041            4 
 1743000   0.98611583   -5.0636368    1022.6489   0.04889314  0.048481691            5 
 1744000   0.99134993   -5.0303521     1026.278  0.049038514  0.048472605            6 
 1745000   0.97763461   -5.0519994     1024.935  0.048946273   0.04846351            3 
 1746000   0.97926514   -5.0570195    1020.5037  0.048706745  0.048454431            5 
 1747000   0.95467761   -5.0447104    1023.3001  0.048812252  0.048445483            3 
 1748000    0.9528313   -5.0485349    1023.5468  0.048796091  0.048436342            5 
 1749000   0.98037624   -5.0653674    1023.4402  0.048763113  0.048427272            3 
 1750000   0.98378159   -5.0547859     1023.029  0.048715668  0.048418066            3 
 1751000     0.969201   -5.0328163    1026.7115  0.048863103  0.048408907            2 
 1752000   0.99459087   -5.0676453    1025.6075  0.048782702  0.048399801            3 
 1753000   0.95149117   -5.0609327    1026.6711  0.048805434  0.048390764            3 
 1754000   0.96369006   -5.0569498    1026.8143  0.048784414  0.048381643            5 
 1755000    0.9783878   -5.0428142    1031.1145  0.048960803  0.048372669            7 
 1756000    0.9711194   -5.0263383    1029.0839  0.048836555  0.048363504            3 
 1757000   0.98871261   -5.0579298    1028.2749  0.048770389  0.048354386            4 
 1758000   0.96317655   -5.0505445    1030.2839  0.048837878  0.048345239            8 
 1759000   0.96520259   -5.0474385    1030.6906  0.048829381  0.048336136            6 
 1760000   0.97976974    -5.021842    1031.1453  0.048823169  0.048327123            5 
 1761000   0.96632453   -5.0481073     1027.159  0.048606803  0.048318139            7 
 1762000   0.97628714   -5.0708884    1033.5903  0.048883386   0.04830907            4 
 1763000   0.94417954   -5.0636537     1030.509  0.048710013  0.048299825            3 
 1764000   0.96857621   -5.0572707    1032.8643  0.048793665  0.048290674            3 
 1765000   0.97394425   -5.0555259    1032.1953  0.048734436  0.048281698            5 
 1766000   0.97472917   -5.0125276    1036.4472  0.048907475  0.048272756            3 
 1767000   0.98367406   -5.0329041    1033.1119  0.048722499  0.048263674            3 
 1768000   0.96000958   -5.0596739    1028.9236  0.048497529  0.048254487            3 
 1769000   0.96427174   -5.0386393    1031.7328  0.048602449  0.048245405            3 
 1770000   0.98359815   -5.0596229    1033.6376  0.048664672  0.048236617            3 
 1771000   0.97098844   -5.0761029     1036.102  0.048753152  0.048227834            5 
 1772000   0.96821921   -5.0481331    1038.6198  0.048844044  0.048219089            3 
 1773000   0.97917223    -5.051169    1038.6633  0.048818543  0.048210605            4 
 1774000   0.99539206   -5.0799664    1035.2276  0.048629634   0.04820168            3 
 1775000   0.95601243   -5.0478072    1039.3337  0.048795011   0.04819284            5 
 1776000   0.97655235   -5.0323238    1035.0113   0.04856472  0.048184322            6 
 1777000   0.96025913   -5.0826454    1038.2891  0.048691102  0.048175449            2 
 1778000   0.94458856   -5.0713417    1036.7144  0.048589913  0.048166703            4 
 1779000   0.97061514   -5.0535916    1037.8789  0.048617149   0.04815781            4 
 1780000   0.97327857   -5.0543525    1038.9331  0.048639192  0.048148953            5 
 1781000   0.95533587   -5.0471909    1038.6013  0.048596357  0.048140163            3 
 1782000   0.94532887   -5.0481057    1043.8629  0.048815137  0.048131586            2 
 1783000   0.98392236   -5.0572204    1042.7049  0.048733638  0.048122936            6 
 1784000   0.96622265   -5.0352185      1038.78  0.048522981  0.048114319            3 
 1785000   0.97051346   -5.0611909    1042.9241  0.048689269  0.048105507            2 
 1786000   0.96029172   -5.0713755    1038.5889  0.048459728  0.048096574           10 
 1787000    0.9777134   -5.0602343    1045.8077  0.048769247  0.048087824            5 
 1788000   0.97080056   -5.0849927    1039.4703  0.048446603  0.048079054            4 
 1789000   0.97332033   -5.0640283    1042.8093  0.048575054  0.048070202            5 
 1790000   0.96386312   -5.0439178    1042.6203  0.048539118  0.048061202            8 
 1791000   0.92193134    -5.088876    1043.0795  0.048533387  0.048052267            3 
 1792000    0.9719445    -5.040206      1048.92  0.048777904  0.048043281            3 
 1793000   0.97487663   -5.0673289    1043.7854  0.048512056  0.048034349            4 
 1794000   0.97185172   -5.0599904    1044.2331  0.048505813  0.048025517            2 
 1795000   0.95694326   -5.0759071    1046.1101  0.048565929  0.048016668            7 
 1796000   0.97828399   -5.0531356    1047.4623   0.04860163  0.048007833            3 
 1797000   0.96723635   -5.0850956    1043.7324  0.048401612  0.047999138            3 
 1798000   0.99007234   -5.0685231    1045.1681  0.048441236  0.047990359            4 
 1799000   0.98619316   -5.0548125    1051.5402  0.048709475  0.047981744            3 
 1800000    0.9543534   -5.0383356     1047.413  0.048491343  0.047973276            5 
 1801000   0.95931685   -5.0655592    1046.9379  0.048442433   0.04796445            4 
 1802000   0.97073839   -5.0764346    1046.2882  0.048385508  0.047955607            7 
 1803000   0.95826008   -5.0442606    1049.0482  0.048486236  0.047946871            3 
 1804000   0.97311654   -5.0984227    1048.3073  0.048425136  0.047938113            2 
 1805000   0.97607534   -5.0980327    1046.6598  0.048322244  0.047929047            3 
 1806000   0.97799617   -5.0496633    1051.2039  0.048505161  0.047920345            2 
 1807000    0.9700889   -5.0448723    1050.6198  0.048451384  0.047911756            3 
 1808000   0.95377985   -5.0540431     1049.971   0.04839468  0.047903117            3 
 1809000   0.96012896   -5.0502503    1051.6422  0.048444915  0.047894383            4 
 1810000    0.9695849   -5.0552165    1048.8523  0.048289703  0.047885414            5 
 1811000   0.94750004    -5.034952    1055.8432  0.048584722  0.047876516            4 
 1812000   0.94661145   -5.0540605    1052.7727    0.0484167  0.047867837            4 
 1813000   0.97255993   -5.0937423    1049.3584   0.04823306  0.047858667            4 
 1814000    0.9578341   -5.0473282    1052.4589  0.048348901   0.04784957            2 
 1815000   0.98598745   -5.0417269    1053.8772  0.048387385  0.047840488            4 
 1816000   0.95337732   -5.0534561    1053.4047  0.048339055  0.047831428            5 
 1817000   0.97606798   -5.0618383    1055.8557  0.048424863  0.047822338            1 
 1818000   0.96744686   -5.0611583    1053.3283  0.048282375  0.047813316            2 
 1819000   0.96370053   -5.0617065    1054.7831  0.048322482  0.047804265            2 
 1820000   0.95325232   -5.0699685    1052.7765   0.04820405  0.047795119            3 
 1821000   0.93259481   -5.0409387    1054.6733  0.048264382  0.047786193            5 
 1822000   0.96033453   -5.0652234    1054.0361  0.048208748   0.04777726            4 
 1823000   0.96754928   -5.0407375    1059.7978  0.048445685  0.047768356            4 
 1824000   0.95382885    -5.080596    1054.1991  0.048163337  0.047759345            3 
 1825000   0.96177705   -5.0515507    1057.2674  0.048277051   0.04775035            6 
 1826000   0.96230371   -5.0871229    1055.8048  0.048183865  0.047741313            7 
 1827000    0.9485437    -5.099959    1054.7537  0.048109548  0.047732239            4 
 1828000    0.9697034   -5.0612354    1056.5249   0.04816397  0.047723311            3 
 1829000   0.97583891   -5.0761804    1059.0312   0.04825183  0.047714366            4 
 1830000    0.9443058   -5.0657112    1058.7222  0.048211393  0.047705532            5 
 1831000   0.97379284   -5.0323201    1059.1728  0.048205572  0.047696997            3 
 1832000   0.95391605   -5.0461089    1061.3139  0.048276651  0.047688279            5 
 1833000   0.96581478   -5.0626557    1060.8828  0.048230713  0.047679282            4 
 1834000   0.95696443   -5.0955354     1059.969  0.048162896  0.047670507            2 
 1835000   0.96964855   -5.0539669    1060.1859  0.048146498  0.047661627            5 
 1836000    0.9554184   -5.0590772    1061.1793  0.048165366  0.047652749            2 
 1837000   0.94857931   -5.0295957    1063.1692  0.048229414  0.047643913            3 
 1838000   0.97707136   -5.0792978    1064.2601  0.048252636  0.047635209            3 
 1839000   0.96018593   -5.0736953    1060.6836   0.04806433  0.047626345            4 
 1840000   0.95646872   -5.0734366    1059.8879   0.04800217  0.047617255            3 
 1841000   0.96652795     -5.07142    1065.9127  0.048248812    0.0476083            2 
 1842000   0.95358597   -5.0615455    1062.8174   0.04808258  0.047599396            3 
 1843000   0.94471647   -5.0833731    1063.4912  0.048086958  0.047590346            4 
 1844000   0.95870962   -5.0849039    1062.5292  0.048017407  0.047581438            1 
 1845000    0.9605999   -5.0559266    1063.9731  0.048056599  0.047572531            2 
 1846000   0.96850342   -5.1030441    1063.9065  0.048027559   0.04756356            4 
 1847000   0.93887351   -5.0653608    1064.6958   0.04803717  0.047554557            3 
 1848000    0.9469099   -5.0813117    1064.7578  0.048013968  0.047545923            3 
 1849000   0.96792768   -5.0838414    1059.7939  0.047764281  0.047536913            4 
 1850000   0.94870406   -5.1033074    1067.4644  0.048083983  0.047527717            3 
 1851000   0.96785975   -5.1003209    1063.5515  0.047881845  0.047518704            4 
 1852000   0.96778202   -5.0706807    1064.7308  0.047909051  0.047509486            5 
 1853000   0.94253924   -5.0600566    1065.4547  0.047915755  0.047500474            4 
 1854000   0.94833276    -5.055652    1066.8095  0.047950806  0.047491226            5 
 1855000   0.95628266   -5.0662197    1068.2513  0.047989727   0.04748196            3 
 1856000   0.96364222   -5.0659788    1068.4966  0.047974881  0.047473038            4 
 1857000   0.96078594   -5.1004713    1068.7858  0.047962025  0.047464186            4 
 1858000   0.93784378   -5.0648455    1069.3773  0.047962743  0.047455429            7 
 1859000   0.96127031   -5.0775493    1066.5712  0.047811154  0.047446504            5 
 1860000   0.95894178   -5.0719295    1069.5924  0.047920808  0.047437526            6 
 1861000   0.97126206   -5.0648019    1071.2899  0.047971068   0.04742851            2 
 1862000   0.94705494    -5.055125    1073.4993  0.048044186  0.047419629            2 
 1863000   0.96230517   -5.0848578    1065.5706  0.047663743  0.047410561            2 
 1864000   0.96664307   -5.0947826    1068.0808  0.047750392  0.047401281            3 
 1865000    0.9599932     -5.09451    1070.7822  0.047845494  0.047392237            2 
 1866000   0.95450597    -5.073934    1071.4247   0.04784855  0.047383219            4 
 1867000   0.95423629   -5.0837141    1072.2009  0.047857567  0.047374296            3 
 1868000   0.94709869   -5.0915321    1071.9466    0.0478206  0.047365314            3 
 1869000   0.93214369   -5.0792376    1074.3257  0.047901094  0.047356411            3 
 1870000   0.94636416   -5.0882137    1075.3583  0.047921493  0.047347359            4 
 1871000   0.95169754   -5.0601999     1072.519  0.047769421  0.047338448            2 
 1872000   0.95234357   -5.0919807    1073.7464  0.047798541  0.047329547            3 
 1873000   0.94883882   -5.1065613    1073.3609  0.047755869  0.047320536            4 
 1874000   0.95952208   -5.0474337    1079.6676  0.048010833  0.047311627            3 
 1875000   0.94300992   -5.0826509    1074.9272  0.047774544  0.047302852            1 
 1876000   0.96802721   -5.0879093    1072.5828  0.047644935  0.047293878            8 
 1877000   0.95742067   -5.0633751    1075.5409  0.047750882  0.047284668            3 
 1878000   0.93260481   -5.0893291    1074.4808  0.047678418  0.047275501            3 
 1879000   0.95172203   -5.1071938    1072.5146  0.047565841  0.047266152            7 
 1880000   0.94955973   -5.0832714    1075.0638  0.047653538  0.047257114            4 
 1881000   0.94741119      -5.0853    1075.3557  0.047641134  0.047247914            2 
 1882000   0.93150895   -5.0573567     1077.324  0.047702978  0.047238514            2 
 1883000    0.9188138   -5.0522673    1078.1981  0.047716328  0.047229198            4 
 1884000    0.9482922   -5.0607825    1076.7268  0.047625918  0.047219983            7 
 1885000   0.95886573   -5.0800872    1075.3081  0.047537935  0.047210821            4 
 1886000    0.9485005   -5.0772988    1076.4142  0.047561604  0.047201434            2 
 1887000   0.94018222   -5.0610746    1076.5703  0.047543294  0.047192178            8 
 1888000   0.93009773   -5.0908683    1077.6593  0.047566177  0.047182845            2 
 1889000   0.94589551   -5.0948967    1079.5692  0.047625252  0.047173735            5 
 1890000    0.9496114   -5.0913245    1080.4233  0.047637713  0.047164631            5 
 1891000   0.94755746   -5.1104516    1078.6405  0.047533955  0.047155514            3 
 1892000   0.94592985   -5.0914777    1083.5399  0.047724627  0.047146514            7 
 1893000   0.95919831   -5.0911653    1080.4945  0.047565352  0.047137743            3 
 1894000   0.95727885   -5.0834308    1083.3341  0.047665174  0.047128886            4 
 1895000    0.9442356   -5.0826645    1078.6651  0.047434701  0.047119919            5 
 1896000   0.95595474   -5.0909773    1082.1103  0.047561107  0.047110918            5 
 1897000   0.98261172   -5.0920917    1081.5942  0.047513365  0.047101794            4 
 1898000   0.95137872   -5.1015581    1082.8572  0.047543784  0.047092841            3 
 1899000   0.95849893   -5.1115448    1083.4688  0.047545587  0.047083821            2 
 1900000   0.93767509   -5.1066389    1087.2909  0.047688198  0.047075086            4 
 1901000    0.9438996   -5.0924025     1086.097  0.047610774  0.047066563            3 
 1902000   0.94584539   -5.0980206    1086.6894  0.047611699  0.047057893            3 
 1903000   0.95038912   -5.0808952    1086.8753  0.047594819  0.047049241            4 
 1904000   0.94654239   -5.0922161    1090.4803  0.047727602  0.047040671            3 
 1905000   0.96166617   -5.0817363    1087.0441  0.047552236  0.047032203            4 
 1906000   0.94148528   -5.0618732    1090.3263   0.04767079  0.047023486            3 
 1907000    0.9547612   -5.1128885    1086.3858  0.047473597  0.047014821            4 
 1908000   0.95276962   -5.0991621    1090.6832   0.04763641  0.047006286            2 
 1909000   0.93487158   -5.1079467    1087.5749  0.047475767  0.046997661            4 
 1910000   0.94383378   -5.1003451    1089.2207   0.04752272  0.046988992            3 
 1911000   0.93174104   -5.0980158    1087.6301   0.04742849  0.046980435            4 
 1912000   0.95932195   -5.1018306    1089.7648  0.047496724  0.046972051            2 
 1913000   0.92066508   -5.1195119    1091.9949  0.047569039  0.046963514            3 
 1914000   0.95904045   -5.0816651     1094.195  0.047639976  0.046954952            3 
 1915000   0.92291742   -5.1137956    1086.9779  0.047301039  0.046946152            4 
 1916000   0.94360615   -5.1250674    1093.0888  0.047542137  0.046937374            3 
 1917000   0.94592211   -5.0980671    1091.4119   0.04744444  0.046928434            5 
 1918000   0.94315477   -5.0906593    1090.4534   0.04737806  0.046919685            6 
 1919000   0.95140299   -5.1137434    1091.8885  0.047415689  0.046910935            5 
 1920000   0.95440852   -5.0714354    1094.2254  0.047492422  0.046902354            5 
 1921000   0.93610443   -5.1117862    1097.4104  0.047605867   0.04689379            3 
 1922000   0.95975519   -5.0861227    1095.9973  0.047519828  0.046885077            4 
 1923000   0.94647541   -5.0875724    1092.6914  0.047351855   0.04687646            7 
 1924000   0.95080283   -5.1140028    1096.6009  0.047496576   0.04686782            5 
 1925000   0.94455583   -5.0861411    1094.6989  0.047389561  0.046859181            5 
 1926000   0.93476379   -5.0743776    1096.3131  0.047434802  0.046850714            8 
 1927000    0.9513973   -5.1133022    1098.1174  0.047488211  0.046842408            5 
 1928000   0.96225197   -5.1179219    1095.5156  0.047351125  0.046833891            3 
 1929000   0.97164192   -5.1260765    1095.2499  0.047315096  0.046825327            4 
 1930000   0.93350776   -5.1081323    1098.4761  0.047429883  0.046816832            7 
 1931000   0.95096336   -5.0656033    1100.5609  0.047495292  0.046808329            4 
 1932000   0.94519127   -5.1119695    1097.0195  0.047317957  0.046799674            4 
 1933000   0.94535511   -5.1339568    1097.1908  0.047300863  0.046790999            3 
 1934000   0.93078706   -5.0865923    1097.7962  0.047302491  0.046782557            4 
 1935000   0.92899031     -5.08848    1099.6113  0.047356216  0.046773887            6 
 1936000   0.96019966    -5.109582    1100.4589  0.047368238  0.046765141            2 
 1937000   0.94729807   -5.1162093    1098.4597  0.047257773  0.046756321            6 
 1938000   0.92589454    -5.100612    1097.4821  0.047191355  0.046747632            4 
 1939000   0.94781935   -5.1239765    1094.5282  0.047040062  0.046738783            3 
 1940000   0.93689644   -5.0768084    1101.2743  0.047305599  0.046730013            5 
 1941000   0.93988867   -5.0874905    1104.6368  0.047425589  0.046721356            3 
 1942000   0.93657884   -5.1331967    1096.8607  0.047067484  0.046712267            7 
 1943000   0.94890228   -5.1201777     1101.539   0.04724391  0.046703189            2 
 1944000     0.932665   -5.1009445    1097.3205  0.047038773  0.046694053            4 
 1945000   0.96243799   -5.1371196    1098.0951  0.047047774  0.046684845            8 
 1946000   0.93167356   -5.0857799    1100.3841  0.047121621  0.046675863            3 
 1947000   0.94798562   -5.1256603    1097.6619  0.046980905  0.046666904            5 
 1948000   0.94619255   -5.1454847    1098.8635  0.047008191  0.046658042            3 
 1949000   0.94681292   -5.1202314    1100.8725   0.04706997  0.046649243            4 
 1950000   0.94304128   -5.1273112    1102.2509  0.047104738  0.046640207            6 
 1951000   0.94254547   -5.1074317    1101.8614   0.04706396  0.046631344            9 
 1952000    0.9184574   -5.1082512    1103.2235  0.047097998  0.046622349            6 
 1953000   0.92988669   -5.0750156    1104.7321  0.047138251  0.046613601            5 
 1954000   0.94354327   -5.1057057    1106.8808  0.047205765  0.046604907            4 
 1955000   0.93953821   -5.0950005    1104.5153  0.047080787  0.046596239            2 
 1956000   0.93682574   -5.0811021    1109.7654  0.047280395  0.046587442            4 
 1957000   0.94477025   -5.0986077    1109.0166  0.047224347  0.046578794            3 
 1958000   0.94702567   -5.1086424    1103.7576  0.046976403  0.046570178           15 
 1959000   0.92641045   -5.0933522    1109.4576  0.047194897  0.046561476            5 
 1960000   0.95269604   -5.0940239    1106.4404  0.047042534  0.046552837            4 
 1961000   0.95705134   -5.1135705    1103.0421  0.046874133   0.04654407            4 
 1962000   0.93838159   -5.1139555    1106.7001  0.047005609   0.04653517            2 
 1963000   0.93095296   -5.0937234    1109.1949  0.047087575  0.046526399            3 
 1964000   0.94709864   -5.1257719    1106.7319  0.046959091   0.04651746            5 
 1965000   0.94499748   -5.1246144    1107.6089  0.046972388  0.046508624            5 
 1966000   0.95534081   -5.1472702    1105.0545  0.046840223  0.046499726            4 
 1967000   0.93149939    -5.105503    1112.1588  0.047117386  0.046490792            7 
 1968000   0.92298058   -5.1184392    1111.9315  0.047083819  0.046482028            2 
 1969000   0.95007446   -5.1092213    1109.8577  0.046972139  0.046473483            3 
 1970000   0.93404692   -5.0972408    1107.7973  0.046861138  0.046464669            4 
 1971000   0.95470556   -5.1399035    1109.1874  0.046896137   0.04645581            2 
 1972000   0.94350157   -5.1224978    1111.4941  0.046969833  0.046446869            6 
 1973000   0.92777825   -5.0822387    1112.2469  0.046977822  0.046438141            5 
 1974000   0.92501538   -5.1113438    1108.4036  0.046791777  0.046429566            8 
 1975000   0.91647559    -5.110159    1114.8664  0.047040777  0.046420845            2 
 1976000   0.93331246   -5.1376718    1112.0852  0.046899681  0.046412152            1 
 1977000   0.93588267   -5.1326355    1112.4669  0.046892044  0.046403576            3 
 1978000   0.93586674   -5.1633117    1113.0932  0.046894723  0.046394877            4 
 1979000    0.9349334   -5.0868522    1119.6852  0.047148612  0.046386393            2 
 1980000   0.94545799   -5.0930635    1117.2704  0.047023163  0.046378061            3 
 1981000   0.92371138   -5.1252254    1117.0236  0.046989047  0.046369604            4 
 1982000   0.93606997   -5.1316696    1120.6106  0.047116154  0.046361169            3 
 1983000   0.92521925   -5.1269352    1115.3977  0.046873325   0.04635276            4 
 1984000   0.93433981   -5.0963743     1116.346  0.046889533  0.046344374            3 
 1985000   0.93060166   -5.1090808    1118.5084   0.04695669   0.04633588            7 
 1986000   0.92342502   -5.1191457    1118.5606  0.046935236   0.04632748            7 
 1987000   0.94535754   -5.1074548    1117.4194  0.046863758  0.046318969            2 
 1988000   0.92975533   -5.1276414    1118.0054  0.046864748  0.046310409            2 
 1989000   0.91468834   -5.1288704    1116.1519  0.046763529  0.046301713            3 
 1990000   0.92796345   -5.1158691    1119.9285  0.046898176   0.04629305            5 
 1991000   0.93902568   -5.1495537    1114.5113  0.046647886  0.046284394            8 
 1992000   0.94547852   -5.1096879    1121.6263  0.046922117  0.046275703            2 
 1993000   0.92786004   -5.1413106    1118.1827  0.046754587  0.046267044            3 
 1994000   0.94049154    -5.131192    1120.3545  0.046821902  0.046258424            2 
 1995000   0.94471587    -5.088495    1120.4258   0.04680141  0.046249686           11 
 1996000   0.93369462   -5.1394612    1120.4485  0.046778914  0.046241044            3 
 1997000   0.93940393   -5.1104197    1121.7687   0.04681058  0.046232432            4 
 1998000   0.94697229   -5.1480366    1121.2654  0.046766158   0.04622389            4 
 1999000   0.93461851   -5.1305653    1124.2904  0.046868869  0.046215386            4 
 2000000   0.94009571   -5.1355209     1125.462  0.046894249  0.046206815            5 
 2001000   0.94828037    -5.156382    1121.4509   0.04670377  0.046198143            5 
 2002000   0.92099193    -5.133987    1122.5938  0.046728012  0.046189631            4 
 2003000   0.92113222   -5.1159702    1121.5012  0.046659228  0.046181299            9 
 2004000   0.94396186   -5.1173661    1124.7822  0.046772382  0.046172905            4 
 2005000   0.94784854   -5.1360444    1128.0894   0.04688651  0.046164477            6 
 2006000   0.91936426   -5.1402022    1127.8545  0.046853377  0.046156155            4 
 2007000   0.93026921   -5.1213593    1125.7001  0.046740578  0.046147803            2 
 2008000   0.94406273   -5.0868398    1129.6724  0.046882155  0.046139377            2 
 2009000   0.94110939   -5.1471894    1125.6066  0.046690169  0.046130872            3 
 2010000   0.92520777    -5.116983    1125.8813   0.04667833  0.046122579            9 
 2011000   0.94018445    -5.119675    1127.9485  0.046740781  0.046114178            3 
 2012000   0.93989599   -5.1414074    1126.5552  0.046659843  0.046105769            3 
 2013000   0.93769056   -5.1297496    1126.4653   0.04663294  0.046097205            6 
 2014000   0.92006525   -5.1051568    1129.9891  0.046755589  0.046088688            2 
 2015000    0.9709127   -5.1211011    1130.7843  0.046765271  0.046080317            4 
 2016000   0.92148325   -5.1199276    1128.0128  0.046627514  0.046071914            6 
 2017000   0.91820241    -5.151145    1128.6489  0.046630677  0.046063297            2 
 2018000   0.93549844   -5.1363305    1129.8405  0.046656778  0.046054869            3 
 2019000   0.93892388   -5.1445203    1129.7718  0.046630831  0.046046229            6 
 2020000    0.9292876   -5.1903475    1127.8998  0.046530521  0.046037436            6 
 2021000   0.93813498   -5.1153866    1127.4568  0.046489229  0.046028893            3 
 2022000   0.94002852   -5.1073915    1132.8785  0.046689683  0.046020427            3 
 2023000    0.9188008   -5.1466072     1129.852  0.046541933  0.046012021            5 
 2024000   0.92689459   -5.1401543    1133.0962  0.046652513  0.046003464            5 
 2025000   0.95140179   -5.1167783    1134.6743  0.046694416  0.045994936            7 
 2026000   0.91117038   -5.1579891     1127.755  0.046386764  0.045986251            5 
 2027000   0.93400298   -5.1578353    1128.0094  0.046374338  0.045977534            8 
 2028000   0.91905722   -5.1529571    1130.5116  0.046454291  0.045968992            8 
 2029000   0.91748044   -5.1502141    1127.6516  0.046313932  0.045960202            3 
 2030000   0.94204728   -5.1483503    1135.0188  0.046593546  0.045951481            6 
 2031000   0.94095324   -5.1163734    1132.0924  0.046450535  0.045942942            8 
 2032000   0.91310235    -5.121609    1136.9766  0.046627976  0.045934484            8 
 2033000   0.94353331   -5.1198995    1134.2634  0.046493828  0.045925956            6 
 2034000   0.93474633   -5.1529589    1132.9807  0.046418415  0.045917484            5 
 2035000   0.93854162   -5.1357347    1133.2939  0.046408433  0.045908686            2 
 2036000   0.93213423   -5.1194519    1131.7288  0.046321579  0.045900077            3 
 2037000   0.94922461   -5.1136045    1134.0446  0.046393576  0.045891359            7 
 2038000   0.91701969   -5.1070429    1138.8909  0.046568975  0.045882778            3 
 2039000    0.9239992   -5.1424779     1133.804  0.046338238  0.045874196            3 
 2040000   0.91201891   -5.1387726    1136.6334  0.046431102  0.045865585            8 
 2041000   0.93708784   -5.1481724     1133.726  0.046289645  0.045856904            4 
 2042000   0.93125162    -5.160807    1133.6245  0.046262835   0.04584804            5 
 2043000   0.93172733   -5.1165973    1137.3629   0.04639268  0.045839293            3 
 2044000   0.91433183   -5.1232459    1137.4123  0.046371995  0.045830746            4 
 2045000   0.92300673   -5.1171854    1136.5099  0.046312548  0.045822271            7 
 2046000   0.94858666   -5.1410306    1136.8552  0.046303977  0.045813701            4 
 2047000   0.92136128   -5.1431713    1138.5807  0.046351598  0.045805035            2 
 2048000     0.915423   -5.1437249    1139.9875  0.046386209  0.045796262            4 
 2049000    0.9283908   -5.1608984    1131.7273  0.046027627  0.045787374            2 
 2050000   0.91969075   -5.1499416    1136.3793  0.046194282   0.04577858            7 
 2051000    0.9386398   -5.1445224    1135.4317  0.046133257   0.04576976            5 
 2052000   0.92113825   -5.1513942    1137.2498  0.046184609   0.04576099            5 
 2053000   0.91878695   -5.1479641     1139.973  0.046272648  0.045752095            4 
 2054000   0.90625412   -5.1493237    1140.5444  0.046273304  0.045743442           10 
 2055000   0.90475028   -5.1636131    1140.0322  0.046230016  0.045734556            5 
 2056000   0.92621273   -5.1512308    1137.8822  0.046120389  0.045725763            4 
 2057000   0.92660723   -5.1529281     1139.658  0.046169907  0.045717153            5 
 2058000   0.91663334   -5.1255317    1140.6593   0.04618802  0.045708574            5 
 2059000   0.92758512   -5.1376329    1139.0772  0.046101554  0.045699798            3 
 2060000   0.89306737   -5.1305225    1144.1925  0.046286105  0.045691139            4 
 2061000   0.92691587   -5.1399681    1139.8944  0.046089861  0.045682351            4 
 2062000   0.92713688   -5.1580297    1142.5005   0.04617283  0.045673799            3 
 2063000   0.94785994   -5.1605735     1142.311  0.046142792  0.045665146            3 
 2064000   0.93126862   -5.1461343    1142.6238  0.046133066  0.045656419            8 
 2065000   0.91267761   -5.1228521    1141.9084  0.046081855  0.045647837            2 
 2066000   0.91239615   -5.1670799     1142.475  0.046082405  0.045639093            3 
 2067000   0.90657816    -5.124153    1146.6118   0.04622689  0.045630396            5 
 2068000   0.91115151   -5.1674543    1143.9734   0.04609822   0.04562182            4 
 2069000   0.93366225   -5.1659819    1146.0244  0.046158545  0.045613242            4 
 2070000   0.93866151   -5.1524677    1143.0613  0.046016959  0.045604565            4 
 2071000   0.90563843   -5.1735332    1143.0043  0.045992448  0.045595747            5 
 2072000   0.91375429   -5.1657436    1141.9777  0.045928963  0.045586988            3 
 2073000   0.93016852   -5.1538492    1145.5651  0.046051019  0.045578238            5 
 2074000   0.91874918   -5.2028061    1146.2862  0.046057787  0.045569472            5 
 2075000   0.93145966   -5.1584148    1144.0492  0.045945751  0.045560705            3 
 2076000   0.92913347   -5.1260193    1147.9629  0.046080722  0.045551995            4 
 2077000   0.90304105   -5.1735808    1144.3101  0.045911978  0.045543378            3 
 2078000   0.90005608   -5.1475758    1145.8203  0.045950447  0.045534673            4 
 2079000   0.93569294   -5.1585865    1148.4523  0.046033843  0.045525992            4 
 2080000   0.91478945   -5.1692024    1146.7221   0.04594239  0.045517146            4 
 2081000   0.90948579   -5.1353773    1148.6635  0.045998059  0.045508374            7 
 2082000   0.92254725   -5.1505167    1146.2473  0.045879256  0.045499784            2 
 2083000    0.9452404   -5.1545462    1148.7481  0.045957277  0.045491028            6 
 2084000    0.9092581   -5.1533775    1146.4806  0.045844554  0.045482256           16 
 2085000   0.88993923   -5.1504107    1149.4754  0.045942263  0.045473381            3 
 2086000   0.91371007   -5.1311443    1147.2833  0.045832667  0.045464622            5 
 2087000   0.89784936   -5.1671912    1150.6034  0.045943277  0.045455698            6 
 2088000   0.94416125   -5.1591698    1148.4457  0.045835156  0.045446821            4 
 2089000   0.92284635   -5.1509505    1144.3947  0.045651616  0.045437764            4 
 2090000   0.90954463   -5.1334979    1148.0617  0.045775986  0.045428861            3 
 2091000   0.90316985   -5.1698679    1147.7282  0.045740801  0.045419944            4 
 2092000   0.91532544   -5.1824612    1148.5429  0.045751389  0.045410902            4 
 2093000   0.90627678   -5.1408934    1151.7802  0.045858425  0.045401963            7 
 2094000   0.92707952   -5.1280835     1152.522  0.045866047  0.045392973            4 
 2095000   0.91126636   -5.1775255       1156.3  0.045994431  0.045384034            3 
 2096000    0.9193246    -5.124003    1155.8146  0.045953189   0.04537508            3 
 2097000   0.92883645   -5.1524271    1151.3029  0.045751982  0.045366052            7 
 2098000   0.89455971    -5.171384    1150.5355  0.045699695  0.045357217            4 
 2099000   0.93244441   -5.1723701    1150.3475  0.045670458  0.045348252            3 
 2100000   0.91899543    -5.138604    1153.2876  0.045765382   0.04533923            3 
 2101000   0.93113036   -5.1312076     1154.628  0.045796763  0.045330284            5 
 2102000   0.91044539   -5.1649111     1152.132  0.045676022  0.045321288            4 
 2103000   0.91408715   -5.1858915    1149.8922  0.045565548  0.045312313            7 
 2104000   0.91336167   -5.1531717    1153.2893   0.04567844  0.045303208            5 
 2105000   0.91783481   -5.1534164    1149.0076  0.045487238  0.045294189            7 
 2106000   0.90641786    -5.135885    1158.1311  0.045826651  0.045285403            5 
 2107000   0.90171196   -5.1662873    1155.9614  0.045719089  0.045276565            8 
 2108000    0.9042189   -5.1288555    1159.2463  0.045827257  0.045267692            4 
 2109000   0.91068793   -5.1484041    1157.7461   0.04574625  0.045258872            2 
 2110000   0.90560736   -5.1211713    1158.6752  0.045761263  0.045250003            4 
 2111000   0.91075948   -5.1499009    1157.3779  0.045688373  0.045241236            4 
 2112000    0.9198937   -5.1793231    1157.7945  0.045683179  0.045232491            4 
 2113000   0.91879276   -5.1822118     1157.573  0.045652826  0.045223556            4 
 2114000   0.92004952   -5.1268918    1158.9934  0.045687222  0.045214634            5 
 2115000   0.91022627   -5.1725622    1154.9549  0.045506496   0.04520576            4 
 2116000   0.92571292   -5.1664868    1160.1402  0.045689201  0.045196908            3 
 2117000   0.93085292   -5.1686325    1158.5126  0.045603549  0.045187949            4 
 2118000   0.93145576   -5.1844939    1158.6991  0.045589357  0.045179017            5 
 2119000   0.92619594   -5.1774368    1160.1983    0.0456268  0.045170191            2 
 2120000    0.9313867   -5.1744884    1157.8342  0.045512352  0.045161265            5 
 2121000   0.92798634    -5.148517    1160.3218   0.04558863  0.045152354            3 
 2122000   0.91127649   -5.1495138    1163.3653  0.045686667  0.045143565            3 
 2123000   0.91279708   -5.1720727    1158.9244   0.04549083  0.045134699            5 
 2124000     0.894695    -5.181321    1162.6444  0.045615363   0.04512574            4 
 2125000    0.9103015   -5.1666422    1158.7002  0.045439223  0.045116879            3 
 2126000   0.91336446   -5.1658895    1161.0062  0.045508239  0.045108068           15 
 2127000   0.90459737   -5.1851941     1160.913  0.045483194  0.045099033            5 
 2128000   0.88733976   -5.1572285    1164.5972  0.045606093  0.045090206            7 
 2129000   0.90404224   -5.1563355    1165.2626  0.045610716  0.045081392            4 
 2130000   0.90844271   -5.1638955       1163.6  0.045524256  0.045072552            2 
 2131000   0.90797518   -5.1830455    1163.8982  0.045514557  0.045063798            4 
 2132000   0.91285096    -5.157087    1166.9247  0.045611502  0.045055061            5 
 2133000   0.92814489   -5.1625065     1167.433  0.045609979  0.045046342            5 
 2134000   0.89997321   -5.1532931    1168.3168  0.045623119  0.045037527            5 
 2135000   0.90540088   -5.1496431    1169.0759  0.045631376  0.045028827            2 
 2136000   0.89634494   -5.1591691    1168.6305  0.045592639  0.045020227            4 
 2137000   0.91171903   -5.1875507    1163.4108  0.045367757  0.045011478            4 
 2138000   0.92116125   -5.1645641    1169.8293  0.045596713  0.045002692            4 
 2139000   0.89673834   -5.1530863    1172.7535  0.045689322   0.04499391            5 
 2140000   0.89697285   -5.1570517    1165.0348  0.045367399  0.044985395            3 
 2141000   0.90398469    -5.181695    1166.7857   0.04541436  0.044976712            4 
 2142000   0.92513516   -5.1732948    1166.9644   0.04540011  0.044968007            3 
 2143000   0.91438702   -5.1312661    1171.4817  0.045554586   0.04495923            4 
 2144000   0.89939083   -5.1372611    1171.5192  0.045534794   0.04495066            4 
 2145000   0.90709699    -5.191296    1167.2454  0.045347528  0.044941875            6 
 2146000   0.88303385   -5.1366832    1168.3383  0.045368838   0.04493324            3 
 2147000   0.90984785   -5.1535945    1171.7775  0.045481196  0.044924569            3 
 2148000   0.91311075   -5.1670748    1173.2666  0.045517791  0.044915825            4 
 2149000   0.89511382   -5.1480952    1173.2768  0.045497005   0.04490704            6 
 2150000   0.92299037   -5.1770447    1173.8611  0.045498493  0.044898434            4 
 2151000   0.90813483   -5.1693685    1171.7806  0.045396737  0.044889633            3 
 2152000   0.90778501   -5.1767831    1170.8328   0.04533894  0.044880834            3 
 2153000   0.90539514   -5.1629204     1172.102  0.045367007  0.044872098            5 
 2154000   0.89610744    -5.182418     1165.407  0.045086933  0.044863289            5 
 2155000   0.90637956   -5.1688083     1168.766  0.045195902   0.04485435            9 
 2156000   0.91351123   -5.1797504    1168.1513   0.04515118  0.044845399            4 
 2157000   0.88501532   -5.1829363    1172.2102  0.045287058  0.044836613            6 
 2158000   0.92218311   -5.2061628     1170.568  0.045202658  0.044827714            5 
 2159000   0.91636371   -5.2227773    1168.7842  0.045112869  0.044818918            5 
 2160000   0.90532929   -5.1956515    1168.6913  0.045088399  0.044810031            3 
 2161000   0.90696682   -5.1596835    1174.0545  0.045274351  0.044801218            2 
 2162000   0.89308006   -5.1596274    1173.2241  0.045221402  0.044792542            9 
 2163000   0.91155304   -5.1816867    1178.1798  0.045391426  0.044783913            3 
 2164000    0.9028448   -5.1870674    1175.6174  0.045271775  0.044775228            6 
 2165000   0.90585625   -5.1771092    1173.6042  0.045173371  0.044766446            3 
 2166000   0.90951127   -5.1840576    1177.4746  0.045301422  0.044757752            4 
 2167000   0.90635806   -5.2071394    1174.9614  0.045183871  0.044749113            6 
 2168000   0.89017488   -5.2088945    1173.4457  0.045104771  0.044740398            4 
 2169000   0.90806636   -5.1960344    1176.2174  0.045190466  0.044731642            6 
 2170000    0.8854979   -5.1631488    1179.9718  0.045313817  0.044723107            4 
 2171000   0.90114933    -5.186909    1181.6359   0.04535682  0.044714588            2 
 2172000   0.91063468   -5.1604664    1179.5623  0.045256381  0.044705886           12 
 2173000   0.92578231   -5.1776376    1176.0752  0.045101825  0.044697168            6 
 2174000    0.9110917   -5.1650642    1176.1204  0.045082813  0.044688444            7 
 2175000    0.9011707   -5.1801259    1175.1043  0.045023153  0.044679757            4 
 2176000   0.90892348   -5.1873872    1180.9412  0.045225994  0.044671169            7 
 2177000    0.8977188   -5.1648375    1179.7551   0.04515982  0.044662467            3 
 2178000   0.90365952   -5.1634518    1181.0703  0.045189407  0.044653812            5 
 2179000   0.90732643   -5.2115227    1178.9007  0.045085693  0.044645075            5 
 2180000    0.9198317   -5.1530384    1183.5333    0.0452421  0.044636418            8 
 2181000   0.88884301   -5.1911086    1181.2003  0.045132215  0.044627699            3 
 2182000   0.88742071   -5.1813603    1181.3577  0.045117541  0.044619123            3 
 2183000   0.90818081   -5.1907029     1183.055  0.045161665  0.044610392            4 
 2184000   0.87529937   -5.1911085    1183.2118  0.045146971  0.044601738            6 
 2185000   0.90113111   -5.1647734    1184.6213  0.045180063  0.044593094            2 
 2186000   0.88339082   -5.1746763    1186.4574  0.045229391  0.044584462            8 
 2187000   0.88988298   -5.2007503    1182.9788  0.045076161  0.044575777            3 
 2188000   0.89724078   -5.1785584    1182.7089   0.04504528  0.044567111            8 
 2189000   0.90280735   -5.1929131    1184.9052  0.045108314  0.044558394            7 
 2190000   0.90540872   -5.1937783    1186.6373  0.045153627  0.044549763            2 
 2191000   0.90930272   -5.1573925     1183.051  0.044996613  0.044541164            7 
 2192000   0.89479649   -5.1572405    1186.6644  0.045113457  0.044532469            6 
 2193000   0.91265605   -5.1854491    1186.3165  0.045079666  0.044523843            3 
 2194000   0.92026077   -5.1538917    1185.9606  0.045045601  0.044515262            2 
 2195000   0.91999703   -5.1628626    1190.2754   0.04518889  0.044506737            5 
 2196000   0.90810048   -5.1972948    1181.5445  0.044836996  0.044498195            4 
 2197000   0.90419801   -5.1783053    1183.8922  0.044905635  0.044489536            3 
 2198000   0.90006958   -5.1860363    1186.6037  0.044988009  0.044480819            6 
 2199000    0.8992638   -5.1943831    1182.0651  0.044795555  0.044472039            7 
 2200000   0.90188188    -5.233671    1183.7341  0.044838412  0.044463213            9 
 2201000   0.91021635   -5.1839723    1189.9963  0.045055138  0.044454513            6 
 2202000   0.88911543   -5.1765766    1190.5093  0.045054091  0.044445925            4 
 2203000   0.89438028   -5.2052874    1186.0707   0.04486574  0.044437344            6 
 2204000   0.91497664   -5.2081255    1181.5413  0.044674128  0.044428606            3 
 2205000   0.87933417   -5.1945675     1188.634  0.044921918  0.044419966            7 
 2206000   0.91740257   -5.1501968    1191.7611  0.045019684  0.044411282            3 
 2207000   0.89932415   -5.1994702    1187.9308   0.04485466  0.044402677            5 
 2208000    0.9160294   -5.1952049    1188.0338  0.044838232  0.044393959            3 
 2209000   0.91590935   -5.1983307    1187.6576  0.044803741   0.04438535            5 
 2210000    0.9195416   -5.1866215    1187.4863  0.044777008  0.044376546            4 
 2211000    0.8970983   -5.1866612    1187.6636  0.044763442  0.044367865            5 
 2212000   0.89609431   -5.1957759    1192.6638  0.044931578  0.044359208            9 
 2213000   0.88086797   -5.1962233    1189.1042  0.044777231  0.044350737            4 
 2214000   0.91440088   -5.2102681     1187.637  0.044701784  0.044342097           14 
 2215000   0.89122983   -5.1891489    1190.7403  0.044798355  0.044333375            4 
 2216000   0.89749376   -5.2271732    1190.7561  0.044778735  0.044324673            4 
 2217000   0.89007269   -5.1633989    1192.9257  0.044840089  0.044315925            5 
 2218000   0.90698445   -5.1861019    1191.3953  0.044762373   0.04430723            5 
 2219000   0.90571739   -5.2190867    1193.2631  0.044812344  0.044298594            4 
 2220000   0.88445969   -5.2314443    1190.6535  0.044694202  0.044289976            6 
 2221000   0.89846796   -5.2076393     1190.948  0.044685128    0.0442812            3 
 2222000   0.88721475   -5.2076716    1196.3915  0.044869169  0.044272648            7 
 2223000   0.88959374   -5.1709497    1193.8305  0.044752981  0.044264042            6 
 2224000   0.89245244   -5.1931017    1192.5056  0.044683214  0.044255281            5 
 2225000    0.8808939   -5.1756582    1194.6853  0.044744769  0.044246528            4 
 2226000   0.90488657   -5.1841599    1192.8929  0.044657564  0.044237752            6 
 2227000   0.89536242   -5.1971719    1194.3179  0.044690835  0.044229011            6 
 2228000   0.89215464   -5.1985085    1192.4056  0.044599251  0.044220308            7 
 2229000   0.89413856   -5.1961314    1196.3203  0.044725599   0.04421152            6 
 2230000   0.88683474   -5.1890962    1194.0361  0.044620182  0.044202901            5 
 2231000   0.90006213   -5.2509063    1193.4141  0.044576948  0.044194216           15 
 2232000   0.88862821   -5.2169946    1192.9635  0.044540154  0.044185471            4 
 2233000   0.87949965   -5.2458015    1188.1634  0.044341072  0.044176596            6 
 2234000   0.90016021   -5.2018704    1197.6797  0.044676206  0.044167639            5 
 2235000   0.88061525   -5.1761164    1196.4603   0.04461075  0.044158857            7 
 2236000   0.89843499   -5.2166231    1198.5849  0.044669982  0.044150169            3 
 2237000    0.9107373    -5.194963    1200.5554  0.044723419  0.044141488            5 
 2238000   0.89246262   -5.2206053    1195.3843  0.044510885  0.044132785            7 
 2239000   0.89110925   -5.1814946    1199.0525  0.044627529  0.044124092            6 
 2240000   0.91295649   -5.2183245    1200.3787  0.044656946  0.044115548            5 
 2241000   0.88749288    -5.222372     1198.582  0.044570208  0.044106802            4 
 2242000   0.90185254   -5.2050698    1198.9008  0.044562178  0.044097974            8 
 2243000   0.91819308   -5.2169378    1196.6073  0.044457099  0.044089306            6 
 2244000   0.89905947   -5.2186179    1200.2236  0.044571583  0.044080607            3 
 2245000   0.91648486   -5.1970926     1201.934   0.04461522  0.044071899            5 
 2246000    0.8883874   -5.2246008    1196.1694  0.044381471  0.044063161            7 
 2247000   0.89706743   -5.1956976    1198.7044  0.044455732  0.044054441            3 
 2248000    0.8726549   -5.2035922    1199.2783  0.044457232  0.044045699            2 
 2249000   0.89605466   -5.2283705    1197.9107   0.04438679  0.044037028            4 
 2250000   0.87686192   -5.1819858    1200.9263  0.044478751  0.044028228            2 
 2251000   0.90090338   -5.1985434    1204.7159  0.044599287  0.044019399            2 
 2252000   0.89953983   -5.2000303     1201.713  0.044468361  0.044010685            5 
 2253000   0.91054275   -5.2300453    1199.9517  0.044383479  0.044001987            6 
 2254000   0.88577415    -5.177276    1206.3082  0.044598795  0.043993303            4 
 2255000    0.8934257   -5.2048224    1200.6733  0.044370781  0.043984705            8 
 2256000   0.87711937   -5.2245603    1202.2401  0.044408988  0.043976118            6 
 2257000   0.88283396   -5.2137102    1204.6028  0.044476547  0.043967479            5 
 2258000   0.88846275   -5.2068431    1202.4218  0.044376359  0.043958836            4 
 2259000   0.88828021   -5.2108998    1201.2572  0.044313754  0.043950105            2 
 2260000   0.90613565   -5.1895083    1202.4375  0.044337665  0.043941361            4 
 2261000   0.88654654   -5.2171186    1206.0064  0.044449593  0.043932596            7 
 2262000   0.90433163   -5.2026628    1202.5905  0.044304102  0.043923775           11 
 2263000   0.87727963   -5.2318482    1203.2766  0.044309789  0.043914966            4 
 2264000   0.91378977   -5.2136784    1207.8174  0.044457353  0.043906162            4 
 2265000   0.89729343   -5.1850318    1204.2117  0.044305066  0.043897401            3 
 2266000   0.89618908    -5.178757    1209.3027  0.044472738  0.043888611            3 
 2267000   0.87943569   -5.2528326    1205.9611  0.044330288  0.043879727            6 
 2268000   0.88990124   -5.2185232    1203.2816  0.044212287  0.043870691            5 
 2269000   0.88361797   -5.2325552    1203.0756  0.044185237   0.04386163            5 
 2270000    0.8889723   -5.2059846    1206.0737  0.044275834  0.043852821            4 
 2271000   0.88475279   -5.1787743    1209.3161  0.044375317  0.043844003            4 
 2272000   0.89052997   -5.2311268    1211.6692  0.044442091  0.043835132            4 
 2273000   0.89659325   -5.2210816    1209.1455  0.044330016  0.043826323            3 
 2274000   0.88453539   -5.2051842    1207.0054  0.044232096  0.043817315            7 
 2275000   0.88607234   -5.2056436    1205.6461  0.044162862  0.043808454           11 
 2276000   0.87141035   -5.2277737    1205.5064  0.044138344  0.043799579            7 
 2277000   0.88449405   -5.1929525    1205.1376  0.044105461  0.043790547            4 
 2278000   0.87720606   -5.1730009    1211.0669  0.044303005  0.043781627            6 
 2279000   0.89171165     -5.22485    1207.8552  0.044166126  0.043772763            3 
 2280000   0.89098875   -5.2326817    1204.0264  0.044006813  0.043763821            4 
 2281000    0.8926753   -5.1954914    1212.4774  0.044296265  0.043755145            9 
 2282000   0.90282503   -5.1879585    1214.3556  0.044345443  0.043746278            6 
 2283000   0.86299471    -5.233232    1208.7041  0.044119728  0.043737529            4 
 2284000   0.86907182   -5.2315762    1210.6273  0.044170583  0.043728777            6 
 2285000   0.89637955   -5.2279737     1212.365  0.044214625  0.043719995            6 
 2286000   0.88988172   -5.1999694     1210.257  0.044118438  0.043711188            3 
 2287000   0.88117577   -5.2029945    1216.4564   0.04432504  0.043702537            3 
 2288000   0.87355546   -5.2415543     1210.864  0.044101981  0.043693819            3 
 2289000   0.88673874    -5.241928    1209.3411  0.044027273  0.043684963            6 
 2290000   0.85607624   -5.2384554    1208.6067  0.043981322  0.043675999            2 
 2291000   0.85012447   -5.2147502     1213.414  0.044136986  0.043667137            1 
 2292000   0.87013159   -5.2221524     1212.996  0.044102529  0.043658309            4 
 2293000   0.90358478   -5.1998377    1212.8176  0.044076814  0.043649558            2 
 2294000    0.9243371    -5.219663    1213.8579  0.044095389  0.043640775            4 
 2295000   0.88164356   -5.2258837    1209.6468  0.043923267  0.043631943            3 
 2296000   0.88652445   -5.2210041    1216.5295  0.044153946  0.043623132            8 
 2297000   0.90545028   -5.2388245     1211.697  0.043959402  0.043614271            5 
 2298000   0.90974179   -5.2201959    1215.9818  0.044095655  0.043605418            5 
 2299000    0.8959052   -5.2376802    1216.6523  0.044100779  0.043596646            5 
 2300000    0.9016491   -5.2348561    1214.7066  0.044011109  0.043587915            8 
 2301000    0.9031471   -5.2110427    1212.5032  0.043912184  0.043579151            3 
 2302000   0.89281688    -5.232737    1214.1374  0.043952265  0.043570293            5 
 2303000   0.89645942   -5.2294877    1217.8888  0.044068923  0.043561642            7 
 2304000   0.87788935   -5.2389222    1215.9136  0.043978356  0.043553061            4 
 2305000    0.8677454   -5.2352361    1215.9609  0.043960989  0.043544272            7 
 2306000   0.88675525   -5.2675123    1209.0538  0.043692318   0.04353524           10 
 2307000   0.87771244    -5.227913    1218.4952  0.044014418  0.043526268            3 
 2308000   0.87074979   -5.2386626    1218.6762  0.044001886  0.043517363            7 
 2309000   0.88995264   -5.2010528    1219.8479  0.044025114  0.043508575            4 
 2310000   0.86865586   -5.2317012    1218.6167  0.043961641  0.043499858            5 
 2311000   0.88907568   -5.2265878    1218.4289  0.043935846   0.04349104            2 
 2312000   0.90989263   -5.2324963    1217.8099  0.043894533  0.043482269            7 
 2313000   0.88809094   -5.2016719    1215.1905  0.043781182  0.043473394            3 
 2314000   0.88333572   -5.2408779    1217.2385  0.043836016  0.043464595            5 
 2315000     0.885982   -5.2345864    1214.7466  0.043727379  0.043455687            6 
 2316000   0.87561523   -5.2497848    1214.8235  0.043711266  0.043446619            4 
 2317000   0.89278614   -5.2352739    1218.4774  0.043823817  0.043437595            5 
 2318000   0.88007088   -5.2525537    1218.2819  0.043797882   0.04342862            5 
 2319000   0.88297752   -5.2024412    1218.6823  0.043793384  0.043419612            2 
 2320000   0.89216469   -5.2421322    1216.8133  0.043707376  0.043410695            4 
 2321000   0.87076522   -5.2049121    1220.5882  0.043824077  0.043401961            2 
 2322000   0.86325095   -5.2105728    1221.4742     0.043837  0.043393013            6 
 2323000   0.89712114   -5.2626984    1221.5396  0.043820475  0.043384034            5 
 2324000   0.84678944   -5.2264406    1221.2244   0.04379032  0.043375291            9 
 2325000   0.88036301   -5.2083572    1221.4466  0.043779448  0.043366396            6 
 2326000   0.87003067   -5.2284768    1218.6295  0.043659698  0.043357492            7 
 2327000   0.87671152    -5.220605    1223.1752  0.043803723  0.043348486            4 
 2328000   0.86642326   -5.2285411     1219.927  0.043668637  0.043339617           15 
 2329000   0.86859412   -5.2407983    1222.2932  0.043734548  0.043330739            5 
 2330000    0.8788567   -5.1963924    1224.8969  0.043808903  0.043321766            6 
 2331000   0.89909035   -5.2500273    1221.8032  0.043679507  0.043312799            4 
 2332000   0.86653047   -5.2661097    1219.4724  0.043577487  0.043303849            3 
 2333000   0.86683039   -5.2404621    1220.8522  0.043608096   0.04329482            3 
 2334000   0.89632154    -5.243418    1218.9829  0.043522667  0.043285789            3 
 2335000    0.8681547   -5.2423703    1225.5892    0.0437398  0.043276804            4 
 2336000   0.89163918   -5.2337167     1222.289  0.043603345  0.043267784            6 
 2337000   0.88739847   -5.2426546    1221.9777  0.043573588  0.043258725            5 
 2338000   0.87750529   -5.2556089    1222.1164  0.043559893  0.043249672            6 
 2339000   0.88057487   -5.2105121    1221.1316  0.043506185  0.043240675            2 
 2340000   0.88575025   -5.2427117    1225.6238   0.04364757  0.043231677            6 
 2341000   0.86769524   -5.2713358    1220.4927  0.043446273  0.043222588            4 
 2342000   0.86857056   -5.2664028    1220.3973  0.043424327  0.043213495            3 
 2343000   0.86727489   -5.2579454    1221.6409  0.043450024  0.043204353            2 
 2344000   0.89561916   -5.2567579    1223.0258  0.043480724  0.043195127            8 
 2345000   0.87311206    -5.263209    1223.9253  0.043494148  0.043186044            4 
 2346000   0.85186741   -5.2270043    1222.7196  0.043432779  0.043176878            5 
 2347000   0.89364053   -5.2370654    1224.9799  0.043494528   0.04316769            4 
 2348000   0.87576642   -5.2566609    1220.7976  0.043327569  0.043158616            3 
 2349000   0.87245972   -5.2597328    1224.0709  0.043425249  0.043149487            5 
 2350000   0.87101374   -5.2234072    1228.0562  0.043548092  0.043140336            6 
 2351000   0.87779872   -5.1853382    1230.7644  0.043625565  0.043131375            6 
 2352000   0.89298455   -5.2381356    1225.6937  0.043427356  0.043122327            9 
 2353000   0.85888625   -5.2695783    1225.0303  0.043385406  0.043113328            4 
 2354000   0.88065425   -5.2490119    1225.2192  0.043373663  0.043104108            4 
 2355000   0.88543548   -5.2539869    1225.1036  0.043351152  0.043094956            8 
 2356000   0.86689951   -5.2450857    1226.6752  0.043388343  0.043085733           12 
 2357000   0.87464854   -5.2449992    1228.3366  0.043428672  0.043076493            7 
 2358000   0.87479006   -5.2211989    1231.0429  0.043505898  0.043067308            6 
 2359000   0.87583782   -5.2172845     1226.874  0.043340188   0.04305827            4 
 2360000   0.87999962   -5.2228861    1230.5267  0.043450801  0.043049246            3 
 2361000   0.86003683   -5.2537138    1227.8093  0.043336486  0.043040078            8 
 2362000   0.86062222   -5.2460377    1231.5195  0.043449036  0.043030933            6 
 2363000   0.86686871   -5.2301258    1227.7656  0.043298265  0.043021747            4 
 2364000   0.85343613   -5.2671133    1224.3499  0.043159542  0.043012598            5 
 2365000   0.86925709   -5.2439338    1227.3132  0.043245708  0.043003367            3 
 2366000   0.87008424   -5.2671692    1226.0226  0.043181974  0.042994158            5 
 2367000   0.86850437   -5.2146317    1232.2402   0.04338263  0.042984918            2 
 2368000   0.87549605    -5.221397    1233.0909  0.043394248  0.042975891            3 
 2369000   0.86878052   -5.2410844    1227.3974  0.043175651  0.042966895            2 
 2370000   0.85305596   -5.2588709    1231.6665  0.043307544   0.04295782            6 
 2371000     0.862957   -5.2116733    1232.8247  0.043329984  0.042948714            3 
 2372000   0.90121825   -5.2647572    1228.0652  0.043144506  0.042939566            8 
 2373000   0.86114317   -5.2363696    1235.2709  0.043379369  0.042930469            3 
 2374000   0.86294226   -5.2459448    1233.3198  0.043292609  0.042921455            6 
 2375000   0.86486906    -5.249599    1233.3618  0.043275854  0.042912348            7 
 2376000   0.87548459   -5.2534077    1232.0539  0.043211768  0.042903195            5 
 2377000   0.88406098   -5.2451556    1232.6118  0.043213146  0.042894239            5 
 2378000    0.8790307   -5.2673763    1233.3916  0.043222301  0.042885281            5 
 2379000   0.85484289   -5.2484183    1230.9568  0.043118845  0.042876224            5 
 2380000   0.87416546   -5.2495369    1233.8868   0.04320332  0.042867176            4 
 2381000    0.8815961   -5.2620183    1233.0163  0.043154708  0.042858107            7 
 2382000   0.86264439   -5.2285049    1229.8491  0.043025787  0.042849143            6 
 2383000   0.86176248   -5.2571428    1233.7866  0.043145426  0.042839958            3 
 2384000    0.8718966   -5.2710261     1230.166  0.043000769  0.042830939            5 
 2385000   0.86698667   -5.2292271    1232.3654  0.043059587  0.042821769            2 
 2386000   0.85221896   -5.2652901    1233.4263  0.043078593  0.042812669            4 
 2387000   0.87691493   -5.2411598    1235.3636   0.04312818  0.042803557            3 
 2388000   0.87711108   -5.2088848    1234.4262  0.043077407  0.042794458            6 
 2389000   0.86182424   -5.2603019    1237.3506  0.043161385  0.042785444            4 
 2390000   0.87151332   -5.2398377    1237.5019  0.043148602  0.042776315           11 
 2391000   0.87275878    -5.234151    1235.8675  0.043073591  0.042767344            9 
 2392000   0.87195502   -5.2454129    1232.1961   0.04292768  0.042758227            4 
 2393000   0.86885387   -5.2602407    1233.8612  0.042967725  0.042748948            6 
 2394000   0.86426488   -5.2389877    1236.6997  0.043048585  0.042739696            7 
 2395000   0.88095279   -5.2364724    1234.6694  0.042959964  0.042730439            4 
 2396000   0.86700938   -5.2489493    1237.3705  0.043035982  0.042721139            3 
 2397000   0.85725296   -5.2281332    1235.7482  0.042961626  0.042711948            6 
 2398000   0.88423414   -5.2769388    1231.9037   0.04281011  0.042702606            7 
 2399000   0.86482356   -5.2658492    1236.4579  0.042950461   0.04269347            4 
 2400000   0.87314749   -5.2628452     1232.839  0.042806909  0.042684157            5 
 2401000   0.86934903   -5.2438374    1236.3444  0.042910744  0.042674963            8 
 2402000   0.86594349   -5.2594163    1236.1013  0.042884449  0.042665758            7 
 2403000   0.85088459   -5.2545463    1237.7132  0.042922499  0.042656447            9 
 2404000   0.89406911   -5.2489072    1242.0759  0.043055876  0.042647134            3 
 2405000   0.87135075    -5.266626    1234.9751  0.042791931   0.04263792            7 
 2406000   0.87106537    -5.271255    1238.7815  0.042905983   0.04262872            4 
 2407000   0.86537824   -5.2676735    1236.7876  0.042819126  0.042619538            4 
 2408000   0.87705965   -5.2836602     1239.951  0.042910818  0.042610409            3 
 2409000   0.87153319     -5.27713    1238.9615  0.042858775  0.042601206           11 
 2410000   0.87236984   -5.2408935    1239.1651  0.042848032  0.042592036            3 
 2411000   0.85539798   -5.2404743    1241.5067  0.042911197   0.04258281            5 
 2412000   0.86579005   -5.2435866    1238.8179  0.042800508   0.04257368            6 
 2413000   0.86005595   -5.2700601    1239.7901  0.042816347  0.042564492            5 
 2414000    0.8685067    -5.272976    1240.1726  0.042811813  0.042555272            3 
 2415000   0.85355885    -5.248888    1243.3868  0.042904996  0.042546031            5 
 2416000    0.8833259   -5.2938157     1238.604  0.042722268  0.042536716            4 
 2417000    0.8748221   -5.2589003    1237.5877  0.042669552  0.042527365            4 
 2418000   0.85912628   -5.2494171    1241.2834  0.042779275  0.042518147            4 
 2419000   0.86131324   -5.2800411    1240.7438     0.042743  0.042508835            3 
 2420000   0.85259169   -5.2616346    1243.3758   0.04281597  0.042499732            3 
 2421000   0.86512407   -5.2411252    1241.2357  0.042724622  0.042490602            6 
 2422000   0.85675663   -5.2694612    1241.7004  0.042722969  0.042481479            4 
 2423000   0.86411268   -5.2678072     1241.846  0.042710347  0.042472255            7 
 2424000   0.85733551   -5.2449463     1242.431  0.042712837  0.042463051            6 
 2425000   0.87498107   -5.2307469    1243.1635  0.042720394  0.042453741            7 
 2426000   0.87071887   -5.2602152    1245.7392  0.042791261   0.04244457            5 
 2427000   0.85696216    -5.260598    1241.6397   0.04263287  0.042435371            8 
 2428000   0.85751687   -5.2653554    1241.3879  0.042606668  0.042426023            4 
 2429000   0.87077496   -5.2807377    1242.5326  0.042628401  0.042416765            4 
 2430000   0.86772414    -5.249393    1246.4867  0.042746458  0.042407396            4 
 2431000   0.86582256   -5.2744371    1239.5082  0.042489656  0.042398039            5 
 2432000   0.85017992   -5.2984373    1241.0654  0.042525541  0.042388543           10 
 2433000   0.85427092   -5.2936032    1241.8245  0.042534063  0.042379132           10 
 2434000   0.87572979    -5.294568    1238.6577  0.042408167  0.042369752            5 
 2435000   0.86726986    -5.270295    1244.5693  0.042593064  0.042360225            5 
 2436000   0.86656665   -5.2561914     1244.684  0.042579501  0.042350839            6 
 2437000   0.84522079   -5.2692342    1246.3159  0.042617832  0.042341416            3 
 2438000   0.88517844   -5.2661127     1243.624   0.04250834  0.042331958            4 
 2439000   0.84702999   -5.2572345    1249.7168  0.042699085  0.042322649            8 
 2440000   0.86361406    -5.272386    1245.6969  0.042544295  0.042313458            7 
 2441000   0.84817501   -5.2720063    1243.2568   0.04244356  0.042304002            8 
 2442000   0.87116835   -5.2399736    1241.8461  0.042378041  0.042294725            2 
 2443000   0.85265739   -5.2961115    1243.6081  0.042420797  0.042285415            4 
 2444000   0.87057919   -5.2601624    1248.1959   0.04255987   0.04227612           12 
 2445000   0.84514889   -5.2719391    1247.4952  0.042518582  0.042266853            5 
 2446000   0.86627551   -5.2591596    1246.9296  0.042481929  0.042257651            5 
 2447000   0.84081991   -5.3003112    1248.3708  0.042513648   0.04224844            9 
 2448000   0.87504456   -5.3036129    1245.8977  0.042412096  0.042239168            6 
 2449000   0.86259239    -5.257305    1249.5227  0.042518126  0.042229956            4 
 2450000   0.85844196   -5.2919906    1246.9246  0.042412402  0.042220666            3 
 2451000   0.83710762   -5.2622408    1251.1898  0.042540114  0.042211361            6 
 2452000   0.84985554   -5.2859826    1247.4163  0.042394518  0.042201974            7 
 2453000   0.85582459    -5.294205    1245.1077  0.042298806  0.042192578            7 
 2454000   0.86748792   -5.2882883    1244.5685  0.042263259   0.04218306            5 
 2455000   0.86457412   -5.2801414    1248.2044  0.042369463  0.042173644            4 
 2456000    0.8473321   -5.2624369    1243.2812  0.042185165  0.042164335            4 
 2457000   0.84958036   -5.2758628    1246.3873  0.042273344  0.042155024            6 
 2458000   0.87493649   -5.2690307    1242.6595  0.042129763  0.042145605            6 
 2459000   0.85666744   -5.2509622    1251.7685  0.042421328  0.042136229            7 
 2460000    0.8584147   -5.2738308    1254.9401  0.042511521  0.042126832            5 
 2461000   0.86061787   -5.2918739    1251.9441  0.042392796  0.042117501            5 
 2462000   0.85521698   -5.2927636    1246.9799  0.042207551  0.042108199            5 
 2463000   0.84478289   -5.3246595    1251.1683  0.042332126  0.042098811            4 
 2464000   0.84774604   -5.2786266     1252.019  0.042343715  0.042089532            5 
 2465000   0.82450066    -5.297659    1249.6889  0.042247765  0.042080256           16 
 2466000   0.86152995   -5.2949044    1248.8329  0.042201706  0.042070903            4 
 2467000   0.85262652   -5.2787626     1255.356  0.042404944  0.042061385            8 
 2468000   0.85660763    -5.277148    1249.8005  0.042200178  0.042052067            3 
 2469000   0.86888122   -5.2718935    1255.0802  0.042361286  0.042042704            7 
 2470000   0.85862155   -5.2868021    1249.7056  0.042162806   0.04203328            5 
 2471000   0.85317944   -5.2670467    1254.6192  0.042311452  0.042023964           12 
 2472000   0.85964868   -5.2643865    1253.6431  0.042261432  0.042014651            3 
 2473000    0.8634222     -5.28779    1253.6819   0.04224565  0.042005322            4 
 2474000   0.84514633   -5.2780016     1255.057  0.042274893  0.041996002            3 
 2475000   0.84332278   -5.3093182    1249.1369  0.042058482  0.041986675            3 
 2476000   0.84277834   -5.2774281    1254.1707  0.042210914  0.041977409            4 
 2477000   0.84045751   -5.2826945    1257.0657   0.04229127  0.041968219            5 
 2478000   0.85164743   -5.2969069      1256.47   0.04225417  0.041959047            4 
 2479000   0.86625674   -5.2872493    1254.9606  0.042186386  0.041949837            5 
 2480000   0.84524569   -5.2846049    1258.6569   0.04229358  0.041940516            3 
 2481000   0.85495337   -5.2925311    1255.8408  0.042181944  0.041931263            5 
 2482000   0.83868627     -5.29232    1254.4916  0.042119647  0.041922097            8 
 2483000   0.84664145   -5.2865793    1254.4016  0.042099665  0.041912928            6 
 2484000   0.83703359   -5.3003154    1254.3111   0.04207968  0.041903719            8 
 2485000   0.86307341   -5.2822184    1256.0404  0.042120737  0.041894435            4 
 2486000   0.84881808   -5.2691168    1260.3228  0.042247345  0.041885245            3 
 2487000    0.8456448   -5.3057481    1254.7375  0.042043207  0.041876094            4 
 2488000    0.8617253   -5.2929238    1258.5227  0.042153092  0.041866813            8 
 2489000   0.85064521   -5.3038122    1252.7034  0.041941321  0.041857572            9 
 2490000   0.85227609   -5.2831075    1257.7901  0.042094715  0.041848195            7 
 2491000   0.86020403   -5.3128598    1252.7121  0.041907937  0.041838961           12 
 2492000   0.84954118   -5.2943614    1256.4796   0.04201711  0.041829762            7 
 2493000   0.84830845   -5.2982452    1257.9696  0.042050061  0.041820475            5 
 2494000   0.86781461   -5.2880048    1255.6689  0.041956326  0.041811147            3 
 2495000   0.84836327   -5.2967609    1258.2628  0.042026145  0.041801824            9 
 2496000   0.84644367   -5.3186409    1256.7394  0.041958447  0.041792579            9 
 2497000    0.8397596   -5.2668148    1260.4278  0.042064738  0.041783286            5 
 2498000   0.84745589   -5.3225901    1254.8266  0.041861044  0.041773884            9 
 2499000   0.84425342   -5.3164733    1255.6653  0.041872258   0.04176445            7 
 2500000   0.88088677   -5.3061041    1258.7377  0.041957923  0.041755037            5 
 2501000    0.8535655   -5.2872626    1257.7178  0.041907164  0.041745673            4 
 2502000   0.85740075   -5.2856116    1262.4721  0.042048765  0.041736302            8 
 2503000   0.86293787   -5.3167909    1259.0349  0.041917528  0.041726961            9 
 2504000    0.8544375    -5.314827    1260.6201  0.041953543  0.041717631           10 
 2505000   0.84527102   -5.2749333    1264.6513  0.042070901  0.041708376            6 
 2506000    0.8344415   -5.2782827    1258.1901  0.041839255  0.041699254            4 
 2507000   0.85693744   -5.2900893    1261.3932  0.041929038  0.041690004            5 
 2508000   0.82869645   -5.2781127    1261.6968   0.04192241  0.041680797            5 
 2509000   0.85520525    -5.300704    1258.3631  0.041794974  0.041671526            5 
 2510000    0.8440505    -5.300764    1263.5878  0.041951785  0.041662241            7 
 2511000   0.85095672   -5.3155932    1258.7101  0.041773201  0.041652869            6 
 2512000   0.83667507   -5.2941096    1264.3601  0.041944004   0.04164365           10 
 2513000   0.86424119   -5.3122586    1264.6828  0.041938015  0.041634385            6 
 2514000   0.84256414   -5.2761341    1266.7809   0.04199088  0.041625176            5 
 2515000   0.85473902   -5.2926262    1257.6927  0.041673051  0.041615865            8 
 2516000   0.83120237   -5.3366807      1262.23  0.041806771  0.041606545            3 
 2517000   0.85200505   -5.2943967    1258.4227  0.041664108  0.041597347            3 
 2518000   0.86060204   -5.3061989    1258.4844  0.041649603  0.041587907            8 
 2519000   0.85791307   -5.2563658     1263.271  0.041791418  0.041578643            4 
 2520000   0.84445498    -5.331575    1263.8473  0.041793891  0.041569336            4 
 2521000    0.8680917    -5.302093    1262.3747  0.041728637  0.041559974            8 
 2522000   0.85249345   -5.3060012    1265.3816  0.041811445  0.041550778            4 
 2523000   0.84536282   -5.2945323    1262.7105   0.04170665  0.041541475            4 
 2524000   0.86230167   -5.3087959    1262.3013  0.041676616  0.041532062            4 
 2525000   0.84957285   -5.3069166    1264.5218  0.041733393  0.041522769            7 
 2526000    0.8442196   -5.3005282    1261.0173  0.041601258  0.041513438            7 
 2527000   0.85359808   -5.3275383    1262.9396  0.041648188  0.041504042            6 
 2528000   0.85524489   -5.2868084    1265.7195   0.04172335  0.041494635            4 
 2529000   0.83475873   -5.2973488    1266.4511  0.041730958  0.041485297            4 
 2530000     0.855016   -5.2908567    1263.5879  0.041620155  0.041475783            5 
 2531000   0.86189847   -5.2772034    1269.4811  0.041797744   0.04146646            4 
 2532000   0.81902426   -5.3108518    1267.3339  0.041710569  0.041457094            5 
 2533000   0.85351734   -5.3012819    1262.6973  0.041541562  0.041447685            4 
 2534000   0.86688638   -5.2769441    1263.8761  0.041563935  0.041438245            3 
 2535000   0.84406056   -5.2874968    1265.5893  0.041603857  0.041428769            7 
 2536000   0.85482397   -5.2855078    1268.2474  0.041674796  0.041419458            3 
 2537000   0.87058127   -5.2957369    1267.6798  0.041639726  0.041410072            4 
 2538000   0.84262528   -5.3097715    1262.8803  0.041465729  0.041400762            4 
 2539000   0.83303437   -5.2985291    1268.0175  0.041618008  0.041391401            7 
 2540000   0.84938844   -5.3053771    1271.3723  0.041711689  0.041382043            6 
 2541000   0.83769095   -5.3091954    1269.3755  0.041629787  0.041372555            6 
 2542000   0.84496757    -5.308149    1269.6185  0.041621376  0.041363207            5 
 2543000   0.85343479   -5.3270967    1269.9588  0.041616163  0.041353906            7 
 2544000   0.85780988   -5.2956709    1267.5872  0.041522116  0.041344459            4 
 2545000   0.84261452   -5.3016514    1270.0758   0.04158729  0.041335078            4 
 2546000   0.82305095   -5.3106533    1267.3199  0.041480752  0.041325627            5 
 2547000   0.83645076    -5.284974    1266.5816  0.041440309  0.041316263           10 
 2548000    0.8377351   -5.3095708     1262.633  0.041294905  0.041306847           14 
 2549000   0.83426724   -5.2793325    1273.2795  0.041626766  0.041297483            3 
 2550000   0.85070571    -5.273154    1267.0773  0.041407755  0.041288101            4 
 2551000   0.84803571   -5.3214056    1267.7205  0.041412533   0.04127855            8 
 2552000   0.84105608   -5.3298339    1262.8205  0.041236302  0.041268983            6 
 2553000   0.84427477   -5.3057066    1267.3881  0.041369243  0.041259367            5 
 2554000   0.84878333   -5.3045402     1268.815  0.041399603  0.041249913            2 
 2555000    0.8329724   -5.3203367    1265.3942  0.041271827  0.041240448            9 
 2556000   0.84721706   -5.2990789    1264.4231  0.041224019  0.041230899            4 
 2557000   0.84255358   -5.2997673    1267.7998  0.041317945  0.041221227            8 
 2558000   0.83600944   -5.3063483    1272.8668  0.041466862  0.041211774           11 
 2559000   0.83929838   -5.2932985    1266.4913  0.041243041  0.041202199            5 
 2560000   0.85088668    -5.287617    1270.4453  0.041355642  0.041192808           13 
 2561000   0.84707696   -5.2980308    1266.1567  0.041199946  0.041183229            3 
 2562000   0.83480148   -5.3186805    1272.2452  0.041381901  0.041173746            3 
 2563000   0.85826217   -5.2860606    1269.2926  0.041269755  0.041164241            3 
 2564000   0.84504203   -5.2960531    1273.8139  0.041400608  0.041154713            5 
 2565000   0.85016084   -5.2823339    1268.4977  0.041211752  0.041145196            3 
 2566000    0.8502906   -5.3141336    1273.4373   0.04135611  0.041135715            4 
 2567000   0.84745353   -5.2901006    1273.8858  0.041354557   0.04112619            3 
 2568000   0.82893662   -5.3458851    1267.3924  0.041127739  0.041116625            6 
 2569000   0.85004972   -5.3269489    1269.6438   0.04118476   0.04110718           12 
 2570000   0.85222148    -5.323837    1272.4725  0.041260458  0.041097681            5 
 2571000   0.82977389   -5.2934491      1275.87   0.04135453  0.041088195            3 
 2572000   0.84503013    -5.302747    1274.9894   0.04130992  0.041078822            4 
 2573000   0.84825346   -5.3127559    1272.5036  0.041213357  0.041069319            5 
 2574000   0.82156273   -5.3355391    1271.7085  0.041171604   0.04105982            7 
 2575000   0.82843636   -5.3060875    1276.5949   0.04131375  0.041050242            4 
 2576000    0.8410214   -5.3167179    1272.4781  0.041164533  0.041040827            5 
 2577000   0.84086919   -5.3271636    1275.4707  0.041245333  0.041031337            6 
 2578000   0.84539225   -5.3315328     1276.001  0.041246478  0.041021933            6 
 2579000   0.83895336   -5.3582037    1272.3776  0.041113403  0.041012422            3 
 2580000   0.84974957   -5.3108994    1274.8421   0.04117707  0.041002915            6 
 2581000    0.8470254    -5.326822    1276.5853  0.041217398   0.04099345            4 
 2582000   0.82224072   -5.3343657    1273.3592  0.041097316  0.040984026            7 
 2583000   0.84068724    -5.322818    1273.6046   0.04108932  0.040974567            6 
 2584000   0.83268948   -5.3139847    1276.6617  0.041172012   0.04096516            9 
 2585000   0.83028656   -5.3050155    1278.0972   0.04120236  0.040955783            3 
 2586000   0.85309178   -5.2790559    1282.8039    0.0413381  0.040946434            7 
 2587000   0.85318693   -5.3226504    1278.0478  0.041168915  0.040937142            4 
 2588000   0.82631886   -5.3218893    1277.5332  0.041136436  0.040927702            3 
 2589000   0.83778591   -5.3282278    1274.2178  0.041013833  0.040918331            9 
 2590000   0.86192085   -5.3535146    1271.9942  0.040926453  0.040908915            9 
 2591000   0.83244904   -5.3180574    1276.9731  0.041070793   0.04089946            4 
 2592000    0.8479611   -5.3265732    1277.1162  0.041059547   0.04089017            7 
 2593000   0.84860099   -5.3050548    1278.2393  0.041079809  0.040880806            5 
 2594000   0.84590575   -5.3115792    1279.4728  0.041103598  0.040871428            3 
 2595000    0.8500958   -5.3098974    1283.1403  0.041205534  0.040862029           10 
 2596000   0.83161866   -5.3105044    1277.0708  0.040994825  0.040852632            4 
 2597000   0.84448821   -5.3289973    1275.4986   0.04092859  0.040843202            5 
 2598000   0.82858186   -5.3339072    1281.4182  0.041102713  0.040833824            4 
 2599000   0.82961211   -5.3028316    1281.8711   0.04110142  0.040824467            3 
 2600000   0.83322144   -5.3547836    1276.4393  0.040911516   0.04081512           10 
 2601000   0.82832452   -5.3247693    1280.0362  0.041011028  0.040805732            4 
 2602000   0.84624537   -5.3363312     1275.671  0.040855464  0.040796289            5 
 2603000   0.82320424   -5.3266492    1278.2033  0.040920838  0.040786995            7 
 2604000   0.83789036   -5.3368769     1277.704  0.040889144  0.040777602           10 
 2605000   0.83673194   -5.3286371    1280.2013  0.040953337  0.040768255            7 
 2606000   0.83580529   -5.3346452    1279.5695  0.040917419  0.040758946            5 
 2607000   0.84593856   -5.3256591    1281.9411   0.04097753  0.040749633            7 
 2608000   0.84469273   -5.3421669    1279.9026  0.040896684  0.040740325            2 
 2609000   0.83963855   -5.3464627    1276.8176  0.040782472  0.040731012            3 
 2610000   0.83697844   -5.3210117    1282.4274  0.040945957   0.04072162            9 
 2611000   0.84452491   -5.3113222    1282.1891  0.040922669  0.040712313            5 
 2612000   0.81421354   -5.3430528    1278.5462   0.04079078  0.040702949            4 
 2613000   0.83678576   -5.3430589    1277.8768  0.040753821  0.040693609            4 
 2614000   0.83843713   -5.3199847    1283.2139  0.040908374  0.040684197            2 
 2615000    0.8431185   -5.3092981    1282.6376  0.040874365  0.040674953            4 
 2616000   0.83905529   -5.3181505    1280.0927  0.040777672  0.040665653            4 
 2617000   0.83915795   -5.3186377    1281.4856  0.040806444  0.040656488            6 
 2618000     0.838882   -5.3237017    1283.4976  0.040854903   0.04064731            3 
 2619000   0.83534077   -5.3271798    1284.4454  0.040869461  0.040638045            9 
 2620000   0.83037717   -5.3140242    1283.8636  0.040835355  0.040628832            4 
 2621000   0.84273695   -5.3243474     1287.053  0.040921181   0.04061957            7 
 2622000   0.83209931   -5.3543336    1280.9924  0.040712955  0.040610268           10 
 2623000   0.83092923   -5.3456093    1283.3252  0.040771548  0.040600881            6 
 2624000   0.84209809   -5.3475493     1285.738  0.040832635  0.040591571            4 
 2625000   0.80868049   -5.3477716    1284.6396  0.040782211  0.040582255            8 
 2626000   0.82529269   -5.3369097     1283.125  0.040718616   0.04057287            6 
 2627000   0.83153888   -5.3396895    1283.7994   0.04072451  0.040563548            6 
 2628000   0.84533794     -5.30742     1288.058  0.040844053  0.040554239            5 
 2629000   0.82914663   -5.3582284    1284.8084  0.040725509  0.040545054            8 
 2630000   0.82226952    -5.357317    1284.2917  0.040693655  0.040535662            7 
 2631000   0.81617059   -5.3412623    1285.6001  0.040719627  0.040526251            5 
 2632000   0.83530995   -5.3600966    1283.5083  0.040637929  0.040516931            4 
 2633000   0.82144743   -5.3317704     1287.974  0.040763831   0.04050768            5 
 2634000    0.8154162    -5.338113    1285.0362   0.04065541   0.04049842            3 
 2635000   0.83838125   -5.3565277    1288.6542  0.040754401  0.040489074            5 
 2636000   0.82522241   -5.3249661    1293.3845  0.040888484  0.040479879            7 
 2637000   0.82912761   -5.3366016    1290.0508  0.040767626  0.040470628            6 
 2638000    0.8341922    -5.346229    1289.9588  0.040749266  0.040461505            3 
 2639000   0.83029687   -5.3600342    1287.7069  0.040662715  0.040452315            3 
 2640000   0.82131384    -5.334239    1291.4177  0.040764446  0.040443199            6 
 2641000    0.8267358   -5.3649968    1291.8275  0.040761942  0.040434029            9 
 2642000   0.83050222   -5.3616708    1288.7388  0.040649091  0.040424853           10 
 2643000   0.82917592   -5.3331326    1290.8826  0.040701305  0.040415732            9 
 2644000   0.84501022   -5.3408657    1290.6895  0.040679824  0.040406685           15 
 2645000   0.82428194    -5.348755    1291.3181  0.040684249  0.040397516            3 
 2646000   0.82602461   -5.3528048    1287.8601  0.040559967  0.040388328            5 
 2647000   0.83353849   -5.3217836    1291.5805  0.040661773  0.040379248            4 
 2648000   0.81464981   -5.3297396    1295.8791  0.040781695  0.040370193            6 
 2649000   0.82881933   -5.3271367    1295.0941  0.040741605  0.040361087            3 
 2650000   0.83933964   -5.3147344    1291.2955  0.040606778  0.040352031            5 
 2651000   0.83602739   -5.3194185    1295.4058  0.040720664  0.040342939            4 
 2652000   0.83495137   -5.3434148    1290.6817  0.040556867  0.040333964            6 
 2653000   0.83149647    -5.360216     1294.961  0.040675997  0.040324956            6 
 2654000   0.81972021   -5.3328282    1297.1536  0.040729515  0.040315937            5 
 2655000   0.82391232   -5.3317882     1294.752  0.040638793  0.040306943            3 
 2656000   0.82249304   -5.3400067    1294.0828  0.040602496  0.040297806            8 
 2657000   0.83403607   -5.3559852    1291.6579  0.040511161  0.040288694           16 
 2658000   0.82047724   -5.3325019    1293.6839   0.04055944  0.040279666            6 
 2659000   0.81652385   -5.3243578    1297.0013  0.040648153  0.040270562            4 
 2660000   0.84256749   -5.3700747    1294.1749  0.040544326  0.040261422            3 
 2661000     0.812781    -5.363246    1294.5304  0.040540222  0.040252349            5 
 2662000   0.83868573   -5.3285213     1299.057  0.040666697  0.040243256            8 
 2663000   0.82411967   -5.3639022    1296.7337  0.040578725  0.040234209            6 
 2664000   0.82071662   -5.3368279    1294.7108  0.040500211  0.040225163            7 
 2665000   0.81800469   -5.3143677    1302.5524   0.04073022  0.040216248            4 
 2666000   0.82927119   -5.3601712    1295.5155  0.040494982  0.040207199            5 
 2667000   0.81195575   -5.3413685    1298.9995   0.04058866  0.040198189            6 
 2668000   0.81869858   -5.3716361    1296.7113  0.040501976  0.040189108            3 
 2669000   0.83403629   -5.3466327    1295.1739  0.040438801  0.040180065            4 
 2670000   0.83484459    -5.331645    1298.6856  0.040533259  0.040171032            6 
 2671000   0.82529814    -5.345239    1298.6843  0.040518041  0.040162016            8 
 2672000   0.84068114   -5.3489509    1298.4631  0.040495981  0.040152928           17 
 2673000   0.82046493   -5.3481587    1305.0616  0.040686545  0.040143861            7 
 2674000    0.8181931   -5.3585969    1298.1019  0.040454435  0.040134678            3 
 2675000    0.7925644   -5.3596877    1297.9423   0.04043434  0.040125582            6 
 2676000   0.82645766   -5.3493562    1297.5985  0.040408522  0.040116521            3 
 2677000   0.83565433    -5.336862    1300.1359  0.040472417  0.040107472            5 
 2678000   0.81994825    -5.346557    1303.1688  0.040551681  0.040098526            8 
 2679000   0.81338809   -5.3420281    1296.4328  0.040327011  0.040089477            4 
 2680000   0.84509312   -5.3562102    1293.9905  0.040236023   0.04008045            3 
 2681000   0.81987903   -5.3692745    1298.7578  0.040369197  0.040071421            5 
 2682000    0.8135322    -5.368866    1300.5223   0.04040897  0.040062363            3 
 2683000   0.83374143   -5.3420856    1302.5874   0.04045805  0.040053357            9 
 2684000   0.82216295   -5.3200651    1302.6368  0.040444512   0.04004447            3 
 2685000    0.8298563   -5.3281307    1301.3253  0.040388743   0.04003552            5 
 2686000   0.81809166   -5.3381892     1301.227  0.040370655  0.040026527            7 
 2687000    0.8245261    -5.350962    1299.1167  0.040290185  0.040017519            6 
 2688000   0.82042944   -5.3627111    1302.5607  0.040381967  0.040008501           10 
 2689000   0.83588114   -5.3874964    1294.4991  0.040117115  0.039999414            3 
 2690000    0.7986636   -5.3562771     1301.446  0.040317409  0.039990352            4 
 2691000   0.82857168   -5.3824299     1297.393  0.040176917  0.039981254           12 
 2692000    0.8097106   -5.3342511    1302.7483   0.04032777  0.039972274            5 
 2693000   0.82236922    -5.381209    1297.5142  0.040150828  0.039963249            8 
 2694000   0.82346722   -5.3422397    1301.9432  0.040272927   0.03995418           13 
 2695000   0.82302567   -5.3748062    1303.9195  0.040319093   0.03994513           14 
 2696000   0.81857466   -5.3459446    1301.1611  0.040218875  0.039935976            5 
 2697000   0.82601245   -5.3536135    1301.5986  0.040217483  0.039926902           10 
 2698000   0.81350025   -5.3484004    1305.1893  0.040313481  0.039917832            3 
 2699000   0.83181468    -5.365883    1303.9729  0.040260987  0.039908734            9 
 2700000   0.80914696   -5.3813672    1299.8946  0.040120203  0.039899698            5 
 2701000   0.81743958   -5.3415703    1304.7837  0.040256193  0.039890706            5 
 2702000   0.80492678   -5.3506329     1308.197  0.040346563  0.039881713            8 
 2703000   0.80261094     -5.34032    1304.0334  0.040203274  0.039872673            5 
 2704000   0.81499418   -5.3666393    1308.0743  0.040312942  0.039863706            6 
 2705000   0.80581551   -5.3595934    1307.6889  0.040286165  0.039854769            7 
 2706000   0.82837854   -5.3706875    1300.8864   0.04006179  0.039845888            5 
 2707000   0.81139539   -5.3604778    1307.4143  0.040247947  0.039836939            5 
 2708000   0.80891438   -5.3469314    1310.6223  0.040331805  0.039827934            5 
 2709000   0.82245117   -5.3554875    1306.8873  0.040202021  0.039819007            7 
 2710000   0.84020552   -5.3378827    1309.3298  0.040262293  0.039810077            7 
 2711000   0.80848207   -5.3859179      1303.83  0.040078383  0.039801161            9 
 2712000     0.820117   -5.3771359    1308.6943  0.040213074  0.039792201            5 
 2713000   0.80794203   -5.3378242    1308.7891  0.040201163  0.039783266            6 
 2714000   0.82058955   -5.3586561    1309.7104   0.04021464  0.039774379            5 
 2715000   0.82144207   -5.3224052    1308.3043  0.040156669  0.039765499           10 
 2716000   0.81040052   -5.3676319    1304.6199  0.040028839  0.039756496            9 
 2717000   0.83332425    -5.366945    1303.5031  0.039979851  0.039747522            4 
 2718000   0.80413275   -5.3306879    1310.2401  0.040171696  0.039738494            6 
 2719000   0.82092161   -5.3433639    1310.9729  0.040179381  0.039729503           10 
 2720000   0.81143979   -5.3964105    1307.2876  0.040051704  0.039720442            7 
 2721000   0.80522441   -5.3350914    1309.4187  0.040102252  0.039711419            4 
 2722000   0.81526647   -5.3619116    1308.2672  0.040052265  0.039702414            7 
 2723000   0.81000085   -5.3765633    1309.7168   0.04008192  0.039693472            5 
 2724000   0.81666016   -5.3914174    1309.1968  0.040051299  0.039684383            4 
 2725000   0.81930603   -5.3764466    1306.6027  0.039957271  0.039675374            4 
 2726000   0.81479907   -5.3877128    1309.5813  0.040033667  0.039666284            6 
 2727000   0.80232481   -5.3604646    1307.1561  0.039944876  0.039657231           10 
 2728000   0.81377086   -5.3659096    1307.8736  0.039952149  0.039648173            7 
 2729000   0.81354062   -5.3693746    1310.4101  0.040014966  0.039639142           10 
 2730000   0.82159101   -5.3827117    1304.4623  0.039818751  0.039630039            4 
 2731000   0.80325079   -5.3515879    1309.3949  0.039954685  0.039621047            3 
 2732000   0.82209296   -5.3499609    1311.9295  0.040017372  0.039612033            6 
 2733000   0.81218342   -5.3654026    1307.2948  0.039861409  0.039602994            6 
 2734000   0.79078251   -5.3673446    1309.1315  0.039902814  0.039593995            4 
 2735000   0.80799861   -5.3673687    1311.4628  0.039959257  0.039584916            3 
 2736000   0.80826787   -5.3690722    1310.1448  0.039904509  0.039575888            5 
 2737000   0.81991997   -5.3797468    1308.4456  0.039838192  0.039566766            7 
 2738000   0.82731136   -5.3615907    1313.4753  0.039976725   0.03955787           10 
 2739000   0.81432533   -5.4121799    1307.0514  0.039766684  0.039548861            8 
 2740000   0.82839626   -5.3439696    1313.4853  0.039947849  0.039539877            7 
 2741000   0.79465562    -5.359843    1311.7552  0.039880677   0.03953086            6 
 2742000   0.81458446   -5.3827268    1309.8126  0.039807094  0.039522006            3 
 2743000   0.80512249   -5.3617552    1311.7932  0.039852754  0.039513024            4 
 2744000   0.81156514   -5.3682728    1312.5233  0.039860402   0.03950416           11 
 2745000   0.81557593   -5.3878114    1308.1797  0.039714017   0.03949522            4 
 2746000   0.82460344   -5.3572994    1313.9727  0.039875356  0.039486246            5 
 2747000   0.81644328   -5.3948795    1314.4221  0.039874472  0.039477232            4 
 2748000   0.80738623   -5.3831494    1308.9668  0.039694528    0.0394682            5 
 2749000   0.79679123   -5.3477606    1317.5213  0.039939411  0.039459145            6 
 2750000   0.81306427   -5.3677785    1311.6171  0.039745972  0.039450083           15 
 2751000   0.80605513   -5.3683447    1315.5944  0.039852006  0.039441099            7 
 2752000   0.81245022   -5.3630545    1310.1049  0.039671296  0.039432133            5 
 2753000   0.81906334   -5.3841877    1306.0833  0.039535153  0.039423007            8 
 2754000    0.8187829   -5.3671982    1314.8954  0.039787442  0.039413936           12 
 2755000   0.81909518    -5.371182    1311.2978   0.03966418  0.039404839            8 
 2756000   0.79475849   -5.3764517     1316.005  0.039792119  0.039395696            5 
 2757000   0.82405254   -5.3864254    1311.3252  0.039636234  0.039386647            8 
 2758000   0.80535506   -5.3986523    1308.8297  0.039546461  0.039377553            3 
 2759000   0.82022496   -5.3446746    1317.9432  0.039807393  0.039368478            4 
 2760000   0.79878598   -5.4050791    1312.7882  0.039637323  0.039359356            4 
 2761000   0.80290613   -5.4011745     1311.344  0.039579379  0.039350137            4 
 2762000   0.82211843   -5.4053357    1316.3671  0.039716605  0.039341035            9 
 2763000   0.80252668   -5.3839296    1311.0792  0.039542743  0.039331931            4 
 2764000   0.79928884   -5.3811851    1316.5876  0.039694514  0.039322904            8 
 2765000   0.79677547   -5.3713808    1313.0277  0.039572867  0.039313872            3 
 2766000   0.80088667   -5.4002461    1315.8649  0.039644039  0.039304832            5 
 2767000    0.8091607   -5.3748087    1314.2255  0.039580337  0.039295714            5 
 2768000   0.81113378   -5.3431845    1318.1967  0.039685595  0.039286713           11 
 2769000   0.80176777   -5.3973661    1310.9242  0.039452396  0.039277711           10 
 2770000     0.818189   -5.4076299    1313.6376  0.039519783  0.039268576            3 
 2771000    0.8280165   -5.4240798     1313.154  0.039490978  0.039259391            7 
 2772000   0.81464289   -5.3858221    1311.5775  0.039429339  0.039250272            6 
 2773000   0.81468166   -5.3941053    1313.1663  0.039462866  0.039241082            6 
 2774000   0.79952803   -5.4102659    1318.0271  0.039594661  0.039231921            5 
 2775000   0.82321821   -5.4147566     1314.955  0.039488137  0.039222734           15 
 2776000   0.78893861   -5.3716168    1317.1564  0.039539997  0.039213625            6 
 2777000   0.80925895   -5.3837716    1317.5655  0.039538036   0.03920445           10 
 2778000   0.80644105   -5.3757443    1316.3273  0.039486659  0.039195296            6 
 2779000   0.78316448   -5.3982072     1314.888  0.039429291  0.039186159            7 
 2780000   0.81208533   -5.3780298    1315.7007  0.039439469  0.039177035            5 
 2781000    0.8051101   -5.4050412    1313.5804  0.039361751  0.039167869            6 
 2782000    0.8027872   -5.4017137    1314.7409  0.039382366  0.039158796            6 
 2783000   0.79966542   -5.3837273    1318.0206  0.039466421  0.039149814            8 
 2784000   0.80910339   -5.3774263     1319.801  0.039505536  0.039140752            4 
 2785000   0.80083896   -5.3716304    1317.9345  0.039435503  0.039131777            5 
 2786000   0.79796817   -5.4006408    1317.3885  0.039405015  0.039122616            5 
 2787000   0.80083587   -5.3889676    1318.0573  0.039410875  0.039113552            5 
 2788000   0.80566187   -5.3828916    1317.6109  0.039383397   0.03910446            8 
 2789000   0.79578872   -5.3838371    1317.6848  0.039371482  0.039095256           10 
 2790000   0.80229272   -5.4150247    1313.2063  0.039223606  0.039085965            7 
 2791000   0.78698094   -5.4050658    1316.8752  0.039319098  0.039076735           11 
 2792000   0.79377631    -5.396318    1315.6646  0.039268882  0.039067541            8 
 2793000   0.81160832    -5.366843    1317.5869  0.039312177  0.039058347            6 
 2794000   0.80319709   -5.3899715    1314.9795  0.039220339  0.039049145            5 
 2795000   0.79868236   -5.3879474    1317.7369  0.039288519  0.039039783            2 
 2796000   0.79943501   -5.4196483     1316.627  0.039241387  0.039030518           11 
 2797000   0.81634308   -5.4123004    1320.5646  0.039344672  0.039021178            8 
 2798000   0.79771759    -5.390097    1316.8642  0.039220401  0.039011843            6 
 2799000   0.80871019    -5.383206    1320.3044  0.039308812  0.039002599            8 
 2800000   0.80902985    -5.415578    1317.6387  0.039215438  0.038993327           10 
 2801000   0.80115765   -5.4121609    1319.3831  0.039253337  0.038984045            4 
 2802000   0.81211437   -5.4149247    1316.9701  0.039167562  0.038974771           12 
 2803000   0.79276353    -5.386038    1319.2211  0.039220512  0.038965549           12 
 2804000   0.79117072   -5.3956203    1318.6471  0.039189464  0.038956362            5 
 2805000   0.79637279   -5.3692858    1320.3673  0.039226599  0.038947069            6 
 2806000   0.79124297   -5.4124692    1318.6833  0.039162608  0.038937775            6 
 2807000   0.81182992   -5.3990652    1317.5093  0.039113803  0.038928442            4 
 2808000   0.79271021   -5.3788286    1318.8468  0.039139564  0.038919154           10 
 2809000   0.80593298   -5.4213009    1317.9421  0.039098794  0.038909857            5 
 2810000   0.80794532   -5.3796048    1320.6902  0.039166377   0.03890061            8 
 2811000   0.80055312   -5.4371146    1319.0761  0.039104592  0.038891332            8 
 2812000   0.79275189   -5.3952424    1321.2653  0.039155563  0.038882037            4 
 2813000   0.80459028   -5.4067614    1322.5089  0.039178485  0.038872847            5 
 2814000   0.79893515   -5.4116034    1322.1089  0.039152716  0.038863667            4 
 2815000    0.8089105   -5.4393938    1317.6107  0.039005645  0.038854557            4 
 2816000   0.81480999   -5.3820345    1324.0162   0.03918135  0.038845402            5 
 2817000    0.8080439   -5.3846666    1323.4903  0.039151883   0.03883627            6 
 2818000   0.80478041   -5.3962327    1322.2954  0.039102655  0.038827034            5 
 2819000   0.81135952   -5.4350123    1322.8711  0.039105802  0.038817734            6 
 2820000   0.80518722   -5.4017603    1320.3318  0.039016898  0.038808429            9 
 2821000   0.81536509   -5.4210542    1319.5581  0.038980211  0.038799043            4 
 2822000    0.8032453   -5.3885732    1317.0683  0.038892874  0.038789813            4 
 2823000   0.81185804   -5.4063315    1321.9268  0.039022518  0.038780513            9 
 2824000   0.80253169   -5.3929341    1317.5681  0.038880079  0.038771127           10 
 2825000   0.78886151   -5.4024522     1317.484  0.038863833  0.038761864            5 
 2826000   0.79107092   -5.4185732    1321.1513  0.038958224  0.038752495            7 
 2827000   0.79393692    -5.407643    1321.4273  0.038952579  0.038743153            4 
 2828000   0.78694816   -5.4059169    1320.7034  0.038917475  0.038733822            7 
 2829000   0.79645781    -5.406725    1322.0481  0.038943327  0.038724419           20 
 2830000   0.78474403   -5.4033127    1318.6383  0.038829162  0.038715036            3 
 2831000   0.80102986   -5.3914925    1319.4845  0.038840353   0.03870564            4 
 2832000   0.80252779   -5.3908115    1320.4103  0.038853881  0.038696255           10 
 2833000   0.80736193   -5.3774705    1321.5401    0.0388734  0.038686835           10 
 2834000   0.80568449   -5.4050654    1321.8597  0.038869081  0.038677439            6 
 2835000   0.79154725   -5.3974156    1319.7873  0.038794455  0.038668087           11 
 2836000   0.78578374   -5.4282657    1319.7371  0.038779299  0.038658583           13 
 2837000   0.80845873   -5.3910217    1319.9164  0.038770897  0.038649127            8 
 2838000   0.80606324   -5.4159925    1318.1275  0.038704706  0.038639666            5 
 2839000    0.7951212   -5.3916006    1316.3171  0.038637934  0.038630222            6 
 2840000   0.81124977   -5.4139485    1323.1983   0.03882624  0.038620746            9 
 2841000   0.80873218   -5.4039964    1319.5822  0.038706506  0.038611311            5 
 2842000   0.81057565   -5.4035757    1320.3295    0.0387148  0.038601888            5 
 2843000   0.80333195   -5.4151135    1318.7269  0.038654207  0.038592442            7 
 2844000   0.80131388   -5.4268328    1323.4294  0.038778405   0.03858311            3 
 2845000    0.7906684   -5.4102264    1322.4156   0.03873508  0.038573748            7 
 2846000   0.80491355   -5.3853106    1323.7807   0.03876144  0.038564502            5 
 2847000   0.80713061   -5.4072281    1322.9082  0.038722286  0.038555072           15 
 2848000    0.8069636   -5.4274228    1320.7817  0.038646469  0.038545681           16 
 2849000    0.7985891    -5.414327    1323.6878  0.038717908   0.03853622            6 
 2850000   0.80642998   -5.3747046    1323.9357  0.038711571   0.03852683            4 
 2851000   0.78164366   -5.3929565    1323.5747  0.038687441  0.038517405            4 
 2852000   0.78987528   -5.4010858    1320.8301   0.03859368  0.038507955            7 
 2853000   0.80548551    -5.406317    1323.6928   0.03866377  0.038498476            3 
 2854000   0.79443928   -5.3990264     1318.936  0.038511329   0.03848899            8 
 2855000   0.77568328   -5.4284347    1325.0761   0.03867706  0.038479534           10 
 2856000   0.79224873   -5.4234436    1321.9248  0.038571568  0.038469959           10 
 2857000   0.77833251   -5.4063008    1320.2931  0.038510475   0.03846045            6 
 2858000   0.79492912   -5.4408715     1319.263  0.038466964  0.038450987            8 
 2859000   0.79636423   -5.3951781    1324.3556  0.038601947  0.038441556            3 
 2860000   0.79039824   -5.4154117     1324.122  0.038581644  0.038432121            4 
 2861000   0.81320103   -5.4414396    1320.4174  0.038460252  0.038422644            7 
 2862000   0.78570338   -5.4276579    1319.9236  0.038432435  0.038413267            8 
 2863000   0.79793497   -5.4198842     1324.682  0.038557516  0.038403908            5 
 2864000   0.77831323   -5.4225628    1322.9324  0.038493146  0.038394509            5 
 2865000    0.8140933   -5.4201174    1324.4134  0.038522786  0.038385135            4 
 2866000   0.77361264   -5.4108183    1323.9747  0.038496588  0.038375782            9 
 2867000   0.79124348   -5.4115023    1324.8888  0.038509733   0.03836646            6 
 2868000   0.78520569   -5.4253415    1326.5823  0.038545511  0.038357121            5 
 2869000   0.78541903   -5.4322383    1326.9087  0.038541556  0.038347746           18 
 2870000   0.78550228   -5.4207079    1323.1326  0.038418483  0.038338313           11 
 2871000   0.79658397   -5.3967724    1322.6813  0.038392003  0.038328828            9 
 2872000   0.79022378   -5.4327285    1319.5777  0.038288582  0.038319315            6 
 2873000   0.79839278   -5.4073519     1327.524  0.038505744  0.038309851            4 
 2874000   0.78106953   -5.4151672    1326.8489  0.038472769  0.038300486            7 
 2875000   0.80504659    -5.398454     1324.915  0.038403332  0.038291032            7 
 2876000   0.79065609   -5.3776294    1327.1218  0.038453923  0.038281602           10 
 2877000   0.79150281   -5.4031074    1327.0909  0.038439661  0.038272225            8 
 2878000   0.78952905   -5.4161866    1327.2791  0.038431754   0.03826284            4 
 2879000   0.79341084   -5.4134106    1325.9838  0.038380912  0.038253521            5 
 2880000   0.77077394   -5.4258129     1324.848  0.038334723  0.038244173            4 
 2881000   0.77392971   -5.4179299    1325.1211  0.038329315  0.038234761            8 
 2882000   0.80084067   -5.4467868    1323.8759  0.038280012  0.038225343            5 
 2883000   0.78781926   -5.4310577    1322.5886  0.038229524  0.038215956           16 
 2884000   0.77754543   -5.4267011    1325.6624  0.038305086  0.038206497            6 
 2885000    0.7886814   -5.4270443    1328.7194  0.038380111  0.038197111            3 
 2886000   0.80370971   -5.4308586    1327.9319  0.038344072  0.038187732            5 
 2887000   0.78054687   -5.4344587     1325.065  0.038248036  0.038178361            6 
 2888000   0.77915802   -5.4476794    1325.4607  0.038246211  0.038168948            5 
 2889000   0.77984098    -5.416409     1329.022  0.038335699  0.038159558           24 
 2890000   0.77034807   -5.4397794    1327.7279  0.038285118  0.038150222            5 
 2891000   0.79343214   -5.4094846    1328.2363  0.038286529   0.03814086            5 
 2892000   0.78056412   -5.4169486    1330.0692  0.038326106    0.0381315           10 
 2893000   0.77930624     -5.43405    1331.6741  0.038359088  0.038122134           15 
 2894000   0.79411308   -5.4137226    1330.3413  0.038307456  0.038112782           13 
 2895000   0.80404695   -5.4356527    1328.8491  0.038251269   0.03810339            7 
 2896000   0.80725298   -5.4485182    1331.2543  0.038307273  0.038093939           12 
 2897000    0.7901763   -5.4545871     1328.404  0.038212058  0.038084541            4 
 2898000   0.79440551   -5.4258496    1333.7763  0.038353355  0.038075179            6 
 2899000   0.76938899   -5.4565968    1331.1227  0.038263847  0.038065843            6 
 2900000   0.78568782   -5.4178192    1329.7184  0.038210299  0.038056553            6 
 2901000   0.79147217   -5.4296336     1331.508  0.038248534  0.038047242            9 
 2902000   0.79846089   -5.4548249    1328.8503  0.038159037  0.038037887            9 
 2903000   0.79142382   -5.4393274    1329.2931  0.038158604  0.038028524            9 
 2904000   0.77692496   -5.4186251    1334.8357  0.038304513  0.038019256           16 
 2905000   0.80471034   -5.4307136    1332.7659  0.038231952  0.038009979            8 
 2906000   0.78285891   -5.4518495     1336.172  0.038316472  0.038000586            6 
 2907000   0.81341985   -5.4207829    1334.8411  0.038265138  0.037991365           10 
 2908000   0.78795464   -5.4224272    1333.3588  0.038209503  0.037982194            6 
 2909000   0.80393404   -5.4288318     1334.824  0.038238342   0.03797303            6 
 2910000   0.78251817   -5.4755897     1331.846   0.03813992  0.037963735            7 
 2911000   0.80822033   -5.4469508    1335.7858  0.038239603  0.037954585            7 
 2912000   0.79422311   -5.4256997    1336.8858  0.038257949  0.037945417            6 
 2913000   0.78154905   -5.4113442    1336.6892  0.038239192  0.037936201            9 
 2914000    0.7774045   -5.4491836     1332.805  0.038114991  0.037926977            6 
 2915000   0.78765977   -5.4169936     1333.498  0.038121727  0.037917717            5 
 2916000   0.77579764   -5.4461234    1332.6172  0.038083482   0.03790845            6 
 2917000   0.78735451   -5.4553175     1335.641   0.03815681  0.037899149            7 
 2918000   0.77992126   -5.4481391    1331.5035  0.038025574  0.037889788           11 
 2919000     0.779596   -5.4218179    1336.8273  0.038164534  0.037880546            5 
 2920000   0.78059951   -5.4434634    1328.3518  0.037909584  0.037871306           16 
 2921000    0.7944659   -5.4573328    1332.1639  0.038005361  0.037861977            6 
 2922000   0.78606285   -5.4489543    1332.3167  0.037996712  0.037852645            6 
 2923000   0.80339404   -5.4375307    1332.9731  0.038002426   0.03784334           13 
 2924000   0.80023004   -5.4389754    1333.8496  0.038014411  0.037834077            7 
 2925000   0.78339711   -5.4282673    1337.5388  0.038106519  0.037824831            6 
 2926000   0.76178052   -5.4268455    1334.8314  0.038016388  0.037815481            5 
 2927000   0.79164966   -5.4665898    1334.7666  0.038001554   0.03780618           10 
 2928000   0.77149721   -5.4437663     1333.487  0.037952157  0.037796868           10 
 2929000   0.77314924   -5.4252435    1335.5082  0.037996707  0.037787529            6 
 2930000    0.7703331   -5.4310045     1333.731   0.03793319  0.037778167           20 
 2931000   0.77684367   -5.4422972    1337.7991  0.038035911  0.037768918            7 
 2932000   0.79796099   -5.4150701    1336.7689   0.03799366  0.037759775            5 
 2933000   0.79408836   -5.4581112    1335.3511  0.037940421  0.037750472            5 
 2934000   0.78568558   -5.4438097    1337.5668  0.037990423  0.037741104            8 
 2935000    0.8069162   -5.4600724    1340.4339  0.038058885  0.037731805           10 
 2936000   0.77070518   -5.4601795    1333.3579  0.037845082   0.03772254            8 
 2937000   0.79480027   -5.4542325    1336.7893  0.037929557  0.037713292            5 
 2938000   0.78036409   -5.4348448    1334.0854  0.037839954  0.037704039            7 
 2939000   0.78764357   -5.4410824    1336.2591  0.037888712  0.037694727           13 
 2940000   0.79422254   -5.4657562    1337.2523  0.037903975  0.037685446            7 
 2941000   0.78818705   -5.4174601    1339.2547  0.037947827  0.037676306            4 
 2942000   0.78423048   -5.4382685    1340.5282     0.037971  0.037667125            4 
 2943000   0.78417475   -5.4392484    1341.9638  0.037998748  0.037657894            6 
 2944000   0.78165143   -5.4461563    1337.4951   0.03785935   0.03764878            4 
 2945000   0.76682028   -5.4637888    1336.3235  0.037813343  0.037639605            5 
 2946000     0.776228    -5.439709     1337.797  0.037842188  0.037630329            7 
 2947000   0.77803669   -5.4438571    1341.7706  0.037941708  0.037621119            4 
 2948000   0.79473022     -5.45363    1338.5714  0.037838406  0.037611897            8 
 2949000   0.78016883   -5.4476998    1339.4353  0.037849987  0.037602787            8 
 2950000   0.76749139   -5.4635312    1337.0704  0.037770349   0.03759363            4 
 2951000   0.78134278   -5.4494788     1341.637  0.037886508   0.03758439            8 
 2952000   0.77766117    -5.467689    1341.3953  0.037866851  0.037575296            6 
 2953000   0.77567486     -5.47832    1340.6569   0.03783319  0.037566192            8 
 2954000   0.77407395   -5.4713681    1340.6313   0.03781966  0.037557031            6 
 2955000   0.78068568   -5.4598021    1339.3561  0.037770899  0.037547968            4 
 2956000   0.78372345   -5.4699689    1341.1249  0.037807985  0.037538886            9 
 2957000   0.79003464   -5.4408706    1343.7087  0.037868017  0.037529713            4 
 2958000   0.77975684   -5.4665156    1340.8865  0.037775708  0.037520579            4 
 2959000   0.79076398   -5.4753144    1342.1004  0.037797127  0.037511348            3 
 2960000   0.77584904   -5.4165737     1345.799  0.037888484   0.03750213           15 
 2961000   0.78700216   -5.4564667    1340.5301  0.037727403  0.037492998            3 
 2962000   0.77133076   -5.4817512    1339.9766  0.037699093   0.03748379            5 
 2963000   0.79367904   -5.4163921    1340.8605  0.037711229  0.037474644           12 
 2964000   0.78548982   -5.4535135    1337.3325  0.037599316  0.037465461            6 
 2965000   0.78753435   -5.4429235    1340.2593  0.037668896  0.037456299            9 
 2966000   0.78327289     -5.44981    1342.2039   0.03771083  0.037447161           15 
 2967000   0.78203811   -5.4303852    1339.4037  0.037619473  0.037438041            3 
 2968000   0.78393839    -5.463053    1341.2922  0.037659821  0.037428829            7 
 2969000   0.78397949   -5.4955161    1339.6481  0.037600989  0.037419638            8 
 2970000   0.77109538   -5.4545221    1342.7513  0.037675401  0.037410456            9 
 2971000   0.78454138   -5.4558888    1344.4123  0.037709309  0.037401194            4 
 2972000   0.78067641   -5.4577232    1338.5622  0.037532589  0.037391882            5 
 2973000   0.77887438   -5.4633387    1340.6524  0.037578551   0.03738254            7 
 2974000   0.77977107    -5.456779    1339.5751   0.03753573  0.037373255            5 
 2975000   0.78557659   -5.4198926     1342.042  0.037592214  0.037364007            5 
 2976000   0.75949501   -5.4742142    1339.1951  0.037499863   0.03735471            6 
 2977000   0.77453754   -5.4307534    1343.3875  0.037604621  0.037345439            8 
 2978000   0.76188102   -5.4354294    1341.9116  0.037550695  0.037336132            8 
 2979000   0.76427397   -5.4864981    1337.3532  0.037410574  0.037326834           13 
 2980000   0.77892136   -5.4695401    1344.5752  0.037599979  0.037317479           12 
 2981000   0.76463957   -5.4815387    1339.2213  0.037437696  0.037308107           10 
 2982000   0.78209695   -5.4143009    1342.2777  0.037510555  0.037298902            2 
 2983000   0.77322313   -5.4503139    1339.8545  0.037430285  0.037289674            3 
 2984000   0.76865464   -5.4495262    1346.7984  0.037611662  0.037280495            4 
 2985000   0.76958511   -5.4622326    1340.4412  0.037421585  0.037271299            4 
 2986000    0.7770412   -5.4740446    1344.4273  0.037520299  0.037262058            3 
 2987000   0.76932884    -5.477614    1345.0102  0.037523998  0.037252796            7 
 2988000   0.77148546    -5.492946    1344.3198  0.037492185  0.037243532            4 
 2989000   0.76100265   -5.4355639    1351.1572  0.037670268  0.037234302            8 
 2990000   0.77908322    -5.471832    1342.5383  0.037417454   0.03722512            8 
 2991000   0.76044338   -5.4817504    1344.6643  0.037464178  0.037215882           10 
 2992000   0.77955225   -5.4486046    1345.0118  0.037461336  0.037206767            5 
 2993000   0.77705653   -5.4629995    1342.8897  0.037389735  0.037197599            9 
 2994000   0.78372717   -5.4999636    1340.6833  0.037315833  0.037188333            5 
 2995000   0.78335602   -5.4755361    1347.6898  0.037498324  0.037179117           10 
 2996000   0.76859946   -5.4671591    1346.3898   0.03744965  0.037169933            5 
 2997000   0.76555903    -5.458058    1344.7196  0.037390713  0.037160667            7 
 2998000   0.78454128   -5.4759057    1342.1151  0.037305846  0.037151397           18 
 2999000   0.77331452   -5.4531721    1344.9577  0.037372393  0.037142224            7 
 3000000   0.76093625    -5.442756    1347.4569  0.037429358  0.037133106            5 
 3001000   0.78743201   -5.4694903    1343.0466  0.037294418  0.037123947            8 
 3002000   0.78261059   -5.4637614     1347.338  0.037401121   0.03711473            7 
 3003000   0.76332508   -5.4767105    1343.7429  0.037288903   0.03710549            7 
 3004000   0.77581143   -5.4570039     1344.473  0.037296742  0.037096221            8 
 3005000   0.79107746     -5.48964    1341.0441  0.037189243  0.037086943            9 
 3006000    0.7778746   -5.4709077    1341.8876  0.037200254  0.037077499            9 
 3007000    0.7669329   -5.4923838    1342.0821  0.037193275  0.037068191            8 
 3008000   0.77410499   -5.4797288    1344.6671  0.037252523  0.037058897            5 
 3009000    0.7704053   -5.4582935    1347.8736  0.037328946  0.037049609           12 
 3010000   0.77434999    -5.491096     1345.222  0.037243135  0.037040293            5 
 3011000   0.75705858   -5.4693768    1343.8108  0.037191709  0.037031038            8 
 3012000   0.77486386   -5.4652491    1344.9743  0.037211551  0.037021676           11 
 3013000   0.76870238   -5.4585348     1346.364  0.037237636  0.037012343            5 
 3014000   0.78024679   -5.4724366    1347.5096  0.037256956  0.037003035           11 
 3015000   0.75892711   -5.5012007    1345.4371  0.037187316  0.036993709            7 
 3016000   0.75950941   -5.4699295    1345.9724  0.037189777   0.03698436            8 
 3017000   0.77628931   -5.4788264    1342.6206  0.037084869  0.036974982            8 
 3018000   0.76216398   -5.4728649    1342.0058  0.037055605  0.036965593            7 
 3019000   0.76554333     -5.49241    1342.6935  0.037062313  0.036956298            9 
 3020000     0.776387   -5.4492962    1346.8188  0.037163873  0.036947042            8 
 3021000   0.77741547   -5.4536447    1349.2213  0.037217843  0.036937787            4 
 3022000   0.76516964   -5.4787518    1347.3176  0.037153032  0.036928582            8 
 3023000   0.75794093   -5.4639629    1345.3753  0.037087201  0.036919297           12 
 3024000   0.75410256   -5.4545869    1348.0066  0.037147449  0.036910033            4 
 3025000   0.77881574   -5.4764382    1345.3244  0.037061278  0.036900758            8 
 3026000   0.75685032    -5.486224    1345.8078  0.037062344  0.036891436            8 
 3027000    0.7848123   -5.4760172    1350.5755  0.037181354  0.036882257            7 
 3028000   0.76875179   -5.4602957    1348.6337  0.037115634  0.036873102           14 
 3029000   0.76543046    -5.478461    1348.2455  0.037092702  0.036863943            6 
 3030000   0.77385085   -5.4816546    1347.0236  0.037046853  0.036854763           11 
 3031000   0.77391076   -5.4817884    1351.1017  0.037146753  0.036845495           11 
 3032000   0.75521485   -5.4804789    1349.0843  0.037079055  0.036836205            9 
 3033000    0.7837243   -5.4397712    1350.2629  0.037099211  0.036827005            7 
 3034000   0.76469588    -5.462438    1349.8016  0.037074313  0.036817847            8 
 3035000   0.76069965   -5.4768324    1349.2609  0.037047251  0.036808736            7 
 3036000   0.76950286   -5.4794304    1350.0299  0.037056158  0.036799542            9 
 3037000   0.74102528    -5.481174    1349.3827  0.037026197  0.036790396            5 
 3038000   0.76487519   -5.4651828    1350.8615  0.037054573  0.036781218            7 
 3039000   0.78101539   -5.4744362    1348.5633   0.03697936  0.036772024            4 
 3040000   0.76418743   -5.4491192    1350.1743  0.037011356   0.03676284            9 
 3041000   0.75886003   -5.4684418    1349.4078  0.036978183  0.036753723            7 
 3042000   0.77407686   -5.4517874     1352.407  0.037048188  0.036744586            5 
 3043000    0.7718295    -5.470813    1351.0413  0.036998612   0.03673548           16 
 3044000   0.76174228   -5.4823368     1352.318  0.037021409    0.0367263            8 
 3045000   0.75421202   -5.4542846    1353.8577  0.037051386  0.036717193            8 
 3046000   0.77105145   -5.4664144    1349.6501  0.036924111  0.036708032            9 
 3047000   0.74990047   -5.4692918    1355.9041  0.037083034  0.036698844            8 
 3048000   0.77603912   -5.4572555    1350.2905   0.03691739  0.036689679           11 
 3049000   0.78453955   -5.4763805    1353.6026  0.036995807  0.036680565            8 
 3050000   0.75352116   -5.5019391    1350.8961  0.036909731  0.036671456            5 
 3051000   0.77117329   -5.4973652    1353.4436  0.036967213   0.03666227            7 
 3052000   0.74862816   -5.4929805    1349.2902  0.036841695   0.03665306            5 
 3053000    0.7632415    -5.507305    1350.5536  0.036864111  0.036643891            3 
 3054000   0.76204765   -5.4955075    1352.5099  0.036905421  0.036634714            6 
 3055000   0.75790201   -5.4890084    1355.6394  0.036978707  0.036625495            3 
 3056000    0.7768226   -5.5000027    1345.8773  0.036700407  0.036616313            5 
 3057000   0.76376021   -5.5019676    1353.0088  0.036882806  0.036607146            6 
 3058000    0.7643341   -5.4991199    1351.8673  0.036839637   0.03659801            9 
 3059000   0.74840883   -5.4880578    1352.0523  0.036832632  0.036588941           11 
 3060000   0.77124032    -5.472561    1356.5025  0.036941789  0.036579862           12 
 3061000   0.73567209    -5.443918     1356.745  0.036936322  0.036570949            8 
 3062000   0.75360363   -5.4915552    1352.4711  0.036807945  0.036561914            6 
 3063000   0.76632694   -5.4803969    1355.6855   0.03688338  0.036552857            7 
 3064000   0.74289978   -5.5229354    1349.4688  0.036702263  0.036543778           10 
 3065000   0.76591135   -5.4593722    1360.5623  0.036991905  0.036534757            9 
 3066000   0.75630225   -5.4841122    1357.8924  0.036907274  0.036525742            6 
 3067000    0.7513327   -5.4907034    1363.6504   0.03705169  0.036516799            9 
 3068000   0.75719191    -5.475671    1354.7255  0.036797195  0.036507823            7 
 3069000   0.75600531   -5.4844913    1355.5137  0.036806606  0.036498734            7 
 3070000    0.7630428   -5.4678151    1359.1277  0.036892716  0.036489773            5 
 3071000   0.74247039   -5.4728921     1363.669  0.037003934  0.036480823            7 
 3072000    0.7557319   -5.5078898    1353.3964  0.036713228  0.036471888           12 
 3073000   0.74575997   -5.4931647    1358.4467  0.036838235   0.03646288            7 
 3074000   0.76230583   -5.4909036    1354.1452  0.036709641  0.036453867            7 
 3075000   0.75453096   -5.4897238    1357.3903  0.036785644  0.036444834            4 
 3076000   0.75885501   -5.4717218    1354.0636  0.036683562  0.036435757           10 
 3077000    0.7670176   -5.5147729     1355.078  0.036699112  0.036426762            6 
 3078000   0.77195078   -5.4848456    1362.2803  0.036882183  0.036417745            6 
 3079000   0.75278755   -5.4783762      1358.66   0.03677222  0.036408707            8 
 3080000   0.76654531   -5.5059153    1353.8957  0.036631376  0.036399717            4 
 3081000    0.7686115    -5.498967    1357.3086  0.036711798  0.036390725            7 
 3082000   0.74084379   -5.5133937    1359.5882  0.036761524  0.036381721            5 
 3083000   0.75233891   -5.4905428    1355.5345  0.036640029  0.036372707           11 
 3084000    0.7589523   -5.4897693    1357.0136  0.036668115  0.036363731            4 
 3085000    0.7642268   -5.4440618    1362.5907  0.036806881  0.036354804           11 
 3086000   0.75159732   -5.5150728    1358.0272  0.036671721    0.0363459            6 
 3087000   0.76192678   -5.4911047    1358.3335   0.03666811  0.036336922            5 
 3088000   0.74305873   -5.4955489    1363.1638  0.036786587  0.036328039            7 
 3089000   0.76106329   -5.5024993    1360.5551  0.036704302  0.036319085            6 
 3090000   0.73379648   -5.4937536    1358.8384  0.036646128  0.036310102            6 
 3091000   0.76133241    -5.505662    1358.3041  0.036619866  0.036301134            5 
 3092000    0.7447798   -5.4911871    1356.1827   0.03655085  0.036292088            7 
 3093000   0.75810322   -5.4969936    1354.4712  0.036492919  0.036283047            6 
 3094000   0.74266302   -5.4983524    1361.1511  0.036661041   0.03627408           10 
 3095000   0.72986697   -5.4984581    1355.4257  0.036495037  0.036264991            9 
 3096000   0.76342963   -5.4919046    1365.5904  0.036756848  0.036255985            5 
 3097000   0.76066298   -5.4911769    1360.2714  0.036601855  0.036247052            8 
 3098000   0.75272736    -5.496747    1362.6776  0.036654765  0.036238139            5 
 3099000   0.75452449   -5.5065185    1357.9649  0.036516212  0.036229129            6 
 3100000   0.75389118   -5.4919553    1362.1797  0.036617734  0.036220159            8 
 3101000    0.7574769   -5.5033018    1360.0096  0.036547609  0.036211226           13 
 3102000   0.77363518   -5.4777547    1360.9807  0.036561913  0.036202325            8 
 3103000   0.75099511   -5.4920937    1360.6116  0.036540218  0.036193364            5 
 3104000   0.75698355   -5.4854496     1361.047  0.036540137  0.036184373            7 
 3105000    0.7772366   -5.4962553    1361.8679  0.036550399  0.036175358            8 
 3106000   0.76234189   -5.5125892    1361.0493  0.036516671  0.036166345            6 
 3107000   0.77495986   -5.5083168    1362.5784  0.036545929   0.03615729            7 
 3108000   0.75577146   -5.4869471    1362.0579  0.036520213  0.036148273            4 
 3109000   0.74248504    -5.502191     1362.572  0.036522247  0.036139369           15 
 3110000   0.74855293   -5.5059558    1359.6319  0.036431722  0.036130413           10 
 3111000   0.74566053   -5.4969724    1361.3723  0.036466632  0.036121382           11 
 3112000   0.75738645   -5.4854491    1361.1297  0.036448417  0.036112351            4 
 3113000   0.76086895   -5.5081391     1361.842  0.036455777  0.036103339            5 
 3114000   0.74497855   -5.5219317    1363.3926  0.036485564  0.036094404           10 
 3115000    0.7629016   -5.5031168    1360.8896   0.03640689  0.036085466            6 
 3116000   0.74700697   -5.4858236    1365.9482  0.036530492  0.036076512           14 
 3117000   0.76259001   -5.5063862    1363.9607  0.036465638  0.036067608            9 
 3118000   0.75337819   -5.5195964     1364.021  0.036455554  0.036058715            7 
 3119000   0.73894608   -5.4970587    1368.6187  0.036566707  0.036049739            6 
 3120000   0.76442743   -5.4730328    1366.1951  0.036490253  0.036040882            5 
 3121000   0.74182994   -5.5007368    1365.3212  0.036455229  0.036032019            8 
 3122000   0.75579808   -5.5119353    1365.2963  0.036442887   0.03602318            8 
 3123000   0.76508701   -5.5373679    1362.6574  0.036360802  0.036014194            5 
 3124000   0.73967122   -5.5108896    1366.9947   0.03646486  0.036005228            6 
 3125000   0.75883763   -5.5055347    1360.5044  0.036280117  0.035996211            5 
 3126000   0.75519396   -5.5109233    1361.9337  0.036306615  0.035987194            8 
 3127000   0.75368621   -5.5232193    1361.7562  0.036290273  0.035978232            5 
 3128000   0.75462442    -5.533198    1358.6401  0.036195655  0.035969223            6 
 3129000   0.77027529   -5.5518981    1360.4671  0.036232745  0.035960195            4 
 3130000   0.74607282   -5.5335643     1362.976  0.036287966  0.035951134            4 
 3131000   0.74639631   -5.5191275    1362.6648  0.036268093  0.035942148            5 
 3132000   0.75300398   -5.5338479    1360.1383   0.03618929  0.035933039            8 
 3133000   0.75300744   -5.5177197    1365.7527  0.036327074  0.035923968            9 
 3134000   0.73226574    -5.521767    1360.3683  0.036172313  0.035914955           21 
 3135000   0.75561014   -5.5322385    1361.6286  0.036194274  0.035905953            5 
 3136000   0.73085996   -5.4973112    1361.7665  0.036186398  0.035896968            4 
 3137000   0.75962396   -5.5142436    1360.0906  0.036130343   0.03588797            4 
 3138000   0.76286415   -5.5036751    1360.7351  0.036135944  0.035878892            5 
 3139000   0.75643623   -5.5163685    1365.7058  0.036256393  0.035869885            8 
 3140000   0.73787412   -5.5214206     1360.855   0.03611611  0.035860806            7 
 3141000   0.75287552   -5.5203357    1361.3426  0.036117548  0.035851748           14 
 3142000   0.76957285   -5.5147359    1363.9322  0.036174734  0.035842675            5 
 3143000   0.74214109   -5.5109523    1364.8095  0.036186486  0.035833605            8 
 3144000   0.75353925   -5.5126193    1364.5456  0.036167981   0.03582467            8 
 3145000   0.75285193   -5.5087739    1367.3636   0.03623115  0.035815709            4 
 3146000   0.74583423   -5.5154019    1366.5432  0.036197902   0.03580675            5 
 3147000    0.7574024   -5.4901654    1364.7244  0.036138237  0.035797772            4 
 3148000   0.74881384   -5.5135019    1363.5852  0.036096602  0.035788757            8 
 3149000   0.75694629   -5.5098955    1364.4195  0.036107216  0.035779702           15 
 3150000   0.75285988   -5.5186303    1364.7213  0.036103739  0.035770696           13 
 3151000   0.75162614   -5.5024524    1367.3568  0.036161979  0.035761768           10 
 3152000   0.74719969   -5.5066794    1366.7125  0.036133473  0.035752841           18 
 3153000   0.72430663     -5.51998    1367.0475  0.036130867  0.035743929            9 
 3154000   0.72426795    -5.526183      1362.73  0.036005336  0.035735004           12 
 3155000   0.75247091   -5.5143535    1365.1389   0.03605755  0.035726067            5 
 3156000   0.73076297   -5.5358264    1363.9031  0.036013497  0.035717035           15 
 3157000   0.75187166   -5.5436397    1364.2965  0.036012473   0.03570802            8 
 3158000   0.74674819   -5.5304587    1365.4464  0.036031412  0.035699003            6 
 3159000    0.7495591   -5.5183032    1365.2143  0.036013885  0.035690039            8 
 3160000   0.74613527   -5.5516348    1364.6021  0.035986341  0.035681069            4 
 3161000   0.74519294   -5.5312829    1364.6961  0.035977436  0.035672103            7 
 3162000   0.77953011   -5.5190678    1364.5326   0.03596175  0.035663051            5 
 3163000   0.76100454   -5.5055812    1369.3608  0.036077585  0.035654109            6 
 3164000   0.74178778   -5.5376352       1368.4  0.036040877  0.035645109           11 
 3165000    0.7539942   -5.5293532    1365.1436   0.03594375  0.035636121            4 
 3166000   0.73460053   -5.5339618    1367.4012   0.03599182  0.035627146           11 
 3167000   0.73438976   -5.5258342    1364.1971  0.035896145   0.03561817            4 
 3168000   0.73420746   -5.5278845    1367.3713  0.035968311  0.035609237            9 
 3169000   0.73661096   -5.5332914     1365.838  0.035916641  0.035600307            6 
 3170000   0.74462043   -5.5171606    1367.9372  0.035960495  0.035591388            5 
 3171000   0.74792079   -5.4935355    1369.0943  0.035979563  0.035582445            6 
 3172000   0.73644314   -5.5114155    1370.9786  0.036017724  0.035573567            6 
 3173000   0.72891099   -5.5353696     1368.733  0.035947395  0.035564719           14 
 3174000   0.74450285   -5.5518806    1364.7517   0.03583154  0.035555791            9 
 3175000    0.7209089   -5.5514319    1366.4869  0.035865797  0.035546785            3 
 3176000   0.74449011    -5.530522    1369.0211  0.035920999  0.035537783            9 
 3177000   0.75452511   -5.5631717    1366.8517  0.035852789  0.035528793            8 
 3178000   0.74724364   -5.5519663    1365.1598  0.035797141  0.035519834            9 
 3179000   0.74616584   -5.5335499    1369.1322  0.035890013  0.035510878            5 
 3180000    0.7638076   -5.5131653    1370.0453  0.035902656   0.03550197            3 
 3181000   0.73700229   -5.5254666    1366.2538  0.035792042  0.035493136            6 
 3182000   0.76367642   -5.5014322    1374.7039  0.036002093  0.035484189           11 
 3183000   0.75262617   -5.5433328    1366.0212  0.035763462  0.035475207            6 
 3184000   0.74944136   -5.5474961    1365.0777  0.035727535  0.035466196            6 
 3185000   0.72744257   -5.5409582    1367.7043  0.035785042  0.035457222            8 
 3186000    0.7499507   -5.4881477    1371.2635  0.035866904  0.035448296           12 
 3187000   0.74710202   -5.5392794    1367.8557  0.035766543  0.035439317            8 
 3188000   0.74816875   -5.5432407    1365.8534  0.035702986  0.035430339            6 
 3189000   0.75751307   -5.5365121     1369.782  0.035794451  0.035421366           12 
 3190000   0.74927641   -5.5409125    1370.6428  0.035805715  0.035412331            7 
 3191000   0.74247806   -5.5353814    1366.9798  0.035698835  0.035403364           10 
 3192000   0.74915734   -5.5478309    1366.7528  0.035681726  0.035394359            9 
 3193000   0.74604568   -5.5164261    1371.8371  0.035803245  0.035385435            5 
 3194000   0.74038982   -5.5296847    1368.5889  0.035707287  0.035376446            4 
 3195000   0.74671031    -5.547932    1371.4567   0.03577091  0.035367527           19 
 3196000   0.74623152    -5.505439    1370.8875  0.035744876  0.035358589            5 
 3197000   0.74127258   -5.5114796    1370.4339  0.035721873  0.035349639            5 
 3198000   0.73744998   -5.5301272    1371.1415  0.035729141  0.035340619           13 
 3199000    0.7332996   -5.5429675    1366.2538  0.035590648  0.035331619            7 
 3200000   0.73852302   -5.5394843    1372.6239  0.035745415  0.035322611            5 
 3201000   0.74226507   -5.5340665    1373.5083  0.035757272  0.035313588           13 
 3202000   0.74818603   -5.5307019    1371.4649  0.035692925  0.035304595            9 
 3203000   0.73235105   -5.5398184    1368.2134  0.035597185  0.035295584           10 
 3204000   0.74867453   -5.5052879    1369.2635  0.035613386  0.035286634            4 
 3205000   0.74211271   -5.5088539    1371.0813  0.035649539   0.03527775           10 
 3206000   0.74370192   -5.5661468    1365.9599  0.035505301  0.035268792           11 
 3207000   0.74418667   -5.5259885    1370.3653  0.035608702  0.035259814            9 
 3208000   0.72677472   -5.5721131    1367.8422  0.035532061  0.035250766           11 
 3209000   0.74469682    -5.564431     1366.801  0.035493949  0.035241764            3 
 3210000   0.73567299   -5.5380533    1370.5212  0.035579469  0.035232695            7 
 3211000   0.73724972   -5.5382874     1371.318   0.03558907  0.035223676            7 
 3212000   0.73450401    -5.546374    1372.4554  0.035607498  0.035214611           11 
 3213000   0.73280325   -5.5388353    1370.1085  0.035535546  0.035205617            6 
 3214000     0.738067   -5.5268678    1370.9312  0.035545819  0.035196602            7 
 3215000    0.7308397   -5.5496157    1371.1111  0.035539428  0.035187573            4 
 3216000    0.7408066   -5.5211905    1372.4809  0.035563872  0.035178569           13 
 3217000    0.7433143   -5.5612829    1366.8078   0.03540586   0.03516955            8 
 3218000   0.74816782   -5.5665537    1371.8976  0.035526662  0.035160562           11 
 3219000   0.72746567   -5.5788556    1368.1402  0.035418354  0.035151465            9 
 3220000   0.72878281   -5.5773264    1368.3993   0.03541406  0.035142423           16 
 3221000   0.74113827   -5.5367699    1373.3499  0.035531147  0.035133409           13 
 3222000   0.73731714   -5.5043256    1374.7676  0.035556786  0.035124446            8 
 3223000   0.73837882   -5.5776502    1372.0641  0.035475853  0.035115525            8 
 3224000   0.71590036   -5.5533735    1369.3463    0.0353946  0.035106515            9 
 3225000    0.7292901   -5.5406931    1373.0179    0.0354785  0.035097517            6 
 3226000   0.71994743   -5.5349739    1369.8967  0.035386874  0.035088579            9 
 3227000    0.7309584   -5.5627505    1370.1902  0.035383489  0.035079585            5 
 3228000   0.72094654   -5.5537595     1367.596  0.035305555  0.035070553            6 
 3229000    0.7473562   -5.5330739    1374.9736  0.035485021  0.035061485            8 
 3230000   0.72280851   -5.5321965    1369.2153  0.035325473  0.035052467            7 
 3231000   0.73358318   -5.5243638    1370.8594  0.035356943  0.035043503           25 
 3232000   0.73264166   -5.5376888    1371.3645  0.035359028   0.03503456            8 
 3233000   0.73720451   -5.5404431    1370.1407  0.035316547  0.035025619            7 
 3234000   0.72697318    -5.541483    1370.7612  0.035321613  0.035016646            5 
 3235000   0.74294673   -5.5531002    1371.7149  0.035335264  0.035007598            7 
 3236000   0.73863029   -5.5414027    1370.0042   0.03528029   0.03499854            9 
 3237000   0.74069793    -5.548753    1372.5504  0.035334939  0.034989581            7 
 3238000   0.71505832   -5.5554861     1370.532  0.035272081  0.034980525            4 
 3239000   0.72164734   -5.5409084    1369.8479   0.03524359  0.034971436            5 
 3240000   0.71962815   -5.5389871     1370.416  0.035247325  0.034962368            5 
 3241000   0.73280979   -5.5439434    1368.6851  0.035191945   0.03495327            8 
 3242000   0.73722739   -5.5491666    1373.4678  0.035304024  0.034944136            6 
 3243000   0.73340097   -5.5534681    1367.3326  0.035135487  0.034934913            5 
 3244000   0.73494324   -5.5585599     1369.652  0.035184238  0.034925798            8 
 3245000   0.71322937   -5.5345776     1369.956  0.035181201  0.034916615            7 
 3246000    0.7413891   -5.5251264     1375.493  0.035312512  0.034907525           11 
 3247000   0.73819502   -5.5511911     1370.687  0.035178294  0.034898461            7 
 3248000    0.7370134   -5.5364292    1372.3099  0.035209101  0.034889393            8 
 3249000   0.74364141   -5.5739576    1371.9296   0.03518851  0.034880299            5 
 3250000   0.74018759   -5.5607004     1367.398  0.035061487  0.034871179            5 
 3251000   0.72631605   -5.5555188     1373.448  0.035205784  0.034862084           11 
 3252000   0.72267232   -5.5549614    1370.1771  0.035111138  0.034852966            4 
 3253000   0.72383822   -5.5303948    1371.1934   0.03512638  0.034843831            4 
 3254000   0.74234708   -5.5477955    1370.3144  0.035093075  0.034834716            8 
 3255000   0.71947252   -5.5517224    1369.7061  0.035066722  0.034825555            4 
 3256000   0.74624026   -5.5701917    1372.1685  0.035118972  0.034816427           13 
 3257000   0.73427229   -5.5341207    1372.5929  0.035119048  0.034807338            8 
 3258000   0.74308931   -5.5402089    1371.7399  0.035086452  0.034798273            6 
 3259000   0.73642098   -5.5548082    1369.8202  0.035026597  0.034789123            7 
 3260000   0.72855239     -5.53901    1370.3783   0.03503012  0.034779995            6 
 3261000   0.73511908   -5.5390363    1372.1214  0.035063921  0.034770865           11 
 3262000   0.71996383   -5.5671253    1367.6914  0.034940002  0.034761701           16 
 3263000   0.71587125   -5.5701507    1371.4971  0.035026485  0.034752513           12 
 3264000   0.72475336   -5.5818791     1368.772   0.03494618  0.034743312            9 
 3265000   0.73835767   -5.5709278    1366.3444  0.034873517  0.034734086           14 
 3266000   0.71504815   -5.5652062     1369.333  0.034939096  0.034724912            6 
 3267000   0.73083935   -5.5710164    1370.3048  0.034953188  0.034715698           11 
 3268000   0.73785201   -5.5787907    1367.8111  0.034878904   0.03470652            6 
 3269000   0.73344859   -5.5648967    1372.3987  0.034985182  0.034697279           10 
 3270000   0.72050264   -5.5676287    1368.9666  0.034887018  0.034688033            9 
 3271000   0.72668811   -5.5552046    1370.3685  0.034912068  0.034678882           10 
 3272000   0.73319379   -5.5546397    1370.9864  0.034917135  0.034669767            7 
 3273000   0.71665391   -5.5588532    1372.6932  0.034949923  0.034660575            8 
 3274000   0.72035292    -5.569316    1370.7121  0.034888823  0.034651327            7 
 3275000    0.7202219   -5.5755247    1369.1746  0.034839049   0.03464208           13 
 3276000   0.71951103   -5.5883067    1368.6217  0.034814348   0.03463279            9 
 3277000   0.73180522   -5.5681742    1369.5047  0.034826181  0.034623574           13 
 3278000   0.72110055     -5.55345    1369.4089  0.034813122  0.034614324            7 
 3279000   0.73203641   -5.5477547    1374.9443  0.034943181  0.034605138            8 
 3280000   0.70914805   -5.5545555    1370.1131  0.034809784  0.034595927            6 
 3281000    0.7311853    -5.592668    1369.7668  0.034790378  0.034586706           18 
 3282000    0.7300862   -5.5811143    1370.2115   0.03479107  0.034577554            5 
 3283000   0.72793086   -5.5730908    1367.6228  0.034714763  0.034568406            8 
 3284000   0.71624782   -5.5852215    1368.2879  0.034721069  0.034559178           16 
 3285000   0.71858394   -5.5825336    1370.2002   0.03475901  0.034549908            7 
 3286000   0.73545757   -5.5844376    1370.9971  0.034768643  0.034540672           12 
 3287000   0.71642913   -5.5746877    1368.4069  0.034692397    0.0345315            8 
 3288000   0.72302466   -5.5928443    1370.6059  0.034737578   0.03452226            7 
 3289000   0.71842947   -5.5831221    1370.5254  0.034724977  0.034513107           20 
 3290000   0.72781761   -5.5868739    1368.9497  0.034674512  0.034503896           16 
 3291000     0.720344   -5.5498633     1370.025  0.034691203  0.034494767            7 
 3292000   0.71289818   -5.5853867    1372.6373  0.034746793  0.034485617           12 
 3293000   0.71139741   -5.5599627    1371.3272  0.034703088  0.034476456           11 
 3294000    0.7288701   -5.5497733    1374.7986  0.034780374  0.034467346           12 
 3295000   0.71879682   -5.5915163    1375.0164  0.034775325  0.034458205            4 
 3296000   0.72322326   -5.5641712    1373.6936   0.03473133  0.034449117            6 
 3297000   0.73110814   -5.5746064    1375.0849  0.034755962  0.034439998           10 
 3298000   0.71212222   -5.5750355    1375.4612  0.034754933  0.034430857            9 
 3299000   0.71089827   -5.5892976    1371.1833  0.034636337  0.034421698            6 
 3300000   0.71126491   -5.5729978     1377.089  0.034774974  0.034412593            6 
 3301000   0.72280849   -5.5477586    1372.9242  0.034659301  0.034403517            8 
 3302000   0.72237439   -5.5939425    1374.7616  0.034695174  0.034394449           10 
 3303000   0.70896904   -5.5826822     1376.196  0.034720861  0.034385301            6 
 3304000    0.7353422   -5.5763035    1371.4117  0.034589681  0.034376202            7 
 3305000   0.72141878   -5.5729982    1373.2565  0.034625731  0.034367084            4 
 3306000   0.70073498   -5.6102334    1372.2316  0.034589423  0.034357917           14 
 3307000   0.72301024   -5.5936806    1372.4775   0.03458516    0.0343488            9 
 3308000   0.71552667   -5.5815852    1375.1299  0.034641522  0.034339697            3 
 3309000   0.71649747   -5.5406374    1372.7845  0.034571989  0.034330663           13 
 3310000    0.7284959   -5.5873417    1373.6974  0.034584528  0.034321518           11 
 3311000    0.7354388   -5.5698453    1375.8048   0.03462712  0.034312454            5 
 3312000   0.72863629   -5.5678453    1373.6472  0.034562378  0.034303379            5 
 3313000   0.72513579   -5.5804672    1377.1516  0.034640093  0.034294365           15 
 3314000   0.70749428   -5.6037428    1372.7701  0.034519465  0.034285275           11 
 3315000   0.71797061   -5.5682537    1374.2592  0.034546485  0.034276227            8 
 3316000   0.72701423   -5.5994612    1372.9459  0.034503062  0.034267226            6 
 3317000   0.71016131   -5.5720578    1378.5552  0.034633584  0.034258202            6 
 3318000   0.72670256   -5.5899832    1375.6466  0.034550095  0.034249117            4 
 3319000   0.72374579   -5.5470483    1377.7904  0.034593511  0.034240077           14 
 3320000   0.72572091   -5.5903297    1376.1763  0.034542577  0.034231063           11 
 3321000   0.70193695    -5.581882    1377.6604  0.034569417   0.03422205           10 
 3322000   0.73700656   -5.5639104    1378.6184  0.034583041  0.034213032            7 
 3323000   0.70246249   -5.5710845    1375.3729  0.034491245   0.03420407           14 
 3324000   0.73812373   -5.5763191     1379.142  0.034575361  0.034195089            7 
 3325000   0.72717064   -5.5687307    1376.5067  0.034498915  0.034186096            4 
 3326000   0.71343664   -5.5860829    1379.6865  0.034568212  0.034177081            8 
 3327000   0.72956807   -5.5720236    1375.5864  0.034455124  0.034168049            8 
 3328000   0.72341578   -5.5871973    1376.6284  0.034470863  0.034159068           10 
 3329000   0.71031954   -5.5809704    1380.7759  0.034564332  0.034150008           16 
 3330000   0.72999432   -5.5702877     1378.819  0.034504981  0.034141006           15 
 3331000   0.71415171   -5.5770305    1374.1716  0.034378354  0.034132003            8 
 3332000   0.70731616   -5.5696549    1380.4453  0.034524944  0.034123051           12 
 3333000   0.72778091   -5.5754062    1379.0981    0.0344809  0.034114019            7 
 3334000   0.71485014   -5.6012049    1378.4567  0.034454526  0.034104979            6 
 3335000   0.73508903   -5.6044747    1377.4825  0.034419854  0.034095945            7 
 3336000   0.71234035    -5.561356    1379.1503  0.034451196     0.034087            7 
 3337000   0.70749248   -5.5778359    1376.7537  0.034381025  0.034077981           11 
 3338000   0.72912414   -5.5861947    1379.3635  0.034435878  0.034068992            5 
 3339000   0.71729201   -5.5950297    1377.0477  0.034367768  0.034060029            4 
 3340000   0.71436737   -5.5881689    1379.1628   0.03441025  0.034051057           12 
 3341000   0.70741348    -5.577147    1378.7679  0.034390099  0.034042129            8 
 3342000   0.71557148   -5.5845985    1379.6466   0.03440172  0.034033185            5 
 3343000   0.70724212   -5.5946592    1379.5001  0.034387778  0.034024253            8 
 3344000   0.72627919   -5.6060434    1378.6212  0.034355592   0.03401526           10 
 3345000   0.71102295    -5.616908    1377.7596  0.034323855  0.034006232            6 
 3346000   0.69843883   -5.6140387    1376.1933   0.03427459  0.033997197           16 
 3347000   0.73103886   -5.5984298    1379.9174  0.034357072  0.033988195            7 
 3348000   0.72310707   -5.5825891     1380.729  0.034367009  0.033979197            3 
 3349000    0.7263179   -5.5769486    1381.2289  0.034369186  0.033970246            7 
 3350000    0.7103771   -5.5822064    1374.1708  0.034183354  0.033961286            6 
 3351000   0.70650511    -5.616757    1376.2531  0.034224936  0.033952266            8 
 3352000   0.71143231   -5.5936325       1377.1  0.034235779  0.033943239            8 
 3353000   0.72588199   -5.5940918    1378.8595  0.034269299  0.033934292            7 
 3354000   0.73718653   -5.6064423    1375.6092  0.034178324  0.033925327            6 
 3355000   0.72123687   -5.6451072    1376.4045  0.034187892  0.033916282           13 
 3356000   0.70993301   -5.6379266    1378.4546   0.03422861  0.033907216           13 
 3357000   0.72033025   -5.5735283    1382.8412  0.034327306  0.033898248           11 
 3358000   0.72417272   -5.6050292     1379.495  0.034234043  0.033889273            9 
 3359000   0.71556482   -5.5746344    1381.9543  0.034284865  0.033880365            9 
 3360000    0.7103731    -5.586722    1379.0758  0.034203269  0.033871469           11 
 3361000   0.71664266   -5.5829778    1381.5275   0.03425388  0.033862539            6 
 3362000   0.71128966   -5.5984373    1381.3019    0.0342381  0.033853614            6 
 3363000   0.72129045    -5.626166    1375.0664  0.034073407  0.033844646           10 
 3364000   0.70528798   -5.5831196    1383.9001  0.034282107  0.033835699           17 
 3365000   0.71076154    -5.577424    1377.1448  0.034104626  0.033826752           10 
 3366000    0.7138926   -5.6144886    1380.4451    0.0341762   0.03381782           12 
 3367000   0.71054833   -5.5796293    1384.7443  0.034272456  0.033808923           10 
 3368000   0.72066265   -5.5906339    1379.4985  0.034132486   0.03380003            5 
 3369000   0.72703432    -5.583156    1381.3437  0.034167994  0.033791139            7 
 3370000   0.71170373   -5.6084525    1378.6834  0.034092071  0.033782205           31 
 3371000   0.71158569   -5.6000523    1379.1379  0.034093195  0.033773256           17 
 3372000   0.70904485   -5.5932942    1378.9817  0.034079225  0.033764363           17 
 3373000   0.69486205   -5.6068928    1382.3717  0.034152874  0.033755459            8 
 3374000   0.72274217   -5.6259236    1380.1169   0.03408706  0.033746528            6 
 3375000   0.71968184   -5.5960611    1380.1595  0.034078012  0.033737582           12 
 3376000   0.72102559   -5.5856809    1383.8113  0.034158059  0.033728691           13 
 3377000   0.70026409   -5.6158627    1381.7613  0.034097358  0.033719751            6 
 3378000   0.72734943   -5.6000552    1379.6595  0.034035412  0.033710784           11 
 3379000   0.72816069   -5.5982687    1380.9144  0.034056289  0.033701847            6 
 3380000   0.71723518   -5.6244282    1378.1501   0.03397806  0.033692879           18 
 3381000   0.71983548   -5.5836681     1380.862  0.034034851    0.0336839            8 
 3382000   0.71240113   -5.6078697    1379.4939  0.033991077  0.033674907            6 
 3383000   0.72925553   -5.5849239    1384.6818  0.034108823  0.033665948           15 
 3384000   0.72343991   -5.5951248    1375.8221  0.033880567  0.033656962           10 
 3385000   0.70409513   -5.5968375    1381.1007   0.03400051  0.033648007           13 
 3386000    0.7075984   -5.5860561    1379.5627  0.033952617  0.033639083            5 
 3387000   0.72090193   -5.6057131    1379.8371  0.033949342  0.033630154           14 
 3388000    0.6979386   -5.6195572    1381.9719  0.033991832  0.033621197            9 
 3389000   0.72149013   -5.5812317    1382.8089  0.034002384  0.033612319            9 
 3390000    0.7075202   -5.5979373     1382.403  0.033982375  0.033603412            6 
 3391000   0.71077896   -5.6012795    1383.9007  0.034009158  0.033594448           14 
 3392000   0.70082121   -5.5852257    1380.6599  0.033919514  0.033585531            9 
 3393000   0.69379084   -5.5848412    1382.4626  0.033953791  0.033576643            6 
 3394000   0.72340669   -5.6058246    1379.9113  0.033881145  0.033567675           10 
 3395000    0.6952357   -5.6215875    1379.8732  0.033870231  0.033558691            5 
 3396000   0.70548467   -5.6303348    1385.2217  0.033991503  0.033549758           15 
 3397000   0.71563764   -5.6216472    1381.0119  0.033878223  0.033540816           12 
 3398000   0.71500082   -5.6305545    1382.2514  0.033898652   0.03353195            9 
 3399000   0.70743008   -5.6171605    1377.9739  0.033783806  0.033523043           12 
 3400000    0.7087621   -5.6152966    1384.5372  0.033934734  0.033514092           14 
 3401000   0.71475382   -5.5946939    1380.0131  0.033813905  0.033505185            6 
 3402000   0.70616909   -5.5890803    1384.3639  0.033910541    0.0334963            8 
 3403000   0.69164877   -5.6131001    1379.5427  0.033782512  0.033487412            6 
 3404000   0.70801198   -5.6193165    1382.6556  0.033848797  0.033478448           10 
 3405000   0.70487903   -5.6306647    1380.5331   0.03378691  0.033469518            6 
 3406000   0.69067469     -5.61138      1381.64  0.033804071  0.033460571           17 
 3407000   0.70567857    -5.595476    1386.2522  0.033906962  0.033451659            9 
 3408000   0.69172746   -5.6103831    1382.7917  0.033812395   0.03344272            9 
 3409000   0.70878509   -5.6039571    1383.0102  0.033807818   0.03343384            7 
 3410000   0.70526688   -5.6011156     1383.862  0.033818719  0.033424884            7 
 3411000   0.72399827   -5.6042434    1381.8151  0.033758798  0.033415995           12 
 3412000   0.70912507   -5.5787699    1381.8312  0.033749295  0.033407099            6 
 3413000   0.71125913   -5.6016085    1383.5163  0.033780552  0.033398218            7 
 3414000    0.6890961   -5.6072121    1380.7811  0.033703894  0.033389307            8 
 3415000   0.70698427   -5.6211591    1383.7183  0.033765698  0.033380328           13 
 3416000   0.71372671   -5.6387627    1380.4007   0.03367488  0.033371286            9 
 3417000    0.7144214   -5.6141815    1380.9508  0.033678441  0.033362263            8 
 3418000   0.69800013    -5.590983    1382.6171  0.033709214  0.033353328            7 
 3419000   0.70685781   -5.6395284    1380.4725  0.033647083  0.033344347           10 
 3420000   0.71442891   -5.6082072    1381.5679  0.033663936  0.033335325            9 
 3421000    0.7008361   -5.6174581    1379.7578  0.033610002  0.033326353            8 
 3422000   0.70958854   -5.6124845    1382.1549  0.033658555  0.033317375            9 
 3423000   0.70357711   -5.6183095    1383.8944   0.03369107  0.033308455            9 
 3424000   0.71508817   -5.6017318    1384.4776  0.033695425  0.033299592            5 
 3425000   0.70200898   -5.6101173    1385.1263  0.033701369  0.033290742            6 
 3426000   0.71677631   -5.6452743    1380.6036  0.033581523  0.033281873           10 
 3427000   0.71182193   -5.6024647    1384.1337  0.033657565  0.033272916           10 
 3428000   0.71025713   -5.6202861    1384.9215  0.033666898   0.03326404            8 
 3429000   0.70897256   -5.5972988      1383.79  0.033629581  0.033255187            5 
 3430000   0.71434001   -5.6112115    1383.6512  0.033616403  0.033246272            7 
 3431000   0.69625431   -5.6232656    1384.8477  0.033635667  0.033237335           18 
 3432000   0.69865841   -5.6412338    1382.5412  0.033569862  0.033228376            5 
 3433000   0.70485425   -5.6363063    1380.7382  0.033516317   0.03321942           14 
 3434000    0.7012467   -5.6075098    1383.5846  0.033575631  0.033210482           13 
 3435000   0.69946304   -5.6043744     1383.836  0.033571956   0.03320159            7 
 3436000   0.71032986   -5.6198425    1383.7619  0.033560386  0.033192656            7 
 3437000   0.71916778   -5.6273157    1380.7215  0.033476905  0.033183692           10 
 3438000   0.71127383   -5.6216536    1384.8235  0.033566596  0.033174731           10 
 3439000   0.70361501   -5.6481914    1381.6527  0.033480003  0.033165728            8 
 3440000   0.71533309    -5.620988     1383.918  0.033525145  0.033156754           10 
 3441000   0.69080566    -5.632868    1381.0499  0.033445943  0.033147757           11 
 3442000   0.71312366   -5.6183587    1382.4505  0.033470135  0.033138782            7 
 3443000   0.70218919   -5.6212042    1384.6671  0.033514066  0.033129815            8 
 3444000   0.70885044   -5.6477232    1381.4798  0.033427211  0.033120827            7 
 3445000   0.69487458   -5.6395608    1380.4195  0.033391859  0.033111839            6 
 3446000   0.72451694   -5.6168184     1381.555  0.033409631  0.033102856            4 
 3447000   0.71182008   -5.6267406    1387.4572  0.033542626  0.033093929            8 
 3448000   0.69889028   -5.6439851    1386.2348  0.033503354  0.033085002            7 
 3449000   0.69917759   -5.6619387    1381.2562   0.03337335  0.033076083           12 
 3450000   0.70150253   -5.6522005    1383.0781  0.033407684  0.033067118           23 
 3451000   0.68222306   -5.6408849    1381.4624  0.033358987  0.033058091            7 
 3452000   0.69834245   -5.6081631    1384.0275  0.033411246  0.033049132           11 
 3453000   0.69572595   -5.6066361    1385.2667  0.033431478  0.033040211           10 
 3454000    0.6727412   -5.6106378    1384.6386  0.033406644  0.033031296            6 
 3455000   0.70951771   -5.6114281    1381.2617  0.033315525  0.033022348            7 
 3456000   0.70304901   -5.6106437    1387.2053  0.033449202  0.033013398           10 
 3457000   0.68858816   -5.6262361    1386.6456  0.033426035   0.03300443           10 
 3458000   0.71739671   -5.6395788    1384.9123  0.033374598  0.032995499            8 
 3459000   0.70728288   -5.6233289    1383.0296  0.033319591  0.032986541            3 
 3460000   0.69765073   -5.6237207    1384.2557  0.033339491  0.032977587           10 
 3461000   0.69384647   -5.6121559    1383.2725  0.033306186  0.032968644           40 
 3462000   0.70169767   -5.6619125     1382.103  0.033268415  0.032959651            9 
 3463000   0.70965792   -5.6453909    1384.5587  0.033317901  0.032950694           10 
 3464000   0.68096785   -5.6533276    1380.3479  0.033206984  0.032941758            9 
 3465000   0.70401658   -5.6312591    1384.2054  0.033290173  0.032932844            5 
 3466000   0.70567007   -5.6012647    1383.5517  0.033264852  0.032923975           16 
 3467000   0.69885324   -5.6338017    1383.7484  0.033259986  0.032915089           14 
 3468000   0.69068324   -5.6191672    1386.0448  0.033305574  0.032906174            9 
 3469000   0.68625092   -5.6484279    1384.5187  0.033259314  0.032897233            7 
 3470000   0.70250278   -5.6443522    1379.8819  0.033138375  0.032888227           10 
 3471000   0.69495544   -5.6566283    1382.3386  0.033187808  0.032879237            8 
 3472000   0.71326782   -5.6400801    1382.3057   0.03317746  0.032870204           20 
 3473000   0.69281469   -5.6392381    1382.5589  0.033173983  0.032861186           11 
 3474000   0.70810078   -5.6449113    1385.7514  0.033241013  0.032852204           16 
 3475000   0.69816737   -5.6195525     1386.224  0.033242783  0.032843278           22 
 3476000   0.68212313   -5.6172378    1384.7305  0.033197413  0.032834405            6 
 3477000   0.68919396   -5.6244323    1385.2219  0.033199644  0.032825523           18 
 3478000   0.71450297   -5.6312049     1382.481  0.033124426  0.032816633            7 
 3479000   0.71144586   -5.6601074    1381.7582   0.03309759  0.032807742           12 
 3480000   0.69009609    -5.637204    1384.1468  0.033145278  0.032798805           11 
 3481000   0.69357266   -5.6503505    1383.2735   0.03311485  0.032789966           17 
 3482000   0.68484302   -5.6629623    1383.4288  0.033109055  0.032781095           22 
 3483000   0.70208704   -5.6478321    1384.1499  0.033116804  0.032772234           11 
 3484000   0.68370993   -5.6316416     1386.227  0.033156979   0.03276332           15 
 3485000    0.6944391   -5.6538888    1384.1601  0.033098041   0.03275443           24 
 3486000   0.70860969   -5.6319393    1385.5852  0.033122615  0.032745547            7 
 3487000   0.67934304   -5.6361114    1385.3828  0.033108277  0.032736678           11 
 3488000   0.69542408   -5.6446232     1383.212  0.033046923  0.032727765           16 
 3489000   0.68664722   -5.6325854    1385.1125  0.033082843  0.032718914            7 
 3490000   0.68507175   -5.6444454    1387.2603  0.033124649  0.032710035           14 
 3491000   0.70553199   -5.6711469    1387.7503  0.033126858  0.032701152           10 
 3492000   0.68468374   -5.6303324    1388.1098   0.03312595   0.03269227           15 
 3493000    0.7253386   -5.6783622    1386.1956  0.033070798  0.032683383            7 
 3494000   0.70032105   -5.6652861    1385.5553  0.033046063  0.032674535           16 
 3495000   0.69017186     -5.63386    1387.6315  0.033086112  0.032665681           19 
 3496000   0.69565088   -5.6536735    1389.7851  0.033127982  0.032656845            8 
 3497000   0.68758494   -5.6584539    1389.8398  0.033119812  0.032648046           23 
 3498000   0.71221681   -5.6516048     1389.961  0.033113231  0.032639227            8 
 3499000   0.69869246   -5.6451563    1389.9788  0.033104191  0.032630365           10 
 3500000   0.68855419   -5.6570847    1383.7423  0.032946245  0.032621509            7 
 3501000   0.71216654   -5.6369896    1385.7634  0.032984943  0.032612712            9 
 3502000   0.66531905   -5.6633305    1387.4546  0.033015768  0.032603867           12 
 3503000   0.69790026   -5.6832116    1388.1801  0.033023601  0.032595032           19 
 3504000   0.69469741    -5.644442    1388.8297  0.033029625  0.032586187            7 
 3505000   0.69630876   -5.6701364     1387.172  0.032980789  0.032577307            8 
 3506000   0.68837374   -5.6581793    1388.5058  0.033003085  0.032568491           12 
 3507000   0.67896927   -5.6442358    1385.9763  0.032933569  0.032559653            9 
 3508000   0.68314834   -5.6773568    1384.2805  0.032883896  0.032550779           10 
 3509000   0.69454298   -5.6757246    1384.5339  0.032880543  0.032541865           12 
 3510000   0.69255255   -5.6523915    1386.2617  0.032912195  0.032533035            7 
 3511000   0.68741774   -5.6579414    1387.0414  0.032921327  0.032524195            9 
 3512000   0.70028761   -5.6660318    1387.5766  0.032924653  0.032515384           13 
 3513000   0.68495602   -5.6410316    1389.9589  0.032971793  0.032506576           10 
 3514000   0.67053844   -5.6548254    1387.5506  0.032905299  0.032497779            9 
 3515000   0.69182686   -5.6537488    1390.1438  0.032957415  0.032489014            4 
 3516000   0.69755897   -5.6547891    1393.8272  0.033035344  0.032480277            9 
 3517000   0.70097475   -5.6575501    1389.5119  0.032923703  0.032471544            8 
 3518000   0.70010058   -5.6392392    1393.6315  0.033011926  0.032462774           15 
 3519000   0.70064794    -5.668816    1390.0463  0.032917644  0.032454011           15 
 3520000   0.70025937   -5.6515519    1386.9105  0.032834056  0.032445233           13 
 3521000   0.70275145   -5.6495226    1388.6471  0.032865831  0.032436458            4 
 3522000   0.70388532     -5.67001    1386.1485   0.03279738  0.032427622           11 
 3523000   0.70387541   -5.6692686    1389.2848  0.032862258  0.032418775           17 
 3524000   0.68126552   -5.6580726    1384.7136  0.032744836  0.032409952            7 
 3525000   0.70214785   -5.6671726    1389.9897  0.032860277  0.032401165            9 
 3526000   0.68272819   -5.6876459    1386.9723  0.032779645  0.032392347            8 
 3527000    0.6887699   -5.6680023    1388.4636  0.032805585  0.032383558           27 
 3528000    0.6864948   -5.6566524    1389.7007  0.032825509    0.0323748            8 
 3529000   0.68792551   -5.6568747    1392.0831  0.032872464  0.032366036           14 
 3530000   0.68245608   -5.6610232    1386.7833  0.032738038  0.032357285            6 
 3531000   0.68573038   -5.6313961    1393.2905   0.03288234  0.032348561            8 
 3532000   0.67977761   -5.6427259    1387.0937  0.032726824  0.032339779            5 
 3533000     0.698555   -5.6724199     1389.972  0.032785452  0.032330994            4 
 3534000   0.68323446   -5.6627443    1389.0294  0.032753948  0.032322194            6 
 3535000   0.68768788   -5.6630639    1390.1846  0.032771915  0.032313388           28 
 3536000   0.68969925   -5.6565679    1388.3823  0.032720171  0.032304632            9 
 3537000   0.69829321   -5.6556921    1388.2777  0.032708457  0.032295866            4 
 3538000   0.69432319   -5.6665006    1391.7975  0.032782116  0.032287114           13 
 3539000   0.70001843   -5.6750174    1387.7438    0.0326774  0.032278372           14 
 3540000   0.69611889   -5.6628688    1387.1777  0.032654842  0.032269538           22 
 3541000   0.69915473   -5.6964962    1388.6609  0.032680527  0.032260712            9 
 3542000   0.67346518   -5.6477451     1388.425   0.03266575  0.032251939            5 
 3543000   0.68658464   -5.6747105    1388.6963   0.03266291  0.032243176           18 
 3544000   0.67737308   -5.6590841    1390.1834  0.032688662  0.032234368            7 
 3545000   0.67780117   -5.6461696    1387.3645  0.032613176  0.032225568            6 
 3546000   0.68845411   -5.6700593    1388.3508  0.032627158  0.032216705           10 
 3547000   0.67891434   -5.6770597    1389.2558  0.032639221  0.032207849            5 
 3548000   0.68245032   -5.6825116     1387.757  0.032594819  0.032199005            8 
 3549000   0.68777653   -5.6753265    1388.2755  0.032597808  0.032190115            7 
 3550000   0.68993295   -5.6635797    1389.8584  0.032625785   0.03218126            9 
 3551000   0.68180031   -5.6737234    1387.0828   0.03255146  0.032172422            9 
 3552000   0.69687598   -5.6663259    1388.1404  0.032567109  0.032163609            5 
 3553000   0.67428404   -5.6765555    1387.0228  0.032531729  0.032154766           12 
 3554000   0.67487097   -5.6667801     1386.888  0.032519414  0.032145862            9 
 3555000   0.69164809   -5.6645813     1388.001  0.032536356  0.032137069           12 
 3556000   0.67833354   -5.6629358    1390.1401  0.032577337  0.032128265           11 
 3557000   0.68442018   -5.6652805     1385.554  0.032460734  0.032119413           11 
 3558000    0.6850336   -5.6700904    1388.4287   0.03251894  0.032110523           10 
 3559000   0.68011874   -5.6880481    1384.6435  0.032421174  0.032101638           12 
 3560000   0.69051951   -5.6860416    1385.0237  0.032420967  0.032092752           11 
 3561000   0.67978812   -5.6650588    1388.0305  0.032482225  0.032083884            6 
 3562000   0.67959024   -5.6873362    1390.0772   0.03252099  0.032075094            7 
 3563000   0.68279042   -5.6611421    1392.2741  0.032563244  0.032066273            5 
 3564000    0.6804817   -5.6525955    1390.0881  0.032502994  0.032057482            9 
 3565000   0.66897108   -5.6614961     1390.851  0.032511711  0.032048699           13 
 3566000   0.69272738   -5.6963024    1387.1288  0.032415611  0.032039835           12 
 3567000   0.67515171   -5.6765288    1386.6468  0.032395262  0.032030946           10 
 3568000   0.68437344   -5.6631513    1387.2243  0.032399671  0.032022116           15 
 3569000   0.67978085    -5.664361    1388.9273  0.032430357  0.032013285            9 
 3570000   0.67635452   -5.6680841    1391.1784  0.032473818  0.032004451           20 
 3571000   0.69742912   -5.6654052    1388.8719  0.032410901  0.031995573            4 
 3572000   0.68180597   -5.6715931    1386.5929  0.032348659  0.031986693           10 
 3573000   0.67787515   -5.6655083    1385.6889   0.03231852  0.031977864           10 
 3574000   0.68529289   -5.6865918    1388.8142   0.03238235  0.031969063            7 
 3575000   0.67798487    -5.663386    1392.5224  0.032459729  0.031960253            7 
 3576000    0.6793556   -5.6646224     1389.858  0.032388562  0.031951439           17 
 3577000   0.68500106   -5.6868076    1389.8659  0.032379693   0.03194261           18 
 3578000   0.67333473   -5.7091181     1385.208  0.032262158   0.03193376           14 
 3579000   0.68547863   -5.6762863     1384.213  0.032229976  0.031924907            9 
 3580000   0.67166141   -5.7024668    1387.9126  0.032307091  0.031916057            7 
 3581000   0.68901664    -5.695204    1388.3088  0.032307289  0.031907219           11 
 3582000   0.67568374   -5.6449669    1390.4653   0.03234844  0.031898411           22 
 3583000   0.68030947   -5.6879978    1389.4256  0.032315229  0.031889634           10 
 3584000   0.69157436   -5.6600278    1390.8361   0.03233901  0.031880845            7 
 3585000   0.67519324   -5.6726902    1385.3496  0.032202454  0.031872115           10 
 3586000   0.67535036   -5.6777649    1393.5446  0.032383914  0.031863385            4 
 3587000   0.67756972   -5.6740063    1393.6643  0.032377668  0.031854603            9 
 3588000   0.68003507   -5.6636563    1391.5033  0.032318452  0.031845805            8 
 3589000   0.66813514   -5.6523433    1389.5337  0.032263716  0.031836986           12 
 3590000   0.68812562   -5.6841861    1389.8388  0.032261811  0.031828171           20 
 3591000    0.6655415   -5.6749741    1386.0826  0.032165659  0.031819327           12 
 3592000   0.67200133   -5.7007637       1388.5  0.032212789  0.031810498           13 
 3593000   0.68076553   -5.7008257    1385.9649  0.032145025  0.031801658           13 
 3594000   0.67597754   -5.6755799    1389.2777  0.032212894  0.031792808           11 
 3595000   0.69141087   -5.6899024     1386.894  0.032148679  0.031783965            6 
 3596000    0.6600477   -5.6867773    1390.5705  0.032224938   0.03177518           10 
 3597000    0.6727176   -5.6921114    1389.3099  0.032186774  0.031766408           27 
 3598000   0.68546252   -5.6804977    1389.7674  0.032188424  0.031757603            8 
 3599000   0.66192343   -5.6953429    1388.0929  0.032140709  0.031748816            5 
 3600000   0.68589879    -5.685093    1388.0045  0.032129735  0.031740006           10 
 3601000   0.67276046   -5.6887352    1390.4611  0.032177662  0.031731209           10 
 3602000   0.67223826     -5.70416    1387.6604  0.032103934  0.031722426            7 
 3603000   0.67011626   -5.6907588    1386.7481  0.032073922  0.031713615           16 
 3604000   0.68190776   -5.6764901    1390.6544  0.032155347  0.031704863            7 
 3605000   0.69410921   -5.7057656    1388.1452  0.032088423  0.031696082           19 
 3606000   0.66127466   -5.6855252    1392.9358  0.032190235  0.031687337            8 
 3607000   0.67049602   -5.6835684    1387.7053  0.032060468  0.031678599           15 
 3608000   0.66732155   -5.6967538    1387.5155  0.032047198  0.031669843           10 
 3609000   0.65767568   -5.7023987    1388.7572   0.03206699  0.031661037            8 
 3610000   0.65945889   -5.6889835    1391.3515  0.032117995  0.031652246            6 
 3611000   0.68642741   -5.6740794    1395.1416  0.032196566  0.031643494           11 
 3612000   0.66760128   -5.6907085    1389.1772  0.032050046   0.03163476            5 
 3613000   0.66720409   -5.7225444    1390.2213  0.032065258  0.031625945            9 
 3614000   0.68053935    -5.713558    1385.9844  0.031958688  0.031617113           11 
 3615000   0.67017927   -5.6925919    1390.7487  0.032059676  0.031608304           15 
 3616000   0.68003035   -5.7131988    1389.5523  0.032023238  0.031599527           15 
 3617000   0.67030543   -5.6866196    1391.1431  0.032051034  0.031590779            9 
 3618000     0.656065   -5.6785601    1390.3658  0.032024271  0.031582053            8 
 3619000   0.66854596    -5.716485    1388.1696  0.031964853  0.031573272           22 
 3620000   0.68901212   -5.6837365    1389.9212  0.031996344  0.031564451            9 
 3621000   0.67475109   -5.6736922    1390.6427  0.032004113  0.031555676           14 
 3622000   0.68187783   -5.6928809    1392.2706  0.032032731  0.031546891            6 
 3623000   0.68052273   -5.6873887    1391.1512  0.031998142  0.031538132           11 
 3624000   0.67892225   -5.6857582    1393.7284  0.032048574  0.031529385           17 
 3625000   0.67735577   -5.7024618    1390.1343  0.031957111   0.03152058           19 
 3626000   0.66270065   -5.7281108    1390.3009  0.031952127  0.031511779           31 
 3627000   0.66177341   -5.7193191    1389.0272  0.031914051  0.031502967           16 
 3628000   0.67165984   -5.6940297    1387.3636  0.031867044  0.031494183           14 
 3629000   0.67846128   -5.7170498    1391.0979  0.031944014  0.031485419           10 
 3630000   0.66700298   -5.6999177    1390.5876  0.031923499  0.031476664           12 
 3631000   0.67939269   -5.6801911    1392.4337  0.031957075  0.031467907            7 
 3632000   0.66217798   -5.6960864    1388.4407   0.03185666  0.031459164           12 
 3633000   0.67257136   -5.6632088    1394.6195   0.03198962  0.031450461           10 
 3634000   0.66156555   -5.6997081    1393.8988  0.031964291  0.031441775           17 
 3635000   0.65576687     -5.71969    1391.1529  0.031892548  0.031433049            8 
 3636000   0.67337036   -5.7108736    1388.0841  0.031813443  0.031424367           30 
 3637000   0.67229166   -5.7154792    1388.7617   0.03182022  0.031415612           24 
 3638000   0.65800506   -5.7182174    1387.8147  0.031789782  0.031406852           15 
 3639000   0.66732614   -5.6995215    1386.4323  0.031749389  0.031398093           12 
 3640000   0.65158998   -5.7122184     1391.017  0.031845628  0.031389359            6 
 3641000   0.67312028   -5.6981286    1390.6857  0.031829299  0.031380645           10 
 3642000   0.67872421   -5.6937371    1392.9091  0.031871433  0.031371962           12 
 3643000   0.66773406   -5.6841994    1389.9758  0.031795585   0.03136328            6 
 3644000   0.66737497   -5.7012988    1392.1888  0.031837468  0.031354582            8 
 3645000   0.65546794   -5.6900343    1392.3148  0.031831614  0.031345886           15 
 3646000   0.66520987   -5.7017545    1391.5225  0.031804774  0.031337236            5 
 3647000   0.68355686    -5.710423     1393.748  0.031846907   0.03132857           10 
 3648000   0.66246469   -5.7036793    1392.3186  0.031805524  0.031319868           12 
 3649000    0.6801005   -5.7244131    1389.6083  0.031734911  0.031311159           29 
 3650000   0.66652709   -5.7013824    1393.0918  0.031805748  0.031302448            9 
 3651000   0.68873043    -5.711138    1392.7377  0.031788956  0.031293796           19 
 3652000    0.6648345   -5.6840903    1393.9888  0.031808798  0.031285124           13 
 3653000    0.6839008   -5.6734087    1393.8081   0.03179597  0.031276486            9 
 3654000   0.67177028   -5.6904083    1394.5323  0.031803784  0.031267874            8 
 3655000   0.65688326   -5.6986149    1392.5902  0.031750804  0.031259265            5 
 3656000   0.67669708   -5.6917874    1391.8072   0.03172427  0.031250621           11 
 3657000   0.67225581   -5.7093213    1392.5262  0.031731981  0.031241965            5 
 3658000    0.6680565   -5.7183586    1391.5223  0.031700436  0.031233342            7 
 3659000   0.66254736   -5.7085488    1395.5582  0.031783689  0.031224688           14 
 3660000   0.66853629   -5.7008747    1393.1679  0.031720582   0.03121605           10 
 3661000   0.67446626   -5.7104161    1393.7883  0.031726037   0.03120741           12 
 3662000   0.64413534   -5.7120718    1393.2371  0.031704832  0.031198732           10 
 3663000   0.66766221   -5.6879884    1392.6807  0.031683518  0.031190096           15 
 3664000   0.66210415   -5.7013889    1394.3513  0.031712867  0.031181504            7 
 3665000   0.66957333   -5.7013922    1391.9481   0.03164957  0.031172869           15 
 3666000   0.66545434   -5.7172961     1394.338  0.031695263  0.031164227           10 
 3667000   0.66613334   -5.7003622     1396.169  0.031728228  0.031155606           10 
 3668000   0.66196933   -5.7099006    1390.2823  0.031585839  0.031146985            8 
 3669000   0.66995944   -5.6957876    1392.8719  0.031636048  0.031138329           16 
 3670000   0.67124914   -5.7088335     1397.712  0.031737329  0.031129653           13 
 3671000   0.66225642   -5.7117906    1395.8915  0.031687359  0.031121059            7 
 3672000   0.66076488   -5.7137658    1395.4864  0.031669536  0.031112469           11 
 3673000    0.6656494   -5.7492736    1391.7343  0.031575785  0.031103872            8 
 3674000   0.66108547   -5.6988323    1393.0577  0.031597209  0.031095252           13 
 3675000   0.67141829   -5.7142893    1394.4463  0.031620098  0.031086655            6 
 3676000   0.65806086   -5.7285018    1394.2506   0.03160706  0.031078036           16 
 3677000   0.67344772   -5.7120815    1395.4405  0.031625432  0.031069466           13 
 3678000   0.67589024   -5.7202927    1393.1157  0.031564158  0.031060868           14 
 3679000   0.67212245   -5.7138063    1392.9304  0.031551381  0.031052279           16 
 3680000   0.67014696   -5.7202079    1393.8075   0.03156267  0.031043644           15 
 3681000   0.67009468   -5.6960814     1392.088  0.031515169  0.031035002            8 
 3682000   0.67213845   -5.7057921    1394.4362  0.031559755  0.031026376           10 
 3683000   0.66391114   -5.7087425    1391.2401   0.03147887  0.031017763           11 
 3684000   0.67613088    -5.732661    1392.1198  0.031490222  0.031009141           13 
 3685000   0.66093868   -5.7195127     1393.441  0.031511555  0.031000518            6 
 3686000   0.66596798   -5.7355552     1394.428  0.031525322  0.030991904           11 
 3687000   0.65745443   -5.7341136    1394.0763  0.031508821  0.030983269            6 
 3688000   0.65178753   -5.7359142    1394.0274  0.031499174  0.030974655            9 
 3689000   0.67106763   -5.7086753     1394.393  0.031498893  0.030966089           14 
 3690000   0.68013332   -5.7294071    1392.4837  0.031447239  0.030957557            9 
 3691000   0.66208109    -5.688459    1397.3917  0.031549528  0.030949035            6 
 3692000   0.64582999   -5.7019968    1396.6674  0.031524634  0.030940535            8 
 3693000   0.65631099   -5.7097063    1397.1658  0.031527344  0.030932036            8 
 3694000   0.66464259   -5.7187487    1393.3419  0.031432546  0.030923539           17 
 3695000   0.64424935   -5.7067406    1395.4557  0.031471712  0.030915006            9 
 3696000   0.66776854   -5.7103599    1394.9678  0.031452195  0.030906449            6 
 3697000   0.64427044   -5.7110506    1396.1136  0.031469516  0.030897909           14 
 3698000   0.66006206   -5.7242591    1394.7846  0.031431057  0.030889411           11 
 3699000   0.65345442   -5.7218953    1395.0323   0.03142814  0.030880868            6 
 3700000   0.65091166   -5.7254665    1394.9717  0.031418282  0.030872323           11 
 3701000   0.66800002   -5.7156983    1397.3324  0.031462947  0.030863804            8 
 3702000    0.6682466   -5.7294217    1396.5957  0.031437865   0.03085529            9 
 3703000    0.6693638   -5.7551049    1395.5802  0.031406522  0.030846753           11 
 3704000   0.66133173   -5.7370521    1395.0798  0.031386784  0.030838233           20 
 3705000   0.66487839    -5.727941    1399.0607  0.031467853  0.030829714           16 
 3706000   0.65972415   -5.7468662    1393.7799  0.031340616   0.03082117           23 
 3707000   0.66236288   -5.7381567    1392.2223  0.031297147   0.03081263            4 
 3708000   0.64946984   -5.7492086    1397.3575  0.031404116  0.030804083            6 
 3709000   0.65574186   -5.7265603    1394.8779  0.031339937  0.030795565           10 
 3710000   0.64663089   -5.7098912    1399.7678  0.031441324  0.030787073           11 
 3711000   0.64601214   -5.7224054     1396.397   0.03135716  0.030778623           10 
 3712000    0.6580573   -5.7518228    1396.7096   0.03135573  0.030770116           20 
 3713000   0.66196763   -5.7181392    1397.2912  0.031360337  0.030761659           11 
 3714000   0.65903769   -5.7253586    1398.9926   0.03139007  0.030753179            9 
 3715000   0.66018341     -5.74803    1396.3832  0.031323087  0.030744681           14 
 3716000   0.65415413   -5.7183698    1396.9494  0.031327354  0.030736192           10 
 3717000   0.64564498    -5.735287     1400.872   0.03140687  0.030727663           16 
 3718000   0.66336784   -5.7270845    1399.5267  0.031368269  0.030719185            6 
 3719000   0.66383213   -5.7232689    1396.7654  0.031297962  0.030710696           15 
 3720000   0.65372445    -5.747311    1398.4248  0.031326721  0.030702195           10 
 3721000   0.66775322   -5.7308557     1399.793  0.031348944   0.03069369           28 
 3722000   0.64678692    -5.726587     1397.957  0.031299412  0.030685217           12 
 3723000   0.65210638   -5.7366124    1396.7273  0.031263482  0.030676737           14 
 3724000    0.6604237   -5.7388279    1396.2003  0.031243293  0.030668232            5 
 3725000   0.65602809   -5.7240801    1398.6524  0.031289762  0.030659728           11 
 3726000   0.65886229   -5.7372081    1400.1318  0.031314452  0.030651249            8 
 3727000   0.65276512   -5.7596954    1395.5544  0.031203703  0.030642768           12 
 3728000   0.66561077   -5.7501084    1399.8203   0.03129069  0.030634274            6 
 3729000   0.64464593   -5.7475317    1395.4325  0.031184243  0.030625764            6 
 3730000   0.63349238   -5.7422916    1400.6208  0.031291797  0.030617232           27 
 3731000   0.64801107   -5.7339563    1398.7935  0.031242596  0.030608802           39 
 3732000   0.66155966   -5.7144516    1404.1402  0.031353613   0.03060036           13 
 3733000   0.66313931    -5.724951    1399.1845  0.031234586  0.030591949           19 
 3734000    0.6390446   -5.7287574    1398.4959  0.031210853  0.030583485           18 
 3735000   0.66565121   -5.7117876     1400.709  0.031251873  0.030575097            9 
 3736000   0.64813923   -5.7413621    1399.1054  0.031207739   0.03056671            8 
 3737000   0.65613858   -5.7152014    1397.2572  0.031158175  0.030558323            8 
 3738000   0.64591977   -5.7360189    1405.0138  0.031322761  0.030549943            8 
 3739000   0.66073227   -5.7012767    1401.5535  0.031237263  0.030541612           24 
 3740000   0.65440184   -5.7543197    1398.3958  0.031158551  0.030533203           10 
 3741000   0.64924658   -5.7206259    1400.1038   0.03118827  0.030524798           14 
 3742000   0.66459198   -5.7424988     1401.422  0.031209292   0.03051643           22 
 3743000   0.64336869   -5.7456583    1399.3669    0.0311552  0.030507983           15 
 3744000   0.63984299   -5.7314705    1399.4385  0.031148471  0.030499601            9 
 3745000   0.64661398   -5.7598944    1400.3584  0.031160624  0.030491208           15 
 3746000   0.64452897   -5.7365524     1398.861  0.031118994  0.030482836           14 
 3747000   0.64920189    -5.745578    1403.8915  0.031222566  0.030474503           14 
 3748000   0.64581887   -5.7366447    1400.4372  0.031137434  0.030466192           12 
 3749000    0.6510082   -5.7461069    1401.3175  0.031148695  0.030457824           20 
 3750000   0.66193835   -5.7388332    1399.2035  0.031093412  0.030449473           13 
 3751000   0.66185876   -5.7313851     1399.112  0.031083089  0.030441128           10 
 3752000   0.64404286   -5.7521224     1401.144  0.031119937  0.030432771            8 
 3753000   0.65813258   -5.7372874    1400.1947  0.031090565  0.030424417           29 
 3754000   0.67013459   -5.7505629    1396.6462  0.031003511   0.03041606           15 
 3755000   0.64413371   -5.7455438    1398.7756  0.031042513  0.030407671           18 
 3756000   0.64622509   -5.7720506    1399.9861  0.031061104  0.030399227           20 
 3757000   0.66626749   -5.7628175    1396.4331  0.030974029  0.030390792            9 
 3758000   0.66094162    -5.777383    1394.5931  0.030924985  0.030382334           19 
 3759000   0.65278135   -5.7550528    1399.3707  0.031022672  0.030373904           22 
 3760000   0.64989404   -5.7545173    1398.6554  0.030998569  0.030365463           23 
 3761000   0.65978225   -5.7549785    1399.9008  0.031017921  0.030357044           12 
 3762000   0.64899072   -5.7463505    1398.9048  0.030987613  0.030348653           18 
 3763000   0.65548055   -5.7351432    1397.2209  0.030942087  0.030340229           14 
 3764000    0.6543198   -5.7752557    1397.1806  0.030932974  0.030331786           25 
 3765000   0.64564967   -5.7642584    1397.6467  0.030935076  0.030323391           14 
 3766000   0.65446577   -5.7476052    1400.0495   0.03098003  0.030314991            9 
 3767000   0.65780529   -5.7404533    1396.6349  0.030896269  0.030306576           14 
 3768000   0.64928517   -5.7670248    1402.2361  0.031011945  0.030298205           13 
 3769000   0.64737589   -5.7313824    1397.2907  0.030894373   0.03028984           13 
 3770000   0.66220015   -5.7509214    1399.5916  0.030937039  0.030281481           13 
 3771000   0.64967912    -5.708861    1403.9951  0.031026145  0.030273129           12 
 3772000   0.64068957   -5.7419007    1400.9999  0.030951748  0.030264792            4 
 3773000    0.6415515   -5.7459407    1400.6898  0.030936695  0.030256453           15 
 3774000   0.65274258   -5.7610463    1398.9644  0.030890398  0.030248075           12 
 3775000   0.64806203   -5.7450494    1400.8911  0.030924748  0.030239711           12 
 3776000   0.65981367   -5.7483681    1399.9395  0.030895557  0.030231391            5 
 3777000   0.64945703   -5.7342623    1402.9407  0.030953594  0.030223065           13 
 3778000   0.66075273   -5.7384776    1403.8862  0.030966256  0.030214748           11 
 3779000   0.63525488   -5.7422355     1400.001  0.030872386  0.030206395           21 
 3780000   0.65827933   -5.7555204    1396.6944  0.030791324   0.03019802           22 
 3781000   0.64860022   -5.7568241     1400.785  0.030873336  0.030189674           14 
 3782000   0.65134572     -5.75348    1397.5671  0.030794269  0.030181304           10 
 3783000   0.64840937    -5.737558    1401.6485  0.030876034  0.030172953           14 
 3784000   0.64147264   -5.7823121    1400.2077  0.030836145  0.030164589           17 
 3785000   0.64298796   -5.7721595    1402.0998  0.030869655  0.030156208           12 
 3786000   0.65555861   -5.7698111    1397.4098  0.030758271  0.030147811           19 
 3787000    0.6476035   -5.7626778    1399.7804  0.030802315  0.030139429           11 
 3788000   0.63252758   -5.7576766    1399.5602  0.030789338   0.03013105           20 
 3789000   0.64509009   -5.7511158    1397.7286  0.030740929  0.030122673           18 
 3790000   0.64253199   -5.7562351      1402.43  0.030836191  0.030114316           11 
 3791000   0.65531963   -5.7410428    1398.0651  0.030732108  0.030105949           14 
 3792000   0.63069081   -5.7476929    1401.5438  0.030800453  0.030097587           12 
 3793000   0.64530991   -5.7469442    1399.3959  0.030745142  0.030089263            6 
 3794000   0.64381587   -5.7385776    1402.8144  0.030812125  0.030080943           21 
 3795000   0.64239282   -5.7422981    1403.0814  0.030809868   0.03007263            8 
 3796000   0.64031389   -5.7519116    1397.8091   0.03068601  0.030064301           11 
 3797000   0.65394578   -5.7605717    1400.7693  0.030742895  0.030055961           10 
 3798000    0.6468407   -5.7537464    1402.3037  0.030768468   0.03004763           10 
 3799000   0.63274181   -5.7615529    1399.2233  0.030692799  0.030039275           17 
 3800000   0.65015172   -5.7612804    1398.1377  0.030660914  0.030030929           19 
 3801000   0.64036143   -5.7624461    1401.5186  0.030726972  0.030022623            9 
 3802000   0.64017528   -5.7307545    1403.3309  0.030758612  0.030014341           17 
 3803000   0.65019697   -5.7504409     1401.596  0.030712507  0.030006043           10 
 3804000    0.6500665   -5.7479206    1404.0357   0.03075788  0.029997793           10 
 3805000   0.64633028   -5.7547007    1399.2032  0.030643959  0.029989523            5 
 3806000    0.6459244   -5.7610154    1401.8564  0.030694001  0.029981248            9 
 3807000   0.62856687    -5.754564    1401.3955   0.03067585  0.029972958           11 
 3808000   0.63176771   -5.7669075    1403.1222   0.03070558  0.029964689           16 
 3809000   0.64185746   -5.7506955    1402.1947  0.030677227   0.02995643           17 
 3810000   0.63904661    -5.743042    1399.1028  0.030601549  0.029948198           11 
 3811000   0.64137306   -5.7479404    1402.0457   0.03065787  0.029939928            9 
 3812000    0.6264161   -5.7647209    1399.7177  0.030598935  0.029931632           28 
 3813000   0.64755276   -5.7703973     1402.037  0.030641599  0.029923353           10 
 3814000   0.64994162    -5.762064     1406.026  0.030720722  0.029915073           16 
 3815000   0.63280674   -5.7550472    1406.3244  0.030719186  0.029906816            9 
 3816000   0.63761328   -5.7556462    1404.5503  0.030672394   0.02989861            5 
 3817000   0.64635063   -5.7568856    1405.2998  0.030680723  0.029890397           12 
 3818000   0.64365199   -5.7719188    1400.8183  0.030574872  0.029882168            5 
 3819000   0.62528203   -5.7462347    1403.4429  0.030624136  0.029873958           14 
 3820000   0.63741616    -5.751156    1402.2874  0.030590913  0.029865744           16 
 3821000   0.65006431   -5.7624127     1405.302  0.030648652  0.029857496           26 
 3822000   0.63299933   -5.7585908     1400.583  0.030537742  0.029849228           11 
 3823000   0.64886036   -5.7526187    1403.5724  0.030594916  0.029840953           12 
 3824000   0.64586869   -5.7744216    1404.3013    0.0306028  0.029832713           25 
 3825000   0.65060871   -5.7518915    1406.0231  0.030632312  0.029824528           17 
 3826000   0.63442696   -5.7798954    1402.6666  0.030551197  0.029816292           12 
 3827000   0.63634007   -5.7919009    1398.9438  0.030462151  0.029808027            8 
 3828000   0.63466032   -5.7875017    1399.9053  0.030475124  0.029799794           24 
 3829000   0.63459299   -5.7722113    1403.4841  0.030545052   0.02979157           18 
 3830000   0.63818805   -5.7892065    1401.4457  0.030492727  0.029783314           11 
 3831000   0.65059643   -5.7595168    1404.8429  0.030558664  0.029775068           13 
 3832000   0.63937822   -5.7448828    1405.7663   0.03057077  0.029766866           17 
 3833000   0.65223537   -5.7731539    1400.9579  0.030458255  0.029758656            9 
 3834000   0.64057803   -5.7857073    1401.0721  0.030452793  0.029750405           25 
 3835000   0.62763921   -5.7984332    1404.8449  0.030526835  0.029742199           12 
 3836000   0.65506164   -5.7586673    1405.7977  0.030539576  0.029733994           10 
 3837000   0.62310246   -5.7496344    1403.6654  0.030485306  0.029725799            5 
 3838000    0.6663353   -5.7675666    1407.0824  0.030551554  0.029717605           13 
 3839000   0.63766474    -5.751728    1404.6345  0.030490459  0.029709469           22 
 3840000   0.62617842   -5.7810276    1404.4955  0.030479503  0.029701304            7 
 3841000   0.63871165   -5.7770272    1404.7643    0.0304774  0.029693121            7 
 3842000   0.63760424   -5.7647853    1401.4291  0.030397125  0.029684904           14 
 3843000   0.64952939   -5.7912185    1399.3689  0.030344543  0.029676691           14 
 3844000   0.62270518   -5.7775681    1402.6071  0.030406849  0.029668516           17 
 3845000   0.63128748   -5.8001504    1398.2354  0.030304191  0.029660315           14 
 3846000   0.62800848   -5.7715009     1402.388   0.03038629   0.02965211           11 
 3847000   0.63642256   -5.7852325    1403.1376  0.030394627  0.029643928           21 
 3848000   0.62774506   -5.7788792    1401.4281  0.030349709  0.029635739            6 
 3849000   0.64865858   -5.7842032    1404.0035  0.030397581  0.029627561           19 
 3850000   0.64502958   -5.7746808    1403.8073  0.030385438  0.029619384           18 
 3851000   0.63323029   -5.7955033    1403.8253  0.030377939  0.029611234           21 
 3852000   0.64076002   -5.7535565    1404.4631  0.030383849  0.029603108           15 
 3853000   0.63845772   -5.7578339    1405.2861  0.030393765  0.029595025           11 
 3854000   0.64467169   -5.7766625    1403.4886  0.030347011  0.029586926            9 
 3855000   0.63292213   -5.8071557    1403.4578  0.030338474   0.02957879            7 
 3856000   0.63329942   -5.7811286    1403.2498   0.03032611  0.029570605           23 
 3857000     0.633372   -5.7787022    1404.9583  0.030355163  0.029562395            8 
 3858000   0.64025084   -5.7488408    1408.4973  0.030423736  0.029554233            7 
 3859000   0.62769967   -5.7786829    1406.1516  0.030365198  0.029546073           10 
 3860000   0.62484561   -5.7700685    1405.3567  0.030340171  0.029537921            8 
 3861000   0.62961522   -5.7942691    1402.0516  0.030260977  0.029529748            8 
 3862000   0.63663732   -5.7576841    1406.0549  0.030339525  0.029521579           10 
 3863000   0.62639171   -5.7721687    1403.0258  0.030266325   0.02951343            9 
 3864000   0.62960766   -5.7904709    1406.3263  0.030329674  0.029505238            9 
 3865000   0.64847161   -5.7655781    1408.2628  0.030363579  0.029497115            7 
 3866000   0.62872868   -5.7947482    1400.7042  0.030192795  0.029488982           17 
 3867000   0.62827199   -5.7626591    1406.9433  0.030319439  0.029480865           11 
 3868000   0.62748536   -5.7868217     1403.285  0.030232787  0.029472731           10 
 3869000   0.62528683   -5.7652824     1405.307  0.030268524  0.029464561           12 
 3870000   0.63591771   -5.7867194    1406.1762  0.030279419  0.029456434           19 
 3871000   0.62877803   -5.7848159    1404.6475  0.030238687  0.029448289           15 
 3872000   0.64761112   -5.8057716    1404.2657  0.030222661  0.029440078           19 
 3873000   0.64476635   -5.7996092    1402.6194  0.030179435   0.02943189            9 
 3874000   0.62745534   -5.7854962    1403.5898  0.030192518   0.02942373           10 
 3875000    0.6403773   -5.7870716    1405.6899  0.030229889  0.029415565           19 
 3876000   0.64403216   -5.7604303    1405.2899   0.03021349  0.029407435           12 
 3877000   0.63656923   -5.7699591    1403.0175  0.030156854  0.029399292           15 
 3878000   0.61862871   -5.8160613    1400.8659  0.030102843  0.029391129           12 
 3879000   0.63666768   -5.7942371    1404.6455   0.03017628  0.029382951           11 
 3880000   0.63043823   -5.7966573    1405.6105  0.030189228  0.029374832           11 
 3881000   0.61976865   -5.8073346    1401.3118  0.030089149  0.029366675           11 
 3882000   0.63738951   -5.8196203    1403.2842  0.030123738  0.029358473           14 
 3883000   0.63004988   -5.7794247      1405.05  0.030153876   0.02935029           28 
 3884000    0.6382785    -5.801667      1404.38  0.030131738   0.02934213           24 
 3885000   0.62148635   -5.7927938    1403.1217  0.030096991  0.029333933           18 
 3886000   0.63536303   -5.7805935    1404.5018  0.030118842  0.029325743           12 
 3887000   0.61855677   -5.7821728    1401.8471  0.030054178  0.029317545           28 
 3888000   0.62550224   -5.7889152     1405.068  0.030115484   0.02930936           16 
 3889000    0.6269697   -5.8085526    1404.0967  0.030086927   0.02930117            8 
 3890000   0.62558623   -5.7938947     1404.128  0.030079864  0.029292991           15 
 3891000   0.63291244   -5.8059609    1403.2037  0.030052337  0.029284787           12 
 3892000   0.63403272   -5.8007587    1401.2537  0.030002863  0.029276584            8 
 3893000   0.62567184   -5.7912363    1403.2926    0.0300388  0.029268406           15 
 3894000   0.63038407   -5.7930575    1404.2568  0.030051721  0.029260226           11 
 3895000   0.62604241   -5.7981748    1398.6839  0.029924774   0.02925206           13 
 3896000   0.63245937   -5.8085459    1404.0222  0.030031275  0.029243867           22 
 3897000   0.64469399   -5.8068186    1403.4665  0.030011686  0.029235673           23 
 3898000   0.61487165   -5.7772093    1398.9102  0.029906581  0.029227511           14 
 3899000   0.62370397   -5.8114295     1403.781  0.030003014  0.029219358           19 
 3900000    0.6301676   -5.8155151    1401.6707  0.029950229  0.029211204           34 
 3901000   0.62147283   -5.7708251    1401.3219  0.029935099  0.029203028            7 
 3902000   0.62032876   -5.7669622    1405.2065   0.03001039  0.029194903           14 
 3903000   0.62060654   -5.7922812    1402.0781  0.029935907  0.029186778           10 
 3904000    0.6320886   -5.7988786     1402.141  0.029929581  0.029178645           23 
 3905000   0.62732537   -5.7959149    1403.5397  0.029951765  0.029170495           15 
 3906000   0.63119792   -5.8263113     1399.653  0.029861175  0.029162333           33 
 3907000   0.63192858   -5.8201767    1403.9572  0.029945337  0.029154157           38 
 3908000   0.63229072   -5.7849061    1402.0135  0.029896229   0.02914597           26 
 3909000   0.62074281   -5.7965819    1403.2946   0.02991589  0.029137792           34 
 3910000   0.62233764   -5.8124779    1402.5892  0.029893206  0.029129607           31 
 3911000   0.63431715   -5.8017704    1401.5397  0.029863201    0.0291214            8 
 3912000   0.63048381   -5.8161164    1404.8151   0.02992534  0.029113187           14 
 3913000   0.62430893   -5.7923873    1403.0203  0.029879469  0.029105031           10 
 3914000      0.61364   -5.8116541    1402.8675  0.029868582  0.029096861           26 
 3915000   0.62660742     -5.80985     1401.597  0.029833908  0.029088686           35 
 3916000   0.63449352   -5.8150395     1406.558  0.029931861  0.029080513           23 
 3917000   0.62931887   -5.8208058    1406.3846  0.029920531   0.02907234           11 
 3918000   0.64025618   -5.7990528    1404.6721  0.029876469  0.029064201           31 
 3919000   0.61500627   -5.8192625    1402.5074  0.029822817  0.029056066           19 
 3920000   0.63110587   -5.8032193     1401.281  0.029789137  0.029047911           10 
 3921000   0.63621056   -5.7917977    1399.0778  0.029734714  0.029039784            6 
 3922000   0.61606208    -5.788226    1401.9295  0.029787726  0.029031671            9 
 3923000   0.62835849   -5.8019711    1403.5815  0.029815225  0.029023548           16 
 3924000   0.64605963   -5.8189438    1400.9481  0.029751701  0.029015429            8 
 3925000   0.60778359   -5.8003869    1404.8247  0.029826427  0.029007309           10 
 3926000   0.62770422   -5.7940936    1404.6248  0.029814586  0.028999184           10 
 3927000    0.6213896   -5.7918192    1404.3069  0.029800249  0.028991071           28 
 3928000    0.6350435   -5.8179461    1403.1191  0.029767463  0.028982946           12 
 3929000   0.61759523   -5.7980372    1401.9433  0.029734948  0.028974766           15 
 3930000   0.62583527   -5.7948056    1402.3294  0.029735568  0.028966604           23 
 3931000   0.62231509    -5.810789    1401.1528  0.029703061  0.028958404           12 
 3932000   0.60533369   -5.8339695    1402.3363  0.029720591  0.028950216           20 
 3933000   0.63743181   -5.8179624    1402.1162  0.029708369  0.028942024           15 
 3934000   0.62334884   -5.8228561    1400.9295   0.02967568  0.028933824           16 
 3935000    0.6273124   -5.7879496    1402.9955   0.02971189  0.028925661           31 
 3936000   0.61770394   -5.8092566    1400.1376  0.029643836  0.028917447           10 
 3937000   0.62891895   -5.8314293      1402.09  0.029677631  0.028909247           13 
 3938000   0.62010498   -5.8116807     1400.014  0.029626164  0.028901032           17 
 3939000   0.62161336   -5.8093428    1401.1858  0.029643433  0.028892836            6 
 3940000   0.61473803   -5.7940249    1403.5478  0.029685867    0.0288847           21 
 3941000   0.61094861   -5.7981804    1404.0059  0.029688022  0.028876571           17 
 3942000   0.62560699    -5.815383    1403.1261  0.029661891  0.028868453           13 
 3943000   0.61716244   -5.8086065    1400.9151   0.02960764  0.028860316           20 
 3944000   0.61714632   -5.8131189    1406.2779  0.029713445  0.028852143           10 
 3945000   0.62039816   -5.7905263    1404.1957   0.02966193  0.028844001           12 
 3946000   0.61893483   -5.7946334    1405.8918  0.029690231  0.028835884           21 
 3947000   0.62000748   -5.7901733    1402.0676  0.029601969   0.02882777           22 
 3948000   0.59850758   -5.8193119    1396.0159  0.029466731  0.028819595           17 
 3949000   0.62614089   -5.8319764    1399.3895  0.029530461  0.028811381           14 
 3950000   0.61076245   -5.8217091    1400.5834  0.029548174  0.028803193            9 
 3951000   0.61935807   -5.8092785    1402.5788  0.029582781  0.028795029           19 
 3952000   0.62123823   -5.8096923    1401.3326  0.029549018  0.028786888           19 
 3953000   0.61465178    -5.812097    1400.5915   0.02952592  0.028778762           13 
 3954000   0.63190505   -5.7808408    1406.4099  0.029641078  0.028770661            7 
 3955000   0.62258179   -5.7795812    1401.3465  0.029526896  0.028762565            8 
 3956000   0.61789191   -5.7998799    1401.8525  0.029530091  0.028754459           17 
 3957000   0.61672538   -5.8228446    1398.5655  0.029453406  0.028746342           36 
 3958000   0.62394689   -5.7969835    1404.8515  0.029578311  0.028738216           28 
 3959000   0.61781097   -5.8224343    1401.3275  0.029496663  0.028730063           18 
 3960000   0.64239856   -5.8324034    1400.9053  0.029480331  0.028721889           13 
 3961000   0.59716973   -5.8165464    1400.6895  0.029468348   0.02871375           20 
 3962000   0.62472376    -5.821273    1403.2471  0.029514704  0.028705577           26 
 3963000   0.63587245   -5.8066798    1398.6566  0.029410728   0.02869743           32 
 3964000   0.61609603    -5.845199    1402.1258   0.02947624  0.028689287           20 
 3965000   0.62718541   -5.8173965    1403.6361  0.029500549  0.028681178           24 
 3966000   0.62886845   -5.8165379    1402.3487  0.029466059  0.028673088           20 
 3967000   0.61073615   -5.8114849    1402.1022  0.029453452  0.028664964           10 
 3968000   0.60828883   -5.8139168    1403.8463  0.029482659  0.028656879           20 
 3969000   0.60856608   -5.8162469     1406.283  0.029526392  0.028648804           10 
 3970000   0.60901617    -5.815838    1404.6424  0.029484516  0.028640739           15 
 3971000   0.63492354   -5.8129147    1404.9875  0.029484335  0.028632672           11 
 3972000   0.62604236   -5.8025764    1402.1777  0.029417962  0.028624604           11 
 3973000   0.60579709   -5.8012724    1404.8678  0.029466982  0.028616542            8 
 3974000   0.61711731   -5.7928027    1406.0822  0.029485032  0.028608497           26 
 3975000      0.61351   -5.8194369    1401.0118  0.029371316  0.028600431            9 
 3976000   0.62113427   -5.8064284    1404.2744   0.02943231  0.028592342           13 
 3977000   0.61662384   -5.8171259    1402.2511  0.029382514  0.028584219           12 
 3978000   0.62128256   -5.8399504    1400.9936  0.029348784  0.028576111           16 
 3979000   0.61578744   -5.8251072    1398.6605  0.029292546  0.028567987           14 
 3980000     0.620645   -5.8159468    1404.9672  0.029417236  0.028559881            9 
 3981000   0.62330377    -5.817264    1403.2651  0.029374218  0.028551812           17 
 3982000   0.61309144   -5.8127181    1402.3444  0.029347572  0.028543755           12 
 3983000   0.61468289    -5.833748    1405.6177  0.029408688  0.028535743           13 
 3984000   0.61661815   -5.8427407    1401.2716    0.0293104  0.028527731           16 
 3985000   0.62034244   -5.8507906    1401.8014  0.029314123  0.028519663           18 
 3986000   0.61353462   -5.8304724    1404.1669  0.029356224  0.028511619           20 
 3987000    0.6152768   -5.8150385     1403.627  0.029337576  0.028503585           12 
 3988000    0.6073927   -5.8219464     1406.531  0.029390902  0.028495549           15 
 3989000   0.61199738   -5.8348703    1403.3169  0.029316389  0.028487524           24 
 3990000   0.60486348   -5.8367747    1402.7135   0.02929644  0.028479496           12 
 3991000   0.61638838    -5.836078    1404.4387   0.02932512  0.028471477           12 
 3992000   0.60308451   -5.8270318    1405.2931   0.02933561  0.028463469           11 
 3993000   0.60805292   -5.8400396     1405.313  0.029328679  0.028455439           10 
 3994000   0.61553904   -5.8588768    1403.4837  0.029283169  0.028447385           21 
 3995000   0.62282799    -5.836803    1400.5665  0.029214987  0.028439279           22 
 3996000   0.61561918   -5.8472582    1406.3139  0.029327533  0.028431228           13 
 3997000   0.62189253   -5.8393404    1400.8786  0.029206876   0.02842317           10 
 3998000    0.6257078   -5.8455606    1402.5017  0.029233402  0.028415127           14 
 3999000   0.61037203   -5.8389019    1401.3361  0.029201802   0.02840709           19 
 4000000   0.60171775   -5.8386566    1402.7649  0.029224268  0.028399076           15 
 4001000   0.60318757   -5.8233596     1401.538   0.02919141  0.028391085            8 
 4002000   0.61444658   -5.8375166    1405.9396  0.029275771  0.028383087           19 
 4003000   0.61503868   -5.8463891     1404.452   0.02923749  0.028375061           19 
 4004000   0.61059928   -5.8513324    1403.9987  0.029220752  0.028367033           36 
 4005000   0.60353858   -5.8308259    1404.3352  0.029220458  0.028359011           16 
 4006000   0.60614111   -5.8500008    1403.6422  0.029198748   0.02835101           30 
 4007000   0.61341963   -5.8491322    1403.4272  0.029186989  0.028343008           11 
 4008000   0.61908896   -5.8147553    1403.2912   0.02917688  0.028334991           39 
 4009000   0.59834097   -5.8239364     1402.317  0.029149351  0.028326995           23 
 4010000   0.60923713   -5.8362911    1402.2165  0.029139993  0.028318981           27 
 4011000   0.59919112   -5.8439067    1402.9218  0.029147383  0.028310972           16 
 4012000   0.61216372   -5.8550285    1402.0662  0.029122345  0.028302958           46 
 4013000   0.59892234   -5.8426194    1405.6607  0.029189731  0.028294936           17 
 4014000   0.61121823    -5.845463    1404.7108   0.02916274  0.028286933           26 
 4015000   0.61558945   -5.8271058    1404.8503  0.029158371  0.028278927           21 
 4016000    0.5931494   -5.8384949    1404.4114  0.029142002  0.028270921           16 
 4017000   0.60884907   -5.8476676    1402.4041  0.029093106  0.028262931           20 
 4018000   0.61034705    -5.859775    1400.9964  0.029056669  0.028254937            8 
 4019000   0.59889415   -5.8669156    1401.5894  0.029061736   0.02824693           23 
 4020000    0.6154668   -5.8353507    1403.8448   0.02910126   0.02823895           28 
 4021000   0.61145504   -5.8333243    1402.9701  0.029075894  0.028230951           20 
 4022000   0.61233831   -5.8512385    1405.8772    0.0291289  0.028222957           32 
 4023000   0.60461979   -5.8822296    1403.6686  0.029075909  0.028214958           25 
 4024000    0.6049334   -5.8529484    1403.4142  0.029063416  0.028206946           19 
 4025000   0.59852007    -5.843767      1401.39  0.029014285   0.02819895           18 
 4026000   0.61598684   -5.8649499    1404.9987  0.029081775  0.028190983           27 
 4027000   0.60229108   -5.8620587     1403.003  0.029033255  0.028182986           20 
 4028000   0.61057388   -5.8635172    1400.9572  0.028983723  0.028174968           36 
 4029000   0.60536112   -5.8263761    1405.0793  0.029061788  0.028166986           36 
 4030000   0.60976173   -5.8534494    1402.2096  0.028995236  0.028159018           17 
 4031000   0.59905605   -5.8638174    1400.4703  0.028952086  0.028151016           27 
 4032000   0.61110213   -5.8414372    1402.7031  0.028991053  0.028143022           17 
 4033000   0.60821918    -5.864446    1403.8875  0.029008336   0.02813504           26 
 4034000   0.61151637   -5.8648567    1402.6176  0.028974912  0.028127064           36 
 4035000   0.61889246   -5.8534373    1403.5833  0.028987677  0.028119112           12 
 4036000   0.60946442   -5.8393841    1406.7881  0.029046666  0.028111173           27 
 4037000   0.59782817   -5.8532857    1401.9371  0.028939333  0.028103235           23 
 4038000   0.60906426   -5.8282862    1407.0095  0.029036848  0.028095286           10 
 4039000   0.60442369   -5.8249538    1407.0696  0.029030899  0.028087365            9 
 4040000   0.61447733   -5.8421029    1404.0794  0.028962033  0.028079463           18 
 4041000   0.60618978    -5.840178    1404.1307  0.028955925  0.028071552           14 
 4042000   0.59704106   -5.8383213    1401.1436  0.028887177  0.028063644           10 
 4043000   0.61013359   -5.8547034     1403.269  0.028923839  0.028055735           17 
 4044000    0.6012428   -5.8320714    1404.6632  0.028945417  0.028047808           13 
 4045000   0.59699321   -5.8134051     1405.703  0.028959683  0.028039921           29 
 4046000   0.59724504   -5.8441081    1404.5515  0.028928808  0.028032021           12 
 4047000   0.59932341   -5.8334126    1404.0694  0.028911733  0.028024092           11 
 4048000   0.59767258   -5.8540894    1405.0634  0.028925053  0.028016186           15 
 4049000   0.60885463   -5.8606512    1406.8774  0.028955245  0.028008252           10 
 4050000   0.60555092   -5.8563803    1404.5734  0.028900687  0.028000354           12 
 4051000   0.60304091   -5.8376715    1404.9311   0.02890091  0.027992432           18 
 4052000   0.61022874   -5.8389177    1405.7227  0.028910058  0.027984519           17 
 4053000   0.60814859   -5.8511777    1405.9876  0.028908371  0.027976604           37 
 4054000   0.59989517   -5.8700158     1403.479  0.028849676  0.027968671           23 
 4055000   0.59433141   -5.8527768    1401.9885  0.028811929  0.027960749           14 
 4056000   0.59257537   -5.8538554     1403.393  0.028833682   0.02795283           16 
 4057000   0.60004838   -5.8492086    1404.9367  0.028858284  0.027944904           15 
 4058000   0.58641856   -5.8505145    1406.5275  0.028883842  0.027937013           30 
 4059000   0.60592366   -5.8680139    1404.9953  0.028845267  0.027929111           17 
 4060000   0.60168688   -5.8719918    1405.9047  0.028856829  0.027921164            9 
 4061000   0.59522347   -5.8622849    1403.3465  0.028797227  0.027913257           10 
 4062000   0.59984313    -5.851409    1405.8286   0.02884106  0.027905341           14 
 4063000   0.60264741   -5.8681734    1406.1534  0.028840624  0.027897444           50 
 4064000   0.60693407   -5.8673308    1400.6134  0.028719928  0.027889524           32 
 4065000   0.59403896    -5.843826    1405.1424  0.028805706  0.027881614           46 
 4066000   0.60101192   -5.8667249     1402.675  0.028748053  0.027873731           67 
 4067000   0.59595681   -5.8525381    1407.2741  0.028835221  0.027865814           29 
 4068000   0.61474661   -5.8856909    1401.9441  0.028718947  0.027857918           36 
 4069000   0.60462665   -5.8766855     1400.359  0.028679425  0.027849986           22 
 4070000   0.59329642   -5.8619926    1405.9189  0.028786218  0.027842061           22 
 4071000   0.61586565   -5.8730388    1402.2609  0.028704268  0.027834113           17 
 4072000   0.58781182   -5.8763425    1402.9004  0.028710305  0.027826181           12 
 4073000   0.60389302   -5.8592934     1406.973  0.028786582   0.02781827           31 
 4074000   0.60219918   -5.8492426    1406.6428  0.028772762  0.027810373           29 
 4075000   0.59308461   -5.8671841    1405.7133  0.028746693  0.027802502           18 
 4076000   0.59704786   -5.8634914    1404.7773  0.028720504  0.027794615           13 
 4077000   0.59788163   -5.8409252    1404.8838  0.028715637  0.027786752           34 
 4078000   0.60183048   -5.8521967    1407.4018  0.028760049  0.027778919           12 
 4079000   0.60510614   -5.8668939    1406.3583   0.02873168  0.027771059           15 
 4080000   0.60695937   -5.8774605    1403.1633  0.028659382   0.02776322            9 
 4081000   0.60134446   -5.8612827    1403.9997  0.028669437  0.027755342            7 
 4082000   0.58955854   -5.8718043    1404.6036  0.028674742  0.027747502           19 
 4083000   0.59797209   -5.8438548    1407.2679  0.028722097  0.027739654           27 
 4084000   0.59534621   -5.8724358    1403.2112  0.028632289  0.027731815           35 
 4085000   0.59003313   -5.8712287    1407.4643  0.028712042  0.027723964           31 
 4086000   0.59521693   -5.8871146    1403.0285  0.028614548  0.027716112           31 
 4087000   0.61015031   -5.8537713    1405.0953  0.028649687  0.027708256           23 
 4088000   0.60354703   -5.8552699    1405.2759  0.028646362  0.027700405           22 
 4089000   0.59572132   -5.8885836     1402.465  0.028582069  0.027692522           26 
 4090000   0.58571554   -5.8909215    1401.2079  0.028549469  0.027684609           28 
 4091000   0.59401345   -5.8786443    1402.3021  0.028564779  0.027676665           16 
 4092000   0.61913892   -5.8787149    1403.3629  0.028579401  0.027668738           19 
 4093000   0.59067015   -5.8840204    1405.2994  0.028611846  0.027660831           12 
 4094000   0.59721015   -5.8968406    1405.4459  0.028607838  0.027652907           37 
 4095000    0.6103762    -5.892319    1400.0201  0.028490438  0.027644954           13 
 4096000   0.60259792   -5.8865968    1402.7922  0.028539881  0.027637032           20 
 4097000   0.59688257   -5.8901136    1403.7159  0.028551702  0.027629125           16 
 4098000   0.60197909   -5.9008136    1399.9156  0.028467455  0.027621212           23 
 4099000    0.5841359   -5.9020416    1406.1901  0.028588073  0.027613329           29 
 4100000   0.58280719   -5.8765093    1404.4328  0.028545382  0.027605439           16 
 4101000   0.60579584   -5.8658292    1406.1699  0.028573719  0.027597568           35 
 4102000   0.59161742   -5.8841144    1405.2374   0.02854781  0.027589705           42 
 4103000   0.60299365   -5.8623072    1406.1945  0.028560292  0.027581871           29 
 4104000   0.59531536   -5.8663853     1406.138  0.028552185  0.027574036           18 
 4105000     0.602197   -5.8843837    1407.3654  0.028570145  0.027566201           19 
 4106000   0.59747218   -5.9073848    1401.6853  0.028447908  0.027558363           28 
 4107000   0.59385031    -5.886884    1403.9002  0.028485922   0.02755051           29 
 4108000   0.59196605   -5.8942148    1403.9463  0.028479922  0.027542694           18 
 4109000   0.60722769   -5.8565518    1405.7036  0.028508632  0.027534841           13 
 4110000   0.58856647   -5.8481314    1403.5989  0.028459021  0.027527001           15 
 4111000   0.60098775   -5.8815252    1401.7179  0.028413968  0.027519179           34 
 4112000   0.58623252   -5.8892116    1403.5592  0.028444375   0.02751133           20 
 4113000   0.58023307   -5.8695106    1404.4748   0.02845601  0.027503491           22 
 4114000   0.58863417   -5.8919851    1405.3807  0.028467442  0.027495651           10 
 4115000   0.60073769   -5.8729896    1405.5926  0.028464815  0.027487826           17 
 4116000    0.5895857   -5.8954779    1403.5634  0.028416816  0.027480009           11 
 4117000   0.59362889   -5.8869315    1404.4404  0.028427666  0.027472175           16 
 4118000   0.59164751   -5.8869743    1403.2344  0.028396356  0.027464335           59 
 4119000   0.58406494   -5.8975592    1402.4994  0.028374594  0.027456479           46 
 4120000   0.59631338   -5.8903977    1405.5213  0.028428829  0.027448652           22 
 4121000   0.59954667   -5.8783656    1404.5993  0.028403286  0.027440831           19 
 4122000   0.58000044   -5.8735519    1405.3474  0.028411519  0.027433014           20 
 4123000   0.58425203   -5.8554098    1406.7636  0.028433253  0.027425224           23 
 4124000   0.59721981   -5.9074926    1404.0721  0.028371972  0.027417421           18 
 4125000   0.59837023    -5.875731    1405.8751  0.028401518  0.027409633           17 
 4126000   0.59584129   -5.8841112     1405.847  0.028394066   0.02740188           12 
 4127000   0.59256212    -5.881772    1402.4184  0.028317956  0.027394102           16 
 4128000   0.59063861   -5.8555977    1410.0919  0.028466002  0.027386334           13 
 4129000   0.59237643   -5.8843454    1407.8388  0.028413636  0.027378608           32 
 4130000   0.61208545   -5.8868772    1403.3016  0.028315207  0.027370857           28 
 4131000   0.58090271   -5.8868374    1404.9984   0.02834258  0.027363075           45 
 4132000    0.5953345   -5.8780553    1400.6259  0.028247537  0.027355284            9 
 4133000   0.59933112   -5.8968388    1404.4723  0.028318257  0.027347473           16 
 4134000   0.58652894   -5.9109862    1402.9419  0.028280558  0.027339674           50 
 4135000    0.5792039   -5.9129003    1402.9882  0.028274652  0.027331868           53 
 4136000    0.5781322   -5.8918469    1402.5628  0.028259245  0.027324044           20 
 4137000   0.59006472   -5.8869773     1405.543  0.028312445  0.027316229           26 
 4138000   0.59087824   -5.9035959    1401.4078  0.028222325  0.027308416           41 
 4139000   0.58430442   -5.9084023    1404.8356  0.028284522   0.02730062           27 
 4140000   0.59385011   -5.8945985    1402.8387  0.028237494  0.027292838           20 
 4141000   0.58449881   -5.8868007    1406.8428  0.028311253  0.027285065           12 
 4142000   0.59788151   -5.9045276    1406.6806  0.028301155  0.027277288           25 
 4143000   0.57635902   -5.9081924    1400.9051  0.028178155  0.027269523           24 
 4144000    0.5882064   -5.8830791    1407.7553  0.028309108  0.027261756           17 
 4145000    0.5898262   -5.9125995    1403.5897   0.02821853  0.027253996           26 
 4146000   0.59408387   -5.8872134    1406.8997  0.028278255  0.027246239           24 
 4147000   0.59288216    -5.909557    1406.8914  0.028271269  0.027238458           37 
 4148000   0.59406047   -5.9056706    1405.2129  0.028230732  0.027230664           19 
 4149000   0.58008111    -5.915413    1403.2503  0.028184509  0.027222885           26 
 4150000   0.59344672   -5.8949863     1405.761  0.028228133   0.02721512           15 
 4151000   0.59526274   -5.8867069      1406.13  0.028228741   0.02720735           11 
 4152000   0.58689452   -5.9001855    1403.8496  0.028176173  0.027199574           32 
 4153000   0.60148161   -5.8891736     1404.818   0.02818882  0.027191803           15 
 4154000   0.60475008   -5.8801998    1406.4814  0.028215402  0.027184067           26 
 4155000   0.59155005   -5.8825185    1406.9058  0.028217124  0.027176341           24 
 4156000   0.59406237   -5.9084533    1405.5261   0.02818267  0.027168628           27 
 4157000   0.58713513   -5.8991945    1405.7348  0.028180073  0.027160907           28 
 4158000   0.58615777   -5.8655749    1404.6164  0.028150882  0.027153193           17 
 4159000   0.59343325   -5.8807336    1406.8731  0.028189331  0.027145493           30 
 4160000   0.58583644   -5.8849669    1406.7558  0.028180204  0.027137789           17 
 4161000   0.58668158   -5.8866403    1403.0635  0.028099486  0.027130099           14 
 4162000   0.58548702   -5.8875144      1408.18  0.028195179  0.027122381           24 
 4163000   0.57762317   -5.9086625    1405.3521  0.028131799  0.027114662           26 
 4164000   0.58193925   -5.8928449    1404.6192  0.028110374   0.02710698           20 
 4165000   0.58249031   -5.8905575    1404.8057  0.028107356  0.027099291           27 
 4166000   0.59309806   -5.8927403    1409.9823  0.028204159  0.027091627           36 
 4167000   0.57729304   -5.8669336    1406.6109  0.028129968  0.027083956           29 
 4168000     0.576561   -5.9069788    1405.6685  0.028104377  0.027076286           10 
 4169000   0.58488655   -5.8819778     1407.377  0.028131787   0.02706862           37 
 4170000    0.5890698   -5.8989879    1406.2518  0.028102555  0.027060967           33 
 4171000   0.59011241   -5.9065128    1408.5691  0.028142114  0.027053307           23 
 4172000   0.57801473   -5.8955061     1408.378  0.028131551  0.027045636           16 
 4173000    0.5776821   -5.8985775     1404.194  0.028041257  0.027037964           16 
 4174000   0.58538674   -5.8920935    1408.3174  0.028116862  0.027030307           16 
 4175000   0.57381147    -5.898874    1408.2116  0.028108017   0.02702262           16 
 4176000      0.58845   -5.8907174    1407.0966  0.028079035  0.027014977           10 
 4177000   0.58287192   -5.8936592    1404.3865  0.028018245  0.027007319           28 
 4178000   0.58229287   -5.9200457    1405.1619  0.028027004  0.026999671           24 
 4179000   0.58755621   -5.9147378    1404.3608  0.028004324  0.026992014           30 
 4180000    0.5783844   -5.9075291    1405.7651  0.028025619  0.026984345           34 
 4181000   0.58428006   -5.9012646     1404.069  0.027985112  0.026976651           19 
 4182000   0.59653567   -5.9112545    1405.5837  0.028008602  0.026968967           39 
 4183000   0.58429619   -5.9307208    1404.2417  0.027975172  0.026961289           53 
 4184000   0.58593223   -5.9201177    1403.7887  0.027959463  0.026953604           29 
 4185000   0.58386474   -5.9198814    1404.5954  0.027968845   0.02694594           35 
 4186000   0.58985364    -5.932354    1402.1274  0.027913032   0.02693824           34 
 4187000   0.57860039   -5.9322567    1403.0701  0.027925127  0.026930548           29 
 4188000   0.57594213   -5.9068258    1400.9262  0.027875799  0.026922857           34 
 4189000   0.58418277   -5.9097771     1402.191  0.027894306  0.026915198           58 
 4190000   0.57788863   -5.9209893    1405.4475  0.027952417  0.026907535           15 
 4191000   0.57618922   -5.8917872    1405.9859  0.027956452  0.026899865           31 
 4192000   0.58158843   -5.9104384    1404.6476  0.027923179  0.026892189           37 
 4193000   0.58495673   -5.9009323    1409.3878  0.028010729  0.026884531           17 
 4194000   0.57290466   -5.9266249    1406.3537  0.027943763  0.026876867           30 
 4195000   0.58100523    -5.901649    1401.9896  0.027850408  0.026869171           27 
 4196000   0.57336507   -5.9134659    1404.4415  0.027892466  0.026861512           51 
 4197000   0.57959736   -5.9221571    1402.4715  0.027846705  0.026853852           34 
 4198000   0.59042717   -5.9243804    1401.9733  0.027830183  0.026846161           54 
 4199000   0.57522735   -5.9201512    1404.8366  0.027880381  0.026838471           30 
 4200000   0.58808509   -5.9046326    1406.6501  0.027909723  0.026830803          120 
 4201000   0.58871257   -5.9140738    1404.3823  0.027858096  0.026823134           22 
 4202000   0.58445178   -5.9071617    1405.3074  0.027869812  0.026815505           23 
 4203000   0.57308986   -5.8813348    1406.2649  0.027882166  0.026807894           20 
 4204000   0.56767225   -5.9158138    1407.1222  0.027892527  0.026800279           43 
 4205000   0.59051723    -5.908575    1408.1608  0.027906476  0.026792672           44 
 4206000   0.59044503   -5.8989541    1405.7886  0.027852842  0.026785062           70 
 4207000   0.57390912   -5.9111442    1405.1961  0.027834483  0.026777435           37 
 4208000   0.58218997   -5.9187774    1406.5922  0.027855516  0.026769779           46 
 4209000   0.57490632   -5.9411787    1404.4582  0.027806648  0.026762139           61 
 4210000   0.57365716   -5.9306954    1403.4467  0.027780021   0.02675448           53 
 4211000   0.58282891   -5.9403619    1404.7422  0.027799063  0.026746821           63 
 4212000   0.57974419   -5.9422224    1402.8978  0.027755971   0.02673915           79 
 4213000   0.58422191   -5.9097223    1405.4996  0.027800846  0.026731505           28 
 4214000   0.57255625   -5.9397265    1408.1478  0.027846618  0.026723877           54 
 4215000   0.55247116   -5.9195913    1405.5237  0.027788131  0.026716281           95 
 4216000   0.58618757   -5.9137902    1405.0589  0.027772354  0.026708681           41 
 4217000   0.57277189   -5.9302915    1407.3517  0.027811076  0.026701093           45 
 4218000   0.57533882   -5.9476336    1406.5163  0.027787978  0.026693478           28 
 4219000   0.58727722    -5.931135    1406.1094  0.027773354  0.026685875           18 
 4220000   0.57619328   -5.9088521    1405.3211  0.027751206  0.026678282           14 
 4221000   0.57035248   -5.9114549    1406.4837  0.027767585  0.026670693           11 
 4222000   0.58736166   -5.9381857    1404.8463  0.027728689  0.026663074           24 
 4223000   0.56822707   -5.9261975    1407.1124   0.02776684  0.026655454           53 
 4224000   0.57872465   -5.9184484    1406.1765  0.027741802   0.02664786           26 
 4225000   0.57551767   -5.9245592    1407.0921  0.027753297  0.026640264           41 
 4226000    0.5695742   -5.8967999    1406.9878  0.027744672  0.026632668           15 
 4227000   0.56829322   -5.9117689    1401.9214  0.027638226  0.026625087           14 
 4228000    0.5673714   -5.9350151     1403.482  0.027662448  0.026617492           14 
 4229000   0.59037092   -5.9278369     1403.271  0.027651751  0.026609913           14 
 4230000   0.56322922   -5.9258607    1404.7963  0.027675262  0.026602324           21 
 4231000   0.55631908   -5.9201546    1405.7555  0.027687613  0.026594713           25 
 4232000   0.57855844   -5.9181891    1407.7159  0.027719674  0.026587115           17 
 4233000   0.57438678   -5.9128691    1407.5491  0.027709841  0.026579543           11 
 4234000   0.57148562   -5.9165681    1409.1748  0.027735294  0.026571993           20 
 4235000   0.57558001   -5.9266398     1406.341  0.027672984  0.026564433           20 
 4236000   0.58105722    -5.945698    1403.2522  0.027605686   0.02655687           20 
 4237000    0.5716054    -5.931532    1408.2944  0.027698341  0.026549295           20 
 4238000   0.55847277   -5.9306678     1406.374  0.027654043  0.026541737           13 
 4239000   0.57681608   -5.9357176    1403.4818  0.027590662  0.026534177           26 
 4240000   0.56418442   -5.9114573     1405.711  0.027627967  0.026526635            6 
 4241000   0.56141262   -5.9194243     1403.921  0.027586281  0.026519072           17 
 4242000   0.58785172   -5.9195575    1404.7417  0.027595899   0.02651151           25 
 4243000   0.57070787   -5.9468546    1405.2539  0.027599456  0.026503946           24 
 4244000   0.56989999   -5.9533548    1406.4039  0.027615534  0.026496389           30 
 4245000   0.57122882    -5.947411     1405.726  0.027595721   0.02648884           29 
 4246000   0.57521111   -5.9090754    1410.1543  0.027676132  0.026481293           12 
 4247000   0.56684836   -5.9306805    1405.8888   0.02758592  0.026473752           22 
 4248000   0.58181143   -5.9374097    1404.3372  0.027548987  0.026466208           20 
 4249000   0.56411041   -5.9398051    1405.1947  0.027559321  0.026458661           12 
 4250000    0.5763248   -5.9223833    1405.1778  0.027552506  0.026451127           12 
 4251000   0.57023848   -5.9427759    1404.5918  0.027534537  0.026443605           15 
 4252000   0.56555383   -5.9400949    1404.0319  0.027517088  0.026436071           19 
 4253000   0.57093525    -5.930607    1405.4701  0.027538798  0.026428526           22 
 4254000   0.58349103   -5.9329752    1405.6034  0.027534936  0.026420987           29 
 4255000   0.56599798   -5.9177701    1406.1181  0.027538545  0.026413489           19 
 4256000   0.57140237    -5.949963    1404.2853  0.027496187  0.026405986           15 
 4257000   0.56469811   -5.9299702    1408.3621  0.027569535  0.026398446           19 
 4258000   0.57930629   -5.9227046    1404.3583    0.0274847  0.026390896           51 
 4259000    0.5685602   -5.9534274     1404.939   0.02748961  0.026383342           15 
 4260000   0.57359328   -5.9550861    1408.4849  0.027552521  0.026375804           14 
 4261000   0.56927567   -5.9189168     1406.798  0.027513063  0.026368282           21 
 4262000    0.5721316   -5.9404441    1407.4809   0.02751996  0.026360767           20 
 4263000    0.5728519   -5.9380414    1404.1936  0.027449245  0.026353222           20 
 4264000   0.57449308    -5.960276    1407.8974  0.027515193  0.026345693           44 
 4265000   0.56348965   -5.9597319    1404.7653  0.027447543  0.026338163           16 
 4266000   0.56592276   -5.9493635    1407.8628  0.027501618   0.02633063           14 
 4267000   0.57538952   -5.9614798    1403.5464  0.027410874  0.026323078           26 
 4268000   0.55867429   -5.9547182    1405.9173  0.027450745  0.026315525           14 
 4269000   0.57292338   -5.9666494    1407.6812  0.027478746  0.026308008           35 
 4270000   0.57009763   -5.9472567    1403.3698   0.02738817  0.026300501           37 
 4271000   0.56928461   -5.9299428    1408.2032  0.027476064  0.026292981           22 
 4272000   0.55196459   -5.9474985    1403.8157  0.027384046   0.02628548           34 
 4273000   0.55746729   -5.9346976    1406.9272  0.027438318  0.026277971           15 
 4274000   0.57820117   -5.9453938    1407.7794  0.027448515  0.026270508           34 
 4275000    0.5748133   -5.9433798     1406.244  0.027412164  0.026263013           21 
 4276000   0.57157759   -5.9516643    1404.2787  0.027367452  0.026255522           11 
 4277000   0.57649612   -5.9389628    1403.4109  0.027344145  0.026248031           14 
 4278000   0.57614633   -5.9270551    1408.2685  0.027432376  0.026240545           18 
 4279000   0.57204098   -5.9384972    1405.7427  0.027376776  0.026233041           35 
 4280000   0.58584808   -5.9396728    1405.7561   0.02737064  0.026225543           12 
 4281000   0.55869982   -5.9258719    1409.1184  0.027429698  0.026218111           19 
 4282000   0.56407464   -5.9348636    1412.2886  0.027484988  0.026210672           34 
 4283000   0.55892797   -5.9358367    1407.7845  0.027390935  0.026203238           15 
 4284000   0.55785289   -5.9545733    1408.9346  0.027406913  0.026195759           14 
 4285000   0.57748297   -5.9446035    1405.6833  0.027337287  0.026188297           42 
 4286000    0.5759599   -5.9606893    1405.2974  0.027323405  0.026180825           42 
 4287000    0.5625699   -5.9458886    1406.0549  0.027331757  0.026173354           30 
 4288000   0.57221183   -5.9513243    1406.3455   0.02733103  0.026165889           44 
 4289000   0.57212417   -5.9414148    1404.4158  0.027287166  0.026158408           35 
 4290000   0.55544412   -5.9315003    1408.1689  0.027353708  0.026150953           11 
 4291000   0.56877842   -5.9463443    1404.7347   0.02728064  0.026143522           21 
 4292000   0.56071217   -5.9302118    1408.5261  0.027347897  0.026136059           46 
 4293000   0.56225515   -5.9501014     1407.654  0.027324598  0.026128603           33 
 4294000    0.5723056   -5.9474718     1403.857  0.027244546  0.026121159           23 
 4295000   0.55911185   -5.9648598     1406.642  0.027292239  0.026113734           33 
 4296000   0.55793292   -5.9766493     1405.458  0.027262919  0.026106282           29 
 4297000   0.56334038    -5.946573    1408.1075  0.027307958  0.026098841           22 
 4298000    0.5643465   -5.9679873    1405.0768  0.027242842  0.026091393           57 
 4299000   0.56037014   -5.9707194    1407.1043  0.027275806   0.02608393           30 
 4300000   0.56723286   -5.9577693    1407.7826  0.027282608  0.026076495           34 
 4301000   0.55789223   -5.9676541    1406.9962  0.027261029  0.026069059           47 
 4302000   0.55603416   -5.9633777    1405.8049  0.027231616  0.026061633          107 
 4303000   0.56135847    -5.958744     1407.101  0.027250387  0.026054183           47 
 4304000   0.56735742   -5.9696644    1405.1849  0.027206956  0.026046748           36 
 4305000   0.55360686   -5.9445718    1408.3571  0.027262042  0.026039315           18 
 4306000    0.5621498   -5.9472705    1406.6172  0.027222039  0.026031904           44 
 4307000   0.56645908   -5.9522829    1407.1407  0.027225848  0.026024489           47 
 4308000    0.5599443   -5.9603651    1406.9156  0.027215173  0.026017073           19 
 4309000    0.5604004   -5.9431327    1406.6509  0.027203738  0.026009651           22 
 4310000   0.55708225   -5.9451683    1406.6188  0.027196805  0.026002223           22 
 4311000   0.58205023   -5.9660126    1405.4797  0.027168478  0.025994809           19 
 4312000   0.57134876   -5.9738076    1402.6958  0.027108376  0.025987395           16 
 4313000   0.56138828    -5.970846    1406.9299  0.027183899  0.025979957           35 
 4314000   0.55449967   -5.9672176    1407.7393  0.027193233  0.025972527           22 
 4315000    0.5539701   -5.9567502    1408.5582  0.027202747  0.025965109           32 
 4316000    0.5579688   -5.9743976    1406.6986  0.027160539  0.025957688           27 
 4317000   0.56180684   -5.9593271    1407.9176  0.027177779   0.02595027           28 
 4318000    0.5731163   -5.9711903    1403.7723  0.027091484  0.025942866           28 
 4319000   0.56427263   -5.9545503    1404.7788   0.02710463  0.025935442           30 
 4320000   0.56362054   -5.9791139    1407.3774  0.027148484  0.025928017           30 
 4321000   0.54512615   -5.9567983    1404.5846   0.02708834  0.025920602           24 
 4322000   0.55513315   -5.9867094    1402.8135  0.027047924  0.025913176           25 
 4323000   0.56084064   -5.9717826    1407.6322  0.027134556  0.025905759           52 
 4324000   0.56300457   -5.9783807     1407.756  0.027130666  0.025898364           42 
 4325000   0.56447969   -5.9598695    1405.3789  0.027078592  0.025890965           56 
 4326000   0.55084793   -5.9575816    1408.0478  0.027123744  0.025883589           28 
 4327000   0.55373878   -5.9317688    1407.1272  0.027099746  0.025876208           39 
 4328000   0.55316481   -5.9737604    1408.9174  0.027127954  0.025868843           30 
 4329000    0.5523303   -5.9599243    1408.9079  0.027121505  0.025861471           64 
 4330000   0.55530716   -5.9522691    1403.8869  0.027018609  0.025854107           43 
 4331000   0.55320564   -5.9528066    1406.4348  0.027061394  0.025846723           43 
 4332000   0.56277362   -5.9880271    1404.0663  0.027009585  0.025839339           27 
 4333000   0.56578433   -5.9375626    1408.0064  0.027079129  0.025831974           72 
 4334000   0.55762724   -5.9728626    1405.9772  0.027033864  0.025824618           54 
 4335000    0.5633292   -5.9705164    1407.5111  0.027057115  0.025817246           53 
 4336000   0.55236545   -5.9715667    1402.3048  0.026950815  0.025809848           82 
 4337000   0.55249451   -5.9813676    1404.2049  0.026981111  0.025802451           47 
 4338000   0.55891132   -5.9788188    1403.7212  0.026965599  0.025795084           74 
 4339000   0.56221533   -5.9608394    1408.1991  0.027045385  0.025787729           35 
 4340000   0.55746474    -5.968323     1405.037  0.026978437  0.025780378           64 
 4341000    0.5577425   -5.9748653    1405.6456  0.026983905  0.025773021           47 
 4342000    0.5664783   -5.9925168    1405.3513  0.026972043  0.025765656           57 
 4343000    0.5466544   -5.9913727    1404.5067  0.026949626  0.025758301           51 
 4344000   0.56081324   -5.9825274    1407.6748  0.027004198  0.025750935           32 
 4345000   0.55943229   -5.9766578    1406.1334   0.02696842  0.025743563           70 
 4346000   0.54804351   -5.9605115    1406.6922  0.026972929  0.025736215           33 
 4347000   0.55813428   -5.9753837     1405.158  0.026937313  0.025728873           35 
 4348000   0.55879624   -5.9795179    1408.9517  0.027003827   0.02572152           66 
 4349000   0.54410327   -5.9616328    1406.2839  0.026946499  0.025714192           63 
 4350000   0.54742481   -5.9906398    1404.2971  0.026902242  0.025706853           37 
 4351000   0.55836865   -5.9740095    1403.7132  0.026884877  0.025699502           23 
 4352000   0.54769669   -5.9945064    1403.9908  0.026884016  0.025692185           50 
 4353000   0.56307309    -5.972357    1406.5012  0.026925898  0.025684858           33 
 4354000   0.55937321   -5.9841328    1405.3357  0.026897407  0.025677538           26 
 4355000   0.54092103    -5.981087    1408.3432   0.02694878  0.025670221           14 
 4356000   0.55091048   -5.9865067    1406.1336  0.026900321  0.025662906           21 
 4357000   0.56043468   -6.0011746    1407.0004  0.026910726  0.025655582           34 
 4358000   0.55175884    -5.962028    1410.2942  0.026967535  0.025648283           26 
 4359000   0.55707449   -5.9717301    1409.0983  0.026938485  0.025641003           32 
 4360000   0.55881473    -5.965517    1406.3641  0.026880048  0.025633687           22 
 4361000   0.55919248   -5.9560831    1407.7111  0.026899623  0.025626416           42 
 4362000   0.54880375   -5.9720699    1407.5413  0.026890213  0.025619132           51 
 4363000   0.55360123   -5.9705853    1407.6038  0.026885243  0.025611857           50 
 4364000   0.55270951   -5.9786737     1406.307  0.026854319  0.025604589           20 
 4365000   0.55389301   -5.9711855    1406.6264  0.026854265   0.02559732           47 
 4366000    0.5605566   -5.9687165    1409.2749  0.026898666  0.025590042           28 
 4367000   0.55076386   -5.9824329    1406.3324  0.026836356  0.025582788           31 
 4368000   0.53499451     -5.96277    1406.9031  0.026841101  0.025575514           74 
 4369000   0.55753316   -5.9752089    1406.3014  0.026823481  0.025568267           30 
 4370000   0.54892879   -5.9804726    1404.3257  0.026779667  0.025560986           41 
 4371000   0.55597979    -5.991722    1406.8569  0.026821797  0.025553688           73 
 4372000   0.55362162   -5.9799629    1406.6674  0.026812051  0.025546381           92 
 4373000   0.55185703   -5.9724623    1407.7948  0.026827403  0.025539098           44 
 4374000    0.5450955   -5.9653014     1406.063  0.026788275    0.0255318           66 
 4375000   0.55823092   -6.0020755    1404.5854  0.026754008  0.025524492           64 
 4376000   0.56937281   -5.9737189    1405.6896  0.026768921  0.025517193           76 
 4377000   0.54708134    -5.990791    1406.5719  0.026779604  0.025509914           77 
 4378000   0.55361388   -5.9808335    1404.5416   0.02673484  0.025502631           34 
 4379000   0.54595308   -5.9755984    1406.3749  0.026763624  0.025495368           37 
 4380000   0.54634705   -5.9840086    1406.2791   0.02675569  0.025488104           46 
 4381000   0.54391005   -5.9864723    1406.6796  0.026757202  0.025480814           44 
 4382000   0.54575808   -5.9942092    1405.1746  0.026722475  0.025473511           50 
 4383000   0.55549273   -6.0005303    1404.2596  0.026698981  0.025466204           55 
 4384000   0.55361948    -6.004957    1405.1566  0.026709941  0.025458916           79 
 4385000    0.5431634   -5.9909376    1404.7048  0.026695263  0.025451632           49 
 4386000    0.5547251   -5.9892034    1407.3962  0.026740314  0.025444359           53 
 4387000   0.55097509   -6.0076413    1403.6124  0.026662344  0.025437097           22 
 4388000   0.54959799   -5.9880214     1406.262  0.026706585  0.025429837           30 
 4389000   0.55548532   -5.9846961    1407.4026  0.026722157  0.025422578           39 
 4390000   0.55584959   -5.9895646    1407.9389  0.026726251  0.025415326           66 
 4391000   0.54744623   -5.9844199    1404.8378  0.026661311  0.025408072           80 
 4392000   0.53737166   -5.9984753    1407.5445  0.026706597  0.025400813           73 
 4393000   0.54951257   -6.0059884     1405.361  0.026659098  0.025393533           23 
 4394000   0.54520248    -6.010698    1405.1583  0.026649186  0.025386253           50 
 4395000   0.54526463   -6.0133902    1404.2353  0.026625621  0.025378946           26 
 4396000   0.54684382   -5.9924139    1405.1738  0.026637356  0.025371675           29 
 4397000   0.53109172   -6.0012795    1403.4871  0.026599331  0.025364397           36 
 4398000   0.54174344   -5.9838337    1406.3341  0.026647228  0.025357122           52 
 4399000   0.54276873   -5.9968907    1402.5412  0.026569319  0.025349877           65 
 4400000   0.54622443   -5.9893478    1405.5865  0.026620956  0.025342626           62 
 4401000   0.55323537   -5.9934037    1404.2494   0.02658959  0.025335387           62 
 4402000   0.55288337   -5.9879173    1405.1283  0.026600187  0.025328161           45 
 4403000   0.54191251   -6.0018728    1406.6292  0.026622554  0.025320934           26 
 4404000   0.54244116   -6.0082137    1406.2278  0.026608913  0.025313691           92 
 4405000   0.54385924   -5.9907022    1409.2838  0.026660685  0.025306468           89 
 4406000    0.5379823   -5.9960848    1408.9318  0.026647976  0.025299251           25 
 4407000   0.55246439    -5.988453    1406.1518  0.026589363  0.025292042           27 
 4408000   0.53396934   -5.9931301    1408.1318  0.026620761  0.025284848           56 
 4409000   0.55140926   -5.9852408    1408.1294  0.026614679  0.025277657           32 
 4410000   0.54670525   -5.9787611    1407.7997  0.026602413  0.025270458           38 
 4411000   0.54376166   -5.9905245    1407.1593  0.026584284  0.025263253           53 
 4412000   0.54682072   -6.0054031    1403.8879  0.026516468  0.025256049           66 
 4413000   0.54007406   -5.9948773    1407.6351   0.02658122  0.025248832           31 
 4414000   0.54647032   -5.9714478    1407.7089  0.026576592  0.025241632           37 
 4415000   0.54878461   -5.9795611    1409.3691  0.026601908  0.025234431           28 
 4416000   0.53978039   -6.0000487    1404.7549  0.026508811  0.025227234           45 
 4417000   0.55121215   -5.9883539    1407.3065  0.026550948  0.025220048           41 
 4418000   0.54009458   -5.9843289    1405.7449  0.026515484  0.025212881           26 
 4419000   0.54881564   -5.9776162    1407.1228  0.026535468   0.02520572           24 
 4420000   0.54894688   -5.9820214    1410.9848  0.026602278  0.025198544           56 
 4421000   0.55713454   -5.9955371    1406.3135  0.026508209  0.025191359           65 
 4422000    0.5480279    -6.001546       1404.6  0.026469923  0.025184172           37 
 4423000   0.54405155   -6.0025845    1404.2999  0.026458284  0.025176996           96 
 4424000   0.54599544   -5.9978386    1409.8547  0.026556938  0.025169821           68 
 4425000   0.54537884   -5.9908004    1409.8758  0.026551333  0.025162646           25 
 4426000   0.54079976   -5.9994563     1407.412  0.026498946  0.025155475           55 
 4427000   0.54842305   -5.9972703    1406.1449  0.026469108  0.025148304           16 
 4428000   0.54534917   -5.9737112    1406.5422  0.026470607  0.025141133           12 
 4429000   0.53613846   -6.0196872    1407.8379   0.02648901  0.025133962           59 
 4430000   0.54809302   -6.0025272    1407.9191  0.026484558  0.025126801           51 
 4431000   0.54380438   -5.9978324    1404.8582  0.026421015  0.025119631           68 
 4432000   0.55175597   -6.0009149    1403.9624   0.02639821  0.025112463           86 
 4433000   0.54616511   -5.9960051    1404.0234  0.026393402  0.025105292           89 
 4434000   0.54698972   -6.0086545    1405.2773  0.026411015  0.025098111           81 
 4435000   0.53723932   -6.0230693    1409.0159  0.026475308  0.025090938           59 
 4436000   0.53457598   -5.9990639     1408.714  0.026463668  0.025083757           59 
 4437000   0.54506832   -5.9905619    1406.9697  0.026424943  0.025076605           60 
 4438000   0.53940041   -5.9982435    1407.6089  0.026430991  0.025069449           58 
 4439000   0.54841665   -5.9972048    1408.7246  0.026445982   0.02506231           34 
 4440000   0.53584373    -5.994474    1407.3883  0.026414946  0.025055181           36 
 4441000   0.54447546   -6.0185179    1406.9979  0.026401672  0.025048021           61 
 4442000   0.54949611   -5.9935529     1406.377   0.02638408  0.025040861           34 
 4443000   0.52982097   -6.0068971    1404.3548  0.026340212  0.025033712           37 
 4444000   0.55820926    -5.990383    1402.1194  0.026292369  0.025026548           28 
 4445000   0.52996831   -5.9964755    1409.2477  0.026420092   0.02501937           35 
 4446000   0.54023915   -6.0030399    1405.0872  0.026336168  0.025012202           25 
 4447000   0.54694175   -6.0168732    1404.7448  0.026323828  0.025005028           29 
 4448000   0.54287436   -6.0033631     1405.736  0.026336482  0.024997847           26 
 4449000   0.54344574     -6.01727    1403.6614  0.026291702  0.024990679           43 
 4450000   0.53365418   -6.0167813     1405.793  0.026325712   0.02498351           83 
 4451000   0.54041558   -6.0367863    1405.9374    0.0263225  0.024976357           27 
 4452000    0.5542863    -5.994107    1407.0926  0.026338211  0.024969203           38 
 4453000   0.54422182   -6.0084651    1403.0355  0.026256372  0.024962037           70 
 4454000   0.54410463   -6.0251701    1405.4747  0.026296115  0.024954881           87 
 4455000   0.53120825   -6.0196172     1404.746  0.026276581  0.024947716           78 
 4456000    0.5296151   -6.0152579    1406.9486  0.026311876  0.024940567           26 
 4457000   0.53847559   -6.0168341    1402.8772  0.026229849  0.024933439           92 
 4458000   0.55331609   -6.0118233    1407.7977  0.026315943  0.024926312           41 
 4459000   0.52995412   -6.0179624     1405.853  0.026273697  0.024919187           24 
 4460000   0.52979712   -5.9906033    1407.6543  0.026301463  0.024912067           61 
 4461000   0.54253341   -6.0146825    1407.0354  0.026284006  0.024904927           20 
 4462000   0.53503308   -6.0328737    1402.6597  0.026196393  0.024897794           57 
 4463000   0.54638904   -6.0175577    1404.2819  0.026220813  0.024890658           18 
 4464000   0.53876426   -6.0000818    1404.9313  0.026227062  0.024883541           43 
 4465000   0.54068629   -6.0083227    1404.6473  0.026215889  0.024876428           63 
 4466000   0.53885069   -5.9978884     1407.187  0.026257409  0.024869315           53 
 4467000   0.54609793   -6.0202974    1404.9486  0.026209772  0.024862198           52 
 4468000   0.52414778   -6.0198462    1404.8027  0.026201185  0.024855064           29 
 4469000    0.5341884   -6.0116685    1408.1119  0.026257028   0.02484792           38 
 4470000   0.54289063   -6.0162819    1405.0466  0.026194007  0.024840772           52 
 4471000   0.53024574   -6.0505257    1403.3376  0.026156295  0.024833628           49 
 4472000   0.53207834   -6.0270266    1404.7801  0.026177328  0.024826485          114 
 4473000    0.5433571   -6.0358673    1405.7993  0.026190464  0.024819352           38 
 4474000   0.53638926   -6.0127342    1404.4398  0.026159287  0.024812213           45 
 4475000   0.54270786   -6.0361966    1403.0239  0.026127074  0.024805065           44 
 4476000   0.52504688   -6.0346913    1404.2699  0.026144435  0.024797927           64 
 4477000   0.54370591   -6.0362946    1402.5171  0.026105969  0.024790795           49 
 4478000   0.53281294   -6.0283535    1405.3149  0.026152205  0.024783654           44 
 4479000   0.53483469   -6.0306283    1404.5935  0.026132944   0.02477654          153 
 4480000   0.54230118   -6.0395572    1406.0568  0.026154331  0.024769407           43 
 4481000   0.53391381   -6.0183711    1405.7572  0.026142922  0.024762285           46 
 4482000   0.52236596   -6.0290279     1403.664  0.026098171  0.024755161           71 
 4483000   0.52526468   -6.0229215    1402.5938  0.026072455  0.024748048          125 
 4484000   0.52285712    -6.025004    1403.2852   0.02607949  0.024740922           53 
 4485000   0.53337762   -6.0319614    1401.7092  0.026044393  0.024733815           43 
 4486000   0.53841621   -6.0249032    1402.4999  0.026053274  0.024726693           28 
 4487000   0.53143487   -6.0227477    1404.4709  0.026084074  0.024719575           37 
 4488000   0.53328103    -6.040289    1404.1735  0.026072741  0.024712484           70 
 4489000   0.52367441   -6.0362316    1408.1033  0.026139885  0.024705372           32 
 4490000   0.53491701   -6.0250161    1405.3574    0.0260831  0.024698264           24 
 4491000   0.53959689   -6.0273536    1405.8611  0.026086638  0.024691184           37 
 4492000   0.52572928    -6.024314    1405.8492   0.02608061   0.02468409           27 
 4493000   0.54824389   -6.0366787    1407.1682  0.026099269   0.02467699           29 
 4494000   0.53726153   -6.0007835    1405.1238  0.026055552  0.024669886           21 
 4495000   0.52069653   -6.0194833    1405.1333  0.026049931  0.024662797           19 
 4496000   0.54101746    -6.022531     1405.969  0.026059627  0.024655713           22 
 4497000   0.53002363   -6.0414741    1406.8763  0.026070645  0.024648634           31 
 4498000   0.54644705   -6.0293039    1403.2481   0.02599763  0.024641539           21 
 4499000   0.54060142   -6.0415211    1408.7839  0.026094389  0.024634467           21 
 4500000   0.53864448    -6.032495    1403.4368  0.025989571  0.024627392           34 
 4501000   0.52148313   -6.0424062    1403.5892  0.025986617  0.024620296           26 
 4502000   0.52039899   -6.0200673    1404.2937  0.025993886  0.024613223           27 
 4503000   0.52842842   -6.0181165    1402.9473  0.025963197  0.024606147           39 
 4504000   0.53150057   -6.0224279    1405.9205  0.026012442  0.024599072           65 
 4505000   0.53326176   -6.0611295    1402.4868  0.025943151  0.024592001           66 
 4506000   0.53593746    -6.037636    1407.1541  0.026023711   0.02458494           17 
 4507000   0.52388407   -6.0332406     1405.377  0.025985079   0.02457788           15 
 4508000   0.52887289   -6.0415958    1404.2448  0.025958384  0.024570806           29 
 4509000   0.52823354   -6.0605478    1404.5125  0.025957575  0.024563744           35 
 4510000   0.53103923   -6.0550025    1404.9453  0.025959817  0.024556671           37 
 4511000   0.53211423   -6.0424067    1403.6805  0.025930698  0.024549603           41 
 4512000   0.54086839   -6.0322468    1407.8539   0.02600203  0.024542545           84 
 4513000   0.52764041   -6.0443358    1406.2033  0.025965789  0.024535487           51 
 4514000   0.53000289   -6.0438654    1403.1874  0.025904361  0.024528447           53 
 4515000   0.52975783   -6.0194904    1404.9294  0.025930775  0.024521422           81 
 4516000   0.52548415   -6.0217209    1404.3225  0.025913834  0.024514399           65 
 4517000   0.54155072   -6.0418073    1406.1918  0.025942584  0.024507372          109 
 4518000   0.52847525    -6.034134    1405.5748  0.025925462  0.024500357          141 
 4519000   0.52602332    -6.040309    1404.2282  0.025894891  0.024493354           78 
 4520000   0.53409482   -6.0542733    1403.8046  0.025881353  0.024486345           71 
 4521000   0.52407169   -6.0391806    1410.8143  0.026004834  0.024479328           44 
 4522000   0.52364851   -6.0490906     1405.149  0.025894681   0.02447233           47 
 4523000   0.53071996   -6.0397487    1404.9428  0.025885158  0.024465329           26 
 4524000   0.51732954   -6.0632967    1404.6397  0.025873852  0.024458328           62 
 4525000   0.53533933   -6.0422214    1407.0099  0.025911784  0.024451318           41 
 4526000   0.52658506   -6.0540893    1404.8612  0.025866497  0.024444317           45 
 4527000   0.52728245   -6.0489953    1405.3625  0.025870011  0.024437305           52 
 4528000   0.53046372    -6.033664    1406.8519  0.025891708  0.024430296           30 
 4529000   0.52183134   -6.0441761     1404.433  0.025841484  0.024423305           39 
 4530000   0.52960889   -6.0225679    1407.3624  0.025889669  0.024416328           42 
 4531000   0.53022827    -6.044458    1406.8674  0.025874851  0.024409365           39 
 4532000   0.53420423   -6.0332754    1405.9498  0.025852269  0.024402393           33 
 4533000     0.522055   -6.0332836    1404.5911  0.025821589  0.024395416           46 
 4534000   0.52479586   -6.0454116    1404.8723  0.025821061  0.024388437           20 
 4535000    0.5119931    -6.049433    1407.1014  0.025856329  0.024381463           72 
 4536000   0.52938421   -6.0429587    1406.7028  0.025843304  0.024374476           73 
 4537000   0.52927394   -6.0480315    1405.8497  0.025821941  0.024367492           50 
 4538000   0.51336732   -6.0361864    1407.3212  0.025843271  0.024360525          115 
 4539000   0.51834678   -6.0557171    1404.6349   0.02578826  0.024353562           57 
 4540000   0.52451725   -6.0377742     1406.961  0.025825276  0.024346599           30 
 4541000   0.51947183   -6.0553215     1405.888  0.025799897  0.024339632           34 
 4542000   0.52928308   -6.0593623    1403.5689  0.025751667  0.024332662          126 
 4543000   0.52278993   -6.0453031    1406.8698  0.025806549    0.0243257           75 
 4544000   0.52176914   -6.0561783     1406.153  0.025787723  0.024318741          124 
 4545000   0.53876417   -6.0307006    1406.0372  0.025779926  0.024311772           79 
 4546000   0.52870384   -6.0467596    1404.6956  0.025749663  0.024304814           98 
 4547000   0.51733883   -6.0395122    1403.0405  0.025713666  0.024297839          109 
 4548000   0.52328081   -6.0516223    1404.2433  0.025730052  0.024290853          121 
 4549000   0.52268429   -6.0533264    1404.9059  0.025736533    0.0242839           59 
 4550000   0.52545943   -6.0553334    1405.6393  0.025744309  0.024276946           47 
 4551000   0.51834823   -6.0309058    1404.9266  0.025725603  0.024269977           75 
 4552000   0.53159941   -6.0246704    1407.5829   0.02576858  0.024263012           77 
 4553000   0.52261807   -6.0474192    1405.7393  0.025729176  0.024256057           84 
 4554000   0.52667585   -6.0677466    1405.0925  0.025711692    0.0242491           84 
 4555000   0.52769528   -6.0620757    1403.6277  0.025679248  0.024242145           99 
 4556000   0.52019504   -6.0604622    1404.0686  0.025681676  0.024235187           67 
 4557000   0.53264128   -6.0681124    1403.7038  0.025669369  0.024228227           87 
 4558000   0.51633333   -6.0616234    1405.7048  0.025700321  0.024221265           37 
 4559000   0.53051824   -6.0373925    1406.0624  0.025701222  0.024214324           68 
 4560000   0.52947861   -6.0434493    1405.6276   0.02568764  0.024207382           55 
 4561000   0.51913959   -6.0462071    1406.0642  0.025689984  0.024200452           85 
 4562000   0.51745069    -6.046664    1405.4732  0.025673557  0.024193519           42 
 4563000   0.50954941   -6.0595195    1403.8912  0.025639038  0.024186576           99 
 4564000    0.5175105   -6.0687722    1407.6712   0.02570244  0.024179646          112 
 4565000   0.52505236   -6.0568014    1405.3131  0.025653762   0.02417271          142 
 4566000   0.52434088     -6.05061    1405.3561  0.025648928  0.024165768           62 
 4567000    0.5250211   -6.0393479    1404.7103  0.025631529  0.024158835          107 
 4568000    0.5162558   -6.0677645    1404.5189  0.025622426  0.024151887          120 
 4569000   0.52544365   -6.0637486    1405.9738  0.025643353  0.024144944          114 
 4570000   0.52001513   -6.0552239    1401.8767  0.025563033  0.024137991          141 
 4571000   0.51921663   -6.0713121    1401.9985   0.02555966  0.024131061          132 
 4572000   0.52454118   -6.0627897    1405.0698   0.02561005  0.024124106          121 
 4573000   0.52930003   -6.0686979    1403.1575  0.025569602  0.024117148          127 
 4574000   0.50101541   -6.0650379    1405.5952  0.025608425  0.024110184           74 
 4575000   0.51394885   -6.0853867    1405.1771  0.025595211  0.024103231           72 
 4576000   0.51939207   -6.0738907    1403.5619  0.025560203  0.024096284          102 
 4577000   0.50587624   -6.0717866     1402.508  0.025535431  0.024089342          139 
 4578000   0.51860874   -6.0645436    1401.4497  0.025510588  0.024082396           92 
 4579000    0.5086111   -6.0666142    1403.0592  0.025534309  0.024075441           96 
 4580000   0.52760243     -6.07937     1400.807  0.025487755  0.024068492           99 
 4581000    0.5289999   -6.0741529    1401.7865   0.02550001   0.02406155          122 
 4582000   0.51376457   -6.0816419    1405.7352   0.02556626  0.024054613           91 
 4583000   0.51576776   -6.0673828    1403.0083  0.025511097  0.024047687           85 
 4584000   0.52704018   -6.0674723    1402.2655  0.025492029  0.024040773           55 
 4585000   0.51972217     -6.07694     1401.436  0.025471393  0.024033853           44 
 4586000   0.52352153   -6.0526294    1402.4629  0.025484498   0.02402692           28 
 4587000   0.51652776    -6.076081    1404.7681  0.025520821  0.024020001           58 
 4588000   0.52521283   -6.0780163    1402.2014  0.025468638  0.024013076           57 
 4589000   0.52815779   -6.0741089    1404.5892   0.02550645   0.02400615          117 
 4590000   0.51537615   -6.0679549    1399.7551  0.025413128   0.02399922           87 
 4591000   0.50979978   -6.0570027    1403.2548  0.025471118  0.023992315          131 
 4592000   0.50770982     -6.07407     1401.116  0.025426757  0.023985401           57 
 4593000   0.52071911    -6.086078     1401.824  0.025434066  0.023978481          103 
 4594000   0.51415861    -6.076074    1400.6971  0.025408088  0.023971557          121 
 4595000   0.51610331   -6.0638853    1401.1269  0.025410354  0.023964628          131 
 4596000   0.51901439   -6.0540792     1404.853  0.025472385  0.023957718           87 
 4597000   0.51666454   -6.0715648    1404.9206  0.025468071  0.023950838           44 
 4598000   0.50781146   -6.0569691     1403.203  0.025431401  0.023943957           41 
 4599000   0.52072398   -6.0572593     1405.328  0.025464376  0.023937083           49 
 4600000   0.51668619   -6.0717348      1403.43  0.025424456  0.023930202           42 
 4601000   0.52292315   -6.0593748    1404.9392  0.025446265  0.023923317           19 
 4602000   0.51619278   -6.0506874    1403.0267  0.025406104   0.02391644           47 
 4603000   0.51874388     -6.08788    1401.0487  0.025364774  0.023909564           43 
 4604000   0.51512846   -6.0689667    1402.5919  0.025387197  0.023902688           47 
 4605000   0.50998375   -6.0588612    1403.6615   0.02540104  0.023895827           70 
 4606000   0.50515993   -6.0543391    1403.9458  0.025400669   0.02388896           46 
 4607000   0.52091287   -6.0649964     1404.109  0.025398108  0.023882105           66 
 4608000    0.5189599   -6.0644777    1405.0139  0.025408962  0.023875242           39 
 4609000   0.50635195   -6.0746204    1406.5898  0.025431942  0.023868382           42 
 4610000   0.50673012   -6.0734569    1402.6684  0.025355539  0.023861506           46 
 4611000   0.51114352   -6.0753051    1401.6738  0.025332065  0.023854626           42 
 4612000   0.51145533   -6.0665101    1402.8196  0.025347275  0.023847749           47 
 4613000   0.51093809   -6.0694753     1404.369  0.025369771  0.023840875           41 
 4614000   0.50819075   -6.0578251    1405.5279  0.025385202  0.023833999           46 
 4615000    0.5202485   -6.0693068    1403.0953  0.025335777  0.023827131           64 
 4616000   0.51054271   -6.0656012    1404.9539  0.025363841  0.023820276           56 
 4617000   0.51787308   -6.0633832    1402.3141  0.025310701  0.023813413           71 
 4618000   0.52010738    -6.084453    1401.6823  0.025293819  0.023806551           46 
 4619000   0.51239859   -6.0835964    1404.3676  0.025336789  0.023799688           49 
 4620000   0.51045924   -6.0648948    1405.3642  0.025349282  0.023792835           46 
 4621000   0.51471432   -6.0725312    1404.3774     0.025326   0.02378598           42 
 4622000   0.51427389   -6.0816519    1402.1314  0.025280026  0.023779136           30 
 4623000   0.52349565     -6.08044    1401.9612  0.025271491  0.023772282           35 
 4624000   0.51060658   -6.0860591     1401.032  0.025249279  0.023765417           34 
 4625000    0.5233904   -6.0727205    1400.5446  0.025235037  0.023758548           27 
 4626000   0.50730057   -6.0956881    1403.4497  0.025281915  0.023751684           34 
 4627000   0.50591522   -6.0929351    1401.2472  0.025236783  0.023744826           94 
 4628000   0.50197726     -6.09202    1400.4896   0.02521769  0.023737945          109 
 4629000   0.51327875   -6.0819403    1400.4643  0.025211787  0.023731069           78 
 4630000   0.50555416   -6.1064842    1403.6276  0.025263275  0.023724201           91 
 4631000   0.51770467   -6.0933125    1402.5279  0.025238033  0.023717317           75 
 4632000   0.51731556   -6.0882217     1399.401  0.025176328  0.023710454           87 
 4633000    0.5115222   -6.0859516    1403.0151    0.0252359  0.023703581           85 
 4634000   0.50558452   -6.0803549    1401.6696  0.025206258  0.023696709           91 
 4635000   0.50592346   -6.0948879    1403.1343  0.025227154  0.023689852           73 
 4636000   0.50933753   -6.0744444     1402.894  0.025217393  0.023682991           58 
 4637000   0.49792113   -6.0853365    1400.3234  0.025165757  0.023676127           62 
 4638000   0.52114803   -6.0978523    1402.8953  0.025206543  0.023669269          136 
 4639000   0.51334883   -6.0991355     1403.442  0.025210929  0.023662409          117 
 4640000   0.51350527     -6.07963    1402.1105  0.025181582  0.023655557          101 
 4641000   0.51166563   -6.0859545    1400.5863  0.025148788  0.023648714          179 
 4642000    0.5161953   -6.0955998    1400.8115  0.025147413  0.023641857          273 
 4643000   0.51035414   -6.0910138    1402.7669  0.025177094  0.023635012          157 
 4644000   0.51338329   -6.0809269    1402.0059  0.025158016   0.02362816          100 
 4645000   0.51535614   -6.0919005     1401.828  0.025149408  0.023621308          163 
 4646000   0.51549797   -6.0868283    1398.1004  0.025077135  0.023614466           83 
 4647000   0.50934622   -6.1042836    1400.5281  0.025115274   0.02360763          129 
 4648000   0.50338366   -6.0966282    1400.1623  0.025103312   0.02360079           73 
 4649000   0.51531279   -6.0776591    1398.5514  0.025069037  0.023593962           45 
 4650000   0.50262872   -6.1064714    1401.2472  0.025111957   0.02358713           83 
 4651000   0.50410513   -6.0884691    1402.9973  0.025137914  0.023580308           79 
 4652000   0.50518174   -6.1096937    1401.3894  0.025103708  0.023573471           71 
 4653000   0.50739595   -6.0986935    1402.7497  0.025122676  0.023566638           35 
 4654000   0.51242392   -6.1017578    1401.3172  0.025091628  0.023559806           37 
 4655000   0.49243223   -6.0946565    1400.0462  0.025063483  0.023552969          129 
 4656000   0.50628785   -6.1007921    1402.8778   0.02510878  0.023546124           67 
 4657000   0.49430407   -6.0825275    1402.0674  0.025088887  0.023539293           64 
 4658000   0.51308733     -6.08581    1400.0282   0.02504702  0.023532478           48 
 4659000   0.51748781   -6.0931094    1401.1431  0.025061585  0.023525656           71 
 4660000   0.50498095   -6.0850476    1400.8472  0.025050916  0.023518839           49 
 4661000   0.51252812   -6.0880924    1401.4827  0.025056903  0.023512026           80 
 4662000   0.49783107   -6.0971704    1400.3493  0.025031269  0.023505216           92 
 4663000   0.51339532   -6.0902412      1399.92  0.025018228  0.023498406           93 
 4664000   0.50431333   -6.0905786    1402.0287  0.025050541  0.023491591           74 
 4665000   0.50926628   -6.0877986    1402.1345  0.025047061  0.023484792           61 
 4666000   0.51979652   -6.0896102    1399.0109  0.024985907  0.023477993           77 
 4667000   0.50806991   -6.0858745     1400.107  0.025000124  0.023471198           62 
 4668000   0.50925775   -6.0844733    1401.9287  0.025027291  0.023464393           65 
 4669000   0.50142372     -6.09223    1399.6769   0.02498174  0.023457606           51 
 4670000   0.50707922   -6.0898762     1403.905  0.025051839  0.023450819          158 
 4671000   0.51386137   -6.0998641    1401.0052  0.024994741  0.023444039           57 
 4672000   0.50837806   -6.1042314    1400.3256  0.024977269  0.023437254          119 
 4673000   0.49786199   -6.0982719    1400.0567  0.024967129  0.023430477          149 
 4674000   0.49104318   -6.0933835    1404.0965  0.025033814  0.023423697          138 
 4675000   0.50479265   -6.0962214     1399.533  0.024947112  0.023416912          120 
 4676000    0.5064694   -6.0959513    1399.7252  0.024945203  0.023410136          129 
 4677000   0.50404099   -6.0925449    1400.1774  0.024947925  0.023403347          163 
 4678000   0.49857185   -6.0867109    1400.0409  0.024940162  0.023396566          153 
 4679000   0.49626955   -6.1035172    1400.8104  0.024948536  0.023389772          216 
 4680000   0.50596786   -6.1167446    1396.7858  0.024871542  0.023382982          124 
 4681000   0.50008668   -6.1060925    1398.7162  0.024900594  0.023376195          105 
 4682000   0.50405295    -6.113395    1400.1973  0.024921638  0.023369394          121 
 4683000   0.51694001   -6.1244584    1398.9524  0.024894164  0.023362607          299 
 4684000   0.50882763   -6.1101665    1398.1092  0.024873848  0.023355812          215 
 4685000    0.5112008    -6.121867    1398.8905  0.024882435  0.023349021          225 
 4686000   0.50524512   -6.1072235    1400.5069  0.024905871  0.023342249          220 
 4687000   0.50116485   -6.1262415    1401.0738  0.024910635  0.023335465          167 
 4688000   0.50877472    -6.128031    1400.4437  0.024894122  0.023328681          154 
 4689000   0.49480973   -6.1098856    1401.9152  0.024914965  0.023321907          195 
 4690000   0.49537084   -6.1336976    1400.0932  0.024877279  0.023315117          236 
 4691000   0.50109148   -6.1188375    1402.4278  0.024913448  0.023308335          195 
 4692000   0.49743072   -6.0988947     1400.905  0.024881092  0.023301558          156 
 4693000   0.49969414   -6.1170027    1403.6874  0.024925197   0.02329479          113 
 4694000   0.49651144   -6.1060054    1397.7812  0.024815033  0.023288035          283 
 4695000   0.50266065   -6.1129293    1399.6047  0.024842114  0.023281272          195 
 4696000   0.49588214   -6.1114099    1401.0542  0.024862546  0.023274519          236 
 4697000   0.50752178   -6.1139327    1402.2726   0.02487887  0.023267761          198 
 4698000    0.4986481   -6.1003258    1402.5542  0.024878569  0.023261018          277 
 4699000   0.50729489   -6.0876127    1401.6582  0.024857384  0.023254292          350 
 4700000   0.50207904   -6.1052815     1400.513  0.024831791  0.023247559          310 
 4701000    0.4855221   -6.0998352    1402.2541  0.024857372  0.023240822          292 
 4702000   0.49113064   -6.1251829     1402.226  0.024851588  0.023234091          282 
 4703000   0.49140918   -6.1166484    1398.9197  0.024787719  0.023227339          259 
 4704000   0.49970579   -6.1089564    1399.7899  0.024797866  0.023220589          267 
 4705000   0.49180381   -6.1193421    1398.0642  0.024762029  0.023213854          291 
 4706000   0.50532946   -6.1303026    1401.4967   0.02481755  0.023207105          268 
 4707000   0.49150995   -6.1060997    1399.4642  0.024776295  0.023200364          198 
 4708000   0.49436507   -6.1244989    1400.1745  0.024783604   0.02319362          258 
 4709000   0.50615877    -6.118114    1400.0704    0.0247765  0.023186882          245 
 4710000   0.49697607   -6.1148216    1398.9999  0.024752299  0.023180138          215 
 4711000   0.50453112   -6.1312445    1398.0943  0.024731024  0.023173404          256 
 4712000    0.5026714   -6.1233201    1400.7375  0.024772522  0.023166678          247 
 4713000   0.49901035   -6.1289024    1402.4294  0.024797181  0.023159965          279 
 4714000   0.48994484   -6.1196583    1398.8907  0.024729364  0.023153244          306 
 4715000   0.50091268   -6.1100031    1398.8753  0.024723848  0.023146527          251 
 4716000   0.50177952   -6.1228598    1397.7845   0.02469933    0.0231398          329 
 4717000   0.49943523   -6.1230787     1400.294  0.024738428  0.023133071          309 
 4718000   0.49995826   -6.1140771    1399.6612  0.024722007  0.023126337          391 
 4719000   0.49659169   -6.1171686    1400.3532  0.024728989  0.023119604          378 
 4720000   0.50777733   -6.1396777    1397.0555  0.024665528  0.023112883          281 
 4721000   0.49992417    -6.134467     1396.901  0.024657575  0.023106157          241 
 4722000   0.48771846   -6.1327898    1399.7548  0.024702717  0.023099419          423 
 4723000   0.48256532   -6.1387619    1396.9871  0.024648654  0.023092685          415 
 4724000   0.49663329   -6.1288283    1398.5439  0.024670899  0.023085946          453 
 4725000   0.49076658   -6.1404755    1397.3558  0.024644724  0.023079216          326 
 4726000   0.49213385   -6.1368428    1400.3872   0.02469296  0.023072494          401 
 4727000   0.48983798   -6.1419575    1396.1312  0.024612706  0.023065762          395 
 4728000   0.49595289   -6.1361553    1398.9686  0.024657511  0.023059031          480 
 4729000   0.48989774   -6.1229831    1399.3279  0.024658629  0.023052315          382 
 4730000   0.50133208   -6.1441507     1397.707   0.02462486  0.023045597          437 
 4731000   0.48920048   -6.1443316    1400.3338  0.024665924   0.02303887          482 
 4732000    0.4970434    -6.146083    1399.9771  0.024654428  0.023032142          499 
 4733000   0.48607761   -6.1373775    1397.6004  0.024607373  0.023025421          409 
 4734000    0.4904331   -6.1420572    1397.5814  0.024601841  0.023018715          519 
 4735000    0.4907446   -6.1358462    1399.4236  0.024629067  0.023012018          508 
 4736000    0.4986201    -6.139424    1399.0671  0.024617595    0.0230053          539 
 4737000   0.49168553   -6.1445456    1398.6574   0.02460519  0.022998583          420 
 4738000   0.49269161   -6.1522399    1398.8337  0.024603097  0.022991864          408 
 4739000   0.50052897   -6.1240437    1397.7291  0.024578482  0.022985148          561 
 4740000   0.50205906   -6.1441617    1396.9089  0.024558877  0.022978424          477 
 4741000   0.50377321   -6.1488465    1398.0527  0.024573801  0.022971724          284 
 4742000   0.49572028   -6.1423451    1394.6183  0.024508265  0.022965017          391 
 4743000   0.49715972   -6.1437832    1396.7471  0.024540501  0.022958302          506 
 4744000   0.48941627   -6.1431939    1396.2079  0.024525856  0.022951586          351 
 4745000   0.49765936   -6.1632638    1398.7757  0.024565784  0.022944878          566 
 4746000   0.48920212   -6.1697119    1398.0034  0.024547046  0.022938166          628 
 4747000   0.48505293   -6.1380488    1397.2446  0.024528555  0.022931465          655 
 4748000   0.49087846   -6.1666992    1396.9771  0.024518694  0.022924766          529 
 4749000   0.48033422   -6.1371704    1395.1471   0.02448142  0.022918065          639 
 4750000   0.48889451   -6.1321724    1397.7456  0.024521853  0.022911361          689 
 4751000   0.49318271   -6.1544283    1397.7513  0.024516791   0.02290466          675 
 4752000   0.49087744   -6.1489091    1397.9612  0.024515313  0.022897952          610 
 4753000     0.484647   -6.1521194    1395.8078    0.0244724   0.02289125          714 
 4754000   0.48796764   -6.1594609    1393.2821  0.024422979  0.022884552          649 
 4755000   0.49599762   -6.1468323     1395.963  0.024464827  0.022877851          558 
 4756000   0.48540124   -6.1527062    1394.5841  0.024435523  0.022871146          682 
 4757000    0.4983432   -6.1432006    1397.7918  0.024486577  0.022864445          683 
 4758000   0.47917994   -6.1448822    1397.7108  0.024480013  0.022857744          658 
 4759000   0.49991125   -6.1467255    1399.5925  0.024507819  0.022851054          690 
 4760000   0.49405842   -6.1684192    1395.7562  0.024435508  0.022844362          770 
 4761000   0.49107982   -6.1831217    1396.9025   0.02445044  0.022837662          756 
 4762000   0.48676734   -6.1574531    1397.5883  0.024457307  0.022830963          713 
 4763000   0.49540303   -6.1523934     1397.622   0.02445276  0.022824254          757 
 4764000   0.49481903   -6.1556915    1396.7118  0.024431706  0.022817567          814 
 4765000   0.48751473   -6.1626579    1394.8258  0.024393596  0.022810877          852 
 4766000   0.49456143   -6.1395597    1396.7083  0.024421393  0.022804192          904 
 4767000   0.49272205   -6.1611786     1395.444  0.024394167    0.0227975          840 
 4768000   0.48962006   -6.1610624    1394.8758  0.024379121  0.022790823          848 
 4769000   0.48496717   -6.1458732     1396.009  0.024393811  0.022784144          736 
 4770000   0.48666713   -6.1566295      1396.81   0.02440269  0.022777473          684 
 4771000   0.48468897   -6.1728895     1395.345  0.024371986  0.022770799          751 
 4772000   0.49330338   -6.1553627    1394.7406  0.024356324  0.022764133          748 
 4773000   0.48523951   -6.1537355    1399.9992  0.024443035  0.022757457          848 
 4774000   0.49237573    -6.165232    1394.6739  0.024344956  0.022750786          819 
 4775000   0.47886659   -6.1758561    1395.2585  0.024350062  0.022744108          790 
 4776000   0.50320059    -6.168315    1395.4977  0.024349137  0.022737449          676 
 4777000   0.49000579   -6.1729077    1396.8659  0.024367908  0.022730785          747 
 4778000   0.48729611   -6.1629266    1394.7176  0.024325339  0.022724115          870 
 4779000   0.48599421    -6.170618    1395.3371  0.024331052  0.022717439          863 
 4780000   0.47286645     -6.15607    1397.4181  0.024362241  0.022710771          775 
 4781000   0.48699837   -6.1779204    1395.9289  0.024331187  0.022704096          861 
 4782000   0.49114902   -6.1652958     1396.764  0.024340653  0.022697419          827 
 4783000   0.48642102   -6.1722456    1396.0839  0.024323713  0.022690743          813 
 4784000   0.49078444   -6.1788328    1395.4347  0.024307321  0.022684053          916 
 4785000   0.47743305   -6.1824948    1393.5334  0.024269129  0.022677375          965 
 4786000   0.48600077    -6.175374    1393.2318  0.024258807  0.022670706          999 
 4787000   0.48145397   -6.1849055    1393.2643  0.024254305  0.022664035          956 
 4788000   0.49374076   -6.1651522    1393.7026  0.024256869  0.022657361          981 
 4789000   0.47821074   -6.1661434    1394.2479  0.024261291  0.022650694          997 
 4790000     0.489298    -6.181658    1394.4295  0.024259385  0.022644025          963 
 4791000    0.4868447   -6.1721625    1394.8908  0.024262346  0.022637358          955 
 4792000   0.48034159   -6.1837814    1394.3294   0.02424752   0.02263069          899 
 4793000   0.48965011   -6.1881949    1393.7806  0.024232919  0.022624017          860 
 4794000   0.47198678   -6.1798342    1389.7909  0.024158513   0.02261734          871 
 4795000   0.49560854   -6.1718337    1394.9927  0.024243877  0.022610677          839 
 4796000   0.48015971   -6.1907976    1394.1671  0.024224476  0.022604025          968 
 4797000   0.48911852    -6.184369    1392.1867  0.024185023  0.022597349          987 
 4798000   0.48160402   -6.1754702     1394.265  0.024216079  0.022590688          933 
 4799000   0.47805593   -6.1940509    1389.3809  0.024126222  0.022584038          987 
 4800000    0.4784485   -6.1823846    1395.0992  0.024220472  0.022577377          992 
 4801000   0.47980037     -6.18143    1396.7441  0.024243979  0.022570724          931 
 4802000    0.4805783   -6.1893344    1394.0133   0.02419154  0.022564069          975 
 4803000   0.48640376    -6.193374    1392.6813  0.024163393  0.022557425         1026 
 4804000   0.49186646    -6.179917    1392.6668  0.024158111  0.022550781         1047 
 4805000   0.47823149   -6.1903966    1391.3686  0.024130568  0.022544134         1005 
 4806000   0.47974513   -6.1849989    1393.1739  0.024156851   0.02253748          900 
 4807000   0.47634617   -6.1994222    1394.4347  0.024173682   0.02253083          991 
 4808000    0.4757225    -6.195039    1393.9922  0.024160986  0.022524181         1018 
 4809000   0.48279987   -6.1779554    1393.3877  0.024145486  0.022517541         1032 
 4810000   0.50455333   -6.1902486    1394.3021  0.024156307  0.022510891          970 
 4811000   0.48223466   -6.1834676     1394.355  0.024152203  0.022504255          953 
 4812000   0.49048101    -6.194069    1391.9478  0.024105497  0.022497616          999 
 4813000    0.4790568   -6.2082675    1393.3457  0.024124692   0.02249098          990 
 4814000   0.47836005   -6.1992619    1393.0938  0.024115319  0.022484334          932 
 4815000   0.47746756    -6.185168    1392.8278  0.024105707  0.022477689          960 
 4816000   0.48302474   -6.1893427     1392.278   0.02409119  0.022471058         1035 
 4817000    0.4869169   -6.1922013    1393.7438  0.024111545   0.02246443          987 
 4818000   0.47595406   -6.2118568    1394.6975  0.024123037  0.022457803         1015 
 4819000   0.46764645   -6.1786879    1392.8626    0.0240863  0.022451171         1063 
 4820000   0.48785275   -6.1774705    1394.7956  0.024114724  0.022444552          969 
 4821000   0.48344517   -6.1792026    1391.2226   0.02404796  0.022437929         1083 
 4822000   0.48282252    -6.175207     1393.408  0.024080741  0.022431322         1099 
 4823000   0.47936149   -6.1790991    1391.6948  0.024046146  0.022424724         1090 
 4824000   0.47979352   -6.1718049    1392.0458  0.024047225   0.02241813         1025 
 4825000   0.47564158   -6.1810402    1392.4642  0.024049469  0.022411526         1168 
 4826000   0.48110762   -6.1965632    1393.1458  0.024056254   0.02240493         1171 
 4827000    0.4732431   -6.1894888    1393.9759  0.024065602  0.022398333         1009 
 4828000   0.48280252   -6.1934628    1390.7619  0.024005142  0.022391742         1077 
 4829000   0.47190018   -6.1928778    1391.4773  0.024012516  0.022385141         1162 
 4830000   0.47743845   -6.1980321    1392.2488  0.024020856  0.022378544         1119 
 4831000   0.47622401   -6.1856525    1392.0701    0.0240128  0.022371946         1118 
 4832000   0.48700106   -6.1919739    1392.3036  0.024011858  0.022365346         1136 
 4833000    0.4872241   -6.1748177    1391.6341  0.023995347  0.022358743         1125 
 4834000   0.48293394   -6.1846301    1395.7959  0.024062128  0.022352156         1118 
 4835000   0.47086094   -6.1842414    1392.0884  0.023993251  0.022345572         1193 
 4836000   0.46583323   -6.1847009    1393.3002  0.024009171  0.022338985         1160 
 4837000   0.47642489   -6.1839475    1395.0202  0.024033839  0.022332419         1090 
 4838000   0.49388096   -6.1885156    1392.8978  0.023992314  0.022325833         1146 
 4839000   0.46957339    -6.208893    1391.0779  0.023956015  0.022319246         1249 
 4840000   0.47007883   -6.1904016    1393.0114  0.023984355   0.02231267         1212 
 4841000   0.48791036   -6.2052326    1394.0011  0.023996438  0.022306106         1188 
 4842000   0.47499093   -6.1790065    1395.2866  0.024013606  0.022299536          964 
 4843000   0.47148952   -6.1834037     1392.258  0.023956534  0.022292959         1054 
 4844000   0.47452151   -6.1989985    1391.2195  0.023933723  0.022286386         1158 
 4845000   0.47031562   -6.1837757    1394.0084  0.023976752  0.022279822         1004 
 4846000   0.46817088   -6.1983608    1391.3276  0.023925705  0.022273256         1176 
 4847000   0.48182796   -6.1940079    1391.4041  0.023922083  0.022266695         1176 
 4848000   0.47476264   -6.1862397    1389.9438  0.023892049  0.022260124         1126 
 4849000   0.47758879   -6.1922432    1392.5305  0.023931575   0.02225356         1328 
 4850000   0.48018153   -6.1962676    1394.4521  0.023959658  0.022246987         1257 
 4851000   0.48746251   -6.2037807    1391.8898  0.023910702  0.022240419         1225 
 4852000   0.47555431   -6.2005518    1393.3017  0.023930023  0.022233857         1108 
 4853000   0.47444872   -6.1915676    1391.2394   0.02388968  0.022227299         1266 
 4854000   0.47257678   -6.1989603    1390.4574  0.023871334  0.022220732         1261 
 4855000   0.47484284   -6.1866825    1391.3174  0.023881177  0.022214164         1304 
 4856000   0.48702779    -6.211907    1393.2163  0.023908846  0.022207603         1217 
 4857000   0.46208201   -6.2025157    1391.2676  0.023870489  0.022201041         1188 
 4858000   0.47783327    -6.200961    1390.6552  0.023855071  0.022194488         1297 
 4859000   0.47913887   -6.1979346    1391.4884  0.023864451  0.022187926         1180 
 4860000   0.47014641   -6.2017325    1391.3005  0.023856318  0.022181374         1206 
 4861000   0.47723389   -6.2127259    1390.3407  0.023834956  0.022174824         1272 
 4862000   0.47263113   -6.2073365    1392.1639  0.023861304  0.022168286         1242 
 4863000   0.47904337   -6.1831545    1390.7868  0.023832799  0.022161744         1309 
 4864000    0.4749372   -6.1975923    1390.0593  0.023815435  0.022155195         1319 
 4865000   0.46814447   -6.2019051    1389.6439  0.023803423  0.022148665         1289 
 4866000   0.47233186   -6.2065123    1391.2501  0.023826039  0.022142122         1383 
 4867000   0.47915635   -6.2053187     1392.356   0.02384008  0.022135581         1329 
 4868000   0.47504004   -6.2057764     1390.705   0.02380692  0.022129047         1358 
 4869000   0.47573676   -6.2183718    1391.7663  0.023820193  0.022122508         1328 
 4870000   0.47414973   -6.2241694    1389.4718   0.02377604  0.022115978         1338 
 4871000   0.47132478   -6.2080029    1393.3269  0.023837113  0.022109452         1382 
 4872000   0.47746094    -6.201742    1388.0082  0.023741245  0.022102921         1290 
 4873000   0.46412093   -6.2029709    1392.8241   0.02381873  0.022096396         1323 
 4874000    0.4665288   -6.2099038     1391.133   0.02378493  0.022089872         1312 
 4875000   0.47786088   -6.2063967    1391.1577  0.023780473  0.022083341         1253 
 4876000   0.46236639    -6.215661    1392.1408  0.023792398  0.022076815         1299 
 4877000   0.48182246   -6.2231653    1390.7218  0.023763274  0.022070287         1318 
 4878000   0.47039861   -6.2229674    1388.7837  0.023725292  0.022063765         1328 
 4879000   0.47219385     -6.22224    1391.3757    0.0237647  0.022057242         1313 
 4880000   0.47482332   -6.2074962    1393.6694  0.023798999  0.022050724         1395 
 4881000   0.46170033   -6.2171352    1393.1901  0.023785941  0.022044205         1298 
 4882000   0.46725444   -6.2179069    1395.9645  0.023828426  0.022037688         1323 
 4883000     0.479554   -6.2078773    1388.2807  0.023692414  0.022031171         1427 
 4884000   0.46544328   -6.2079941    1391.0793  0.023735315   0.02202465         1297 
 4885000   0.47094494   -6.1982547    1390.0679  0.023713202  0.022018141         1365 
 4886000    0.4818173    -6.201336    1390.7243  0.023719544  0.022011631         1374 
 4887000   0.47021014   -6.1980579    1390.3418  0.023708167  0.022005138         1318 
 4888000   0.46977716   -6.1981781    1391.4391  0.023722026  0.021998635         1381 
 4889000    0.4877329   -6.2104818    1391.5272  0.023718674  0.021992138         1318 
 4890000   0.46494372   -6.1993604    1389.3833  0.023677288  0.021985633         1289 
 4891000   0.46985278   -6.2116919    1390.2274   0.02368683  0.021979142         1245 
 4892000   0.45892554   -6.2007832    1389.1943  0.023664389  0.021972636         1304 
 4893000   0.46327618    -6.213276    1389.9061  0.023671676  0.021966146         1301 
 4894000   0.46214774   -6.2094933    1393.8439  0.023733891  0.021959653         1259 
 4895000   0.46124671    -6.206007    1390.5039  0.023672181   0.02195317         1329 
 4896000   0.47294954   -6.2216544    1390.5566  0.023668243  0.021946684         1312 
 4897000   0.46879121   -6.2102495    1391.0824  0.023672357  0.021940196         1435 
 4898000   0.46324132   -6.2186394    1392.5329  0.023692203  0.021933711         1379 
 4899000   0.47371209   -6.2221402    1391.9838  0.023678026  0.021927232         1467 
 4900000   0.47257149   -6.1974519    1389.7783  0.023635685  0.021920749         1351 
 4901000   0.47175662    -6.210579    1390.9268  0.023650392   0.02191427         1312 
 4902000   0.46857176   -6.2077446    1390.5396  0.023638985  0.021907791         1403 
 4903000    0.4700622   -6.2104992    1391.3506  0.023647947  0.021901312         1415 
 4904000   0.47181637   -6.2084673    1389.0032  0.023603235  0.021894836         1370 
 4905000   0.46386575    -6.212036    1389.1508  0.023600932   0.02188836         1399 
 4906000   0.47325724    -6.217404    1389.8304  0.023607664  0.021881889         1385 
 4907000   0.46723235   -6.2032042    1388.4556  0.023579505  0.021875424         1445 
 4908000   0.46369555   -6.2330167     1388.614   0.02357739  0.021868945         1443 
 4909000   0.47018492   -6.2135595    1388.4562  0.023569908  0.021862478         1364 
 4910000   0.47475503   -6.2198563    1391.1691  0.023611153  0.021856012         1417 
 4911000    0.4702778   -6.2303362    1389.1026  0.023571278  0.021849538         1437 
 4912000   0.46311071   -6.2397776    1387.3715  0.023537112  0.021843068         1505 
 4913000   0.46649749   -6.2206541    1389.9157  0.023575475  0.021836591         1410 
 4914000   0.46998254   -6.2306613    1388.8267   0.02355221  0.021830116         1425 
 4915000    0.4759696   -6.2318527    1388.9226  0.023549044  0.021823641         1401 
 4916000   0.47045646   -6.2256133    1391.1473  0.023581966  0.021817168         1322 
 4917000   0.46832734   -6.2205508    1389.4749  0.023548825  0.021810693         1489 
 4918000   0.46720499    -6.235571    1389.6879  0.023547646  0.021804229         1462 
 4919000   0.47272093   -6.2168916    1388.3514  0.023520217  0.021797757         1433 
 4920000   0.45922171   -6.2146301    1387.3231   0.02349802  0.021791296         1463 
 4921000   0.47079053   -6.2313664    1388.3439  0.023510531  0.021784835         1518 
 4922000   0.46448328   -6.2237168    1389.6916  0.023528573   0.02177837         1533 
 4923000   0.46167104   -6.2394649    1388.2357  0.023499149  0.021771906         1502 
 4924000   0.47111087   -6.2339474    1389.8435  0.023521586  0.021765453         1450 
 4925000   0.46873862   -6.2179553    1388.4644  0.023493475  0.021759001         1519 
 4926000   0.46318261    -6.232725    1388.6026  0.023491045   0.02175256         1451 
 4927000   0.46417114   -6.2303048     1387.502  0.023467661  0.021746122         1421 
 4928000   0.46628622   -6.2189277    1389.0601  0.023489247  0.021739687         1343 
 4929000    0.4709487   -6.2385116    1387.4502  0.023457264  0.021733245         1428 
 4930000   0.47277355   -6.2068144    1390.5641   0.02350514  0.021726815         1433 
 4931000   0.46030363   -6.2254818    1387.9984  0.023457014  0.021720382         1504 
 4932000   0.45833544   -6.2281989    1389.4487  0.023476762  0.021713953         1453 
 4933000   0.45712353   -6.2263965    1387.7495  0.023443299   0.02170753         1515 
 4934000   0.46140212   -6.2389028    1390.3494  0.023482459  0.021701106         1473 
 4935000   0.46029181   -6.2239371    1389.3968  0.023461614  0.021694689         1382 
 4936000   0.46081131   -6.2411553    1389.1463  0.023452632   0.02168828         1402 
 4937000   0.45953681   -6.2316444    1391.6016  0.023489326  0.021681857         1510 
 4938000   0.46158832   -6.2308692    1387.8439  0.023421154  0.021675436         1481 
 4939000   0.46440641   -6.2311023    1386.2879  0.023390159  0.021669015         1415 
 4940000   0.46691708   -6.2207791    1390.2288  0.023451902  0.021662607         1522 
 4941000   0.47252304   -6.2415927    1387.2074  0.023396198   0.02165619         1471 
 4942000   0.45563572   -6.2289434    1388.0248  0.023405247  0.021649768         1434 
 4943000   0.46544738   -6.2456425    1386.5996  0.023376485  0.021643363         1431 
 4944000   0.46873128   -6.2219262    1387.4727  0.023386473  0.021636955         1534 
 4945000   0.46682489   -6.2350163    1388.3204   0.02339603  0.021630544         1528 
 4946000   0.45482581   -6.2446827    1389.8751  0.023417494  0.021624136         1510 
 4947000   0.46604214   -6.2415521    1387.8825  0.023379195  0.021617723         1483 
 4948000   0.46630706   -6.2443582      1389.21  0.023396827  0.021611312         1449 
 4949000   0.45843662   -6.2449254    1385.5759  0.023330906  0.021604904         1512 
 4950000   0.46073159   -6.2381468    1388.6144  0.023377347  0.021598494         1597 
 4951000   0.46123663   -6.2333955    1389.6865   0.02339067  0.021592089         1515 
 4952000   0.45683464   -6.2200918    1388.2013  0.023360954  0.021585685         1465 
 4953000   0.45862547   -6.2318032    1388.4207  0.023359928  0.021579287         1494 
 4954000   0.45969767   -6.2363022    1386.4866  0.023322678  0.021572886         1498 
 4955000   0.46123285   -6.2455305    1385.8908  0.023307951  0.021566495         1503 
 4956000   0.46231919   -6.2348154    1389.0062  0.023355633  0.021560107         1475 
 4957000   0.46421962   -6.2329469    1387.8123   0.02333085  0.021553721         1394 
 4958000   0.45749517   -6.2342652    1389.4107   0.02335301  0.021547333         1408 
 4959000   0.45746355    -6.228182    1385.9555  0.023290239  0.021540951         1491 
 4960000   0.45301797   -6.2381424    1388.1711  0.023322767  0.021534557         1550 
 4961000    0.4559787   -6.2393797    1389.8656   0.02334653  0.021528165         1453 
 4962000   0.45726647   -6.2382565    1385.6607  0.023271207  0.021521778         1378 
 4963000   0.46140482   -6.2397578    1387.5091  0.023297554   0.02151539         1502 
 4964000   0.46363618   -6.2405266    1389.1984   0.02332122  0.021509005         1455 
 4965000   0.45495676   -6.2403359    1386.7524  0.023275468  0.021502631         1492 
 4966000   0.45665753   -6.2381702    1386.9454   0.02327402  0.021496261         1470 
 4967000   0.43642636   -6.2282037    1386.0484  0.023254286  0.021489887         1472 
 4968000   0.45603161   -6.2571584    1384.7942  0.023228566  0.021483514         1484 
 4969000   0.45290757    -6.253149     1388.376   0.02328396  0.021477139         1552 
 4970000   0.45293872   -6.2371161    1385.7397  0.023235072  0.021470766         1531 
 4971000   0.45084962   -6.2356738    1384.7807  0.023214322   0.02146439         1513 
 4972000   0.45492152   -6.2518986    1386.9988  0.023246829  0.021458019         1493 
 4973000   0.46088568   -6.2413551      1389.37  0.023281889  0.021451643         1562 
 4974000   0.45591181   -6.2543551     1386.094  0.023222323  0.021445276         1511 
 4975000   0.45113154   -6.2554423    1387.5493  0.023242031   0.02143891         1559 
 4976000   0.45981342   -6.2464397    1386.7137  0.023223368   0.02143255         1456 
 4977000   0.46552388   -6.2364554    1386.5866  0.023216573  0.021426188         1375 
 4978000   0.45650276   -6.2579819    1388.3539  0.023241495  0.021419825         1463 
 4979000   0.46198308    -6.256972     1386.528  0.023206267  0.021413469         1516 
 4980000   0.45145947   -6.2635773    1385.9652  0.023192188  0.021407113         1514 
 4981000    0.4569694   -6.2385128    1387.6995  0.023216548  0.021400749         1514 
 4982000   0.46394864   -6.2583797    1385.3867  0.023173203   0.02139439         1499 
 4983000   0.46173383   -6.2513047    1384.9231  0.023160798  0.021388034         1589 
 4984000   0.45156765   -6.2419409    1387.6123  0.023201115  0.021381685         1589 
 4985000   0.46046163   -6.2453062    1387.0186  0.023186537  0.021375328         1555 
 4986000   0.45569449   -6.2481091    1383.7296  0.023126915  0.021368976         1459 
 4987000   0.45207153   -6.2351399    1386.1044   0.02316196  0.021362636         1564 
 4988000   0.44647233   -6.2369421    1383.9284  0.023120964   0.02135629         1480 
 4989000   0.44393149   -6.2459714    1387.5624  0.023177029  0.021349943         1566 
 4990000   0.45204612   -6.2404307    1387.8705  0.023177531  0.021343602         1508 
 4991000   0.46571335   -6.2395957    1386.4535  0.023149227  0.021337263         1465 
 4992000   0.45420401   -6.2537689    1387.6111  0.023163915  0.021330934         1506 
 4993000   0.45288218   -6.2596465     1389.266  0.023186896  0.021324604         1473 
 4994000   0.44941509   -6.2487914    1387.9536  0.023160352  0.021318274         1485 
 4995000   0.44814901   -6.2557989    1387.9082  0.023154959  0.021311951         1475 
 4996000   0.45549683   -6.2498525    1386.6166  0.023128779  0.021305627         1497 
 4997000   0.45498113   -6.2526812    1386.2173  0.023117493  0.021299303         1533 
 4998000   0.45268635   -6.2497197    1385.4388  0.023099886  0.021292981         1483 
 4999000   0.44865944    -6.253398     1385.116  0.023089885  0.021286655         1571 
 5000000   0.44239934   -6.2467203    1388.2207  0.023137011  0.021280338         1536 
 5001000   0.44703421   -6.2492964    1384.9666  0.023078161  0.021274034         1584 
 5002000   0.44809853   -6.2451849    1385.7188  0.023086079  0.021267715         1497 
 5003000   0.45282739   -6.2611881    1386.1353  0.023088402   0.02126141         1536 
 5004000   0.44808055   -6.2638714    1387.3437  0.023103911  0.021255103         1515 
 5005000   0.44731647   -6.2524796    1388.4883  0.023118353  0.021248794         1492 
 5006000   0.44044258   -6.2409121    1387.3447  0.023094698  0.021242496         1457 
 5007000   0.46056076   -6.2450894    1386.3873  0.023074151    0.0212362         1513 
 5008000   0.45574226   -6.2644982    1387.4231   0.02308678  0.021229897         1400 
 5009000   0.45066728   -6.2311035    1389.1028  0.023110116  0.021223599         1569 
 5010000   0.44663416    -6.251917    1386.8685  0.023068338  0.021217305         1499 
 5011000   0.45382884   -6.2535333    1385.9063  0.023047733  0.021211007         1583 
 5012000   0.44624902   -6.2450675    1384.1328  0.023013648  0.021204711         1615 
Loop time of 12767.6 on 48 procs for 5000000 steps with 4000 atoms

Performance: 67671.312 tau/day, 391.616 timesteps/s
99.4% CPU use with 48 MPI tasks x no OpenMP threads

MPI task timing breakdown:
Section |  min time  |  avg time  |  max time  |%varavg| %total
---------------------------------------------------------------
Pair    | 913.26     | 965.59     | 1026.4     |  90.3 |  7.56
Neigh   | 86.442     | 90.146     | 93.316     |  18.2 |  0.71
Comm    | 820.2      | 883.02     | 942.24     | 101.1 |  6.92
Output  | 19.399     | 19.404     | 19.509     |   0.3 |  0.15
Modify  | 10661      | 10690      | 10719      |  12.3 | 83.73
Other   |            | 119.3      |            |       |  0.93

Nlocal:        83.3333 ave          90 max          76 min
Histogram: 1 1 4 2 8 18 6 5 1 2
Nghost:        2370.02 ave        2388 max        2351 min
Histogram: 1 3 5 7 6 10 4 8 3 1
Neighs:        16297.8 ave       18638 max       14243 min
Histogram: 4 6 9 3 4 4 7 3 7 1
FullNghs:      32596.0 ave       35307 max       29539 min
Histogram: 1 1 4 3 10 14 8 3 3 1

Total # of neighbors = 1564607
Ave neighs/atom = 391.15175
Neighbor list builds = 268706
Dangerous builds = 0

#clear
#
#next RN
#
#jump SELF
Total wall time: 3:32:51
