
units lj                  # Use reduced LJ style units
atom_style atomic         # Uncharged point particles
atom_modify map hash      # Needed for indexing of clusters etc
                          # Used to be able to find where atoms are in relation to each other.

lattice fcc 1.0 spacing 1 1 1
Lattice spacing in x,y,z = 1.5874011 1.5874011 1.5874011
region box block 0 10 0 10 0 10 units lattice
create_box 2 box
Created orthogonal box = (0.0000000 0.0000000 0.0000000) to (15.874011 15.874011 15.874011)
  3 by 4 by 4 MPI processor grid
create_atoms 1 box
Created 4000 atoms
  using lattice units in orthogonal box = (0.0000000 0.0000000 0.0000000) to (15.874011 15.874011 15.874011)
  create_atoms CPU = 0.004 seconds
set type 1 type/fraction 2 0.59 78393
Setting atom values ...
  2375 settings made for type/fraction
mass 1 1.0
mass 2 1.0
pair_style lj/cut  3.5
pair_modify tail  yes
pair_coeff 1  1  1.0  1.0   # Intearaction between 1 and 1 set with epsilon = 1 and sigma = 1
pair_coeff 1  2  1.5  0.8
pair_coeff 2  2  0.5  0.88

write_data data.0
System init for write_data ...
Neighbor list info ...
  update every 1 steps, delay 10 steps, check yes
  max neighbors/atom: 2000, page size: 100000
  master list distance cutoff = 3.8
  ghost atom cutoff = 3.8
  binsize = 1.9, bins = 9 9 9
  1 neighbor lists, perpetual/occasional/extra = 1 0 0
  (1) pair lj/cut, perpetual
      attributes: half, newton on
      pair build: half/bin/atomonly/newton
      stencil: half/bin/3d
      bin: standard
WARNING: Not all mixed pair coeffs generated from mixing. Use write_data with 'pair ij' option to store all pair coeffs. (../write_data.cpp:312)


#############################
#   M E L T   S Y S T E M   #
#############################

velocity all create 2.4 6229865 mom yes dist gaussian # Assign velocities
                                                    # Temperature 2.4, random number seed, zero linear momentum
                                                                                # Gaussian distribution

timestep 0.002   # simulation timestep
thermo 1000       # output thermodynamic data every 1000 steps bf 100

# Define a fix  in this case with index 1 applied to all
# particles in the simulation. This fix is for simulations
# in the anisotropic NPT ensemble. Note that we use the MTK
# correction.
fix 1 all npt temp 2.4 2.4 0.1 iso 5.68 5.68 0.5 mtk yes tchain 5 pchain 5 # Use NPT ensemble
                                                                         # Set temperature and pressure and damping
                                                                         # Numbers of thermostats in chain and in barostat
run 10000          # run for 10000 steps
Per MPI rank memory allocation (min/avg/max) = 3.642 | 3.644 | 3.648 Mbytes
Step Temp E_pair E_mol TotEng Press Volume 
       0          2.4   -4.7762807            0   -1.1771807   -4.0862689         4000 
    1000    2.3771555    -4.505377            0  -0.94053517    5.9067242    3609.5332 
    2000    2.3881611   -4.4945154            0  -0.91316927    5.5106681    3641.9274 
    3000    2.3982274   -4.5725303            0   -0.9760886    5.8697508    3574.8459 
    4000    2.3903531   -4.4811535            0  -0.89652017    5.7464615    3632.9606 
    5000    2.3891543   -4.5448596            0  -0.96202419    5.7691977      3589.91 
    6000    2.3971299   -4.5280838            0  -0.93328784    5.7116879    3609.6943 
    7000    2.4237141   -4.5130329            0  -0.87837069    5.9986991    3597.9903 
    8000    2.3825958   -4.5148957            0  -0.94189544    5.6475277     3626.616 
    9000    2.4169591   -4.5303879            0  -0.90585551    6.0123972    3585.1037 
   10000    2.4078515   -4.5183604            0  -0.90748598    5.6109195    3617.3034 
Loop time of 2.68544 on 48 procs for 10000 steps with 4000 atoms

Performance: 643470.523 tau/day, 3723.788 timesteps/s
99.6% CPU use with 48 MPI tasks x no OpenMP threads

MPI task timing breakdown:
Section |  min time  |  avg time  |  max time  |%varavg| %total
---------------------------------------------------------------
Pair    | 1.1999     | 1.2794     | 1.4163     |   3.4 | 47.64
Neigh   | 0.21963    | 0.22702    | 0.24814    |   1.0 |  8.45
Comm    | 0.77878    | 0.90945    | 1.0009     |   4.9 | 33.87
Output  | 0.00027215 | 0.00027722 | 0.00036642 |   0.0 |  0.01
Modify  | 0.21912    | 0.25348    | 0.30408    |   4.3 |  9.44
Other   |            | 0.01579    |            |       |  0.59

Nlocal:        83.3333 ave          97 max          75 min
Histogram: 6 2 6 13 8 7 3 1 1 1
Nghost:        1752.19 ave        1785 max        1727 min
Histogram: 3 4 3 14 5 12 3 2 1 1
Neighs:        10558.0 ave       12520 max        9116 min
Histogram: 2 3 7 10 11 8 2 3 1 1

Total # of neighbors = 506786
Ave neighs/atom = 126.69650
Neighbor list builds = 909
Dangerous builds = 216

# Equilibrate just above the melting temperature to avoid step fn in T

fix 1 all npt temp 1.25 1.25 0.1 iso 5.68 5.68 0.5 mtk yes tchain 5 pchain 5
run 2000
Per MPI rank memory allocation (min/avg/max) = 3.644 | 3.646 | 3.650 Mbytes
Step Temp E_pair E_mol TotEng Press Volume 
   10000    2.4078515   -4.5183604            0  -0.90748598    5.6109195    3617.3034 
   11000    1.2417643   -6.5448068            0    -4.682626    5.6017167    2795.5359 
   12000    1.2596552   -6.6680452            0   -4.7790348    5.4861107    2766.0946 
Loop time of 0.662965 on 48 procs for 2000 steps with 4000 atoms

Performance: 521294.738 tau/day, 3016.752 timesteps/s
99.6% CPU use with 48 MPI tasks x no OpenMP threads

MPI task timing breakdown:
Section |  min time  |  avg time  |  max time  |%varavg| %total
---------------------------------------------------------------
Pair    | 0.29949    | 0.32783    | 0.37088    |   2.5 | 49.45
Neigh   | 0.041886   | 0.044325   | 0.046996   |   0.6 |  6.69
Comm    | 0.19555    | 0.23956    | 0.2747     |   3.2 | 36.13
Output  | 5.2174e-05 | 5.4135e-05 | 7.155e-05  |   0.0 |  0.01
Modify  | 0.040315   | 0.04614    | 0.05163    |   1.6 |  6.96
Other   |            | 0.005054   |            |       |  0.76

Nlocal:        83.3333 ave          90 max          73 min
Histogram: 1 0 1 2 11 10 3 14 2 4
Nghost:        2111.33 ave        2134 max        2094 min
Histogram: 4 4 7 7 4 12 4 0 4 2
Neighs:        13808.5 ave       15655 max       12456 min
Histogram: 3 5 7 7 8 9 4 2 2 1

Total # of neighbors = 662808
Ave neighs/atom = 165.70200
Neighbor list builds = 143
Dangerous builds = 10

#############################
# L I N E A R  Q U E N C H  #
#############################

# Define solid atoms. This closely follows ten Wolde  Ruiz-Montero and Frenkel  Faraday Discuss  1996  104  93-110
# Compute components of the per-atom q6 vector
compute q6 all orientorder/atom degrees 1 6 components 6 nnn NULL cutoff 1.3 # compute the Q6 parameter.
                                                                             # Use all neighbours within 1.3 unit cell.

# get number of connections
compute coord_number all coord/atom orientorder q6 0.5

# An atom is solid if it has 8 or more connections (of a possible 14)
variable is_solid atom c_coord_number>=8
group solid dynamic all var is_solid    # Must be dynamic to update
dynamic group solid defined

# do clustering
compute cluster solid cluster/atom 1.3 # Create a cluster where all atoms within are solid and max 1.3 units from another member

# define chunks one chunk per cluster
compute clus_chunks solid chunk/atom c_cluster nchunk every compress yes  # Says which atoms are in which chunk

# count the size of each chunk
compute size_chunks solid property/chunk clus_chunks count


# Find the maximum entry in the vector of chunk sizes
variable max_n equal max(c_size_chunks)


# Thermo style which includes this variable
# thermo_style custom step temp pe vol v_max_n

thermo ${N}  # Print the thermo information every 100 steps
thermo 1000  

# Reset the npt fix at a lower temperature (below freezing)
fix 1  all npt temp  ${temp} ${temp}  0.1  iso  5.68  5.68  0.5  mtk yes tchain  5  pchain  5
fix 1  all npt temp  0.45 ${temp}  0.1  iso  5.68  5.68  0.5  mtk yes tchain  5  pchain  5
fix 1  all npt temp  0.45 0.45  0.1  iso  5.68  5.68  0.5  mtk yes tchain  5  pchain  5

dump dmp2 all dcd ${N} traj.dcd
dump dmp2 all dcd 1000 traj.dcd


compute msd all msd com yes
variable twopoint equal c_msd[4]/6/(step*dt+1.0e-6)
fix 9 all vector 10 c_msd[4]
variable fit equal slope(f_9)/6/(10*dt)
thermo_style custom step temp pe c_msd[4] v_twopoint v_fit v_max_n

fix 1 all npt temp 1.25 ${temp} 0.1 iso 5.68 5.68 0.5 mtk yes tchain 5 pchain 5
fix 1 all npt temp 1.25 0.45 0.1 iso 5.68 5.68 0.5 mtk yes tchain 5 pchain 5
run 5000000 # 5000000  # Run for this many steps
Neighbor list info ...
  update every 1 steps, delay 10 steps, check yes
  max neighbors/atom: 2000, page size: 100000
  master list distance cutoff = 3.8
  ghost atom cutoff = 3.8
  binsize = 1.9, bins = 8 8 8
  4 neighbor lists, perpetual/occasional/extra = 1 3 0
  (1) pair lj/cut, perpetual
      attributes: half, newton on
      pair build: half/bin/atomonly/newton
      stencil: half/bin/3d
      bin: standard
  (2) compute orientorder/atom, occasional
      attributes: full, newton on
      pair build: full/bin/atomonly
      stencil: full/bin/3d
      bin: standard
  (3) compute coord/atom, occasional
      attributes: full, newton on
      pair build: full/bin/atomonly
      stencil: full/bin/3d
      bin: standard
  (4) compute cluster/atom, occasional
      attributes: full, newton on
      pair build: full/bin/atomonly
      stencil: full/bin/3d
      bin: standard
Per MPI rank memory allocation (min/avg/max) = 9.847 | 9.851 | 9.856 Mbytes
Step Temp PotEng c_msd[4] v_twopoint v_fit v_max_n 
   12000    1.2596552   -6.6680452 1.040902e-30 7.2284856e-33 8.3333333e+20            4 
   13000    1.2320675   -6.7029609   0.49680119 0.0031846229  0.040790177            2 
   14000    1.2286764   -6.6455905   0.94568557 0.0056290806  0.039074774            2 
   15000     1.248792   -6.6853808    1.3468174 0.0074823186  0.037212525            2 
   16000    1.2905372   -6.7000123    1.7220577   0.00896905  0.035464289            3 
   17000    1.2499676   -6.7086025    2.1259599  0.010421372  0.034593646            2 
   18000    1.2518352   -6.6912325    2.5639029  0.011869921  0.034463286            6 
   19000    1.2662018   -6.6658123    3.0166321  0.013230842  0.034733597            2 
   20000    1.2258293   -6.7192031    3.4552575  0.014396906  0.034944406            3 
   21000    1.2528262   -6.6966301    3.9088321  0.015511238  0.035227293            4 
   22000     1.252783   -6.7331943    4.2694213   0.01617205  0.035241357            4 
   23000    1.2665974   -6.6863354    4.7109334  0.017068599  0.035152913            4 
   24000    1.2684204   -6.7387977    5.0979659   0.01770127  0.035195438            1 
   25000    1.2395021   -6.7022953    5.4510324  0.018170108  0.035033535            2 
   26000    1.2634869   -6.7407657    5.9030334  0.018919978  0.034859347            3 
   27000    1.2197828   -6.7400576    6.3163053  0.019494769   0.03485071            3 
   28000     1.247364   -6.7037989    6.7365697  0.020049314  0.034785284            3 
   29000    1.2685624   -6.6676965    7.1803696  0.020633246  0.034759005            3 
   30000     1.237151   -6.6677003    7.5161219  0.020878116  0.034684808            2 
   31000    1.2554844   -6.7145253    8.0890221  0.021744683  0.034695709            4 
   32000    1.2319801    -6.730571    8.5504085  0.022266688  0.034836129            4 
   33000    1.2496352     -6.69445    9.0443037  0.022839151  0.035022096            1 
   34000    1.2418268    -6.655707    9.5523142  0.023412534  0.035193937            4 
   35000    1.2488234   -6.7075392    10.038773  0.023901841  0.035419528            3 
   36000    1.2721437   -6.7274223    10.524051  0.024361229  0.035662559            2 
   37000    1.2498209   -6.7023519    11.080814  0.024956787  0.035907149            2 
   38000    1.2473025   -6.6942458     11.68585  0.025626863  0.036205336            3 
   39000    1.2277203   -6.7254039    12.256068   0.02618818  0.036533444            5 
   40000    1.2536669   -6.6941592    12.654127  0.026362764  0.036839701            1 
   41000    1.2340175   -6.6641473     13.19704  0.026823251  0.037076163            2 
   42000    1.2372057   -6.7278575    13.448083  0.026682704  0.037252211            2 
   43000    1.2469116   -6.7213991    13.891747  0.026921991  0.037375843            2 
   44000    1.2448114   -6.7069134    14.332902  0.027145648  0.037470059            7 
   45000    1.2627506   -6.7342098    14.837972  0.027477725  0.037536085            3 
   46000    1.2353334   -6.7065968    15.295941  0.027710039  0.037600289            4 
   47000    1.2516137   -6.7094292     15.61227   0.02768133  0.037641399            2 
   48000    1.2418748   -6.7191822    15.961017  0.027710099  0.037625512            3 
   49000    1.2439444   -6.7102773    16.343945  0.027795825  0.037600474            3 
   50000    1.2388101   -6.7191389    16.703488  0.027839147  0.037536791            3 
   51000    1.2322649   -6.6471423    17.276581  0.028229708  0.037490894            2 
   52000    1.2518718    -6.698915      17.7125  0.028385416  0.037453464            1 
   53000    1.2023591   -6.7042758    18.160323  0.028553967  0.037414358            3 
   54000    1.2515959    -6.745985    18.562133  0.028645266  0.037387368            2 
   55000     1.232291    -6.727816    18.997901  0.028784699  0.037357281            2 
   56000    1.2440637    -6.750478    19.356849  0.028804835  0.037324953            2 
   57000    1.2230804   -6.7401674    19.926918   0.02913292  0.037291242            3 
   58000    1.2662816   -6.6791924    20.548939  0.029524338  0.037294945            4 
   59000    1.2236103   -6.7332892    21.166375   0.02989601   0.03734248            4 
   60000    1.2605587   -6.7047318    21.680526  0.030111841  0.037402111            2 
   61000    1.2281829    -6.699043    22.098833  0.030189662  0.037467852            2 
   62000    1.2596058   -6.7205605    22.593045  0.030366996  0.037521837            2 
   63000    1.2458123   -6.7293995    22.954227  0.030362734  0.037567647            1 
   64000    1.2637947   -6.7119796    23.456323  0.030542086  0.037591611            3 
   65000     1.248406   -6.7152347    23.924612   0.03067258  0.037626085            1 
   66000    1.2522957   -6.6869579    24.319278  0.030706159  0.037648917            3 
   67000    1.2619842   -6.7206895    24.701476  0.030723229  0.037662324            3 
   68000    1.2335505   -6.7191316    25.218942  0.030905566  0.037668172            2 
   69000    1.2317821   -6.7032149     25.72399  0.031067621   0.03768093            1 
   70000    1.2492502   -6.7207787    25.962143  0.030907313  0.037690416            1 
   71000    1.2374177   -6.7742198    26.260054  0.030821659  0.037683818            4 
   72000    1.2374282   -6.7275159    26.669692  0.030867698  0.037661715            2 
   73000     1.215457   -6.7993728    26.808322  0.030603107  0.037622427            4 
   74000    1.2537317   -6.7491216    27.270656  0.030710198  0.037568164            2 
   75000    1.2512873   -6.7153012    27.742789   0.03082532  0.037519168            1 
   76000    1.2173654   -6.7070232    28.125246  0.030839085  0.037463889            3 
   77000     1.241226   -6.7307726    28.552221  0.030900672  0.037408249            2 
   78000    1.2625695   -6.7013983    28.923571  0.030901251  0.037346727            2 
   79000    1.2433275   -6.7424982    29.211531  0.030813851  0.037281276            3 
   80000    1.2344738   -6.7592208    29.594775  0.030827891  0.037218476            2 
   81000      1.25087   -6.7077829    30.013025  0.030877597  0.037149278            1 
   82000    1.2520538   -6.6707017    30.544334  0.031040989  0.037087691            2 
   83000    1.2785796   -6.7052587     30.99585  0.031120331  0.037035089            1 
   84000    1.2356519   -6.7164614     31.18846  0.030940933  0.036977784            4 
   85000    1.2467027   -6.7120732    31.440283  0.030823806  0.036904866            1 
   86000    1.2335208   -6.7792681    31.780156  0.030794725  0.036831864            2 
   87000    1.2202487   -6.7655728    31.990258   0.03064201  0.036746249            3 
   88000    1.2435354   -6.7276806    32.490351  0.030767378  0.036653405            1 
   89000    1.2248641   -6.7370629    32.746056  0.030661101  0.036566346            1 
   90000    1.2590846   -6.7568394    33.203801   0.03074426  0.036483767            2 
   91000    1.2375853   -6.7743089    33.765256  0.030920564  0.036405389            2 
   92000    1.1947719   -6.7648892    34.135254  0.030919614    0.0363348            2 
   93000    1.2336423   -6.7424938    34.491185   0.03090608  0.036270101            3 
   94000    1.2504461   -6.7339657    34.995042  0.031023973  0.036205425            2 
   95000    1.2526032   -6.7097541    35.604945  0.031232407  0.036148824            2 
   96000    1.2070706   -6.6728535    36.064513     0.031306   0.03610324            3 
   97000    1.2376176    -6.729835    36.038214  0.030960665  0.036053681            3 
   98000    1.2407871   -6.7479973    36.467629  0.031009888  0.035991983            4 
   99000     1.229916   -6.7631128    36.924377  0.031081125   0.03593315            3 
  100000    1.2598791   -6.7366692    37.350935  0.031125779  0.035878169            1 
  101000    1.2041002   -6.6869778    37.896786  0.031267975  0.035819337            4 
  102000    1.2284206   -6.7510681    38.200979   0.03120995  0.035768365            3 
  103000    1.2429254   -6.6886795    38.585793  0.031218279  0.035722068            2 
  104000    1.2386509   -6.7112769    39.144099  0.031365463   0.03567922            5 
  105000    1.2211919   -6.7540463    39.476543   0.03133059  0.035634125            2 
  106000    1.2736391   -6.7538684    39.638082  0.031162014    0.0355915            2 
  107000    1.2093189   -6.7554035     40.32736  0.031407601  0.035556945            1 
  108000    1.2562704   -6.7220212    40.908781  0.031565417  0.035530531            2 
  109000    1.2260142   -6.7422815    41.315795  0.031586999  0.035506949            1 
  110000    1.2441099   -6.7543239    41.706397  0.031595755  0.035484093            1 
  111000    1.2275588    -6.714076    42.394131  0.031827425   0.03546729            2 
  112000    1.2631003   -6.7898475    42.487658  0.031612841  0.035450587            2 
  113000    1.2306521   -6.7486892     43.00539  0.031714889  0.035432663            1 
  114000    1.2330731   -6.7772336    43.259768  0.031622637  0.035415202            3 
  115000     1.229637   -6.7811165    43.595156  0.031590692   0.03539125            2 
  116000    1.2344153   -6.7764503    44.105068  0.031684675  0.035366937            1 
  117000    1.2488965   -6.7864941    44.410246   0.03163123  0.035342181            2 
  118000     1.272655   -6.7336329    44.827039  0.031657513   0.03531699            2 
  119000    1.2384767   -6.7681248    45.253321      0.03169  0.035292734            3 
  120000     1.237643   -6.7520608    45.799982  0.031805543  0.035272648            2 
  121000     1.240497   -6.7157008    46.393558  0.031951486  0.035252083            4 
  122000    1.2385985   -6.6742497    46.712235  0.031907264  0.035239571            6 
  123000    1.2521076    -6.692345    47.087919  0.031902384  0.035226555            3 
  124000    1.2146261   -6.7444956    47.425844  0.031872207  0.035206584            2 
  125000    1.2465932   -6.7400786    47.774461  0.031849641  0.035189277            2 
  126000    1.2542111     -6.74874    48.186168  0.031869159  0.035169745            3 
  127000      1.21107   -6.7458931    48.691963  0.031950107  0.035154045            1 
  128000    1.2159401   -6.7076334    49.257493   0.03206868  0.035143771            9 
  129000     1.206618    -6.790055    49.893059  0.032230658  0.035140506            2 
  130000    1.2285991    -6.757455    50.468161  0.032351385  0.035141906            2 
  131000     1.262886   -6.7042072    51.148327  0.032537104  0.035146529            1 
  132000    1.2182708   -6.7698048    51.368638  0.032429696  0.035153223            2 
  133000     1.200249   -6.7436648    51.786794  0.032447866  0.035161714            2 
  134000    1.2454329   -6.7545531    52.246298  0.032491479  0.035166875            2 
  135000    1.2283832   -6.7368498    52.812727  0.032600449   0.03517182            1 
  136000    1.2658268   -6.7434759    53.289506  0.032652883   0.03518301            2 
  137000    1.2500027    -6.727985    53.814839  0.032734087  0.035196902            2 
  138000    1.2304041   -6.7539833    54.097479   0.03266756  0.035210027            6 
  139000    1.2330756   -6.7451225    54.840316  0.032877887  0.035220286            2 
  140000     1.227933    -6.743754    55.113093  0.032805413  0.035234134            3 
  141000    1.2405795    -6.710805     55.72912  0.032936832  0.035248948            3 
  142000    1.2144244   -6.7575254    55.888701  0.032798533  0.035260801            2 
  143000    1.2452237   -6.7267929     56.63195  0.033002302  0.035278108            1 
  144000    1.2262986    -6.747672    57.118193   0.03305451  0.035296476            3 
  145000    1.2207155   -6.7944855    57.477933  0.033033295   0.03530898            2 
  146000     1.226342     -6.76375    57.779337  0.032979073  0.035323459            6 
  147000    1.2402839   -6.7544722    58.138491  0.032958328  0.035332172            1 
  148000      1.22068    -6.749517    58.233444  0.032789101  0.035339374            3 
  149000    1.2117117   -6.7896993    58.676682  0.032816936  0.035340776            3 
  150000    1.2560113   -6.7804007    59.120625  0.032844792  0.035344824            2 
  151000    1.2310316   -6.7339613    59.870675  0.033041211  0.035350822            2 
  152000    1.2205865    -6.797952    60.030299  0.032911348  0.035358797            2 
  153000     1.243649   -6.7868189    60.459001  0.032929739  0.035362937            3 
  154000    1.2069253   -6.7503031    61.087484  0.033055998  0.035366464            4 
  155000    1.2226405   -6.7161208    61.372109  0.032995757  0.035369692            2 
  156000    1.2275325   -6.7566867    61.505466  0.032855484  0.035368286            2 
  157000    1.2699594   -6.7524393    62.051787  0.032936193  0.035366849            2 
  158000    1.2458029   -6.7894805    62.132356   0.03277023  0.035362794            1 
  159000     1.206307   -6.7978762    62.427227  0.032718672  0.035358602            3 
  160000    1.2535765   -6.7811073    62.758829   0.03268689  0.035352739            1 
  161000       1.2502   -6.7294195    63.159142  0.032691067  0.035342129            3 
  162000    1.2154869    -6.735521    63.309907  0.032566824  0.035327879            2 
  163000    1.2115914   -6.7664628    63.628305  0.032529808  0.035311589            4 
  164000    1.2161626   -6.7473942    64.400603  0.032723884  0.035296124            4 
  165000    1.2226738    -6.762773    64.654546  0.032653811  0.035284195            4 
  166000    1.2122545   -6.8020351    64.958771  0.032609825  0.035272116            2 
  167000    1.2081556   -6.7664919    65.580947  0.032725024  0.035259401            2 
  168000    1.2273712   -6.7963439    65.739701  0.032608978  0.035246011            3 
  169000    1.2220271   -6.7820233    66.199226  0.032642616  0.035229494            6 
  170000    1.2541877   -6.6946181    66.805957  0.032748018  0.035213145            3 
  171000    1.2059016   -6.7812672    66.952921  0.032628129  0.035199927            2 
  172000    1.1831245   -6.7697748    67.460528  0.032684364  0.035186296            1 
  173000    1.2160535   -6.7746871    67.799353  0.032658648  0.035172605            2 
  174000    1.2139173   -6.7520975    68.090953   0.03261061  0.035156957            5 
  175000    1.2297278    -6.730908     68.44923  0.032594871  0.035142406            2 
  176000    1.2141735   -6.7646763    68.758394  0.032556058  0.035124011            2 
  177000    1.2501737   -6.7996551    68.772738  0.032378879  0.035105831            2 
  178000    1.2244289   -6.7378389    69.812277   0.03268365  0.035087944            3 
  179000    1.2333191    -6.749662    70.158033  0.032662026  0.035071904            3 
  180000    1.2139376   -6.7750141    70.410593  0.032597497  0.035054846            2 
  181000    1.2231606   -6.7852115    70.590798  0.032500367   0.03503458            2 
  182000    1.2028665   -6.7466943    71.236146  0.032617283  0.035015083            1 
  183000    1.2142486   -6.7287202    71.351044  0.032491368  0.034994191            2 
  184000    1.2087438   -6.7229105    71.612678  0.032433278  0.034972522            3 
  185000    1.2237251   -6.7459454    72.248636   0.03254443  0.034952571            1 
  186000    1.2336402   -6.7845651    72.421727   0.03244701  0.034931313            2 
  187000    1.1906746   -6.7709378    72.689152   0.03239267  0.034908789            1 
  188000    1.2024333   -6.7912395    72.880552  0.032305209  0.034881745            1 
  189000     1.227989   -6.7718538    73.004336  0.032188861  0.034855939            2 
  190000    1.2202809    -6.756181     73.74625  0.032344846  0.034830275            2 
  191000    1.2086797   -6.7341238    74.094234  0.032327327  0.034805941            2 
  192000    1.1992033   -6.7882784    74.311808  0.032253389  0.034781663            3 
  193000    1.2119634   -6.7392692     75.09655  0.032425108  0.034756641            3 
  194000    1.2426341   -6.7443975    75.298938  0.032344905  0.034731455            2 
  195000    1.2083422   -6.7797013    75.586476  0.032301913  0.034704945            2 
  196000    1.2041518   -6.7862645    75.640719  0.032160169  0.034679536            2 
  197000    1.2196676   -6.7732656    75.887011  0.032101104  0.034650679            8 
  198000    1.2142602    -6.762501    76.120702  0.032037332  0.034620977           10 
  199000    1.2270873   -6.7591656    76.310739  0.031955921   0.03459042            2 
  200000    1.2180226   -6.8188652    76.788496  0.031995206  0.034561436            4 
  201000    1.2309426   -6.7896214    77.178141  0.031997571  0.034531423            2 
  202000    1.2162725   -6.7678946    77.568408  0.032000168  0.034500331            2 
  203000    1.2295604   -6.7907539    77.942137  0.031995951  0.034470253            4 
  204000    1.1974064   -6.7861715    77.981383   0.03185514  0.034436575            5 
  205000    1.2046267   -6.7909802    78.303757  0.031830796  0.034401614            2 
  206000    1.2138678    -6.761532    78.822651  0.031886186  0.034367998            3 
  207000    1.2261191   -6.7774014    78.982753  0.031796599   0.03433532            2 
  208000    1.2059973   -6.7638916    79.399416  0.031810664  0.034302434            2 
  209000     1.208006    -6.779563    79.879246  0.031849779  0.034271733            2 
  210000    1.2335587   -6.8138642    80.033086  0.031759161  0.034240382            1 
  211000    1.2239978   -6.7907829    80.514401  0.031798737  0.034209275            1 
  212000    1.1965869   -6.7721864    81.044753  0.031857214  0.034177853            5 
  213000    1.2186757   -6.7903206    81.624799  0.031934585  0.034148404            2 
  214000     1.212343   -6.7387191    82.027371  0.031942123  0.034119789            2 
  215000    1.2217364   -6.7497549     82.28958  0.031895186  0.034092488            5 
  216000    1.2067081   -6.8230137    82.188401  0.031708488  0.034065281            3 
  217000    1.2195632   -6.7925805    83.080374  0.031904906  0.034039239            1 
  218000    1.2065551   -6.8232004    83.715684  0.032001408  0.034014667            4 
  219000    1.2400027   -6.7775275    84.261256  0.032062883  0.033993027            2 
  220000    1.2327525   -6.7976144     84.56531  0.032032314  0.033971174            3 
  221000    1.2215864   -6.7766587    84.743476  0.031954553  0.033949929            6 
  222000    1.2198198   -6.7961132    85.054681  0.031927433  0.033927651            1 
  223000    1.1781478    -6.783805    85.789275  0.032058772  0.033906555            2 
  224000    1.2055829   -6.8241888     85.69082  0.031879025  0.033884119            3 
  225000    1.2011541   -6.7537787    86.439237  0.032014532  0.033864021            2 
  226000    1.2261235   -6.8167545    86.604794  0.031933921   0.03384041            1 
  227000    1.2146559   -6.7600264    86.946528  0.031918696  0.033818676            2 
  228000    1.2041363   -6.7248376    87.532252  0.031992782  0.033795663            2 
  229000    1.2457069   -6.8382411    87.580574   0.03187066  0.033775023            5 
  230000    1.2193424   -6.7864505    87.968962  0.031872812  0.033753242            2 
  231000    1.2180257   -6.7810614    88.183981  0.031812403  0.033731061            1 
  232000    1.2302535   -6.7893173    88.726916    0.0318703  0.033709474            4 
  233000    1.2086176   -6.8061435    88.634568  0.031700489  0.033686535            3 
  234000    1.2041313   -6.8109864    89.397263  0.031836632  0.033665447            5 
  235000    1.2287219   -6.7617363    90.124979  0.031959212  0.033646366            1 
  236000    1.2324657   -6.8099704    90.117524   0.03182116  0.033627058            5 
  237000    1.2403521   -6.7539592    90.714655  0.031896855  0.033610226            2 
  238000    1.2217503   -6.7826637    91.564619  0.032060441  0.033594181            6 
  239000     1.224518   -6.8039024    91.699082  0.031973181   0.03357921            3 
  240000     1.197584   -6.7518502    92.187406  0.032009516  0.033563466            4 
  241000    1.1958388   -6.7964839    92.306983  0.031918044  0.033547862            2 
  242000    1.2086477   -6.7725409    93.338864  0.032141482  0.033534841            4 
  243000    1.2066506   -6.7781427    93.672397  0.032123593  0.033522681            5 
  244000    1.2371232   -6.8305973    93.592648  0.031964702  0.033511057            2 
  245000    1.2413968   -6.7941525    94.457798  0.032128503  0.033498982            6 
  246000    1.2228249   -6.7829149    95.100401  0.032215583  0.033487476            2 
  247000    1.1926189   -6.8203194    95.298982  0.032152153  0.033476136            3 
  248000    1.2068362   -6.8170464    95.284176  0.032017532  0.033465916            4 
  249000    1.2036977   -6.7960363     96.12124   0.03216909  0.033456677            1 
  250000    1.1853182    -6.789644    96.303516  0.032101172  0.033446653            2 
  251000    1.1942456   -6.7782914    96.687216  0.032100669  0.033436348            3 
  252000    1.2153483   -6.7768192    97.217327  0.032148587  0.033425909            2 
  253000    1.2098871   -6.7983941     97.60548  0.032149367  0.033415739            3 
  254000    1.2078027   -6.7972912    98.360391  0.032270469  0.033407976            2 
  255000    1.1877376   -6.8256298    98.428808  0.032166277  0.033401598            1 
  256000    1.2058333   -6.8282482    99.051199  0.032243229  0.033395721            2 
  257000    1.2150024   -6.7573666    100.11005  0.032461104  0.033391335            2 
  258000    1.2038682    -6.818408    100.30645  0.032398723  0.033388698            3 
  259000    1.1923563   -6.8196506     100.6576  0.032386615  0.033387186            2 
  260000    1.2001302   -6.7984235     101.0684  0.032393718  0.033385259            1 
  261000    1.2366728   -6.8263526    100.99701   0.03224681  0.033384203            3 
  262000    1.2336284   -6.8444961     101.5981  0.032314918  0.033380774            4 
  263000    1.2024573    -6.800373    102.22391  0.032390338  0.033376217            4 
  264000    1.1859494   -6.8317754    102.21417  0.032264574  0.033369837            5 
  265000    1.2055467   -6.7640963    102.74731  0.032310475  0.033363281            2 
  266000    1.2165048   -6.8108056    103.00703  0.032270374  0.033358219            2 
  267000    1.2124067   -6.8349485    103.13771  0.032190298  0.033352302            1 
  268000     1.215588   -6.7848983    103.92496  0.032314975  0.033346988            2 
  269000    1.1860534   -6.7897097    104.03101  0.032227699  0.033342052            1 
  270000    1.2072528   -6.8465927    104.01944  0.032104766  0.033335853            3 
  271000    1.2207979   -6.8045583    104.96755  0.032277845  0.033329736            2 
  272000    1.2072522   -6.8556124    105.17069  0.032221413  0.033323728            3 
  273000    1.2230392   -6.7752577    106.04562  0.032370458  0.033319343            3 
  274000    1.1816177    -6.828476    106.25429  0.032315783  0.033316227            2 
  275000    1.2365592   -6.7656756    106.94396   0.03240726   0.03331498            3 
  276000    1.1806632   -6.7865206    107.44645  0.032441562  0.033313488            2 
  277000    1.1883577   -6.7948077    107.58246   0.03236536  0.033311825            2 
  278000    1.2078282   -6.8184427    108.17072  0.032425276  0.033310328            3 
  279000    1.2081533   -6.7819355    108.44146  0.032389922  0.033309842            2 
  280000    1.1969329   -6.7993188    108.85774  0.032398136  0.033307626            2 
  281000    1.2386772   -6.8035264    108.98052  0.032319252  0.033305493            2 
  282000    1.2211167   -6.8449183     109.3705  0.032319887  0.033303357            8 
  283000    1.2182813   -6.8472241     109.9164  0.032366432  0.033299749            4 
  284000    1.2099862   -6.8040376    110.09499  0.032304869   0.03329576            4 
  285000    1.2070274   -6.8142465    110.82736  0.032405659  0.033292588            4 
  286000    1.2064684   -6.8150436     110.9491  0.032327826  0.033289442            2 
  287000    1.2036943   -6.8300822    111.01902  0.032235488  0.033285225            2 
  288000    1.2178069   -6.8375169     111.7473  0.032334289  0.033281009            3 
  289000     1.221212   -6.8244761    112.29647  0.032380757  0.033276714            1 
  290000    1.1949775    -6.795019     112.2406  0.032253046  0.033273387            1 
  291000    1.2371173   -6.7906275    113.29977  0.032445523  0.033270275            2 
  292000    1.1971087   -6.8007749    113.63906  0.032431239  0.033267756            3 
  293000    1.2223483   -6.8086918    113.80403  0.032367472  0.033263647            4 
  294000    1.2134545   -6.8629571    113.81672  0.032260975  0.033261503            3 
  295000     1.191972    -6.840171    114.58733  0.032369302  0.033259129            2 
  296000    1.1852135   -6.7830305    115.67741  0.032566838  0.033257876            3 
  297000    1.1887795   -6.7917251    115.40291  0.032380167   0.03325596            2 
  298000     1.199788   -6.8056656    116.10508  0.032467863  0.033253575            1 
  299000    1.1901664   -6.8226478     116.2746   0.03240652  0.033251392            3 
  300000    1.2073757   -6.8425234    117.01843   0.03250512  0.033249528            4 
  301000    1.1851671   -6.8121904    117.75004  0.032599678  0.033247897            2 
  302000    1.1973396   -6.8329779    118.05655  0.032576312  0.033247437            3 
  303000    1.2207725   -6.8141434    118.36507  0.032553649  0.033246339            2 
  304000     1.183977    -6.861456    118.63994  0.032521914  0.033247199           11 
  305000    1.2021646   -6.8150542    119.01467  0.032517669  0.033246974            3 
  306000    1.2137849   -6.8112352    119.56994   0.03256262  0.033248365            2 
  307000    1.1801943   -6.8161101     120.6155  0.032740364  0.033250347            5 
  308000    1.1988505   -6.7625612    120.80311  0.032684823  0.033253616            2 
  309000    1.1867942   -6.7916156    121.05418  0.032646758  0.033256869            2 
  310000    1.1850789   -6.8602861     121.3383  0.032617821  0.033259523            4 
  311000    1.1992579   -6.8096062    121.81485  0.032640634  0.033261928            2 
  312000    1.2140774    -6.769808    122.53271  0.032727753  0.033263409            4 
  313000    1.1858853   -6.7623331    123.22235  0.032806803  0.033265964            4 
  314000    1.1872443   -6.8526376    123.14812  0.032682623  0.033269696            4 
  315000    1.1824824    -6.803099    123.25796  0.032607926  0.033272547            2 
  316000    1.2007745   -6.8541894      124.323    0.0327856  0.033276322            4 
  317000    1.1939012   -6.8281589    124.40227  0.032703014  0.033280115            4 
  318000    1.1993777   -6.8668845    124.54956  0.032638773  0.033282666            5 
  319000    1.2039993   -6.8043448     125.5945   0.03280943  0.033285723            2 
  320000    1.2243214   -6.7961052    125.78434  0.032756338  0.033290591            3 
  321000    1.1948429   -6.8321809    126.15139  0.032749583  0.033295323            2 
  322000      1.20678    -6.886055    126.59204  0.032761915  0.033300193            1 
  323000    1.2227834   -6.8421813     127.2177  0.032821905  0.033304733            2 
  324000    1.2035678   -6.8267739    127.22841  0.032723355  0.033308968            1 
  325000    1.1909644   -6.8495172    127.52267  0.032698122   0.03331118            3 
  326000     1.203214   -6.8052201    128.16434  0.032761844   0.03331305            1 
  327000     1.203084    -6.827424    128.44752  0.032733823  0.033315207            3 
  328000    1.2081689   -6.8051936    128.86612  0.032740377   0.03331704            5 
  329000    1.2076055    -6.824867    129.27879  0.032745389  0.033319158            3 
  330000    1.2029928   -6.8539327    129.48594  0.032698469  0.033321159            3 
  331000    1.2042972   -6.8364527    129.90646  0.032705553  0.033322932            2 
  332000    1.1971933   -6.8016939    130.32554  0.032712234  0.033324386            3 
  333000    1.2217521   -6.8023883    130.83836  0.032742332  0.033326931            3 
  334000    1.2045074    -6.840885    130.90061  0.032659832  0.033329108            3 
  335000    1.1971345   -6.8081029    131.65901  0.032750997  0.033331095            3 
  336000    1.1967605   -6.8097358    132.27226  0.032805619  0.033333555            2 
  337000    1.1877275   -6.8629439    132.02289   0.03264661  0.033335069            2 
  338000    1.1886992   -6.8207094    133.54968   0.03292645  0.033337578            1 
  339000    1.1973025   -6.8341609    133.81074  0.032893495  0.033340047            2 
  340000      1.22189   -6.8693725    133.69686  0.032768839  0.033342561            5 
  341000    1.1928472   -6.8664987    134.10865  0.032773374  0.033344697            2 
  342000     1.199708   -6.8622639    134.06097  0.032665929  0.033346084            2 
  343000    1.1577671   -6.8666737     134.7222  0.032731341  0.033347791            2 
  344000    1.2129606   -6.8592221    135.27969  0.032771242  0.033349031            5 
  345000    1.1589898   -6.8088267    136.35333  0.032935588  0.033350305            2 
  346000    1.1755435   -6.8465305    136.35721  0.032841331  0.033351992            2 
  347000    1.2036134   -6.8514602    136.51373  0.032784277   0.03335314            6 
  348000    1.2046183   -6.8607564    136.87418  0.032776384   0.03335381            2 
  349000    1.1966209   -6.8120512     137.2293  0.032767263  0.033354999            2 
  350000     1.197183   -6.8212673    137.66656  0.032777752  0.033356886            2 
  351000    1.2215676   -6.7698947    138.22834  0.032817744  0.033357957            2 
  352000    1.1716235   -6.8027127    138.86235   0.03287461  0.033360031            1 
  353000    1.1800306   -6.8689569    138.21703  0.032629138  0.033361042            3 
  354000    1.2093472   -6.8223628    139.34332  0.032802099  0.033361429            1 
  355000    1.1968369   -6.8840051    138.60559  0.032536522  0.033360635            4 
  356000    1.1898519   -6.8739685    139.43928   0.03264028  0.033358581            3 
  357000    1.1843733   -6.8394664    140.22593  0.032732477  0.033358989            4 
  358000    1.2000233   -6.8280888     140.9049  0.032799093  0.033360669            5 
  359000    1.2178373   -6.8381177    141.27371  0.032793341  0.033361524            3 
  360000    1.1813748   -6.8550016    141.17304  0.032678944    0.0333621            3 
  361000    1.1995423   -6.8156132    142.26023  0.032839388   0.03336305            1 
  362000    1.1931775     -6.83001    142.13004  0.032718701  0.033362869            3 
  363000     1.217337   -6.8366978    142.88239  0.032801283    0.0333632            1 
  364000    1.2154654   -6.8440988    143.23917  0.032792849  0.033364407            2 
  365000    1.1896286   -6.8212616    144.07013  0.032892725  0.033365332            1 
  366000    1.2071169   -6.7961537    143.81878  0.032745624  0.033366559            3 
  367000    1.1769992   -6.8628162    143.66726  0.032621993  0.033366527            5 
  368000    1.1960794   -6.8618448    144.69739  0.032766619  0.033367031            5 
  369000    1.1950111   -6.8562365    144.52294  0.032638425  0.033366446            2 
  370000    1.1984981   -6.8349683    145.11673  0.032683949  0.033365478            4 
  371000    1.2118113   -6.8520024    145.39291  0.032657887   0.03336394            2 
  372000    1.2000284   -6.8519919    145.21318  0.032529834  0.033361375            2 
  373000    1.2053173   -6.8475684    144.99763  0.032394466  0.033358288            3 
  374000     1.201849   -6.8923905    145.57367  0.032436201  0.033354664            2 
  375000     1.199168   -6.8422676    145.93383  0.032429741  0.033350465            6 
  376000    1.1905836   -6.8540055    146.52236  0.032473927  0.033346607            2 
  377000     1.188692   -6.8484418     147.0384  0.032501858  0.033343244            1 
  378000     1.199038   -6.8594028    147.35629  0.032485954  0.033339481            3 
  379000    1.1893125   -6.8684932    147.68634   0.03247281  0.033336108            2 
  380000    1.2285665   -6.8467742    148.04117  0.032465168  0.033332592            2 
  381000    1.2024824   -6.8735449    148.49196  0.032478556  0.033329389            3 
  382000    1.2083646   -6.8388427    148.85649  0.032473057  0.033325386            1 
  383000    1.1808761   -6.8597984    148.34488  0.032276954  0.033319336            2 
  384000    1.2057055   -6.8627653     149.4756  0.032438282  0.033313604            3 
  385000     1.187094   -6.8512811    149.48347   0.03235573  0.033308745            3 
  386000     1.176471   -6.8706937    149.53086  0.032282137  0.033302973            2 
  387000    1.1756095   -6.8352508    150.52851  0.032413546  0.033297013            6 
  388000    1.1993463   -6.8250969    150.53877  0.032332209  0.033292144            4 
  389000    1.1893261   -6.8436087    151.16951  0.032384214  0.033286365            1 
  390000     1.201865   -6.8242435    151.31353  0.032331951  0.033280189            3 
  391000      1.22325   -6.8708385    151.27712    0.0322415  0.033273291            2 
  392000    1.1919238   -6.9070647    151.47829  0.032202018  0.033266712            4 
  393000    1.1700174   -6.8445977    151.99025  0.032228637  0.033258954            1 
  394000    1.1978187   -6.8693558    152.39098  0.032231594  0.033251422            6 
  395000     1.194097   -6.8500581    152.37809  0.032147277  0.033243932            2 
  396000    1.1830588   -6.8588709     153.2112  0.032241413  0.033236648            4 
  397000    1.1794782   -6.8841894    153.01503  0.032119024  0.033228527            4 
  398000    1.1822216   -6.8999878    153.64416   0.03217005   0.03321982            3 
  399000    1.1735443   -6.8758807    153.90988  0.032144921  0.033211351            2 
  400000    1.2010469   -6.8690233    154.75002  0.032239587  0.033202781            3 
  401000     1.173419   -6.8978555    154.79889  0.032169345  0.033195161            4 
  402000    1.1826857   -6.8694922     155.0889  0.032149439  0.033186989            4 
  403000    1.1970101   -6.8602431     155.5399  0.032162923  0.033178727            2 
  404000    1.2030519   -6.8548201    156.03828  0.032186113  0.033170391            1 
  405000    1.1927553   -6.9255977    155.55067  0.032006311  0.033161094            2 
  406000    1.1839997   -6.8843264    156.10648  0.032041559  0.033152597            3 
  407000    1.2055945   -6.8465019    157.26645  0.032200338  0.033143998            3 
  408000    1.1444749   -6.8597582     156.7545  0.032016851  0.033135365            3 
  409000    1.2008562   -6.8227217    157.58192  0.032107156  0.033127717            3 
  410000    1.1763449   -6.8593689    158.00767   0.03211538    0.0331206            2 
  411000    1.1856188    -6.861591    157.73983  0.031982934  0.033111655            4 
  412000    1.1683346    -6.918722     157.9586  0.031949555  0.033102687            4 
  413000    1.1785957   -6.8652499    158.51197  0.031983852  0.033093109            4 
  414000    1.1799225    -6.920633    158.54975    0.0319142  0.033082793            4 
  415000    1.1852457   -6.8930221     159.3545  0.031998895    0.0330726            5 
  416000    1.1758781   -6.8780817     159.0661  0.031864202  0.033063038            2 
  417000    1.1892536   -6.8686165    159.34316  0.031843157  0.033052432            3 
  418000     1.161535   -6.8525789    160.52049  0.032001692  0.033041228            2 
  419000    1.1975845   -6.8463466     160.6353  0.031948149  0.033031555            2 
  420000    1.1736929   -6.8448863    161.38454  0.032020743  0.033021669            6 
  421000    1.1955431   -6.8590094    161.36262  0.031940343  0.033011947            3 
  422000    1.1688293   -6.8105036    161.80866  0.031952738  0.033003105            4 
  423000    1.1921459   -6.9054356    161.57424  0.031831017  0.032993206            1 
  424000    1.1897483   -6.8997868     162.1064  0.031860534  0.032983313            6 
  425000    1.1532427   -6.8385477    162.63884  0.031889968    0.0329736            3 
  426000    1.1562546   -6.8869557    163.30397   0.03194522  0.032964089            3 
  427000    1.1605521   -6.8517601    163.81231  0.031969616  0.032955122            4 
  428000     1.185927   -6.8979994    164.03933  0.031939122  0.032946122            3 
  429000    1.2020584   -6.8485053    164.64732  0.031982773  0.032936988            2 
  430000    1.1936673   -6.8908145    164.87038  0.031951624   0.03292869            3 
  431000    1.1559167   -6.8861646    165.63032  0.032024423  0.032919973            2 
  432000    1.2006435   -6.8592718    165.25689  0.031878258  0.032910846            3 
  433000    1.1757158   -6.8823516    165.81103  0.031911283  0.032901409            2 
  434000    1.1639993   -6.8694982    165.69378  0.031815242   0.03289213            2 
  435000    1.1780298   -6.8532702    166.55693  0.031907457   0.03288191            3 
  436000    1.2006239   -6.8925894    165.74887   0.03167983  0.032870681            2 
  437000    1.1966043   -6.8768806    166.37793  0.031727295    0.0328592            5 
  438000    1.1800988   -6.8576117      167.364  0.031842465  0.032848793            3 
  439000    1.1827704   -6.8908988    166.80431  0.031663689  0.032838024            5 
  440000     1.188819   -6.8430312    167.38718  0.031702117  0.032827128            3 
  441000    1.1812503   -6.9049809    167.33281  0.031619956  0.032816248            4 
  442000    1.1791527   -6.8499354    168.43257  0.031755763  0.032805454            5 
  443000    1.1808481   -6.8773558    168.29073  0.031657399  0.032793742            5 
  444000    1.2102276   -6.9440483    167.29886  0.031399936   0.03278142            2 
  445000    1.1950947   -6.8535059    168.70252  0.031592232   0.03276964            1 
  446000    1.1817893   -6.8849942    168.81304  0.031542049  0.032756783            2 
  447000    1.1784931   -6.8761908    169.59196  0.031616697  0.032744289            2 
  448000    1.1941488   -6.9103727    169.58756  0.031545306  0.032731699            4 
  449000    1.1838583   -6.8722548    169.24515  0.031411498  0.032718404            2 
  450000    1.1520266   -6.8645851    170.24313  0.031526506  0.032704836            3 
  451000    1.2044826   -6.9061646    170.47583  0.031499599  0.032690948            2 
  452000    1.1895305   -6.9486347    169.62322  0.031272718  0.032676999            8 
  453000    1.1637157   -6.9119929    170.38253  0.031343364  0.032663077            2 
  454000    1.1709014   -6.8510131    171.14735  0.031414713  0.032649541            3 
  455000    1.1831231   -6.8677326    172.09192  0.031518666  0.032636108            2 
  456000    1.1404034    -6.908399    171.15273  0.031277912  0.032622395            3 
  457000    1.1623542   -6.8431799    171.81359  0.031329977  0.032608538            1 
  458000    1.2053631   -6.8993432    172.22459  0.031336352  0.032594274            3 
  459000    1.1654847   -6.8803717    172.80064  0.031372665  0.032580727            2 
  460000    1.1543728   -6.8986357    173.15162  0.031368047   0.03256728            1 
  461000    1.1799063   -6.9009441    173.23264   0.03131465  0.032553878            7 
  462000    1.1685664   -6.8678075    173.76007  0.031342004  0.032540368            3 
  463000    1.1469038    -6.934262    173.76211  0.031274677  0.032526755            8 
  464000    1.1778556   -6.8751178     174.9083  0.031413128  0.032513511            3 
  465000    1.1790748   -6.8724699    174.67408  0.031303598  0.032501613            3 
  466000    1.2133696   -6.8644337    175.15965  0.031323256  0.032489388            3 
  467000    1.1875524   -6.9005947    176.54112  0.031502699  0.032477881            3 
  468000    1.1805899   -6.8788452    176.32179   0.03139633  0.032465847            4 
  469000    1.2029215   -6.8866333    176.19252  0.031306419  0.032454077            3 
  470000    1.1835958   -6.9147856    176.66483  0.031323552  0.032442262            3 
  471000    1.1686179   -6.8694559    177.40609  0.031388196  0.032430483            2 
  472000    1.1806216   -6.9066372    177.18834  0.031283252  0.032418382            3 
  473000    1.1744079    -6.901568    177.67968  0.031303679   0.03240587            4 
  474000    1.1697722   -6.9016405    177.81671  0.031261728  0.032393711            2 
  475000    1.1929297   -6.9445436    177.68071  0.031172055   0.03238085            2 
  476000    1.1570249   -6.8937463      178.506  0.031251051  0.032367926            1 
  477000    1.1660417   -6.8467875     179.7919  0.031410185  0.032356166            3 
  478000    1.1516399   -6.8692813    179.67484  0.031324066  0.032344851            1 
  479000    1.1675194   -6.8849037    179.46306  0.031221827  0.032332876            3 
  480000    1.1798795   -6.8983363    179.67077  0.031192841  0.032320616            4 
  481000    1.1607381   -6.8913235    180.13976  0.031209244  0.032308218            5 
  482000    1.1518886   -6.8815958    180.13195  0.031143145  0.032295058            8 
  483000    1.1780899   -6.8664589    180.80277  0.031194405  0.032282441            2 
  484000     1.149026   -6.8686974    181.85676  0.031311426  0.032269962            5 
  485000    1.1791227    -6.896099     181.4494  0.031176874  0.032257356            4 
  486000    1.1753801    -6.894699    181.27303  0.031082481  0.032245016            1 
  487000    1.1353643   -6.9095856    181.31419  0.031025699  0.032231946            2 
  488000    1.1697531   -6.8778315    182.21088  0.031115246  0.032218775            3 
  489000    1.1793476   -6.9375833    182.13068  0.031037949  0.032206141            6 
  490000    1.1823678   -6.8804911    182.81542  0.031091057   0.03219313            1 
  491000    1.1923825   -6.8973792     183.1976    0.0310926   0.03218092            1 
  492000    1.1518404   -6.8715088    183.72289  0.031118376  0.032167927            1 
  493000     1.166727   -6.8874218    183.52059  0.031021059  0.032154617            2 
  494000    1.1797106   -6.9087131    183.89607  0.031021604  0.032140975            3 
  495000    1.1728816   -6.8787638    184.26807  0.031021561  0.032128145            2 
  496000    1.1866522   -6.8760884    185.47297  0.031161453  0.032115557            4 
  497000    1.1746833   -6.8990628    185.16713  0.031047473  0.032102526            2 
  498000    1.1694023   -6.8973862    185.48039  0.031037548  0.032089771            4 
  499000    1.1523958   -6.9213813    185.58715  0.030993177  0.032077545            7 
  500000    1.1736035   -6.9066545     185.9122  0.030985367  0.032064802            1 
  501000    1.1665064   -6.9002551    186.29838  0.030987755  0.032051663            2 
  502000    1.1848159    -6.921328    186.20684  0.030910831  0.032038679            2 
  503000    1.1699382   -6.8816837    186.78182  0.030944636  0.032025181            2 
  504000    1.1641332   -6.8815635    187.86144  0.031061747  0.032012647            3 
  505000     1.174088   -6.8771572    188.76618  0.031149535  0.032001008            3 
  506000    1.1746931   -6.8973453    188.79252  0.031092312  0.031989332            3 
  507000    1.1841839   -6.8757331    188.93102  0.031053751   0.03197782            1 
  508000    1.1844675   -6.8940929    188.48716   0.03091981  0.031966089            2 
  509000    1.1575046   -6.8944744    189.70587  0.031058591  0.031955261            3 
  510000      1.15484   -6.9080605    189.44777  0.030955518  0.031944491            4 
  511000    1.1537357   -6.8944382    190.57621  0.031078965  0.031934495            2 
  512000    1.1893778   -6.9207435    191.12202    0.0311071  0.031924507            2 
  513000    1.1462474   -6.8563322    192.09696  0.031204835  0.031914941            4 
  514000    1.1511943   -6.8734974    192.04977  0.031136474   0.03190542            3 
  515000    1.1899603    -6.876566    193.08116  0.031242907  0.031896435            1 
  516000    1.1863632   -6.8813286    193.27818  0.031214176  0.031887457            4 
  517000    1.1489874   -6.8752677    192.86582  0.031087334  0.031877452            2 
  518000    1.1500818   -6.8953206    193.30788  0.031098436  0.031867149            2 
  519000    1.1607795   -6.9079019    193.52534  0.031073433  0.031857086            1 
  520000    1.1644612   -6.9418756    193.30838  0.030978906  0.031847338            3 
  521000    1.1742593   -6.9249915    194.38624  0.031091849  0.031837838            2 
  522000    1.1916841   -6.9158537    194.86136  0.031108136  0.031828284            2 
  523000    1.1569445   -6.8785524    195.64035  0.031172777  0.031819043            3 
  524000    1.1493476   -6.9279835    195.23947  0.031049534  0.031809777            2 
  525000    1.1588499   -6.9332264    195.31511  0.031002399  0.031800474            6 
  526000    1.1635247   -6.8546995     196.4476  0.031122876    0.0317906            6 
  527000    1.1508645   -6.8878031    195.84614  0.030968713  0.031781152            4 
  528000    1.1666811   -6.9346394    195.69637  0.030886422   0.03177111            3 
  529000    1.1659348   -6.9347983    196.25725  0.030916391  0.031760391            1 
  530000    1.1809227   -6.9026313    197.17566  0.031002463  0.031749999            3 
  531000    1.1855201   -6.9539145    197.24171  0.030954443  0.031739716            3 
  532000    1.1853085   -6.9324321    197.08772  0.030872137  0.031729587            2 
  533000    1.1605564   -6.9001841    198.17902  0.030984838   0.03171945            3 
  534000    1.1533366   -6.8922412    198.82116  0.031027022  0.031710409            2 
  535000    1.1737593   -6.9259377    198.49972   0.03091896   0.03170082            2 
  536000    1.1495757   -6.9034363    199.25097  0.030978073  0.031690977            3 
  537000    1.1831055   -6.9254972    198.79304  0.030849324  0.031681325            5 
  538000    1.1616577   -6.8933868    199.76563  0.030942631  0.031671655            1 
  539000    1.1690484   -6.9377347    199.66941  0.030870349  0.031661527            1 
  540000    1.1476179   -6.8840015    200.15556  0.030888203  0.031652416            5 
  541000    1.1872632   -6.9218259    200.30486  0.030854107  0.031642562            4 
  542000    1.1537162   -6.9097445     200.6436  0.030849262  0.031632876            2 
  543000    1.1894404   -6.8779599    201.56955  0.030934554  0.031623888            4 
  544000    1.1648806   -6.9077544    201.16249  0.030815332   0.03161478            3 
  545000    1.1803952   -6.9265063    202.23232  0.030922373  0.031605771            4 
  546000     1.145637   -6.9148102     203.2689  0.031023947  0.031597691            4 
  547000    1.1772248   -6.9113342    203.58382  0.031015207  0.031589062            3 
  548000     1.173682   -6.9532224    202.83879  0.030845315  0.031580867            3 
  549000    1.1461585    -6.927801    203.79874  0.030934843  0.031572297            3 
  550000    1.1448347   -6.9484688    203.89759  0.030893575   0.03156376            1 
  551000    1.1712888   -6.8911399    204.16925  0.030878592  0.031555273            5 
  552000    1.1885404   -6.8782805    205.03607  0.030953513  0.031546509            5 
  553000    1.1638906   -6.9316485    204.97049  0.030887657  0.031538146            3 
  554000    1.1603705   -6.9501174    205.29754  0.030881098  0.031528987            1 
  555000    1.1587907   -6.9347087     205.1745  0.030806982  0.031520301            2 
  556000    1.1443911   -6.8823799    206.74485  0.030986938  0.031512915            5 
  557000    1.1650634   -6.9573988    205.88489  0.030802647  0.031504577            5 
  558000    1.1562068   -6.8960217     207.4266  0.030977688  0.031496482            3 
  559000     1.179068   -6.9406884    206.98366   0.03085624  0.031488414            2 
  560000    1.1613517   -6.9626457    207.30558  0.030849044  0.031480839            4 
  561000    1.1552369   -6.9125925    208.38729  0.030954736  0.031472965            1 
  562000    1.1672817   -6.9387099    208.68141  0.030943269  0.031465292            3 
  563000    1.1598218   -6.9637295    209.85661  0.031062257  0.031457996            2 
  564000    1.1434324   -6.9222336    209.98178  0.031025676  0.031450955            3 
  565000    1.1661308   -6.9558579    209.79497   0.03094321  0.031444291            3 
  566000    1.1577193   -6.9098768    211.23964  0.031101243    0.0314383            5 
  567000    1.1449492   -6.9407508    210.85529  0.030989901  0.031431868            2 
  568000    1.1520647   -6.9374656    211.47907  0.031026859  0.031425389            3 
  569000    1.1626104   -6.9484401     210.8072  0.030873931  0.031418872            3 
  570000    1.1548374   -6.9194752    212.15742  0.031017166  0.031412164            4 
  571000     1.140401    -6.938083    211.59103  0.030880186   0.03140559            4 
  572000    1.1511048   -6.9419699    212.81779  0.031004922  0.031398984            2 
  573000    1.1647965   -7.0072705    211.92211  0.030820551  0.031392288            1 
  574000    1.1465955   -6.9290378    213.12412  0.030941364  0.031385447            1 
  575000    1.1562659   -6.9664735    213.33435  0.030918021  0.031378505            3 
  576000    1.1695608   -6.9750626    212.84111  0.030792984   0.03137134            1 
  577000    1.1941495   -6.9316353     213.8231  0.030881441  0.031364295            3 
  578000    1.1521653   -6.9122589    215.04357  0.031003974  0.031357147            2 
  579000    1.1846103   -6.9579392    213.83797   0.03077691  0.031349683            3 
  580000    1.1559447    -6.924092    214.30553  0.030791025  0.031342284            3 
  581000    1.1459373   -6.9532355    214.30924   0.03073856  0.031334998            3 
  582000    1.1553786   -6.9481208    214.93554  0.030775421  0.031327272            3 
  583000    1.1456635   -6.9754886    216.15787  0.030897351  0.031320002            2 
  584000    1.1640554   -6.9118819    216.85704  0.030944212  0.031313232            4 
  585000    1.1670908   -6.9757426    215.68846  0.030724852  0.031306374            2 
  586000    1.1619469   -6.9922491    216.94198  0.030850679   0.03129934            3 
  587000    1.1697719   -6.9781831    217.04409  0.030812619  0.031293059            2 
  588000    1.1684573   -6.9163453    218.39086  0.030951086  0.031286815            2 
  589000     1.165888   -6.9487195    218.20787  0.030872647  0.031280294            4 
  590000    1.1632394   -6.9402613    219.42425  0.030992126  0.031273914            4 
  591000     1.161833   -6.9043086    219.56826  0.030959992  0.031268222            7 
  592000    1.1719269   -6.9264346    220.91261  0.031096933  0.031263255            2 
  593000    1.1651454   -6.9232253    221.19501  0.031084178  0.031258241            3 
  594000    1.1683881   -6.8869712    221.52672  0.031078384  0.031253022            1 
  595000    1.1401482   -6.9462603    221.09275   0.03096537  0.031248112            3 
  596000    1.1651159   -6.9505963    221.67464  0.030994777  0.031242779            2 
  597000    1.1469263   -6.9463985    221.90832  0.030975477  0.031237769            2 
  598000    1.1450834   -6.9809179    221.54727  0.030873365  0.031232334            1 
  599000    1.1436521   -6.8992675    222.77881  0.030993157  0.031226749            4 
  600000    1.1810507   -6.8932248    222.96744    0.0309677   0.03122154            4 
  601000     1.158124   -6.9912231    222.60133  0.030865409  0.031215623            3 
  602000    1.1704716   -6.9557191    222.06075  0.030739307  0.031209408            2 
  603000     1.179539   -6.9929835     221.9951  0.030679257  0.031202756            6 
  604000    1.1553357   -6.9334028    223.04438  0.030773231  0.031196563            2 
  605000    1.1515531   -6.9604555    223.44759  0.030777905  0.031189251            3 
  606000     1.158521   -6.9364396     223.3938  0.030719719  0.031182105            3 
  607000     1.159573   -6.9628483    224.00665  0.030753246  0.031175282            2 
  608000    1.1403646   -6.9300085    223.86133  0.030682748  0.031168404            3 
  609000    1.1712648   -6.8866738    225.74253  0.030889782  0.031161312            2 
  610000    1.1679748    -6.973251    224.46751  0.030664961  0.031154357            3 
  611000    1.1639898   -6.9649575    225.43318  0.030746479  0.031147175            4 
  612000    1.1620286   -6.9588492    225.26125  0.030672828  0.031139924            3 
  613000    1.1609483   -6.9561667    226.15253  0.030743954  0.031132823            3 
  614000    1.1396267   -7.0034495    225.39667  0.030591296  0.031125452            3 
  615000    1.1869565   -6.9579551    225.80673  0.030597118  0.031117986            2 
  616000    1.1357962   -6.9418932    226.87138  0.030691474  0.031110821            3 
  617000     1.150851   -6.9297131    227.14053  0.030678084  0.031103583            3 
  618000    1.1597251   -6.9624231    226.50177   0.03054231  0.031096421            2 
  619000      1.14821   -6.9219302    227.62023  0.030643542  0.031088957            6 
  620000    1.1289276   -6.9198149    227.79874   0.03061811  0.031082131            2 
  621000    1.1594915   -6.9566831    228.01822  0.030598259  0.031074635            3 
  622000    1.1416713   -6.9383682    227.89459  0.030532501   0.03106723            5 
  623000    1.1363587   -6.9686888    228.02209  0.030500547  0.031059401            4 
  624000    1.1461949   -6.9815812    227.70358  0.030409133  0.031051514            2 
  625000    1.1275859   -6.9648346    228.93949  0.030525266  0.031043486            2 
  626000    1.1529843   -6.9637552    228.92255  0.030474248  0.031035451            2 
  627000    1.1778075   -6.9888968    228.57861  0.030379932  0.031027461            6 
  628000    1.1655951   -6.9742973    229.74367  0.030486156  0.031019701            2 
  629000    1.1539778   -6.9586778    229.87158  0.030454634  0.031011583            1 
  630000    1.1557878   -6.9140467    230.66981  0.030511879  0.031003668            3 
  631000     1.134444   -6.9150713    230.57882  0.030451509  0.030995404            3 
  632000    1.1397037   -7.0190275    230.20786  0.030354412  0.030987198            3 
  633000    1.1530735   -6.9795745    231.85372  0.030523133  0.030978864            1 
  634000    1.1416081   -6.9747456     231.0737  0.030372463  0.030970762            3 
  635000    1.1370924   -6.9151869    232.42249  0.030501639  0.030963053            2 
  636000    1.1674489    -6.968447    232.34407  0.030443405  0.030955284            4 
  637000    1.1434845   -6.9561014    233.74636  0.030579064  0.030947352            6 
  638000    1.1386655   -6.9413523    233.63475  0.030516556  0.030939206            4 
  639000    1.1518512   -6.9404116    233.70244  0.030477626  0.030930925            3 
  640000    1.1410668   -6.9794478    233.74477  0.030435518   0.03092321            3 
  641000    1.1614568   -6.9797075    233.55731  0.030363664  0.030915474            5 
  642000    1.1429868   -7.0364799    233.24973  0.030276445  0.030907845            3 
  643000    1.1501305   -6.9765883    234.23016  0.030356422   0.03090014            3 
  644000    1.1432279   -6.9829395    234.94358  0.030401602  0.030892665            3 
  645000    1.1426457    -6.972595    235.64635  0.030445265  0.030885157            6 
  646000    1.1693804   -6.9133399    236.38094  0.030492897  0.030877694            2 
  647000    1.1630056    -6.982247    235.86892   0.03037982  0.030870329            1 
  648000    1.1604611    -6.983077    236.47118  0.030410389   0.03086296            2 
  649000    1.1365614    -6.964141    236.49908  0.030367114  0.030855494            4 
  650000     1.132761   -6.9997874    237.03287  0.030388829  0.030848326            5 
  651000    1.1338385   -6.9531444    238.21403  0.030493348  0.030840678            3 
  652000    1.1570447    -7.006944    236.37125  0.030211049  0.030832779            4 
  653000    1.1495698   -6.9887082    236.82814  0.030223091  0.030824722            3 
  654000    1.1584171   -6.9603544    238.13668  0.030343613   0.03081682            4 
  655000    1.1518643   -6.9098933    239.36703   0.03045382  0.030809279            1 
  656000    1.1575398   -6.9763008    238.21703   0.03026131  0.030801539            3 
  657000    1.1445888    -6.960163    239.12251    0.0303301  0.030793476            4 
  658000    1.1366543   -6.9656092    238.67713  0.030227599   0.03078573            2 
  659000    1.1440456   -6.9854668    239.28997  0.030259228  0.030777696            3 
  660000    1.1244477   -7.0187324     239.4722  0.030236389  0.030769744            3 
  661000    1.1385306   -6.9911044    239.53983  0.030199172  0.030762256            3 
  662000    1.1371085   -6.9932232    240.48762  0.030272863  0.030754306            3 
  663000    1.1465378   -6.9647284    241.17244  0.030313278  0.030746258            2 
  664000    1.1506918   -6.9907393    241.24037   0.03027615  0.030738695            2 
  665000    1.1279299   -6.9834693    241.30863  0.030239177  0.030731261            4 
  666000    1.1193167    -6.988199    241.41136  0.030206627   0.03072334            3 
  667000    1.1496181   -6.9571715    242.94331  0.030352737  0.030715649            4 
  668000    1.1392861   -6.9695944    242.36646  0.030235336   0.03070769            3 
  669000    1.1287067   -6.9515879     242.3527  0.030188428  0.030699278            2 
  670000    1.1585114   -6.9599297    243.40982  0.030274853  0.030691714            5 
  671000    1.1508116   -6.9558599    243.79534  0.030277612  0.030684418            3 
  672000    1.1396952     -6.99457     243.6574  0.030215451  0.030676622            4 
  673000    1.1527792    -6.984498    243.55551  0.030157938  0.030668614            3 
  674000    1.1552169   -6.9997625    243.84059   0.03014844  0.030660743            4 
  675000    1.1185052   -6.9060138    245.69669  0.030332925  0.030653345            2 
  676000    1.1319416   -7.0027874    244.39395  0.030127459  0.030645715            2 
  677000    1.1526282   -6.9695322    244.93884   0.03015003  0.030637945            3 
  678000    1.1257105   -6.9736076    245.93839  0.030228416  0.030630604            2 
  679000    1.1477153   -6.9630244    245.58161  0.030140109  0.030623052            1 
  680000    1.1595496   -7.0123863    245.25446  0.030055694  0.030614725            1 
  681000     1.152437   -6.9570121    246.23366  0.030131382  0.030606605            1 
  682000    1.1460342   -6.9463237    245.44413  0.029990729  0.030598482            4 
  683000    1.1293355   -6.9667709    246.53079  0.030079403  0.030589646            3 
  684000    1.1352472   -7.0155303    246.43219  0.030023414  0.030581266            2 
  685000    1.1360697   -6.9879608     246.0206  0.029929513  0.030572547            7 
  686000    1.1255336   -7.0090245    246.95178  0.029999002  0.030563859            4 
  687000    1.1345459   -7.0138476    246.66826  0.029920944   0.03055495            3 
  688000    1.1370189   -7.0243839    247.41289  0.029967647  0.030545689            3 
  689000    1.1355749   -6.9351176    248.43785   0.03004812  0.030536936            3 
  690000    1.1051959   -6.9753834    248.41212  0.030001463  0.030528276            5 
  691000    1.1358887   -6.9751643    248.88803   0.03001544  0.030519447            4 
  692000    1.1278261   -6.9742687    249.87106  0.030090446   0.03051109            3 
  693000    1.1429264   -7.0008773    249.56427  0.030010133  0.030502787            2 
  694000    1.1459259   -6.9588785    250.20821  0.030044214  0.030494534            3 
  695000    1.1500901   -6.9684802    250.30232  0.030012269  0.030486369            2 
  696000    1.1346443   -7.0006348    249.82147  0.029911574  0.030477458            3 
  697000    1.1553392   -6.9180301    251.51339  0.030070946  0.030469149            3 
  698000    1.1446265   -7.0092537     251.2194  0.029992765  0.030460983            3 
  699000    1.1332437   -6.9657882    251.57786  0.029992592  0.030452564            1 
  700000    1.1220976   -6.9915269    251.56876  0.029948662  0.030443973            2 
  701000    1.1514748   -6.9805664    251.83585   0.02993769  0.030435917            3 
  702000    1.1547549   -6.9763072    252.22736  0.029941519  0.030427626            2 
  703000    1.1366807   -6.9830131    252.02419  0.029874845  0.030419392            4 
  704000    1.1370003   -7.0118359    252.75167  0.029918521  0.030411019            3 
  705000    1.1379874   -6.9893608    253.16408  0.029924832  0.030402978            5 
  706000    1.1303949   -7.0083939    253.37464    0.0299073  0.030394596            3 
  707000      1.14549   -6.9964705    253.58105  0.029889327  0.030386469            3 
  708000    1.1615401   -6.9878393    254.13913  0.029912798  0.030378394            4 
  709000    1.1521599   -6.9722753    254.73446  0.029940581  0.030370247            1 
  710000     1.119505   -6.9688658     254.6595  0.029889613  0.030362281            8 
  711000    1.0997871    -6.962293    255.12888  0.029902588  0.030354518            2 
  712000    1.1379012   -7.0385943    254.54345   0.02979207  0.030346344            4 
  713000    1.1550013   -7.0142141    255.68093  0.029883231  0.030338211            6 
  714000    1.1401846   -6.9796296    256.00925  0.029879697  0.030330316            2 
  715000    1.1250108   -7.0131931    255.91071  0.029826424  0.030322498            3 
  716000    1.1320852   -7.0256936     257.4586   0.02996492  0.030314669            4 
  717000    1.1179603   -6.9624318    257.25496  0.029899461  0.030307084            3 
  718000    1.1342931   -6.9799131    258.20074  0.029967589  0.030299323            8 
  719000    1.1151885   -6.9942053    257.03237  0.029790493  0.030291347            4 
  720000    1.1176125   -6.9464647    259.62814  0.030049553  0.030283766            2 
  721000    1.1541597      -7.0133    258.41859  0.029868076  0.030276488            2 
  722000    1.1638298   -6.9950815     257.9667   0.02977455  0.030268735            2 
  723000    1.1452657   -6.9707317    259.38456  0.029896791  0.030260837            2 
  724000    1.1181974   -7.0005405    259.33649  0.029849965  0.030252843            5 
  725000     1.150329    -7.019575    260.29461   0.02991892  0.030244998            2 
  726000    1.1355607   -6.9743702    260.25127  0.029872735   0.03023705            6 
  727000    1.1187292   -7.0100969     260.3108  0.029838469  0.030229692            2 
  728000    1.1452847   -7.0054508    260.53011  0.029822586  0.030221994            2 
  729000    1.1538245   -7.0342358    260.55337  0.029784336  0.030214581            5 
  730000    1.1270989   -6.9697165    262.09405  0.029919412  0.030207486            1 
  731000    1.1261493   -6.9575894    262.98346  0.029979874  0.030200493            3 
  732000    1.1305878    -7.010051    261.58929  0.029780202  0.030193082            3 
  733000    1.1399548   -7.0623304    261.47021  0.029726036  0.030185259            2 
  734000    1.1049781   -7.0059835    262.71607  0.029826983    0.0301777            2 
  735000    1.1289656   -7.0010003    263.16422  0.029837213  0.030170519            4 
  736000    1.1622964   -6.9906571     264.4349  0.029940546  0.030163652            4 
  737000    1.1430681   -6.9790221    263.72345  0.029819476  0.030156576            5 
  738000    1.1277549   -7.0397202    264.11048  0.029822773  0.030149366            3 
  739000    1.1202427   -6.9723675    265.08098  0.029891856  0.030142219            2 
  740000    1.1264906   -7.0059705    264.84891  0.029825327  0.030135004            4 
  741000    1.1371552   -7.0245446    263.71035  0.029657034   0.03012733            2 
  742000    1.1333239   -6.9661852    266.17773  0.029894174  0.030120358            5 
  743000     1.133346    -7.004582    265.97088   0.02983074    0.0301138            2 
  744000    1.1397384   -7.0263362    266.18711  0.029814865  0.030107091            2 
  745000    1.1010654   -7.0050353    266.46634  0.029806079  0.030100086            3 
  746000    1.1493233   -6.9887595    266.30378  0.029747964  0.030093294            2 
  747000    1.1334612   -7.0362661    266.24059  0.029701092  0.030086449            3 
  748000    1.1108878   -6.9976079    267.12631  0.029760061  0.030079138            8 
  749000    1.1385064   -7.0051813    267.17368  0.029725598  0.030072012            4 
  750000    1.1565861   -7.0116201    268.08673  0.029787415  0.030064954            3 
  751000    1.1452359   -7.0391866    267.51254  0.029684036  0.030057546            4 
  752000    1.1362187   -7.0255371    267.67676  0.029662762  0.030050179            2 
  753000    1.1163527   -7.0193765    268.58923   0.02972435  0.030042927            3 
  754000    1.1206552   -7.0482152    267.17338  0.029528447  0.030035746           12 
  755000    1.1266574   -7.0447968    268.52595  0.029638626  0.030027917            3 
  756000    1.1444125   -7.0202146     269.1928  0.029672927  0.030020337            3 
  757000    1.1227469   -6.9988606    270.56964  0.029785297  0.030013299            3 
  758000    1.1250267    -7.057434    268.74192  0.029545066  0.030006125            5 
  759000    1.1501377    -7.027387    269.08178  0.029543454  0.029998432            3 
  760000    1.1241446   -6.9759099    270.15976   0.02962278  0.029991077            2 
  761000    1.1478306   -7.0419337    269.96915  0.029562982  0.029983839            2 
  762000    1.1294722   -7.0355607    270.18341  0.029547616  0.029976124            1 
  763000    1.1465533   -7.0577204    270.24513  0.029515632  0.029968433            1 
  764000    1.1255765   -7.0379254    270.70995    0.0295277  0.029960296            3 
  765000    1.1328962   -7.0387303    271.88702  0.029617322  0.029952411            2 
  766000    1.1356042   -6.9959681    271.41936   0.02952778  0.029944735            2 
  767000    1.1485067   -7.0716521    271.25753  0.029471701  0.029936912            3 
  768000    1.1474111   -6.9964122    273.10682  0.029633987  0.029929306            3 
  769000    1.1127583   -7.0532882    272.87999   0.02957087  0.029921934            2 
  770000    1.1415609   -6.9891993    273.50126  0.029599704  0.029914481            2 
  771000    1.1105679   -7.0208268    274.08895  0.029624832   0.02990723            2 
  772000    1.1387278   -7.0715592    273.45746  0.029518293   0.02990031            6 
  773000    1.1151822   -7.0109909    274.29773  0.029570691  0.029893431            6 
  774000    1.1410738   -7.0692817    273.58888  0.029456167  0.029886449            2 
  775000    1.1362606   -7.0264634    274.41626  0.029507124  0.029878849            2 
  776000    1.1125685   -6.9972158    274.07637    0.0294326  0.029871259            1 
  777000    1.1258942    -7.004724     275.5354  0.029551201  0.029863666            2 
  778000    1.1212341   -6.9834231    276.33794  0.029599179   0.02985642            3 
  779000     1.124421   -6.9804401    275.94287  0.029518921  0.029849773            2 
  780000    1.1252109   -7.0020481    275.99404  0.029486543  0.029842861            2 
  781000    1.1094323   -7.0242438     276.8093  0.029535777  0.029835894            5 
  782000    1.1024749   -7.0076719    277.58218  0.029580368  0.029828613            4 
  783000    1.1249108   -6.9798391     278.0475  0.029592114  0.029821759            6 
  784000     1.150301   -7.0261464    278.00327  0.029549667  0.029814821            4 
  785000    1.1273973   -6.9861025    279.05332  0.029623495  0.029807809            2 
  786000    1.1257497   -7.0347801    276.94305  0.029362071   0.02980079            3 
  787000    1.1402421   -7.0106982    278.36642  0.029475479  0.029793245            1 
  788000    1.1228529   -7.0257526     278.4527  0.029447197  0.029786084            4 
  789000    1.1251455    -7.028796    278.11413  0.029374116  0.029778924            2 
  790000    1.1027202   -7.0360893     278.9706  0.029427279  0.029771286            4 
  791000     1.113315   -7.0215307    278.40169   0.02933014  0.029763421            4 
  792000    1.1120301   -6.9914238    279.85137  0.029445641  0.029755332            2 
  793000     1.104788   -7.0563985    278.68063   0.02928548   0.02974728            3 
  794000    1.1330083   -7.0604827    278.24072  0.029202426  0.029738933            5 
  795000    1.1042571   -7.0580911    279.56055   0.02930404  0.029730325            3 
  796000    1.1338545   -7.0338531    279.96322  0.029309382  0.029722079            4 
  797000    1.1200845   -6.9981959    281.02524  0.029383651  0.029713824            2 
  798000     1.129849   -7.0407626     278.6776  0.029101671  0.029705595            3 
  799000    1.1386609   -7.0082812    280.79726  0.029286323  0.029696928            3 
  800000    1.1022513   -7.0201215    280.59624  0.029228775  0.029688512            4 
  801000    1.1218986   -6.9986731    281.38924  0.029274786  0.029680028            3 
  802000    1.1436806   -7.0012035    281.62009   0.02926227  0.029671322            2 
  803000    1.1169746   -7.0189917    281.26121  0.029188586   0.02966294            2 
  804000    1.1056593   -7.0786495    281.14634  0.029140376  0.029654209            3 
  805000    1.1099225    -7.008461    282.26991  0.029220488  0.029645715            3 
  806000    1.1032429   -7.0006685    282.40604  0.029198309  0.029637252            2 
  807000    1.1408432   -7.0561762    281.21646  0.029039287  0.029628844            2 
  808000    1.0937253   -7.0506115    281.86454  0.029070188  0.029619794            3 
  809000    1.1282574   -7.0363234     282.7785  0.029128399  0.029610965            1 
  810000     1.102262   -7.0232056     282.6849  0.029082809  0.029601641            3 
  811000    1.1250517   -7.0572274    282.96298  0.029075522  0.029592785            5 
  812000     1.146774   -7.0698919    282.18448   0.02895982  0.029583848            2 
  813000     1.113708   -7.0471299    283.01787  0.029009622  0.029574997            4 
  814000    1.1199008   -7.0429867    282.97077  0.028969161  0.029565912            4 
  815000    1.1379296   -7.0932209    284.45009  0.029084876  0.029556839            4 
  816000    1.1352838   -7.0369856    284.87985  0.029093122   0.02954833            4 
  817000    1.1322179   -7.0656011    284.80173  0.029049544   0.02953968            3 
  818000    1.1382812   -7.0551215    285.52473  0.029087687  0.029531084            4 
  819000    1.1187709   -7.0011368    285.92558  0.029092957  0.029522574            8 
  820000    1.1199995   -7.0004703    286.89396  0.029155891  0.029514364            3 
  821000    1.1082629   -7.0441794    286.04355   0.02903406  0.029506417            3 
  822000    1.1119246    -7.017153    286.38019  0.029032866  0.029498442            4 
  823000    1.1146681   -7.0693675    287.65527  0.029126698  0.029489987            3 
  824000    1.1167982   -7.0523652    286.69508  0.028994243  0.029481538            3 
  825000      1.11205   -6.9842364    289.04821  0.029196788  0.029473428            6 
  826000     1.108826   -7.0428845     287.7421  0.029029671    0.0294651            4 
  827000    1.1196835   -7.0298898    287.95804  0.029016329  0.029457194            3 
  828000      1.09676   -7.0506851    289.72261  0.029158877  0.029449316            3 
  829000    1.1063459   -7.0177361    290.62938  0.029214855  0.029441695            6 
  830000    1.1115446   -7.0561783    288.90004  0.029006029  0.029433995            2 
  831000    1.1066554   -7.0866704    289.18203  0.028999401  0.029425882            3 
  832000    1.1211206   -7.0178202    289.74576   0.02902101  0.029417236            2 
  833000    1.1187103   -7.0359437    289.95993  0.029007596  0.029408932            5 
  834000    1.1111467   -7.0316916    289.97536  0.028974357  0.029400662            6 
  835000    1.0935713   -7.0875087    289.48842   0.02889106  0.029391989            5 
  836000    1.1223696   -7.0791594    289.68215  0.028875812  0.029383459            3 
  837000    1.1350218   -7.0381131    290.71865  0.028944509  0.029374814            2 
  838000    1.1116421   -7.0532126    291.45552  0.028983246  0.029366516            2 
  839000    1.1030041   -7.0182903    291.89028  0.028991884    0.0293582            2 
  840000    1.1255517   -7.0603568    291.30602  0.028899406  0.029349677            3 
  841000    1.1285326   -7.0477681    291.32264  0.028866691   0.02934131            3 
  842000    1.1174963   -7.0289146    291.95842  0.028895331  0.029332652            3 
  843000     1.110317   -7.0911384    291.46704  0.028812479   0.02932375            2 
  844000    1.1188164   -7.0773506    291.72276   0.02880359  0.029314844            2 
  845000    1.1472835   -7.0228608    293.02932  0.028898355  0.029306466            2 
  846000    1.1046764     -7.04315    293.15446  0.028876522  0.029298002            3 
  847000    1.0876837   -7.0703841    293.32154  0.028858869  0.029289446            3 
  848000    1.1116806   -7.0299431    293.38691  0.028831261  0.029280969            2 
  849000    1.1260403   -7.0568682    294.01521  0.028858972   0.02927232            4 
  850000    1.1303316   -6.9948071    294.89265  0.028911044  0.029264131            2 
  851000    1.1216957   -7.0095533    294.69286  0.028857506  0.029255952            4 
  852000       1.1333   -7.0637438      294.755  0.028829714  0.029247329            4 
  853000    1.1317963   -7.0389541     294.6376  0.028784447  0.029238697            1 
  854000    1.1322264   -7.0146556    295.67545  0.028852015  0.029230195            7 
  855000    1.1139383   -7.0241732    295.76759  0.028827251  0.029221585            4 
  856000    1.1292261   -7.0408346    295.32645  0.028750628  0.029212874            1 
  857000    1.0970802   -7.0554095    295.55887   0.02873968  0.029204351            2 
  858000    1.1110129   -7.0404298    296.18166  0.028766673  0.029195841            2 
  859000    1.1068698   -7.0936025    296.25131  0.028739941  0.029187452            3 
  860000    1.1156259   -7.0699155    296.30567  0.028711789  0.029178884            3 
  861000    1.1004825    -7.032352    297.00404  0.028746035  0.029170516            2 
  862000     1.113047   -7.0298545    297.79726  0.028789372  0.029162151            2 
  863000    1.1141221   -7.0600324    298.22404  0.028797223  0.029153965            4 
  864000    1.0787783   -7.1001649      297.851  0.028727913  0.029145528            3 
  865000    1.1070303   -7.0643651    297.60554  0.028671054  0.029137334            4 
  866000    1.0840689   -7.0469616    299.08638  0.028780445  0.029129226            6 
  867000    1.1234025   -7.0620187    299.46699  0.028783832  0.029121108            3 
  868000    1.1237912   -7.0271922    299.45553  0.028749571  0.029112778            2 
  869000    1.1086948    -7.069042    299.14724  0.028686924  0.029104784            7 
  870000    1.1229807   -7.0523688    300.04339  0.028739788   0.02909667            2 
  871000    1.1284202   -7.0873383     300.1488  0.028716877   0.02908841            3 
  872000    1.1325809   -7.0223364    300.78676  0.028744912  0.029080222            3 
  873000     1.119017   -7.0968276    299.87469  0.028624922  0.029071903            3 
  874000    1.1103541     -7.08351    299.95514  0.028599841  0.029063399            3 
  875000    1.0940034   -7.0386863    301.56671  0.028720639  0.029055217            3 
  876000    1.1138525   -7.0582491    302.26178  0.028753975  0.029046831            3 
  877000    1.1233713   -7.0702042    301.26193  0.028626181  0.029038431            3 
  878000    1.0929305   -7.1206392    300.99006  0.028567773  0.029030075            2 
  879000    1.1080486   -7.1143386    302.16061  0.028646247  0.029021399            2 
  880000    1.1162137   -7.0512664     301.3303  0.028535067  0.029013269            3 
  881000    1.0922505   -7.0827597    302.76092  0.028637998   0.02900469            2 
  882000     1.106921   -7.0450608    303.52185  0.028677423  0.028996652            5 
  883000     1.144189   -7.0804422    303.38704  0.028632223  0.028988717            3 
  884000    1.1128025   -7.0519075    303.02818  0.028566004  0.028980535            3 
  885000    1.1278595   -7.0380516    303.95839  0.028621318  0.028972292            2 
  886000    1.1047072   -7.0723292    303.66879  0.028561774  0.028964044            2 
  887000    1.0968888   -7.1003033    303.36354  0.028500896  0.028955732            3 
  888000    1.1019349   -7.0514874    304.24448  0.028551472  0.028947218            3 
  889000     1.099488   -7.0513273    305.01659  0.028591731  0.028938795            5 
  890000    1.0899748   -7.0351769    305.51385  0.028606166  0.028930232            4 
  891000    1.1185297   -7.0964822    303.77083  0.028411039  0.028921591            4 
  892000    1.1091187   -7.0800809    304.63148  0.028459593  0.028913121            4 
  893000    1.1009877   -7.1034004    304.89402  0.028452223  0.028904577            5 
  894000    1.1031162   -7.0090777    306.05474  0.028528592  0.028895639            3 
  895000    1.0989364   -7.0665469    305.59739  0.028454133  0.028887089            3 
  896000      1.11538   -7.0050537    306.79943  0.028534174  0.028878452            7 
  897000    1.0912824    -7.101765    305.34918  0.028367631  0.028869702            5 
  898000     1.088777   -7.0361203    306.96354  0.028485852  0.028860713            4 
  899000    1.1565705   -7.0716022    307.16703  0.028473029   0.02885201            9 
  900000    1.1272031   -7.0811063    305.63522  0.028299557  0.028843367            2 
  901000    1.1016136   -7.0788086    307.55133  0.028445369  0.028834538            8 
  902000    1.1138987   -7.0460735     306.9127  0.028354832  0.028825637            2 
  903000    1.0948738   -7.1041242    307.65859  0.028392266  0.028817035            2 
  904000    1.0973911   -7.0705699    308.21713  0.028412346  0.028808207            4 
  905000    1.1036759    -7.080005    307.66477  0.028330089  0.028799619            4 
  906000    1.0888645   -7.0130365    308.69284  0.028393381  0.028790997            3 
  907000    1.1032774   -7.1227235    308.06354  0.028304258   0.02878233            9 
  908000    1.0964018   -7.1075172    308.07913  0.028274516   0.02877324            3 
  909000    1.1152048    -7.093388    309.32064  0.028357227  0.028764276            2 
  910000    1.0881916   -7.0449085    309.65454  0.028356643  0.028755509            2 
  911000     1.091226   -7.0630239    309.97672  0.028354987  0.028746795            4 
  912000    1.1081576   -7.1046195    308.94538  0.028229659  0.028737744            1 
  913000    1.1171089   -7.0649169    310.12583  0.028306484  0.028728941            3 
  914000    1.0909014   -7.0678016    310.51203  0.028310725  0.028720113            3 
  915000    1.0913334   -7.0704622    311.20967  0.028343322  0.028711934            3 
  916000    1.1224842   -7.1015488    310.52879  0.028250436  0.028703413            7 
  917000    1.1016559   -7.0720926    311.22193  0.028282618  0.028695247            3 
  918000    1.0795966    -7.079871    311.21883  0.028251528  0.028686786            3 
  919000    1.1364101   -7.0739792      312.254  0.028314653  0.028678276            4 
  920000    1.0970523   -7.1014416    311.47073  0.028212929  0.028669817            1 
  921000    1.1306903    -7.051302    313.17958  0.028336915  0.028661511            2 
  922000    1.1005655   -7.0633394    312.64182  0.028257576  0.028653173            3 
  923000    1.1423438   -7.0661231    312.93673  0.028253587  0.028644636            7 
  924000    1.1118159   -7.0315143    313.21009  0.028247663  0.028636288            3 
  925000     1.084339   -7.0846494    312.82272  0.028182227  0.028627979            2 
  926000    1.1136585   -7.0515974    313.76372  0.028236476  0.028619755            2 
  927000    1.0973249    -7.068388    314.52285  0.028274258  0.028611428            2 
  928000    1.1178151   -7.0862604    313.77413  0.028176556  0.028603095            4 
  929000    1.0871735    -7.037708     315.0088  0.028256979  0.028594986            3 
  930000    1.0930999    -7.100138    315.81212  0.028298577  0.028586725            3 
  931000    1.1042872   -7.1150535    314.38678    0.0281406  0.028578309            4 
  932000    1.1041856   -7.0451017    315.33161  0.028194887  0.028569735            2 
  933000    1.1157373   -7.1017201    315.08798  0.028142907   0.02856126            5 
  934000    1.0610175   -7.0665835    316.49532   0.02823834  0.028552965            1 
  935000    1.1045753   -7.0952326     316.3319  0.028193574  0.028544719            8 
  936000    1.1056376   -7.1131422    315.40461  0.028080895  0.028536442            1 
  937000    1.1256137   -7.0661813    315.43401  0.028053541   0.02852795            3 
  938000    1.1418341   -7.1103772    316.06632  0.028079808  0.028519263            3 
  939000    1.1031733   -7.1300863     316.1627  0.028058457   0.02851074            2 
  940000    1.0886574   -7.0823838    317.60446  0.028156424  0.028502187            6 
  941000    1.1119218   -7.1199534    316.70238  0.028046615  0.028493731            2 
  942000     1.083807   -7.0330458    318.71646  0.028195016  0.028485542            4 
  943000    1.1169779   -7.0403178    319.07049  0.028196402  0.028477424            3 
  944000    1.0898959   -7.0613373    318.93895  0.028154921  0.028469054            4 
  945000    1.0855794   -7.0776932    318.44209  0.028081313  0.028460676            3 
  946000    1.1114833   -7.1318982    318.08838   0.02802047  0.028452311            2 
  947000    1.1053858   -7.0959847    318.72669  0.028047051  0.028443629            3 
  948000    1.1078373   -7.0917121    318.28016  0.027978214  0.028435141            4 
  949000    1.1072596   -7.1575866    318.42741  0.027961662  0.028426337            3 
  950000    1.0883844   -7.1115856    318.36938  0.027927139  0.028417877            2 
  951000    1.1053674   -7.1242021    319.11029  0.027962696  0.028409574            3 
  952000    1.1089784    -7.102239    319.92135   0.02800432  0.028400798            5 
  953000    1.1065496   -7.1111676    319.61512  0.027948156  0.028392291            4 
  954000    1.1085465    -7.088443    320.09117  0.027960445  0.028383943            9 
  955000    1.1048649   -7.1113963    320.74828  0.027988506  0.028375206            8 
  956000    1.0982998   -7.0831394    321.89096  0.028058835  0.028366623            5 
  957000    1.0811244   -7.1136087    320.29651  0.027890675  0.028358216            2 
  958000    1.0991882    -7.120285    321.23032   0.02794279  0.028349419            9 
  959000    1.1029674   -7.0982514    321.46792  0.027934299  0.028340925            2 
  960000    1.1159921   -7.1163223     321.6642   0.02792224  0.028332524            6 
  961000    1.1117799    -7.071576    322.55454   0.02797039   0.02832422            5 
  962000    1.0998881    -7.086515    323.30897  0.028006667  0.028315832            3 
  963000    1.0939794   -7.0796216     322.7281  0.027927319  0.028307642            4 
  964000    1.1016735   -7.1331118    322.46746  0.027875817  0.028299037            4 
  965000    1.0965094    -7.083463    323.81026   0.02796289  0.028290428            1 
  966000    1.1134907   -7.1092221    322.87518  0.027853277   0.02828205            2 
  967000    1.0833295   -7.0725204    323.94114  0.027916334  0.028273562            2 
  968000    1.0914843   -7.1477462    323.78835  0.027874341  0.028265305            3 
  969000    1.0934385   -7.1082372     324.2533  0.027885561  0.028256735            6 
  970000    1.1057442   -7.1158327    324.86824  0.027909643  0.028248362            3 
  971000    1.0847959   -7.0742663    325.13563  0.027903847   0.02823984            2 
  972000    1.0819128   -7.0983941    323.83191  0.027763367  0.028231445            4 
  973000    1.0926893   -7.0960371    325.22053  0.027853762  0.028222688            2 
  974000    1.1045752   -7.1136387    325.14399  0.027818616  0.028213686            6 
  975000    1.0671437   -7.0943039     325.9255  0.027856881   0.02820486            4 
  976000    1.0924367   -7.1066836    325.34404  0.027778692  0.028196047            3 
  977000    1.1091891   -7.0831481    326.61057  0.027858288  0.028187374            1 
  978000    1.0947406   -7.1003564    327.03722  0.027866157   0.02817861            3 
  979000    1.1161188   -7.0941761    327.95322  0.027915664  0.028170082            5 
  980000    1.0743989    -7.114458    327.27951   0.02782989  0.028161457            6 
  981000    1.1029744   -7.1449618    326.22111  0.027711613  0.028152687            2 
  982000    1.0946248   -7.1095338    325.98182  0.027663087  0.028143705            3 
  983000    1.1095416   -7.1427939    325.70088  0.027611129  0.028134812            7 
  984000    1.0818597   -7.0938214    327.38973  0.027726095  0.028126059            3 
  985000    1.0836108    -7.121944    327.70627  0.027724727  0.028117114            6 
  986000    1.0923748   -7.1181742    327.44178  0.027674255  0.028108044            9 
  987000    1.0724751   -7.1358906    327.46287  0.027647996   0.02809931            3 
  988000    1.0757601   -7.0950476    327.74365  0.027643695  0.028090382            2 
  989000    1.1094937   -7.1102556    327.30634  0.027578896  0.028081345            5 
  990000     1.080292   -7.0877042    328.74515  0.027672151   0.02807251            2 
  991000    1.1202146   -7.1157009    329.22955   0.02768496  0.028063693            2 
  992000    1.0917945   -7.1378351    329.21608  0.027655921  0.028054962            5 
  993000    1.1180725   -7.1343572    329.31258  0.027636168  0.028046471            4 
  994000    1.0968474   -7.0530207    331.04597  0.027753686  0.028037871            2 
  995000    1.0746876    -7.129033     329.3596  0.027584556  0.028029118            2 
  996000    1.0677068   -7.1494206    329.16603  0.027540666  0.028020321            2 
  997000    1.0790532    -7.144185     329.7454  0.027561467  0.028011294            3 
  998000    1.0926245   -7.1377183    330.93411  0.027633109  0.028002407            4 
  999000    1.1270793   -7.0696392    331.37063  0.027641861  0.027993817            4 
 1000000    1.0969742   -7.0880931    331.27066  0.027605888  0.027985277            1 
 1001000    1.0903515   -7.1139832    330.88262  0.027546006   0.02797684            4 
 1002000    1.0785791   -7.0762948    333.56689  0.027741757  0.027968749            2 
 1003000    1.1030552   -7.1483641    332.20504  0.027600951  0.027960418            3 
 1004000     1.075888   -7.1041104    333.61359  0.027690371  0.027952371            3 
 1005000    1.0845532   -7.1619479    332.30603  0.027554397  0.027944201            3 
 1006000    1.1082773   -7.0759487    334.82997  0.027736081   0.02793624            2 
 1007000     1.102933   -7.1357024    334.09539  0.027647748  0.027928482            4 
 1008000    1.0854419   -7.1274338    333.66498  0.027584737  0.027920147            9 
 1009000    1.1076941   -7.1494759    334.22516  0.027603664  0.027911987            7 
 1010000    1.0934568   -7.1414782    334.78715  0.027622702  0.027904006            8 
 1011000    1.0907108   -7.1207866    335.79972  0.027678843  0.027896203            5 
 1012000    1.1054399   -7.1364623    334.46402  0.027541504  0.027888476            2 
 1013000    1.0979185   -7.1158394    335.34761  0.027587003  0.027880778            6 
 1014000    1.0956098   -7.1025997    335.94974  0.027609282  0.027872988            3 
 1015000    1.0914683   -7.1262482    336.98099  0.027666748  0.027865262            4 
 1016000    1.1020456    -7.143303    336.20423  0.027575806   0.02785717            5 
 1017000    1.0793999   -7.1497044      336.427  0.027566945  0.027849122            4 
 1018000    1.0712786   -7.1181965    336.69945  0.027562169  0.027841181            6 
 1019000    1.1010442   -7.0919805    337.97407  0.027639358  0.027833365            2 
 1020000    1.0849514   -7.1047456    337.61192  0.027582673  0.027825771            3 
 1021000    1.0664716   -7.1204324    337.38539  0.027537169  0.027817851            3 
 1022000    1.1041133   -7.1266584    338.22649  0.027578807  0.027809995            3 
 1023000    1.0765733    -7.134798    338.29539  0.027557461  0.027802051            5 
 1024000    1.0697088   -7.1437109    338.88824  0.027578796  0.027794131            3 
 1025000    1.0687785   -7.1150304    339.11972  0.027570709  0.027786251            5 
 1026000    1.0784756   -7.0892537    339.99282  0.027614752  0.027778176            2 
 1027000    1.0895684   -7.1651351    338.82417  0.027493036  0.027770248            8 
 1028000    1.0796832   -7.1207796    340.16026    0.0275746  0.027762201            4 
 1029000    1.0793106   -7.1228963    340.02039  0.027536475  0.027754469            3 
 1030000    1.1076897   -7.1134257    340.56642  0.027553918  0.027746447            6 
 1031000    1.0935138   -7.1211319    338.67717  0.027374488   0.02773852            4 
 1032000    1.0957195    -7.117707    340.39617  0.027486771  0.027730651            8 
 1033000    1.0789011   -7.1323335    339.84955  0.027416066  0.027722746            4 
 1034000    1.0698706   -7.1320567    341.69307  0.027538126  0.027714853            4 
 1035000    1.0801788   -7.1630779    340.04203  0.027378585  0.027706799            3 
 1036000    1.1140639   -7.1523522    340.22481   0.02736686  0.027698502            2 
 1037000    1.0496988   -7.1524541    341.11632  0.027412112  0.027690135            4 
 1038000     1.079381   -7.1518312    340.36981  0.027325771   0.02768187            7 
 1039000    1.0771355   -7.1407264    340.97734  0.027348199  0.027673584            9 
 1040000    1.0994852   -7.1634153    341.20357   0.02734003   0.02766528            1 
 1041000    1.0619335   -7.0889628    341.38995  0.027328686  0.027656931            5 
 1042000    1.0954667   -7.1856912    340.35859  0.027219977  0.027648467            4 
 1043000    1.0777428   -7.1340822    342.22842  0.027343274  0.027639965            4 
 1044000    1.0730605   -7.1211249    343.16794  0.027392077  0.027631618            3 
 1045000    1.0925001   -7.1660138    342.20071  0.027288733  0.027623213            5 
 1046000    1.0936554     -7.13855    342.77495  0.027308393  0.027614747            6 
 1047000    1.0588925   -7.1223373    342.64679   0.02727211  0.027606243            3 
 1048000    1.0758485   -7.1425508    342.54211  0.027237764  0.027597757            2 
 1049000    1.0752639   -7.1293365    343.24861  0.027267923  0.027589363            2 
 1050000    1.0950284   -7.1460783    342.43393  0.027177296  0.027581052            2 
 1051000    1.1001159   -7.1543995    343.86916  0.027265236  0.027572544            5 
 1052000    1.0672819   -7.1918989    341.79543   0.02707505   0.02756389            5 
 1053000    1.0765083   -7.1398142    344.92293  0.027296844  0.027555327            5 
 1054000    1.0549839   -7.1173791    345.43534   0.02731146  0.027547142            4 
 1055000    1.1041881   -7.1410746    343.04467  0.027096735  0.027538764            2 
 1056000    1.0904343    -7.175489     344.2615  0.027167101  0.027530243            2 
 1057000    1.0828547   -7.1315877    344.18592   0.02713544  0.027521525            3 
 1058000    1.0837536   -7.1441263    344.01093  0.027096009  0.027512666            7 
 1059000    1.0848517   -7.1048804    345.06698  0.027153524  0.027504034            4 
 1060000    1.0774656   -7.1207792    345.85204  0.027189626  0.027495394            3 
 1061000    1.0833339   -7.1603994    344.81725  0.027082725  0.027486622            2 
 1062000    1.0853719   -7.1493859    345.79659   0.02713407  0.027478025            3 
 1063000    1.0701898   -7.1456195    346.24349  0.027143578  0.027469398            1 
 1064000    1.0989169   -7.1737829    345.24678  0.027040005  0.027460784            5 
 1065000    1.0867946   -7.1134498    347.50036  0.027190951  0.027452229            4 
 1066000    1.0898127   -7.1529278    346.52222  0.027088979  0.027443818            7 
 1067000     1.070783   -7.1432357    347.94802  0.027174947  0.027435292            3 
 1068000    1.1037358   -7.1703038    346.76042  0.027056837  0.027426675            5 
 1069000    1.0642575   -7.1609816    347.49559  0.027088836  0.027418111            4 
 1070000    1.0950518   -7.1446534    348.97111  0.027178436  0.027409614            4 
 1071000    1.0749334   -7.1694914    347.53433  0.027041264  0.027401078            2 
 1072000    1.0846105   -7.1625287    348.05394  0.027056432  0.027392209            4 
 1073000    1.0636298   -7.1523337    348.25376  0.027046735   0.02738344            5 
 1074000    1.0627487   -7.1205384    348.26198  0.027022189  0.027374539            5 
 1075000    1.0895246   -7.1477739    347.85759  0.026965705  0.027365966            2 
 1076000     1.089792   -7.1133653    348.59456   0.02699772  0.027357255            2 
 1077000    1.0621233   -7.1321433    347.71584  0.026904661  0.027348424            2 
 1078000    1.0859448   -7.1890599    348.22553  0.026919104  0.027339479            6 
 1079000    1.0722154    -7.132305     349.3687  0.026982445  0.027330596            3 
 1080000    1.0616192    -7.152459    349.20777  0.026945044  0.027321925            2 
 1081000    1.0798779   -7.1264362    350.55916  0.027024295  0.027313286            2 
 1082000    1.0794268   -7.1501746    349.06263  0.026884059  0.027304578            3 
 1083000    1.0817151    -7.195473    348.53639  0.026818744  0.027295942            2 
 1084000    1.0929285   -7.1607047    350.43017  0.026939589  0.027287174            2 
 1085000    1.0801692   -7.1609965    350.27296  0.026902685  0.027278383            3 
 1086000     1.073771   -7.1307852    351.01814  0.026935094  0.027269607            4 
 1087000    1.0540354   -7.1616928    350.74579  0.026889435  0.027260895            4 
 1088000    1.0814666     -7.19499     349.9592  0.026804473  0.027252169            3 
 1089000    1.0706855   -7.1500051    349.76463   0.02676497  0.027243339            3 
 1090000    1.0784886   -7.1533448    352.18338  0.026925334  0.027234605            4 
 1091000    1.0789491   -7.1100539    353.31783  0.026987308  0.027226134            4 
 1092000    1.0677169   -7.1579864    352.70442  0.026915783  0.027217606            2 
 1093000    1.0603562   -7.1586449    352.75867  0.026895294  0.027209243            4 
 1094000    1.0859158   -7.1500883    352.80757  0.026874434  0.027200685            2 
 1095000    1.0528744     -7.10032    354.84176    0.0270047  0.027192415            3 
 1096000    1.0767386   -7.1792975    353.04409  0.026843377  0.027184084            3 
 1097000    1.0665227   -7.1152338    355.64437  0.027016436  0.027175739            2 
 1098000    1.0536228   -7.1647822    352.77356   0.02677395  0.027167406            4 
 1099000    1.0844836   -7.1691827    354.16853  0.026855363  0.027159037            4 
 1100000    1.0559549   -7.1622841    354.42136  0.026850103  0.027150687            4 
 1101000    1.0681019   -7.1181256    354.99306  0.026868988    0.0271426            2 
 1102000     1.082964   -7.1569804    355.67204   0.02689595  0.027134532            4 
 1103000    1.0749815   -7.1930607     354.9973  0.026820588   0.02712625            2 
 1104000    1.0990654   -7.1643329    355.26385  0.026816414  0.027118066            2 
 1105000    1.0938425    -7.147988      356.573  0.026890875  0.027110076            4 
 1106000    1.0590639   -7.1728435    355.56315  0.026790472  0.027102147            5 
 1107000    1.0583495   -7.1825232    356.39639  0.026828996  0.027094192            5 
 1108000    1.0696351    -7.124103    357.42022  0.026881786  0.027086142            2 
 1109000    1.0693081   -7.1927255    355.64798  0.026724375  0.027077945            3 
 1110000    1.0598034   -7.1372947    357.07116  0.026807144  0.027069846            4 
 1111000    1.0744257   -7.0951895     357.8205  0.026839222  0.027061749            2 
 1112000    1.0728937   -7.1236233      357.672  0.026803957  0.027053558            8 
 1113000    1.0860417   -7.1457728    357.43313   0.02676199  0.027045446            2 
 1114000    1.0883716   -7.1787528    357.19743  0.026720334  0.027037223            3 
 1115000      1.08662    -7.154426    357.89561  0.026748551  0.027028951            5 
 1116000    1.0790288    -7.154626    358.17394  0.026745366  0.027020751            3 
 1117000    1.0759657   -7.1759127    358.34988  0.026734548  0.027012485            4 
 1118000    1.0705018   -7.1460351    360.00352  0.026833894  0.027004372            3 
 1119000    1.0672048   -7.1948094    358.56397  0.026702708  0.026996271            3 
 1120000    1.0746384   -7.1846695     359.3714  0.026738944  0.026988133            4 
 1121000    1.0802563   -7.1840558    359.59803  0.026731938  0.026980181           11 
 1122000    1.0614604    -7.167633    359.78443  0.026721957  0.026972148            2 
 1123000    1.0854376   -7.1454304    360.82168  0.026775132  0.026964177            2 
 1124000    1.0675718   -7.1530969    361.14327  0.026775154  0.026956034            2 
 1125000    1.0679022    -7.192099    360.74667  0.026721975  0.026948098            4 
 1126000    1.0729673   -7.1624287    361.01322   0.02671797  0.026939762            4 
 1127000    1.0784018   -7.1280285    362.30455  0.026789748  0.026931794            3 
 1128000    1.0550478   -7.1239152    362.58103  0.026786424  0.026923996            3 
 1129000    1.0653645   -7.1701908    362.18859  0.026733731  0.026916251            2 
 1130000    1.0503251   -7.1540758    362.41722  0.026726933  0.026908431            3 
 1131000     1.058236   -7.1216741     362.7424  0.026727262  0.026900674            6 
 1132000    1.0657218   -7.1750748    362.22823    0.0266658  0.026892961            2 
 1133000    1.0728728   -7.1485039    363.54597  0.026739186  0.026885054            2 
 1134000    1.0805567   -7.1944424     363.4483  0.026708429  0.026877099            3 
 1135000    1.0896684   -7.2302179    361.51149  0.026542694  0.026869115            5 
 1136000    1.0554432   -7.1797942    364.89631  0.026767628    0.0268612            4 
 1137000    1.0690572   -7.1733968    363.84985  0.026667388  0.026853502            3 
 1138000    1.0648716     -7.21386    363.64893  0.026629242   0.02684547            3 
 1139000    1.1015124   -7.1990811    364.02323  0.026633248  0.026837537            2 
 1140000    1.0564698   -7.2106653    364.42067  0.026638938  0.026829558            3 
 1141000    1.0668773   -7.1795519    365.34158   0.02668285  0.026821783            2 
 1142000    1.0565842   -7.1620887     365.5944  0.026677934  0.026814025            4 
 1143000    1.0626559   -7.1777173    364.19994  0.026552927    0.0268063            2 
 1144000    1.0544402    -7.150412    366.82006  0.026720576  0.026798446            4 
 1145000    1.0939699   -7.1915277     365.4638   0.02659853  0.026790559            4 
 1146000    1.0750126   -7.1444982    366.59735  0.026657748  0.026782776            3 
 1147000    1.0769115   -7.1620124    367.06093  0.026668187  0.026775097            2 
 1148000    1.0560687   -7.1513728    367.01526  0.026641642  0.026767404            5 
 1149000    1.0561876   -7.2189252    366.00439   0.02654514  0.026759689            3 
 1150000    1.0497649   -7.1982886    367.04175  0.026597228  0.026751742            4 
 1151000     1.051068   -7.1804271    367.13283  0.026580715  0.026744075            2 
 1152000    1.0761878   -7.1443156    368.58382  0.026662603   0.02673649            3 
 1153000     1.087231   -7.1413829    368.29693  0.026618743  0.026728923            2 
 1154000     1.062091   -7.1901541    368.53205  0.026612655  0.026721579            7 
 1155000    1.0731828   -7.2271807    367.37835  0.026506374  0.026713936            2 
 1156000    1.0509463   -7.1529829    369.10082  0.026607614  0.026706381            2 
 1157000    1.0708043   -7.1874691    368.09215  0.026511967  0.026698987            3 
 1158000    1.0757531   -7.1834831    369.42211   0.02658478  0.026691498            3 
 1159000    1.0560742   -7.1832868    369.25122  0.026549555  0.026683974            3 
 1160000    1.0924238   -7.2331171    369.02684  0.026510549   0.02667632            7 
 1161000    1.0848996   -7.2209473     369.1053  0.026493346   0.02666878            3 
 1162000    1.0791682   -7.1527622    370.89382  0.026598811   0.02666113            3 
 1163000    1.0387698   -7.2170636    369.76457  0.026495025  0.026653603            2 
 1164000    1.0460754   -7.1541082    369.55778  0.026457459   0.02664617            3 
 1165000    1.0469704   -7.1984443    369.93589  0.026461795  0.026638726            3 
 1166000    1.0635325   -7.2008441    370.18459  0.026456875  0.026631324            4 
 1167000    1.0631704   -7.2027885     369.4106  0.026378935  0.026623867            7 
 1168000    1.0556493   -7.2313384     370.2213  0.026414191  0.026616325            3 
 1169000    1.0509256   -7.1535394    371.19906  0.026461296  0.026608618           10 
 1170000    1.0738311    -7.153397    371.99955  0.026495694  0.026601138            2 
 1171000    1.0680637   -7.1969601    371.07644  0.026407376  0.026593631            2 
 1172000    1.0781044   -7.1978157    371.90856   0.02644401   0.02658592            2 
 1173000    1.0982283    -7.190193    372.02892  0.026430017  0.026578236            4 
 1174000    1.0657908   -7.2501606     371.7516  0.026387819  0.026570669            2 
 1175000    1.0656522   -7.1880182    373.10451  0.026461313  0.026563186            2 
 1176000    1.0698857   -7.1875399    372.52153  0.026397501  0.026555566            3 
 1177000    1.0593548   -7.1907535     374.9166  0.026544648  0.026548226            3 
 1178000    1.0771984   -7.1911158    372.60765  0.026358776  0.026540716            4 
 1179000    1.0649747   -7.2008519     373.3448  0.026388521  0.026533079            6 
 1180000    1.0582152   -7.2192564    373.53931  0.026379894  0.026525333            5 
 1181000    1.1142737   -7.2211239    373.86471  0.026380518  0.026517496            4 
 1182000    1.0789395   -7.1946613    373.51538  0.026333572  0.026509796            3 
 1183000    1.0647986   -7.2257154    373.33585  0.026298665  0.026501962            4 
 1184000    1.0494042   -7.2053546    375.19518  0.026407319  0.026494384            3 
 1185000    1.0599098   -7.2163604    374.64705  0.026346488  0.026486862            3 
 1186000    1.0863856   -7.1779304    376.50046  0.026454501  0.026479395            3 
 1187000     1.079096   -7.2275615    374.33156  0.026279947   0.02647181            5 
 1188000    1.0481261   -7.2126768    375.32459  0.026327482  0.026464086            2 
 1189000    1.0684916   -7.2148877    374.68284  0.026260362  0.026456445            4 
 1190000    1.0639443   -7.1804536    375.66552  0.026307109  0.026448928            2 
 1191000     1.058335    -7.215627    375.86299  0.026298838  0.026441448            2 
 1192000    1.0617562    -7.196744    375.68457  0.026264302  0.026433897            5 
 1193000    1.0765895   -7.1916389    376.93832  0.026329863  0.026426349            2 
 1194000    1.0469454   -7.2442343    376.34647  0.026266504  0.026418635            5 
 1195000    1.0735181   -7.1741767    377.47862  0.026323475  0.026410938            3 
 1196000    1.0624983   -7.2046957    377.12289  0.026276678  0.026403315            6 
 1197000    1.0671992   -7.1899301    377.37353  0.026272175  0.026395572            3 
 1198000    1.0319544   -7.2069754    376.30437  0.026175874  0.026387987            2 
 1199000    1.0386248   -7.2369554     376.4714  0.026165652  0.026380072            4 
 1200000    1.0755258   -7.2180693     377.3633  0.026205785  0.026372339            3 
 1201000    1.0562983   -7.1840668    378.24509  0.026245149  0.026364814            6 
 1202000    1.0558364   -7.2187881    378.09451  0.026212875  0.026357301            5 
 1203000     1.061743   -7.1641146    377.86894   0.02617546  0.026349772            3 
 1204000    1.0684485   -7.1747952    378.86375  0.026222574  0.026342213            3 
 1205000    1.0693659   -7.2092453    379.21536  0.026225129  0.026334609            3 
 1206000    1.0501138   -7.1951383    380.06898  0.026262367  0.026326913            3 
 1207000    1.0426333   -7.1678859    379.51863  0.026202612  0.026319326            5 
 1208000    1.0279946   -7.2137472    379.03684  0.026147685  0.026311785            5 
 1209000    1.0662588   -7.2431835    378.05609  0.026058457  0.026303993            3 
 1210000     1.079008    -7.191235    379.92072  0.026165339  0.026296166            2 
 1211000    1.0463395   -7.2149148    380.18531   0.02616194  0.026288389            7 
 1212000     1.054606   -7.2145995    380.19838  0.026141253  0.026280747            3 
 1213000    1.0424283   -7.1749641    380.64441  0.026150344   0.02627307            3 
 1214000    1.0502097    -7.199813    380.55396  0.026122595  0.026265365            4 
 1215000    1.0769467   -7.2160364    379.83717  0.026051932  0.026257605           10 
 1216000    1.0405273   -7.1693345    381.31167  0.026131557  0.026249965            3 
 1217000    1.0500094   -7.1624122    381.67368  0.026134873  0.026242484            5 
 1218000    1.0664687   -7.1868926    381.57953  0.026106974  0.026234898            3 
 1219000    1.0525762    -7.202001     381.5596  0.026084195  0.026227211            2 
 1220000     1.062694   -7.2031421    381.23805  0.026040851  0.026219325            6 
 1221000     1.062551   -7.2263125    381.67427  0.026049295  0.026211599            3 
 1222000    1.0370713   -7.2277608    382.00911  0.026050812  0.026203817            3 
 1223000    1.0325665   -7.2046211    380.93602  0.025956393  0.026196104            3 
 1224000    1.0409719   -7.2102985    381.19384   0.02595274  0.026188032            4 
 1225000    1.0521825   -7.1764932    381.78916  0.025972051  0.026180099            2 
 1226000    1.0704229   -7.1758668    383.00416  0.026033453   0.02617215            4 
 1227000    1.0677039   -7.2391331     381.9076  0.025937762  0.026164109            4 
 1228000    1.0544669   -7.2212531    381.70682  0.025903014  0.026156129            6 
 1229000    1.0430683   -7.2239904    381.99135  0.025901231   0.02614804            9 
 1230000    1.0507522   -7.2315637    382.16247  0.025891766  0.026139929            5 
 1231000    1.0523706   -7.2044233    383.07044  0.025932199  0.026131889            4 
 1232000    1.0458874   -7.1953856    384.65395   0.02601826  0.026123953            4 
 1233000    1.0598063   -7.2435795    382.43963  0.025847501   0.02611596            7 
 1234000    1.0503148   -7.2394191    383.46943  0.025896099  0.026107889            3 
 1235000    1.0755507   -7.2106119    383.60667  0.025884391  0.026099542            5 
 1236000    1.0625152   -7.2373961    382.52748  0.025790687  0.026091391           12 
 1237000    1.0621036   -7.2272796    383.85164  0.025859043  0.026083229            3 
 1238000    1.0530497   -7.2467808    383.29037  0.025800375  0.026075011            3 
 1239000    1.0641235   -7.1915678    384.67194  0.025872474  0.026066891            6 
 1240000    1.0680766    -7.203439     384.3093  0.025827238  0.026058958            4 
 1241000    1.0557121   -7.2017898    384.20879  0.025799677  0.026050913            4 
 1242000    1.0448306   -7.2276559    384.20073  0.025778363  0.026042637            5 
 1243000    1.0419835   -7.2433507    383.85759   0.02573462  0.026034346            8 
 1244000    1.0728527   -7.2249971    384.13579  0.025732569  0.026026074            5 
 1245000    1.0260489   -7.2267934    385.07939  0.025775059  0.026017807            5 
 1246000    1.0685466   -7.2381028    384.91273  0.025743227  0.026009403            4 
 1247000    1.0709502   -7.2290372    385.32759  0.025750307  0.026001092            7 
 1248000    1.0519636   -7.2187859    384.66143  0.025685191   0.02599283            5 
 1249000    1.0422916   -7.1697064    385.84714  0.025743738   0.02598467            6 
 1250000    1.0625429    -7.220943    385.49658  0.025699772  0.025976445            5 
 1251000    1.0704225   -7.2131916    386.00704  0.025713232   0.02596823            7 
 1252000    1.0393061   -7.2175845     386.9477  0.025755305  0.025960075            3 
 1253000    1.0520108   -7.2232275     387.0103  0.025738913  0.025951773            1 
 1254000    1.0258477   -7.2208277    387.58417  0.025756524  0.025943402            2 
 1255000     1.061709   -7.2082737    387.34213  0.025719929   0.02593526            3 
 1256000    1.0640642   -7.1849187    388.37318   0.02576786  0.025927254            3 
 1257000    1.0653719   -7.1982362    387.71839   0.02570395  0.025919212            3 
 1258000    1.0728615   -7.1640597    389.08094  0.025773777  0.025911187           11 
 1259000     1.050171   -7.2062727    388.04053  0.025684441  0.025902998            4 
 1260000    1.0596336   -7.2273646    388.34599  0.025684259  0.025894802            7 
 1261000    1.0538654   -7.1992004    390.00554  0.025773562  0.025886793            4 
 1262000    1.0611273   -7.2601603    386.64754  0.025531401  0.025878727            4 
 1263000     1.054374   -7.2238712    389.00256  0.025666572  0.025870504            4 
 1264000    1.0319521   -7.2174249    389.75241  0.025695702   0.02586249            3 
 1265000    1.0716069   -7.2402056    389.22183  0.025640437  0.025854423            5 
 1266000    1.0450712   -7.1961286    389.15586  0.025615841  0.025846186            5 
 1267000    1.0362478   -7.2502361    390.63979  0.025693225  0.025838146            2 
 1268000    1.0396952   -7.2101546    390.15136  0.025640862  0.025830063            5 
 1269000    1.0645084   -7.2580614    389.27703   0.02556324  0.025821803            3 
 1270000    1.0416153   -7.2406243    390.06043  0.025594516  0.025813567            2 
 1271000    1.0404583   -7.2450032    389.09507  0.025511085   0.02580516            4 
 1272000    1.0494036   -7.2667839    388.57276  0.025456811  0.025796721            7 
 1273000    1.0715686   -7.2311051    389.38325   0.02548987  0.025788349            4 
 1274000    1.0350058   -7.2739783    389.36724  0.025468814  0.025779855            3 
 1275000    1.0139061       -7.269    389.41549  0.025451993  0.025771443            5 
 1276000    1.0378145   -7.2391644    390.43189  0.025498426  0.025763227            2 
 1277000    1.0429191   -7.2302933    390.48896  0.025482182  0.025754863            5 
 1278000    1.0372845   -7.2026245    391.64479   0.02553761  0.025746413            4 
 1279000    1.0588092   -7.2262775    389.43187   0.02537346  0.025738058            3 
 1280000    1.0562584   -7.2839821    388.70124   0.02530607  0.025729537            8 
 1281000    1.0627609   -7.2157021    390.54288   0.02540612  0.025720976            4 
 1282000     1.042513   -7.2181489     391.4903  0.025447888  0.025712461            4 
 1283000    1.0364525   -7.2159505    391.80796  0.025448686  0.025704194            3 
 1284000    1.0373242   -7.2427051    391.67634  0.025420323  0.025695883            4 
 1285000    1.0448503   -7.2701496    391.55141  0.025392439  0.025687259           13 
 1286000    1.0141278   -7.2347496    391.56132  0.025373336  0.025678747            3 
 1287000    1.0207259   -7.2678311    391.12106  0.025325114  0.025670264           11 
 1288000    1.0426298   -7.2494756    392.42622  0.025389895  0.025661688            4 
 1289000    1.0427254   -7.2709687    390.57608  0.025250587  0.025652994            3 
 1290000    1.0412815   -7.2425724    391.76725  0.025307962  0.025644532            6 
 1291000    1.0234792   -7.2628717    392.09135  0.025309279  0.025636042            2 
 1292000    1.0724387   -7.2640282    392.15465  0.025293772  0.025627592            4 
 1293000    1.0112231   -7.2070784    393.95563  0.025390283  0.025619223            5 
 1294000    1.0297226   -7.2374254    393.41766  0.025336016  0.025610634            3 
 1295000    1.0499403   -7.2812523    393.62447   0.02532976  0.025602126            4 
 1296000     1.034785   -7.2530611    393.96234   0.02533194  0.025593704            4 
 1297000    1.0555206   -7.2584709    393.79992  0.025301974  0.025585366            3 
 1298000    1.0191731   -7.2441421    394.56606  0.025331668  0.025577186            2 
 1299000    1.0440467   -7.2776771    395.15409   0.02534989  0.025569016            3 
 1300000    1.0416279   -7.2624218    394.98341  0.025319449  0.025560685            3 
 1301000    1.0578781   -7.2651963    394.57389  0.025273757  0.025552524            5 
 1302000    1.0431568   -7.2474141     396.1374  0.025354416  0.025544436            3 
 1303000    1.0486987   -7.2408401    394.86819  0.025253786    0.0255364            2 
 1304000    1.0590888    -7.236019    395.75359  0.025291002  0.025528294            5 
 1305000    1.0423751   -7.2819173    396.64535  0.025328567  0.025520201            2 
 1306000    1.0445072   -7.2519729    397.10688  0.025338622  0.025512143            6 
 1307000     1.037483   -7.2781067    396.05587  0.025252223  0.025503986            5 
 1308000    1.0337214   -7.2659978    397.23835  0.025308253  0.025495911           10 
 1309000    1.0600195   -7.2696918    396.27307  0.025227468  0.025487821            8 
 1310000    1.0349913   -7.2635943    397.10337  0.025261029  0.025479772            8 
 1311000    1.0279067   -7.2499367    397.84532  0.025288922  0.025471899            3 
 1312000    1.0524006   -7.2235595    399.38947  0.025367725  0.025464018            5 
 1313000    1.0268729   -7.2882457    397.16502  0.025207224  0.025456054            3 
 1314000    1.0154949   -7.2603458    398.43276   0.02526844  0.025448021            7 
 1315000    1.0425951   -7.2524787    399.47975  0.025315574  0.025439921            7 
 1316000    1.0365934   -7.2300597    399.30257  0.025285117  0.025432075            2 
 1317000    1.0244497   -7.2160032    400.71443  0.025355254  0.025424286            6 
 1318000    1.0381609   -7.2502508    400.03524  0.025293073  0.025416416            4 
 1319000       1.0455   -7.2632374    399.54174  0.025242718  0.025408427            3 
 1320000    1.0593437   -7.2415505    399.93739  0.025248573  0.025400593            5 
 1321000    1.0491915   -7.2559621    400.00039  0.025233433  0.025392522            5 
 1322000    1.0545354   -7.2661674    400.81781  0.025265873  0.025384381            5 
 1323000    1.0367806   -7.2761481    400.33872  0.025216599    0.0253764            4 
 1324000    1.0069861   -7.2786624    400.25674  0.025192393  0.025368288            3 
 1325000    1.0473759   -7.2855125    399.57453  0.025130473  0.025360264            5 
 1326000    1.0558953   -7.2743409    401.16739  0.025211626  0.025352302            2 
 1327000    1.0662245   -7.2838286    400.15356   0.02512896  0.025344297            2 
 1328000     1.039441   -7.2502413    400.90782  0.025157368  0.025336198            4 
 1329000    1.0213584   -7.2512286     400.9584   0.02514161  0.025328105            3 
 1330000    1.0482452   -7.2842381    400.87323  0.025117371  0.025320146            3 
 1331000    1.0471663   -7.2653225    401.43812  0.025133867  0.025311965            3 
 1332000    1.0353808   -7.3071397    399.96194  0.025022644  0.025303732            5 
 1333000    1.0312404   -7.2669791    400.40822  0.025031772   0.02529555            3 
 1334000    1.0248678   -7.2726447    401.95108  0.025109388  0.025287285            4 
 1335000    1.0359718   -7.3013923    399.80959  0.024956903  0.025279021            2 
 1336000     1.017899   -7.2737074    401.63486  0.025052075  0.025270761            2 
 1337000    1.0165858   -7.2506208    402.60416  0.025093752  0.025262582            4 
 1338000    1.0348586   -7.3150893    400.51774  0.024945051  0.025254383            5 
 1339000     1.023374   -7.2939912    401.53019  0.024989432  0.025246102            4 
 1340000    1.0290405   -7.2887635    401.30264  0.024956632  0.025237886            3 
 1341000    1.0334945   -7.3094118    401.86099  0.024972719  0.025229647            4 
 1342000    1.0535514   -7.2808792    402.15534  0.024972388  0.025221536            3 
 1343000    1.0275408   -7.2600386    402.66175  0.024985217  0.025213412            2 
 1344000    1.0371061   -7.2480451     403.3178  0.025007304   0.02520519            3 
 1345000    1.0399858   -7.2658484    403.69933   0.02501235  0.025197142            5 
 1346000    1.0361045   -7.2603875    403.95311  0.025009479  0.025189016            6 
 1347000    1.0337221   -7.2240874    405.68003   0.02509775  0.025181053            4 
 1348000    1.0327013   -7.2773693     403.7469  0.024959626  0.025173316            2 
 1349000    1.0359883   -7.2124126    406.99742  0.025141921  0.025165626            4 
 1350000    1.0567784   -7.2998812    405.67688  0.025041783  0.025157914            4 
 1351000    1.0503557   -7.2880444    405.65714  0.025022029  0.025150209           15 
 1352000    1.0580036   -7.2715759    407.12793  0.025094177  0.025142517            3 
 1353000    1.0452254   -7.2636472    405.98789  0.025005413  0.025134641            5 
 1354000    1.0503029    -7.261529    406.12771  0.024995551  0.025126884            4 
 1355000    1.0276226   -7.2736796    405.51353  0.024939332  0.025119119            5 
 1356000    1.0738754   -7.2921506    406.05131  0.024953989  0.025111288            5 
 1357000    1.0358946   -7.2837896    406.16808  0.024942771  0.025103486            4 
 1358000    1.0440801   -7.3026768    406.03324  0.024916129  0.025095679            3 
 1359000    1.0355134   -7.2893447    405.90059  0.024889661  0.025087697            3 
 1360000    1.0642057   -7.2617389    407.69059  0.024981041  0.025079685            6 
 1361000    1.0397741    -7.248332    406.99153  0.024919883  0.025071841            4 
 1362000    1.0415344   -7.2078902    409.15111  0.025033719  0.025063949            3 
 1363000    1.0375205   -7.2606979    408.10246  0.024951239  0.025056143            3 
 1364000    1.0639632   -7.2897408    407.03194  0.024867543  0.025048198            3 
 1365000    1.0056579   -7.2729979    408.14038  0.024916995  0.025040213            2 
 1366000    1.0183113   -7.2307902    409.29349    0.0249691  0.025032339            2 
 1367000    1.0379035   -7.3194813    407.99603   0.02487174  0.025024265            4 
 1368000    1.0386172    -7.293491    408.33581  0.024874258  0.025016255            5 
 1369000    1.0399052    -7.316599    407.33671  0.024795271  0.025008178            6 
 1370000    1.0535757   -7.3162205    407.88213  0.024810348   0.02500005            6 
 1371000     1.013122   -7.2967488    407.13689  0.024746954  0.024991837            2 
 1372000      1.02223   -7.2944022    409.08122  0.024847013  0.024983779            4 
 1373000    1.0496442   -7.2960423    408.24629  0.024778241  0.024975707            6 
 1374000    1.0341988   -7.3196277    407.72024  0.024728302  0.024967699            6 
 1375000    1.0296743   -7.3046234    409.31197  0.024806786  0.024959656            2 
 1376000    1.0327123   -7.2640113    409.31096  0.024788696  0.024951729            3 
 1377000    1.0314392   -7.2871544    409.81382  0.024801127  0.024943873            3 
 1378000    1.0318448   -7.2848183    410.36874  0.024816688  0.024936087           10 
 1379000     1.021171   -7.2430891    410.53434  0.024808699  0.024928211            4 
 1380000    1.0509265   -7.3116545    409.63983  0.024736704  0.024920224           18 
 1381000    1.0473658   -7.2695392    410.20875  0.024753123  0.024912281            5 
 1382000    1.0545601   -7.2907007    409.47232  0.024690805  0.024904352            5 
 1383000     1.028949   -7.2633949    411.40341  0.024789311   0.02489646            3 
 1384000    1.0122201   -7.2805759    410.33207  0.024706892  0.024888442            5 
 1385000    1.0406206    -7.241339    412.91292  0.024844339  0.024880441            3 
 1386000    1.0287885   -7.2404724    411.53133  0.024743346  0.024872591            2 
 1387000    1.0229797   -7.2715895    410.94452   0.02469025  0.024864573            4 
 1388000     1.020165    -7.298546    411.27565  0.024692342  0.024856471            4 
 1389000    1.0433058   -7.3084609    411.38116  0.024680895  0.024848262            3 
 1390000    1.0232044   -7.2682793    411.10375  0.024646508  0.024840073            2 
 1391000    1.0388988   -7.2698843    411.38703   0.02464576  0.024831912            8 
 1392000    1.0231671   -7.3065368    411.51534  0.024635737  0.024823734            5 
 1393000    1.0247054   -7.2679756    412.00272  0.024647207  0.024815472            7 
 1394000    1.0302563   -7.3522046    409.73084  0.024493714  0.024807148            3 
 1395000    1.0299471   -7.3095356    412.07048  0.024615919  0.024798949            2 
 1396000    1.0199776   -7.3210969    412.72937  0.024637618  0.024790817            3 
 1397000    1.0376301   -7.3224771    411.42015  0.024541885  0.024782686           14 
 1398000    1.0528359   -7.3280298    413.52538   0.02464982  0.024774538            4 
 1399000    1.0142766   -7.3297418    412.16109  0.024550935  0.024766437            3 
 1400000    1.0052533   -7.2770028     413.9643  0.024640732  0.024758491            3 
 1401000    1.0243013   -7.2612191    415.35226  0.024705702  0.024750615            4 
 1402000    1.0331823   -7.3105392    413.01864  0.024549372  0.024742566            3 
 1403000    1.0276217     -7.28683    414.22192  0.024603345  0.024734673            8 
 1404000    1.0300504   -7.2840977    413.76827  0.024558895  0.024726794            3 
 1405000    1.0273631   -7.2829332    415.56006  0.024647691  0.024719008            2 
 1406000     1.044039   -7.2983508    414.47866  0.024566065  0.024711095            3 
 1407000    1.0100303    -7.345068    413.32443  0.024480243  0.024703161            7 
 1408000    1.0273344   -7.3129333    413.73125  0.024486935  0.024695103            5 
 1409000    1.0323261   -7.2751866    414.77766  0.024531444  0.024687204            7 
 1410000    1.0250005   -7.2938348    415.31575  0.024545848  0.024679256            5 
 1411000    1.0115202   -7.3263788    415.76264  0.024554845   0.02467146            4 
 1412000     1.015526   -7.3219962    415.13983  0.024500698  0.024663501            4 
 1413000    1.0391528   -7.3009579    415.46672  0.024502637  0.024655606            8 
 1414000    1.0238669   -7.3046535    416.01831  0.024517817  0.024647803            5 
 1415000    1.0216716    -7.289931    417.01028  0.024558909  0.024640085            3 
 1416000    1.0628211   -7.2697624    416.11546  0.024488904  0.024632313            2 
 1417000    1.0251029    -7.304427    415.35728  0.024427034  0.024624364            6 
 1418000    1.0106554   -7.2885916    416.10187  0.024453565  0.024616451           10 
 1419000     1.031844   -7.2758275    417.28456  0.024505788  0.024608682            6 
 1420000    1.0164089   -7.3580898     416.1374  0.024421209  0.024600773           16 
 1421000    1.0316617   -7.2789979     416.7564  0.024440324  0.024592747            6 
 1422000    1.0295019   -7.3578199    415.86366  0.024370819   0.02458477            4 
 1423000   0.99646326   -7.3317305    417.54406    0.0244521  0.024576539            3 
 1424000    1.0475341   -7.3011571    416.46199  0.024371605  0.024568549            2 
 1425000     1.035445    -7.310681    418.10954   0.02445085  0.024560596            3 
 1426000    1.0346122    -7.297708    417.06537  0.024372684  0.024552671            5 
 1427000    1.0194876   -7.3063161    417.63212  0.024388701  0.024544523            6 
 1428000    1.0281204   -7.3234826    416.89873  0.024328824  0.024536567            3 
 1429000    1.0313502   -7.2702309     419.0337  0.024436302  0.024528697            6 
 1430000    1.0236408   -7.3050855    419.08203   0.02442203  0.024520751            7 
 1431000    1.0152526   -7.2679258    419.50812  0.024429776  0.024512971            4 
 1432000    1.0173557   -7.2803016    419.50176  0.024412346  0.024505318           12 
 1433000    1.0201972   -7.3201752    417.42873  0.024274758  0.024497511            3 
 1434000    1.0157246   -7.2849981    420.15376  0.024416188  0.024489778            4 
 1435000    1.0063579    -7.284093    420.33494  0.024409695  0.024482319            6 
 1436000    1.0183978   -7.2869049    420.83829  0.024421906  0.024474774           11 
 1437000    1.0461456   -7.3496086    419.10602  0.024304455  0.024467094            5 
 1438000    1.0235672   -7.3397406    421.00225  0.024397442  0.024459263            2 
 1439000    1.0263658   -7.3147832    421.11192  0.024386838  0.024451464            3 
 1440000    1.0259743    -7.319092    420.23223  0.024318995  0.024443752            4 
 1441000    1.0218572   -7.3256461    420.46802  0.024315754  0.024435993            5 
 1442000    1.0186934   -7.2911909    421.16181  0.024338986  0.024428234            6 
 1443000    1.0175904   -7.3333603    421.48064  0.024340531  0.024420541            2 
 1444000    1.0249349   -7.3567708    420.90563  0.024290491  0.024412677            2 
 1445000    1.0232552   -7.2881534    421.25128  0.024293615  0.024404869            5 
 1446000    1.0497545   -7.3287637    422.00927  0.024320497  0.024397027            8 
 1447000    1.0161606   -7.3386861    421.46915  0.024272584  0.024389169            2 
 1448000    1.0173981   -7.3305563    421.61708  0.024264335  0.024381275            3 
 1449000    1.0053603   -7.3080818    421.99373  0.024269251  0.024373477            3 
 1450000     1.030551    -7.324937    421.32773  0.024214237  0.024365642            5 
 1451000    1.0153478    -7.335712    421.12743  0.024186046  0.024357739            2 
 1452000    1.0285652   -7.3239641    421.15662  0.024171064  0.024349731            4 
 1453000    1.0446089   -7.3583173    421.02209  0.024146713  0.024341686            5 
 1454000    1.0241547   -7.3462261    422.66796  0.024224436  0.024333678            4 
 1455000    1.0134872   -7.3035099    422.85386  0.024218434  0.024325802            6 
 1456000   0.99748509   -7.2754862    423.02103  0.024211368  0.024317981            5 
 1457000    1.0061163   -7.3014468    422.22245  0.024149076  0.024310185           10 
 1458000    1.0360485   -7.3314558       422.45  0.024145519  0.024302261            5 
 1459000    1.0086673   -7.3325126    423.64096  0.024196993  0.024294435            5 
 1460000    1.0427715   -7.3738044    421.42063  0.024053689  0.024286493            4 
 1461000    1.0064963   -7.3192239    423.80636  0.024173304  0.024278547            3 
 1462000    1.0262528   -7.3349749    424.30284  0.024185069  0.024270874            3 
 1463000    1.0247116   -7.3390315    423.68063  0.024133096  0.024263026            5 
 1464000    1.0282238   -7.3053794    423.79262  0.024122986  0.024255185            6 
 1465000    1.0181626   -7.3052475    424.89658  0.024169316  0.024247225            2 
 1466000    1.0146526   -7.2973391    423.68039  0.024083697  0.024239322            4 
 1467000    1.0358101   -7.3229116    423.76574  0.024072128  0.024231278           14 
 1468000    1.0195791    -7.319097     424.0651  0.024072724  0.024223185            7 
 1469000    1.0048485   -7.3281557    423.52535  0.024025718  0.024215172            4 
 1470000    1.0057556   -7.3286905    425.29034   0.02410943  0.024207301            4 
 1471000    1.0241746    -7.277585     425.8026   0.02412206  0.024199403            6 
 1472000    1.0547375   -7.3186626    424.65945  0.024040956  0.024191555            1 
 1473000    1.0340934   -7.3434761     424.8412  0.024034917  0.024183673            3 
 1474000    1.0229779    -7.333525    424.91518  0.024022794  0.024175827            4 
 1475000    1.0199926   -7.3274034    424.92891  0.024007283  0.024167993            4 
 1476000    1.0300003   -7.3679996    426.10738  0.024057553  0.024160155            3 
 1477000    1.0355783   -7.2951887    426.65554  0.024072193  0.024152502            5 
 1478000    1.0143579   -7.3360144    426.69927  0.024058371  0.024144788            3 
 1479000    1.0229233   -7.2637452    428.05467  0.024118473  0.024137148            5 
 1480000    1.0185457   -7.3495542    425.97516  0.023985088  0.024129424            6 
 1481000    0.9921824   -7.3017331    426.07526  0.023974525  0.024121537            3 
 1482000      1.02658   -7.2827929    428.38297  0.024088111  0.024113911            2 
 1483000    1.0273926   -7.3175174    427.08535  0.023998952  0.024106183            7 
 1484000    1.0235237   -7.3659404    426.76889   0.02396501  0.024098317            6 
 1485000    1.0292541     -7.30041      428.089  0.024022952  0.024090443            4 
 1486000    1.0102299   -7.3040269    428.11312  0.024008138  0.024082661            7 
 1487000    1.0350869   -7.3668956    426.11801  0.023880185  0.024074852            5 
 1488000    1.0163837   -7.3107718    427.76633  0.023956448  0.024067002            3 
 1489000    1.0212164    -7.315572    427.83767  0.023944351  0.024059102            7 
 1490000   0.99611812   -7.3564205     428.1127  0.023943663  0.024051256            4 
 1491000    1.0098277   -7.3172036    428.30841  0.023938543  0.024043534            5 
 1492000    1.0081628   -7.3419823     428.9171  0.023956496  0.024035652            5 
 1493000    1.0214719   -7.3366166    428.45616  0.023914722  0.024027744            4 
 1494000    1.0407216   -7.3193444    429.27624  0.023944458  0.024019994            4 
 1495000    1.0161425   -7.3331247    429.11932  0.023919695  0.024012208            3 
 1496000    1.0132108   -7.3382828    427.79154  0.023829743  0.024004249            4 
 1497000    1.0137566    -7.327081    429.62061  0.023915643  0.023996363            2 
 1498000    1.0349136   -7.3248773    428.59023  0.023842358  0.023988396            4 
 1499000   0.99835576   -7.3570058    429.07572  0.023853442  0.023980495            6 
 1500000    1.0104305    -7.373418     430.3691  0.023909394  0.023972787            5 
 1501000    1.0014109   -7.3358192     431.2762  0.023943826  0.023965043            6 
 1502000    1.0073423    -7.332712     430.1125  0.023863321  0.023957468            4 
 1503000    1.0086822   -7.3249558    430.90921  0.023891617  0.023949806            5 
 1504000    1.0119896   -7.3608893    430.20283  0.023836593  0.023942154           13 
 1505000    1.0061231   -7.3618388    430.47522  0.023835837  0.023934332            5 
 1506000    1.0255081   -7.3380864    430.87147  0.023841936  0.023926559            3 
 1507000    1.0012946   -7.4032861    428.24283  0.023680758  0.023918668            5 
 1508000    1.0135453   -7.3590357    430.35077  0.023781541  0.023910782            5 
 1509000    1.0000674   -7.3710402    431.96356  0.023854846  0.023903111            4 
 1510000    1.0269543   -7.3528049    431.30579  0.023802748  0.023895396            5 
 1511000    1.0102359   -7.4081445    431.13555  0.023777606  0.023887589            7 
 1512000    1.0160361   -7.4160781    429.73005  0.023684417  0.023879656           10 
 1513000   0.99755989   -7.3598669     431.1902  0.023749185    0.0238719            3 
 1514000    1.0142298   -7.2972885    433.34112  0.023851889  0.023864252            3 
 1515000    1.0070605   -7.3594043    433.52178  0.023846083  0.023856711            5 
 1516000    1.0189481   -7.3260832    432.16395  0.023755714   0.02384912            7 
 1517000    1.0158654   -7.3465424    432.50901   0.02375901  0.023841613            4 
 1518000   0.99525685    -7.350358    432.44133  0.023739643  0.023834099            4 
 1519000    1.0030284   -7.3848329    431.16887  0.023654206  0.023826345            5 
 1520000     1.013406   -7.3378095    432.96287  0.023736999  0.023818681            6 
 1521000   0.99980842   -7.3696432    432.24266  0.023681934   0.02381102            7 
 1522000    1.0421469   -7.3811133    433.56057  0.023738533  0.023803252            4 
 1523000    1.0049945   -7.3593252    433.30219  0.023708809   0.02379553            4 
 1524000   0.99339548   -7.3643318    434.69459  0.023769389   0.02378789            5 
 1525000    1.0111906   -7.3548468    432.66997  0.023643168  0.023780264            4 
 1526000   0.99878828   -7.3483197    434.26482  0.023714768  0.023772623            4 
 1527000    1.0091991   -7.3336902    435.16735  0.023748491   0.02376495            4 
 1528000   0.98528126    -7.365457    434.78765  0.023712241  0.023757268            4 
 1529000   0.99019896   -7.3766839    435.63028  0.023742657  0.023749597            3 
 1530000     1.009533    -7.354469    435.99169  0.023746824  0.023742014            6 
 1531000    1.0049886   -7.3479189    434.75173  0.023663821  0.023734503            7 
 1532000    1.0021592   -7.3760216    434.90298  0.023656603  0.023726929            9 
 1533000     1.014409   -7.3572776    436.77792  0.023743092  0.023719372            5 
 1534000    0.9960504   -7.3508612    436.95952  0.023737479  0.023711862            5 
 1535000    1.0187809   -7.3583376    436.81079  0.023713941  0.023704312           11 
 1536000   0.99814038   -7.3730946    435.01091  0.023600852  0.023696811            3 
 1537000    0.9854916   -7.3686935     436.3097  0.023655915  0.023689305            4 
 1538000    1.0402028   -7.3236026    438.17188  0.023741433  0.023681856            4 
 1539000    0.9871768   -7.3321377    436.91348  0.023657867  0.023674272            3 
 1540000    1.0072158   -7.3889328    435.02409  0.023540265  0.023666689            2 
 1541000    1.0052696   -7.3813624    435.84435  0.023569346  0.023658962            5 
 1542000    1.0072074   -7.3529541    436.24615  0.023575775  0.023651191            7 
 1543000    1.0118902   -7.3623508    437.40792  0.023623241  0.023643427            4 
 1544000    1.0081607   -7.3249072    436.23447  0.023544606  0.023635894            8 
 1545000    1.0085627   -7.3587037     436.2814  0.023531898  0.023628397            2 
 1546000    0.9878876    -7.336652    437.88314  0.023603015  0.023620846            3 
 1547000    1.0034715   -7.3214551    438.26122  0.023608124  0.023613252            6 
 1548000   0.99153082   -7.3665714    437.91537  0.023574255  0.023605683            7 
 1549000    1.0114147   -7.3649327    438.10623  0.023569304  0.023598055            4 
 1550000   0.99868637   -7.4012795    436.60232  0.023473243   0.02359046            5 
 1551000    0.9942434   -7.3768237    437.41419  0.023501729  0.023582815            5 
 1552000    1.0160464   -7.3827023    438.81329   0.02356171  0.023575279            3 
 1553000    1.0129885   -7.3796012    438.09357  0.023507918  0.023567675            2 
 1554000   0.99880217    -7.393223    438.01642  0.023488654  0.023559988            6 
 1555000   0.98904069   -7.4095421     438.5061  0.023499791  0.023552399            9 
 1556000     1.022547   -7.3854968    438.70691  0.023495443  0.023544618            2 
 1557000    1.0010554   -7.3675492    438.27331  0.023457146  0.023536825            5 
 1558000   0.98191665   -7.3754286    438.65384  0.023462443  0.023529179            5 
 1559000    1.0008007    -7.348628    439.60579  0.023498278  0.023521593            3 
 1560000    1.0201828   -7.3674031    439.35844  0.023470002  0.023514012            3 
 1561000    1.0038183   -7.3257402    439.81547  0.023479365  0.023506521            4 
 1562000   0.98853195   -7.3666685    438.73305  0.023406586  0.023498855            4 
 1563000    1.0063264   -7.3500508     439.8425  0.023450763  0.023491124            5 
 1564000   0.99782744   -7.3605812    439.78311  0.023432604  0.023483364           10 
 1565000   0.99906925   -7.3707386    439.74313  0.023415502  0.023475619            5 
 1566000    1.0034056    -7.387829    439.69228  0.023397844  0.023467913            2 
 1567000    1.0024318    -7.407857    439.22163  0.023357883  0.023460138            6 
 1568000   0.99398533   -7.3826686    440.49208  0.023410506  0.023452446            5 
 1569000    1.0098428   -7.3788108    439.88587  0.023363388  0.023444892            4 
 1570000    1.0237731   -7.4136186    440.66258  0.023389733  0.023437277            6 
 1571000   0.98373339   -7.3476801     440.3836  0.023360047  0.023429594            4 
 1572000    1.0126435   -7.3763251    441.76193  0.023418253  0.023422089            5 
 1573000   0.99877863   -7.3767436    440.47665  0.023335275  0.023414473            9 
 1574000    1.0004254   -7.3653369    443.01501   0.02345484  0.023407018            8 
 1575000   0.98367894   -7.3618086    443.25583  0.023452689  0.023399436            8 
 1576000   0.97976026   -7.3810933    441.08361  0.023322949  0.023391942            4 
 1577000    1.0217504     -7.40379    441.03627  0.023305658  0.023384209            3 
 1578000    1.0040297   -7.3738849    441.49162  0.023314935   0.02337658            2 
 1579000    1.0053917   -7.3296019    442.58057   0.02335764   0.02336896            4 
 1580000   0.98932829   -7.3631174    441.34054  0.023277455  0.023361375            5 
 1581000   0.97363872   -7.3779887    442.67513  0.023333077  0.023353654            6 
 1582000    1.0015323   -7.3383798    443.35504  0.023354142  0.023346046            4 
 1583000     0.996822   -7.4096812    441.50763  0.023242137  0.023338367            5 
 1584000   0.97153024    -7.370259    443.03387  0.023307758  0.023330637            6 
 1585000    1.0019026   -7.3966064    442.61569  0.023271067  0.023322907            4 
 1586000   0.98899464   -7.3780777    442.40231  0.023245182  0.023315152            2 
 1587000    1.0016986   -7.4075693    442.72122  0.023247281  0.023307462            3 
 1588000    1.0008527   -7.3734632     442.5116  0.023221642  0.023299837            4 
 1589000     1.012579   -7.3942715    443.07845  0.023236755  0.023292255           11 
 1590000    0.9795968     -7.39901    442.88218  0.023211854  0.023284578            3 
 1591000     1.003456   -7.3522277    444.56843  0.023285587  0.023276885            3 
 1592000    1.0129467   -7.4233568    443.63792  0.023222253  0.023269253            4 
 1593000   0.99829547   -7.3759012     444.1691  0.023235462  0.023261581            2 
 1594000   0.97627928   -7.3476883    444.37231  0.023231509  0.023253993            3 
 1595000    1.0126824    -7.405545    442.29483  0.023108403   0.02324647            4 
 1596000   0.99259576   -7.3585266    444.09965   0.02318816  0.023238853            5 
 1597000    1.0044566   -7.3964928    444.48924   0.02319397  0.023231246            3 
 1598000   0.98721916    -7.404931    443.74084  0.023140428  0.023223594            4 
 1599000    1.0059598   -7.4008381    443.94775  0.023136739  0.023215833            9 
 1600000   0.99765959   -7.3994677    444.80216  0.023166779  0.023208084            5 
 1601000    1.0017137   -7.3314242    445.82886   0.02320575  0.023200392            8 
 1602000   0.99163301   -7.4009374    444.03801  0.023098107  0.023192697            9 
 1603000   0.99459999   -7.3972181     443.4049  0.023050785  0.023184972            4 
 1604000    1.0194295   -7.3662006    445.70914  0.023156127  0.023177227            3 
 1605000    0.9952082   -7.3698383    446.69804  0.023193045  0.023169589            4 
 1606000   0.99024132   -7.3527471    445.93811  0.023139171   0.02316189            3 
 1607000    1.0022454   -7.3491218    445.91771  0.023123715  0.023154299            7 
 1608000    1.0079718   -7.3927489    444.99063  0.023061289   0.02314656            5 
 1609000   0.99390657   -7.4147307    444.89591   0.02304205  0.023138828            6 
 1610000    1.0061561   -7.3998475    446.25934  0.023098309   0.02313104            2 
 1611000    1.0201803   -7.4276986    444.78668  0.023007794  0.023123325           11 
 1612000    1.0054319   -7.3891444    445.51048  0.023030939   0.02311566            5 
 1613000   0.97803841   -7.3904064    446.61052  0.023073492  0.023108037            9 
 1614000   0.99681473   -7.4039393    446.22264   0.02303917  0.023100341            2 
 1615000   0.99719225   -7.3922402    446.72267  0.023050705  0.023092713            2 
 1616000   0.98618093   -7.4041142    445.89026  0.022993516   0.02308507            6 
 1617000   0.98332099   -7.3958216    446.66829  0.023019392  0.023077422            3 
 1618000    1.0001728    -7.376233    445.35628  0.022937592  0.023069688            8 
 1619000   0.97857449   -7.3738697    446.66932  0.022991009  0.023061965           13 
 1620000   0.98777392   -7.4151337    447.13726  0.023000888  0.023054217           11 
 1621000   0.99964146   -7.4000113    444.98625  0.022876118  0.023046366           11 
 1622000   0.99657968   -7.4235118    445.04325  0.022864943  0.023038485            3 
 1623000    1.0055633   -7.3788069    446.61291  0.022931449  0.023030691            4 
 1624000    1.0164288   -7.4421419    447.00799  0.022937602  0.023022809            8 
 1625000   0.97427548   -7.4109793    447.11899  0.022929179  0.023014899            2 
 1626000    1.0162045   -7.3981019    446.83018  0.022900276   0.02300702            6 
 1627000   0.99741728   -7.4074269    446.96066  0.022892884  0.022999215            5 
 1628000   0.99141057   -7.3821437    448.42994  0.022954031  0.022991437            3 
 1629000    1.0089526   -7.4125525    446.94898  0.022864179  0.022983773            7 
 1630000   0.98274916   -7.4069268    447.04569  0.022855097  0.022976047            4 
 1631000   0.98971245   -7.4131071    446.82687  0.022829903  0.022968226            4 
 1632000   0.98243387   -7.3615844    449.09817  0.022931892  0.022960416            7 
 1633000    1.0031337   -7.4494788    448.08919   0.02286636  0.022952611            5 
 1634000    1.0018249   -7.4234456    448.52489  0.022874586  0.022944746            6 
 1635000    0.9745701   -7.3882404    449.06503  0.022888126  0.022937041            5 
 1636000   0.98169349   -7.3997608    448.17981  0.022829045  0.022929309            4 
 1637000   0.98744153   -7.4181083    447.66779  0.022789034  0.022921583           17 
 1638000   0.98332081   -7.3906657    449.94888  0.022891172  0.022913777           11 
 1639000    1.0093757   -7.3927811    449.43958  0.022851311  0.022906012            3 
 1640000   0.97277889   -7.4349859    448.53475    0.0227914  0.022898268            5 
 1641000    1.0051534   -7.4106702    449.10966  0.022806706  0.022890508            4 
 1642000   0.98083051   -7.3985832    448.80695  0.022777454  0.022882771            4 
 1643000   0.96322072   -7.4013162    449.93422  0.022820766  0.022874989            4 
 1644000   0.97563977    -7.391985     450.2897  0.022824904  0.022867313            3 
 1645000    0.9741084   -7.3745707    451.23739  0.022859037  0.022859536           11 
 1646000   0.98955178   -7.4350586    449.37974  0.022751101  0.022851874            3 
 1647000   0.97678945   -7.3970473    450.77369  0.022807817  0.022844223            2 
 1648000   0.99574668   -7.4448432    449.89437  0.022749513  0.022836677            6 
 1649000     1.006531   -7.4275767    451.02925  0.022793069  0.022829032            5 
 1650000   0.98525131   -7.3859721    451.64453   0.02281033  0.022821405            2 
 1651000   0.98328598   -7.4137825    450.67173  0.022747412   0.02281379            7 
 1652000   0.99659944   -7.4513149    450.85854  0.022743066  0.022806057            3 
 1653000   0.97939124   -7.4480793    450.84923  0.022728838  0.022798342            4 
 1654000   0.99356695   -7.4235893    450.85156  0.022715213  0.022790641            9 
 1655000    1.0046481   -7.4480327    450.97982  0.022707947  0.022782986            7 
 1656000     1.007512   -7.3913978    451.69905  0.022730427  0.022775281            3 
 1657000   0.99136047   -7.4043252    451.84019  0.022723807  0.022767597            2 
 1658000   0.99343142   -7.3847529     452.3504  0.022735746  0.022759879            7 
 1659000   0.97529193    -7.404834    451.38518  0.022673557  0.022752212            3 
 1660000    1.0000109    -7.411727    451.63925  0.022672653  0.022744598            4 
 1661000   0.98654554   -7.3923508    452.74067  0.022714262  0.022736955            4 
 1662000   0.98184676   -7.4096838    452.51964  0.022689513  0.022729414            2 
 1663000   0.98323049   -7.4087894    452.85089  0.022692468  0.022721997            7 
 1664000   0.98749072   -7.3923365     454.8938   0.02278114  0.022714464            6 
 1665000    1.0077541   -7.4121852    452.77384  0.022661353  0.022706955            5 
 1666000   0.98384304    -7.480929    452.17987  0.022618041  0.022699363           13 
 1667000   0.99165676   -7.3697331    455.13795  0.022752347  0.022691904            8 
 1668000   0.99472305   -7.4558759    452.70063  0.022616938  0.022684399            9 
 1669000   0.98149406   -7.4461851    454.32781  0.022684632  0.022676832            3 
 1670000   0.97335266   -7.4343505    454.96165  0.022702677  0.022669349            5 
 1671000   0.99153063   -7.3979197    455.87614  0.022734697  0.022661905            4 
 1672000   0.98157136   -7.4538449    454.34968   0.02264502   0.02265449            5 
 1673000   0.97854884   -7.4089265    454.46818  0.022637387  0.022647159            2 
 1674000   0.98441613   -7.4031772    456.04541   0.02270238  0.022639715            6 
 1675000   0.98780699   -7.4305866    455.54177   0.02266377  0.022632388           10 
 1676000   0.96972227   -7.3830504    456.57999  0.022701869  0.022625094            4 
 1677000   0.97557595   -7.3951504    456.15835   0.02266738  0.022617856            5 
 1678000   0.99103728   -7.3736821    457.40984  0.022716023   0.02261056            2 
 1679000   0.98846113   -7.4301587    455.37772  0.022601634  0.022603182            6 
 1680000   0.99648735   -7.4750131     454.2468  0.022532084  0.022595759            8 
 1681000   0.97810266   -7.4171471    457.00961  0.022655642  0.022588436            4 
 1682000   0.98921554   -7.4243572    457.25399   0.02265428   0.02258114            2 
 1683000   0.97622775   -7.4096604    457.53848  0.022654906  0.022573861            9 
 1684000   0.96030623   -7.4267314    457.46419  0.022637777  0.022566525            7 
 1685000    1.0014087   -7.4732129    456.42073  0.022572736  0.022559248            7 
 1686000   0.98411532   -7.4299324    457.31595  0.022603596  0.022551963           14 
 1687000    1.0071732   -7.4592868    456.68964  0.022559259  0.022544499            5 
 1688000   0.99932283   -7.4344272    457.49505  0.022585656  0.022537171            7 
 1689000   0.98020449   -7.4556369    458.21374  0.022607743  0.022529875            4 
 1690000   0.96716328   -7.4054971    457.99063  0.022583364  0.022522607            3 
 1691000   0.97469043   -7.4540531    456.71533  0.022507162  0.022515217            4 
 1692000   0.98756997   -7.4725948     457.1739  0.022516445  0.022507797            3 
 1693000   0.98735256   -7.4680351    458.68356  0.022577454  0.022500488            8 
 1694000   0.96885513   -7.4357298    457.76404  0.022518892  0.022493303            4 
 1695000   0.98877799   -7.4703872    457.64098  0.022499556  0.022486018            4 
 1696000    1.0179637   -7.4865875    457.04215  0.022456867  0.022478585            3 
 1697000   0.99528376   -7.4370658    459.15611  0.022547442  0.022471193            4 
 1698000    0.9923397    -7.467393    457.82683  0.022468926  0.022463828           15 
 1699000   0.98546232   -7.4207798    458.96988  0.022511766  0.022456438            6 
 1700000   0.97115173   -7.4520694    458.71255  0.022485909  0.022449169            8 
 1701000   0.95251688   -7.4203004    457.75343  0.022425702  0.022441755            4 
 1702000   0.97390491   -7.4515675    458.10509  0.022429744   0.02243427           15 
 1703000   0.96698677   -7.4376491    458.16678  0.022419592  0.022426957           11 
 1704000    0.9944476   -7.4529608    458.60417  0.022427825  0.022419641            3 
 1705000   0.97474785   -7.4580489    459.10481   0.02243914   0.02241229            3 
 1706000   0.99156068   -7.4350261    460.53342  0.022495771  0.022404962            2 
 1707000   0.97547547   -7.4734361    460.84577  0.022497841  0.022397598            7 
 1708000   0.96833495   -7.4307035    460.46724    0.0224662   0.02239031            8 
 1709000   0.97069077   -7.4392982    459.74968  0.022418065  0.022382954            4 
 1710000   0.95729282   -7.3998747    461.40128  0.022485443  0.022375673            4 
 1711000    1.0005832   -7.4157626    460.49045  0.022427939   0.02236855            8 
 1712000   0.98056788   -7.4526962    461.59495  0.022468601  0.022361376            7 
 1713000    0.9812978   -7.4603577    460.80436  0.022417025  0.022354295            4 
 1714000   0.96596931   -7.4177872    462.68657  0.022495458  0.022347186            8 
 1715000   0.96564089   -7.4216054    463.17548  0.022506097  0.022340087            5 
 1716000   0.96414595   -7.4799665    461.47835  0.022410565  0.022332972            6 
 1717000   0.97189422   -7.4556083    460.83188  0.022366136  0.022325787            4 
 1718000   0.97111234   -7.4329307    462.43404  0.022430832  0.022318644           10 
 1719000   0.98414551   -7.4364509    461.02267  0.022349364  0.022311511            5 
 1720000   0.94930117   -7.4076094    463.01175   0.02243274  0.022304335            4 
 1721000   0.98785007   -7.4516473     462.0639  0.022373809  0.022297192            7 
 1722000   0.98021559   -7.4458127     463.2123  0.022416391  0.022290019            4 
 1723000   0.97695587   -7.4235483    463.27448  0.022406388  0.022282965            7 
 1724000   0.97753124   -7.4914421    461.40863  0.022303201  0.022275844            6 
 1725000   0.96660828    -7.450329    462.23639   0.02233026  0.022268742            7 
 1726000   0.96694924   -7.4078831    464.94102  0.022447906  0.022261751            3 
 1727000   0.96359021   -7.4439805    463.42043  0.022361534  0.022254706            7 
 1728000    0.9755784    -7.456016    464.50817   0.02240105  0.022247717            6 
 1729000   0.96227897   -7.4090904    465.37049  0.022429655  0.022240703            3 
 1730000   0.97473614   -7.4279079     463.4373   0.02232357  0.022233652            6 
 1731000   0.97250761   -7.4346733     465.5553  0.022412637  0.022226682            7 
 1732000   0.99980253    -7.420277    465.32071   0.02238841  0.022219775            5 
 1733000   0.98448968   -7.4621377    464.81868   0.02235135  0.022212897            3 
 1734000   0.96678089   -7.4297613    466.13222  0.022401587  0.022205996            6 
 1735000    1.0060145   -7.4393596    465.77985  0.022371751  0.022199051            4 
 1736000   0.97870916   -7.5005326    464.62112  0.022303241  0.022192154            3 
 1737000   0.97063665   -7.4487507    464.89277  0.022303434  0.022185234            3 
 1738000   0.97750124   -7.4675305    465.42726  0.022316229  0.022178309            5 
 1739000   0.96816338   -7.4889982    465.56855  0.022310166  0.022171335            6 
 1740000   0.96655065   -7.4678353    466.67221  0.022350201  0.022164261            6 
 1741000   0.96914147   -7.5092107    465.56305  0.022284274  0.022157165            6 
 1742000   0.99458999   -7.4852961    464.70769  0.022230563  0.022150125            5 
 1743000   0.96283866   -7.4854573    466.08646  0.022283728  0.022143128            3 
 1744000    0.9629268   -7.4714187    466.03582  0.022268531  0.022136137            3 
 1745000   0.96701575   -7.4534428    465.06729  0.022209517  0.022129117            6 
 1746000   0.98622922   -7.4777135    465.48845  0.022216898  0.022122173           11 
 1747000   0.99887957   -7.4817497    466.78632  0.022266091  0.022115201            4 
 1748000   0.96910388   -7.4491598    467.20486  0.022273306  0.022108262            2 
 1749000   0.94705246   -7.4618532    467.38876  0.022269333  0.022101291            3 
 1750000   0.97288566   -7.4225064    466.38172  0.022208653  0.022094348            5 
 1751000   0.97062348    -7.430873    467.57286  0.022252658  0.022087367            5 
 1752000   0.98260175   -7.4887924    466.17929  0.022173673  0.022080386            5 
 1753000   0.97929388    -7.474804    466.74455  0.022187895  0.022073309            6 
 1754000   0.96503174   -7.4781837    467.74784  0.022222912   0.02206639            3 
 1755000   0.97645546   -7.4770847    467.22495   0.02218542  0.022059401            9 
 1756000   0.97396875   -7.4900401    467.92611  0.022206061  0.022052414            4 
 1757000   0.96510301   -7.4693423    469.78357   0.02228152  0.022045509            7 
 1758000   0.96987297    -7.491621    467.34051  0.022153039   0.02203857            2 
 1759000    0.9648108   -7.4493125    470.04765  0.022268697  0.022031709            4 
 1760000    0.9834594   -7.4446183    468.06094  0.022161977  0.022024805            3 
 1761000   0.97723258   -7.5029794    469.26738  0.022206482  0.022017882            7 
 1762000   0.93799213    -7.470141    469.31831  0.022196288  0.022010878            2 
 1763000   0.97416638   -7.4554753    468.46175   0.02214321  0.022003902            8 
 1764000   0.97773788    -7.451516    469.32829  0.022171594  0.021997012            8 
 1765000   0.95118044   -7.4633684    468.88782  0.022138235  0.021990054            6 
 1766000   0.94939326   -7.4959663    468.09938  0.022088495  0.021983023            8 
 1767000   0.96392804   -7.4780942    468.94892  0.022116059  0.021976092            5 
 1768000   0.96250624   -7.4609717    469.19096  0.022114958  0.021969132            9 
 1769000   0.95408046    -7.434316    469.02823  0.022094792  0.021962149            9 
 1770000    0.9492976   -7.4892824    468.14618   0.02204078  0.021955133            4 
 1771000   0.97376828   -7.4532653    469.37106  0.022085971  0.021948101            5 
 1772000   0.99181494   -7.4998996    468.04811  0.022011292  0.021941022            5 
 1773000   0.95924672   -7.4678357     468.5134  0.022020746  0.021933823            4 
 1774000   0.97621184   -7.4882534    467.73479  0.021971758  0.021926688            6 
 1775000   0.97074113   -7.4735324    469.53967  0.022044116  0.021919511           18 
 1776000   0.94917387   -7.4559352    468.34429  0.021975614  0.021912428            5 
 1777000   0.95662448   -7.4674662    468.74811  0.021982185  0.021905321            3 
 1778000    0.9810616    -7.474504    469.12547  0.021987508  0.021898208            5 
 1779000   0.94824278   -7.4791665     468.2149  0.021932495  0.021891055            4 
 1780000   0.94002229   -7.4715124    468.51627  0.021934282  0.021883861            9 
 1781000   0.96793147   -7.4919424    468.71763  0.021931388  0.021876598            6 
 1782000   0.96487205   -7.4546132    470.14936  0.021986035  0.021869439            4 
 1783000   0.97327902   -7.5022409    469.34894  0.021936294  0.021862257            3 
 1784000   0.95456913   -7.4977294    469.34761  0.021923936  0.021855047           10 
 1785000   0.95557185   -7.4996162    468.74659  0.021883595   0.02184779           10 
 1786000    0.9689701   -7.4904537    468.53114  0.021861289  0.021840543            6 
 1787000   0.96485615   -7.5417493      468.579  0.021851287  0.021833271            3 
 1788000   0.95613041   -7.4974002    470.48802   0.02192804  0.021826062            4 
 1789000    0.9507921   -7.4980435    469.65354  0.021876912  0.021818932            5 
 1790000   0.95613193   -7.5118931    471.17938  0.021935725  0.021811745           12 
 1791000   0.95987444   -7.4698422    470.65039  0.021898864  0.021804619            2 
 1792000   0.95038983   -7.4611808    471.40664  0.021921812  0.021797545            7 
 1793000   0.96245757   -7.4382028    472.02839  0.021938483  0.021790521            3 
 1794000   0.96487927    -7.477369    472.99312  0.021971067   0.02178353            6 
 1795000   0.95392423   -7.4926157    472.67416  0.021944019  0.021776506            3 
 1796000   0.98299478   -7.5091275    471.69498  0.021886367  0.021769483            3 
 1797000   0.97965567   -7.5013061    471.53044  0.021866557   0.02176241            7 
 1798000   0.96823125   -7.4983041    471.78403  0.021866149  0.021755309            3 
 1799000    0.9664994   -7.4900026    471.56438   0.02184382  0.021748236            3 
 1800000   0.94798187   -7.4487989    472.21572  0.021861839  0.021741204            5 
 1801000   0.96069715   -7.4507722    473.76566  0.021921417  0.021734237            3 
 1802000   0.95791014   -7.5091937    471.09494  0.021785744  0.021727262            4 
 1803000   0.97822218   -7.4668298    472.99819  0.021861628  0.021720148            4 
 1804000   0.96757959   -7.4930026     471.0847  0.021761119  0.021713071           12 
 1805000   0.96128043   -7.4961869    471.63241  0.021774349  0.021705956            8 
 1806000   0.97439117   -7.5007496    474.00198  0.021871631  0.021698853            4 
 1807000   0.94511833   -7.5182781    472.09397  0.021771535  0.021691733            6 
 1808000   0.94107389   -7.5378249    472.72503   0.02178858  0.021684655            3 
 1809000   0.97157724   -7.5005157    472.47939   0.02176522  0.021677608            9 
 1810000   0.94503717   -7.4876328    473.28851  0.021790447  0.021670483            6 
 1811000   0.96268628   -7.5053636    472.34794  0.021735135   0.02166333            9 
 1812000   0.97325142   -7.4925288    473.48022  0.021775213    0.0216562            3 
 1813000   0.93017944   -7.5061916    472.23771  0.021706091  0.021649032            6 
 1814000   0.97588162    -7.452471    475.46629  0.021842442  0.021641968            5 
 1815000    0.9685085    -7.437146    472.97339   0.02171595  0.021635067            4 
 1816000   0.93754479   -7.4973662    474.33576  0.021766509  0.021628079           11 
 1817000   0.97445966   -7.5076369    474.33316   0.02175441  0.021621019           10 
 1818000   0.97602136   -7.5164771    472.90743  0.021677092  0.021613892            4 
 1819000   0.95239369   -7.5000345    473.29435  0.021682901  0.021606876            2 
 1820000   0.96818194   -7.4773501    473.80064  0.021694169   0.02159975            3 
 1821000   0.94980776   -7.4726543    475.00456   0.02173735  0.021592654           12 
 1822000   0.96039601   -7.4981686    473.19395  0.021642606  0.021585534            6 
 1823000   0.96971468   -7.4807222    474.67014  0.021698214  0.021578451            5 
 1824000   0.96481352    -7.489796    473.38869  0.021627773  0.021571376            4 
 1825000   0.96413986   -7.4863548    475.40006  0.021707765  0.021564285           13 
 1826000    0.9679662   -7.4474192     475.3012  0.021691365  0.021557203            7 
 1827000   0.93445741   -7.4851531    474.65078  0.021649826  0.021550037            3 
 1828000   0.96040657   -7.5170372    473.70706  0.021594961  0.021542824            3 
 1829000   0.97281251   -7.4850624    473.32667  0.021565823  0.021535566            6 
 1830000   0.96959151   -7.5215307    474.45689  0.021605505  0.021528409            4 
 1831000   0.96077148   -7.5149523    474.75757   0.02160739   0.02152122            3 
 1832000   0.97509967   -7.5036667    475.29177  0.021619895  0.021513998            6 
 1833000   0.95139295   -7.5118625    473.81097  0.021540779  0.021506815            2 
 1834000   0.97509438   -7.5366492    474.16949  0.021545324  0.021499666            3 
 1835000   0.95894889   -7.5033546    475.32414  0.021586019  0.021492452            5 
 1836000   0.94560497   -7.5122147    474.26503  0.021526191  0.021485239            6 
 1837000    0.9644679   -7.4476001     474.6867  0.021533601  0.021478126           15 
 1838000   0.96301036   -7.5021946     475.7536  0.021570258  0.021470995            3 
 1839000     0.928855   -7.5087377    475.50963  0.021547473  0.021463919            3 
 1840000   0.96861186   -7.4953406     476.7136   0.02159029   0.02145689            6 
 1841000   0.97764592   -7.4949748    476.93675  0.021588663  0.021449825            9 
 1842000   0.94762927   -7.5058755    475.98962  0.021534094  0.021442719            3 
 1843000   0.96678816   -7.4981003    476.85375  0.021561483    0.0214356            3 
 1844000   0.96489381   -7.4661353    477.04848   0.02155859  0.021428484            9 
 1845000   0.94374347   -7.5266553    477.09709  0.021549101  0.021421431            5 
 1846000   0.94681354   -7.5112359    475.90938  0.021483811  0.021414401            4 
 1847000   0.94304523   -7.4906393    478.19058  0.021575103  0.021407395            8 
 1848000   0.96464096    -7.498794    477.97607  0.021553755  0.021400438            4 
 1849000   0.95884079   -7.5505585    477.36348  0.021514489  0.021393477            5 
 1850000   0.94512489   -7.4926397    478.30914  0.021545457  0.021386509            7 
 1851000   0.96010051    -7.515893    477.70685  0.021506701  0.021379511           13 
 1852000   0.94859453    -7.488933    478.35324  0.021524174  0.021372466            3 
 1853000   0.97809885    -7.527913    478.54391  0.021521133   0.02136545            7 
 1854000   0.95653669   -7.5150091    476.91251  0.021436197  0.021358434            3 
 1855000   0.96320341   -7.4950603    478.67151  0.021503662  0.021351459            2 
 1856000   0.93954627   -7.4954432    478.07373  0.021465236  0.021344405            3 
 1857000   0.94637539    -7.497927    479.49465  0.021517441   0.02133735            6 
 1858000   0.93311525   -7.4651027     478.8141  0.021475336  0.021330323            3 
 1859000   0.95519531   -7.5251312    478.17758  0.021435251  0.021323288            6 
 1860000   0.95920782   -7.5494337    476.76361  0.021360377  0.021316164            6 
 1861000   0.93936111   -7.5316766    477.46183  0.021380165  0.021308974            4 
 1862000   0.95945603     -7.52941    477.32861   0.02136272  0.021301846            6 
 1863000   0.95648364   -7.5097425    478.68209  0.021411795  0.021294707            3 
 1864000    0.9530472   -7.5260656    477.12331   0.02133062  0.021287572            5 
 1865000   0.93782276   -7.5219891    478.24539   0.02136932  0.021280418            7 
 1866000   0.95098494    -7.569917    475.91233  0.021253677  0.021273263            6 
 1867000   0.94244765   -7.4998994    478.43774  0.021355014  0.021266099            2 
 1868000   0.93780298    -7.499708    478.88722  0.021363634  0.021258944            8 
 1869000   0.92711214   -7.5286681     479.0904  0.021361263  0.021251895            5 
 1870000   0.94140358   -7.5147005    478.77977  0.021335997  0.021244769            2 
 1871000   0.94412367   -7.5255951    479.58872  0.021360623  0.021237681            5 
 1872000   0.94409518   -7.5328838    478.44797  0.021298432  0.021230515            3 
 1873000   0.96383266   -7.5459806    478.42788  0.021286166  0.021223347            4 
 1874000   0.95040884   -7.5023518    479.70813  0.021331738  0.021216225            5 
 1875000   0.95844926   -7.5180846    479.11927   0.02129419  0.021209139            3 
 1876000   0.93601804   -7.4932584    480.27396  0.021334131  0.021202005            4 
 1877000   0.94482338    -7.520826    480.29603  0.021323745  0.021194929            5 
 1878000   0.92954398   -7.4919323    481.02287  0.021344643  0.021187849            5 
 1879000   0.94464003   -7.5347845    479.82726  0.021280258  0.021180816           20 
 1880000   0.94795538   -7.5227501    479.78785  0.021267192  0.021173722            5 
 1881000   0.93872948    -7.513428    480.02816  0.021266532  0.021166712            5 
 1882000   0.95551498   -7.5262038    480.43751  0.021273358  0.021159747            6 
 1883000    0.9511609   -7.5453716    479.29144   0.02121134  0.021152691            4 
 1884000    0.9557634   -7.5286632     480.7646  0.021265242    0.0211456            3 
 1885000   0.96819909   -7.5144607    480.45556  0.021240299  0.021138599            3 
 1886000   0.93749573   -7.5186327    481.45997  0.021273417  0.021131555            4 
 1887000   0.96299078   -7.5018628    481.49869  0.021263853   0.02112452            6 
 1888000   0.94499923   -7.5251048    482.44572  0.021294391  0.021117473           12 
 1889000   0.97935857   -7.5041911    482.25751  0.021274815  0.021110411            4 
 1890000   0.97234435   -7.5624325    481.48708  0.021229589  0.021103339            3 
 1891000   0.96282307   -7.5274262     481.4629  0.021217297  0.021096219            4 
 1892000   0.95123508   -7.5448593    480.26997   0.02115354  0.021089099            4 
 1893000   0.92262393   -7.5601418    480.88477   0.02116943   0.02108198            4 
 1894000   0.95418235    -7.537858    482.08113  0.021210891  0.021074885            5 
 1895000   0.94631016   -7.5237035    481.35613  0.021167816  0.021067811            3 
 1896000    0.9747169   -7.5422066    482.16886  0.021192372  0.021060693            5 
 1897000   0.93273227   -7.4798535    483.81606  0.021253561  0.021053658            3 
 1898000   0.93186136   -7.5231912    483.25317  0.021217649  0.021046666            4 
 1899000   0.96541144   -7.5257979    483.26096  0.021206817  0.021039706           19 
 1900000   0.93953066   -7.5342454    482.17343  0.021147958  0.021032698           10 
 1901000   0.96805315   -7.5130316    483.91486  0.021213171  0.021025759            3 
 1902000   0.95573206   -7.5224916    482.66383  0.021147206  0.021018817            7 
 1903000   0.92461611   -7.5294102    482.52152  0.021129862  0.021011841            6 
 1904000   0.94695269   -7.5475672    482.87667  0.021134308  0.021004862            6 
 1905000   0.97270787   -7.5226249    483.10583  0.021133238  0.020997826            7 
 1906000   0.93013254   -7.5247748    482.49305  0.021095359   0.02099084            5 
 1907000   0.94945786   -7.5261595    483.87931  0.021144874  0.020983841            8 
 1908000    0.9346472   -7.5555096    482.41086  0.021069657  0.020976858           10 
 1909000   0.94603125   -7.5304949    484.08568  0.021131731    0.0209698            8 
 1910000   0.95910929    -7.576421    481.97652  0.021028644  0.020962799            6 
 1911000   0.94815636   -7.5443485    484.05783    0.0211084  0.020955823            3 
 1912000   0.92620152   -7.5691882    483.24041  0.021061734  0.020948776            4 
 1913000   0.95935433   -7.5550284    483.66844  0.021069369  0.020941742            4 
 1914000    0.9428502   -7.5493889    484.91871  0.021112797  0.020934707            4 
 1915000   0.97570351   -7.5612814    483.77002  0.021051785  0.020927642            3 
 1916000   0.94178147   -7.5263261    485.16241  0.021101357  0.020920654            4 
 1917000   0.93156572   -7.5387717    485.36699  0.021099243  0.020913675            6 
 1918000   0.95866994   -7.5705884    483.14728    0.0209918  0.020906667            3 
 1919000   0.93384318   -7.5539833    483.49714  0.020996054  0.020899629            9 
 1920000   0.94816188   -7.5385698    484.15883  0.021013838   0.02089265            5 
 1921000   0.95176339   -7.5528931    483.99412  0.020995754  0.020885643            4 
 1922000   0.94728763   -7.5441534    483.87356  0.020979603  0.020878685            4 
 1923000   0.94141357   -7.5383086    485.67579  0.021046793  0.020871716            5 
 1924000   0.96329533    -7.574245     484.7796  0.020997037   0.02086472            6 
 1925000   0.94201383   -7.5304549    485.49519  0.021017108  0.020857738            6 
 1926000   0.95989736   -7.5555858    486.04729  0.021030084  0.020850729           12 
 1927000   0.95308353   -7.5467697    484.15692  0.020937421  0.020843699           11 
 1928000   0.96045687    -7.549741    486.06292  0.021008943  0.020836808            7 
 1929000   0.94043999   -7.5666292    485.70126  0.020982429  0.020829905            3 
 1930000   0.96282854   -7.5377501    486.06605  0.020987308  0.020823061            6 
 1931000   0.93763797   -7.5390744    486.83686  0.021009704  0.020816211            8 
 1932000   0.93859105   -7.5122107    487.83026  0.021041678  0.020809387            4 
 1933000   0.94601682   -7.5492369    486.07713  0.020955214  0.020802549           12 
 1934000   0.92619443    -7.528618    486.22225  0.020950631  0.020795735            5 
 1935000    0.9411872    -7.539508    486.17493  0.020937766  0.020788895            8 
 1936000   0.93374941    -7.561491    486.68475  0.020948896  0.020782015            7 
 1937000   0.92747556   -7.5704336    486.15514  0.020915296  0.020775057            5 
 1938000   0.93579072   -7.5255667    488.99708  0.021026706  0.020768181           13 
 1939000   0.93497364   -7.5687417    487.13998  0.020936049  0.020761337            4 
 1940000   0.94484828   -7.5447159    488.50132  0.020983734  0.020754519            7 
 1941000   0.93917738   -7.5003276    488.36635  0.020967128  0.020747728            7 
 1942000   0.93525907   -7.5632634    487.00404  0.020897873  0.020740985            7 
 1943000   0.95827116   -7.5908434    486.80705  0.020878669  0.020734099            3 
 1944000   0.93247665   -7.5735404    488.57436  0.020943688  0.020727233            6 
 1945000   0.92829134    -7.575884    488.04711   0.02091033  0.020720353            5 
 1946000   0.95080673   -7.5371719     487.4591  0.020874405  0.020713558            8 
 1947000   0.92496152   -7.5567706    488.71656  0.020917504  0.020706768            5 
 1948000   0.94073461   -7.5864319    486.79129  0.020824405  0.020699966            8 
 1949000   0.93710338   -7.5621258    488.01943  0.020866232  0.020693181            3 
 1950000   0.94473551   -7.5778234    488.23811  0.020864877  0.020686355            5 
 1951000   0.93837749   -7.5620231    488.69293  0.020873609  0.020679575            9 
 1952000   0.91284235   -7.5518642     489.1196  0.020881131  0.020672752            4 
 1953000   0.92044173   -7.5756143    487.27233  0.020791617  0.020665839           11 
 1954000   0.93241883     -7.57188    487.72863  0.020800436  0.020658948            6 
 1955000   0.92287364   -7.5888794     486.9266   0.02075561  0.020651985           27 
 1956000   0.93330676   -7.5732377    487.22447  0.020757689  0.020645027            5 
 1957000    0.9441318    -7.570284    487.33236  0.020751676  0.020638021           10 
 1958000   0.95998286     -7.55521    488.32522  0.020783334  0.020631121            4 
 1959000   0.94466058   -7.5585764    489.63243  0.020828332  0.020624259           13 
 1960000   0.91967475   -7.5179932    490.47451  0.020853508  0.020617462            5 
 1961000   0.92112529   -7.5182292    489.31502  0.020793601  0.020610654            5 
 1962000   0.94136116   -7.5638797    488.96136  0.020767982  0.020603763            5 
 1963000   0.94097797   -7.5585755    490.32659  0.020815359  0.020596914            4 
 1964000    0.9498035   -7.5306576    489.89083  0.020786271  0.020590034            8 
 1965000   0.94923382   -7.5724448     489.5037  0.020759275  0.020583137            7 
 1966000   0.94089622   -7.5696696    489.10495  0.020731814  0.020576275            6 
 1967000   0.94252889   -7.5767441    489.00785   0.02071716  0.020569337            8 
 1968000   0.92794383   -7.5890489    488.60395   0.02068953  0.020562433            8 
 1969000   0.94089902   -7.6116341    487.26139  0.020622202   0.02055539            9 
 1970000   0.95426425   -7.6203799    488.28915  0.020655209  0.020548411            4 
 1971000   0.94895602    -7.585967    489.27478  0.020686402   0.02054149           14 
 1972000   0.92633015   -7.5604204    490.67923  0.020735262   0.02053458            5 
 1973000   0.95715497   -7.5220963    491.06333  0.020740975   0.02052771            7 
 1974000   0.93468256   -7.5832638    489.45818  0.020662706  0.020520859            6 
 1975000   0.95110414   -7.5701295    488.85013  0.020626588  0.020513961            7 
 1976000   0.92132296   -7.5621063    491.27286  0.020718322   0.02050705            3 
 1977000   0.93103638   -7.5690259    490.42701  0.020672189  0.020500132            2 
 1978000   0.93602065   -7.5946288    489.58531  0.020626277  0.020493179            6 
 1979000   0.94821895   -7.5952718    489.66114  0.020619047   0.02048625            2 
 1980000   0.92372725   -7.5436593    491.68064   0.02069363  0.020479417            8 
 1981000   0.92538317   -7.5872624      489.835  0.020605544   0.02047252            4 
 1982000   0.93036532   -7.5714785    491.78711  0.020677225  0.020465603            9 
 1983000   0.94545533   -7.6145782    490.46913  0.020611411  0.020458683            4 
 1984000   0.93969275   -7.5795675      490.155  0.020587828  0.020451778           10 
 1985000   0.93354309   -7.6060523    491.44539  0.020631628  0.020444901           13 
 1986000   0.91472997   -7.5748767    492.66613  0.020672463  0.020438103            7 
 1987000    0.9454069   -7.5784654    490.76025  0.020582128  0.020431271            9 
 1988000   0.92166356   -7.5837872    491.91633  0.020620235  0.020424386            8 
 1989000   0.91075898   -7.5912929    491.77066  0.020603765  0.020417549            6 
 1990000   0.92514544   -7.5888474    491.26372  0.020572182  0.020410707            5 
 1991000   0.94452043   -7.5878015    491.82843  0.020585486  0.020403845            4 
 1992000   0.94954912   -7.5849133    491.47593  0.020560405  0.020397013            6 
 1993000   0.91879966   -7.6029144    491.95477  0.020570111  0.020390221           11 
 1994000   0.93677291   -7.6042459    490.40702  0.020495111  0.020383316            6 
 1995000   0.93932837   -7.5749633    491.70712  0.020539145  0.020376432            4 
 1996000   0.93352357   -7.5534618    492.41552   0.02055843  0.020369556            3 
 1997000   0.93263117   -7.5577328    493.04273  0.020574308  0.020362734            4 
 1998000   0.94259736   -7.5760464    492.84625  0.020555816  0.020355867            9 
 1999000   0.94112711   -7.5857527    493.76716  0.020583924   0.02034905            4 
 2000000    0.9262123   -7.5789897    491.60509  0.020483545  0.020342229            6 
 2001000   0.94174015   -7.5500339    492.68609  0.020518328  0.020335474            5 
 2002000   0.92682136   -7.5736615    492.13518  0.020485147  0.020328656            9 
 2003000    0.9206654    -7.558302    492.63214  0.020495596  0.020321843            5 
 2004000   0.94536231    -7.597116    493.00691  0.020500953  0.020315009            6 
 2005000   0.92837298    -7.585936    492.65162  0.020475961  0.020308136            8 
 2006000   0.93119692   -7.5629029    493.77386  0.020512374  0.020301254           10 
 2007000   0.92418445   -7.5733207      493.628  0.020496097  0.020294368            6 
 2008000    0.9277337   -7.6205763    491.79989  0.020410022  0.020287473            5 
 2009000   0.93018285   -7.6276886    493.12867   0.02045498  0.020280579            5 
 2010000   0.91464815   -7.5989375    492.90144  0.020435383  0.020273736            9 
 2011000   0.92782967   -7.6250428    492.64085  0.020414423  0.020266805            9 
 2012000   0.93091978   -7.6109522     493.2463  0.020429353  0.020259882            7 
 2013000   0.93228981   -7.6146824    493.46167   0.02042812  0.020252966            8 
 2014000    0.9489842   -7.6398919    492.09073  0.020361251  0.020245989            8 
 2015000   0.92208438    -7.595974    493.55393   0.02041166  0.020238998           17 
 2016000   0.93434681   -7.5933618     493.4121  0.020395672  0.020232057           14 
 2017000   0.93340925   -7.5634516    494.38719  0.020425847  0.020225178            4 
 2018000   0.92555719   -7.6122999    492.05067  0.020319238  0.020218255            8 
 2019000   0.92923146   -7.5761087    493.56171  0.020371542  0.020211383            6 
 2020000   0.93053902   -7.5955299    494.75154  0.020410542  0.020204551           16 
 2021000   0.91423424   -7.5651845    493.64889  0.020354977  0.020197733            4 
 2022000   0.94137034   -7.5842482    495.81939  0.020434363  0.020190914            5 
 2023000   0.93945899   -7.5817149    494.94901  0.020388409  0.020184085            9 
 2024000   0.94913247   -7.5824526    495.30701  0.020393075  0.020177276            8 
 2025000   0.92791444   -7.5636156    495.24066  0.020380274  0.020170486            5 
 2026000   0.95807941   -7.5696672    494.75567  0.020350266  0.020163619            3 
 2027000    0.9383552   -7.5665484    496.01063   0.02039182  0.020156801            4 
 2028000   0.91225073   -7.5966125    494.32215  0.020312383  0.020149949            3 
 2029000    0.9256993   -7.5598278    494.35702  0.020303804  0.020143088            5 
 2030000   0.92550608   -7.5916254    495.73016  0.020350171   0.02013619            7 
 2031000   0.94412913   -7.6023053    495.15698  0.020316633  0.020129357            6 
 2032000   0.92326135   -7.5954879    495.74291  0.020330664   0.02012254            4 
 2033000   0.94129269   -7.5976614    494.78962  0.020281588  0.020115788            5 
 2034000   0.93264146   -7.5658887    496.28784  0.020332999  0.020109048            5 
 2035000   0.92455706   -7.5868236    496.76074  0.020342373  0.020102294            7 
 2036000   0.92980569   -7.6027072    496.00447  0.020301427  0.020095587            4 
 2037000   0.94413755   -7.6135666    493.87069  0.020204168  0.020088796            7 
 2038000   0.91581763   -7.6226033    494.88408  0.020235692  0.020081999            4 
 2039000   0.93661384   -7.5969108    495.69764  0.020259018  0.020075122            4 
 2040000   0.92400174   -7.5855529    496.51614  0.020282522  0.020068281            4 
 2041000    0.9237242   -7.6049217    495.53497  0.020232524  0.020061481            6 
 2042000   0.93852714   -7.5835485    496.26843  0.020252548  0.020054682            5 
 2043000   0.91774785   -7.5923442    496.89269  0.020268098   0.02004791           10 
 2044000   0.91161092   -7.6722591    495.13342  0.020186457  0.020041054           12 
 2045000   0.91110125   -7.6492811    495.45006  0.020189489  0.020034153            4 
 2046000   0.91338255   -7.5939178    496.38542  0.020217718  0.020027357            4 
 2047000   0.91747173   -7.6080934    495.60404  0.020176032  0.020020562            8 
 2048000   0.90194399   -7.6241105    496.33207  0.020195804   0.02001372            7 
 2049000   0.93574797   -7.6553581    496.11546  0.020177138  0.020006902            6 
 2050000   0.92166564   -7.6246151    495.92127  0.020159401  0.020000072            4 
 2051000   0.93557903   -7.5863546    496.63346  0.020178509  0.019993267            2 
 2052000   0.91019702   -7.6056625    497.82788  0.020217182  0.019986461            3 
 2053000   0.92635451   -7.5995398     496.8404  0.020167251  0.019979709           11 
 2054000   0.91459382   -7.6177522    495.88981  0.020118866  0.019972872            8 
 2055000   0.92333954    -7.614354    496.98378  0.020153438  0.019966048            4 
 2056000   0.91669848   -7.5787958    498.29333  0.020196714   0.01995928            9 
 2057000   0.90149922   -7.6182959    497.96016  0.020173398  0.019952551            6 
 2058000   0.91474264   -7.5823957     499.2058  0.020214035   0.01994576            9 
 2059000   0.94844539   -7.5924181    497.49329  0.020134907  0.019939021            3 
 2060000   0.92551117   -7.5923136     498.7398  0.020175558  0.019932315            5 
 2061000   0.91759629   -7.5927937    499.62907  0.020201725  0.019925634            7 
 2062000   0.93297581    -7.609611    499.50358  0.020186857  0.019918988            6 
 2063000    0.9323315   -7.5802124    498.82864  0.020149808  0.019912307           10 
 2064000   0.89219882   -7.6111319    499.27799  0.020158188   0.01990561            4 
 2065000   0.91653181   -7.5683386    499.53759  0.020158902  0.019898951            6 
 2066000   0.94310043   -7.5911383    498.56369  0.020109862  0.019892239            5 
 2067000   0.92262602   -7.6634917    498.50642  0.020097824  0.019885541            8 
 2068000   0.91556346   -7.5891058    499.44243  0.020125823  0.019878856           10 
 2069000   0.92495725   -7.6302234    497.99776  0.020057909  0.019872106            7 
 2070000   0.91829006   -7.6021534    498.23614  0.020057816  0.019865362            9 
 2071000   0.92998821   -7.6179388    499.70677  0.020107306    0.0198587            5 
 2072000   0.90928583   -7.6302001    498.57446  0.020052062  0.019852025            4 
 2073000   0.91805603   -7.6376469    499.53506  0.020081004  0.019845351            6 
 2074000   0.92814713   -7.5872766    499.13634  0.020055301  0.019838699            8 
 2075000   0.88831499   -7.6123219    500.19389  0.020088108  0.019832068            4 
 2076000   0.91672011   -7.6288151    497.97803  0.019989484    0.0198254            7 
 2077000   0.91082192   -7.6291243    500.45713  0.020079326  0.019818699            5 
 2078000    0.9289764   -7.6119357    499.89659  0.020047185  0.019812014            6 
 2079000   0.92035626   -7.6350917     499.1908  0.020009251  0.019805324            9 
 2080000   0.90591221   -7.6102562    499.35426   0.02000618  0.019798621            5 
 2081000    0.9058227   -7.6071862    499.31783  0.019995108  0.019791902            9 
 2082000    0.9153606   -7.6155628    502.54529  0.020114685  0.019785214            6 
 2083000   0.90971993   -7.6476514    499.72236  0.019992093  0.019778485           10 
 2084000   0.92116407   -7.6243314    500.37786  0.020008712  0.019771767            9 
 2085000   0.90547948   -7.6503608    500.07833  0.019987143  0.019765036           12 
 2086000   0.90523767   -7.6190797    500.27843  0.019985556  0.019758375            5 
 2087000   0.90332909   -7.6440241    499.80862   0.01995722  0.019751625            7 
 2088000   0.91787363   -7.6704245    499.12518  0.019920386  0.019744848            7 
 2089000   0.89986368   -7.6438529    499.73282  0.019935089  0.019738072            5 
 2090000   0.91391797   -7.6230174    502.27374  0.020026863   0.01973134            7 
 2091000   0.92015966   -7.6127051    501.68687  0.019993897  0.019724669            5 
 2092000   0.92446413   -7.6050553    501.29362  0.019968675  0.019717955            4 
 2093000     0.921053   -7.6216559    500.61619  0.019932162  0.019711316            4 
 2094000    0.9269269   -7.5864221    501.78116  0.019969005  0.019704684            8 
 2095000   0.92317473   -7.6340071    500.67189   0.01991535  0.019698102            6 
 2096000   0.92140676   -7.5844328    502.40592   0.01997479  0.019691531            9 
 2097000   0.90609615     -7.61011    501.60882  0.019933589  0.019684983            4 
 2098000   0.89534877   -7.6131584    502.16109  0.019946024  0.019678421            6 
 2099000   0.90222768   -7.6100813    502.71768  0.019958619   0.01967186           14 
 2100000     0.891664   -7.6554127    500.50532  0.019861322    0.0196652           11 
 2101000   0.89473489   -7.6017363    501.96955  0.019909946  0.019658499            7 
 2102000     0.918384   -7.6410902    501.47972  0.019881055  0.019651814            5 
 2103000   0.92168946   -7.5992097    502.47098   0.01991088  0.019645165            6 
 2104000   0.91546218   -7.6330569    502.43717  0.019900078  0.019638481            6 
 2105000   0.90657828   -7.6619798    501.37347  0.019848514  0.019631845            6 
 2106000   0.92491297   -7.6038407    502.97824  0.019902589   0.01962518            9 
 2107000   0.92461284   -7.6462726      503.015  0.019894597  0.019618606            6 
 2108000   0.92415021   -7.6121517    502.28304  0.019856224  0.019611971           10 
 2109000   0.92586606   -7.6263112    502.39902  0.019851392  0.019605342            3 
 2110000   0.93067801   -7.6196446    502.39547  0.019841843  0.019598774            4 
 2111000   0.90305785    -7.642326    500.73169  0.019766765   0.01959215            3 
 2112000   0.93279202   -7.6136591    502.86669  0.019841646  0.019585568            7 
 2113000   0.92570395   -7.5981467    504.13345  0.019882215  0.019579026           10 
 2114000   0.92175486   -7.6096398     503.8604  0.019862047  0.019572481            3 
 2115000   0.89864008   -7.6240475     501.8632  0.019773964  0.019565917            4 
 2116000   0.91815333   -7.6285705    503.32959  0.019822369  0.019559278           10 
 2117000   0.91506295    -7.641056    502.58056  0.019783521  0.019552677            9 
 2118000   0.92172249   -7.6281705    503.80148  0.019822217  0.019546113           13 
 2119000   0.91751308   -7.6341954    503.38508  0.019796487  0.019539509            4 
 2120000   0.91561033   -7.6554741    502.15201   0.01973868  0.019532924            4 
 2121000   0.90806805   -7.6586878    503.77072  0.019792972  0.019526314            7 
 2122000   0.93437444   -7.6710585    504.34901  0.019806355  0.019519736            8 
 2123000   0.88903824     -7.64449    503.85999   0.01977783  0.019513144           11 
 2124000   0.91158522   -7.6454669    504.28435  0.019785167  0.019506597           30 
 2125000   0.90888489   -7.6295372    504.13042  0.019769821  0.019500035           23 
 2126000   0.91486012   -7.6541929    505.26202  0.019804877  0.019493502           12 
 2127000   0.92453105   -7.6385342    504.61773  0.019770323  0.019487068            6 
 2128000   0.91562503   -7.6572135    505.65502  0.019801653  0.019480539            6 
 2129000   0.91890209   -7.6363634    505.85656  0.019800241   0.01947406            6 
 2130000   0.92509313   -7.6875993    504.78682  0.019749093  0.019467541            9 
 2131000    0.9296387   -7.6833433    503.55722  0.019691742  0.019461005           13 
 2132000   0.91343646    -7.658935    505.02858  0.019740016  0.019454528            9 
 2133000   0.90155089   -7.6083176    506.03515  0.019770087  0.019448051           12 
 2134000   0.91519098   -7.6456604    506.05019   0.01976141  0.019441586            4 
 2135000   0.90975586   -7.6596286    506.38697  0.019765299  0.019435114            6 
 2136000   0.92049873   -7.6368592    506.47496  0.019759479  0.019428632            9 
 2137000   0.90120915   -7.6629337    506.38802  0.019746842  0.019422175           13 
 2138000   0.94165358   -7.6670539    504.86823  0.019678369  0.019415706            5 
 2139000   0.90472594   -7.6539156    504.77229  0.019665431  0.019409186            5 
 2140000   0.91577853   -7.6044579      505.725  0.019693341  0.019402659            3 
 2141000   0.90218619   -7.6628048    504.29325  0.019628416  0.019396163            8 
 2142000   0.92706737   -7.6617941    505.09658  0.019650505  0.019389651            6 
 2143000   0.90154716   -7.6331876    505.88983  0.019672182  0.019383164           12 
 2144000   0.91946439   -7.6377521    506.45148  0.019684837  0.019376636            6 
 2145000   0.90226134   -7.6436634     506.1821  0.019665194  0.019370141           31 
 2146000   0.91082076   -7.6220341    506.24813  0.019658595  0.019363623           26 
 2147000   0.91832303   -7.6707524    506.21474  0.019648142  0.019357082            6 
 2148000   0.91058864   -7.6814098    504.77303  0.019583063  0.019350511           12 
 2149000   0.92406641   -7.6674152    505.43398   0.01959958  0.019343917           21 
 2150000   0.92212559   -7.6552119    505.97449  0.019611414  0.019337368           18 
 2151000   0.92177749   -7.6652127    506.17654  0.019610125  0.019330837           12 
 2152000   0.90318441   -7.6531096    505.36358  0.019569531  0.019324224            8 
 2153000   0.90307624   -7.6932898    506.23204  0.019594056  0.019317733            5 
 2154000     0.918374   -7.6356712    507.07872  0.019617716  0.019311195            6 
 2155000   0.90506296   -7.6848156    505.22274  0.019536842  0.019304626            4 
 2156000   0.90405235   -7.7075984    506.15231   0.01956371  0.019298026            7 
 2157000    0.8836706   -7.7343464    504.62967  0.019495815  0.019291382            6 
 2158000   0.90849259   -7.6863628    505.80024  0.019531983  0.019284766            4 
 2159000   0.92426307    -7.686645    505.70785   0.01951937   0.01927817            8 
 2160000   0.90586743    -7.701514    506.19737  0.019529219  0.019271589            3 
 2161000   0.92268265   -7.6226722    507.60946  0.019574636  0.019265095            7 
 2162000   0.92609576   -7.6544501    506.32019  0.019515888  0.019258534            6 
 2163000   0.90778259   -7.6729052     506.5002    0.0195138  0.019251999            7 
 2164000   0.91540898   -7.6625611    507.74691  0.019552792  0.019245433            8 
 2165000   0.92069921   -7.6755015    506.67565  0.019502527  0.019238872            9 
 2166000   0.91157186   -7.6473779    507.03089   0.01950719  0.019232359           15 
 2167000   0.92405721   -7.6712869    507.38518  0.019511813  0.019225829            4 
 2168000   0.89999423   -7.6859684    506.86097  0.019482663  0.019219338            5 
 2169000    0.9166754   -7.6569735    508.39593  0.019532655  0.019212881            6 
 2170000   0.92887581    -7.659034    508.99263  0.019546568  0.019206434            6 
 2171000    0.8891737   -7.6757756    508.09827  0.019503235  0.019199938            4 
 2172000   0.92914298   -7.6825888     508.5258  0.019510658  0.019193507            4 
 2173000    0.9024799   -7.6555186    507.76293  0.019472424  0.019187086           10 
 2174000   0.90478768   -7.6683034    509.11654  0.019515353  0.019180631            4 
 2175000    0.9075118   -7.6494503    508.26808  0.019473873  0.019174186            8 
 2176000   0.88579668   -7.6835225    508.36284  0.019468553  0.019167665            7 
 2177000   0.90227527   -7.7176259    507.29288  0.019418652  0.019161152            4 
 2178000   0.90504848   -7.6967959    507.51136  0.019418096   0.01915461           14 
 2179000   0.89185321   -7.6934247    507.74481  0.019418113  0.019148036           14 
 2180000   0.91820456   -7.7176341     506.5154   0.01936221  0.019141495            3 
 2181000   0.91132727   -7.6500871    508.40226  0.019425426  0.019134972            9 
 2182000   0.91468301   -7.6556126     507.4892  0.019381653   0.01912849            5 
 2183000   0.90410323   -7.6668498    508.50267  0.019411462   0.01912196            7 
 2184000   0.93085339   -7.6954659    509.10008  0.019425369  0.019115489            4 
 2185000   0.89305591   -7.6638763    508.98232  0.019411988  0.019109022            6 
 2186000   0.92348325   -7.7059173    507.68085  0.019353494  0.019102544            3 
 2187000    0.9015138   -7.6524451    510.13921  0.019438318  0.019096063            7 
 2188000   0.89565489   -7.6606602    508.76459  0.019377079  0.019089601            4 
 2189000   0.89812669   -7.6668369     510.3139  0.019427208  0.019083126            3 
 2190000   0.91471489   -7.6754968    508.36961  0.019344353  0.019076692           14 
 2191000    0.8851154   -7.6385376    509.33595  0.019372279  0.019070235           11 
 2192000   0.88557938   -7.6706553    510.21786  0.019396969  0.019063753            3 
 2193000   0.88641149     -7.67272    509.40223   0.01935713  0.019057278            3 
 2194000   0.90845676    -7.678065    507.53387  0.019277342  0.019050756            5 
 2195000    0.9053724   -7.7060015    507.13586  0.019253449  0.019044241           20 
 2196000   0.90247205   -7.7055268    508.55178  0.019298413  0.019037688            4 
 2197000    0.9053811   -7.6868889    508.18698  0.019275792  0.019031111            5 
 2198000   0.89730792    -7.665049    509.60573  0.019320812  0.019024564            6 
 2199000   0.89824039   -7.6638598    508.86461   0.01928394  0.019017983            8 
 2200000   0.88679871   -7.7090962    507.11355  0.019208847  0.019011422            6 
 2201000   0.88214949   -7.7022219    507.91548  0.019230482  0.019004805            4 
 2202000   0.90363478   -7.6859332    509.52954  0.019282832  0.018998249            8 
 2203000   0.89540245   -7.6866693    510.00312  0.019291993  0.018991698           12 
 2204000   0.89444099   -7.7378509    508.46837   0.01922521  0.018985138            7 
 2205000   0.89460736   -7.7097104    509.16357  0.019242765  0.018978604            4 
 2206000   0.89548393   -7.6810129    510.40255  0.019280846  0.018972147            7 
 2207000   0.89517759   -7.6871996    509.61488  0.019242368   0.01896568            7 
 2208000   0.90679662    -7.682945    510.07264   0.01925093  0.018959204            6 
 2209000   0.89522633   -7.7003137    509.77198  0.019230873  0.018952725           13 
 2210000   0.90197572   -7.6909137    509.12747  0.019197868  0.018946242            5 
 2211000   0.91267802   -7.6711301     509.5794  0.019206219   0.01893979            6 
 2212000   0.89049363   -7.6673202    510.56481   0.01923466  0.018933368            7 
 2213000   0.89547399   -7.6806541    511.57398   0.01926397  0.018926976            5 
 2214000   0.89081839    -7.709268    510.05909  0.019198249  0.018920522            5 
 2215000   0.89246629    -7.682573    512.17155  0.019269057  0.018914035           11 
 2216000   0.90862516   -7.7121395    511.34199  0.019229166  0.018907613            6 
 2217000    0.8877616   -7.6914493     510.1185  0.019174504  0.018901134           13 
 2218000   0.88038861   -7.6896138    510.08116  0.019164456  0.018894709            7 
 2219000   0.89858847    -7.688816    510.86752  0.019185351  0.018888255           21 
 2220000    0.9000087   -7.6981866    510.53385  0.019164183  0.018881765           10 
 2221000   0.89356376   -7.6694133    511.67329  0.019198307  0.018875284           15 
 2222000   0.91687418   -7.6854299    509.22055   0.01909768  0.018868742           14 
 2223000   0.87878608   -7.6804965    510.93832  0.019153483  0.018862226            6 
 2224000   0.89274712   -7.6967136    510.13769  0.019114871  0.018855727           10 
 2225000   0.88568051    -7.702624    511.22675  0.019147069  0.018849229            3 
 2226000   0.88469128   -7.6934407    510.79398  0.019122266  0.018842678           10 
 2227000   0.90821567   -7.7039185    509.69242   0.01907246   0.01883613           11 
 2228000   0.89685617   -7.7066765    510.20252  0.019082979  0.018829546           19 
 2229000   0.88551225   -7.7230988     508.6453  0.019016199  0.018822945            8 
 2230000   0.88126779   -7.7300856    510.17469  0.019064824   0.01881638           17 
 2231000   0.89226807   -7.6686383    510.62971  0.019073275  0.018809853            6 
 2232000   0.89261964   -7.7203974    510.96926  0.019077407  0.018803308            8 
 2233000   0.90611328   -7.6614134    511.34382  0.019082841  0.018796809            3 
 2234000   0.88699423   -7.6880867    511.46674  0.019078885  0.018790312            5 
 2235000    0.8941631   -7.7288592    510.44201  0.019032141  0.018783769            4 
 2236000   0.90816281   -7.7044722    510.29996  0.019018335  0.018777219            5 
 2237000    0.8894565   -7.7009199    511.13446   0.01904092  0.018770706           12 
 2238000   0.90912392   -7.7195147    510.47818  0.019007975  0.018764205            5 
 2239000    0.9050589   -7.6952658    511.86779  0.019051205  0.018757695            5 
 2240000   0.89535235     -7.69529      511.616  0.019033333  0.018751206            5 
 2241000   0.89873067   -7.6861522    512.33946  0.019051743  0.018744695           10 
 2242000   0.88277935   -7.7193003    510.05652   0.01895839   0.01873816            6 
 2243000   0.89017216   -7.6883098    510.68751  0.018973381  0.018731654            5 
 2244000   0.89840739   -7.6965473    511.56819   0.01899763  0.018725174            6 
 2245000   0.89078126    -7.655403     513.4536  0.019059154   0.01871867            3 
 2246000   0.87361974   -7.6633259    513.43869  0.019050115   0.01871222           12 
 2247000   0.88456965   -7.7187992    510.81086   0.01894418  0.018705711            5 
 2248000   0.88935203   -7.6715238    512.74555  0.019007471  0.018699264            9 
 2249000   0.88187988   -7.7225929    512.90861  0.019005062  0.018692756            6 
 2250000   0.88698038   -7.6878984    512.41582  0.018978364  0.018686251            9 
 2251000   0.89087821   -7.7139197    511.17155  0.018923869  0.018679736            6 
 2252000    0.8836411   -7.7122064    512.19566  0.018953362  0.018673266            5 
 2253000   0.90952383    -7.721897    511.84128  0.018931842  0.018666804            6 
 2254000   0.89776444   -7.6899171    513.47074  0.018983686    0.0186603           10 
 2255000    0.9086123    -7.712412    512.33707  0.018933373  0.018653832            7 
 2256000   0.87899219   -7.6880096    513.53869  0.018969366  0.018647349            4 
 2257000    0.8744649   -7.7104243    512.13445  0.018909114  0.018640839            6 
 2258000   0.90792475   -7.6955136     512.3753  0.018909629  0.018634323            8 
 2259000   0.89631131   -7.7433873    513.46504  0.018941458  0.018627784           16 
 2260000   0.86886676   -7.7457306    511.90178  0.018875434  0.018621254            9 
 2261000   0.87820774   -7.7268174    511.92978  0.018868118  0.018614709           10 
 2262000   0.87459869   -7.7638219    512.91325  0.018896008  0.018608194            9 
 2263000   0.88767249   -7.7085928    513.27986  0.018901159  0.018601656            7 
 2264000   0.89190209   -7.7401641    512.40003  0.018860425   0.01859517           10 
 2265000   0.90539659   -7.6963504    513.17753  0.018880704  0.018588679           15 
 2266000   0.87216202   -7.7045723    514.26047  0.018912197  0.018582175            6 
 2267000   0.91354478   -7.7535008     513.8159  0.018887513  0.018575673            9 
 2268000   0.88552361   -7.7635535    512.93242  0.018846723  0.018569142            5 
 2269000   0.87764882   -7.7358902    513.47202  0.018858235  0.018562616            6 
 2270000   0.87470915   -7.6965259    513.87637  0.018864771  0.018556126            7 
 2271000   0.88008667    -7.698266    513.99771  0.018860917  0.018549657           10 
 2272000   0.88005128   -7.7299371    513.00721  0.018816286  0.018543155           21 
 2273000    0.8834205   -7.7555574    513.70677  0.018833655  0.018536656           10 
 2274000   0.89900809   -7.7341811    513.65804  0.018823587  0.018530156           25 
 2275000   0.91259845    -7.711565    514.52143  0.018846939  0.018523691           19 
 2276000    0.8804657   -7.7414948    513.33931  0.018795376  0.018517249           31 
 2277000   0.87779991   -7.7483814    513.46248  0.018791629  0.018510748           24 
 2278000   0.88289238   -7.7919736    512.01782  0.018730532  0.018504206           25 
 2279000   0.89412401    -7.769156    513.17321  0.018764561  0.018497686           22 
 2280000    0.8839074   -7.7191236    514.65749  0.018810581  0.018491146            7 
 2281000   0.89749512   -7.7441294    512.40727  0.018720125  0.018484632            7 
 2282000   0.87671696   -7.7135146    515.39668  0.018821088  0.018478184            7 
 2283000   0.88774236   -7.7178816    513.89764  0.018758127  0.018471755            7 
 2284000   0.88540736   -7.7614271     513.7161   0.01874329  0.018465227            4 
 2285000   0.88324217   -7.7431857    514.19175  0.018752434  0.018458718            4 
 2286000   0.88625054   -7.7212985    514.88561  0.018769525  0.018452264            7 
 2287000   0.89097123   -7.6876639    514.27493  0.018739066  0.018445824            6 
 2288000   0.90238893   -7.7233019    514.17008  0.018727057  0.018439356            7 
 2289000   0.88160328   -7.7387667    515.47316  0.018766316  0.018432914           11 
 2290000   0.87809472   -7.7233611    513.36618  0.018681447  0.018426474            7 
 2291000   0.87715273   -7.7031439    514.65725  0.018720255  0.018420017            7 
 2292000   0.88730926   -7.7359023    514.23711  0.018696812  0.018413603            7 
 2293000   0.85924483   -7.7157933    514.19142  0.018686997  0.018407136            3 
 2294000   0.92031914   -7.7839536     513.3443  0.018648078  0.018400644           11 
 2295000      0.88139   -7.7464654     514.3097  0.018675007  0.018394145            8 
 2296000   0.87376112   -7.7392691    513.87684  0.018651163   0.01838768            5 
 2297000   0.85388555   -7.6971366    515.74522  0.018710826  0.018381222           10 
 2298000   0.89315144   -7.7429827     514.0614  0.018641623  0.018374783           12 
 2299000   0.86524874    -7.742738     514.2939  0.018641942  0.018368292            4 
 2300000   0.87249263   -7.7255535    513.84894  0.018617715  0.018361739            6 
 2301000   0.89174763   -7.7486146    514.52969  0.018634278  0.018355232           17 
 2302000   0.88731868   -7.7431219    514.67022  0.018631271  0.018348764            5 
 2303000    0.8618156   -7.7496713    515.45718  0.018651657  0.018342271            5 
 2304000   0.92769839   -7.7653413     515.1628  0.018632914   0.01833579           31 
 2305000   0.89161327   -7.7425054    513.86382  0.018577868  0.018329322            9 
 2306000    0.8879207   -7.7459405    515.18361  0.018617506  0.018322853            4 
 2307000     0.866991   -7.7447152    516.00958  0.018639271  0.018316403            9 
 2308000   0.87440843   -7.7474273    515.29676  0.018605458  0.018309912           12 
 2309000   0.89509363   -7.7867416    512.91933  0.018511597  0.018303397            6 
 2310000   0.86985058   -7.7692376     514.5187  0.018561281  0.018296865           17 
 2311000   0.87527296   -7.7481408    515.76116  0.018598051  0.018290376            6 
 2312000   0.90117284    -7.781882    515.14121  0.018567662  0.018283891            6 
 2313000   0.88457392   -7.7484043    514.65271  0.018542034  0.018277378           10 
 2314000   0.88227263   -7.7940682    513.97322  0.018509551  0.018270853            5 
 2315000   0.86883641   -7.7853135    514.60437  0.018524276  0.018264327           10 
 2316000   0.87848053   -7.8000857    513.52038  0.018477273   0.01825779           14 
 2317000   0.89087255   -7.7620743    514.62401  0.018508992  0.018251273            8 
 2318000   0.87415775   -7.7513047    515.07138   0.01851709  0.018244763           10 
 2319000   0.87703235    -7.769653    515.04876  0.018508292   0.01823823           12 
 2320000   0.86637925   -7.7959193    514.44319  0.018478563  0.018231675            8 
 2321000   0.88745748   -7.7963752    514.66561  0.018478587   0.01822514           18 
 2322000   0.89363876    -7.761368    515.81311  0.018511811  0.018218645           26 
 2323000   0.88510815   -7.7053498    516.44343  0.018526454  0.018212192           11 
 2324000    0.8719154   -7.7730996    515.22175  0.018474675  0.018205731           10 
 2325000   0.89155098   -7.7483716    515.08024  0.018461657  0.018199272            9 
 2326000   0.87622659    -7.750053    516.68283  0.018511136  0.018192847            7 
 2327000    0.8782861   -7.7550916     515.8177  0.018472199  0.018186384            8 
 2328000   0.88039617   -7.7389171    517.29558  0.018517167   0.01817993            9 
 2329000   0.86699629   -7.7749064    515.43774  0.018442742  0.018173451            5 
 2330000   0.88783354   -7.7357246    514.98885  0.018418771  0.018166991           19 
 2331000   0.87649819   -7.7467796    515.82781  0.018440863  0.018160562           13 
 2332000    0.8888139   -7.7619315    516.08551  0.018442164  0.018154109           18 
 2333000   0.88143228   -7.7833316    515.61106  0.018417312  0.018147705            9 
 2334000   0.87645102   -7.7447257    516.32936  0.018435067  0.018141296           11 
 2335000   0.89826068   -7.7757688    516.18352  0.018421967  0.018134892            7 
 2336000   0.88388479   -7.7666213    516.61863  0.018429603  0.018128482           11 
 2337000   0.87872795   -7.7981581     516.1132  0.018403694   0.01812199            6 
 2338000    0.8722423   -7.7415171    515.13527  0.018360966  0.018115494           10 
 2339000   0.87617138   -7.7636882    516.87915  0.018415247  0.018109032           10 
 2340000   0.89454011   -7.7573043    516.47877  0.018393119  0.018102597            8 
 2341000   0.87765264   -7.7837137    516.45845  0.018384538  0.018096158            7 
 2342000   0.87485685   -7.7515877    517.36984  0.018409118  0.018089668           10 
 2343000   0.88841503   -7.7842133    515.77654  0.018344592  0.018083257            3 
 2344000   0.87471285   -7.7889444    516.09649   0.01834814  0.018076824           16 
 2345000   0.88089481   -7.7844714    516.48392  0.018354084  0.018070359            7 
 2346000    0.8851665   -7.7744701    516.30521  0.018339912  0.018063886           12 
 2347000   0.86091539   -7.7756553    516.97581  0.018355908  0.018057443            6 
 2348000   0.86863296   -7.7528448    518.34211  0.018396583  0.018051049            6 
 2349000   0.89059275   -7.7593244    517.39503  0.018355152  0.018044658            4 
 2350000   0.86049536   -7.7504732    517.89054  0.018364913  0.018038257            8 
 2351000   0.87534068   -7.7766801    516.10518  0.018293817  0.018031831           11 
 2352000   0.88833825   -7.7872916    517.30415   0.01832852  0.018025373            8 
 2353000   0.89528248   -7.7639739    517.13073  0.018314589  0.018018957           28 
 2354000   0.86738802   -7.8105223    516.04976  0.018268542  0.018012529           20 
 2355000   0.88955308   -7.7644892      517.568  0.018314508  0.018006096           10 
 2356000   0.87274052   -7.7510294    517.83935  0.018316333  0.017999727           22 
 2357000    0.8796206   -7.8185164    515.99299  0.018243282  0.017993295           21 
 2358000   0.87509547    -7.819993    517.19309  0.018277958  0.017986869           19 
 2359000   0.86240841   -7.8281152    515.82883  0.018222016    0.0179804           25 
 2360000   0.86453323   -7.8340022    516.24871  0.018229121  0.017973916           49 
 2361000   0.84429651     -7.78545    519.54333  0.018337686  0.017967494           51 
 2362000   0.86451667   -7.7894061    518.58323   0.01829605    0.0179611           24 
 2363000   0.88243905   -7.7500005    517.99195  0.018267455  0.017954749           28 
 2364000   0.87252612   -7.7938803    517.57249  0.018244941   0.01794836           53 
 2365000   0.86080778   -7.7418236    518.78792  0.018280054  0.017942019           38 
 2366000   0.88358483   -7.7643984    519.00499  0.018279973  0.017935724           64 
 2367000   0.86381136    -7.777064    518.13583   0.01824165  0.017929398           10 
 2368000   0.88475828   -7.7913704    518.43037  0.018244312  0.017923035           30 
 2369000   0.87141573   -7.8065356    518.29031  0.018231684  0.017916662           34 
 2370000   0.87996685   -7.7595711    518.79952  0.018241896  0.017910281           10 
 2371000   0.88124653   -7.7888612    519.49507  0.018258649  0.017903934           35 
 2372000   0.85627387   -7.7951879    518.56167  0.018218159   0.01789761            7 
 2373000   0.87411676   -7.7926578    519.49579  0.018243285  0.017891262           10 
 2374000   0.86255853   -7.8048085    518.81591  0.018211735  0.017884926           22 
 2375000   0.85972824   -7.7633162     519.5619  0.018230242  0.017878549           16 
 2376000   0.85047542   -7.7791206    519.45444    0.0182188   0.01787219            7 
 2377000   0.87877354   -7.7919529    518.62654  0.018182111  0.017865808            4 
 2378000   0.86526218   -7.7909758    519.10984  0.018191402  0.017859433            3 
 2379000   0.86125399   -7.8033527    519.85673  0.018209918  0.017853107           15 
 2380000   0.86917584   -7.8233908    517.35025  0.018114504  0.017846683           20 
 2381000   0.87535084   -7.7976061    519.50029  0.018182147  0.017840314           28 
 2382000    0.8569274   -7.7729449    518.92014  0.018154217  0.017833943           47 
 2383000   0.85978395    -7.785393    518.78758  0.018141963  0.017827632           36 
 2384000   0.87797152   -7.7840042    518.63788   0.01812912  0.017821292           23 
 2385000   0.87220265   -7.7709226    517.98931  0.018098858  0.017814941           22 
 2386000   0.86143874   -7.7803732     518.1071  0.018095386  0.017808617           51 
 2387000   0.88215642   -7.7913295    519.30748  0.018129712  0.017802289           70 
 2388000   0.85421697   -7.7767036    520.37089   0.01815923   0.01779595           59 
 2389000    0.8630211   -7.8274416    518.00705  0.018069173  0.017789584           59 
 2390000    0.8649184   -7.7879835    520.06587  0.018133399  0.017783234           37 
 2391000   0.85958773   -7.7813489    519.26914  0.018098046  0.017776917           53 
 2392000   0.87542958   -7.7685892    520.99697  0.018150675  0.017770625           29 
 2393000   0.87529093   -7.7894973    519.30972  0.018084334  0.017764273           26 
 2394000   0.86907969   -7.8235375    519.62284  0.018087679  0.017757896           15 
 2395000   0.87902489   -7.7995118    519.75394  0.018084688  0.017751531           28 
 2396000     0.891834   -7.8115041    520.41829  0.018100246  0.017745149           52 
 2397000   0.88057864   -7.7967336    518.70348  0.018033079   0.01773879           27 
 2398000   0.85128598   -7.8153521      519.115   0.01803986  0.017732412           45 
 2399000   0.84861515   -7.7834997    518.56384  0.018013194  0.017726051           25 
 2400000   0.87572662   -7.7745985    520.71595  0.018080415  0.017719704           31 
 2401000   0.86015961   -7.8068893    520.01607  0.018048593  0.017713371           21 
 2402000   0.88059401    -7.800854    519.10736  0.018009553  0.017706978           20 
 2403000   0.87826166   -7.8065541    520.20337  0.018040067  0.017700595           17 
 2404000   0.85589846    -7.776878    520.06628  0.018027811  0.017694215            6 
 2405000   0.86329889   -7.8032935    519.24899  0.017991995  0.017687817           10 
 2406000   0.86819304   -7.8208316    519.09157  0.017979065  0.017681415           16 
 2407000    0.8668933   -7.7765616     519.6512  0.017990971   0.01767501           25 
 2408000   0.85943285   -7.8116043    519.50786  0.017978539  0.017668629           14 
 2409000   0.88074219   -7.7505913    519.75314  0.017979561  0.017662267           33 
 2410000   0.87774228   -7.7875761    521.08865   0.01801828  0.017655917           15 
 2411000   0.86141432   -7.7862857    519.61069  0.017959723  0.017649587           10 
 2412000   0.86876813   -7.8038166    519.88041  0.017961595  0.017643259           20 
 2413000   0.86229308    -7.786423    520.99551  0.017992662  0.017636875           13 
 2414000   0.86061329   -7.8157049     519.4005  0.017930147  0.017630537            7 
 2415000   0.88171097    -7.802474    519.22007  0.017916496  0.017624196           10 
 2416000   0.86132608   -7.8057754    519.19476  0.017908208   0.01761785           12 
 2417000   0.87585405   -7.8041823    521.12108  0.017967214  0.017611511           14 
 2418000   0.87841151   -7.7760813    520.79152  0.017948426   0.01760517            6 
 2419000    0.8540025   -7.8056692    519.19304  0.017885939  0.017598862           13 
 2420000   0.85767526   -7.8182716    519.62366  0.017893377  0.017592552            7 
 2421000   0.84958461   -7.7909816    521.13756  0.017938096  0.017586251            6 
 2422000   0.84645591   -7.7711842    521.51369  0.017943631  0.017579962            7 
 2423000   0.88336928   -7.7916529    521.33401  0.017930046  0.017573718           12 
 2424000   0.85964132   -7.7782995    521.12682  0.017915526  0.017567438            9 
 2425000   0.85205686   -7.8243173    520.16233  0.017874994   0.01756117            8 
 2426000    0.8617414   -7.7858667    521.06129  0.017898505  0.017554897           13 
 2427000   0.86403826   -7.7969628     521.1441  0.017893974  0.017548624           10 
 2428000    0.8597999   -7.7893793    520.84089  0.017876198  0.017542378           11 
 2429000   0.85876107   -7.7604709    522.04066  0.017909999  0.017536167           13 
 2430000   0.85709641   -7.7709594    522.24097  0.017909498  0.017529991            8 
 2431000   0.87509258   -7.7990513    521.35056  0.017871608  0.017523774           15 
 2432000   0.86129934    -7.815132    521.86937  0.017882037  0.017517477           13 
 2433000   0.86167487   -7.8242603    520.89761  0.017841403  0.017511212            6 
 2434000   0.85030169   -7.8147456    520.35091  0.017815356  0.017504904            8 
 2435000   0.86486674   -7.7947782    521.56777  0.017849684  0.017498636            6 
 2436000    0.8696716   -7.8170875    521.43984   0.01783798  0.017492365           25 
 2437000   0.86870274   -7.8040022    522.24527  0.017858202  0.017486074           19 
 2438000    0.8570608   -7.8100652    520.04315  0.017775607  0.017479758            7 
 2439000   0.87978658   -7.7914357    522.16284  0.017840742  0.017473457            7 
 2440000   0.86141887   -7.8182078    519.83504  0.017753929  0.017467113           12 
 2441000   0.86114959   -7.7635382    521.81956  0.017814405   0.01746079           10 
 2442000   0.86929147    -7.830641    520.53176  0.017763164  0.017454462           10 
 2443000    0.8565587   -7.8056607    521.70496  0.017795912  0.017448168           14 
 2444000   0.84615909   -7.8023362    521.14951  0.017769691   0.01744184           21 
 2445000   0.85848816   -7.8140783    521.96163  0.017790103  0.017435514           14 
 2446000   0.89578385   -7.8167518    522.27692  0.017793572    0.0174292            8 
 2447000   0.84023975   -7.8185927    521.52997  0.017760863  0.017422885            6 
 2448000   0.84468814   -7.8068584    521.75836  0.017761382  0.017416578            5 
 2449000    0.8658882   -7.8321951    521.93238  0.017760051  0.017410237            5 
 2450000   0.85781398   -7.8257166    520.48465   0.01770356  0.017403906            7 
 2451000   0.87092401   -7.8467916    520.71121  0.017704039  0.017397559           10 
 2452000   0.86938452   -7.7884835    522.45825  0.017756194  0.017391241            7 
 2453000    0.8592196   -7.7936099    521.53999   0.01771776  0.017384937           12 
 2454000   0.87001437    -7.819382    521.10769   0.01769586   0.01737862           18 
 2455000   0.85193661   -7.8283492    520.81145  0.017678596    0.0173723           30 
 2456000   0.87325435   -7.8729728    521.25049  0.017686295  0.017365982            8 
 2457000   0.85493058   -7.8398124    520.97991   0.01766992  0.017359618           10 
 2458000   0.85874104   -7.8154023    522.26228  0.017706207  0.017353273           12 
 2459000   0.85855034   -7.8368953    519.47894  0.017604681  0.017346927           22 
 2460000   0.87121451   -7.8250374    521.41557  0.017663129  0.017340552            8 
 2461000   0.83982156   -7.8326712    522.53027  0.017693697  0.017334227           15 
 2462000   0.84385942   -7.8231869      521.452  0.017650014  0.017327943           10 
 2463000   0.85361821   -7.7966362    522.26168  0.017670242  0.017321664            6 
 2464000   0.85045983   -7.8378918    521.20531  0.017627344  0.017315349           10 
 2465000   0.86376998   -7.8503285    521.06938  0.017615598  0.017309042           11 
 2466000    0.8581659   -7.8263307     522.5099  0.017657134   0.01730277            6 
 2467000   0.84470433   -7.8627568     520.7589  0.017590829  0.017296465            7 
 2468000   0.86636106   -7.8755205    522.10365  0.017629107  0.017290126           14 
 2469000   0.85981292   -7.8373887    521.91284  0.017615527  0.017283815            5 
 2470000   0.85598206   -7.8229588     521.6837  0.017600665  0.017277468            6 
 2471000   0.83880479   -7.8015535    522.05189  0.017605959  0.017271137            9 
 2472000   0.85969824   -7.8310106    521.02587  0.017564249  0.017264851           11 
 2473000   0.85041203   -7.8398335    521.12851  0.017560605  0.017258551            7 
 2474000   0.86397012   -7.8356804    520.57357  0.017534815  0.017252223           18 
 2475000   0.85804369   -7.8070668    521.80871  0.017569317  0.017245888            7 
 2476000   0.86480455   -7.8697134    521.12419  0.017539182  0.017239544            6 
 2477000   0.84887516   -7.8577102    521.59033  0.017547784  0.017233193            5 
 2478000   0.85654969   -7.8181248    520.85195  0.017515871  0.017226854            8 
 2479000   0.85335468   -7.8613893    520.46711  0.017495869  0.017220539           13 
 2480000   0.87105696   -7.8108465    522.30521  0.017550578  0.017214247            9 
 2481000   0.84476644   -7.8182074    523.16915  0.017572523  0.017207964            5 
 2482000   0.86869825   -7.8272295    522.61445  0.017546819  0.017201701            3 
 2483000    0.8666836   -7.8236101    523.99387  0.017586048  0.017195432            4 
 2484000   0.85506009   -7.8040194     522.3636  0.017524275  0.017189201            7 
 2485000   0.86468705   -7.8168899    523.09881  0.017541878  0.017182925           15 
 2486000   0.86727403   -7.8516234    522.22572  0.017505555  0.017176626            8 
 2487000   0.83523351   -7.8069449    523.57721  0.017543801  0.017170345            8 
 2488000   0.86930348   -7.8396466     521.2801   0.01745981  0.017164047            9 
 2489000    0.8498968   -7.8268746    522.91566  0.017507555  0.017157752            7 
 2490000    0.8574173    -7.844335    520.84971  0.017431382  0.017151467            4 
 2491000   0.85375041   -7.8474243    521.82156  0.017456897  0.017145126            8 
 2492000   0.86290082   -7.8233301    521.64763  0.017444075  0.017138817           10 
 2493000   0.84042181   -7.8047857    522.78333  0.017475041  0.017132516           11 
 2494000   0.84573115   -7.8648477    522.34959  0.017453542  0.017126127            5 
 2495000   0.83747141   -7.8580201    521.80365  0.017428312  0.017119759            4 
 2496000   0.83237247    -7.856881    522.27664  0.017437121  0.017113408           10 
 2497000   0.86163733   -7.8643555    522.09767  0.017424165   0.01710707           11 
 2498000     0.841347   -7.8333831    522.52017  0.017431284  0.017100725           15 
 2499000   0.84746632   -7.8139859    523.79206  0.017466722  0.017094386            9 
 2500000   0.85389898   -7.8450917    521.92639  0.017397546  0.017088059           17 
 2501000   0.85223123   -7.8020887    522.75528  0.017418209  0.017081735            6 
 2502000   0.84969586   -7.7940676    523.87798  0.017448641  0.017075415            8 
 2503000     0.843986    -7.821914    522.88659  0.017408663  0.017069142            5 
 2504000   0.83040768    -7.799106    523.58519   0.01742496  0.017062874           10 
 2505000    0.8545373   -7.8058401    523.35924  0.017410487  0.017056589            9 
 2506000   0.85423392   -7.8299355    523.43365  0.017406014   0.01705033            5 
 2507000    0.8575491    -7.836519    523.18558  0.017390825  0.017044035           13 
 2508000   0.85377628    -7.834249    522.11437  0.017348298  0.017037753           10 
 2509000   0.84998845   -7.8434857     523.2686   0.01737972  0.017031477           28 
 2510000   0.87368035   -7.8467466    522.06635   0.01733288  0.017025223           22 
 2511000   0.85413694   -7.8384425    522.71876  0.017347629  0.017018983           15 
 2512000   0.86087469     -7.82273    523.29253  0.017359758  0.017012707           11 
 2513000   0.85550956   -7.8544349    522.72675  0.017334088  0.017006414            9 
 2514000   0.84899214   -7.8585191    522.57965  0.017322317  0.017000129            7 
 2515000   0.84557614   -7.8834915    521.88552  0.017292429  0.016993825           13 
 2516000   0.85347353   -7.8718087    522.94112  0.017320519  0.016987512           10 
 2517000   0.84577123    -7.845632    522.68791  0.017305255  0.016981231            8 
 2518000   0.81980296    -7.882776    520.92396  0.017240004  0.016974931            6 
 2519000   0.85626798   -7.8897491    521.60857  0.017255808  0.016968605            7 
 2520000   0.86754077   -7.8480249     524.2938  0.017337758   0.01696231            8 
 2521000   0.85197225   -7.8793973    522.38646  0.017267832  0.016956023           12 
 2522000   0.83724677   -7.8329286    525.05966  0.017349315  0.016949777            8 
 2523000   0.87069562   -7.8282977    525.09894  0.017343735  0.016943541           12 
 2524000   0.83816648   -7.8885455    522.48523  0.017250569   0.01693731            7 
 2525000   0.86234048   -7.8534845    524.07419  0.017296178  0.016931069            7 
 2526000   0.86122375   -7.8920361    522.83167   0.01724834  0.016924771            7 
 2527000   0.84023912    -7.863112    523.49856  0.017263506  0.016918474            6 
 2528000   0.85696541   -7.8616143    522.46745  0.017222688  0.016912181           10 
 2529000    0.8553904   -7.8556694    523.96548  0.017265239  0.016905909           34 
 2530000   0.82844926   -7.9029663    522.99875  0.017226573  0.016899627            6 
 2531000   0.82148694   -7.8720529    523.40319  0.017233083  0.016893309           11 
 2532000   0.86016729   -7.8759273    522.77225  0.017205511  0.016886984            8 
 2533000    0.8553273   -7.8479243    524.12751  0.017243306  0.016880725           11 
 2534000   0.85236676   -7.8697421    523.49914  0.017215836  0.016874435           17 
 2535000   0.84224887   -7.8526796    524.00672   0.01722573  0.016868178            4 
 2536000   0.83756204   -7.8734037    524.17694  0.017224531  0.016861943            9 
 2537000   0.83849331   -7.8458395    522.98316   0.01717853  0.016855723           17 
 2538000   0.85065434   -7.8702051    524.69261   0.01722789  0.016849493           11 
 2539000   0.86663375   -7.8884753    522.45534  0.017147674  0.016843231           11 
 2540000   0.82984485   -7.8830828    523.95228  0.017190035  0.016836924            8 
 2541000   0.83435812   -7.8989705    522.60893  0.017139214  0.016830647            7 
 2542000   0.83516252   -7.8865167    524.78939  0.017203953  0.016824383           16 
 2543000   0.83427748   -7.8871092    523.81418  0.017165231  0.016818102           15 
 2544000   0.86257316   -7.8908356     523.9724  0.017163666   0.01681185           12 
 2545000   0.84728663   -7.8567021    523.98133  0.017157215  0.016805641           12 
 2546000   0.84720391   -7.8737954    524.01735  0.017151655  0.016799403           15 
 2547000   0.86179389   -7.8703915    524.22828  0.017151822  0.016793166           19 
 2548000   0.84558086    -7.866357    524.74077  0.017161851  0.016786947           16 
 2549000    0.8405414   -7.8920445    523.81139  0.017124735  0.016780723           18 
 2550000   0.84734246   -7.8781923    523.14924   0.01709638  0.016774477            9 
 2551000   0.85092283   -7.8767758    523.73945  0.017108959  0.016768246           22 
 2552000    0.8344904   -7.8596663    523.78075  0.017103603  0.016762015           14 
 2553000   0.84038161   -7.8606436    525.00879  0.017136989  0.016755792           14 
 2554000   0.84770368   -7.8448564    525.17278   0.01713563  0.016749577           10 
 2555000   0.84821265   -7.8364165    525.63996  0.017144161  0.016743363            9 
 2556000   0.84878158   -7.8806556    523.60622  0.017071147  0.016737164           10 
 2557000    0.8247391   -7.8453139    525.30023  0.017119679  0.016730944            6 
 2558000   0.83771931   -7.8632152    523.30806  0.017048086  0.016724752            7 
 2559000   0.85175715   -7.8780494    524.26034  0.017072435  0.016718561           12 
 2560000   0.85706415   -7.8854003      524.668  0.017079036  0.016712362           11 
 2561000   0.84886836    -7.896345    523.78118  0.017043511  0.016706147           13 
 2562000   0.85043981   -7.8748004    524.54335  0.017061649  0.016699931           10 
 2563000   0.82766221   -7.8806941    525.25703  0.017078197  0.016693733           21 
 2564000   0.85470082   -7.8730027    524.65702  0.017052035  0.016687518           12 
 2565000    0.8417593    -7.864675    524.35365  0.017035531  0.016681301           11 
 2566000   0.82509144   -7.9008077    524.01926  0.017018033   0.01667506           12 
 2567000   0.83971234   -7.8994151    523.74323  0.017002442  0.016668835            8 
 2568000   0.85221425   -7.8894347    525.76995   0.01706159  0.016662641            6 
 2569000   0.85205888   -7.8277998    525.39253  0.017042706  0.016656437            8 
 2570000    0.8572419   -7.9008589     525.5925  0.017042558  0.016650244           16 
 2571000   0.84800388   -7.8892902    526.21553  0.017056124   0.01664405           15 
 2572000   0.84902144    -7.863158    526.48183   0.01705812  0.016637889           17 
 2573000   0.84524239   -7.8415247    524.86644  0.016999172  0.016631741           15 
 2574000   0.85090626    -7.868198    525.60985  0.017016636   0.01662556            7 
 2575000   0.83509725   -7.8502275    526.30084   0.01703239  0.016619392            6 
 2576000   0.82634642   -7.8761537    526.30657  0.017025963  0.016613245           10 
 2577000   0.82491821   -7.8769179    525.65605   0.01699832  0.016607054            9 
 2578000   0.83503546   -7.8796016    525.29129  0.016979936  0.016600902           13 
 2579000   0.83002705   -7.8647335     525.0991  0.016967142  0.016594744           14 
 2580000   0.85903484   -7.8845423    525.97347  0.016988807   0.01658856            7 
 2581000   0.83380386   -7.8846634    524.32741  0.016929078  0.016582377           11 
 2582000   0.85002366   -7.9140279    524.08188  0.016914597  0.016576189           13 
 2583000   0.84762679   -7.8894076    525.39472  0.016950404  0.016569995           17 
 2584000   0.82934391   -7.8937871    525.84319  0.016958307  0.016563819            9 
 2585000   0.84555185   -7.8955255    524.81686  0.016918661   0.01655764            6 
 2586000    0.8493479   -7.8777823    524.03729  0.016886997   0.01655148            9 
 2587000   0.85118882   -7.9062087    524.98415   0.01691097  0.016545297            8 
 2588000   0.83500218   -7.8677002    525.80672  0.016930922  0.016539151           33 
 2589000   0.81752405   -7.8589902    525.91434  0.016927847  0.016533008           27 
 2590000   0.84370385    -7.863474    526.31849  0.016934314  0.016526854           39 
 2591000   0.83779319      -7.8937    525.77535   0.01691031  0.016520664           54 
 2592000   0.84833221   -7.8884459    524.83853  0.016873667  0.016514491           24 
 2593000   0.82866354   -7.8840404    525.10702  0.016875788  0.016508361           42 
 2594000   0.82876579   -7.8937325    524.74994  0.016857811  0.016502211           34 
 2595000   0.84755819   -7.8932766    524.88639  0.016855696    0.0164961           50 
 2596000   0.83449563   -7.8717842    527.03163  0.016918067  0.016489981           40 
 2597000    0.8582203   -7.8812532    525.75966  0.016870738  0.016483904           42 
 2598000   0.84504102   -7.8954099    526.09837  0.016875108  0.016477804           53 
 2599000   0.82171351   -7.9056764    525.39392  0.016846028  0.016471656           41 
 2600000   0.83289972     -7.88276    525.80621  0.016852763   0.01646552           58 
 2601000   0.83774471   -7.8822792    525.63597   0.01684083  0.016459393           47 
 2602000   0.85169712   -7.8569311    527.17682  0.016883705  0.016453275           55 
 2603000   0.83762911   -7.8912323    526.75683  0.016863774  0.016447157           34 
 2604000   0.83312556   -7.8951303    525.08541  0.016803809   0.01644104           43 
 2605000   0.82662239   -7.8832744    525.99483   0.01682645  0.016434909           78 
 2606000   0.82029114   -7.8732289     526.6958  0.016842409  0.016428799           36 
 2607000   0.83103925   -7.9287276    526.45427  0.016828227  0.016422681           78 
 2608000    0.8249933   -7.8929651     525.7568  0.016799489  0.016416567           36 
 2609000    0.8398149   -7.9055085    527.00095  0.016832789  0.016410438           74 
 2610000   0.81285695   -7.8952734    526.75877  0.016818607  0.016404345           42 
 2611000   0.83536999   -7.9113718    526.44307   0.01680209  0.016398224           65 
 2612000   0.81975499   -7.9163221    527.30621  0.016823194  0.016392111           40 
 2613000   0.82369751   -7.9247315    525.38381  0.016755447  0.016385982           79 
 2614000   0.84130449   -7.8977841    526.92929  0.016798307  0.016379855           74 
 2615000   0.84819221   -7.9251115    526.90192  0.016791011  0.016373739           75 
 2616000    0.8418467   -7.9097187    527.52563  0.016804461  0.016367604           48 
 2617000   0.84280323   -7.9359444      525.542  0.016734875  0.016361495           66 
 2618000   0.82130708   -7.9053288    526.99618   0.01677477  0.016355402           72 
 2619000   0.81603581   -7.9346061    526.06318  0.016738678  0.016349313           87 
 2620000   0.84522137   -7.9347936    525.99787  0.016730212    0.0163432          111 
 2621000   0.82350972   -7.9377086    525.34859  0.016703185  0.016337087           78 
 2622000   0.84588173   -7.9087592    527.73344  0.016772611   0.01633098           90 
 2623000   0.84869912   -7.9254064    525.82163  0.016705478  0.016324831          107 
 2624000   0.82098692   -7.9394789    524.80453   0.01666681   0.01631871          102 
 2625000   0.83891699   -7.9223661    527.04699  0.016731651  0.016312588          113 
 2626000   0.82819775   -7.9624037    525.58554  0.016678901  0.016306449          104 
 2627000   0.82546926   -7.9538628    526.18284    0.0166915  0.016300322          116 
 2628000     0.832459    -7.933327     525.4509  0.016661939  0.016294194           96 
 2629000   0.84374945   -7.9189947    527.65639   0.01672551  0.016288042          127 
 2630000   0.82331809   -7.9104321    526.55916  0.016684384  0.016281905          128 
 2631000   0.83635889   -7.9317068    525.14703  0.016633315  0.016275794          108 
 2632000   0.81807292   -7.9215797    525.62794  0.016642222  0.016269664          117 
 2633000   0.81334374   -7.9056199    525.79632  0.016641231  0.016263518          152 
 2634000   0.82933291   -7.9407705    526.58979  0.016660016  0.016257374          199 
 2635000   0.82888495   -7.9479639    526.84891  0.016661889  0.016251243          177 
 2636000   0.83327717    -7.938805    526.10965  0.016632197  0.016245087          154 
 2637000   0.81997799   -7.9203125    527.12024  0.016657826  0.016238973          171 
 2638000   0.83774087   -7.9358301    526.97417  0.016646897   0.01623286          174 
 2639000   0.81652968   -7.9400637    525.70666  0.016600564  0.016226751          192 
 2640000   0.83264329   -7.9574323    526.39844  0.016616112  0.016220629          144 
 2641000   0.83242266   -7.9238374    525.96846  0.016596253   0.01621449          178 
 2642000   0.81754131   -7.9217665    527.38346  0.016634603  0.016208351          173 
 2643000   0.83219672   -7.9545676    525.46843  0.016567929  0.016202178          143 
 2644000    0.8388341    -7.968722    526.09841  0.016581518   0.01619602          199 
 2645000   0.82569766   -7.9797545    525.76068  0.016564609   0.01618988          181 
 2646000   0.82014494   -7.9376543    527.18077  0.016603073  0.016183744          180 
 2647000   0.83334873   -7.9313215    526.14414  0.016564165  0.016177609          203 
 2648000   0.81717119   -7.9395139    526.61166  0.016572623  0.016171481          214 
 2649000   0.82357203   -7.9507756    525.40309  0.016528347  0.016165344          205 
 2650000   0.82610029   -7.9559513    526.04189  0.016542198   0.01615922          203 
 2651000   0.83494003   -7.9517598      526.336  0.016545203  0.016153057          229 
 2652000   0.84099543   -7.9870364    524.49031  0.016480968  0.016146886          226 
 2653000   0.81627409   -7.9835794    525.12267  0.016494618  0.016140721          245 
 2654000   0.81906145   -7.9795956    525.46836  0.016499258  0.016134522          282 
 2655000   0.82665365   -7.9655304     524.8039  0.016472188  0.016128352          278 
 2656000   0.81709997   -7.9779436    525.50396  0.016487951  0.016122166          244 
 2657000   0.82839989   -7.9482626    526.71684  0.016519785  0.016116012          295 
 2658000   0.82073836   -7.9608412    524.88569   0.01645616  0.016109849          284 
 2659000   0.81803704   -7.9492375    526.44619  0.016498878  0.016103708          278 
 2660000   0.82704694   -7.9716434    525.77852  0.016471758  0.016097577          293 
 2661000   0.83325275   -7.9696375    526.32085  0.016482552  0.016091429          298 
 2662000   0.83548763   -7.9755147     527.0614  0.016499543  0.016085254          312 
 2663000   0.80343025   -8.0084036    524.99494  0.016428681  0.016079076          395 
 2664000   0.81681304   -7.9553146    525.92049  0.016451467  0.016072915          342 
 2665000   0.83437745   -7.9753389    525.94543  0.016446074  0.016066765          382 
 2666000   0.83050908   -7.9944849    525.58981  0.016428789  0.016060589          403 
 2667000   0.81608804    -8.019442    525.67606  0.016425324  0.016054388          481 
 2668000   0.81011954   -7.9980532    524.75264  0.016390325   0.01604821          475 
 2669000   0.83446951   -8.0273698    525.82821  0.016417766  0.016042009          538 
 2670000   0.82207349   -7.9816667     526.0179  0.016417538  0.016035777          570 
 2671000   0.80716545   -8.0254767    524.90508  0.016376672  0.016029578          541 
 2672000   0.83187778   -8.0108895    525.36091  0.016384759  0.016023377          532 
 2673000   0.82480393   -8.0320525     526.4105  0.016411351   0.01601719          553 
 2674000   0.83228981   -8.0289015    524.64241  0.016350113  0.016010966          549 
 2675000   0.80928339   -8.0218568     525.2521  0.016362994  0.016004766          573 
 2676000   0.82278756   -7.9824337    525.26947   0.01635742  0.015998573          527 
 2677000   0.81745388   -8.0382813    524.44144  0.016325534  0.015992406          607 
 2678000   0.81432126   -8.0346101     524.0625  0.016307646  0.015986236          633 
 2679000   0.81604093   -8.0251551    526.02965  0.016362749  0.015980061          704 
 2680000   0.81521983   -8.0314559    526.23518  0.016363034  0.015973881          738 
 2681000   0.80909168   -8.0690211    524.76781  0.016311321   0.01596769          801 
 2682000   0.81190113   -8.0423278    524.64471  0.016301414  0.015961479          818 
 2683000   0.80981427   -8.0670071    524.06376  0.016277294  0.015955245          838 
 2684000    0.8073472   -8.0751293    524.53639  0.016285904  0.015948972          907 
 2685000   0.81614448   -8.1008919    522.91523  0.016229523  0.015942681          944 
 2686000   0.81607104   -8.1060336    523.90518  0.016254194  0.015936368          956 
 2687000   0.83495263   -8.0974861    523.33865  0.016230575  0.015930071          969 
 2688000   0.81713358   -8.1087557    522.56491  0.016200549   0.01592377         1052 
 2689000   0.82905206   -8.1027308     523.0433   0.01620935  0.015917439         1056 
 2690000   0.80341647   -8.1060188    523.78765  0.016226383  0.015911099         1077 
 2691000   0.82607698   -8.1371125    521.90933  0.016162186  0.015904757         1159 
 2692000   0.82116815   -8.1457035    522.15934  0.016163922  0.015898402         1194 
 2693000   0.81677234   -8.1471511    521.31487  0.016131788  0.015892027         1219 
 2694000    0.8212239   -8.1636571    520.66837  0.016105802  0.015885638         1256 
 2695000   0.82068797   -8.1653685    522.53858  0.016157655  0.015879242         1371 
 2696000   0.81762419   -8.1675469     521.2463  0.016111718   0.01587285         1400 
 2697000   0.82091823   -8.1948543    521.41333  0.016110905  0.015866405         1409 
 2698000   0.80641051    -8.191217    521.90732  0.016120191  0.015859978         1457 
 2699000    0.8231855   -8.1753464     521.5341  0.016102696  0.015853544         1460 
 2700000    0.8133796   -8.1997342    520.54168  0.016066101  0.015847102         1514 
 2701000   0.81541441   -8.1916431    521.47621  0.016088986  0.015840665         1576 
 2702000   0.83876657   -8.1895127    520.99022  0.016068043  0.015834197         1654 
 2703000   0.81243322   -8.2531106    519.96209  0.016030401  0.015827722         1714 
 2704000   0.84648135    -8.220874    519.91697  0.016023082  0.015821205         1741 
 2705000   0.79991885   -8.2923106    518.49702  0.015973414  0.015814674         1886 
 2706000   0.81733711   -8.2492266    520.00965  0.016014094  0.015808108         1820 
 2707000   0.81629772    -8.279242    519.05139  0.015978678  0.015801517         1957 
 2708000   0.80079409   -8.2739672    519.07857  0.015973614  0.015794921         2003 
 2709000   0.81357111   -8.2868111    519.18327  0.015970939   0.01578834         2083 
 2710000   0.81056936   -8.2876605    519.74593  0.015982347  0.015781767         2034 
 2711000   0.81454382   -8.3227247    517.31895  0.015901849  0.015775158         2113 
 2712000   0.83624137   -8.2919866    518.79623  0.015941379  0.015768546         2049 
 2713000   0.81281815   -8.2977777    518.20815  0.015917439   0.01576193         2162 
 2714000   0.82083513   -8.2944006    517.30561  0.015883862  0.015755305         2222 
 2715000   0.83069143   -8.3333421    518.70592  0.015920992  0.015748636         2194 
 2716000   0.83186912   -8.3381309    517.85892  0.015889142  0.015741952         2328 
 2717000   0.82753555   -8.3467217    517.79147  0.015881225  0.015735239         2374 
 2718000   0.82868004   -8.3487007    516.51181  0.015836148  0.015728532         2376 
 2719000   0.81015558   -8.3743533    517.18236  0.015850875   0.01572182         2428 
 2720000   0.81367854   -8.3819722    514.96874  0.015777229  0.015715078         2525 
 2721000   0.81328246   -8.3290273    517.21235  0.015840143  0.015708347         2564 
 2722000   0.83573649   -8.3881376    516.62252  0.015816266  0.015701619         2518 
 2723000   0.80687157   -8.3850459    516.75731  0.015814583  0.015694908         2588 
 2724000   0.83103404   -8.3354633    517.34412  0.015826729  0.015688181         2533 
 2725000   0.81156222   -8.3810198    518.26226  0.015848999  0.015681489         2603 
 2726000   0.82271423   -8.3990362    515.03898   0.01574465  0.015674758         2822 
 2727000   0.81361715   -8.4226346    515.40252  0.015749985  0.015667998         2787 
 2728000   0.82232938   -8.3864845    516.63315  0.015781804  0.015661237         2704 
 2729000   0.82643806   -8.4253212    514.48793  0.015710514  0.015654461         2825 
 2730000   0.79915114   -8.4149216    516.21176   0.01575738  0.015647687         2848 
 2731000   0.81813227   -8.4335888    514.75042  0.015707019  0.015640901         2828 
 2732000   0.80794498   -8.4463829    515.28437  0.015717557  0.015634098         3034 
 2733000   0.82105694   -8.4354814    514.86833   0.01569912  0.015627267         2968 
 2734000   0.82370473   -8.4541476    513.85495  0.015662489  0.015620428         3026 
 2735000    0.8123728   -8.4202085    515.57624  0.015709209  0.015613597         3100 
 2736000    0.8162968   -8.4436455    515.19086  0.015691729  0.015606752         3054 
 2737000    0.8280987   -8.4561965    514.28905  0.015658539  0.015599903         3074 
 2738000   0.81194329   -8.4935366    513.89135  0.015640716  0.015593043         3141 
 2739000   0.81330273   -8.4741825     513.1946  0.015613807  0.015586162         3266 
 2740000   0.81369983   -8.4722922    514.83496  0.015657997  0.015579262         3314 
 2741000   0.81561811   -8.4868363    513.02464  0.015597247  0.015572354         3351 
 2742000   0.81584241   -8.5122776    513.76364  0.015614018  0.015565429         3342 
 2743000   0.81389423   -8.5123918    512.99932  0.015585105  0.015558491         3428 
 2744000   0.79686554   -8.5166754    512.61378  0.015567717  0.015551534         3437 
 2745000   0.80229219    -8.520927     512.4363  0.015556658  0.015544575         3398 
 2746000   0.82821926   -8.5460865    510.94644  0.015505779  0.015537591         3472 
 2747000   0.82146166   -8.5620434    511.53351  0.015517944  0.015530596         3458 
 2748000   0.80971151   -8.5596165    511.41643  0.015508747  0.015523579         3553 
 2749000   0.80296627   -8.5676381    510.48025  0.015474726  0.015516584         3531 
 2750000   0.80788361   -8.5485989    511.05426  0.015486493   0.01550957         3565 
 2751000   0.81129865   -8.5755775    510.37188  0.015460193  0.015502546         3656 
 2752000   0.80709202    -8.562509     511.8625  0.015499712  0.015495545         3652 
 2753000   0.82705285   -8.5537542     510.6568  0.015457586  0.015488539         3556 
 2754000   0.81368242     -8.56664    511.86471  0.015488523  0.015481528         3643 
 2755000   0.81762219   -8.5881957    510.37303  0.015437781  0.015474507         3668 
 2756000   0.80338865   -8.5806008    510.88153  0.015447555  0.015467482         3649 
 2757000   0.82312234   -8.5625885    512.03851  0.015476923  0.015460452         3609 
 2758000   0.80636904   -8.5942075    510.39398  0.015421621  0.015453426         3694 
 2759000   0.81974244   -8.5807887    511.00735  0.015434558    0.0154464         3636 
 2760000   0.80629437    -8.604328    510.59547   0.01541653  0.015439377         3656 
 2761000   0.81245395   -8.5660002    511.16114  0.015428019  0.015432359         3668 
 2762000   0.80356474   -8.5885214    511.79059  0.015441425  0.015425341         3646 
 2763000   0.80708615   -8.6045619    510.33268  0.015391865  0.015418315         3631 
 2764000   0.81105248   -8.5878445     510.8932  0.015403196  0.015411295         3645 
 2765000   0.82117255   -8.5850297    510.46386  0.015384685  0.015404275         3610 
 2766000   0.78665489   -8.5866399    509.95324  0.015363739  0.015397266         3647 
 2767000   0.78821003   -8.5979615    509.70692  0.015350768  0.015390255         3682 
 2768000   0.80620572   -8.5949576    510.70853  0.015375377  0.015383244         3689 
 2769000    0.8167975   -8.5960668    510.98393  0.015378113  0.015376236         3705 
 2770000   0.81226919   -8.5831482    510.08654  0.015345564  0.015369225         3682 
 2771000   0.80554594   -8.5916224     510.4516  0.015351004  0.015362229         3612 
 2772000   0.80764653   -8.5697906    511.59917  0.015379965  0.015355226         3627 
 2773000     0.805679   -8.6144025     510.0722  0.015328531  0.015348229         3634 
 2774000   0.79391879    -8.605257    511.52242  0.015366571  0.015341234         3646 
 2775000   0.81381425   -8.6088408     510.4906  0.015330048  0.015334237         3725 
 2776000   0.80209418   -8.6128181    510.78694  0.015333422  0.015327255         3664 
 2777000   0.81711549   -8.5931258    511.30178  0.015343349  0.015320256         3692 
 2778000     0.810508   -8.5967728    509.86096  0.015294605  0.015313261         3614 
 2779000   0.81122529    -8.616984    509.58758  0.015280904  0.015306284         3687 
 2780000   0.80708427   -8.6071234    509.27789  0.015266124  0.015299304         3700 
 2781000   0.80644377   -8.5734176    511.05476  0.015313879  0.015292327         3653 
 2782000   0.81513191   -8.6124918    510.92938  0.015304618  0.015285351         3668 
 2783000   0.81960626   -8.6242783    511.00944  0.015301516  0.015278368         3658 
 2784000   0.80197286   -8.5991802    509.24723  0.015243272  0.015271393         3656 
 2785000   0.80176104   -8.5840006    509.66453  0.015250285  0.015264421         3650 
 2786000   0.79254055   -8.6103271    509.26153  0.015232757  0.015257464         3710 
 2787000   0.80851684   -8.5872245    511.01301  0.015279662  0.015250495         3705 
 2788000   0.81223837   -8.6041921    510.09465  0.015246732  0.015243523         3681 
 2789000   0.82031856   -8.5982419    509.06399  0.015210469  0.015236563         3702 
 2790000   0.81494063   -8.6083357    510.85747  0.015258586   0.01522961         3719 
 2791000     0.811332   -8.5920306     510.8273  0.015252219  0.015222652         3719 
 2792000   0.82067934   -8.6097578    510.22103   0.01522866  0.015215693         3704 
 2793000   0.79912533   -8.6206622    509.79763  0.015210575  0.015208754         3732 
 2794000   0.81841354   -8.6175488    510.39758  0.015223025  0.015201805         3710 
 2795000   0.79825048   -8.6259329    510.45034  0.015219151  0.015194859         3678 
 2796000   0.81811851   -8.6176188    509.75532  0.015192994  0.015187915         3714 
 2797000   0.82053288   -8.6083222    510.69836  0.015215659  0.015180963         3710 
 2798000   0.79682296    -8.625429    509.98027  0.015188834  0.015174016         3704 
 2799000   0.82376738   -8.6142313    509.62758  0.015172906  0.015167066         3715 
 2800000   0.79355402   -8.6243209    509.23679  0.015155857  0.015160107         3718 
 2801000   0.79955484   -8.6436033    509.82526  0.015167954  0.015153151         3674 
 2802000   0.79574891   -8.6319779    509.30896  0.015147185  0.015146185         3739 
 2803000    0.8146988   -8.6270072    510.43251  0.015175185  0.015139237         3695 
 2804000   0.81734671   -8.6227003    510.22284  0.015163541  0.015132281         3713 
 2805000   0.78493184   -8.6373912    508.86497  0.015117795  0.015125322         3683 
 2806000   0.79641072   -8.6167315    510.01454  0.015146547   0.01511837         3586 
 2807000   0.79968145   -8.6445964    509.50319   0.01512597   0.01511141         3701 
 2808000   0.79219424   -8.6296031     509.7309  0.015127342  0.015104451         3691 
 2809000   0.79603473   -8.6607845    508.94679  0.015098694  0.015097502         3760 
 2810000   0.79693671   -8.6286358    509.34519  0.015105136  0.015090544         3729 
 2811000   0.79896164    -8.654433    508.45662  0.015073421  0.015083598         3730 
 2812000   0.80633185   -8.6462515     509.1754  0.015089361   0.01507665         3708 
 2813000   0.80830763   -8.6415876    509.76949  0.015101596  0.015069701         3692 
 2814000   0.80111766   -8.6589604    508.99429  0.015073273   0.01506275         3753 
 2815000   0.79512426   -8.6743793    509.37759  0.015079265  0.015055803         3760 
 2816000      0.80682   -8.6432417     509.4265  0.015075358  0.015048856         3732 
 2817000   0.79658571   -8.6283634    510.26955  0.015094946  0.015041911         3751 
 2818000   0.79326207   -8.6525106    508.11609  0.015025907  0.015034959         3802 
 2819000   0.79714246   -8.6382723     508.9687  0.015045782  0.015028027         3737 
 2820000   0.78409702   -8.6221748    510.02257  0.015071589  0.015021099         3688 
 2821000   0.81091566   -8.6708834    508.82395  0.015030839  0.015014166         3777 
 2822000   0.80472149   -8.6325251    509.66655  0.015050394  0.015007239         3736 
 2823000   0.81045641   -8.6394213    508.83838  0.015020616   0.01500032         3690 
 2824000   0.82315066   -8.6711838    508.94873  0.015018553  0.014993407         3762 
 2825000   0.80802266   -8.6568567    509.56945  0.015031547  0.014986499         3763 
 2826000   0.80918216   -8.6218132    509.98627  0.015038519  0.014979596         3727 
 2827000   0.81292728   -8.6436661    509.25217   0.01501156  0.014972695         3726 
 2828000   0.81343509   -8.6516548     509.3152  0.015008109  0.014965779         3738 
 2829000   0.80827345   -8.6574856    508.86538  0.014989554  0.014958874         3749 
 2830000   0.81410569   -8.6424668    509.20452  0.014994244  0.014951994         3781 
 2831000   0.80752229   -8.6504029    509.82405  0.015007184  0.014945095         3707 
 2832000   0.78548725    -8.631443    509.90117  0.015004154  0.014938198         3716 
 2833000   0.80843662   -8.6352302    509.28894  0.014980849  0.014931305         3723 
 2834000   0.78958804   -8.6468612    509.12313  0.014970687  0.014924416         3719 
 2835000   0.77845247   -8.6483579    509.07174  0.014963896  0.014917528         3768 
 2836000   0.80366626   -8.6703759    508.96583  0.014955507  0.014910644         3807 
 2837000   0.80403111   -8.6546537    508.90232   0.01494837  0.014903752         3773 
 2838000    0.7815275   -8.6921562    508.93944  0.014944193  0.014896859         3780 
 2839000   0.79887859   -8.6369862    508.93251  0.014938726  0.014889981         3782 
 2840000   0.78463326   -8.6790244    508.33698  0.014915991  0.014883096         3747 
 2841000   0.80182167   -8.6623805    509.28916  0.014938671  0.014876211         3799 
 2842000   0.80880399   -8.6653038     508.6839  0.014915667   0.01486934         3750 
 2843000   0.79443013   -8.6726395    509.12945   0.01492348   0.01486248         3783 
 2844000   0.78232338   -8.6656721    509.26851  0.014922307  0.014855607         3810 
 2845000   0.80313469   -8.6757531    508.33008  0.014889575   0.01484874         3812 
 2846000   0.79717543   -8.6335316    508.80918  0.014898371  0.014841877         3752 
 2847000    0.7923757   -8.6785298    508.89893  0.014895766  0.014835017         3801 
 2848000   0.80649856   -8.6844709    508.08798  0.014866807  0.014828154         3793 
 2849000   0.80202293   -8.6626233    508.88208  0.014884816  0.014821302         3730 
 2850000   0.79411116   -8.6549092    508.98715  0.014882665  0.014814448         3753 
 2851000   0.78787212   -8.6642894      508.958  0.014876593   0.01480759         3793 
 2852000      0.79978   -8.6801979    508.10156  0.014846352  0.014800737         3798 
 2853000   0.78539148   -8.6675776    508.65926  0.014857438  0.014793891         3803 
 2854000   0.80177089   -8.6589749    508.87157  0.014858432  0.014787048         3755 
 2855000   0.79342023   -8.6331902    509.16431  0.014861772  0.014780211         3793 
 2856000   0.79683248   -8.6650689    509.00529  0.014851928  0.014773373         3742 
 2857000   0.79656156   -8.6621076    508.24596  0.014824582  0.014766542         3761 
 2858000   0.79746448   -8.6794208    508.88618  0.014838062  0.014759711         3817 
 2859000   0.80012407    -8.671797    508.81407   0.01483077  0.014752883         3694 
 2860000   0.81360229   -8.6565413    507.90089  0.014798977  0.014746057         3757 
 2861000    0.7920889   -8.6696879    509.01014  0.014826114  0.014739227         3813 
 2862000   0.79603755   -8.6635087    508.05219  0.014793041  0.014732421         3796 
 2863000   0.77554233   -8.6850111    508.45062  0.014799471  0.014725602         3730 
 2864000   0.78821195   -8.6776288    508.69173  0.014801319    0.0147188         3788 
 2865000   0.81627706   -8.6923886    508.19992  0.014781848  0.014711996         3814 
 2866000   0.77470353   -8.6567692     509.2188  0.014806315   0.01470519         3804 
 2867000   0.79437057   -8.6681476    508.09109  0.014768373  0.014698389         3786 
 2868000    0.7894732   -8.6893097    506.93113  0.014729519  0.014691586         3752 
 2869000   0.78549055   -8.6620373    509.09534  0.014787247  0.014684793         3749 
 2870000   0.80647215   -8.6671034    508.14027  0.014754363  0.014678005         3744 
 2871000   0.79530027   -8.6967017    509.59914  0.014791569  0.014671208         3743 
 2872000   0.77831393   -8.6609083    509.19798  0.014774779  0.014664422         3751 
 2873000   0.79622732   -8.6598809    509.38714  0.014775123  0.014657641         3806 
 2874000   0.78658117   -8.6544657    508.96223  0.014757661  0.014650852         3746 
 2875000   0.78204835    -8.697972    508.98141  0.014753084  0.014644072         3795 
 2876000   0.79750716   -8.7102336    507.97513  0.014718797   0.01463729         3789 
 2877000   0.77896726   -8.6763576    508.17812  0.014719561  0.014630525         3747 
 2878000   0.78233384   -8.6719564    509.13705  0.014742212  0.014623758         3748 
 2879000   0.77656534   -8.6916165    507.94208  0.014702503  0.014616997         3773 
 2880000   0.79606456   -8.6724252    508.15648  0.014703602  0.014610224         3768 
 2881000   0.80045878   -8.7002041     508.5761  0.014710636  0.014603466         3824 
 2882000   0.79957654    -8.667787    508.90904  0.014715159  0.014596718         3729 
 2883000   0.78549143   -8.6778017    508.04055  0.014684951  0.014589956         3795 
 2884000   0.77065005   -8.6790555    509.47399  0.014721278  0.014583205         3777 
 2885000   0.79588683     -8.66608    507.64572  0.014663366  0.014576449         3806 
 2886000   0.77896987   -8.6626881    509.26739   0.01470511  0.014569699         3782 
 2887000   0.78250005   -8.6729469    508.08021  0.014665749   0.01456296         3778 
 2888000   0.78640189   -8.6650763    507.40944  0.014641316  0.014556211         3813 
 2889000   0.80186263   -8.6846476    509.17097  0.014687059  0.014549475         3774 
 2890000    0.7870175   -8.6937004    508.41702  0.014660237  0.014542733         3742 
 2891000   0.81572691   -8.6889509    507.49881  0.014628698  0.014535989         3772 
 2892000   0.79849414   -8.6697061    508.23688  0.014644908  0.014529257         3811 
 2893000   0.79462762   -8.7101211    507.80046  0.014627274  0.014522519         3797 
 2894000   0.78374365   -8.6870313    508.98826  0.014656423  0.014515787         3792 
 2895000   0.81324754   -8.6808935    508.43619  0.014635469  0.014509064         3754 
 2896000   0.79578584   -8.6791541    508.42089  0.014629975  0.014502338         3759 
 2897000   0.78833472   -8.6731492    507.61659  0.014601789  0.014495612         3775 
 2898000   0.78398398   -8.6964531    508.49828  0.014622104  0.014488891         3790 
 2899000   0.77720714   -8.6801517    508.13981  0.014606755  0.014482172         3811 
 2900000   0.79174088   -8.6896759    507.65169  0.014587692  0.014475454         3779 
 2901000   0.77151446   -8.6765909    507.96905   0.01459178  0.014468735         3780 
 2902000    0.7885038   -8.6663854     507.9006  0.014584786  0.014462028         3747 
 2903000   0.78731587    -8.681195    507.79953  0.014576861  0.014455322         3807 
 2904000    0.7706606   -8.7082924     507.7769  0.014571192  0.014448617         3801 
 2905000   0.79838636   -8.6950755     507.6452  0.014562398  0.014441909         3783 
 2906000   0.79034171   -8.6857895    508.38047  0.014578472  0.014435209         3771 
 2907000   0.78322813   -8.7082103    508.64966  0.014581174  0.014428521         3773 
 2908000   0.79033543   -8.6989942    508.65765  0.014576388  0.014421823         3779 
 2909000   0.78885121   -8.6979449    509.39939  0.014592626  0.014415135         3810 
 2910000   0.79580649   -8.6899925    508.54425  0.014563123  0.014408449         3753 
 2911000   0.78731731    -8.687882    508.62348  0.014560388  0.014401764         3744 
 2912000   0.78967449    -8.687383    507.59203  0.014525871  0.014395082         3797 
 2913000   0.78880467   -8.6952313     507.5547  0.014519816  0.014388395         3771 
 2914000   0.78706943   -8.7085423    508.00716  0.014527773  0.014381718         3783 
 2915000   0.77112912    -8.684631    507.93968   0.01452086   0.01437504         3783 
 2916000   0.78498863   -8.6961023    506.94709  0.014487514  0.014368373         3773 
 2917000    0.8027816   -8.6980729     508.3243  0.014521892  0.014361703         3772 
 2918000   0.79180908   -8.6965322    507.37232  0.014489728  0.014355039         3784 
 2919000   0.78488662   -8.6785413    508.96341  0.014530188  0.014348384         3807 
 2920000    0.7820944   -8.7121213    507.59357  0.014486118   0.01434173         3844 
 2921000   0.81811947   -8.6789577    507.20172  0.014469979  0.014335075         3753 
 2922000   0.79390336   -8.6802126    507.89891  0.014484911  0.014328435         3829 
 2923000    0.7674826   -8.6780028    507.49714  0.014468501  0.014321793         3788 
 2924000   0.77945008   -8.6957694    508.54412  0.014493392  0.014315151         3802 
 2925000   0.79814226   -8.7319154    507.40835  0.014456078  0.014308502         3792 
 2926000   0.78480122   -8.6811032    508.47308  0.014481462  0.014301863         3767 
 2927000    0.7685033   -8.7061746    508.49075  0.014477017  0.014295226         3797 
 2928000   0.77838798    -8.682674    508.68265  0.014477534  0.014288594         3749 
 2929000   0.78077782   -8.6945861    507.95721  0.014451952  0.014281968         3760 
 2930000   0.77228065   -8.7008851    508.48804  0.014462117  0.014275352         3762 
 2931000   0.76971817   -8.6812689    507.99683  0.014443217  0.014268737         3774 
 2932000   0.76390394   -8.7002535    507.41219  0.014421674  0.014262118         3773 
 2933000   0.77687864   -8.7253857    506.84687  0.014400695  0.014255501         3788 
 2934000   0.78870491   -8.7197775    507.43296  0.014412434  0.014248882         3793 
 2935000   0.80508409   -8.6995616    508.90434    0.0144493  0.014242261         3788 
 2936000   0.77555432   -8.7149645    507.89744  0.014415799  0.014235652         3788 
 2937000   0.79518471   -8.7265939    507.44391  0.014398023  0.014229034         3799 
 2938000   0.77222884   -8.7077354     508.1277  0.014412517   0.01422242         3810 
 2939000   0.78667233    -8.725467    507.14558  0.014379766  0.014215802         3771 
 2940000   0.77565785   -8.7290721    508.08583  0.014401526  0.014209195         3810 
 2941000    0.7752464   -8.7173732    506.87236  0.014362245  0.014202588         3809 
 2942000   0.77468451   -8.7401349    506.98508  0.014360556  0.014195982         3814 
 2943000   0.78193617   -8.6979843     507.6601  0.014374791  0.014189381         3780 
 2944000   0.77573309    -8.729753    507.89534  0.014376567  0.014182791         3785 
 2945000    0.7787298   -8.7083155    507.61055  0.014363626  0.014176195         3792 
 2946000   0.79003479   -8.7119319    507.84361  0.014365343  0.014169605         3826 
 2947000   0.76854305    -8.716202    506.68745  0.014327776  0.014163017         3792 
 2948000   0.75821273    -8.705669    506.95413  0.014330454  0.014156425         3847 
 2949000   0.78660848   -8.7178831    506.39172  0.014309702  0.014149839         3788 
 2950000   0.77948569   -8.7108073    507.06129  0.014323765  0.014143257         3815 
 2951000   0.78540888   -8.7135081    507.87966  0.014342021  0.014136677         3736 
 2952000   0.76325437   -8.7251361    507.36504  0.014322636  0.014130101         3746 
 2953000   0.78182836   -8.7113406    507.10265  0.014310381  0.014123535         3793 
 2954000   0.77404424   -8.7035084    507.16314  0.014307243  0.014116969         3813 
 2955000   0.78608032   -8.7140531    507.90832  0.014323416  0.014110405         3831 
 2956000   0.78318475   -8.7362467    507.53824  0.014308137  0.014103845         3807 
 2957000   0.79530736   -8.7158911    508.01507  0.014316736  0.014097288         3801 
 2958000   0.77498034    -8.697008     509.1981  0.014345225  0.014090747         3830 
 2959000   0.76910242   -8.7104281    507.58182  0.014294858  0.014084196         3808 
 2960000   0.76827285   -8.7291663    507.88953  0.014298692  0.014077651         3835 
 2961000   0.78121115   -8.7290829    507.42837  0.014280884  0.014071114         3806 
 2962000   0.77729143   -8.7210118    507.61455  0.014281301  0.014064575         3799 
 2963000   0.78758458   -8.7484238    506.14914  0.014235266  0.014058039         3835 
 2964000   0.77149389   -8.7156897    507.05239  0.014255859  0.014051512         3802 
 2965000   0.78552759   -8.7249545    506.17905  0.014226505  0.014044977         3844 
 2966000   0.77285919   -8.7172995    507.04522  0.014246045   0.01403845         3796 
 2967000   0.77583832   -8.7320351    508.06838   0.01426998  0.014031932         3788 
 2968000   0.78273546   -8.7218125    507.86032  0.014259331  0.014025418         3834 
 2969000   0.78487376   -8.7386421    507.27927  0.014238219  0.014018904         3787 
 2970000   0.76989931   -8.7223242    508.06078  0.014255353  0.014012393         3797 
 2971000   0.78109378   -8.7328213    507.39462   0.01423187  0.014005877         3778 
 2972000   0.78711295   -8.7412914    507.81908  0.014238983  0.013999368         3828 
 2973000   0.79804891   -8.7233839    506.91564   0.01420887  0.013992867         3808 
 2974000   0.77274968   -8.7094332    507.68319  0.014225599  0.013986371         3781 
 2975000   0.77190864   -8.7184418      507.034  0.014202633  0.013979878         3783 
 2976000   0.77671873   -8.7327966    506.87958  0.014193537  0.013973378         3807 
 2977000   0.76681709   -8.7395494    506.69648  0.014183644  0.013966881         3790 
 2978000   0.78030816   -8.7195457    508.61576  0.014232588  0.013960387         3815 
 2979000   0.76541716     -8.72603    507.62424  0.014200074  0.013953907         3779 
 2980000   0.76578154    -8.716912    507.07591  0.014179975  0.013947424         3851 
 2981000   0.76984135   -8.7125426    507.35105   0.01418291   0.01394095         3815 
 2982000   0.77640817    -8.727599    507.46873  0.014181442  0.013934481         3818 
 2983000   0.76754988   -8.7235236     507.8264   0.01418668  0.013928005         3789 
 2984000   0.76125508   -8.7579807    507.73077  0.014179255  0.013921528         3825 
 2985000   0.76699436   -8.7236813    508.37681  0.014192541  0.013915068         3771 
 2986000    0.7737408     -8.71263    507.63375   0.01416705  0.013908617         3808 
 2987000   0.78208207   -8.7367784    505.63039  0.014106416  0.013902157         3827 
 2988000   0.77272668   -8.7429951    507.45296  0.014152526  0.013895691         3813 
 2989000    0.7633781   -8.7336439    507.50884  0.014149349  0.013889235         3799 
 2990000   0.76483894   -8.7387651    507.69929  0.014149924  0.013882785         3791 
 2991000   0.75719642   -8.7104974    506.93366  0.014123862   0.01387633         3803 
 2992000   0.78296304   -8.7248205    506.99741  0.014120917  0.013869884         3840 
 2993000   0.75707828   -8.7087904    507.05767  0.014117877  0.013863427         3858 
 2994000   0.79046023   -8.7362632    507.28172  0.014119398  0.013856981         3813 
 2995000   0.77939549   -8.7197803    506.93198  0.014104952  0.013850541         3791 
 2996000   0.76656279   -8.7379321    506.69889  0.014093761   0.01384411         3846 
 2997000   0.78098028     -8.73035    507.85282  0.014121144  0.013837675         3836 
 2998000   0.76708683   -8.7374237    506.62851  0.014082402  0.013831246         3846 
 2999000   0.75919465   -8.7389781      506.134  0.014063966  0.013824822         3828 
 3000000   0.76163913   -8.7119868    507.93121    0.0141092   0.01381839         3795 
 3001000   0.77180292   -8.7106775    507.38793  0.014089413  0.013811969         3807 
 3002000   0.78043603   -8.7304725    507.93417  0.014099882  0.013805547         3828 
 3003000   0.79044095   -8.7435705    506.59748  0.014058094  0.013799129         3805 
 3004000   0.76848976   -8.7435955    507.25632  0.014071691   0.01379271         3804 
 3005000   0.76276935   -8.7387026    507.38767  0.014070651  0.013786301         3825 
 3006000   0.76118404   -8.7164939    507.29956  0.014063527  0.013779896         3792 
 3007000   0.75539279   -8.7296082    506.56579  0.014038515  0.013773492         3832 
 3008000   0.77019258   -8.7296662    507.63682   0.01406352  0.013767092         3792 
 3009000   0.76538926   -8.7567112    506.97256   0.01404045  0.013760698         3791 
 3010000   0.77455989   -8.7069585    506.89932  0.014033757  0.013754301         3814 
 3011000   0.76764109     -8.73855    506.27928  0.014011936  0.013747914         3824 
 3012000   0.77284997   -8.7001399    507.54356  0.014042263  0.013741529         3807 
 3013000   0.76407534   -8.7296636    507.23734  0.014029133  0.013735145         3856 
 3014000   0.76774884    -8.722407    507.80834  0.014040266   0.01372877         3834 
 3015000   0.74982191   -8.7622447    505.72783  0.013978105    0.0137224         3809 
 3016000   0.75902519    -8.727804     506.4547  0.013993554   0.01371602         3822 
 3017000   0.77585129   -8.7378146    506.65923  0.013994565  0.013709655         3824 
 3018000   0.77164648   -8.7493467    506.01538   0.01397215  0.013703291         3781 
 3019000   0.77764785   -8.7342553    507.51145  0.014008818  0.013696939         3823 
 3020000   0.76182844   -8.7400532    507.60426   0.01400674  0.013690581         3818 
 3021000   0.77564436   -8.7351714    506.53225  0.013972533  0.013684223         3817 
 3022000   0.76181941   -8.7251973    507.24409  0.013987538  0.013677883         3740 
 3023000    0.7460178   -8.7291012    507.19017  0.013981425  0.013671533         3789 
 3024000   0.77225668   -8.7357801    506.72059  0.013963861   0.01366519         3818 
 3025000   0.75396851   -8.7265767    507.69168  0.013985997  0.013658852         3795 
 3026000   0.77102586   -8.7391699    506.63928  0.013952393  0.013652508         3801 
 3027000   0.77273086   -8.7329628    506.11108  0.013933242  0.013646177         3790 
 3028000   0.76176164   -8.7806381    506.89584  0.013950238  0.013639842         3840 
 3029000   0.77655053   -8.7354044    506.42424  0.013932658  0.013633517         3797 
 3030000   0.77319649    -8.748404    507.16082  0.013948317  0.013627189         3783 
 3031000   0.76866326   -8.7236805    507.92779  0.013964802   0.01362087         3803 
 3032000    0.7569068   -8.7228228    506.89946  0.013931933  0.013614544         3821 
 3033000   0.75742436   -8.7401319    506.98347  0.013929648  0.013608235         3827 
 3034000   0.78965613     -8.73921    506.63361  0.013915447  0.013601928         3793 
 3035000   0.77229635   -8.7521371     506.5133  0.013907559  0.013595608         3810 
 3036000   0.76282286   -8.7326876    505.88764  0.013885805    0.0135893         3828 
 3037000    0.7615601   -8.7364654    505.88592  0.013881185  0.013582997         3797 
 3038000   0.76323262   -8.7376244    506.75593  0.013900481  0.013576704         3849 
 3039000    0.7732747   -8.7353867    506.87036  0.013899045  0.013570408         3795 
 3040000   0.76953608     -8.75028    507.38561  0.013908597  0.013564106         3802 
 3041000   0.75580448   -8.7512687    506.52102   0.01388033  0.013557817         3820 
 3042000   0.77654894   -8.7403015    507.67744  0.013907447  0.013551532         3799 
 3043000   0.77475066   -8.7332907    507.81832  0.013906734  0.013545247         3847 
 3044000   0.75531488   -8.7348036    507.69904  0.013898901  0.013538967         3845 
 3045000   0.76638153    -8.746991    506.69052  0.013866736  0.013532679         3816 
 3046000   0.77168038    -8.750454    506.62871  0.013860492  0.013526415         3826 
 3047000   0.77140577   -8.7422936    506.41913  0.013850211  0.013520144         3821 
 3048000   0.77367763   -8.7407984    505.94814   0.01383279  0.013513872         3823 
 3049000    0.7588119   -8.7426044    506.89952  0.013854256  0.013507604         3834 
 3050000   0.77583718   -8.7426884    505.83304  0.013820575  0.013501345         3823 
 3051000   0.75887772   -8.7453391    506.44894  0.013832867   0.01349509         3775 
 3052000   0.75493548   -8.7133564       507.01  0.013843655  0.013488832         3819 
 3053000   0.76348691   -8.7656973    506.87167  0.013835344  0.013482583         3848 
 3054000   0.75585919   -8.7424962    506.31427  0.013815604  0.013476345         3796 
 3055000    0.7794294   -8.7483543     507.2418  0.013836383  0.013470103         3814 
 3056000   0.76253269   -8.7556582    506.32571  0.013806875  0.013463858         3852 
 3057000   0.76588059   -8.7439703    507.06892  0.013822618  0.013457618         3800 
 3058000    0.7399421   -8.7414132    506.95744   0.01381506  0.013451386         3799 
 3059000    0.7750966   -8.7435574    506.29923  0.013792613   0.01344515         3827 
 3060000   0.76599213   -8.7464607    506.91453  0.013804862  0.013438925         3779 
 3061000   0.76037344   -8.7549362    507.01286  0.013803029  0.013432696         3804 
 3062000   0.76574896    -8.741295    507.16293  0.013802605  0.013426477         3809 
 3063000   0.75956282   -8.7424787    507.27575  0.013801169   0.01342026         3839 
 3064000   0.77778378   -8.7478524    505.86752  0.013758364  0.013414037         3830 
 3065000   0.76867951   -8.7530653    506.30535  0.013765779  0.013407825         3828 
 3066000   0.75015381   -8.7483346    507.02521  0.013780855  0.013401612         3770 
 3067000    0.7417527   -8.7900734    506.47963  0.013761537  0.013395401         3817 
 3068000   0.77122924   -8.7604478    506.57874  0.013759744  0.013389196         3800 
 3069000   0.76851566   -8.7665825    506.40676  0.013750591  0.013382995         3827 
 3070000   0.75706246   -8.7813439    505.51772  0.013721979  0.013376796         3805 
 3071000   0.77096633   -8.7528933    506.46192  0.013743133  0.013370603         3834 
 3072000   0.76110197   -8.7358899    506.07451   0.01372815  0.013364404         3813 
 3073000   0.75830931   -8.7300609    506.45336  0.013733956  0.013358211         3780 
 3074000   0.75752929   -8.7425479    506.58846  0.013733151  0.013352029         3835 
 3075000   0.74661195   -8.7392001    506.59904  0.013728971  0.013345843         3794 
 3076000   0.75624887   -8.7401648    506.02097  0.013708847  0.013339666         3804 
 3077000   0.76325801   -8.7284496    506.00285  0.013703901  0.013333491         3832 
 3078000   0.76655509   -8.7621199    506.27284  0.013706759  0.013327316         3808 
 3079000   0.76555812    -8.764151    505.75721  0.013688351  0.013321151         3817 
 3080000   0.74614457   -8.7556743    506.25395  0.013697347  0.013314983         3854 
 3081000   0.74097293   -8.7387061     507.9399  0.013738502  0.013308817         3765 
 3082000   0.77284435   -8.7666173    507.16692  0.013713144  0.013302657         3845 
 3083000   0.76500664   -8.7553135    507.59318  0.013720218    0.0132965         3768 
 3084000   0.76973747   -8.7464159    507.41073  0.013710839  0.013290352         3809 
 3085000   0.75164008   -8.7450952    506.59964  0.013684485  0.013284203         3819 
 3086000   0.75800543   -8.7273807    506.75518  0.013684251  0.013278056         3786 
 3087000   0.75517251    -8.745197    506.36655  0.013669327  0.013271915         3795 
 3088000   0.74328438   -8.7800539     505.9095  0.013652566   0.01326577         3797 
 3089000   0.75052211   -8.7561449    506.81555   0.01367259  0.013259627         3826 
 3090000   0.75721004   -8.7383896    507.50657  0.013686801  0.013253491         3805 
 3091000   0.75847723   -8.7636591    505.93146  0.013639908   0.01324736         3807 
 3092000   0.75215734   -8.7522671    506.70756  0.013656413  0.013241234         3784 
 3093000   0.76412667   -8.7584312    506.38818  0.013643393  0.013235103         3833 
 3094000   0.76439645   -8.7210634    505.72135  0.013621023  0.013228978         3817 
 3095000    0.7574191   -8.7389157    506.51595  0.013638017   0.01322286         3833 
 3096000   0.74806075    -8.754355    505.80969  0.013614602  0.013216741         3779 
 3097000   0.75568261   -8.7675285    506.50482   0.01362891  0.013210621         3824 
 3098000   0.75149848   -8.7640898    506.61737  0.013627539  0.013204501         3825 
 3099000    0.7658226   -8.7472102    505.95176  0.013605243  0.013198384         3813 
 3100000   0.73750771   -8.7659756    506.03865  0.013603189  0.013192278         3775 
 3101000   0.73855707    -8.752214    506.15384  0.013601898  0.013186174         3797 
 3102000   0.75648594   -8.7332495    506.94403  0.013618741  0.013180074         3819 
 3103000   0.75382853   -8.7748284    505.11834  0.013565322  0.013173979         3833 
 3104000   0.74256068   -8.7474052     506.2096  0.013590249  0.013167884         3797 
 3105000   0.76016089   -8.7673074    505.96257  0.013579242  0.013161799         3799 
 3106000   0.75210574   -8.7845993    506.59476  0.013591832  0.013155714         3819 
 3107000   0.75736593   -8.7884433    505.35868  0.013554304  0.013149631         3810 
 3108000   0.74092614   -8.7564729    505.91868  0.013564958  0.013143546         3805 
 3109000   0.73555728   -8.7706903    506.69755  0.013581472  0.013137471         3815 
 3110000    0.7542771   -8.7435361     507.5869  0.013600935  0.013131389         3831 
 3111000   0.73319317    -8.764698    506.45125  0.013566143  0.013125319         3843 
 3112000   0.76120243   -8.7725705    505.87072  0.013546238  0.013119253         3820 
 3113000   0.74789712   -8.7842241    505.54882   0.01353327  0.013113188         3800 
 3114000   0.75129184   -8.7659452    506.78823  0.013562091   0.01310712         3827 
 3115000   0.75152199   -8.7449847    505.95667  0.013535491  0.013101066         3798 
 3116000   0.74677286   -8.7713725    506.42714   0.01354373  0.013095007         3797 
 3117000   0.74450141   -8.7645638    506.52622  0.013542034  0.013088962         3806 
 3118000   0.75510198   -8.7824615    506.39369  0.013534148  0.013082915         3822 
 3119000   0.76397473   -8.7447384    506.18815  0.013524317  0.013076865         3816 
 3120000   0.74500491   -8.7919892    505.29062   0.01349601  0.013070824         3812 
 3121000   0.75185537   -8.7562564    506.09534  0.013513173  0.013064785         3806 
 3122000   0.76467852   -8.7848332    506.26075   0.01351326  0.013058752         3821 
 3123000   0.76687788   -8.7812413    506.80112  0.013523352  0.013052718         3804 
 3124000   0.73406371     -8.77401    506.54435  0.013512173  0.013046692         3826 
 3125000   0.75827302   -8.7695037    506.05845  0.013494892  0.013040669         3844 
 3126000   0.74004663   -8.7840509    505.66384  0.013480056  0.013034654         3833 
 3127000    0.7467854   -8.7616294    506.31138  0.013493001  0.013028637         3781 
 3128000   0.75761384   -8.7632937    505.67394  0.013471705   0.01302262         3818 
 3129000   0.74933346   -8.7518752    505.90993  0.013473685  0.013016619         3797 
 3130000   0.74421084   -8.7847556    505.69647  0.013463697  0.013010609         3813 
 3131000   0.75017813   -8.7614714    506.27798  0.013474874  0.013004608         3802 
 3132000   0.74881435    -8.758208     505.4934  0.013449697  0.012998607         3807 
 3133000   0.75599606   -8.7654213    507.17109  0.013490028  0.012992612         3814 
 3134000   0.73809178   -8.7879413     505.5805   0.01344343  0.012986618         3849 
 3135000   0.73880701   -8.7803841    504.85297  0.013419803  0.012980624         3832 
 3136000   0.74979602   -8.7819467    505.86948  0.013442535  0.012974632         3817 
 3137000   0.73967293   -8.7811882    505.51516  0.013428838  0.012968643         3841 
 3138000   0.75290424   -8.7652907    505.45505  0.013422962  0.012962664         3833 
 3139000   0.74449786   -8.7803615    505.53961  0.013420931  0.012956693         3843 
 3140000   0.74548181   -8.7667836    506.34951   0.01343815  0.012950712         3814 
 3141000   0.74739572   -8.7795468    506.85526   0.01344729  0.012944737         3832 
 3142000   0.77162684   -8.7749123    505.88319  0.013417229  0.012938767         3812 
 3143000   0.73969957   -8.7813504    506.05142   0.01341742  0.012932798         3814 
 3144000   0.75748922   -8.7770904    506.37991  0.013421859  0.012926836         3809 
 3145000   0.76623833   -8.7824792    505.65002  0.013398252  0.012920875         3820 
 3146000   0.73870228   -8.7687014    505.67845  0.013394746   0.01291492         3788 
 3147000    0.7377476   -8.7657824     505.7183  0.013391545   0.01290896         3833 
 3148000   0.74935842   -8.7683385    505.41408  0.013379238   0.01290301         3814 
 3149000   0.76101665   -8.7711924     505.9831  0.013390047  0.012897066         3842 
 3150000   0.73036254   -8.7938746    505.97609  0.013385611  0.012891119         3855 
 3151000   0.75802531    -8.760158    506.15038  0.013385972  0.012885169         3834 
 3152000   0.73857816   -8.7617102     506.3352  0.013386612  0.012879224         3804 
 3153000   0.74635194   -8.7685047    506.07867  0.013375586  0.012873295         3805 
 3154000   0.73910717    -8.776895    505.70672  0.013361518  0.012867364         3838 
 3155000   0.75533393    -8.768244    506.05026  0.013366357  0.012861437         3802 
 3156000   0.73848826   -8.7665477     505.7442   0.01335404  0.012855507         3850 
 3157000   0.74489968    -8.781028     505.5451  0.013344554  0.012849589         3803 
 3158000   0.75042432   -8.7621921    506.01625  0.013352761  0.012843674         3832 
 3159000   0.74727148   -8.7664234    505.73001  0.013340984  0.012837762         3800 
 3160000   0.75224338   -8.7939546    506.13257  0.013347378  0.012831849         3836 
 3161000   0.74055323   -8.7669581    506.05604  0.013341138  0.012825937         3816 
 3162000   0.75318898   -8.7768585    507.19089  0.013366827   0.01282003         3840 
 3163000   0.76497584     -8.78624     506.3082  0.013339346  0.012814127         3809 
 3164000    0.7450108     -8.75077    507.22203  0.013359198  0.012808231         3805 
 3165000   0.74404474   -8.7912244    505.22442  0.013302381  0.012802332         3819 
 3166000   0.74268354   -8.7707667    506.46937  0.013330948  0.012796434         3811 
 3167000   0.72994068   -8.7833895    505.76647  0.013308243  0.012790541         3796 
 3168000   0.73734307    -8.771947    506.90627  0.013334024  0.012784653         3830 
 3169000   0.72526176   -8.7742369    506.50686  0.013319314  0.012778774         3842 
 3170000   0.74631939   -8.7682521    506.37703  0.013311699  0.012772893         3807 
 3171000   0.75423775   -8.7936143    505.38426  0.013281411  0.012767009         3808 
 3172000   0.75544669   -8.8110498    504.95393  0.013265919   0.01276113         3850 
 3173000   0.74786759   -8.7891634    505.91081  0.013286869  0.012755248         3841 
 3174000   0.74808923   -8.7875781    505.98911  0.013284738  0.012749369         3844 
 3175000   0.74648104   -8.7938025    504.61235  0.013244419  0.012743494         3812 
 3176000   0.73936425   -8.7690855    505.79539   0.01327129  0.012737624         3832 
 3177000   0.75313346   -8.7889263    504.84221   0.01324211  0.012731755         3831 
 3178000   0.73921857   -8.7781402    506.04755   0.01326955  0.012725887         3809 
 3179000   0.74090831   -8.7894654    506.09585  0.013266642  0.012720026         3846 
 3180000   0.75952057   -8.8180394    506.11216  0.013262897   0.01271417         3860 
 3181000   0.73093615   -8.7917772    506.07845  0.013257845  0.012708319         3832 
 3182000    0.7472715   -8.7759807    505.70684  0.013243946  0.012702466         3820 
 3183000   0.73808636    -8.791409     506.1394   0.01325111  0.012696623         3845 
 3184000   0.74483102    -8.784828    505.40277  0.013227669  0.012690783         3801 
 3185000   0.73399953   -8.8028215    504.29348  0.013194492  0.012684938         3848 
 3186000     0.761306   -8.8017462    505.44397  0.013220443  0.012679101         3822 
 3187000   0.74500818   -8.7892918    505.60539  0.013220515  0.012673264         3831 
 3188000   0.72744779    -8.788305     505.7037  0.013218938  0.012667433         3828 
 3189000   0.73355206   -8.7941389    505.61704  0.013212528   0.01266161         3863 
 3190000   0.72976922   -8.7800192    506.84011  0.013240337  0.012655779         3798 
 3191000   0.74120709   -8.7891774    505.97949  0.013213713  0.012649951         3812 
 3192000    0.7408358   -8.7917721    504.71889  0.013176663  0.012644135         3844 
 3193000   0.73013757   -8.7964011    505.14216  0.013183583  0.012638322         3788 
 3194000    0.7434244   -8.7958194    505.17091  0.013180205  0.012632509         3846 
 3195000   0.73189999   -8.7875283    505.77661  0.013191878  0.012626689         3832 
 3196000   0.76305656   -8.7728317    505.07987  0.013169584  0.012620887         3835 
 3197000   0.74334366   -8.7656864    506.30142  0.013197305  0.012615081         3865 
 3198000   0.73322165   -8.7972568    505.53997  0.013173337  0.012609288         3828 
 3199000   0.73156014   -8.8171988    505.45824   0.01316709  0.012603486         3860 
 3200000   0.73726727   -8.8088741    504.24493  0.013131378  0.012597688         3835 
 3201000    0.7335097   -8.7919684    506.15504  0.013177003  0.012591897         3852 
 3202000   0.73746582   -8.7992026    504.81811  0.013138094  0.012586107         3845 
 3203000   0.73605862   -8.7951375    504.63711  0.013129283  0.012580323         3835 
 3204000   0.74431211    -8.805185    506.06724  0.013162381  0.012574535         3801 
 3205000   0.74137206   -8.7894298    505.03684  0.013131483  0.012568753         3838 
 3206000   0.74781646   -8.7953678    505.28178  0.013133754  0.012562979         3836 
 3207000    0.7408613   -8.8091487    503.87663  0.013093146  0.012557198         3887 
 3208000   0.73902194   -8.7896193    506.20725  0.013149606  0.012551424         3826 
 3209000   0.73739076   -8.7914999    506.09956  0.013142712  0.012545658         3830 
 3210000   0.74631234    -8.794578    505.32175  0.013118426  0.012539891         3863 
 3211000   0.76221071   -8.8005618    504.77543  0.013100162  0.012534128         3833 
 3212000   0.73611348   -8.7755905     505.0276  0.013102626  0.012528372         3854 
 3213000     0.734593   -8.7883056    505.47333  0.013110108  0.012522615         3845 
 3214000   0.73563984   -8.7827987    504.91297    0.0130915  0.012516862         3847 
 3215000   0.72954079   -8.7872836    506.04747  0.013116834  0.012511109         3838 
 3216000   0.72911067   -8.7990713    505.60456  0.013101279  0.012505369         3822 
 3217000    0.7380272   -8.7899336    504.24631  0.013062022  0.012499627         3873 
 3218000   0.73660971   -8.7949141    506.10443  0.013106081   0.01249389         3783 
 3219000   0.72469074   -8.7941082    505.66393  0.013090606  0.012488154         3831 
 3220000   0.72696843   -8.8091518    504.76308  0.013063227  0.012482414         3846 
 3221000   0.74173477   -8.7818179    505.94115   0.01308965  0.012476678         3841 
 3222000   0.75807401   -8.7833204    505.57539  0.013076127  0.012470951         3826 
 3223000   0.72821714   -8.8160948    505.80334  0.013077964  0.012465231         3837 
 3224000    0.7289001   -8.8047201    505.25327  0.013059689  0.012459508         3809 
 3225000   0.73979425   -8.7966117    504.71726   0.01304179  0.012453795         3869 
 3226000   0.72261478   -8.7951492    505.49424  0.013057818  0.012448083         3844 
 3227000   0.73003477   -8.8001876    505.98185  0.013066363  0.012442378         3849 
 3228000   0.73139763   -8.7858829    505.70313   0.01305512  0.012436665         3833 
 3229000   0.74439096   -8.7938995    505.62733  0.013049121  0.012430956         3853 
 3230000   0.73173863   -8.7940391    505.10679  0.013031651  0.012425257         3842 
 3231000   0.73234288   -8.7769346    505.71955  0.013043422  0.012419566         3816 
 3232000   0.72627245   -8.8146851    505.36993  0.013030372  0.012413859         3843 
 3233000    0.7567181   -8.7877189    505.34267  0.013025638  0.012408164         3877 
 3234000   0.74219102   -8.8278181    504.13167  0.012990406  0.012402473         3847 
 3235000   0.74373526   -8.8038047    505.61306  0.013024551  0.012396787         3837 
 3236000    0.7456083   -8.7887474    505.99359  0.013030325  0.012391099         3847 
 3237000    0.7222144   -8.8133256    504.81808  0.012996038  0.012385413         3833 
 3238000   0.72104065   -8.7842528    504.66091  0.012987979  0.012379731         3834 
 3239000   0.73065122   -8.8131446    505.11593  0.012995676  0.012374057         3854 
 3240000    0.7333997   -8.7864125    504.89401  0.012985957  0.012368384         3853 
 3241000   0.73257568   -8.8394847      505.236  0.012990744  0.012362714         3836 
 3242000   0.73042248   -8.7862006     505.1706  0.012985055  0.012357047         3816 
 3243000     0.731424    -8.808849    504.57486  0.012965743  0.012351377         3828 
 3244000   0.71654713   -8.8175034    505.43565  0.012983859  0.012345724         3827 
 3245000   0.72837844   -8.7967968    505.64147  0.012985143  0.012340071         3845 
 3246000   0.73522197    -8.793706    504.91837  0.012962579  0.012334419         3845 
 3247000   0.72795294   -8.7918308    505.22817  0.012966538  0.012328765         3866 
 3248000   0.71851454   -8.8050987    505.13004  0.012960028  0.012323118         3818 
 3249000   0.74042303   -8.8107287     504.5203  0.012940399   0.01231747         3859 
 3250000   0.73441988   -8.8210379     504.2767  0.012930172  0.012311834         3864 
 3251000   0.72933322   -8.7831769    505.92313  0.012968398  0.012306196         3832 
 3252000   0.72365056   -8.8184044    504.49231  0.012927745  0.012300553         3841 
 3253000   0.72982974   -8.8074161    505.73425  0.012955586  0.012294917         3817 
 3254000   0.72019645   -8.8204057    505.80497  0.012953416  0.012289296         3871 
 3255000   0.73012624   -8.8219791     504.7231  0.012921738  0.012283669         3880 
 3256000   0.73035225   -8.8089948    504.59276  0.012914434  0.012278051         3855 
 3257000   0.73386239   -8.8078816    505.31867  0.012929042  0.012272432         3833 
 3258000   0.74765845   -8.8156518    505.38483  0.012926766  0.012266819         3829 
 3259000   0.72538198   -8.7977479    505.36852  0.012922382  0.012261196         3827 
 3260000   0.71929328   -8.7938067    504.19784  0.012888493  0.012255587         3858 
 3261000   0.73698925   -8.7969734    505.23773  0.012911114  0.012249981         3823 
 3262000   0.73224181   -8.7956955    505.11362  0.012903986  0.012244378         3849 
 3263000   0.70857397   -8.8203129    505.56852  0.012911649  0.012238778         3860 
 3264000   0.72049503   -8.7969706     505.0778  0.012895164  0.012233179         3870 
 3265000    0.7208106   -8.8006763    505.17381  0.012893665  0.012227582         3841 
 3266000   0.73725442   -8.8312137    504.66999  0.012876862  0.012221989         3850 
 3267000   0.72253691   -8.8180531    505.05552  0.012882755  0.012216403         3830 
 3268000   0.72973852   -8.8092175    504.41069   0.01286237  0.012210814         3847 
 3269000   0.73664297   -8.8132094    504.43041  0.012858938  0.012205226         3842 
 3270000   0.73466387   -8.8084966    505.10487  0.012872193  0.012199643         3858 
 3271000   0.73371074   -8.8244717    504.56659  0.012854545  0.012194056         3834 
 3272000   0.73584833   -8.8017826    504.46756  0.012848094  0.012188478         3853 
 3273000   0.73415181   -8.8157982     506.0781  0.012885174  0.012182903         3848 
 3274000   0.73833276   -8.8341821    504.61846  0.012844086  0.012177326         3846 
 3275000   0.74131714   -8.8181794    504.46589  0.012836282  0.012171757         3869 
 3276000    0.7093769   -8.8055163    504.81949  0.012841359  0.012166192         3837 
 3277000   0.73055583   -8.7846218    505.44201   0.01285327  0.012160628         3833 
 3278000   0.71288957   -8.7983605    503.91851  0.012810619  0.012155064         3844 
 3279000   0.71735975   -8.8152623    504.50932  0.012821727  0.012149511         3844 
 3280000   0.73156098   -8.8106539    505.13243  0.012833649  0.012143956         3822 
 3281000    0.7291393   -8.8348369    503.87369  0.012797767  0.012138411         3854 
 3282000   0.71530615   -8.8152149    505.41397  0.012832977  0.012132867         3829 
 3283000   0.72685326   -8.8390425    504.18599  0.012797898  0.012127324         3878 
 3284000   0.73838469   -8.8315206    504.23671  0.012795288   0.01212179         3856 
 3285000   0.74261206   -8.8088824    505.06164   0.01281232  0.012116255         3838 
 3286000   0.71498103   -8.8185619    504.90123  0.012804352  0.012110727         3802 
 3287000   0.75148524   -8.7967833    505.46999  0.012814877  0.012105193         3846 
 3288000   0.71167624   -8.8191484    505.30386  0.012806768  0.012099667         3841 
 3289000   0.71441283   -8.8040499    504.78449  0.012789716  0.012094149         3866 
 3290000   0.73072959   -8.8160485    504.57175   0.01278044   0.01208863         3843 
 3291000    0.7186887   -8.8276257    503.95613  0.012760968  0.012083117         3817 
 3292000   0.73265838    -8.805251    505.24058  0.012789606  0.012077599         3824 
 3293000   0.71742585   -8.8354001     504.2145  0.012759756  0.012072087         3868 
 3294000   0.72473412    -8.811687    505.07755  0.012777716  0.012066572         3875 
 3295000    0.7225944   -8.8250084    505.30233  0.012779523   0.01206107         3868 
 3296000   0.71659023   -8.8031948    504.41718  0.012753266  0.012055562         3854 
 3297000   0.71229926   -8.8143527    504.51916  0.012751976  0.012050063         3853 
 3298000   0.72014681   -8.7973912    504.36775  0.012744283   0.01204457         3840 
 3299000   0.72560929   -8.8042644    503.62713  0.012721712  0.012039074         3829 
 3300000   0.72321365   -8.8144045    504.85226  0.012748794  0.012033576         3843 
 3301000   0.72479521   -8.8117479    504.48339   0.01273562  0.012028087         3849 
 3302000   0.71403362   -8.8132053    504.45418  0.012731026  0.012022605         3865 
 3303000   0.71932846    -8.828958    504.62099   0.01273138  0.012017115         3827 
 3304000    0.7257698   -8.8493516    504.50401  0.012724576  0.012011637         3838 
 3305000   0.71917549   -8.7852928     504.5998  0.012723142  0.012006162         3841 
 3306000   0.72713689     -8.79856    505.16144   0.01273345  0.012000689         3842 
 3307000   0.72297756   -8.8133008    504.90451  0.012723125  0.011995219         3822 
 3308000   0.71870074    -8.828944    504.27476  0.012703415   0.01198975         3855 
 3309000   0.71589354   -8.8292061     505.2536  0.012724227  0.011984286         3842 
 3310000   0.70719066   -8.8184944    503.92834  0.012687018  0.011978823         3850 
 3311000   0.72783455   -8.8455339    504.62661   0.01270076  0.011973367         3829 
 3312000   0.73522344   -8.8410965    505.25331  0.012712694  0.011967908         3830 
 3313000    0.7267955   -8.8002071    504.47141  0.012689189  0.011962453         3839 
 3314000   0.72570537   -8.8275256    505.01423   0.01269901  0.011957008         3822 
 3315000   0.71946771    -8.799347    504.47896  0.012681723  0.011951562         3853 
 3316000   0.73249438   -8.8213323     504.0694  0.012667607  0.011946126         3874 
 3317000   0.72367604   -8.8091136     504.2492  0.012668305  0.011940686         3827 
 3318000   0.71386559   -8.8252155     505.0164  0.012683755  0.011935251         3830 
 3319000   0.72551824   -8.8298427    504.61142  0.012669766  0.011929815         3871 
 3320000   0.71370314   -8.8196282    503.69816  0.012643026  0.011924383         3868 
 3321000   0.70464409   -8.8151924     505.0115  0.012672175  0.011918958         3833 
 3322000   0.73041684   -8.8314391    504.74103  0.012661575  0.011913531         3857 
 3323000   0.72537377   -8.8231247    505.11623  0.012667174   0.01190812         3833 
 3324000   0.74200681    -8.810835    504.91942  0.012658429  0.011902696         3850 
 3325000   0.72518551   -8.8389688    504.18108  0.012636117  0.011897284         3830 
 3326000   0.72865515   -8.8283196    504.77803  0.012647275  0.011891872         3850 
 3327000   0.71573934   -8.8153857    503.73896  0.012617447  0.011886465         3854 
 3328000   0.73089405   -8.8158791    505.27681  0.012652164  0.011881065         3843 
 3329000   0.71910454    -8.819728    504.39828  0.012626371  0.011875657         3845 
 3330000   0.71334075   -8.8156953    504.00891  0.012612836  0.011870254         3831 
 3331000   0.71694902   -8.8356843    504.36754  0.012618021  0.011864858         3861 
 3332000   0.70184216   -8.8386429    504.21686  0.012610466  0.011859465         3868 
 3333000   0.72723605   -8.8134673    505.25634  0.012632672  0.011854076         3839 
 3334000   0.70807605   -8.8223607    504.19102  0.012602255  0.011848688         3836 
 3335000   0.72284215   -8.8255193    504.23838   0.01259966  0.011843304         3852 
 3336000   0.70912394   -8.8324507    503.32506  0.012573068  0.011837917         3850 
 3337000   0.72253111   -8.8550499    504.31576  0.012594041  0.011832535         3844 
 3338000   0.73266328   -8.8431276     504.7229  0.012600432   0.01182716         3843 
 3339000   0.72753241   -8.8287931    505.10108  0.012606097  0.011821788         3853 
 3340000   0.73328029   -8.8121349    505.03096  0.012600573  0.011816422         3800 
 3341000   0.71458517     -8.82857    504.31475  0.012578937  0.011811058         3866 
 3342000   0.70441439   -8.8548295    504.42033  0.012577806  0.011805694         3848 
 3343000   0.70849185    -8.851992    503.67927  0.012555571  0.011800328         3855 
 3344000   0.71065142   -8.8341031    505.07365  0.012586564  0.011794964         3824 
 3345000   0.72556762    -8.820067    505.19497  0.012585824  0.011789607         3842 
 3346000   0.70440698   -8.8424893    504.11103  0.012555066  0.011784254         3860 
 3347000   0.70824154   -8.8311357    504.38018  0.012558017  0.011778902         3840 
 3348000   0.73238931    -8.826327    504.40578  0.012554903  0.011773554         3891 
 3349000   0.70588459   -8.8345227    503.67794  0.012533043  0.011768209         3812 
 3350000   0.71307625   -8.8417565    504.65576  0.012553626  0.011762869         3853 
 3351000   0.72311437   -8.8455238    504.86223  0.012555014  0.011757534         3830 
 3352000   0.70862928   -8.8077556    504.70218   0.01254729  0.011752202         3862 
 3353000   0.70564479   -8.8204189    504.24204  0.012532112  0.011746873         3849 
 3354000    0.7203824   -8.8257444    503.69114  0.012514687  0.011741549         3882 
 3355000   0.71715361    -8.850414     503.8301  0.012514409  0.011736233         3853 
 3356000   0.72449048   -8.8298494     504.6384  0.012530751  0.011730911         3824 
 3357000   0.69661922   -8.8385269    503.42393  0.012496871  0.011725589         3861 
 3358000   0.69908567   -8.8267601    504.78593  0.012526949  0.011720275         3840 
 3359000   0.70618894   -8.8249591    504.25116  0.012509952  0.011714971         3879 
 3360000   0.71587072   -8.8331442     503.2073   0.01248034  0.011709665         3843 
 3361000   0.70735264   -8.8277673    504.57528  0.012510545  0.011704361         3867 
 3362000   0.69679526   -8.8401286     504.5145  0.012505317   0.01169906         3852 
 3363000   0.71453462   -8.8580191    504.34768  0.012497464  0.011693757         3860 
 3364000   0.71168462   -8.8398182    504.42526  0.012495671  0.011688463         3847 
 3365000   0.70564259   -8.8202736    503.55305  0.012470358   0.01168317         3832 
 3366000   0.71279277    -8.850364    504.17704  0.012482101  0.011677881         3846 
 3367000   0.71312283   -8.8506968    504.41127  0.012484192  0.011672598         3867 
 3368000   0.70030389   -8.8548752    503.90628   0.01246799  0.011667312         3865 
 3369000   0.71201802   -8.8584678    503.26406  0.012448404   0.01166203         3855 
 3370000   0.69892741   -8.8298835    504.39544  0.012472686  0.011656745         3849 
 3371000    0.7201435   -8.8282416    505.18712  0.012488557  0.011651466         3842 
 3372000   0.70308921   -8.8417589    503.81459  0.012450934  0.011646191         3834 
 3373000   0.72044547    -8.845104    505.03045  0.012477282  0.011640916         3863 
 3374000   0.70886736    -8.835646    505.07264  0.012474625  0.011635645         3832 
 3375000    0.7143833   -8.8292763    503.91022  0.012442228  0.011630375         3854 
 3376000   0.71901101   -8.8234654    503.87634  0.012437706  0.011625114         3853 
 3377000   0.71814436   -8.8544131    504.23708  0.012442925  0.011619859         3826 
 3378000   0.72372038   -8.8284824     503.7164  0.012426396  0.011614601         3857 
 3379000   0.70423096   -8.8558081    504.18599    0.0124343  0.011609342         3836 
 3380000   0.72038373   -8.8382688    504.16962  0.012430217  0.011604085         3825 
 3381000   0.70258913   -8.8310833    503.62543  0.012413128   0.01159884         3848 
 3382000   0.72090229   -8.8587903    504.64565  0.012434596  0.011593595         3848 
 3383000   0.70418687   -8.8184133     504.9705  0.012438922  0.011588352         3820 
 3384000   0.69493765   -8.8336571    503.95448  0.012410227  0.011583108         3806 
 3385000   0.72118983   -8.8441232     502.8655  0.012379751  0.011577869         3858 
 3386000    0.7006432   -8.8391935    504.44163  0.012414886  0.011572633         3845 
 3387000   0.71480001   -8.8650303    504.73387   0.01241841  0.011567404         3836 
 3388000   0.73151597   -8.8433866    504.77403  0.012415733  0.011562175         3865 
 3389000   0.70915601   -8.8306857     503.5078  0.012380933  0.011556944         3821 
 3390000   0.70664464   -8.8480063    504.85527  0.012410405  0.011551718         3849 
 3391000   0.70093981   -8.8478169    503.93843  0.012384214  0.011546497         3858 
 3392000   0.70500579    -8.820884    505.10862  0.012409312  0.011541285         3849 
 3393000   0.70199084   -8.8346411    504.47143  0.012390005  0.011536075         3858 
 3394000   0.70793505   -8.8614503    504.02107  0.012375296  0.011530862         3852 
 3395000   0.71398824   -8.8270804    503.86555  0.012367834  0.011525653         3851 
 3396000   0.71478065    -8.836481    504.12898  0.012370656  0.011520448         3846 
 3397000   0.71361186   -8.8551321    503.89326  0.012361232  0.011515251         3864 
 3398000   0.70163748   -8.8346853    504.18821  0.012364828   0.01151005         3863 
 3399000   0.70752115    -8.842686    504.42915  0.012367097  0.011504851         3860 
 3400000    0.7141461   -8.8343719    504.19981  0.012357839   0.01149966         3833 
 3401000   0.70968805   -8.8294351    503.50104  0.012337083  0.011494468         3836 
 3402000   0.71774516   -8.8386655    503.92858  0.012343929  0.011489277         3840 
 3403000   0.70904956   -8.8381963    504.23174  0.012347726  0.011484089         3872 
 3404000   0.70659788   -8.8479113    503.24664  0.012319982  0.011478909         3856 
 3405000   0.71051485   -8.8399843    503.37785  0.012319575  0.011473731         3862 
 3406000   0.71793679   -8.8587647    503.31075  0.012314317  0.011468556         3853 
 3407000     0.708168   -8.8506103    504.55881  0.012341229  0.011463383         3839 
 3408000   0.70125075   -8.8388635    504.08078  0.012325919  0.011458217         3843 
 3409000   0.70731425   -8.8350503     504.6409  0.012335995  0.011453048         3843 
 3410000   0.69769515   -8.8346172    504.27253  0.012323376  0.011447879         3814 
 3411000   0.70294635   -8.8376816    504.21467  0.012318349   0.01144272         3824 
 3412000   0.70175954   -8.8402455    504.10213   0.01231199  0.011437566         3872 
 3413000   0.70344896   -8.8515807    503.68492  0.012298196  0.011432403         3886 
 3414000   0.71117021   -8.8557079    503.79115  0.012297187   0.01142725         3822 
 3415000   0.70120371   -8.8648042    503.26572  0.012280764  0.011422101         3818 
 3416000   0.71311968   -8.8396658    504.82529  0.012315215   0.01141695         3848 
 3417000   0.71625876   -8.8462049    504.48963  0.012303425  0.011411806         3856 
 3418000   0.70781733   -8.8386651    504.33716  0.012296108   0.01140667         3841 
 3419000   0.69020634   -8.8489978    503.74873  0.012278169   0.01140153         3847 
 3420000    0.7018065   -8.8353187    503.70222  0.012273446  0.011396397         3858 
 3421000   0.69321705   -8.8460056    504.36308  0.012285956  0.011391262         3875 
 3422000   0.71285598   -8.8401099    504.70295  0.012290643  0.011386132         3807 
 3423000    0.7143366     -8.86974    503.81465  0.012265426  0.011381006         3849 
 3424000   0.72172969   -8.8666485    503.81911  0.012261953  0.011375889         3846 
 3425000   0.69272405   -8.8434022    504.40118  0.012272535  0.011370767         3826 
 3426000    0.7093596   -8.8671104     504.3526  0.012267771  0.011365651         3843 
 3427000   0.70782874   -8.8411048    504.18353   0.01226008  0.011360534         3863 
 3428000   0.71526393   -8.8564262    504.39882  0.012261737  0.011355418         3851 
 3429000   0.69966938   -8.8576159    503.32383  0.012232036  0.011350305         3878 
 3430000    0.7096966   -8.8411218    504.92386  0.012267344  0.011345195         3849 
 3431000   0.68830782   -8.8323102    503.67259  0.012233377   0.01134009         3843 
 3432000   0.69516356   -8.8444175    503.72585  0.012231106   0.01133499         3824 
 3433000   0.71577036   -8.8370115    504.00521  0.012234324  0.011329888         3849 
 3434000   0.71419756   -8.8358339    504.23851  0.012236423  0.011324795         3842 
 3435000   0.69723042   -8.8515529    503.54235  0.012215972  0.011319702         3846 
 3436000   0.69108916   -8.8714186    503.46768  0.012210605   0.01131461         3849 
 3437000   0.70367157   -8.8417592    503.74385  0.012213749  0.011309517         3874 
 3438000   0.69230313   -8.8445172    503.16849   0.01219625  0.011304432         3874 
 3439000    0.6950041   -8.8705246    503.70771   0.01220577  0.011299344         3861 
 3440000   0.69515392   -8.8441582    504.61996  0.012224321   0.01129426         3858 
 3441000   0.69527723    -8.873762    503.66654  0.012197678  0.011289181         3868 
 3442000   0.70357376   -8.8372175    504.59986  0.012216731  0.011284107         3856 
 3443000   0.69269575    -8.858105    504.62482  0.012213787   0.01127904         3846 
 3444000   0.71314606   -8.8451868    504.12223  0.012198079  0.011273969         3844 
 3445000   0.70699001   -8.8591175    503.85079  0.012187973  0.011268896         3868 
 3446000   0.69901043   -8.8473791    503.06882  0.012165526  0.011263835         3855 
 3447000   0.71411162   -8.8751805    503.43117  0.012170756  0.011258771         3849 
 3448000    0.7037556   -8.8546768    503.95216  0.012179818  0.011253714         3879 
 3449000   0.71246572   -8.8677983    503.49686  0.012165286   0.01124866         3856 
 3450000   0.70219613   -8.8394697    504.65824  0.012189812  0.011243602         3830 
 3451000   0.71693517   -8.8614165    503.71639  0.012163537  0.011238556         3882 
 3452000   0.69916536   -8.8451476    503.75409  0.012160923  0.011233514         3846 
 3453000    0.6942647   -8.8824425    503.41486  0.012149215   0.01122847         3863 
 3454000   0.69689344   -8.8326732    504.24273  0.012165671  0.011223429         3844 
 3455000   0.70026573   -8.8634197     503.1102  0.012134834  0.011218396         3859 
 3456000   0.69531877   -8.8516938    503.36315  0.012137422  0.011213361         3851 
 3457000   0.70386365   -8.8646349     504.0633  0.012150788  0.011208329         3831 
 3458000   0.69968498   -8.8648808    503.32444  0.012129469    0.0112033         3843 
 3459000   0.70454763   -8.8589881    503.07531   0.01211996  0.011198269         3832 
 3460000   0.71137443   -8.8296985    504.11235  0.012141434  0.011193249         3823 
 3461000   0.71914248   -8.8720345    502.46367   0.01209823  0.011188224         3838 
 3462000    0.6946118   -8.8559831     503.9959  0.012131617  0.011183204         3862 
 3463000   0.69389784   -8.8758019    503.44862  0.012114944  0.011178187         3870 
 3464000    0.6954586   -8.8741212    504.65983  0.012140585  0.011173174         3866 
 3465000   0.69611582   -8.8660381     503.4331  0.012107578  0.011168161         3844 
 3466000   0.71348277   -8.8330194    503.64201  0.012109108  0.011163156         3847 
 3467000   0.68370757   -8.8421675    503.68566  0.012106664  0.011158153         3845 
 3468000   0.68174935   -8.8789846    503.11213  0.012089392   0.01115315         3852 
 3469000    0.6997864   -8.8692808    503.34807  0.012091575  0.011148152         3887 
 3470000   0.69452621   -8.8549854    502.75776  0.012073914  0.011143158         3873 
 3471000   0.70128913   -8.8309759    503.76892  0.012094711  0.011138165         3838 
 3472000   0.69568691   -8.8635619     504.1909  0.012101356  0.011133176         3854 
 3473000   0.69079929   -8.8455232    503.80589  0.012088634  0.011128185         3835 
 3474000   0.69271622    -8.868508    503.96272  0.012088916    0.0111232         3865 
 3475000   0.67840517   -8.8763741    503.69643  0.012079051  0.011118214         3854 
 3476000   0.69279102     -8.86927    502.53345  0.012047695  0.011113231         3859 
 3477000   0.69142467   -8.8503357    503.79991  0.012074583  0.011108252         3844 
 3478000   0.69616612   -8.8453087    503.20721   0.01205691  0.011103283         3829 
 3479000   0.71683784   -8.8443263    504.35143  0.012080853  0.011098319         3883 
 3480000   0.70203762   -8.8602471    502.86493  0.012041785  0.011093351         3857 
 3481000   0.70587732   -8.8673166    504.23931  0.012071227  0.011088387         3848 
 3482000   0.69324993   -8.8845906    503.09732   0.01204043  0.011083427         3856 
 3483000   0.67729586   -8.8651913    503.01729  0.012035058  0.011078465         3845 
 3484000   0.70339022   -8.8676621    502.57598  0.012021048  0.011073504         3848 
 3485000   0.67841156   -8.8410167    503.46744  0.012038915  0.011068549         3841 
 3486000   0.67016325   -8.8640174    503.63846   0.01203955  0.011063598         3848 
 3487000   0.68860783   -8.8580042    503.14847  0.012024387  0.011058651         3848 
 3488000   0.67759483   -8.8602845    503.51649  0.012029733  0.011053701         3857 
 3489000   0.68853071   -8.8835154    502.60704  0.012004563  0.011048756         3879 
 3490000   0.69535262   -8.8776254    504.14352  0.012037811  0.011043813         3864 
 3491000   0.67889176   -8.8630041     503.8039  0.012026256  0.011038871         3877 
 3492000   0.68880731   -8.8698675    503.30449  0.012010894  0.011033935         3881 
 3493000    0.6986687   -8.8688982    503.93897  0.012022592  0.011029006         3841 
 3494000   0.68704971   -8.8686776     503.6885  0.012013177   0.01102407         3858 
 3495000   0.68686964   -8.8751853    503.32832  0.012001152  0.011019148         3873 
 3496000   0.69848129   -8.8584337    502.99359  0.011989741  0.011014221         3860 
 3497000   0.69699106   -8.8615396    502.51009   0.01197479  0.011009299         3847 
 3498000   0.68354803   -8.8689226    503.11439  0.011985763  0.011004376         3847 
 3499000   0.69757179   -8.8642264    503.20914  0.011984594  0.010999462         3836 
 3500000   0.67667283   -8.8629732    504.30641  0.012007295  0.010994547         3843 
 3501000    0.6921531    -8.859007     503.8347  0.011992638   0.01098964         3855 
 3502000   0.68817804   -8.8828714    503.55427   0.01198254  0.010984728         3866 
 3503000   0.68321612   -8.8447479    502.87952  0.011963068  0.010979823         3853 
 3504000   0.69533032   -8.8744257    503.46438  0.011973563  0.010974921         3843 
 3505000   0.69074457   -8.8833334    502.23571  0.011940935   0.01097002         3862 
 3506000   0.70182415   -8.8648411    503.92493  0.011977679  0.010965124         3870 
 3507000   0.69283828   -8.8610525    503.44238  0.011962798  0.010960231         3818 
 3508000   0.67836231   -8.8603239    503.51302  0.011961066  0.010955338         3848 
 3509000    0.6887938   -8.8557119    503.11315  0.011948161  0.010950452         3849 
 3510000   0.70280091   -8.8702007    503.46932  0.011953213  0.010945566         3871 
 3511000   0.68554782   -8.8694428    503.97154  0.011961728  0.010940676         3875 
 3512000   0.67354849   -8.8426141     503.7184  0.011952316  0.010935795         3823 
 3513000   0.69819456   -8.8658694    502.52668  0.011920644  0.010930913         3834 
 3514000   0.68564808   -8.8558624    503.37439  0.011937355  0.010926038         3846 
 3515000   0.69506489     -8.85475    503.58762  0.011939014  0.010921166         3802 
 3516000   0.68165336   -8.8623415    503.57344  0.011935283  0.010916303         3857 
 3517000   0.70010561   -8.8677324    503.98524  0.011941646  0.010911432         3865 
 3518000   0.70300649   -8.8703469     503.9844  0.011938232  0.010906571         3850 
 3519000    0.6750636   -8.8645339     503.0185  0.011911966  0.010901719         3867 
 3520000   0.67323379   -8.8943699    503.16041  0.011911941  0.010896854         3857 
 3521000   0.70455146   -8.8743511    503.44242  0.011915233  0.010891999         3868 
 3522000   0.68484335   -8.8492461    503.19512  0.011905999  0.010887144         3831 
 3523000   0.66705531     -8.85774    502.65121  0.011889753  0.010882298         3840 
 3524000   0.69663966   -8.8795873    502.32376  0.011878636  0.010877454         3857 
 3525000   0.68983947    -8.865213    502.81998  0.011886997  0.010872611         3836 
 3526000   0.68180765   -8.8702839    503.18191   0.01189218  0.010867771         3866 
 3527000   0.70114664   -8.8586326    504.34654  0.011916325  0.010862937         3834 
 3528000   0.69779247   -8.8673271    504.24133  0.011910462  0.010858108         3857 
 3529000   0.69026598   -8.8701954    502.91298   0.01187572  0.010853274         3861 
 3530000   0.68457911   -8.8719872    502.52741  0.011863253  0.010848443         3838 
 3531000   0.69687813   -8.8636867    502.84118  0.011867299  0.010843616         3867 
 3532000   0.68549537   -8.8889562    503.36423  0.011876279  0.010838789         3864 
 3533000   0.68882211   -8.8923366    502.63864  0.011855803  0.010833965         3844 
 3534000    0.6899603   -8.8730775    503.08049  0.011862868  0.010829138         3853 
 3535000   0.67747589      -8.8756    502.67464  0.011849944  0.010824325         3866 
 3536000   0.67779224   -8.8774451    503.56007   0.01186746  0.010819514         3841 
 3537000   0.68093907   -8.8773916     503.9029  0.011872182    0.0108147         3859 
 3538000    0.6796133   -8.8713561    503.82092  0.011866896  0.010809889         3820 
 3539000   0.68536835   -8.8901274    502.72921  0.011837836   0.01080508         3876 
 3540000   0.68365902   -8.8513492    503.69377  0.011857198  0.010800272         3859 
 3541000   0.67673439   -8.9008658    502.81542  0.011833179  0.010795469         3874 
 3542000   0.69086052    -8.846431    503.76913  0.011852276   0.01079067         3855 
 3543000   0.68254606   -8.8874256    502.86293  0.011827616  0.010785869         3864 
 3544000   0.68068153   -8.8723073    503.01032  0.011827744  0.010781076         3877 
 3545000   0.69181504   -8.8690117    503.38885  0.011833306  0.010776289         3838 
 3546000   0.69496224   -8.8630867    502.28163  0.011803949  0.010771497         3850 
 3547000   0.66905221   -8.8905613    501.95579  0.011792966  0.010766708         3811 
 3548000   0.69018483   -8.8707978    502.96736  0.011813401  0.010761924         3842 
 3549000   0.68612859   -8.8810825    502.85835  0.011807513  0.010757143         3816 
 3550000   0.70276899   -8.8690865    503.25459  0.011813488  0.010752365         3861 
 3551000   0.68329043   -8.8837103    501.80988  0.011776257  0.010747591         3858 
 3552000   0.67531016   -8.8467202    503.48566  0.011812257   0.01074282         3841 
 3553000   0.68806022   -8.8795614    502.84147  0.011793824  0.010738051         3818 
 3554000   0.67163482   -8.8598673    503.15889  0.011797948  0.010733282         3856 
 3555000   0.68387901   -8.8709744    503.14032  0.011794194   0.01072852         3876 
 3556000   0.68653103   -8.8821666    503.05863  0.011788963  0.010723755         3889 
 3557000   0.67744177   -8.8752088    502.77306  0.011778958  0.010719001         3860 
 3558000   0.69586163   -8.8713853    503.50166  0.011792713  0.010714247         3859 
 3559000   0.68448945    -8.874326    502.95634  0.011776631  0.010709493         3838 
 3560000   0.67840181   -8.8597593    503.67648   0.01179018  0.010704742         3837 
 3561000   0.67899894   -8.8735816    502.58871  0.011761413  0.010699996         3815 
 3562000   0.67530417   -8.9004158    502.58932  0.011758125   0.01069525         3832 
 3563000   0.68810344   -8.8905015    503.22465  0.011769685  0.010690507         3826 
 3564000    0.6862821   -8.8610192    503.28527    0.0117678  0.010685773         3889 
 3565000   0.67036546    -8.874363    503.43663  0.011768037  0.010681042         3867 
 3566000   0.67630021   -8.8714168    503.11624   0.01175725  0.010676312         3836 
 3567000   0.68170636   -8.8814491     503.1004  0.011753584  0.010671579         3875 
 3568000   0.68349511   -8.8726251    502.38366   0.01173355  0.010666852         3868 
 3569000   0.68549751   -8.8863026    503.17836  0.011748818  0.010662122         3874 
 3570000   0.67082327   -8.8943088    501.61448  0.011709021   0.01065739         3853 
 3571000   0.68422638   -8.8773991    503.36026  0.011746482  0.010652666         3842 
 3572000   0.67526737   -8.8866367    503.51528   0.01174681  0.010647941         3859 
 3573000   0.67248501    -8.872562    503.03023   0.01173221  0.010643223         3842 
 3574000   0.68442824   -8.9085159    502.77062  0.011722874  0.010638509         3881 
 3575000   0.68431844   -8.8845697    503.50891  0.011736805  0.010633795         3848 
 3576000   0.67554163   -8.8938276     502.6044  0.011712444  0.010629082         3841 
 3577000    0.6703879   -8.8803064    502.63737  0.011709938  0.010624372         3874 
 3578000   0.68361386   -8.8702054    503.32976  0.011722791  0.010619666         3884 
 3579000   0.68525071   -8.8806912     502.8428  0.011708177  0.010614966         3859 
 3580000   0.67582039   -8.8651902    502.93531   0.01170706  0.010610265         3866 
 3581000   0.68224391   -8.9200266    502.79547  0.011700537  0.010605571         3838 
 3582000   0.67744459   -8.9126176    502.32285  0.011686275  0.010600872         3863 
 3583000   0.67860793   -8.8977551    502.80823  0.011694302  0.010596178         3861 
 3584000    0.6739341   -8.8999265    502.21093  0.011677152  0.010591488         3860 
 3585000   0.66399633   -8.8796782    503.26096  0.011698302  0.010586794         3846 
 3586000   0.67449491   -8.8939711    503.07133  0.011690633  0.010582106         3860 
 3587000   0.68337394   -8.9037038    502.16928  0.011666418  0.010577415         3865 
 3588000   0.66555044   -8.8904329    502.25766  0.011665219  0.010572737         3895 
 3589000   0.67194337   -8.8840371    503.20241  0.011683905  0.010568056         3864 
 3590000   0.68582322   -8.8891872    503.19795  0.011680547   0.01056338         3868 
 3591000   0.67128295   -8.9017615     503.7504  0.011690114  0.010558707         3893 
 3592000   0.67633395   -8.8935991    503.10001  0.011671771   0.01055404         3860 
 3593000     0.673848   -8.8947909    502.53711  0.011655467  0.010549375         3872 
 3594000   0.68177202   -8.8720093    503.64324  0.011677871  0.010544712         3850 
 3595000   0.66059959   -8.8840727    502.29303  0.011643325  0.010540048         3854 
 3596000   0.68881492   -8.9089832    502.16702  0.011637167  0.010535389         3857 
 3597000   0.67456183   -8.9154768    502.05319  0.011631294  0.010530732         3889 
 3598000    0.6731173   -8.9001268    501.61946  0.011618016  0.010526078         3860 
 3599000   0.66071575   -8.8718727    503.15863  0.011650427  0.010521424         3860 
 3600000   0.66000278   -8.9142886    502.64478  0.011635296  0.010516776         3866 
 3601000   0.65638033   -8.8980017    502.61276  0.011631324  0.010512127         3858 
 3602000   0.67370212   -8.8861446    502.43032  0.011623874  0.010507486         3860 
 3603000   0.66844661    -8.901421    501.34904  0.011595639  0.010502844         3863 
 3604000   0.66763477    -8.897102    502.69702   0.01162359  0.010498211         3847 
 3605000   0.67496321    -8.880274    502.27378  0.011610582   0.01049358         3858 
 3606000   0.65851015   -8.9072279    501.89687  0.011598652  0.010488947         3866 
 3607000   0.68583285   -8.9161247    502.63552  0.011612502  0.010484316         3882 
 3608000   0.67483551   -8.8961425    502.19688  0.011599152  0.010479686         3863 
 3609000   0.67680248   -8.8823375    502.93978  0.011613092  0.010475063         3865 
 3610000   0.65831858   -8.9230307    501.90562  0.011586002   0.01047044         3873 
 3611000     0.685214   -8.9013202    502.12465  0.011587848  0.010465819         3867 
 3612000   0.66515645   -8.8780663    502.89176  0.011602339  0.010461203         3861 
 3613000    0.6777838   -8.8835607     502.2756  0.011584915   0.01045659         3854 
 3614000   0.67298763   -8.8837063    502.92557  0.011596697  0.010451981         3863 
 3615000   0.66684353   -8.8874061    502.00865  0.011572352  0.010447367         3879 
 3616000   0.66968501   -8.8938568    503.14384  0.011595313  0.010442763         3883 
 3617000   0.68263496   -8.8807901    504.44758  0.011622145  0.010438158         3844 
 3618000   0.67570547   -8.9057633    502.78063  0.011580538   0.01043356         3855 
 3619000   0.67175542   -8.8958356    503.32579  0.011589891  0.010428965         3870 
 3620000   0.67028287   -8.8928281    503.42719  0.011589024  0.010424367         3878 
 3621000   0.66511422   -8.8973147     503.2231  0.011581126  0.010419773         3862 
 3622000   0.66488453   -8.8974559    502.60015  0.011563596  0.010415183         3878 
 3623000   0.65794905   -8.8870897    502.81335  0.011565308  0.010410599         3870 
 3624000   0.67597747   -8.8827746    502.66673  0.011558746  0.010406012         3887 
 3625000   0.66726107   -8.8720876    502.10568  0.011542659   0.01040143         3883 
 3626000   0.66057742   -8.8812089    501.38252  0.011522856  0.010396849         3842 
 3627000   0.66442406   -8.9202159    502.46101  0.011544458  0.010392268         3859 
 3628000   0.66906422   -8.9185866    502.34067  0.011538512  0.010387693         3868 
 3629000    0.6719664   -8.9026935    502.35514  0.011535665  0.010383119         3857 
 3630000   0.67995015   -8.9188104    502.34675  0.011532295  0.010378548         3855 
 3631000   0.67216887    -8.897308    502.16918  0.011525043  0.010373982         3865 
 3632000   0.66893573   -8.9203408    503.52962  0.011553084  0.010369414         3858 
 3633000   0.66552204   -8.9084928    502.65287  0.011529793  0.010364855         3835 
 3634000   0.68209129   -8.8886389    502.73224  0.011528441  0.010360295         3845 
 3635000   0.67236622   -8.9075601    501.58133  0.011498884  0.010355738         3877 
 3636000   0.68216304    -8.905609    502.48594  0.011516454  0.010351181         3876 
 3637000   0.67663089   -8.8964396     502.2244  0.011507295  0.010346633         3874 
 3638000    0.6687533   -8.9061596     502.2305  0.011504272   0.01034208         3864 
 3639000   0.65440476   -8.8990504    503.12362  0.011521563  0.010337533         3868 
 3640000   0.66117423   -8.9342308    502.12471  0.011495529  0.010332993         3878 
 3641000    0.6583861    -8.905145    502.44076  0.011499605   0.01032845         3888 
 3642000   0.67859594    -8.888571     503.0424  0.011510214  0.010323912         3855 
 3643000    0.6855629   -8.9069745    503.04954  0.011507218  0.010319373         3885 
 3644000   0.68316371   -8.8957935    501.88306  0.011477384  0.010314836         3884 
 3645000    0.6556081   -8.9137587    502.38811  0.011485782  0.010310303         3857 
 3646000   0.65842299   -8.8753837    502.87834  0.011493837  0.010305773         3850 
 3647000   0.67301717   -8.9157389    502.75007  0.011487754  0.010301247         3885 
 3648000   0.66911565    -8.883218    502.29514  0.011474213   0.01029672         3822 
 3649000    0.6439254   -8.9026286    501.99621  0.011464242  0.010292197         3846 
 3650000   0.66405498   -8.9129743    501.74426  0.011455348   0.01028768         3882 
 3651000   0.67171267   -8.9157076     501.9662  0.011457276  0.010283168         3858 
 3652000   0.66067682   -8.9104835     503.1713  0.011481638  0.010278654         3871 
 3653000   0.67415687   -8.9280842    501.28852  0.011435544  0.010274144         3883 
 3654000   0.67482196   -8.9125178    502.40393  0.011457853  0.010269638         3888 
 3655000   0.67086039   -8.9122776     501.6192  0.011436826  0.010265132         3853 
 3656000   0.67080019   -8.8861624    503.38794  0.011474014   0.01026063         3854 
 3657000   0.66296476   -8.9175336    502.13993  0.011442438  0.010256132         3877 
 3658000   0.65326255   -8.9152188    502.45145  0.011446406  0.010251632         3843 
 3659000   0.68402491   -8.9062128    502.93047  0.011454188  0.010247136         3871 
 3660000   0.66759054    -8.910362    502.08471  0.011431801  0.010242643         3874 
 3661000   0.66105215   -8.9065674    502.73077  0.011443385  0.010238149         3838 
 3662000   0.66624773     -8.88823    502.81257  0.011442121  0.010233658         3878 
 3663000   0.65633031   -8.8999737    502.90942  0.011441201  0.010229174         3872 
 3664000   0.65846528   -8.8942302     502.6719  0.011432676  0.010224688         3858 
 3665000   0.67136163    -8.938637    502.86791  0.011434014  0.010220208         3847 
 3666000     0.664551    -8.925284     502.2681   0.01141726  0.010215731         3860 
 3667000   0.67109375   -8.8964483    502.74214  0.011424919  0.010211256         3861 
 3668000   0.64439148   -8.9273648    502.44216  0.011414989  0.010206782         3861 
 3669000   0.65971635   -8.9050971     502.6092  0.011415672  0.010202309         3869 
 3670000   0.65633361   -8.9048742    501.45846  0.011386432  0.010197845         3870 
 3671000   0.66300885   -8.8931666    502.60187  0.011409286  0.010193381         3867 
 3672000   0.66281003   -8.9358713    502.34556  0.011400362  0.010188919         3831 
 3673000   0.66443118   -8.8933896    501.79828  0.011384842  0.010184458         3861 
 3674000   0.67573219   -8.9306128    501.12313  0.011366429  0.010179995         3873 
 3675000   0.66265651   -8.9250884    502.03101  0.011383923  0.010175542         3838 
 3676000   0.65582719   -8.9015168    502.34171   0.01138787  0.010171091         3838 
 3677000   0.64727463    -8.920783    502.15234  0.011380481  0.010166638         3893 
 3678000   0.66741968   -8.9234272    502.47552  0.011384709  0.010162187         3883 
 3679000   0.67673835   -8.9148829    501.47256  0.011358896  0.010157735         3860 
 3680000   0.66116458   -8.9273195    502.45768  0.011378118  0.010153287         3836 
 3681000   0.66351452   -8.9224697    501.74635  0.011358923  0.010148847         3885 
 3682000   0.68274213   -8.8948952    502.82565  0.011380266  0.010144414         3833 
 3683000   0.65053781   -8.9152329    501.93526  0.011357029  0.010139983         3885 
 3684000   0.66204107   -8.9200028    501.28737  0.011339291   0.01013555         3874 
 3685000   0.66978525   -8.9035411    501.69446   0.01134542  0.010131118         3850 
 3686000    0.6673236   -8.9251858    502.55836  0.011361873  0.010126691         3886 
 3687000   0.65976179   -8.9293877    502.13163  0.011349146  0.010122258         3880 
 3688000   0.66501115   -8.9228089    501.95245   0.01134202  0.010117834         3853 
 3689000   0.68135396   -8.9069574    502.50236  0.011351368  0.010113416         3848 
 3690000   0.67474362   -8.9433034    502.34378   0.01134471  0.010109001         3870 
 3691000   0.65673396   -8.9263702    502.00096  0.011333897  0.010104586         3859 
 3692000   0.68099767   -8.9161395    501.07938  0.011310026  0.010100173         3837 
 3693000   0.65598546   -8.9051252    502.92176  0.011348537   0.01009576         3838 
 3694000   0.66158891   -8.9215784    501.59724  0.011315585  0.010091354         3858 
 3695000   0.65252269   -8.9122011    502.66242  0.011336545  0.010086952         3833 
 3696000    0.6718726   -8.9005494    502.49771  0.011329764  0.010082546         3869 
 3697000   0.66266119   -8.9229187    501.96561  0.011314706  0.010078145         3846 
 3698000   0.65773498   -8.9256956    502.27472  0.011318612  0.010073746         3865 
 3699000   0.65420915   -8.9080955    502.40031  0.011318381  0.010069346         3848 
 3700000   0.65980941   -8.9113069    502.59724  0.011319758  0.010064957         3850 
 3701000   0.65192761   -8.9173303     501.7884  0.011298487  0.010060567         3840 
 3702000   0.65375895   -8.9166549    501.56936  0.011290504  0.010056177         3866 
 3703000   0.65020691   -8.9174634    501.70659  0.011290544  0.010051793         3872 
 3704000   0.66526606   -8.9254168    502.22144  0.011299078  0.010047408         3869 
 3705000   0.63494759   -8.9098349    501.01102  0.011268804  0.010043027         3852 
 3706000   0.65245997   -8.9221128    502.23385   0.01129326  0.010038645         3877 
 3707000   0.64288855   -8.9202636    502.16387   0.01128864   0.01003427         3887 
 3708000   0.66194937   -8.9120469    502.24128  0.011287335  0.010029898         3846 
 3709000     0.655289   -8.9231339    501.75222  0.011273304  0.010025528         3830 
 3710000   0.65925444   -8.8947993    502.35753  0.011283862  0.010021161         3847 
 3711000   0.66336378   -8.8983751    502.29892  0.011279505  0.010016798         3884 
 3712000   0.65903367   -8.9156882    501.33658  0.011254862  0.010012434         3871 
 3713000   0.66129565   -8.9429632    501.78941  0.011261994  0.010008072         3855 
 3714000   0.65164976   -8.9179416    502.00133  0.011263717  0.010003709         3877 
 3715000   0.65621805   -8.9040225    502.71613  0.011276719 0.0099993464         3867 
 3716000   0.66140682   -8.9217477    501.96875  0.011256924 0.0099949899         3853 
 3717000   0.66177536   -8.9131799    502.36418  0.011262761 0.0099906419         3843 
 3718000    0.6736791   -8.9340286    501.68439  0.011244495 0.0099862921         3874 
 3719000     0.652092   -8.9309283    501.73028    0.0112425  0.009981943         3894 
 3720000   0.65591475   -8.9403106    501.88188  0.011242874  0.009977602         3855 
 3721000   0.65903943   -8.9220465    502.17465  0.011246409 0.0099732607         3877 
 3722000   0.65306987   -8.9278239    501.42929  0.011226699 0.0099689182         3852 
 3723000   0.63988973   -8.9280488    501.39953  0.011223017 0.0099645792         3890 
 3724000   0.65297498   -8.9217527    502.68693  0.011248812 0.0099602451         3875 
 3725000     0.660773   -8.9210225    502.04443  0.011231419 0.0099559066         3888 
 3726000   0.66160482   -8.9329737     501.4461  0.011215023 0.0099515772         3876 
 3727000   0.64812674   -8.9231789    502.10508  0.011226748 0.0099472543         3874 
 3728000   0.66591496   -8.9303061    502.12115  0.011224096 0.0099429284         3858 
 3729000   0.64864641   -8.9273415    503.18052   0.01124476 0.0099386013         3863 
 3730000   0.65902072   -8.9086248    502.50401  0.011226631 0.0099342819         3860 
 3731000   0.65998293   -8.9270418    501.32213  0.011197224 0.0099299668         3899 
 3732000   0.65812048   -8.9171831    503.21559  0.011236504 0.0099256507         3865 
 3733000   0.64346488   -8.9217494      501.571  0.011196781 0.0099213411         3880 
 3734000   0.65282092   -8.9231615    501.56833  0.011193723 0.0099170321         3865 
 3735000    0.6468797    -8.921132    500.88772   0.01117554 0.0099127285         3845 
 3736000   0.66069011   -8.9496426    500.93199  0.011173536 0.0099084222         3900 
 3737000   0.66445987     -8.91013    503.17167   0.01122049 0.0099041166         3847 
 3738000   0.65393758   -8.9133446    502.33532  0.011198843 0.0098998172         3849 
 3739000   0.65819339   -8.9312735    501.29395  0.011172639 0.0098955156         3878 
 3740000   0.64138736   -8.9334501    501.58368  0.011176107  0.009891222         3863 
 3741000   0.66428946   -8.9283341    502.09953   0.01118461 0.0098869256         3868 
 3742000   0.66891996   -8.9289594    500.57119  0.011147586 0.0098826333         3884 
 3743000   0.65303987   -8.9172249    502.04537  0.011177428  0.009878344         3857 
 3744000    0.6396754   -8.9111584    501.78635  0.011168678 0.0098740558         3868 
 3745000   0.65940251   -8.9385904    501.89418  0.011168095 0.0098697759         3893 
 3746000   0.64708075   -8.9336929    501.53253  0.011157068 0.0098654956         3874 
 3747000   0.64484029   -8.9496963    502.13757  0.011167547 0.0098612136         3879 
 3748000   0.64645661   -8.9136181    502.26919  0.011167494 0.0098569352         3845 
 3749000    0.6511235   -8.9305697    501.54773  0.011148478 0.0098526633         3874 
 3750000   0.65211214   -8.9277934    502.60213  0.011168936 0.0098483923         3868 
 3751000    0.6647331   -8.9071145    501.81994  0.011148581 0.0098441205         3872 
 3752000   0.65308087   -8.9300253    501.63064  0.011141405 0.0098398544         3858 
 3753000   0.65595601   -8.9294495    501.69255  0.011139812 0.0098355888         3889 
 3754000   0.64104916   -8.9208003    501.96725  0.011142942  0.009831324         3868 
 3755000   0.65062727   -8.8980111    502.51796  0.011152196 0.0098270624         3857 
 3756000   0.65200368   -8.9287816    501.10615  0.011117904 0.0098228055         3866 
 3757000   0.65570276   -8.9083567    502.27933  0.011140966 0.0098185534         3813 
 3758000   0.65319175   -8.9533298    501.29026  0.011116069 0.0098143039         3846 
 3759000   0.65342711   -8.9391617    500.56316  0.011096993 0.0098100528         3865 
 3760000   0.64608021   -8.9607636    500.24441  0.011086977 0.0098058033         3883 
 3761000   0.64886797   -8.9456117    501.44868  0.011110713 0.0098015578         3871 
 3762000   0.65222622   -8.9579921    499.53115  0.011065283 0.0097973133         3870 
 3763000   0.63684932   -8.9126144    501.03279  0.011095597  0.009793069         3858 
 3764000   0.64638191    -8.938734    501.83738  0.011110463  0.009788832         3869 
 3765000   0.65288789   -8.9441109    501.63229  0.011102972 0.0097845958         3843 
 3766000   0.65064015   -8.9577314    501.29124  0.011092478 0.0097803614         3858 
 3767000   0.67092526   -8.9309388    501.10523  0.011085418 0.0097761312         3857 
 3768000   0.64420444    -8.940421    501.03718  0.011080971  0.009771904         3859 
 3769000   0.63940723   -8.9684487    500.30317  0.011061802 0.0097676725         3881 
 3770000   0.63599333   -8.9377218    500.19175  0.011056405 0.0097634469         3891 
 3771000   0.64671512   -8.9419599     501.2466  0.011076783 0.0097592231         3859 
 3772000   0.64572787   -8.9168107    502.28343  0.011096753 0.0097549988         3860 
 3773000    0.6557024   -8.9375378    501.30748  0.011072256 0.0097507803         3867 
 3774000   0.64762768   -8.9404334    501.08978  0.011064515 0.0097465671         3874 
 3775000   0.64020681    -8.942284    501.71941  0.011075484 0.0097423568         3876 
 3776000   0.65280472   -8.9324682    501.26828  0.011062594 0.0097381445         3855 
 3777000   0.64878177    -8.933727    501.90463  0.011073705 0.0097339376         3868 
 3778000   0.64420705   -8.9471467    500.51715   0.01104017 0.0097297281         3888 
 3779000   0.64696276    -8.936042    501.88178  0.011067341  0.009725523         3863 
 3780000   0.64777988   -8.9439006    502.07682  0.011068713 0.0097213224         3868 
 3781000   0.65227598   -8.9300887    501.73072  0.011058157  0.009717122         3852 
 3782000   0.65423478   -8.9617226    502.63281   0.01107511 0.0097129333         3870 
 3783000    0.6520375   -8.9344327    501.75929   0.01105294 0.0097087422         3867 
 3784000   0.64948136   -8.9294087    500.76848    0.0110282 0.0097045485         3887 
 3785000   0.63865236   -8.9447443    500.91565  0.011028526 0.0097003578         3875 
 3786000   0.63478828   -8.9561236    501.48505  0.011038146 0.0096961688         3873 
 3787000   0.64456377   -8.9108727    502.11504  0.011049094 0.0096919828         3864 
 3788000   0.63570497   -8.9575298    501.10507  0.011023959 0.0096878025         3885 
 3789000   0.65484263   -8.9418238    501.74211   0.01103506 0.0096836197         3851 
 3790000   0.64503408   -8.9464628    501.10173  0.011018068 0.0096794408         3903 
 3791000    0.6569687   -8.9349558    500.44295   0.01100068 0.0096752644         3900 
 3792000   0.64403304   -8.9609089    501.68638  0.011025105 0.0096710917         3908 
 3793000   0.64204967   -8.9615719    500.72095  0.011000987   0.00966692         3857 
 3794000   0.65436189   -8.9404001    500.60054  0.010995443 0.0096627502         3865 
 3795000   0.64375422   -8.9231414    501.11143  0.011003764 0.0096585845         3855 
 3796000   0.63691452   -8.9520375    501.07875  0.011000148 0.0096544157         3887 
 3797000   0.65088182   -8.9407949    502.04457  0.011018448 0.0096502538         3870 
 3798000   0.65510742   -8.9383516    501.89162  0.011012191 0.0096460929         3885 
 3799000   0.65143469   -8.9524424    501.67574  0.011004557 0.0096419374         3876 
 3800000   0.64280039   -8.9470249    500.98208  0.010986449 0.0096377822         3863 
 3801000   0.65125328    -8.943613    501.17839  0.010987863 0.0096336317         3882 
 3802000   0.64293529   -8.9349226    501.22564  0.010986008 0.0096294828         3889 
 3803000   0.64324779   -8.9379568    501.94627   0.01099891  0.009625338         3873 
 3804000   0.63233642   -8.9665112     500.4888   0.01096409 0.0096211878         3899 
 3805000   0.65363804   -8.9458744    501.31004  0.010979195 0.0096170434         3881 
 3806000    0.6578762     -8.93629    500.82299  0.010965646 0.0096129015         3859 
 3807000   0.63377888   -8.9281413    501.56003  0.010978899 0.0096087631         3893 
 3808000   0.64710493   -8.9535523    501.01639  0.010964119 0.0096046296         3881 
 3809000   0.63730389   -8.9432246    502.04464  0.010983737 0.0096004924         3870 
 3810000   0.63177925   -8.9412207      501.526   0.01096951  0.009596362         3884 
 3811000     0.634492    -8.953836    501.02314  0.010955636 0.0095922328         3886 
 3812000   0.62349165   -8.9678969    500.64441  0.010944483 0.0095881039         3877 
 3813000   0.63850441   -8.9633732    501.03466  0.010950141 0.0095839788         3874 
 3814000   0.63528815   -8.9838204    500.41589   0.01093375 0.0095798524         3896 
 3815000   0.63263839   -8.9449278    501.29583  0.010950105 0.0095757321         3864 
 3816000     0.643541   -8.9446475    500.83144  0.010937095 0.0095716097         3872 
 3817000     0.633716   -8.9521476    501.08797   0.01093983 0.0095674903         3842 
 3818000   0.61977122   -8.9533577    501.16189  0.010938578 0.0095633768         3865 
 3819000   0.63585095    -8.956213    500.96052   0.01093132 0.0095592641         3879 
 3820000   0.64306244    -8.951868    499.87152  0.010904702  0.009555155         3858 
 3821000   0.63556352   -8.9543921    501.69842  0.010941691 0.0095510478         3861 
 3822000   0.63779975   -8.9343881    502.09411  0.010947456  0.009546948         3880 
 3823000    0.6335759   -8.9611549    501.28544  0.010926965 0.0095428462         3881 
 3824000   0.63774118   -8.9738143    501.33306  0.010925145  0.009538747         3863 
 3825000   0.63103772   -8.9436493    501.87949  0.010934194 0.0095346513         3885 
 3826000   0.64051243   -8.9438236    501.19105  0.010916341 0.0095305572         3853 
 3827000   0.65379035   -8.9407081    501.20225  0.010913733 0.0095264662         3871 
 3828000   0.63795324    -8.941471    500.24309  0.010890001 0.0095223727         3880 
 3829000   0.62988552   -8.9503649    500.65922  0.010896214 0.0095182823         3889 
 3830000   0.62882576   -8.9225299    501.96323  0.010921741 0.0095141985         3844 
 3831000   0.62867303   -8.9406428    500.76178  0.010892756 0.0095101113         3875 
 3832000   0.64393239    -8.965805    501.23742  0.010900257   0.00950603         3892 
 3833000   0.63300676   -8.9532579    500.97405  0.010891687 0.0095019535         3879 
 3834000    0.6355307   -8.9588594    501.49007  0.010900062 0.0094978799         3833 
 3835000   0.63894418   -8.9716268    501.00689  0.010886721 0.0094938051         3875 
 3836000   0.62618235   -8.9520561    501.27244  0.010889652 0.0094897285         3870 
 3837000   0.63615353    -8.959031    501.10526  0.010883183 0.0094856614         3847 
 3838000    0.6383606   -8.9422432    501.61498  0.010891414 0.0094815926         3854 
 3839000   0.64580785   -8.9493182    500.94276  0.010873985 0.0094775249         3854 
 3840000   0.63925444   -8.9361726    501.84367  0.010890705 0.0094734616         3854 
 3841000   0.61975461   -8.9306226    502.07751  0.010892943 0.0094694018         3880 
 3842000   0.63800483   -8.9547281    500.51537  0.010856224  0.009465343         3878 
 3843000   0.63077571   -8.9590671    501.57887  0.010876461 0.0094612832         3875 
 3844000   0.63555809   -8.9431091    501.49612  0.010871837 0.0094572264         3895 
 3845000   0.64733855   -8.9680788    500.96344  0.010857465 0.0094531772         3862 
 3846000   0.63963216   -8.9671012    501.42784  0.010864705 0.0094491266         3850 
 3847000   0.62888409   -8.9691364    500.51054   0.01084201  0.009445078         3860 
 3848000   0.64241495    -8.959955    500.36298  0.010835997 0.0094410369         3888 
 3849000   0.63117936   -8.9525256    501.75211  0.010863257 0.0094369945         3848 
 3850000   0.63227848   -8.9374096    501.63376  0.010857874 0.0094329603         3843 
 3851000   0.63255966   -8.9707649     500.4374  0.010829166 0.0094289258         3863 
 3852000   0.63417889   -8.9495353    501.40468   0.01084728 0.0094248909         3877 
 3853000   0.64840203   -8.9507197    500.35691  0.010821803 0.0094208593         3859 
 3854000   0.62869722   -8.9534639     502.0453  0.010855503 0.0094168306         3893 
 3855000   0.64651787   -8.9373014    501.82538  0.010847933 0.0094128033         3866 
 3856000   0.63407816   -8.9760858    500.79496  0.010822851  0.009408778         3848 
 3857000   0.63489581   -8.9594999    501.34092  0.010831841 0.0094047561         3883 
 3858000    0.6219645   -8.9598257    501.80108  0.010838973 0.0094007354         3867 
 3859000   0.64440047   -8.9505988    501.35194  0.010826465 0.0093967175         3882 
 3860000   0.64723985   -8.9349295    499.82405  0.010790675 0.0093927027         3857 
 3861000   0.62902424   -8.9524061    500.25817   0.01079725 0.0093886887         3893 
 3862000   0.62940776    -8.917494    501.46497  0.010820494   0.00938468         3870 
 3863000   0.63108178    -8.957829    501.12751  0.010810413 0.0093806681         3884 
 3864000    0.6289828   -8.9609976    501.03757  0.010805676 0.0093766644         3845 
 3865000   0.61638768   -8.9356083    500.63144  0.010794123 0.0093726606         3877 
 3866000   0.62907282   -8.9474146    501.36851  0.010807219 0.0093686548         3864 
 3867000   0.63725028   -8.9587364    501.65352  0.010810566 0.0093646499         3862 
 3868000   0.64905058   -8.9743926    501.61913  0.010807031 0.0093606495         3876 
 3869000   0.61965701   -8.9590736    501.41249  0.010799787 0.0093566504         3886 
 3870000   0.62394088   -8.9695856    501.13542   0.01079103 0.0093526538         3890 
 3871000   0.61729127   -8.9667996    500.96176  0.010784504 0.0093486619         3890 
 3872000   0.63866086   -8.9611684    500.80643  0.010778375 0.0093446692         3906 
 3873000   0.63776728   -8.9884779    500.42344  0.010767352 0.0093406796         3889 
 3874000   0.62928777   -8.9683702    501.44881  0.010786629 0.0093366924         3894 
 3875000   0.62730322   -8.9598696    500.41251  0.010761559 0.0093327053         3870 
 3876000   0.63210395   -8.9452903    501.23366  0.010776438 0.0093287241         3858 
 3877000   0.62925689   -8.9600664     500.7487  0.010763234 0.0093247448         3897 
 3878000   0.63696745   -8.9921713    500.44203  0.010753869 0.0093207673         3895 
 3879000   0.64980224   -8.9665767    501.72953  0.010778756 0.0093167931         3856 
 3880000   0.61281567   -8.9479257    501.49633  0.010770969 0.0093128215         3879 
 3881000   0.62622318   -8.9695941    501.06565  0.010758946  0.009308849         3881 
 3882000   0.63797373   -8.9611188    500.79812  0.010750432 0.0093048774         3893 
 3883000   0.62506958    -8.966657    500.72441  0.010746081 0.0093009118         3872 
 3884000   0.62490576   -8.9451215    500.76474   0.01074418 0.0092969466         3872 
 3885000   0.63348014   -8.9605073    500.89207  0.010744146 0.0092929873         3904 
 3886000   0.64227828   -8.9515384    501.25458  0.010749155 0.0092890255         3857 
 3887000   0.62827185   -8.9567792    500.59229   0.01073219 0.0092850679         3883 
 3888000   0.63031889   -8.9949885    500.15817  0.010720125 0.0092811127         3860 
 3889000   0.62066655    -8.944607    500.51306  0.010724974  0.009277158         3855 
 3890000   0.63216947   -8.9739014    500.79046  0.010728159 0.0092732068         3890 
 3891000   0.62685818   -8.9688203    501.08203  0.010731646 0.0092692624         3873 
 3892000   0.64162758    -8.953284    500.67011  0.010720069 0.0092653185         3852 
 3893000   0.63186204   -8.9934512      499.791  0.010698497 0.0092613728         3868 
 3894000   0.63336031   -8.9688614    500.64002  0.010713919 0.0092574285         3861 
 3895000   0.62787993   -8.9664045     499.6607  0.010690216 0.0092534903         3887 
 3896000   0.62622211   -8.9693571     500.1532  0.010698007 0.0092495511         3885 
 3897000   0.64110209    -8.974173    499.84036  0.010688571 0.0092456125         3871 
 3898000   0.63397192   -8.9821919     500.5742  0.010701518 0.0092416819         3856 
 3899000   0.63077987   -8.9632755    500.65638   0.01070053 0.0092377534         3886 
 3900000   0.62938809   -8.9745556    499.96758  0.010683068 0.0092338249         3875 
 3901000   0.64390307   -8.9744619    500.68866  0.010695733 0.0092299008         3875 
 3902000   0.63741188   -8.9386564    500.14094  0.010681295  0.009225976         3879 
 3903000   0.64774849   -8.9419477    501.62684  0.010710284 0.0092220599         3847 
 3904000   0.62928032   -8.9833105    501.03965  0.010695006 0.0092181435         3892 
 3905000   0.62199886   -8.9756235    501.23375   0.01069641 0.0092142273         3873 
 3906000   0.61455203   -8.9619452    500.73179  0.010682962 0.0092103152         3891 
 3907000   0.61989248   -8.9778555    500.71517  0.010679873 0.0092063998         3872 
 3908000   0.62496543   -8.9548114    500.83377  0.010679669  0.009202491         3873 
 3909000   0.63590114   -8.9704551    500.91681  0.010678707 0.0091985809         3899 
 3910000   0.63025752   -8.9701542    500.10681  0.010658713 0.0091946756         3895 
 3911000   0.62524558    -8.953588    501.34994  0.010682475  0.009190773         3886 
 3912000    0.6337274   -8.9931324    500.24244  0.010656153 0.0091868685         3884 
 3913000   0.63787961   -8.9665257    500.24485  0.010653481 0.0091829669         3853 
 3914000   0.63349865   -8.9622728    501.38743  0.010675086 0.0091790686         3876 
 3915000   0.63694209   -8.9770709    500.68137   0.01065733 0.0091751728         3883 
 3916000   0.62713765   -8.9664506    501.11857  0.010663912  0.009171283         3851 
 3917000   0.63955913   -8.9655159    501.25094  0.010664006 0.0091673933         3894 
 3918000   0.62251729   -8.9639619    500.99359   0.01065581 0.0091635018         3864 
 3919000   0.62770162   -8.9695231    499.99398  0.010631836 0.0091596152         3875 
 3920000    0.6157923   -8.9933868     500.9045   0.01064848 0.0091557318         3894 
 3921000   0.61890926   -8.9693585    500.54227  0.010638066 0.0091518475         3871 
 3922000   0.63658258   -8.9773149    500.91407  0.010643253 0.0091479674         3888 
 3923000   0.64116762   -8.9623357    500.62937  0.010634492  0.009144092         3878 
 3924000    0.6346823   -8.9647367    499.33117  0.010604213 0.0091402165         3873 
 3925000   0.62361043   -8.9862531    500.20326  0.010620027 0.0091363407         3874 
 3926000   0.62536214   -8.9893503    500.80541  0.010630103 0.0091324695         3898 
 3927000   0.62185436   -8.9818084    500.07447  0.010611885    0.0091286         3901 
 3928000    0.6175404   -8.9943277    500.24906  0.010612887  0.009124731         3889 
 3929000   0.63660296   -8.9842479    501.44356  0.010635521 0.0091208674         3865 
 3930000   0.61978826   -8.9618073    500.02573  0.010602751 0.0091170025         3905 
 3931000   0.63293331   -8.9559379    500.29732  0.010605811 0.0091131429         3852 
 3932000   0.62849231   -8.9815276    500.63318  0.010610232 0.0091092839         3870 
 3933000   0.62452439   -8.9554042    501.83039  0.010632901 0.0091054261         3878 
 3934000   0.60895532   -8.9680324     501.1744  0.010616302 0.0091015726         3879 
 3935000   0.61104991   -8.9894012    500.80615  0.010605806 0.0090977196         3884 
 3936000   0.62728392   -8.9875335    499.98609  0.010585749 0.0090938696         3891 
 3937000   0.62031048   -8.9647049    500.89203  0.010602236 0.0090900206         3892 
 3938000   0.62198217   -8.9685337     501.5451  0.010613363 0.0090861743         3853 
 3939000   0.61371068   -8.9879797    500.95688  0.010598225  0.009082326         3874 
 3940000   0.62315716   -8.9904144    500.67022  0.010589472 0.0090784813         3873 
 3941000   0.62315323   -8.9910194    500.03011  0.010573249 0.0090746406         3899 
 3942000   0.60866197   -8.9834899    499.59566  0.010561383  0.009070803         3873 
 3943000   0.60884432   -8.9772573    500.43698  0.010576485 0.0090669646         3859 
 3944000    0.6130049   -8.9579207    500.99132  0.010585516 0.0090631299         3880 
 3945000   0.62364668   -8.9887132    501.33095  0.010590007 0.0090592983         3896 
 3946000    0.6193929   -8.9638448    500.52183  0.010570236 0.0090554673         3856 
 3947000   0.61373742    -8.996758    500.49838  0.010567063 0.0090516419         3887 
 3948000   0.63622149   -8.9705558    500.37764  0.010561838 0.0090478145         3888 
 3949000   0.62744118   -8.9953459    500.39886  0.010559611 0.0090439908         3886 
 3950000   0.61933321   -8.9853202    500.26967  0.010554213 0.0090401698         3895 
 3951000   0.61101464   -8.9719994    500.37162  0.010553691 0.0090363478         3868 
 3952000   0.62787157   -8.9722629    500.13525  0.010546037 0.0090325288         3910 
 3953000   0.62796668   -8.9613462    499.91507  0.010538727 0.0090287172         3895 
 3954000   0.62571058   -8.9914869    500.39232   0.01054612 0.0090249044         3879 
 3955000   0.63221981   -9.0000612     500.2485  0.010540424 0.0090210938         3867 
 3956000   0.61952553   -8.9894107    501.08239  0.010555325  0.009017286         3843 
 3957000   0.60364774    -8.982981    501.13941  0.010553858 0.0090134805         3873 
 3958000   0.61340509   -8.9926146    500.59285  0.010539684 0.0090096787         3848 
 3959000   0.61688887   -8.9870535    500.74047   0.01054013 0.0090058748         3887 
 3960000   0.60935222   -8.9736713    501.10908  0.010545225 0.0090020746         3886 
 3961000    0.6143024    -8.978172    500.78232  0.010535688 0.0089982722         3878 
 3962000   0.61182521   -8.9896042    500.73546  0.010532043 0.0089944746         3891 
 3963000   0.61037434   -8.9912668    499.93902  0.010512638 0.0089906787         3887 
 3964000   0.62132996   -8.9808668    500.18013  0.010515055 0.0089868846         3879 
 3965000   0.61209951   -8.9822401    499.88024    0.0105061 0.0089830934         3884 
 3966000   0.62428788   -8.9932903    499.36557  0.010492637 0.0089793046         3888 
 3967000   0.60082601   -8.9780033    499.87158  0.010500621 0.0089755179         3885 
 3968000   0.60234977   -8.9810238     500.0003  0.010500678 0.0089717337         3857 
 3969000   0.62636307   -9.0145536    499.70758  0.010491887 0.0089679504         3885 
 3970000   0.61044019   -8.9811319     499.5947  0.010486875 0.0089641719         3865 
 3971000   0.61663519   -8.9850752    499.65081  0.010485411 0.0089603936         3873 
 3972000   0.61818374    -8.999698    499.52327  0.010480096 0.0089566164         3878 
 3973000   0.61298409   -8.9995857      500.291  0.010493561 0.0089528421         3877 
 3974000   0.59463485   -9.0016518    499.97271  0.010484246 0.0089490689         3878 
 3975000   0.62835636   -8.9920347    500.61491  0.010495071 0.0089452994         3890 
 3976000   0.63147478   -8.9741314    499.34976  0.010465915 0.0089415322         3866 
 3977000   0.61835949   -8.9839322    500.13415   0.01047972   0.00893777         3895 
 3978000   0.61949671   -8.9860484     499.4708  0.010463189 0.0089340099         3869 
 3979000    0.6147533   -8.9954579    499.25372  0.010456013 0.0089302478         3890 
 3980000   0.62067987   -8.9989287    499.75966   0.01046398 0.0089264892         3872 
 3981000   0.61560894   -8.9935725    500.71797  0.010481411 0.0089227345         3871 
 3982000   0.61959543   -8.9822144    500.18154  0.010467553 0.0089189798         3883 
 3983000   0.62100667   -8.9797918    500.28932   0.01046718  0.008915229         3898 
 3984000   0.62560856   -8.9652468    500.09045  0.010460393 0.0089114781         3869 
 3985000   0.61936541   -8.9928735    500.10583  0.010458089 0.0089077305         3883 
 3986000   0.61343507   -8.9741327    499.48114  0.010442406 0.0089039862         3892 
 3987000   0.61143255     -8.99075    500.03663  0.010451397 0.0089002438         3883 
 3988000   0.60658967   -8.9758762    499.86874  0.010445268 0.0088965012         3890 
 3989000   0.62289259   -8.9933406    500.37379    0.0104532  0.008892762         3870 
 3990000   0.60487796   -9.0085683    500.28955  0.010448821 0.0088890255         3858 
 3991000    0.6039853   -8.9892403    500.45749  0.010449709 0.0088852912         3882 
 3992000   0.61395654   -8.9944228    499.92278   0.01043593 0.0088815606         3893 
 3993000   0.60904031   -8.9868378     501.1452  0.010458828  0.008877827         3876 
 3994000   0.61524949   -8.9869885     499.4754   0.01042137 0.0088740983         3875 
 3995000    0.6123435   -8.9818726    499.66068  0.010422626 0.0088703653         3868 
 3996000   0.59936203    -9.000122    500.19774  0.010431218 0.0088666435         3897 
 3997000   0.60870556   -8.9836887    500.62313  0.010437477 0.0088629204         3875 
 3998000   0.60894234   -8.9893183    500.82028  0.010438975 0.0088592008         3887 
 3999000   0.60698382   -9.0003289    500.22625  0.010423986 0.0088554797         3889 
 4000000   0.60315118   -8.9904111    500.35879  0.010424141 0.0088517649         3863 
 4001000    0.6240253    -9.003464    499.52596   0.01040419 0.0088480507         3878 
 4002000   0.61238886   -8.9850569    500.03496  0.010412189 0.0088443345         3877 
 4003000   0.60785067    -9.001238    500.56309  0.010420582 0.0088406227         3888 
 4004000    0.6264705   -9.0011651    500.77886   0.01042247 0.0088369147         3880 
 4005000   0.60965113   -8.9879575    500.31583  0.010410234 0.0088332076         3902 
 4006000   0.61282554   -8.9811595    499.71786  0.010395196  0.008829502         3895 
 4007000   0.62166466   -8.9973521    500.29402  0.010404584 0.0088258022         3897 
 4008000   0.60431295   -9.0014413    500.78546  0.010412206 0.0088220996         3873 
 4009000   0.62094574    -8.990021    499.68241   0.01038668 0.0088183989         3890 
 4010000   0.59914856   -8.9928859    500.40467    0.0103991  0.008814705         3871 
 4011000   0.61121303   -8.9888703    499.39907  0.010375614 0.0088110058         3897 
 4012000   0.61397248   -8.9897307    499.64512  0.010378139 0.0088073173         3865 
 4013000   0.62570544   -9.0084994    500.41145  0.010391466 0.0088036277         3888 
 4014000   0.61588946   -9.0118696     499.9474  0.010379244 0.0087999397         3876 
 4015000   0.61696997   -9.0157777    500.31268   0.01038424 0.0087962571         3895 
 4016000   0.59932856   -8.9902609    499.96212   0.01037438 0.0087925765         3879 
 4017000    0.6144116   -9.0003682    500.28254  0.010378445 0.0087888921         3881 
 4018000   0.61766199   -8.9826546    499.91021  0.010368139 0.0087852128         3893 
 4019000   0.62038735   -9.0074995    498.93979  0.010345438 0.0087815338         3884 
 4020000    0.5986381   -9.0038963    499.91528  0.010363086  0.008777858         3874 
 4021000    0.5921213   -8.9977615    499.91171  0.010360435 0.0087741831         3873 
 4022000   0.61007726   -8.9895907    500.01754  0.010360052 0.0087705091         3880 
 4023000   0.61494952   -8.9930453    500.32233   0.01036379 0.0087668397         3902 
 4024000   0.61233925   -9.0021138    499.93329  0.010353158 0.0087631697         3871 
 4025000   0.60651949   -8.9881174    499.64316  0.010344579 0.0087595053         3885 
 4026000   0.61282874    -9.002789    499.51733  0.010339405  0.008755842         3885 
 4027000   0.61820706   -8.9932378    499.33041  0.010332969 0.0087521797         3900 
 4028000   0.59874946   -8.9980578    499.46255  0.010333138 0.0087485203         3900 
 4029000   0.60914811   -8.9967965    500.35159  0.010348961 0.0087448631         3899 
 4030000   0.60496551   -9.0343752    498.89155  0.010316203  0.008741202         3908 
 4031000    0.6046656    -8.998547     500.8939  0.010355038 0.0087375468         3876 
 4032000   0.60447897   -9.0008337    499.49444  0.010323546 0.0087338919         3902 
 4033000   0.60628978   -8.9796202    500.28489  0.010337319 0.0087302432         3874 
 4034000   0.61145987    -8.999953    499.04779  0.010309201 0.0087265947         3839 
 4035000   0.61868105   -8.9998632    499.96408   0.01032557 0.0087229484         3875 
 4036000   0.60684285   -9.0106533    500.15784  0.010327012 0.0087193057         3865 
 4037000   0.60984843   -8.9953421    501.23782  0.010346747 0.0087156621         3845 
 4038000   0.60848927   -8.9996842     499.7869  0.010314242 0.0087120225         3883 
 4039000   0.60852222   -9.0054139    499.65852  0.010309039 0.0087083847         3882 
 4040000   0.58805927   -8.9967443    500.11412  0.010315885 0.0087047519         3860 
 4041000   0.61069369   -9.0087058    499.72491  0.010305306 0.0087011193         3858 
 4042000    0.6193134   -8.9952196    500.42625  0.010317216 0.0086974886         3906 
 4043000    0.6000042   -9.0127717    499.58328  0.010297289 0.0086938591         3887 
 4044000    0.5978234   -9.0022353    500.78502  0.010319507 0.0086902303         3867 
 4045000   0.59046326     -9.02017    499.62102  0.010292975 0.0086866008         3870 
 4046000   0.59274204   -9.0050342    500.33674  0.010305173 0.0086829742         3875 
 4047000   0.61862496     -9.00613    499.60398  0.010287538 0.0086793538         3884 
 4048000   0.60555488   -8.9943496    498.62644  0.010264872 0.0086757322         3853 
 4049000   0.61907163   -9.0148193    499.96496  0.010289885 0.0086721139         3869 
 4050000   0.59528465   -9.0116196    499.63699  0.010280597 0.0086684985         3879 
 4051000   0.60285533   -9.0078451    499.30475  0.010271224 0.0086648835         3869 
 4052000   0.60199557   -8.9974181    498.59872  0.010254169 0.0086612729         3892 
 4053000   0.61172779   -8.9909596    499.71838   0.01027466 0.0086576637         3863 
 4054000   0.59946362   -9.0046532     499.5841  0.010269366 0.0086540543         3867 
 4055000   0.59556413   -8.9858278     499.9228  0.010273794 0.0086504497         3873 
 4056000   0.59505209    -9.012137    499.76495  0.010268018 0.0086468462         3871 
 4057000   0.61068468   -9.0156435    498.77971  0.010245249 0.0086432451         3871 
 4058000   0.60729268   -9.0210813    500.18179  0.010271517 0.0086396433         3903 
 4059000   0.59156683   -9.0375117    500.05437   0.01026637 0.0086360455         3902 
 4060000   0.60099072   -9.0062629    500.09822  0.010264742  0.008632451         3886 
 4061000   0.60071654   -8.9984669    499.99127   0.01026002 0.0086288571         3875 
 4062000   0.61074659    -9.023383    499.68432  0.010251197 0.0086252604         3892 
 4063000   0.59776051    -9.009786    500.13393  0.010257895 0.0086216725         3878 
 4064000     0.604527   -9.0114187    499.78556  0.010248227 0.0086180817         3884 
 4065000   0.60107684    -9.011613    499.97996  0.010249692 0.0086144957         3863 
 4066000   0.60404949   -9.0242781    499.36335  0.010234533 0.0086109113         3880 
 4067000   0.59817512   -9.0111758    499.56331  0.010236114 0.0086073271         3893 
 4068000   0.60942221    -9.023707    499.52531  0.010232819 0.0086037491         3902 
 4069000   0.59830245   -9.0206779    499.86999  0.010237364 0.0086001703         3888 
 4070000   0.59572886   -9.0129666    499.55209  0.010228339 0.0085965962         3879 
 4071000   0.59492289   -9.0045462    499.02921  0.010215124 0.0085930253         3873 
 4072000   0.59524957   -8.9942702    499.62634  0.010224835  0.008589453         3864 
 4073000   0.59731138   -9.0104825    499.95414  0.010229031 0.0085858822         3888 
 4074000   0.59078147   -9.0056751    500.04785  0.010228437 0.0085823139         3887 
 4075000   0.59866532   -9.0224115    499.76228  0.010220088 0.0085787484         3916 
 4076000   0.59396443   -9.0170374    498.73633  0.010196605 0.0085751839         3856 
 4077000   0.58916114   -8.9807281    499.16785  0.010202924 0.0085716232         3878 
 4078000   0.59611937    -9.006719    499.13813  0.010199815 0.0085680635         3892 
 4079000   0.59551857   -9.0192596    499.65434   0.01020786 0.0085645056         3875 
 4080000    0.6072857   -8.9775269    499.26835  0.010197474 0.0085609498         3899 
 4081000   0.60978977   -9.0195065    499.37253  0.010197103 0.0085573977         3878 
 4082000    0.5998191   -9.0296607    499.36119  0.010194373 0.0085538432         3891 
 4083000   0.60037846   -9.0031107    499.21547  0.010188903 0.0085502905         3884 
 4084000   0.59832638   -9.0131567    499.53265   0.01019288 0.0085467398         3869 
 4085000   0.60501769   -9.0099275    499.48672  0.010189448  0.008543193         3889 
 4086000   0.59322315    -9.017967    499.50659  0.010187359 0.0085396481         3895 
 4087000   0.59630508   -9.0105289     498.9131  0.010172765 0.0085361051         3896 
 4088000    0.5989787   -9.0010317    499.42774  0.010180768 0.0085325656         3886 
 4089000   0.61887757    -9.014575    499.95447  0.010189013 0.0085290253         3894 
 4090000   0.60620798   -9.0008055     500.5558  0.010198773 0.0085254891         3857 
 4091000   0.58070656   -9.0271265    498.87086  0.010161958 0.0085219529         3879 
 4092000   0.60611096   -9.0367978    500.11528  0.010184817 0.0085184217         3899 
 4093000   0.59994182   -9.0352126    499.42358  0.010168246 0.0085148913         3882 
 4094000   0.60179061   -9.0099369    499.56674  0.010168676 0.0085113633         3890 
 4095000   0.59366851   -9.0277496    499.71197  0.010169149 0.0085078359         3885 
 4096000   0.59841593   -9.0154598    499.25865  0.010157443 0.0085043076         3881 
 4097000   0.59868857    -9.012253    499.40042  0.010157848 0.0085007839         3878 
 4098000    0.5989097   -9.0050784    499.44037  0.010156181 0.0084972626         3864 
 4099000   0.59656252     -9.04791    499.18029  0.010148416 0.0084937448         3904 
 4100000   0.58504902   -9.0253415    499.61363  0.010154749 0.0084902251         3861 
 4101000   0.59688954   -9.0223982    499.01416  0.010140091 0.0084867082         3865 
 4102000   0.58860069   -9.0229581    499.67026  0.010150948 0.0084831935         3892 
 4103000   0.58736279   -9.0103686    499.51338  0.010145288 0.0084796819         3915 
 4104000   0.60648622   -9.0133014    499.83432  0.010149332 0.0084761733         3895 
 4105000   0.58747831    -9.020522    499.21209  0.010134228 0.0084726646         3878 
 4106000   0.59506451   -9.0149041     500.7992  0.010163971 0.0084691607         3890 
 4107000   0.60306464   -9.0367732    499.82187  0.010141666 0.0084656557         3901 
 4108000   0.59436829   -9.0072366    499.64662  0.010135642  0.008462156         3869 
 4109000    0.6005268   -9.0092906    499.61658  0.010132566 0.0084586552         3857 
 4110000   0.59272865   -9.0306033    498.99526  0.010117503  0.008455158         3899 
 4111000   0.59525715   -9.0222009    499.87743  0.010132924 0.0084516602         3900 
 4112000   0.58600498   -9.0493758    499.41599  0.010121109 0.0084481642         3874 
 4113000   0.60366894   -9.0131163    499.20259  0.010114324 0.0084446684         3874 
 4114000   0.58448956   -9.0185267    499.48021  0.010117489 0.0084411766         3880 
 4115000   0.60166123    -9.043791     499.3792  0.010112985 0.0084376886         3904 
 4116000   0.58547193   -9.0121794    499.57739  0.010114541 0.0084342006         3882 
 4117000   0.60840415   -9.0459502    498.52493  0.010090781 0.0084307154         3891 
 4118000   0.59143326   -9.0134938     499.7629  0.010113382 0.0084272324         3883 
 4119000   0.58784416   -9.0297235    498.89075  0.010093282 0.0084237511         3886 
 4120000   0.58082228   -9.0180909    499.87434  0.010110727  0.008420272         3866 
 4121000   0.59371576   -9.0379697    499.21474  0.010094935 0.0084167937         3872 
 4122000   0.60399375   -9.0209604    499.43975  0.010097035 0.0084133198         3874 
 4123000   0.60009271   -9.0361121    499.30997  0.010091963 0.0084098462         3869 
 4124000   0.59580086   -9.0298357    498.83759  0.010079971  0.008406377         3886 
 4125000   0.59565721   -9.0241731     499.3516  0.010087911 0.0084029064         3889 
 4126000   0.59404429   -9.0089548    499.92917  0.010097131 0.0083994391         3854 
 4127000   0.58629531   -9.0278422    499.84071  0.010092899 0.0083959756         3912 
 4128000   0.57327568   -9.0154865    499.25212  0.010078571 0.0083925111         3850 
 4129000   0.58957376   -9.0295159     499.2752  0.010076596 0.0083890526         3878 
 4130000   0.59558259   -9.0305863    499.49273  0.010078546 0.0083855934         3894 
 4131000   0.59021781    -9.022175    499.30112  0.010072241 0.0083821323         3895 
 4132000   0.59167057   -9.0005686    499.87613    0.0100814 0.0083786778         3875 
 4133000    0.5990464   -9.0229408    499.85852  0.010078606 0.0083752237         3870 
 4134000   0.60294231     -9.03016     499.6722  0.010072412 0.0083717722         3877 
 4135000   0.58908201   -9.0434933    499.76594  0.010071865  0.008368321         3885 
 4136000    0.5893674   -9.0423926    498.92528  0.010052492 0.0083648701         3889 
 4137000   0.59280531   -9.0336533    498.32307  0.010037931 0.0083614235         3889 
 4138000   0.58748704    -9.035442    498.82616  0.010045637   0.00835798         3871 
 4139000   0.59169205    -9.019999    498.56574  0.010037967 0.0083545336         3893 
 4140000   0.58912115   -9.0286614    499.43534  0.010053046 0.0083510922         3894 
 4141000   0.57467058   -9.0379051    499.10396   0.01004395 0.0083476501         3891 
 4142000   0.58573501    -9.051943    499.78029  0.010055132 0.0083442094         3888 
 4143000   0.59093723   -9.0338879    499.14392  0.010039905 0.0083407751         3895 
 4144000   0.58507872   -9.0129253    499.57789  0.010046209 0.0083373431         3902 
 4145000   0.58327736   -9.0320313     498.3411   0.01001892 0.0083339098         3881 
 4146000   0.57600513   -9.0335967    498.18575  0.010013381 0.0083304779         3900 
 4147000   0.59341058    -9.023057    499.15526  0.010030449 0.0083270478         3877 
 4148000   0.57995884   -9.0329813     499.0278   0.01002547 0.0083236218         3889 
 4149000    0.5840456   -9.0330088    498.90952  0.010020678  0.008320197         3877 
 4150000   0.57801512   -9.0422325    498.70125  0.010014081 0.0083167729         3889 
 4151000   0.57985573   -9.0271213    499.03751  0.010018419  0.008313351         3901 
 4152000   0.58473399   -9.0240827    498.45231  0.010004261 0.0083099333         3871 
 4153000   0.58489533   -9.0240907    498.57944  0.010004403  0.008306518         3891 
 4154000   0.59728115   -9.0233583    498.51084  0.010000619 0.0083031009         3887 
 4155000   0.58549651   -9.0371702    499.10424  0.010010113 0.0082996873         3880 
 4156000   0.58763509   -9.0326329    498.69209 0.0099994404 0.0082962734         3891 
 4157000   0.58183331   -9.0252383    499.08393   0.01000489 0.0082928629         3896 
 4158000   0.59444969    -9.020915    499.41056   0.01000903 0.0082894538         3894 
 4159000   0.59208508   -9.0164883    499.53701  0.010009157 0.0082860495         3885 
 4160000   0.59241467   -9.0424894    498.89589 0.0099939081 0.0082826455         3889 
 4161000   0.59610883    -9.051693    499.14231 0.0099964413 0.0082792425         3880 
 4162000   0.57451052   -9.0261985    499.29194 0.0099970355 0.0082758463         3889 
 4163000   0.58109597    -9.023663    498.84261 0.0099856396 0.0082724464         3903 
 4164000   0.58057231   -9.0362737    498.53312 0.0099770478  0.008269048         3870 
 4165000   0.59324038   -9.0303365    499.04781 0.0099849502 0.0082656532         3892 
 4166000   0.58511324   -9.0323821     498.8939 0.0099794748 0.0082622653         3869 
 4167000   0.59067117   -9.0357929    499.11533 0.0099815081 0.0082588731         3870 
 4168000   0.58276732   -9.0251159    498.65652   0.00996994 0.0082554831         3903 
 4169000   0.57299236   -9.0335734    498.78748 0.0099701664  0.008252098         3861 
 4170000   0.58431989   -9.0346724    500.20224  0.009996048 0.0082487109         3890 
 4171000    0.5700082   -9.0292426    498.46817  0.009959006 0.0082453247         3898 
 4172000   0.59180263   -9.0336717    499.10016 0.0099692425 0.0082419406         3879 
 4173000   0.59122182   -9.0394679    499.65826 0.0099779987 0.0082385618         3880 
 4174000   0.57001136    -9.035133    499.20087 0.0099664763 0.0082351852         3877 
 4175000   0.58829083   -9.0377002     499.5507 0.0099710718 0.0082318075         3879 
 4176000   0.59009459   -9.0570602    499.02553 0.0099582042 0.0082284328         3880 
 4177000   0.58347798   -9.0561923     498.3985 0.0099433106 0.0082250579         3899 
 4178000   0.58727182   -9.0323702    498.70675 0.0099470789 0.0082216847         3905 
 4179000   0.58246473   -9.0248655    498.96588 0.0099498661 0.0082183153         3893 
 4180000   0.59346738   -9.0377598    498.74805  0.009943143 0.0082149507         3878 
 4181000    0.5840602   -9.0458015    498.73896 0.0099405836 0.0082115849         3879 
 4182000   0.57784015   -9.0347926    498.65823 0.0099365979 0.0082082227         3867 
 4183000   0.58275747   -9.0407198    498.59709 0.0099330045 0.0082048601         3894 
 4184000    0.5873507   -9.0369587    499.22572 0.0099431509 0.0082015001         3900 
 4185000   0.58206493   -9.0332264    499.56142 0.0099474595 0.0081981425         3893 
 4186000   0.58240336   -9.0361532    498.79049 0.0099297359 0.0081947856         3867 
 4187000   0.59021842   -9.0480945    498.96601 0.0099308577 0.0081914308         3896 
 4188000   0.59286108   -9.0301827      499.031 0.0099297795 0.0081880798         3888 
 4189000    0.5881875    -9.045549    498.82574 0.0099233257 0.0081847307         3884 
 4190000   0.57953076   -9.0317285    499.37072 0.0099317964 0.0081813815         3888 
 4191000   0.58256451   -9.0518492    498.38458 0.0099098182 0.0081780317         3892 
 4192000   0.58453988   -9.0490333    498.44882 0.0099087313 0.0081746848         3863 
 4193000   0.58843405     -9.05125    499.37051 0.0099246862 0.0081713453         3886 
 4194000   0.58061213   -9.0378659    499.53998 0.0099256872 0.0081680038         3872 
 4195000   0.59371698   -9.0474996    499.04133 0.0099134154 0.0081646645         3892 
 4196000   0.57736259   -9.0514341    499.33326 0.0099168505 0.0081613247         3905 
 4197000   0.56794077   -9.0227197    498.71439 0.0099021997 0.0081579871         3904 
 4198000   0.58498834   -9.0474572    499.36164 0.0099126893 0.0081546502         3894 
 4199000   0.57978133    -9.048546    499.37756 0.0099106445 0.0081513186         3882 
 4200000   0.57526909   -9.0597702    499.31665 0.0099070764  0.008147987         3911 
 4201000   0.57940895   -9.0490884    499.26695 0.0099037322 0.0081446566         3882 
 4202000     0.580905   -9.0433886    498.74648 0.0098910534 0.0081413308         3893 
 4203000   0.58199064   -9.0173585    499.14613 0.0098966241  0.008138006         3872 
 4204000   0.57329033   -9.0419592    499.67522 0.0099047578 0.0081346821         3864 
 4205000   0.57512607   -9.0503523    499.10597  0.009891121 0.0081313627         3893 
 4206000   0.57495453   -9.0415131     499.2709 0.0098920372 0.0081280427         3891 
 4207000    0.5734032   -9.0386409    499.45296  0.009893292 0.0081247223         3881 
 4208000   0.58931918   -9.0447154    498.74546 0.0098769301 0.0081214026         3888 
 4209000   0.57924261   -9.0461703    498.31173  0.009865996 0.0081180922         3882 
 4210000   0.57914229   -9.0500735    498.49239 0.0098672285  0.008114781         3882 
 4211000   0.56741034    -9.044054    498.88314 0.0098726181 0.0081114721         3902 
 4212000   0.58302038   -9.0187391     499.6572 0.0098855889 0.0081081655         3906 
 4213000   0.57643352    -9.049549    498.86493 0.0098675712 0.0081048596         3890 
 4214000   0.58108989   -9.0438721    497.53251 0.0098388806 0.0081015529         3875 
 4215000   0.57807489   -9.0575458    498.79985 0.0098616024  0.008098249         3887 
 4216000   0.57692941   -9.0341669    498.66604 0.0098566185 0.0080949461         3881 
 4217000   0.58161829    -9.039379    498.45446 0.0098501001  0.008091643         3882 
 4218000   0.58056457   -9.0417622    498.96773 0.0098579053 0.0080883445         3871 
 4219000   0.58323324   -9.0609373    497.48404 0.0098262629 0.0080850468         3885 
 4220000   0.56731582   -9.0491783    498.73774 0.0098486915 0.0080817501         3891 
 4221000    0.5766373    -9.035808    498.85955 0.0098487632 0.0080784547         3886 
 4222000   0.58174395   -9.0397143    498.32456 0.0098358709 0.0080751615         3902 
 4223000   0.57204746   -9.0526554    498.16998 0.0098304913  0.008071871         3893 
 4224000   0.56061378   -9.0460247     498.4431 0.0098335523 0.0080685837         3878 
 4225000   0.58230436   -9.0257726    499.69325 0.0098558827 0.0080653002         3903 
 4226000   0.56216542   -9.0528282    498.94062 0.0098387091 0.0080620181         3903 
 4227000   0.58332265   -9.0686727    499.23437 0.0098421727 0.0080587363         3882 
 4228000   0.58097334   -9.0563114    499.09196  0.009837038 0.0080554528         3890 
 4229000   0.56926197   -9.0503164    498.61877 0.0098253875 0.0080521724         3872 
 4230000   0.58137758   -9.0389551    499.27624 0.0098360172 0.0080488962         3881 
 4231000   0.57585498   -9.0495729    499.01647 0.0098285763 0.0080456206         3891 
 4232000    0.5747689   -9.0560083    498.67291 0.0098194885 0.0080423444         3911 
 4233000   0.56635207   -9.0353106    498.25948 0.0098090299 0.0080390725         3886 
 4234000   0.57619126   -9.0285401    498.63438 0.0098140919 0.0080358034         3877 
 4235000   0.58209544   -9.0433765    499.11363 0.0098212048 0.0080325393         3891 
 4236000   0.57578059   -9.0421806    498.42019 0.0098052446  0.008029273         3910 
 4237000   0.56250647   -9.0533565    498.16086 0.0097978297 0.0080260063         3920 
 4238000   0.56327831   -9.0498395    498.65364 0.0098052077 0.0080227434         3884 
 4239000   0.56875056   -9.0512271    497.97558 0.0097895647  0.008019482         3894 
 4240000   0.57184159   -9.0531302    498.05039 0.0097887262 0.0080162217         3891 
 4241000   0.58526706    -9.040562    498.28615 0.0097910507 0.0080129644         3875 
 4242000   0.57299844   -9.0656208     498.4387 0.0097917393 0.0080097069         3913 
 4243000   0.56800997   -9.0570669    498.60875 0.0097927714 0.0080064515         3892 
 4244000   0.58220593   -9.0580011    498.60663 0.0097904223 0.0080031976         3891 
 4245000   0.55675112   -9.0509418    498.40765 0.0097842098 0.0079999454         3888 
 4246000   0.57289007   -9.0633076    498.96857 0.0097929143 0.0079966946         3891 
 4247000   0.56865951   -9.0558358     498.0067  0.009771735   0.00799345         3910 
 4248000    0.5660433   -9.0395658    497.89264 0.0097671971  0.007990206         3874 
 4249000   0.57319209    -9.059427    498.51656 0.0097771351 0.0079869641         3893 
 4250000   0.57854647   -9.0549609    498.14066 0.0097674639 0.0079837238         3898 
 4251000   0.57763866   -9.0437636    498.73534 0.0097768238 0.0079804831         3875 
 4252000   0.57704231    -9.063874    498.24144 0.0097648447  0.007977243         3901 
 4253000    0.5633471   -9.0420445    497.68922 0.0097517287 0.0079740035         3909 
 4254000    0.5670168   -9.0715192    499.03995 0.0097758962 0.0079707687         3893 
 4255000   0.57276826   -9.0644227    498.75427 0.0097680038 0.0079675376         3894 
 4256000   0.56260806   -9.0638588    498.29914 0.0097567971 0.0079643044         3885 
 4257000   0.56703738   -9.0587107     499.1407 0.0097709792 0.0079610735         3881 
 4258000   0.57335863   -9.0454681    499.39907  0.009773741 0.0079578456         3893 
 4259000   0.55862995   -9.0337206    498.59447 0.0097557031 0.0079546186         3883 
 4260000   0.56605231   -9.0546492    499.32971 0.0097677955 0.0079513958         3888 
 4261000   0.57461634   -9.0523304    499.10603 0.0097611286 0.0079481729         3884 
 4262000   0.57039868   -9.0639373    498.77101 0.0097522878 0.0079449535         3906 
 4263000   0.58138671   -9.0374861    498.81023 0.0097507669 0.0079417358         3907 
 4264000   0.56950004   -9.0657998    498.36306 0.0097397409  0.007938518         3871 
 4265000   0.56204307   -9.0741898    499.53859 0.0097604257 0.0079353061         3903 
 4266000   0.56193157    -9.056533    498.65134  0.009740806 0.0079320936         3874 
 4267000   0.57046325    -9.054085    498.31738  0.009732001 0.0079288819         3879 
 4268000   0.56181782   -9.0427613    497.57597 0.0097152446 0.0079256712         3887 
 4269000   0.57053959   -9.0637863    498.84026 0.0097376486 0.0079224624         3894 
 4270000   0.57068724   -9.0570009    497.41504 0.0097075534 0.0079192543         3907 
 4271000   0.56867025   -9.0643314    498.22353 0.0097210553  0.007916049         3897 
 4272000    0.5713049   -9.0637867    497.88392 0.0097121552 0.0079128464         3900 
 4273000   0.57148736   -9.0617567    497.47888 0.0097019831 0.0079096443         3895 
 4274000   0.57643527   -9.0756541    498.45497 0.0097187446 0.0079064456         3884 
 4275000   0.56184459   -9.0714967    498.23488 0.0097121809 0.0079032461         3897 
 4276000   0.57568255   -9.0611796    499.11575 0.0097270766 0.0079000494         3881 
 4277000   0.56337614   -9.0480267    497.92282  0.009701559 0.0078968525         3876 
 4278000   0.57204555   -9.0665962    498.93027  0.009718916 0.0078936568         3881 
 4279000   0.57743894   -9.0526977    498.95265 0.0097170804 0.0078904631         3873 
 4280000   0.55737399   -9.0696469    498.50344 0.0097060639 0.0078872712         3895 
 4281000   0.56839009   -9.0715085    498.30314 0.0096998975 0.0078840814         3880 
 4282000   0.57911559   -9.0542482    497.86502 0.0096891059 0.0078808939         3907 
 4283000   0.57263898   -9.0454715    498.85604 0.0097061258  0.007877711         3886 
 4284000   0.56117752   -9.0566362    498.71821 0.0097011791 0.0078745281         3903 
 4285000   0.55912086   -9.0571385    497.88778  0.009682765 0.0078713475         3902 
 4286000   0.57331096   -9.0685937    497.99516 0.0096825936 0.0078681656         3904 
 4287000   0.56998379    -9.077322    498.04006 0.0096812079 0.0078649849         3881 
 4288000    0.5636838   -9.0813401    497.92345 0.0096766839 0.0078618083         3885 
 4289000   0.56161961   -9.0657077    499.06999 0.0096967046 0.0078586314         3889 
 4290000   0.55843378   -9.0648517    498.32488 0.0096799705 0.0078554552         3890 
 4291000   0.57061483   -9.0660034    498.22702 0.0096758142 0.0078522807         3892 
 4292000   0.56683404   -9.0773456    497.77984 0.0096648773 0.0078491083         3902 
 4293000   0.55400635   -9.0694224    498.11703 0.0096691713 0.0078459389         3909 
 4294000   0.55595866   -9.0711658    498.07357 0.0096660761   0.00784277         3906 
 4295000   0.55944624   -9.0705279    497.87572 0.0096599868 0.0078396045         3883 
 4296000   0.56624262   -9.0514568    498.50269 0.0096699002 0.0078364409         3877 
 4297000   0.55904262   -9.0673821    497.15254 0.0096414658 0.0078332795         3894 
 4298000   0.57216722   -9.0517616    497.74622 0.0096507334  0.007830117         3878 
 4299000   0.58042168   -9.0539867     498.7654 0.0096682446 0.0078269595         3892 
 4300000   0.56851533   -9.0521592    498.30444 0.0096570627 0.0078238021         3888 
 4301000   0.56683511   -9.0618663    498.03817 0.0096496585 0.0078206478         3883 
 4302000   0.55923347   -9.0736876    498.11224 0.0096488502 0.0078174961         3904 
 4303000   0.56734534   -9.0685695    498.00247  0.009644482 0.0078143461         3889 
 4304000   0.55443081   -9.0614786     497.5326 0.0096331436 0.0078111975         3908 
 4305000   0.56674032   -9.0735811    498.40566  0.009647806 0.0078080474         3900 
 4306000   0.56286719   -9.0669671    497.69641 0.0096318395  0.007804897         3882 
 4307000   0.55516613   -9.0802494    497.84154 0.0096324112 0.0078017531         3903 
 4308000   0.55439834   -9.0619749    497.32059  0.009620098 0.0077986104         3910 
 4309000   0.56838593   -9.0808453    497.48337 0.0096210136 0.0077954695         3898 
 4310000   0.57332034   -9.0774714     499.1131  0.009650292 0.0077923298         3900 
 4311000   0.54923309   -9.0655651    497.90571  0.009624714 0.0077891913         3889 
 4312000   0.54766606   -9.0645668    497.73755 0.0096192322 0.0077860527         3879 
 4313000   0.56061984   -9.0711432    498.23142 0.0096265441 0.0077829175         3867 
 4314000   0.56768815   -9.0685337    498.33419  0.009626298 0.0077797845         3880 
 4315000   0.57203511   -9.0833362    497.80332 0.0096138147 0.0077766537         3890 
 4316000   0.56056824   -9.0632643    497.94742 0.0096143694  0.007773525         3895 
 4317000   0.55458139   -9.0681506    496.80866 0.0095901602 0.0077703965         3917 
 4318000   0.54930611    -9.072588    497.86572 0.0096083395 0.0077672702         3916 
 4319000   0.55419035   -9.0732081    498.01213 0.0096089398 0.0077641452         3877 
 4320000   0.55823195   -9.0898935    497.37497 0.0095944245 0.0077610219         3879 
 4321000   0.55895435   -9.0772507    497.33493 0.0095914319 0.0077578987         3887 
 4322000   0.56838747   -9.0660658    498.14975 0.0096049235 0.0077547785         3883 
 4323000   0.55356695   -9.0859412    497.86838 0.0095972777 0.0077516615         3888 
 4324000   0.55533778   -9.0737834     498.0171 0.0095979245 0.0077485459         3890 
 4325000   0.57249101   -9.0659308    498.66209 0.0096081327  0.007745433         3900 
 4326000   0.55517084   -9.0637357    498.82919 0.0096091306 0.0077423205         3895 
 4327000   0.55064398   -9.0822624    498.33373 0.0095973679  0.007739211         3920 
 4328000   0.56366654   -9.0752348    497.58952 0.0095808209 0.0077361001         3897 
 4329000   0.56776882   -9.0661639    498.55812 0.0095972535 0.0077329916         3887 
 4330000   0.55340629   -9.0550085    497.42093 0.0095731511 0.0077298833         3881 
 4331000   0.55333596   -9.0798147      498.277 0.0095874125 0.0077267809         3897 
 4332000   0.55457745    -9.049384    497.98974 0.0095796734 0.0077236791         3894 
 4333000   0.56461307   -9.0737912    497.65901 0.0095711018  0.007720578         3885 
 4334000   0.56516157   -9.0767054     498.0846 0.0095770765 0.0077174772         3893 
 4335000   0.56191389   -9.0535386     497.9943 0.0095731316 0.0077143822         3888 
 4336000   0.55089766   -9.0706134    497.76099 0.0095664397 0.0077112864         3896 
 4337000   0.56092398   -9.0771343    497.54544 0.0095600921  0.007708193         3897 
 4338000   0.56271183   -9.0877052    498.19856 0.0095704348 0.0077050985         3901 
 4339000    0.5644236   -9.0905434    497.84504 0.0095614396 0.0077020088         3901 
 4340000   0.55914504   -9.0700626    497.52712 0.0095531322 0.0076989191         3887 
 4341000    0.5487854   -9.0723372    497.96538 0.0095593446 0.0076958315         3893 
 4342000    0.5586403   -9.0843536    497.29582 0.0095442926  0.007692743         3888 
 4343000   0.55076369    -9.065564    497.85464 0.0095528176 0.0076896581         3896 
 4344000   0.54912451   -9.0830866    497.72992 0.0095482259 0.0076865751         3896 
 4345000   0.56004466   -9.0695906    497.63162  0.009544143 0.0076834906         3883 
 4346000   0.55019177   -9.0924307    497.50319 0.0095394844 0.0076804134         3910 
 4347000   0.56316506   -9.0847589    497.96163 0.0095460784 0.0076773327         3879 
 4348000   0.55233846   -9.0868684    497.11417 0.0095276404 0.0076742571         3896 
 4349000    0.5518189   -9.0912371    497.68183 0.0095363269 0.0076711815         3896 
 4350000   0.56191961   -9.0914307    497.30048 0.0095268291 0.0076681101         3880 
 4351000   0.55304837   -9.0929176    497.40611 0.0095266626 0.0076650368         3877 
 4352000   0.55433695    -9.091621    498.16747 0.0095390524 0.0076619671         3891 
 4353000   0.55042848   -9.0774776    498.06211 0.0095348439    0.0076589         3890 
 4354000   0.54764896   -9.0536208    498.28898 0.0095369963 0.0076558359         3895 
 4355000   0.55992043   -9.0754608    498.50635 0.0095389658 0.0076527726         3884 
 4356000    0.5532346   -9.0719178    497.62594  0.009519933 0.0076497113         3895 
 4357000   0.56459178   -9.0846024    498.24398 0.0095295688 0.0076466516         3883 
 4358000   0.54290339   -9.1060094    498.56108 0.0095334457 0.0076435914         3887 
 4359000   0.54500015   -9.0746532    497.42881 0.0095096125 0.0076405345         3887 
 4360000   0.54594592   -9.0899124    498.19968 0.0095221652  0.007637477         3907 
 4361000   0.56220143   -9.0635324    497.27914 0.0095023913 0.0076344222         3863 
 4362000   0.54844361   -9.0838071    497.73647 0.0095089498 0.0076313707         3906 
 4363000   0.56295245   -9.0757272    496.88442 0.0094904963 0.0076283173         3877 
 4364000   0.55087371   -9.0883586    497.56386 0.0095012959 0.0076252699         3876 
 4365000    0.5587336   -9.0902932    497.66242 0.0095010008 0.0076222239         3884 
 4366000   0.55461251   -9.0947646    498.56706 0.0095160913 0.0076191776         3894 
 4367000   0.55308703   -9.0820055    497.80263  0.009499325 0.0076161329         3879 
 4368000   0.54911914   -9.0714416    498.02555 0.0095014031 0.0076130892         3886 
 4369000   0.55776089   -9.1013823    497.81955 0.0094952993  0.007610048         3895 
 4370000   0.55229258   -9.0626643    498.02182 0.0094969836 0.0076070098         3906 
 4371000   0.55194172   -9.0924842     497.4259 0.0094834497 0.0076039722         3910 
 4372000   0.55199992   -9.0771797    497.05185 0.0094741509 0.0076009361         3897 
 4373000   0.54916124   -9.0760729    497.23501 0.0094754747 0.0075979004         3905 
 4374000   0.55029559   -9.0627951    497.75523 0.0094832196 0.0075948673         3897 
 4375000   0.56595043   -9.0928549    498.53102 0.0094958289 0.0075918355         3904 
 4376000   0.53757941   -9.0868568    498.19814 0.0094873198 0.0075888061         3879 
 4377000   0.54547006   -9.0712089    498.21722 0.0094855156 0.0075857767         3902 
 4378000   0.54830668   -9.0677496     497.7587 0.0094746213 0.0075827474         3893 
 4379000   0.54994993   -9.0697195    497.13074 0.0094605073 0.0075797175         3882 
 4380000   0.55601997   -9.0726022    497.23196 0.0094602731 0.0075766922         3891 
 4381000   0.55787743   -9.0936108    497.14991 0.0094565531 0.0075736681         3889 
 4382000   0.54707013    -9.068901    497.40166 0.0094591827 0.0075706468         3896 
 4383000   0.54812783   -9.0889993    497.16278 0.0094524827  0.007567625         3900 
 4384000   0.57056519   -9.0799949    497.76612 0.0094617952  0.007564606         3890 
 4385000   0.54438154   -9.0807135    498.61689 0.0094758056   0.00756159         3892 
 4386000   0.54555159   -9.0829166    497.99906 0.0094619064 0.0075585745         3891 
 4387000    0.5559757   -9.0833279    498.15495 0.0094627109  0.007555561         3937 
 4388000   0.54841658   -9.0910755    497.72724 0.0094524317 0.0075525499         3872 
 4389000   0.54639769   -9.0858679    497.27302 0.0094416538 0.0075495431         3899 
 4390000   0.56475091   -9.0740301    497.56834  0.009445109  0.007546535         3888 
 4391000   0.54560483    -9.081681    497.67849 0.0094450485 0.0075435276         3889 
 4392000   0.53431712   -9.0969787    498.46385 0.0094577991 0.0075405224         3894 
 4393000   0.55780277   -9.0969644    497.37254 0.0094349447 0.0075375157         3909 
 4394000   0.54763776   -9.1007837    498.07659 0.0094461499 0.0075345135         3897 
 4395000   0.54964682   -9.0853465    497.58956  0.009434766 0.0075315113         3891 
 4396000   0.55680623   -9.0853744     498.0026 0.0094404496 0.0075285135         3892 
 4397000   0.54875299   -9.0695095    497.30466  0.009425075 0.0075255168         3882 
 4398000   0.54140369   -9.0832079    497.05382 0.0094181791 0.0075225214         3896 
 4399000   0.55735665   -9.0968343    497.52441 0.0094249528 0.0075195272         3914 
 4400000   0.54206592   -9.0915605    496.91483 0.0094112658 0.0075165362         3891 
 4401000   0.55330904   -9.0859788    497.99084 0.0094295017 0.0075135454         3883 
 4402000   0.54742552   -9.0845345    498.42404 0.0094355603 0.0075105593         3889 
 4403000   0.54529562   -9.0830513    498.21128 0.0094293905 0.0075075723         3899 
 4404000   0.53964795   -9.0768194    497.97796 0.0094228345 0.0075045865         3886 
 4405000   0.55445382   -9.0939533    497.60379  0.009413617 0.0075016015         3892 
 4406000   0.54771735   -9.0976427    497.24794 0.0094047499 0.0074986166         3917 
 4407000   0.54582621   -9.0867058    497.32496 0.0094040722 0.0074956371         3871 
 4408000   0.54088357   -9.0919179    496.63948 0.0093889798 0.0074926559         3881 
 4409000   0.53869627   -9.0946854     496.9688 0.0093930747 0.0074896775         3879 
 4410000   0.54856791   -9.0794584    497.93955 0.0094092885 0.0074867016         3903 
 4411000   0.55518502   -9.0993039     498.1705 0.0094115186 0.0074837283         3883 
 4412000   0.53597403   -9.0882333    497.63817 0.0093993307 0.0074807563         3883 
 4413000   0.55258897   -9.0932951    497.56703 0.0093958575 0.0074777823         3886 
 4414000   0.54346351   -9.0901065    497.05025 0.0093839723  0.007474809         3899 
 4415000   0.54947823   -9.0949164    498.18221 0.0094032127 0.0074718404         3906 
 4416000   0.53525584   -9.0949401    497.78205 0.0093935321 0.0074688741         3892 
 4417000   0.54309897   -9.1155778     497.3144 0.0093825825 0.0074659079         3910 
 4418000   0.54389218   -9.0977707    496.97531 0.0093740627 0.0074629444         3870 
 4419000   0.54376022   -9.0799896    497.69042  0.009385427 0.0074599811         3894 
 4420000   0.55139489   -9.0957852    497.38115 0.0093774727 0.0074570209         3893 
 4421000   0.53288243   -9.1122122    497.92609 0.0093856234 0.0074540593         3883 
 4422000   0.53860943   -9.0978071    497.29838 0.0093716715 0.0074511022         3893 
 4423000   0.53948289   -9.0938293    497.21075 0.0093679017 0.0074481461         3877 
 4424000   0.55091434   -9.0926768    497.32327 0.0093679037 0.0074451915         3902 
 4425000    0.5380257   -9.1141679      497.815  0.009375047 0.0074422386         3909 
 4426000   0.55686236   -9.0887229    498.08195 0.0093779551 0.0074392864         3878 
 4427000   0.53595756    -9.088671    497.48989 0.0093646919 0.0074363377         3892 
 4428000   0.54943881   -9.1183046    497.01225  0.009353588 0.0074333906         3904 
 4429000    0.5354469   -9.0981655    496.82505 0.0093479537 0.0074304421         3906 
 4430000   0.55081037   -9.0843719    497.10717 0.0093511507 0.0074274961         3893 
 4431000   0.55959172   -9.0831343    497.78694 0.0093618247 0.0074245508         3898 
 4432000   0.53788478   -9.0938029     497.6062 0.0093563139 0.0074216078         3903 
 4433000   0.54030157   -9.0701898    497.02524 0.0093432823 0.0074186649         3900 
 4434000   0.53281406   -9.0900173    497.44875 0.0093491345 0.0074157253         3891 
 4435000   0.53458374   -9.0977429    496.71056 0.0093331559 0.0074127854         3924 
 4436000   0.53396462   -9.1118634    496.37132 0.0093246791 0.0074098495         3902 
 4437000    0.5307878   -9.1032006     497.7721 0.0093488863 0.0074069138         3900 
 4438000   0.55289366   -9.1434092    497.25135 0.0093370014 0.0074039784         3903 
 4439000   0.54057554   -9.1135738    496.83142 0.0093270147  0.007401046         3886 
 4440000   0.53270935   -9.0958677    497.98008  0.009346473 0.0073981156         3891 
 4441000   0.52955366   -9.0812357    497.88769 0.0093426347 0.0073951869         3885 
 4442000   0.54804187   -9.0935068    497.15644  0.009326813 0.0073922598         3889 
 4443000   0.53714995   -9.1020006    496.52759 0.0093129191 0.0073893344         3908 
 4444000   0.54212327   -9.0918855    497.19714 0.0093233787 0.0073864114         3905 
 4445000     0.539358   -9.0949731    497.45783 0.0093261686 0.0073834885         3869 
 4446000    0.5502806   -9.1163464    497.19385 0.0093191229 0.0073805671         3888 
 4447000   0.54191404     -9.11116     497.1897 0.0093169496 0.0073776499         3863 
 4448000   0.55201156   -9.0824793    497.29127 0.0093167579 0.0073747337         3883 
 4449000   0.54015614   -9.0990551    497.16227 0.0093122475 0.0073718187         3873 
 4450000   0.54020318   -9.0912385    497.71022 0.0093204161 0.0073689036         3901 
 4451000   0.53538872   -9.0995196    497.31869 0.0093109918  0.007365989         3871 
 4452000   0.53516011    -9.109393    497.11165 0.0093050249 0.0073630787         3898 
 4453000   0.53879045   -9.1122786    496.32322 0.0092881806 0.0073601697         3906 
 4454000   0.53510552   -9.1085338    497.02466  0.009299219 0.0073572597         3920 
 4455000   0.53367024   -9.1253466    496.82664 0.0092934277 0.0073543541         3870 
 4456000   0.53597198   -9.0902062    497.45281 0.0093030523 0.0073514503         3898 
 4457000   0.53614563   -9.1021392    496.76963 0.0092881915 0.0073485482         3897 
 4458000   0.51626975   -9.0768741    498.48246 0.0093181259 0.0073456495         3884 
 4459000   0.55087094   -9.1076085    497.04845 0.0092892362 0.0073427517         3879 
 4460000   0.52115559   -9.0963425    497.45426 0.0092947359 0.0073398516         3897 
 4461000   0.53392384   -9.1175831    497.82812 0.0092996361 0.0073369556         3886 
 4462000   0.54195835   -9.1128505     497.5512 0.0092923801 0.0073340616         3895 
 4463000   0.52803867    -9.099404    496.76195 0.0092755611 0.0073311673         3888 
 4464000   0.53737826   -9.0989614    497.57193 0.0092886038 0.0073282735         3888 
 4465000   0.53867765   -9.1102223    497.29608 0.0092813752 0.0073253801         3889 
 4466000   0.54673966   -9.0969394    498.50283 0.0093018143 0.0073224919         3880 
 4467000   0.52728157   -9.1157973    497.41228 0.0092793873 0.0073196065         3895 
 4468000   0.53502988   -9.1003693    497.23112 0.0092739317 0.0073167199         3894 
 4469000   0.54237194   -9.1036477    497.50446 0.0092769534 0.0073138355         3887 
 4470000   0.52753273   -9.1016485     497.5477 0.0092756842 0.0073109532         3900 
 4471000   0.53516082   -9.1053063    496.95528 0.0092625677 0.0073080735         3907 
 4472000   0.52721393   -9.1122938    497.01711 0.0092616487 0.0073051938         3885 
 4473000   0.53743563   -9.0925012    496.51516 0.0092502266 0.0073023153         3916 
 4474000   0.53491134   -9.1020528     496.8068 0.0092535911 0.0072994362         3909 
 4475000   0.54274569    -9.097786      497.459 0.0092636685 0.0072965622         3902 
 4476000   0.53901783   -9.1162727    497.31111 0.0092588455 0.0072936888         3889 
 4477000   0.53693957   -9.1139478    497.43163 0.0092590208 0.0072908159         3900 
 4478000   0.52717126   -9.1062517    497.92709 0.0092661734 0.0072879461         3872 
 4479000   0.53231574   -9.1140829    496.71486 0.0092415505 0.0072850766         3878 
 4480000   0.53198955   -9.1151429    497.93972 0.0092622715   0.00728221         3913 
 4481000   0.54338096   -9.1070113    497.57551 0.0092534314 0.0072793422         3900 
 4482000   0.54280934   -9.0785743    497.71589 0.0092539769 0.0072764779         3864 
 4483000   0.54122691   -9.1150097    497.02291 0.0092390309 0.0072736158         3906 
 4484000   0.53483786   -9.1107302    497.04464 0.0092373744 0.0072707559         3892 
 4485000   0.53377473   -9.1079518     496.7322 0.0092295095 0.0072678952         3898 
 4486000   0.53262348   -9.1248292    496.71386 0.0092271113 0.0072650345         3900 
 4487000   0.52785033   -9.1151106    496.58535 0.0092226683 0.0072621771         3892 
 4488000   0.53500066   -9.1120352    496.68834 0.0092225255 0.0072593215         3889 
 4489000   0.53806567   -9.1241666    496.36048 0.0092143848 0.0072564666         3888 
 4490000   0.51594417   -9.1101026    495.66115 0.0091993532 0.0072536118         3912 
 4491000   0.51867942   -9.1151163     496.6501 0.0092156554 0.0072507594         3891 
 4492000   0.53188555   -9.1164095    496.87431 0.0092177632 0.0072479088         3909 
 4493000   0.52671012   -9.1073185    496.79347 0.0092142124 0.0072450616         3887 
 4494000   0.53090639   -9.1062146    496.67245 0.0092099179 0.0072422151         3879 
 4495000   0.54022163   -9.1033954    497.85232 0.0092297428 0.0072393708         3905 
 4496000   0.54291408    -9.101667    497.10603 0.0092138573 0.0072365287         3887 
 4497000    0.5232312   -9.1081939    496.96383 0.0092091734 0.0072336871         3900 
 4498000   0.53135402   -9.1136284    496.98351 0.0092074906 0.0072308451         3906 
 4499000   0.52875695   -9.1187645    497.77525 0.0092201091 0.0072280066         3895 
 4500000   0.53410912   -9.1128673    496.73465 0.0091987899  0.007225168         3896 
 4501000   0.53127803   -9.1225598    496.91863 0.0092001524 0.0072223342         3893 
 4502000    0.5312845   -9.1103411    497.22457 0.0092037718 0.0072195005         3897 
 4503000   0.53211367   -9.1027311    497.38143 0.0092046308   0.00721667         3897 
 4504000   0.53684782   -9.1120092    496.46378 0.0091856088  0.007213838         3917 
 4505000   0.53722798   -9.1136982    497.29667 0.0091989764 0.0072110069         3898 
 4506000   0.53280669   -9.1160253    496.39456 0.0091802516 0.0072081787         3911 
 4507000   0.52887393    -9.132879    497.22953 0.0091936531 0.0072053496         3912 
 4508000   0.54196053    -9.106485    497.66995  0.009199755 0.0072025259         3872 
 4509000   0.53559025   -9.1074684    497.48976 0.0091943847 0.0071997027         3894 
 4510000   0.53962565   -9.1090771    496.66347 0.0091770782   0.00719688         3906 
 4511000   0.54030177   -9.1034127    496.81982 0.0091779321 0.0071940591         3898 
 4512000    0.5224817   -9.1094678    497.57005 0.0091897543 0.0071912396         3891 
 4513000   0.52816701   -9.1046668    497.67755 0.0091897029 0.0071884209         3905 
 4514000   0.53230265   -9.1055058    497.37931 0.0091821612 0.0071856028         3885 
 4515000   0.52520668   -9.1145143     497.0531 0.0091741066 0.0071827885         3908 
 4516000   0.52202739   -9.1244436    496.44851 0.0091609187 0.0071799744         3914 
 4517000   0.52947885   -9.1233461    496.79528 0.0091652882 0.0071771617         3896 
 4518000   0.53881923   -9.1262329    497.52497 0.0091767184 0.0071743486         3902 
 4519000   0.53438118   -9.0991225    496.60955 0.0091578069 0.0071715416         3911 
 4520000   0.54171975   -9.1118865    496.50464 0.0091538466 0.0071687336         3891 
 4521000   0.53484413   -9.1337912    496.00097 0.0091425379 0.0071659261         3889 
 4522000   0.53428752   -9.1229869    497.30969 0.0091646339 0.0071631228         3885 
 4523000   0.52969248   -9.0993198    496.34321 0.0091448009 0.0071603208         3895 
 4524000   0.53439489   -9.1184595    496.56948 0.0091469474 0.0071575194         3907 
 4525000   0.53070454    -9.110865    496.50613 0.0091437594 0.0071547169         3894 
 4526000   0.54198024   -9.1203542    496.85975 0.0091482499 0.0071519184         3912 
 4527000   0.52872511   -9.1233441    497.34344 0.0091551329 0.0071491216         3900 
 4528000   0.52939411   -9.1296893    496.77136 0.0091425824 0.0071463253         3907 
 4529000   0.52852733   -9.1315068     497.1883 0.0091482354 0.0071435319         3897 
 4530000   0.52515054   -9.1293802    496.38083 0.0091313618 0.0071407386         3902 
 4531000   0.51092458   -9.1233418    496.70368 0.0091352843 0.0071379466         3909 
 4532000    0.5360055    -9.125627     495.9889 0.0091201254 0.0071351552         3890 
 4533000   0.52934379   -9.1098777    497.86069 0.0091525239 0.0071323685         3905 
 4534000   0.52783905    -9.123068    497.05501 0.0091356972 0.0071295818         3875 
 4535000   0.53133148   -9.1040135    497.47369 0.0091413762 0.0071267943         3903 
 4536000   0.52627958   -9.1092864    497.06757 0.0091318998 0.0071240105         3885 
 4537000   0.52708031   -9.1238943    497.10584 0.0091305899 0.0071212265         3873 
 4538000   0.53060994   -9.1279239    496.36596 0.0091149912 0.0071184451         3889 
 4539000   0.52379245   -9.1348291    496.60641 0.0091173975 0.0071156656         3884 
 4540000   0.53821193   -9.1403302    497.69355 0.0091353442 0.0071128879         3887 
 4541000   0.51914335   -9.1321831    496.52276 0.0091118469 0.0071101098         3874 
 4542000      0.52999   -9.1148852    497.18453 0.0091219823 0.0071073338         3878 
 4543000   0.53812827   -9.1220295    496.29915 0.0091037338 0.0071045592         3908 
 4544000   0.52255755   -9.1285641    496.72768 0.0091095893 0.0071017851         3890 
 4545000   0.51455021   -9.1170727    496.50484 0.0091034991 0.0070990141         3912 
 4546000   0.51843942   -9.1273305    496.49249 0.0091012701  0.007096244         3901 
 4547000   0.52282143   -9.1073867    496.60103 0.0091012577  0.007093474         3893 
 4548000   0.51715457   -9.1122647    496.28638 0.0090934912 0.0070907039         3884 
 4549000   0.52179017   -9.1275021    496.21068 0.0090901056 0.0070879392         3902 
 4550000   0.52810106   -9.1186588    496.06069 0.0090853605 0.0070851746         3910 
 4551000   0.53556747   -9.1406724    496.01798 0.0090825822 0.0070824123         3885 
 4552000   0.52286837   -9.1244279    496.62428 0.0090916865  0.007079651         3913 
 4553000   0.52772795   -9.1160006    496.65041 0.0090901678 0.0070768894         3911 
 4554000    0.5354959   -9.1323285    496.89136 0.0090925809 0.0070741309         3899 
 4555000   0.52668523   -9.1051107    496.78368 0.0090886147 0.0070713746         3886 
 4556000   0.51539897   -9.1324285    496.04399 0.0090730903 0.0070686189         3908 
 4557000   0.52515344   -9.1335958    496.62701 0.0090817608 0.0070658634         3913 
 4558000   0.51916112   -9.1378982    495.71841 0.0090631566 0.0070631102         3893 
 4559000    0.5204989   -9.1292346    496.70544 0.0090792103 0.0070603573         3885 
 4560000   0.52691517    -9.150223    496.77748 0.0090785359 0.0070576058         3906 
 4561000   0.52287949   -9.1300506    496.69906 0.0090751126 0.0070548568         3897 
 4562000   0.51770433   -9.0993074     496.1014 0.0090622059 0.0070521088         3893 
 4563000   0.51967537   -9.1163487    496.31352 0.0090640939 0.0070493635         3904 
 4564000   0.52350221   -9.1241068    496.58143 0.0090669996  0.007046619         3900 
 4565000   0.52844541   -9.1269554     496.8429 0.0090697863 0.0070438759         3879 
 4566000    0.5157995   -9.1343093    496.75106 0.0090661239 0.0070411364         3904 
 4567000    0.5311081   -9.1324832    496.90581 0.0090669625 0.0070383969         3892 
 4568000   0.52447047   -9.1311603    496.94144 0.0090656276 0.0070356556         3908 
 4569000   0.51434186    -9.127671    496.84635 0.0090619091 0.0070329208         3891 
 4570000   0.51423899   -9.1182222    497.16556 0.0090657469 0.0070301863         3902 
 4571000    0.5233219   -9.1350147    496.94629 0.0090597661 0.0070274522         3905 
 4572000   0.51908126   -9.1399125    496.80496 0.0090552084 0.0070247174         3923 
 4573000   0.51384536   -9.1358176     496.8472 0.0090539981 0.0070219878         3882 
 4574000   0.51874365   -9.1218498    496.17985 0.0090398602   0.00701926         3884 
 4575000   0.52337581   -9.1369699    496.85465 0.0090501757 0.0070165309         3915 
 4576000   0.52045936   -9.1091805      496.043 0.0090334171 0.0070138033         3911 
 4577000   0.52150816   -9.1323126    496.22292 0.0090347192 0.0070110763         3884 
 4578000   0.50670247   -9.1332329    496.14138 0.0090312615 0.0070083526         3904 
 4579000   0.52407327   -9.1352206    496.85596 0.0090422938 0.0070056282         3911 
 4580000   0.52269024   -9.1499243    496.80706 0.0090394298 0.0070029067         3910 
 4581000   0.52409331    -9.127179    497.35538  0.009047431 0.0070001861         3902 
 4582000   0.53228178   -9.1275641    497.07894 0.0090404289 0.0069974687         3890 
 4583000    0.5229972   -9.1342957    497.18632 0.0090404088 0.0069947518         3895 
 4584000   0.51038021   -9.1331794    496.22945 0.0090210414  0.006992036         3925 
 4585000   0.52027447   -9.1275862    496.89047 0.0090310881 0.0069893212         3898 
 4586000   0.52276219    -9.139459    496.31614 0.0090186827 0.0069866068         3910 
 4587000   0.51352637   -9.1321956    496.01499 0.0090112453 0.0069838939         3887 
 4588000   0.51135034   -9.1411372    495.71964 0.0090039168 0.0069811824         3900 
 4589000    0.5148496   -9.1292885    496.76046 0.0090208554 0.0069784743         3909 
 4590000   0.52778426   -9.1324225    496.67736 0.0090173812 0.0069757661         3893 
 4591000   0.51800437   -9.1092711    495.94312 0.0090020896 0.0069730614         3906 
 4592000   0.51235929   -9.1314877    496.26247 0.0090059247 0.0069703569         3898 
 4593000   0.50682937   -9.1316096    496.64433 0.0090108921 0.0069676545         3889 
 4594000   0.51790905   -9.1318559    497.00863 0.0090155389 0.0069649532         3901 
 4595000   0.51266456   -9.1536983      496.846 0.0090106275 0.0069622511         3905 
 4596000   0.52067494   -9.1386669    496.82848 0.0090083494 0.0069595543         3885 
 4597000   0.51715105    -9.131593    496.94709 0.0090085397 0.0069568569         3898 
 4598000   0.50962748   -9.1358249    496.00603  0.008989525 0.0069541608         3883 
 4599000   0.51573497   -9.1246825    495.69592 0.0089819512 0.0069514661         3892 
 4600000   0.50156339    -9.130412    496.50667 0.0089946861 0.0069487735         3892 
 4601000    0.5163488   -9.1351739    496.06404 0.0089847143 0.0069460818         3908 
 4602000   0.51533625   -9.1419007    496.62029 0.0089928345 0.0069433923         3892 
 4603000   0.52084512   -9.1462015    496.91086 0.0089961412 0.0069407035         3880 
 4604000   0.51306213   -9.1367804     496.3496 0.0089840283 0.0069380156         3913 
 4605000   0.51273101   -9.1264056    496.83509 0.0089908631  0.006935331         3898 
 4606000   0.51757697   -9.1428952    497.16192 0.0089948241 0.0069326453         3898 
 4607000   0.51568724   -9.1382928    496.33756 0.0089779604 0.0069299623         3919 
 4608000   0.50781518   -9.1460724    496.08601 0.0089714629 0.0069272804         3902 
 4609000    0.5232988   -9.1254045    496.20041 0.0089715847 0.0069245992         3910 
 4610000   0.50884309   -9.1256559    496.74651 0.0089795103   0.00692192         3906 
 4611000   0.50566292   -9.1507961    495.56433 0.0089561977 0.0069192425         3888 
 4612000    0.5138247   -9.1463356     495.3195  0.008949832 0.0069165639         3909 
 4613000   0.52897533   -9.1529631    495.75368 0.0089557353 0.0069138887         3875 
 4614000   0.52250033   -9.1151233    496.12258  0.008960457 0.0069112159         3899 
 4615000   0.51473104   -9.1319078    496.15445 0.0089590908  0.006908543         3905 
 4616000   0.51405524    -9.146102    495.17404 0.0089394505 0.0069058734         3914 
 4617000   0.51731299   -9.1331403    496.76859 0.0089662946 0.0069032024         3905 
 4618000    0.5159572   -9.1352509      496.666 0.0089625018 0.0069005348         3900 
 4619000   0.52261054   -9.1421809    495.45569 0.0089387258 0.0068978657         3907 
 4620000   0.51112017   -9.1451402    496.41397  0.008954076 0.0068952012         3915 
 4621000   0.51560589   -9.1398188    496.36756 0.0089513014 0.0068925378         3914 
 4622000   0.49779579   -9.1339532    496.75409 0.0089563337 0.0068898749         3887 
 4623000   0.50406422   -9.1606456    496.37197 0.0089475083 0.0068872121         3894 
 4624000   0.51034082   -9.1498844    496.28043 0.0089439235 0.0068845522         3886 
 4625000   0.49977044   -9.1480997    496.32434 0.0089427808 0.0068818935         3897 
 4626000   0.50792234   -9.1340868    496.60956 0.0089459858 0.0068792365         3906 
 4627000    0.5099045   -9.1480618    495.44863 0.0089231436 0.0068765831         3889 
 4628000   0.51312285   -9.1554016    496.06586 0.0089323297 0.0068739273         3901 
 4629000   0.50677898   -9.1416224    496.17751 0.0089324101 0.0068712752         3901 
 4630000   0.51151092   -9.1444707    496.46685 0.0089356884 0.0068686257         3891 
 4631000   0.50513441   -9.1562831    496.06307  0.008926493 0.0068659753         3887 
 4632000   0.51360412   -9.1371703    495.73939 0.0089187426 0.0068633262         3894 
 4633000   0.49870974   -9.1320307    495.91762 0.0089200234 0.0068606789         3890 
 4634000   0.51284045   -9.1381333    496.23695 0.0089238409  0.006858034         3904 
 4635000   0.51393843   -9.1270242    496.32281 0.0089234593 0.0068553886         3911 
 4636000   0.51271214   -9.1442911    495.58946 0.0089083523 0.0068527456         3914 
 4637000   0.51174251   -9.1504396    495.16738  0.008898846 0.0068501029         3907 
 4638000   0.50441138   -9.1465303    496.68555 0.0089242049 0.0068474621         3896 
 4639000   0.51223831   -9.1444989    496.50978 0.0089191237 0.0068448226         3889 
 4640000   0.50852167   -9.1399719      496.671 0.0089200969 0.0068421842         3888 
 4641000    0.5125794   -9.1451968    496.54018 0.0089158259 0.0068395499         3901 
 4642000   0.50395544   -9.1582424    496.53926 0.0089138887 0.0068369127         3917 
 4643000   0.51795163   -9.1370199    496.95964  0.008919514 0.0068342783         3911 
 4644000   0.51119735   -9.1416846    496.06316 0.0089015065 0.0068316457         3918 
 4645000   0.49763372   -9.1400734     495.8738 0.0088961931 0.0068290145         3910 
 4646000   0.50888379   -9.1362804    496.40813 0.0089038622 0.0068263854         3906 
 4647000    0.5047687   -9.1473316    496.61433  0.008905644 0.0068237554         3911 
 4648000   0.51433491   -9.1396934     496.1969 0.0088962439 0.0068211286         3881 
 4649000   0.50463051   -9.1487109    496.05303 0.0088917514 0.0068185026         3920 
 4650000   0.50210571   -9.1433877    496.27265  0.008893775  0.006815878         3921 
 4651000   0.51853388   -9.1493857    494.89058 0.0088670998 0.0068132544         3889 
 4652000   0.50882268   -9.1553886    495.71355 0.0088799361  0.006810633         3888 
 4653000   0.50963731   -9.1614364    494.54669 0.0088571296 0.0068080126         3914 
 4654000   0.50487409   -9.1441139     495.7139 0.0088761263 0.0068053927         3899 
 4655000   0.50835059   -9.1644266    496.19254  0.008882788 0.0068027759         3910 
 4656000   0.49158767   -9.1712695    495.73136  0.008872626 0.0068001586         3904 
 4657000   0.50720458   -9.1343564      496.815 0.0088901117 0.0067975433         3917 
 4658000   0.49615244   -9.1530657    495.98079 0.0088732787 0.0067949315         3916 
 4659000   0.50196119   -9.1520494    495.60365 0.0088646285 0.0067923197         3890 
 4660000   0.50399007   -9.1418972    496.16384  0.008872744 0.0067897087         3882 
 4661000   0.50135679   -9.1552983    496.52151 0.0088772351 0.0067870987         3917 
 4662000   0.51953437   -9.1517699    495.87335 0.0088637449 0.0067844889         3892 
 4663000   0.51568652    -9.131265    495.97554 0.0088636704 0.0067818827         3895 
 4664000   0.51355082   -9.1383264    496.08272 0.0088636849 0.0067792782         3905 
 4665000   0.50858998   -9.1425534    495.99503 0.0088602185 0.0067766731         3912 
 4666000   0.51099159   -9.1504251    496.23085 0.0088625313 0.0067740705         3899 
 4667000   0.51231694   -9.1688111    495.69448  0.008851055 0.0067714684         3874 
 4668000    0.5223687   -9.1620745    496.02902 0.0088551311 0.0067688669         3890 
 4669000   0.49915714   -9.1297175    496.12779 0.0088549973 0.0067662677         3911 
 4670000   0.50260229   -9.1525551    495.58732 0.0088434569 0.0067636692         3888 
 4671000   0.49702568   -9.1575245    496.49739 0.0088577998 0.0067610724         3911 
 4672000   0.50211655    -9.143769     495.8397 0.0088441727  0.006758478         3879 
 4673000   0.51511985   -9.1481637    495.63706 0.0088386665 0.0067558866         3909 
 4674000   0.51849144   -9.1482364    496.55479 0.0088531378 0.0067532944         3912 
 4675000   0.50432904   -9.1540167    495.15693 0.0088263268 0.0067507057         3892 
 4676000   0.49216181   -9.1535966    495.49585 0.0088304791 0.0067481163         3893 
 4677000   0.49096321   -9.1432906    496.41171 0.0088449096 0.0067455278         3905 
 4678000   0.49468339   -9.1430491    496.49191 0.0088444476 0.0067429407         3909 
 4679000    0.5136314    -9.157608    495.98705 0.0088335658 0.0067403549         3909 
 4680000   0.49701715   -9.1541964    495.29811 0.0088194108 0.0067377702         3927 
 4681000   0.51353498   -9.1417189    495.92806 0.0088287413 0.0067351889         3893 
 4682000   0.50831616   -9.1537514    497.09717 0.0088476643  0.006732608         3886 
 4683000   0.50830429   -9.1531507    496.08097 0.0088276918 0.0067300287         3901 
 4684000   0.49801726    -9.173542    495.74942 0.0088199086  0.006727449         3901 
 4685000   0.49039335   -9.1400181    495.88135 0.0088203726 0.0067248689         3874 
 4686000   0.50499131   -9.1623855    496.34371 0.0088267127 0.0067222927         3892 
 4687000   0.49132997   -9.1490525    495.50249 0.0088098729 0.0067197176         3898 
 4688000    0.4956264   -9.1659988    495.36366 0.0088055259 0.0067171431         3896 
 4689000   0.51563914   -9.1568694    495.29678 0.0088024592  0.006714571         3885 
 4690000   0.51714647   -9.1526088    495.76978 0.0088089868 0.0067119999         3896 
 4691000   0.50416185   -9.1545031    495.55869 0.0088033591 0.0067094312         3882 
 4692000   0.50031846   -9.1537457    495.46636 0.0087998431  0.006706862         3906 
 4693000   0.50153827   -9.1464915    495.61629 0.0088006302 0.0067042938         3902 
 4694000   0.49369289   -9.1552347    495.71895 0.0088005779 0.0067017286         3904 
 4695000   0.49417936   -9.1440056    496.10325 0.0088055245 0.0066991649         3909 
 4696000   0.48657967   -9.1520398    495.93526 0.0088006682  0.006696603         3905 
 4697000   0.50716882   -9.1512607    495.50877 0.0087912278 0.0066940405         3903 
 4698000   0.49729687   -9.1547937    496.32202 0.0088037822 0.0066914806         3895 
 4699000   0.50284918   -9.1485645    495.46402 0.0087866926 0.0066889218         3893 
 4700000    0.5041101   -9.1737835    495.76462 0.0087901528  0.006686364         3915 
 4701000   0.50871348   -9.1648257    495.92293 0.0087910892 0.0066838067         3905 
 4702000   0.49287812   -9.1572738    496.14757  0.008793201 0.0066812509         3900 
 4703000   0.51025793   -9.1598428    496.04287 0.0087894761 0.0066786967         3909 
 4704000   0.50358911   -9.1562369     495.5495 0.0087788672 0.0066761421         3918 
 4705000   0.51335888   -9.1691253    495.69897 0.0087796488 0.0066735885         3907 
 4706000   0.49531547   -9.1639856    495.88235 0.0087810304  0.006671039         3890 
 4707000   0.49830192   -9.1610667    495.77898 0.0087773349 0.0066684905         3900 
 4708000   0.50304998   -9.1850729    494.93832 0.0087605904 0.0066659417         3910 
 4709000   0.49534633   -9.1640524    496.38315 0.0087842986 0.0066633926         3911 
 4710000   0.49109622   -9.1387861    495.92862 0.0087743917 0.0066608489         3912 
 4711000   0.49576459   -9.1595881    496.19011 0.0087771547 0.0066583048         3898 
 4712000   0.49440975   -9.1665348    494.98576 0.0087539927 0.0066557626         3922 
 4713000   0.49884081   -9.1800397    495.77888 0.0087661588 0.0066532224         3908 
 4714000   0.50246264   -9.1688288     495.9117 0.0087666472 0.0066506829         3909 
 4715000    0.5080003   -9.1608078    495.79679 0.0087627571 0.0066481462         3912 
 4716000    0.4953516   -9.1613702    496.23535 0.0087686484  0.006645611         3913 
 4717000   0.50030629   -9.1654418    495.82013 0.0087594538 0.0066430765         3888 
 4718000   0.49135001   -9.1559974    495.91573 0.0087592859 0.0066405423         3899 
 4719000   0.49657401   -9.1520479    495.81459 0.0087556438 0.0066380101         3914 
 4720000   0.49907252   -9.1546254    495.68273 0.0087514606 0.0066354782         3900 
 4721000   0.49945217   -9.1557258    495.27348  0.008742383 0.0066329466         3900 
 4722000   0.49253904   -9.1623074     495.6971 0.0087480076  0.006630417         3906 
 4723000   0.49892564   -9.1671247    495.47308 0.0087422028 0.0066278899         3888 
 4724000   0.50129169   -9.1561388    496.32713 0.0087554179  0.006625364         3912 
 4725000   0.48722922   -9.1685327    495.88981  0.008745852 0.0066228399         3912 
 4726000   0.49012342   -9.1686807    495.27645  0.008733186 0.0066203161         3913 
 4727000   0.49353334    -9.178861    495.45933 0.0087345626 0.0066177936         3921 
 4728000   0.49751757   -9.1756749    495.71974  0.008737305 0.0066152705         3912 
 4729000   0.50552679   -9.1646863    495.29789 0.0087280237  0.006612751         3895 
 4730000   0.50212732   -9.1555768    496.02709 0.0087390255 0.0066102328         3896 
 4731000   0.48619946   -9.1720244    495.41358 0.0087263718 0.0066077164         3893 
 4732000   0.50299439     -9.16667    494.83243 0.0087142933    0.0066052         3910 
 4733000   0.50764875   -9.1627526    495.97898 0.0087326392 0.0066026859         3924 
 4734000   0.50146026   -9.1600503    496.26485 0.0087358268 0.0066001745         3929 
 4735000   0.49486565   -9.1721209    496.07115 0.0087305729 0.0065976631         3892 
 4736000   0.50411415   -9.1798633    495.66135 0.0087215187 0.0065951535         3912 
 4737000   0.50308193    -9.163217    496.18029 0.0087288066 0.0065926465         3892 
 4738000   0.49769033    -9.166553    496.31315 0.0087293012 0.0065901388         3894 
 4739000    0.4870914   -9.1585219    495.78271 0.0087181317  0.006587631         3912 
 4740000   0.48941898   -9.1626278     495.9919 0.0087199701  0.006585125         3919 
 4741000   0.49999033   -9.1841103     495.7437 0.0087137682 0.0065826218         3903 
 4742000   0.49490363   -9.1701581     494.8668 0.0086965204 0.0065801176         3908 
 4743000   0.49434936   -9.1727251    495.17785  0.008700152 0.0065776151         3894 
 4744000   0.49325528    -9.166928    495.86194 0.0087103347 0.0065751158         3910 
 4745000   0.48812398   -9.1659052    495.60614 0.0087040067 0.0065726178         3898 
 4746000   0.49298687    -9.168667    494.95078 0.0086906655 0.0065701189         3879 
 4747000   0.48917742   -9.1797844    494.79541 0.0086861072 0.0065676219         3925 
 4748000    0.4786831    -9.170925     495.5147 0.0086969022 0.0065651263         3910 
 4749000   0.49359436   -9.1665657    495.36572 0.0086924567 0.0065626307         3904 
 4750000   0.48723369   -9.1633724     495.7024 0.0086965334 0.0065601393         3914 
 4751000   0.50476083    -9.176419    495.62809 0.0086933994 0.0065576486         3901 
 4752000   0.50203684   -9.1868872    495.47338  0.008688857 0.0065551567         3909 
 4753000   0.49832063   -9.1693272    495.43656 0.0086863833  0.006552669         3914 
 4754000    0.4948538   -9.1709125    495.50366 0.0086857324 0.0065501807         3913 
 4755000   0.49124864   -9.1774444    495.98451 0.0086923328 0.0065476934         3909 
 4756000    0.4940835   -9.1754977    495.15857 0.0086760332 0.0065452086         3912 
 4757000   0.50084221   -9.1675253    495.15336 0.0086741181 0.0065427238         3901 
 4758000   0.49433897   -9.1754574    494.99715 0.0086695591 0.0065402409         3905 
 4759000   0.48463555    -9.181346     495.7482 0.0086808888 0.0065377583         3898 
 4760000   0.49036455   -9.1821317    495.57269 0.0086759926 0.0065352766         3889 
 4761000   0.47830747   -9.1619662    495.35717 0.0086703979 0.0065327977         3905 
 4762000   0.49369393   -9.1662378    495.55745  0.008672082 0.0065303204         3891 
 4763000   0.49719861   -9.1793708    495.17831 0.0086636277 0.0065278438         3900 
 4764000   0.49166003   -9.1749245    495.55755 0.0086684429 0.0065253677         3909 
 4765000   0.48530629    -9.170383    495.53792 0.0086662805 0.0065228933         3898 
 4766000   0.48414112   -9.1640593    496.03505 0.0086731545 0.0065204217         3877 
 4767000   0.48060496   -9.1611693    495.64764 0.0086645626 0.0065179492         3916 
 4768000    0.4891594   -9.1588443    495.49121 0.0086600114 0.0065154798         3876 
 4769000   0.48753126   -9.1746802    495.24925 0.0086539674 0.0065130098         3914 
 4770000   0.48031276   -9.1759575    494.82997 0.0086448283 0.0065105405         3885 
 4771000    0.4831909   -9.1766363    495.08399 0.0086474532 0.0065080749         3877 
 4772000   0.48247632   -9.1810293    494.93903 0.0086431096 0.0065056094         3887 
 4773000   0.49380683   -9.1806795    495.04277   0.00864311 0.0065031466         3909 
 4774000   0.48608111   -9.1898382    495.27658 0.0086453809 0.0065006836         3908 
 4775000    0.4829481   -9.1733929     495.5993 0.0086492025 0.0064982209         3907 
 4776000   0.48631081   -9.1676791    495.23247 0.0086409909 0.0064957611         3887 
 4777000   0.49048911   -9.1820308    495.39277 0.0086419785  0.006493302         3907 
 4778000   0.48204727   -9.1783898    495.19341 0.0086366927 0.0064908438         3896 
 4779000   0.47995361   -9.1741177    495.77969 0.0086451085 0.0064883892         3912 
 4780000   0.49460368   -9.1604516    495.56596  0.008639574 0.0064859345         3913 
 4781000   0.49326866   -9.1922738    495.63455 0.0086389623 0.0064834794         3885 
 4782000   0.48478616   -9.1794498    495.49711 0.0086347608 0.0064810268         3913 
 4783000    0.4801574   -9.1762487    494.08685 0.0086083847 0.0064785762         3915 
 4784000   0.49522846   -9.1653887    495.10975 0.0086244034 0.0064761259         3890 
 4785000   0.47691664   -9.1673509    495.08439 0.0086221594 0.0064736768         3900 
 4786000   0.47899656   -9.1825982     495.4716 0.0086270998 0.0064712292         3900 
 4787000   0.49175424   -9.1770434    494.90875 0.0086154995 0.0064687838         3904 
 4788000   0.48467524   -9.1695716    496.02969 0.0086332096 0.0064663371         3911 
 4789000   0.48696891   -9.1718587    495.59729 0.0086238826 0.0064638934         3896 
 4790000   0.49493496   -9.1949696    495.34707 0.0086177292 0.0064614513         3909 
 4791000   0.48055298   -9.1871787    494.73421 0.0086052705 0.0064590099         3909 
 4792000   0.48793748   -9.1802616    495.11052 0.0086100187 0.0064565682         3883 
 4793000   0.48293473   -9.1889502    495.57286 0.0086162609 0.0064541289         3914 
 4794000   0.47589212   -9.1963541    494.85494 0.0086019841 0.0064516905         3905 
 4795000   0.48256734   -9.1625035    495.28024 0.0086075816 0.0064492529         3908 
 4796000   0.48856287   -9.1918528     495.9348 0.0086171602 0.0064468174         3908 
 4797000   0.49118578   -9.1691949    495.01606 0.0085994035 0.0064443828         3907 
 4798000   0.47886542    -9.183907    495.21531 0.0086010718 0.0064419491         3892 
 4799000   0.47507069   -9.1824596    494.99216 0.0085954046 0.0064395187         3910 
 4800000   0.47529368   -9.1870899    495.25479 0.0085981735  0.006437088         3917 
 4801000   0.48017799   -9.1933565     494.7388 0.0085874262 0.0064346582         3905 
 4802000   0.49373084   -9.1741816    494.99995 0.0085901699 0.0064322305         3896 
 4803000   0.47292798   -9.1751959    495.26949 0.0085930581 0.0064298049         3915 
 4804000   0.48144143   -9.1848013    495.31936 0.0085921343 0.0064273789         3911 
 4805000   0.47912605   -9.1775679    495.32974 0.0085905261  0.006424954         3908 
 4806000   0.47449253   -9.1859094     494.7556 0.0085787835 0.0064225312         3891 
 4807000   0.49040187   -9.1847348    495.34007 0.0085871311 0.0064201117         3896 
 4808000   0.48733658   -9.1784672    494.79953 0.0085759764 0.0064176905         3902 
 4809000   0.48911964   -9.1873791    494.53341 0.0085695815 0.0064152719         3898 
 4810000   0.48433881   -9.2029908    495.40603 0.0085829181 0.0064128547         3910 
 4811000   0.47292386   -9.1868344     495.3849 0.0085807681 0.0064104397         3903 
 4812000   0.48505612   -9.1933548    495.04033 0.0085730177 0.0064080257         3902 
 4813000   0.49036038   -9.2012098    495.04168 0.0085712598 0.0064056103         3912 
 4814000   0.48903074   -9.1781825    495.27571 0.0085735305 0.0064031978         3910 
 4815000   0.47998173   -9.1619446    494.77049 0.0085630061 0.0064007865         3911 
 4816000   0.48008547   -9.1955028    495.01327  0.008565429 0.0063983748         3925 
 4817000   0.48672467   -9.1862989    495.36871 0.0085697999 0.0063959673         3906 
 4818000   0.48232525   -9.1828671    494.70261 0.0085565001 0.0063935583         3893 
 4819000   0.47468172   -9.1964001    494.98389 0.0085595887 0.0063911496         3899 
 4820000   0.47947432   -9.1986084    495.42368 0.0085654163 0.0063887435         3890 
 4821000   0.48010297     -9.18088    495.21307 0.0085599992 0.0063863375         3912 
 4822000   0.48619496   -9.1863414    495.11352 0.0085565035 0.0063839354         3908 
 4823000   0.47905856   -9.1783833    495.12586 0.0085549426 0.0063815339         3921 
 4824000   0.48037723   -9.1914266    495.36343 0.0085572731 0.0063791326         3901 
 4825000   0.49005674   -9.1801948    495.69957 0.0085613052 0.0063767336         3903 
 4826000   0.47724948   -9.2015975    495.01726 0.0085477494 0.0063743338         3920 
 4827000   0.46960464   -9.1807026     495.0284 0.0085461709 0.0063719378         3895 
 4828000   0.47844356   -9.1774851    495.23481 0.0085479635 0.0063695437         3914 
 4829000   0.49141844    -9.194109    494.75256 0.0085378712 0.0063671477         3901 
 4830000   0.48536878    -9.196006    494.78236 0.0085366176  0.006364753         3915 
 4831000   0.47372216    -9.176853    495.34186 0.0085445019  0.006362361         3902 
 4832000   0.47841247     -9.18717    495.22491 0.0085407165   0.00635997         3910 
 4833000   0.48197198   -9.1978072    495.36309 0.0085413319  0.006357581         3899 
 4834000   0.47954847   -9.1882921    494.38796 0.0085227547 0.0063551923         3898 
 4835000   0.47460603   -9.1880573    495.08958 0.0085330848 0.0063528062         3901 
 4836000   0.49314196   -9.1913801    494.71679 0.0085248965 0.0063504198         3907 
 4837000   0.48571038   -9.1949673    495.02152 0.0085283839 0.0063480361         3925 
 4838000   0.47218425   -9.1995187    494.28212 0.0085138852 0.0063456529         3901 
 4839000   0.48094272   -9.1995883    494.47144  0.008515386 0.0063432695         3920 
 4840000    0.4760538   -9.1934113     494.9128  0.008521226 0.0063408869         3900 
 4841000   0.46486611    -9.183266    495.55867 0.0085305837 0.0063385074         3911 
 4842000    0.4693957   -9.1834594    495.46046 0.0085271318 0.0063361263         3902 
 4843000   0.47317335   -9.2054318    494.75765 0.0085132777 0.0063337486         3927 
 4844000   0.47750934   -9.1858819    494.72686 0.0085109906 0.0063313713         3911 
 4845000   0.48391225     -9.20046    494.81766 0.0085107957 0.0063289949         3906 
 4846000   0.48450717   -9.1871866    494.70279 0.0085070642 0.0063266212         3907 
 4847000   0.46731418   -9.1855514    495.00465 0.0085104987 0.0063242469         3910 
 4848000   0.48141892   -9.1970119    494.38683 0.0084981234 0.0063218747         3911 
 4849000   0.48543242    -9.209797    494.65463 0.0085009731 0.0063195059         3910 
 4850000   0.47086076   -9.2092384    494.38001  0.008494502 0.0063171355         3901 
 4851000   0.47916111   -9.1872502    494.75216 0.0084991438 0.0063147662         3901 
 4852000   0.47967092   -9.1899333    493.86639  0.008482179 0.0063123985         3896 
 4853000   0.46325771   -9.1871827    494.80497 0.0084965481 0.0063100339         3905 
 4854000   0.47763053   -9.1889513    494.81479 0.0084949661  0.006307669         3905 
 4855000   0.48718168   -9.1948995    494.95035 0.0084955433 0.0063053058         3895 
 4856000   0.47821679    -9.189714    494.89299 0.0084928094  0.006302945         3917 
 4857000   0.47528938    -9.190508    494.59985 0.0084860314 0.0063005842         3909 
 4858000   0.47821655   -9.1834484    495.21169 0.0084947799 0.0062982225         3893 
 4859000   0.46554144   -9.2083879    494.68549 0.0084840072 0.0062958623         3899 
 4860000    0.4885125   -9.1928407    494.62036 0.0084811447 0.0062935031         3911 
 4861000   0.47271791   -9.2008469    494.84634  0.008483274 0.0062911481         3905 
 4862000   0.46948471   -9.1830304    494.40483 0.0084739619 0.0062887929         3921 
 4863000   0.48063415   -9.1929238     494.7505 0.0084781428 0.0062864396         3933 
 4864000   0.47531624   -9.2015123    494.58318  0.008473533 0.0062840867         3909 
 4865000    0.4746739   -9.1887176     495.0071 0.0084790527 0.0062817351         3916 
 4866000   0.47573833   -9.1871908    494.83145 0.0084743022 0.0062793836         3918 
 4867000    0.4693147   -9.1970752    495.12746 0.0084776292 0.0062770327         3906 
 4868000   0.47461988   -9.2067397    494.15529 0.0084592456 0.0062746841         3894 
 4869000   0.47780941   -9.1809027    494.02352 0.0084552529 0.0062723353         3901 
 4870000   0.47720163   -9.2083123    494.61457 0.0084636306 0.0062699902         3911 
 4871000   0.46324701   -9.2063238    494.85259  0.008465965  0.006267645         3913 
 4872000   0.47191037   -9.2076009    494.91683 0.0084653261 0.0062653014         3899 
 4873000   0.47193122   -9.1947616    494.59998 0.0084581705 0.0062629592         3905 
 4874000   0.47207193   -9.2024025    494.69082 0.0084579883 0.0062606195         3914 
 4875000   0.46886261   -9.1917787    494.64389  0.008455451 0.0062582789         3899 
 4876000   0.47716687    -9.189103    494.83309 0.0084569505 0.0062559413         3896 
 4877000   0.46933619   -9.1896732    494.36865 0.0084472807 0.0062536036         3901 
 4878000   0.47667855    -9.200942     494.8174 0.0084532151 0.0062512683         3908 
 4879000   0.47024633    -9.191904    494.52054 0.0084464123 0.0062489321         3885 
 4880000   0.46787591    -9.213078    494.37875   0.00844226 0.0062465976         3899 
 4881000   0.46749223   -9.1880163    495.08801 0.0084526396 0.0062442654         3892 
 4882000   0.47178424   -9.1971262    494.73509  0.008444884  0.006241935         3910 
 4883000   0.48577789   -9.1980848    494.57855 0.0084404831 0.0062396057         3910 
 4884000    0.4662109   -9.1965988    494.78998 0.0084423624 0.0062372773         3909 
 4885000   0.46224581   -9.2150127    494.15985 0.0084298849 0.0062349481         3887 
 4886000   0.46664455   -9.2065146    494.51105 0.0084341494 0.0062326192         3921 
 4887000   0.47541702   -9.2151139    494.76498 0.0084367536 0.0062302919         3893 
 4888000   0.46679709   -9.2000295    494.34721 0.0084279053 0.0062279679         3895 
 4889000   0.46983246   -9.2056489    494.74578 0.0084329751 0.0062256458         3907 
 4890000   0.47003266   -9.2006889     494.2585 0.0084229465 0.0062233233         3895 
 4891000   0.46913626   -9.2178819    494.91075 0.0084323375  0.006221001         3900 
 4892000   0.47473092   -9.1984343    495.63569 0.0084429629 0.0062186827         3902 
 4893000   0.46691791   -9.1927943    494.89444 0.0084286131 0.0062163646         3902 
 4894000   0.47160691   -9.2093334     494.1238 0.0084137686 0.0062140451         3919 
 4895000   0.47245384    -9.202027      494.213 0.0084135683   0.00621173         3920 
 4896000   0.47412443   -9.2056203    494.37832 0.0084146636 0.0062094147         3925 
 4897000   0.46683005   -9.2324852    495.36023 0.0084296546  0.006207101         3918 
 4898000   0.46108923   -9.1836216    494.86804 0.0084195598 0.0062047877         3909 
 4899000   0.46199907   -9.1930243    495.02892 0.0084205776 0.0062024765         3911 
 4900000   0.46730026   -9.1886936    495.53009 0.0084273825 0.0062001658         3922 
 4901000    0.4633043   -9.2041744     495.0081 0.0084167875 0.0061978571         3923 
 4902000   0.46636937    -9.202311    494.62412 0.0084085428 0.0061955512         3901 
 4903000   0.47307444   -9.2072107    494.10036 0.0083979257 0.0061932436         3894 
 4904000   0.46701136   -9.2055699    494.76783 0.0084075556 0.0061909374         3910 
 4905000   0.47926966    -9.213063    494.56954 0.0084024726 0.0061886323         3901 
 4906000   0.46679013   -9.1999907    494.34319 0.0083969152 0.0061863273         3906 
 4907000   0.45891619   -9.1904609    495.53016 0.0084153617 0.0061840249         3923 
 4908000   0.46787534   -9.2012829    495.22578 0.0084084791  0.006181723         3903 
 4909000   0.46545442   -9.2163729     495.0268 0.0084033883 0.0061794238         3883 
 4910000   0.47201748   -9.2148765    494.42979 0.0083915443 0.0061771245         3899 
 4911000   0.46834016   -9.2117017    494.31669 0.0083879165 0.0061748256         3911 
 4912000   0.46301731   -9.2241262    494.55145 0.0083901916 0.0061725283         3906 
 4913000   0.45971065   -9.2082891    494.23496 0.0083831156 0.0061702322         3899 
 4914000   0.46447951   -9.2020069     494.8335 0.0083915599 0.0061679379         3904 
 4915000   0.45830322   -9.2157834    495.27714 0.0083973743 0.0061656452         3906 
 4916000   0.47216741   -9.2208636    494.64032 0.0083848712  0.006163352         3899 
 4917000   0.46361898   -9.2095055    494.35513 0.0083783325 0.0061610603         3898 
 4918000   0.44937013   -9.2140497    494.64213  0.008381492 0.0061587694         3920 
 4919000   0.47739042   -9.1949077    495.71295 0.0083979289 0.0061564809         3902 
 4920000    0.4737261   -9.2113121    494.51752 0.0083759743 0.0061541938         3906 
 4921000   0.46302242   -9.2284052    494.85672 0.0083800162 0.0061519085         3925 
 4922000   0.45913449   -9.2051662    494.46237  0.008371637 0.0061496223         3900 
 4923000    0.4633393   -9.2118811     494.5861 0.0083720309 0.0061473397         3901 
 4924000   0.46780081     -9.22184    495.04265 0.0083780573 0.0061450581         3916 
 4925000   0.47145617   -9.2215914      494.714 0.0083707952 0.0061427757         3926 
 4926000   0.46923675   -9.2074149    494.50103 0.0083654931 0.0061404933         3898 
 4927000   0.45925954   -9.2329171    493.96415 0.0083547146 0.0061382154         3902 
 4928000    0.4602046   -9.2062949      493.752 0.0083494318 0.0061359348         3902 
 4929000   0.46784484   -9.2055093    494.77889 0.0083650993 0.0061336562         3915 
 4930000   0.45781267   -9.2162924     494.8499 0.0083646028 0.0061313798         3903 
 4931000   0.46336012   -9.2050337    494.45485 0.0083562302 0.0061291045         3899 
 4932000   0.46221433   -9.1947077    493.71348 0.0083420093 0.0061268308         3907 
 4933000   0.46215942   -9.2176306    494.32073 0.0083505766 0.0061245582         3916 
 4934000   0.46017022   -9.2135653    494.98851 0.0083601627  0.006122286         3901 
 4935000    0.4640854   -9.2165281    494.64865 0.0083527297 0.0061200154         3905 
 4936000   0.45125054   -9.2302737    495.22152  0.008360709  0.006117746         3887 
 4937000   0.46553694   -9.2080172    494.36217 0.0083445103 0.0061154764         3910 
 4938000   0.46610494   -9.2043685    495.04568 0.0083543553 0.0061132098         3900 
 4939000   0.47657211   -9.2197795    494.14911 0.0083375365 0.0061109434         3921 
 4940000   0.46191873   -9.2080507    494.01714 0.0083336225 0.0061086778         3900 
 4941000   0.46150897   -9.2061851    494.85521 0.0083460705 0.0061064133         3912 
 4942000   0.47155753   -9.2205625    494.18267 0.0083330412 0.0061041498         3916 
 4943000   0.45144425    -9.220665    494.55542 0.0083376394 0.0061018871         3911 
 4944000   0.46343241   -9.2289933    494.55569 0.0083359575 0.0060996267         3933 
 4945000   0.46927935   -9.1981064    494.19879 0.0083282574 0.0060973664         3900 
 4946000   0.47185226   -9.2239457    494.74562 0.0083357868 0.0060951091         3903 
 4947000   0.45920973   -9.2035942    494.56803 0.0083311103 0.0060928523         3903 
 4948000   0.45067003   -9.2112422    494.03005  0.008320366 0.0060905962         3917 
 4949000   0.45058281    -9.222829    493.93157 0.0083170265  0.006088341         3905 
 4950000   0.46254334   -9.2128404    494.42639 0.0083236766 0.0060860865         3915 
 4951000   0.45878655   -9.2209011    494.84997  0.008329125 0.0060838346         3900 
 4952000   0.45052356   -9.2195999    494.92998 0.0083287894 0.0060815823         3891 
 4953000   0.46964445   -9.2260119     494.5201 0.0083202117 0.0060793315         3895 
 4954000   0.46382314    -9.231444     493.6936 0.0083046293 0.0060770819         3907 
 4955000   0.46146093    -9.219305    494.17167 0.0083109934 0.0060748336         3914 
 4956000   0.45608486   -9.2093152    494.50679 0.0083149513 0.0060725853         3917 
 4957000   0.45988909   -9.2281686    494.43161 0.0083120101 0.0060703381         3907 
 4958000   0.46007918   -9.2082613    494.88106  0.008317888 0.0060680932         3899 
 4959000   0.44404346   -9.2167454    494.55265 0.0083106918 0.0060658486         3915 
 4960000   0.45229851   -9.2190276     494.2482 0.0083039013 0.0060636071         3901 
 4961000    0.4630429   -9.2275707    494.57028 0.0083076375 0.0060613655         3910 
 4962000   0.46177548    -9.211358     494.4245  0.008303515 0.0060591258         3905 
 4963000   0.46343623   -9.2164331    494.02061 0.0082950602 0.0060568857         3890 
 4964000   0.46675116   -9.2315204    494.31951  0.008298407 0.0060546475         3919 
 4965000   0.45463235   -9.2249746    494.87322 0.0083060292 0.0060524096         3891 
 4966000   0.45688002   -9.1945084    494.64266 0.0083004876 0.0060501736         3918 
 4967000   0.45854088   -9.2257856    494.63938 0.0082987615 0.0060479393         3909 
 4968000   0.45796867   -9.2206223    494.52249 0.0082951303 0.0060457051         3902 
 4969000   0.45959283   -9.2153465    494.50834 0.0082932237 0.0060434731         3897 
 4970000   0.45164411    -9.233121    494.88048 0.0082977947 0.0060412414         3918 
 4971000   0.45440073   -9.2106096    494.34087 0.0082870796 0.0060390109         3906 
 4972000   0.45845699   -9.2134811    494.35057 0.0082855754 0.0060367817         3922 
 4973000   0.46013047   -9.2236462    494.46521 0.0082858304 0.0060345539         3885 
 4974000   0.44728969   -9.2152232    494.22733  0.008280179 0.0060323266         3903 
 4975000   0.46273147   -9.2219354     493.9291 0.0082735193 0.0060301012         3902 
 4976000   0.46509035   -9.2182147     493.9215 0.0082717292 0.0060278763         3895 
 4977000   0.45590505   -9.2244996     493.6505 0.0082655297  0.006025653         3904 
 4978000   0.45363304   -9.2189047    494.26991 0.0082742386 0.0060234302         3905 
 4979000   0.46278966   -9.2160253    494.81244  0.008281657 0.0060212091         3897 
 4980000   0.45811384   -9.2103411    493.81465 0.0082632974 0.0060189887         3908 
 4981000   0.45104972   -9.2146217    494.29046 0.0082695988 0.0060167701         3902 
 4982000   0.44922858   -9.2264257    494.18873 0.0082662374 0.0060145517         3898 
 4983000   0.45796517    -9.233562    493.71892 0.0082567215 0.0060123361         3919 
 4984000   0.45905324   -9.2201288     494.5113 0.0082683136 0.0060101189         3908 
 4985000   0.45529285   -9.2268258    494.24357 0.0082621794 0.0060079026         3909 
 4986000   0.44491169   -9.2272529    493.89459 0.0082546895 0.0060056888         3914 
 4987000   0.45225202   -9.2291007    493.68991 0.0082496142 0.0060034762         3913 
 4988000   0.45460963   -9.2212186     493.4121  0.008243319 0.0060012646         3921 
 4989000   0.44638905   -9.2450312    494.07195 0.0082526885 0.0059990525         3913 
 4990000   0.44269284   -9.2211554    494.22606 0.0082536082 0.0059968444         3903 
 4991000    0.4426869   -9.2183945    494.13645 0.0082504584 0.0059946363         3902 
 4992000   0.44686467   -9.2476806    493.62125 0.0082402051  0.005992428         3907 
 4993000   0.45793021   -9.2315947    493.92881  0.008243688 0.0059902199         3914 
 4994000    0.4411571   -9.2259521    493.75162 0.0082390806 0.0059880134         3922 
 4995000   0.45017311   -9.2246582    494.27903 0.0082462301   0.00598581         3912 
 4996000    0.4479919   -9.2349051    493.97941 0.0082395818 0.0059836064         3918 
 4997000   0.44833441   -9.2351258    493.66882 0.0082327533 0.0059814051         3903 
 4998000   0.45608765   -9.2260963    494.14898 0.0082391119 0.0059792035         3909 
 4999000   0.44529818   -9.2301919    494.09093 0.0082364961 0.0059770057         3918 
 5000000   0.46118484    -9.231903    493.74653 0.0082291089 0.0059748077         3906 
 5001000   0.44688294   -9.2263799    494.16294 0.0082344021 0.0059726105         3900 
 5002000   0.45469271   -9.2247604    494.83698 0.0082439854 0.0059704129         3894 
 5003000   0.44520498   -9.2190288    494.06525 0.0082294831 0.0059682167         3909 
 5004000   0.45924448   -9.2331149    493.55946 0.0082194154 0.0059660232         3910 
 5005000   0.44587831   -9.2445193     494.7188 0.0082370763   0.00596383         3921 
 5006000    0.4525101   -9.2100391    494.47013 0.0082312913 0.0059616386         3912 
 5007000   0.44410734   -9.2107372      494.423 0.0082288629 0.0059594489         3904 
 5008000   0.45758455   -9.2237256      493.758 0.0082161542   0.00595726         3908 
 5009000   0.45742729   -9.2288693    493.48289  0.008209937 0.0059550724         3928 
 5010000   0.44652037   -9.2349222    493.66277 0.0082112902 0.0059528856         3909 
 5011000   0.45132926   -9.2240618    493.62149 0.0082089652 0.0059506982         3915 
 5012000   0.45179433   -9.2381578    493.75853 0.0082096058 0.0059485137         3911 
Loop time of 13140.6 on 48 procs for 5000000 steps with 4000 atoms

Performance: 65750.605 tau/day, 380.501 timesteps/s
99.4% CPU use with 48 MPI tasks x no OpenMP threads

MPI task timing breakdown:
Section |  min time  |  avg time  |  max time  |%varavg| %total
---------------------------------------------------------------
Pair    | 968.5      | 1110.1     | 1215.4     | 174.8 |  8.45
Neigh   | 93.838     | 98.369     | 102.23     |  18.8 |  0.75
Comm    | 816.59     | 938.92     | 1073.4     | 195.8 |  7.15
Output  | 18.738     | 18.743     | 18.84      |   0.3 |  0.14
Modify  | 10819      | 10856      | 10906      |  20.2 | 82.61
Other   |            | 118.4      |            |       |  0.90

Nlocal:        83.3333 ave          89 max          79 min
Histogram: 2 2 7 7 9 7 6 2 5 1
Nghost:        2462.83 ave        2480 max        2450 min
Histogram: 3 6 5 8 9 3 6 4 2 2
Neighs:        17113.0 ave       18965 max       15325 min
Histogram: 3 5 8 5 5 3 2 11 1 5
FullNghs:      34227.2 ave       36956 max       32213 min
Histogram: 3 4 8 8 6 8 6 3 1 1

Total # of neighbors = 1642907
Ave neighs/atom = 410.72675
Neighbor list builds = 266006
Dangerous builds = 0

#clear
#
#next RN
#
#jump SELF
Total wall time: 3:39:04
