
units lj                  # Use reduced LJ style units
atom_style atomic         # Uncharged point particles
atom_modify map hash      # Needed for indexing of clusters etc
                          # Used to be able to find where atoms are in relation to each other.

lattice fcc 1.0 spacing 1 1 1
Lattice spacing in x,y,z = 1.5874011 1.5874011 1.5874011
region box block 0 10 0 10 0 10 units lattice
create_box 2 box
Created orthogonal box = (0.0000000 0.0000000 0.0000000) to (15.874011 15.874011 15.874011)
  3 by 4 by 4 MPI processor grid
create_atoms 1 box
Created 4000 atoms
  using lattice units in orthogonal box = (0.0000000 0.0000000 0.0000000) to (15.874011 15.874011 15.874011)
  create_atoms CPU = 0.003 seconds
set type 1 type/fraction 2 0.01 78393
Setting atom values ...
  36 settings made for type/fraction
mass 1 1.0
mass 2 1.0
pair_style lj/cut  3.5
pair_modify tail  yes
pair_coeff 1  1  1.0  1.0   # Intearaction between 1 and 1 set with epsilon = 1 and sigma = 1
pair_coeff 1  2  1.5  0.8
pair_coeff 2  2  0.5  0.88

write_data data.0
System init for write_data ...
Neighbor list info ...
  update every 1 steps, delay 10 steps, check yes
  max neighbors/atom: 2000, page size: 100000
  master list distance cutoff = 3.8
  ghost atom cutoff = 3.8
  binsize = 1.9, bins = 9 9 9
  1 neighbor lists, perpetual/occasional/extra = 1 0 0
  (1) pair lj/cut, perpetual
      attributes: half, newton on
      pair build: half/bin/atomonly/newton
      stencil: half/bin/3d
      bin: standard
WARNING: Not all mixed pair coeffs generated from mixing. Use write_data with 'pair ij' option to store all pair coeffs. (../write_data.cpp:312)


#############################
#   M E L T   S Y S T E M   #
#############################

velocity all create 2.4 1741580 mom yes dist gaussian # Assign velocities
                                                    # Temperature 2.4, random number seed, zero linear momentum
                                                                                # Gaussian distribution

timestep 0.002   # simulation timestep
thermo 1000       # output thermodynamic data every 1000 steps bf 100

# Define a fix  in this case with index 1 applied to all
# particles in the simulation. This fix is for simulations
# in the anisotropic NPT ensemble. Note that we use the MTK
# correction.
fix 1 all npt temp 2.4 2.4 0.1 iso 5.68 5.68 0.5 mtk yes tchain 5 pchain 5 # Use NPT ensemble
                                                                         # Set temperature and pressure and damping
                                                                         # Numbers of thermostats in chain and in barostat
run 10000          # run for 10000 steps
Per MPI rank memory allocation (min/avg/max) = 3.642 | 3.644 | 3.648 Mbytes
Step Temp E_pair E_mol TotEng Press Volume 
       0          2.4   -8.3261558            0   -4.7270558   -2.3168672         4000 
    1000    2.3738716   -4.4736827            0  -0.91376546    5.5822516    5144.1573 
    2000    2.3487709   -4.4018865            0  -0.87961092    5.5824356    5192.0456 
    3000    2.3816923   -4.3492862            0  -0.77764087    5.6462201     5216.775 
    4000    2.4622038   -4.4275739            0  -0.73519157    5.7540519    5165.9572 
    5000    2.4507432   -4.4310279            0  -0.75583211    5.5846203     5184.219 
    6000    2.4357315   -4.3923007            0   -0.7396169    5.7653617    5183.6108 
    7000    2.3995684    -4.357742            0  -0.75928914    5.8965308    5189.6313 
    8000    2.3542698   -4.3831378            0  -0.85261603     5.786165    5170.2083 
    9000    2.4056821   -4.3894958            0  -0.78187487    5.7663311    5173.7236 
   10000    2.4078413    -4.433225            0  -0.82236608    5.6864925    5164.7527 
Loop time of 2.11575 on 48 procs for 10000 steps with 4000 atoms

Performance: 816730.337 tau/day, 4726.449 timesteps/s
99.6% CPU use with 48 MPI tasks x no OpenMP threads

MPI task timing breakdown:
Section |  min time  |  avg time  |  max time  |%varavg| %total
---------------------------------------------------------------
Pair    | 0.84613    | 0.9196     | 0.99964    |   3.0 | 43.46
Neigh   | 0.16966    | 0.17576    | 0.18998    |   1.0 |  8.31
Comm    | 0.62847    | 0.73451    | 0.81738    |   4.9 | 34.72
Output  | 0.00025256 | 0.00025708 | 0.00032682 |   0.0 |  0.01
Modify  | 0.22171    | 0.27121    | 0.32556    |   5.7 | 12.82
Other   |            | 0.01441    |            |       |  0.68

Nlocal:        83.3333 ave          90 max          74 min
Histogram: 1 2 3 6 3 7 10 4 11 1
Nghost:        1386.54 ave        1407 max        1361 min
Histogram: 4 1 2 7 6 6 6 6 6 4
Neighs:        7370.79 ave        8176 max        6166 min
Histogram: 1 1 3 4 5 6 12 8 3 5

Total # of neighbors = 353798
Ave neighs/atom = 88.449500
Neighbor list builds = 906
Dangerous builds = 210

# Equilibrate just above the melting temperature to avoid step fn in T

fix 1 all npt temp 1.25 1.25 0.1 iso 5.68 5.68 0.5 mtk yes tchain 5 pchain 5
run 2000
Per MPI rank memory allocation (min/avg/max) = 3.642 | 3.644 | 3.648 Mbytes
Step Temp E_pair E_mol TotEng Press Volume 
   10000    2.4078413    -4.433225            0  -0.82236608    5.6864925    5164.7527 
   11000    1.2589823   -5.8856967            0   -3.9976954    5.6006208    4317.2326 
   12000    1.2873716   -5.8671284            0   -3.9365538     5.495883    4331.3845 
Loop time of 0.467239 on 48 procs for 2000 steps with 4000 atoms

Performance: 739664.182 tau/day, 4280.464 timesteps/s
99.6% CPU use with 48 MPI tasks x no OpenMP threads

MPI task timing breakdown:
Section |  min time  |  avg time  |  max time  |%varavg| %total
---------------------------------------------------------------
Pair    | 0.19697    | 0.21374    | 0.24474    |   2.1 | 45.75
Neigh   | 0.030781   | 0.03226    | 0.036362   |   0.7 |  6.90
Comm    | 0.1392     | 0.16413    | 0.18029    |   2.6 | 35.13
Output  | 5.2884e-05 | 5.5013e-05 | 6.9918e-05 |   0.0 |  0.01
Modify  | 0.0397     | 0.052514   | 0.066796   |   3.5 | 11.24
Other   |            | 0.004539   |            |       |  0.97

Nlocal:        83.3333 ave          93 max          77 min
Histogram: 3 10 3 8 5 10 5 3 0 1
Nghost:        1552.42 ave        1572 max        1539 min
Histogram: 5 4 5 11 7 6 6 2 1 1
Neighs:        8791.23 ave       10041 max        8031 min
Histogram: 5 6 7 7 10 7 4 1 0 1

Total # of neighbors = 421979
Ave neighs/atom = 105.49475
Neighbor list builds = 140
Dangerous builds = 6

#############################
# L I N E A R  Q U E N C H  #
#############################

# Define solid atoms. This closely follows ten Wolde  Ruiz-Montero and Frenkel  Faraday Discuss  1996  104  93-110
# Compute components of the per-atom q6 vector
compute q6 all orientorder/atom degrees 1 6 components 6 nnn NULL cutoff 1.3 # compute the Q6 parameter.
                                                                             # Use all neighbours within 1.3 unit cell.

# get number of connections
compute coord_number all coord/atom orientorder q6 0.5

# An atom is solid if it has 8 or more connections (of a possible 14)
variable is_solid atom c_coord_number>=8
group solid dynamic all var is_solid    # Must be dynamic to update
dynamic group solid defined

# do clustering
compute cluster solid cluster/atom 1.3 # Create a cluster where all atoms within are solid and max 1.3 units from another member

# define chunks one chunk per cluster
compute clus_chunks solid chunk/atom c_cluster nchunk every compress yes  # Says which atoms are in which chunk

# count the size of each chunk
compute size_chunks solid property/chunk clus_chunks count


# Find the maximum entry in the vector of chunk sizes
variable max_n equal max(c_size_chunks)


# Thermo style which includes this variable
# thermo_style custom step temp pe vol v_max_n

thermo ${N}  # Print the thermo information every 100 steps
thermo 1000  

# Reset the npt fix at a lower temperature (below freezing)
fix 1  all npt temp  ${temp} ${temp}  0.1  iso  5.68  5.68  0.5  mtk yes tchain  5  pchain  5
fix 1  all npt temp  0.45 ${temp}  0.1  iso  5.68  5.68  0.5  mtk yes tchain  5  pchain  5
fix 1  all npt temp  0.45 0.45  0.1  iso  5.68  5.68  0.5  mtk yes tchain  5  pchain  5

dump dmp2 all dcd ${N} traj.dcd
dump dmp2 all dcd 1000 traj.dcd


compute msd all msd com yes
variable twopoint equal c_msd[4]/6/(step*dt+1.0e-6)
fix 9 all vector 10 c_msd[4]
variable fit equal slope(f_9)/6/(10*dt)
thermo_style custom step temp pe c_msd[4] v_twopoint v_fit v_max_n

fix 1 all npt temp 1.25 ${temp} 0.1 iso 5.68 5.68 0.5 mtk yes tchain 5 pchain 5
fix 1 all npt temp 1.25 0.45 0.1 iso 5.68 5.68 0.5 mtk yes tchain 5 pchain 5
run 5000000 # 5000000  # Run for this many steps
Neighbor list info ...
  update every 1 steps, delay 10 steps, check yes
  max neighbors/atom: 2000, page size: 100000
  master list distance cutoff = 3.8
  ghost atom cutoff = 3.8
  binsize = 1.9, bins = 9 9 9
  4 neighbor lists, perpetual/occasional/extra = 1 3 0
  (1) pair lj/cut, perpetual
      attributes: half, newton on
      pair build: half/bin/atomonly/newton
      stencil: half/bin/3d
      bin: standard
  (2) compute orientorder/atom, occasional
      attributes: full, newton on
      pair build: full/bin/atomonly
      stencil: full/bin/3d
      bin: standard
  (3) compute coord/atom, occasional
      attributes: full, newton on
      pair build: full/bin/atomonly
      stencil: full/bin/3d
      bin: standard
  (4) compute cluster/atom, occasional
      attributes: full, newton on
      pair build: full/bin/atomonly
      stencil: full/bin/3d
      bin: standard
Per MPI rank memory allocation (min/avg/max) = 9.730 | 9.733 | 9.738 Mbytes
Step Temp PotEng c_msd[4] v_twopoint v_fit v_max_n 
   12000    1.2873716   -5.8671284 8.3836193e-31 5.8219576e-33 8.3333333e+20            2 
   13000    1.2293867   -5.8473619   0.58187077 0.0037299407  0.048109358            4 
   14000    1.2323798   -5.8316208    1.0971147 0.0065304443   0.04507671            3 
   15000    1.2453059   -5.8650409    1.6375075 0.0090972636  0.044802782            7 
   16000    1.2613025   -5.8866166    2.1260035  0.011072934  0.044105692            3 
   17000    1.2540188   -5.8730715    2.7042809  0.013256279  0.044206885            3 
   18000    1.2477953   -5.8758472    3.2182342  0.014899232  0.044379054            2 
   19000    1.2439608   -5.8970412    3.8053449  0.016690109  0.044434501            5 
   20000    1.2379305   -5.8815666    4.3478887  0.018116202   0.04470552            2 
   21000    1.2436893   -5.8533277    5.0046985  0.019859914  0.045337376            3 
   22000    1.2564272   -5.8896712    5.5483161  0.021016349  0.045895057            3 
   23000     1.243353    -5.841751    6.1508192  0.022285576  0.046230178            1 
   24000    1.2598395   -5.8656018    6.7166672  0.023321761  0.046484299            3 
   25000    1.2368356   -5.8784965    7.2764138  0.024254712  0.046670379            2 
   26000    1.2539052   -5.9194498    7.8663757  0.025212742  0.046837491            5 
   27000    1.2458655   -5.8663775    8.3491714  0.025769047  0.046877454            3 
   28000     1.242319   -5.8530195    8.9174413  0.026540003  0.046787753            4 
   29000    1.2434959   -5.8908702    9.4922113  0.027276469  0.046828752            3 
   30000    1.2553921   -5.9056494    10.123846  0.028121795  0.046852456            4 
   31000    1.2607117   -5.8782698    10.722248  0.028823246  0.046978402            3 
   32000     1.246308   -5.8951792    11.320096  0.029479416  0.047125168            7 
   33000    1.2451115   -5.8651303    11.866264  0.029965314  0.047218184            2 
   34000     1.245282   -5.8629412     12.54326  0.030743285  0.047363505            2 
   35000    1.2595801   -5.8705698    13.138462  0.031282051  0.047490625            1 
   36000    1.2524271    -5.856302    13.680276  0.031667306  0.047612544            3 
   37000    1.2630616    -5.911036    14.255705  0.032107444    0.0476797            5 
   38000    1.2317426    -5.858567    14.746396  0.032338587  0.047714512            2 
   39000    1.2552867   -5.8792098     15.40314  0.032912691  0.047733051            4 
   40000    1.2344031   -5.8846409    15.971533  0.033274027  0.047775327            2 
   41000    1.2342535   -5.8842468    16.356657  0.033245237  0.047760603            3 
   42000    1.2764928   -5.8804665    16.860256  0.033452889  0.047682609            3 
   43000    1.2558233    -5.898255     17.30833  0.033543276  0.047555916            4 
   44000    1.2366094   -5.8761014    17.802719   0.03371727  0.047394295            2 
   45000    1.2643196   -5.8872005    18.381444  0.034039711   0.04726304            6 
   46000    1.2277488   -5.8509425    19.122725  0.034642617  0.047211194            5 
   47000    1.2224421   -5.8685363    19.758593  0.035032967  0.047210284            1 
   48000    1.2625216    -5.861335     20.18507  0.035043524   0.04717551            2 
   49000    1.2603806   -5.8797003    20.763595  0.035312237  0.047145041            2 
   50000    1.2331825   -5.8351448    21.331754  0.035552923   0.04710409            5 
   51000    1.2633064   -5.8567793    21.967613  0.035894792  0.047074082            3 
   52000     1.232409   -5.9043779       22.617  0.036245192  0.047076878            4 
   53000    1.2330849   -5.8599335    23.037347  0.036222244  0.047061904            2 
   54000    1.2435207   -5.8816703    23.462694  0.036207861  0.047008344            8 
   55000    1.2234952    -5.928573    24.100339  0.036515665  0.046968446            2 
   56000    1.2285249   -5.8955383    24.546723  0.036527862  0.046932261           11 
   57000    1.2477283   -5.9252386    25.075322  0.036659828  0.046891438            5 
   58000    1.2556266   -5.8997225    25.498889  0.036636335  0.046829949            5 
   59000    1.2596783   -5.9255364    26.091367  0.036852213  0.046763772            5 
   60000    1.2294926    -5.873459    26.599169  0.036943291  0.046703976            4 
   61000    1.2670149   -5.8648333    27.077546  0.036991183  0.046639546            5 
   62000    1.2255356   -5.8989619    27.619546  0.037123046  0.046570895            3 
   63000    1.2397565   -5.8805123    28.285185  0.037414265   0.04650863            3 
   64000    1.2490966   -5.8349398    28.796799  0.037495832  0.046462196            3 
   65000    1.2448381   -5.9107729     29.26701  0.037521807  0.046411765            2 
   66000    1.2321547   -5.8654268    29.692382  0.037490381  0.046350587            2 
   67000    1.2552504   -5.8807453    30.234577  0.037605195  0.046275909            3 
   68000      1.22649   -5.8914458    30.702277  0.037625339  0.046205134            2 
   69000     1.237992   -5.8964521    31.335727  0.037845081  0.046140631            5 
   70000    1.2379001   -5.8567225    31.962667  0.038050794  0.046079504            3 
   71000    1.2348219    -5.902452    32.638178   0.03830772  0.046052989            3 
   72000    1.2286197   -5.8901887    32.993071  0.038186425  0.046023599            4 
   73000    1.2164353   -5.8737263    33.550842  0.038300047  0.045981701            4 
   74000    1.2418437   -5.9373456    34.307349  0.038634402  0.045949768            2 
   75000    1.2563468   -5.9011327    34.922423  0.038802692   0.04594994            6 
   76000    1.2196364   -5.9008881    35.407473  0.038823984  0.045947546            2 
   77000    1.2122216   -5.8879969    35.951713   0.03890878  0.045936831            4 
   78000    1.2394338   -5.8489809    36.489148  0.038984132  0.045920461            2 
   79000    1.2540251   -5.8869509    37.130592  0.039167291  0.045909717            2 
   80000    1.2601307   -5.9131738     37.72181  0.039293552  0.045918322            3 
   81000    1.2511407   -5.8932006    38.220642  0.039321648  0.045922815            4 
   82000    1.2182879   -5.8938332    38.790439  0.039421178  0.045927476            3 
   83000    1.2573825   -5.9037638    39.421004  0.039579321  0.045935019            1 
   84000    1.2557825   -5.8970375     40.19844  0.039879404  0.045950801            6 
   85000    1.2403523   -5.8936571      40.6372  0.039840392  0.045972489            3 
   86000     1.233871   -5.8871934    41.264245  0.039984733  0.045991463            3 
   87000    1.2307318   -5.9334026     41.64938  0.039894042  0.046001574            5 
   88000    1.2322116   -5.8528845    42.304841  0.040061403  0.046007303            4 
   89000     1.238371   -5.8717149    43.006929   0.04026866  0.046026955            2 
   90000    1.2514986   -5.9251124    43.543164  0.040317744  0.046052868            8 
   91000    1.2471503   -5.8652258    44.389905  0.040650096  0.046087351            3 
   92000    1.2199769   -5.8943049    44.705139  0.040493785   0.04612401            2 
   93000     1.237516   -5.9065855    45.371008  0.040655025  0.046154844            3 
   94000    1.2357649   -5.8737927    45.890508  0.040683074  0.046180859            3 
   95000    1.2577828   -5.8735219    46.166241  0.040496702  0.046194942            5 
   96000    1.2194652   -5.8812469     46.60543  0.040456103  0.046197623            2 
   97000    1.2505624   -5.8517209    47.033571  0.040406848  0.046187943            3 
   98000    1.2437463   -5.9144899    47.344358  0.040258808  0.046173017            3 
   99000    1.2391351   -5.8728896    47.966499  0.040375841  0.046150852            3 
  100000    1.2447349   -5.9009238    48.567917  0.040473264  0.046129157            3 
  101000    1.2093135   -5.8844548    49.146871  0.040550224  0.046112087            3 
  102000    1.2383809   -5.9204201    49.404381  0.040363056  0.046095582            2 
  103000    1.2337243   -5.8832211     50.00735  0.040459021  0.046067488            4 
  104000    1.2614436   -5.8707205    50.780853  0.040689786  0.046045533            3 
  105000    1.2273135   -5.8734453    51.312618    0.0407243  0.046038658            2 
  106000    1.2404867   -5.8869798    51.729455   0.04066781  0.046023726            2 
  107000    1.2627177    -5.888302    52.193673  0.040649278  0.046000297            3 
  108000    1.2198458    -5.890371    52.786799  0.040730555  0.045975936            3 
  109000    1.2081247   -5.8942461    53.465036  0.040875409  0.045954359            4 
  110000    1.2141207   -5.9211769    53.581397  0.040591967  0.045935095            4 
  111000    1.2244806   -5.8890016    54.359524  0.040810454   0.04591705            2 
  112000    1.2502803   -5.9175941    54.488692  0.040542181  0.045891103            3 
  113000    1.2467799   -5.9257003    55.046586  0.040594827   0.04585616            3 
  114000    1.2508873   -5.9217178    55.574617   0.04062472  0.045822534            6 
  115000    1.2283353   -5.8935477    56.292289  0.040791513  0.045790437            9 
  116000    1.2216204   -5.9104683    56.606487   0.04066558  0.045764836            3 
  117000    1.2285579   -5.8656462    57.454255  0.040921834  0.045744965            3 
  118000    1.2374374   -5.8803927    57.873788  0.040871319  0.045721193            4 
  119000    1.2341885   -5.8766896     58.34363  0.040856884  0.045691896            4 
  120000    1.2224354   -5.8888692      58.8307  0.040854653   0.04566768            3 
  121000    1.2340874   -5.8875654    59.620477  0.041060935  0.045644705            3 
  122000    1.2242077   -5.9198592    59.680645  0.040765468  0.045615199            1 
  123000    1.2255796   -5.9102518    60.284832  0.040843382  0.045581867            4 
  124000    1.2059096    -5.922929    61.150101  0.041095498  0.045553086            5 
  125000    1.2350564   -5.9127739    61.347844  0.040898563  0.045527018            4 
  126000    1.2427731   -5.8724218    62.104482  0.041074392  0.045503122            2 
  127000    1.2436792   -5.8721394    63.172036  0.041451467  0.045490335            2 
  128000    1.2308446   -5.9374418    63.331961  0.041231746  0.045479999            2 
  129000    1.2198701   -5.8917127    63.482914  0.041009634  0.045462595            3 
  130000    1.2131474   -5.8891565    64.407919  0.041287128  0.045444808            3 
  131000    1.2300051   -5.8652079    64.773888  0.041204763  0.045425764            2 
  132000     1.208009   -5.9189449    65.313473  0.041233253  0.045406666            2 
  133000    1.2415581   -5.8998563    66.019304  0.041365478  0.045389257            2 
  134000    1.2383436   -5.9444271    66.497408  0.041354109  0.045381244            5 
  135000    1.1942219   -5.9080451    67.408598  0.041610246  0.045374338            2 
  136000    1.2382748     -5.87024     67.76751  0.041524209  0.045367572            4 
  137000    1.2282633   -5.8668586    68.154102  0.041456266  0.045356036            3 
  138000     1.205963   -5.9305844     68.50583  0.041368255  0.045341555            6 
  139000    1.2313767   -5.8682715     68.97106  0.041349556  0.045324078            3 
  140000    1.2299507   -5.9028671     69.37496  0.041294619  0.045305902            2 
  141000    1.2387098   -5.9034299    69.888964  0.041305534  0.045287903            5 
  142000     1.202265    -5.878619    70.429874  0.041332086  0.045269742            1 
  143000    1.2538747   -5.8969061    70.952064  0.041347357  0.045250435            4 
  144000    1.2280728   -5.9346782     71.49535  0.041374624  0.045231115            3 
  145000    1.2259868   -5.8715305     71.73815  0.041228822  0.045206885            3 
  146000    1.2221341   -5.8796473    72.522227  0.041393965  0.045185609            4 
  147000    1.2584639   -5.8982871    73.027985  0.041399084  0.045171734            2 
  148000    1.2203801   -5.8975388    74.040732  0.041689601  0.045160488            2 
  149000    1.2241225   -5.9003368    74.508321   0.04167132  0.045152642            4 
  150000    1.2454722   -5.8866888      74.9232     0.041624  0.045141493            6 
  151000    1.2499007   -5.9062235    75.812677  0.041839225   0.04513896            3 
  152000    1.2237941   -5.9345823    76.440924  0.041908401  0.045138412            3 
  153000    1.2239494   -5.9052608    76.842121  0.041853007  0.045141028            2 
  154000    1.2233389   -5.9070206    77.779141   0.04208828  0.045146257            5 
  155000      1.23286    -5.911273    78.202757  0.042044493  0.045151379            1 
  156000    1.2182869   -5.8896538    78.741918   0.04206299   0.04515522            2 
  157000    1.2480694   -5.9194447    79.071438  0.041969977  0.045157151            3 
  158000    1.2185443    -5.938975    80.044199  0.042217404  0.045158005            3 
  159000    1.2303557   -5.9089876    80.475423  0.042177895  0.045162522            3 
  160000    1.1953502   -5.9625998    80.907332  0.042139235  0.045169832            2 
  161000    1.2224352   -5.9194579    81.735788  0.042306308   0.04517517            8 
  162000    1.2437705   -5.8876263    82.156654  0.042261653  0.045181922            4 
  163000    1.2244743   -5.9239174    82.728823  0.042294899  0.045189182            5 
  164000    1.2499853   -5.9125273    83.140352  0.042246114  0.045196332            4 
  165000     1.224243   -5.8930161    83.464529  0.042153802  0.045197958            2 
  166000    1.2038446   -5.9216833    84.494821  0.042417079  0.045199525            4 
  167000    1.2022779   -5.9014509     84.63349  0.042232281  0.045199531            4 
  168000    1.2384765   -5.9483896    85.277554  0.042300374  0.045198262            6 
  169000    1.2157747   -5.9260442    85.798101  0.042306756  0.045198598            2 
  170000    1.2002173   -5.9342279    86.181708  0.042245935  0.045195887            3 
  171000    1.2181995   -5.8978451    86.716247   0.04225938  0.045191625            4 
  172000     1.237546   -5.8944625    86.946357  0.042125173  0.045188889            4 
  173000    1.2213527   -5.9390473    87.452258  0.042125365  0.045181446            3 
  174000    1.2198739   -5.9068046    88.093183  0.042190222  0.045172635            7 
  175000    1.2401147   -5.8744633     88.26685  0.042031833  0.045164016            6 
  176000    1.2405718   -5.8834583    88.990117  0.042135472  0.045154175            2 
  177000    1.2281276   -5.8734861    89.942871  0.042345985  0.045145396            5 
  178000    1.2076496   -5.8817807    90.193673  0.042225502  0.045139212            7 
  179000    1.2038814   -5.9236608    90.305599  0.042041713  0.045129471            2 
  180000    1.2415435   -5.9042324    90.707239  0.041994092  0.045117221            2 
  181000    1.2232968   -5.9221641    90.923694  0.041861737  0.045102795            2 
  182000    1.2110468   -5.8728165    92.317182  0.042269772  0.045088543            3 
  183000    1.2310583   -5.9303578    92.470188  0.042108464  0.045075784            4 
  184000    1.2244404   -5.8790323    92.810911  0.042033927  0.045061706            4 
  185000    1.2274489   -5.8943961    93.177899  0.041972026  0.045046263            5 
  186000    1.2252939   -5.9251429    93.453967  0.041870057  0.045026624            5 
  187000     1.199545   -5.8970472    94.060449  0.041916421  0.045005558            3 
  188000        1.229   -5.9419579     94.73863  0.041994073  0.044986449            4 
  189000    1.2147736   -5.9054497    94.913059  0.041848791  0.044965762            7 
  190000    1.1797615   -5.9333123    95.262442  0.041781773  0.044947056            2 
  191000    1.2191901   -5.9410653    95.821284  0.041806843  0.044926116            4 
  192000     1.225905   -5.9304557    96.351036  0.041819026  0.044904475            4 
  193000    1.2179244   -5.9432778    97.083834  0.041918754   0.04488608            2 
  194000    1.2176096   -5.9091716    97.133873  0.041724172  0.044867274            3 
  195000     1.257653   -5.9362971    97.813754  0.041800749  0.044846656            3 
  196000    1.2270756   -5.9117848    98.412541  0.041842067    0.0448268            4 
  197000    1.2272675   -5.9545338     98.67297  0.041739835  0.044805534            3 
  198000    1.2306626   -5.9430867     99.30364  0.041794461  0.044784287            4 
  199000    1.2167926   -5.9709948    100.14545  0.041936954  0.044765638           10 
  200000    1.2130457   -5.9038343    100.50292  0.041876218  0.044747283            5 
  201000    1.2402877   -5.9128937     100.8659  0.041818368  0.044728496            4 
  202000    1.2251297   -5.9591817    101.18637  0.041743551  0.044708019            3 
  203000     1.228019   -5.9389399    101.63676  0.041722807  0.044687185            5 
  204000    1.2375085   -5.8986429    102.09976  0.041707416  0.044666686            4 
  205000    1.2224866   -5.9249987    102.51866  0.041674254  0.044644076            2 
  206000    1.2247816   -5.9102355    103.24902  0.041767402  0.044620987            3 
  207000    1.2227394   -5.9248221    103.93463  0.041841637  0.044601159            4 
  208000     1.209953   -5.9124891    104.10351  0.041708136  0.044579935            5 
  209000    1.2307264   -5.9348019    104.82045  0.041794438  0.044559267            2 
  210000    1.2186252   -5.9111901    105.42795  0.041836489  0.044536851            3 
  211000    1.2022371   -5.9178117    105.54552  0.041684644  0.044515592            3 
  212000    1.2330362   -5.8998308    105.94343  0.041644431  0.044494677            4 
  213000    1.2261777   -5.9134928    107.01786  0.041869271   0.04447381            3 
  214000    1.2408797   -5.9411331    106.78344  0.041582336  0.044452926            3 
  215000    1.2334129    -5.909264    107.84113  0.041798887  0.044433458            3 
  216000    1.2303824   -5.9159621    108.33174  0.041794654  0.044415012            4 
  217000    1.2170508   -5.9316112    108.67253  0.041732921   0.04439291            4 
  218000    1.2162882   -5.9081078    109.00488  0.041668534  0.044373766            4 
  219000    1.2206567   -5.9670127    109.48911  0.041662524  0.044351484           10 
  220000    1.2294902   -5.9118968    109.88451   0.04162292  0.044330708            4 
  221000    1.2039654   -5.9151896    110.54948  0.041685323  0.044308711            5 
  222000    1.2054999   -5.9397866    110.67879  0.041546093    0.0442878            4 
  223000    1.2015176   -5.9374519    111.24833  0.041572619  0.044264679            5 
  224000    1.2077991   -5.9294778     111.7746  0.041582812  0.044240954            3 
  225000    1.1953875    -5.905652    112.56867  0.041692098  0.044220139            4 
  226000    1.1998014   -5.9461148    112.52458  0.041491364  0.044198115            5 
  227000    1.2206821   -5.9582952    113.25137  0.041575394  0.044175779            7 
  228000    1.2245323   -5.9392662    113.69801  0.041556291  0.044153122            3 
  229000    1.2182603   -5.9323683     114.1674  0.041545635  0.044129049            3 
  230000     1.224357   -5.9589858     114.3037  0.041414385  0.044102559            3 
  231000    1.2173501   -5.9242664    114.77896  0.041406552   0.04407719            8 
  232000    1.2778486   -5.9348038    115.44482   0.04146725  0.044052508            3 
  233000    1.2092993   -5.9521098    115.67481  0.041371533  0.044028291            2 
  234000    1.1931681    -5.921755    116.21622  0.041387544   0.04400167            3 
  235000    1.2145134   -5.9444674    116.36433  0.041263946  0.043975103            2 
  236000    1.2576572   -5.8906046    117.16878  0.041373158  0.043948367            5 
  237000    1.2162614   -5.9320594    117.33311  0.041256367  0.043921908            5 
  238000    1.2352843   -5.9352701    117.94931  0.041298778  0.043896253            3 
  239000    1.2243139   -5.9612336    118.35097  0.041266028  0.043870909            3 
  240000    1.2181672   -5.9301344      119.158  0.041374305  0.043844788            3 
  241000    1.2033669    -5.932249    119.54257  0.041335604  0.043820863            3 
  242000     1.200603   -5.9469878    119.97659  0.041314252  0.043798496            6 
  243000    1.2213322   -5.9395134    120.92131  0.041468214  0.043776213            2 
  244000     1.203468   -5.9445202    121.31552  0.041432896  0.043754875            4 
  245000    1.1969197   -5.9613119    122.07498  0.041522104  0.043736029            4 
  246000    1.1711492    -5.934271    122.36085  0.041450151  0.043718595            5 
  247000    1.2004931   -5.9333427    122.69527  0.041395164  0.043700135            2 
  248000     1.208346   -5.9611817    123.64875  0.041548639  0.043681239            3 
  249000    1.1927616   -5.9330118    124.85948  0.041786975  0.043665576            2 
  250000    1.1958638   -5.9315313     125.1739  0.041724633  0.043652274            3 
  251000    1.2082326   -5.9351443    125.24193  0.041580986  0.043637037            4 
  252000    1.2442601   -5.9283618    125.52997  0.041511233   0.04362226            3 
  253000    1.2144602   -5.9534183    126.05029  0.041518542  0.043606635            2 
  254000    1.1886174   -5.9281413      126.298  0.041436352  0.043591186            7 
  255000    1.2366779   -5.9377516    127.25453  0.041586449   0.04357476            4 
  256000    1.2070748   -5.9166701     127.9478  0.041649674  0.043561011            2 
  257000    1.2047795   -5.9675944    128.41056  0.041637666  0.043549203            2 
  258000    1.2073595   -5.9227473    129.36419    0.0417843  0.043537976            3 
  259000    1.1889025   -5.9273508    129.10245  0.041538756  0.043525494            1 
  260000    1.2146234   -5.9093014    129.04088  0.041359256   0.04351353            5 
  261000    1.2194918    -5.923191    130.27038  0.041593352  0.043499394            2 
  262000     1.229598   -5.9291778    130.50242  0.041508402  0.043482426            4 
  263000    1.2068034   -5.9558705    130.35597  0.041304171  0.043464992            3 
  264000    1.2229635   -5.9395691     131.3603   0.04146474  0.043447586            6 
  265000    1.1902595   -5.9303694    131.66524  0.041404165  0.043431577            4 
  266000    1.2197063   -5.9457277    131.94746  0.041336924   0.04341456            2 
  267000    1.2296272   -5.9297299    132.33652  0.041303532  0.043397957            3 
  268000    1.2080321   -5.9105106        133.3  0.041449005  0.043381783            3 
  269000    1.2048452   -5.9709926     133.5566  0.041374412  0.043365967            5 
  270000    1.2320328   -5.8933055    133.80086  0.041296562   0.04335082            3 
  271000    1.2059622   -5.9538694    134.57494  0.041382207  0.043335967            2 
  272000    1.2135793   -5.9662242    134.89401  0.041327822  0.043318323            4 
  273000    1.2135083   -5.9176649    135.42672  0.041339046   0.04330065            6 
  274000    1.2313085   -5.8831153    136.36373  0.041473155  0.043285221            3 
  275000    1.2417883   -5.9372989    136.66302  0.041413035  0.043270317            3 
  276000    1.2078002   -5.9381122    137.74267   0.04158897   0.04325909            4 
  277000    1.2207427   -5.9763237    138.09989  0.041546296  0.043248749            4 
  278000     1.196013   -5.9069168    139.25246  0.041742344  0.043238241            4 
  279000    1.2279774   -5.9623851    139.27345     0.041599  0.043229499            2 
  280000    1.2281134   -5.9470826    139.82014  0.041613137  0.043220535            5 
  281000    1.2177294   -5.9291858    140.33953  0.041619079  0.043211487            2 
  282000    1.2010334   -5.9415744    141.30118  0.041755667  0.043204498            2 
  283000     1.233695   -5.9521819    141.77815  0.041748573  0.043197599            6 
  284000    1.2000548    -5.965085    142.32398   0.04176173  0.043192278            2 
  285000    1.1944018   -5.9133804    143.34219  0.041912921  0.043187603            8 
  286000    1.2233277   -5.9548954    143.46561  0.041802333  0.043183901            3 
  287000     1.212319   -5.9441424     144.3581  0.041915823  0.043180288            6 
  288000    1.1945929   -5.9212928    145.11376  0.041988934  0.043177164            5 
  289000    1.2229846   -5.9595096    145.52507  0.041962246  0.043174254            3 
  290000    1.2085429   -5.9387688    145.92537  0.041932579  0.043172103            4 
  291000    1.2124373   -5.9088991    146.09323  0.041836548  0.043169623            6 
  292000    1.2025305   -5.9445587    146.57768   0.04183153  0.043164947            7 
  293000      1.19252   -5.9250297    147.06047  0.041826072  0.043158762            6 
  294000    1.1843238    -5.905769     147.5041  0.041809553  0.043153028            4 
  295000    1.2087324   -5.9614995    148.32582   0.04189995  0.043147347            3 
  296000    1.1722244   -5.9278505    148.77721  0.041885476  0.043141829            2 
  297000    1.1816236   -5.9516994    148.82337    0.0417574  0.043138194            5 
  298000    1.1949645   -5.9452187    150.11073  0.041977274  0.043134288            3 
  299000    1.1995645   -5.9798817    150.08294  0.041829137  0.043130042            2 
  300000    1.1993527   -5.9431863    150.28772   0.04174659   0.04312472            2 
  301000    1.1948512   -5.9764644    150.50056   0.04166682  0.043117146            3 
  302000    1.2099809   -5.9385483    151.08808  0.041690972  0.043108675            4 
  303000    1.1770789   -5.9942473    151.31072  0.041614609  0.043101117            4 
  304000     1.217769   -5.9619904    151.35319  0.041489362  0.043092101            6 
  305000    1.2171894   -5.8981827    153.02864  0.041811104  0.043083488            4 
  306000    1.2188886   -5.9735646    153.34456    0.0417605  0.043075952           11 
  307000    1.2095393   -5.9230616    153.85781  0.041763791  0.043067786            2 
  308000    1.1685188   -5.9611501    153.60387   0.04155949  0.043061089           12 
  309000    1.2048476   -5.9659236     154.5785  0.041687836  0.043054127           10 
  310000    1.2110939   -5.9881392    154.96886  0.041658296  0.043046024            7 
  311000    1.1728993   -5.9799887    155.09288  0.041557578   0.04303721            3 
  312000    1.1812316   -5.9101629    156.10851   0.04169565  0.043027848            2 
  313000    1.1705078   -5.9464002    156.49292  0.041664782  0.043019683            5 
  314000    1.1780388    -5.960836    156.11559  0.041431949  0.043010958            5 
  315000     1.183639   -5.9520448    157.22785   0.04159467   0.04300229            2 
  316000    1.1586819   -5.9322766    157.52989  0.041542693  0.042993537            4 
  317000    1.1886709   -5.9602391    158.21834  0.041592622  0.042984633            2 
  318000    1.1924096   -5.9613653    159.07775  0.041687042  0.042975129            5 
  319000    1.2084784   -5.9313744    159.16776  0.041579874  0.042966358            4 
  320000    1.2062902   -5.9498844    159.69192  0.041586436  0.042957085            6 
  321000    1.1987633   -5.9803292    160.57552  0.041686272  0.042949386            5 
  322000    1.1768386   -5.9779644    161.19897   0.04171816  0.042941794            5 
  323000    1.1750508   -5.9294564    161.59123  0.041690204  0.042934873            3 
  324000    1.1878319   -5.9811569    161.43346  0.041520951  0.042927021            2 
  325000    1.1923905   -5.9270175    161.42984  0.041392267  0.042917674            4 
  326000    1.2210786   -5.9761848    162.34487    0.0414992  0.042908942            7 
  327000    1.2045533   -5.9465946    163.26542  0.041606885  0.042901529            2 
  328000    1.2168086   -5.9577323    163.55429  0.041553426  0.042893611            6 
  329000    1.1948208   -5.9872563      164.101  0.041565603  0.042886164            2 
  330000    1.1915768   -5.9469419     164.4941  0.041538915   0.04287779            6 
  331000    1.2004022   -5.9699829    164.66853  0.041457335  0.042869391            2 
  332000    1.2121574   -5.9634364    166.14571  0.041703241  0.042861358            3 
  333000    1.2084311   -5.9708771     165.8052  0.041492792  0.042852805            2 
  334000    1.1955348   -5.9475299    165.79181  0.041365223  0.042842754           13 
  335000    1.1879381   -5.9345795    166.58136   0.04143815  0.042833752            3 
  336000    1.1926615   -5.9806345    166.97163  0.041411614  0.042825327            4 
  337000    1.1824058   -5.9770213    167.95753  0.041532524  0.042817341            3 
  338000    1.2110224   -5.9600435    168.88274  0.041637756  0.042811324            3 
  339000     1.211951   -5.9490723    169.54562  0.041677882  0.042805839            5 
  340000    1.2025189   -6.0096928    169.60377  0.041569552  0.042799065            4 
  341000    1.2082982   -5.9389695    169.92254  0.041525546  0.042792805            4 
  342000    1.2032833   -5.9602528    170.44962  0.041532559  0.042785636            3 
  343000    1.1657109   -5.9510707    171.06305  0.041560507   0.04277962            2 
  344000    1.2235061   -5.9737816    171.53484  0.041553982  0.042772736            3 
  345000    1.2169292   -5.9714911    172.58092  0.041686212    0.0427668            4 
  346000    1.2009334   -5.9736629     172.4807  0.041541595  0.042760095            2 
  347000     1.194374   -5.9390018    173.34584  0.041629645  0.042753147            5 
  348000    1.2257072    -6.000397    172.63666  0.041340196  0.042746571            7 
  349000    1.1897087   -5.9699835    174.16126  0.041585782  0.042739038            2 
  350000    1.2039206   -5.9720014     174.6006  0.041571571  0.042732093            5 
  351000    1.1884685   -5.9840908    174.76952  0.041493238  0.042725155            4 
  352000     1.217359   -5.9516949    175.91492  0.041646525  0.042717424            3 
  353000    1.1943786   -5.9708883    175.70164  0.041478197  0.042709189            2 
  354000    1.1983181   -5.9736987    177.06468  0.041681892  0.042703459            2 
  355000    1.2214529   -5.9487854    176.87071  0.041518946  0.042698223            7 
  356000    1.1813561   -5.9918021    177.87201  0.041636706  0.042692819            3 
  357000    1.1932745   -5.9954925    178.29637  0.041619133  0.042687393            8 
  358000    1.1937674   -5.9753332    178.41664  0.041530875  0.042680517            4 
  359000    1.2116347   -5.9983894    178.94835  0.041538614  0.042673213            3 
  360000    1.2075159   -5.9789866    179.10836   0.04146027  0.042665232            2 
  361000    1.1589085   -5.9425773    180.51965  0.041671202  0.042658334            4 
  362000    1.1930751   -5.9329091    180.77354  0.041614534   0.04265147            3 
  363000    1.1940092   -5.9750016    180.78588  0.041502727  0.042645186            9 
  364000    1.1750207   -5.9852627     180.9947  0.041436515  0.042638623            7 
  365000    1.1994113   -5.9945753    182.20586  0.041599512  0.042633633            6 
  366000    1.1849973     -5.95808    182.82022  0.041625734  0.042628751            3 
  367000    1.1875129   -5.9526969    183.88026  0.041753011  0.042624106            4 
  368000     1.174335    -5.996284     184.1323  0.041696626   0.04262044            4 
  369000    1.2010827   -5.9671689    184.16526   0.04159107   0.04261607            3 
  370000    1.2342105   -5.9549574    185.44098  0.041765986  0.042612352            5 
  371000    1.1906129   -5.9646242    185.96177  0.041770388  0.042609309            3 
  372000    1.1806087   -6.0048488    185.42381  0.041537592  0.042604789            4 
  373000    1.1956651   -5.9706821    186.00007  0.041554975  0.042598788            4 
  374000    1.2100501   -5.9278563    186.92939  0.041650933  0.042593775            2 
  375000    1.1783581   -5.9774538    187.44389  0.041654198  0.042589626            3 
  376000    1.2048601   -5.9855098    188.80534  0.041845154  0.042585757            6 
  377000    1.1845966     -5.96427    189.05857  0.041790134  0.042583616            2 
  378000    1.2181809   -5.9735751    189.31811  0.041736797  0.042580858            3 
  379000     1.181039   -5.9899874    189.21692  0.041604425  0.042577876            4 
  380000    1.1733783   -5.9740486    190.44312  0.041763842  0.042574507            5 
  381000    1.1920707   -5.9753891    190.45864   0.04165762  0.042571835            4 
  382000    1.2037939   -5.9367981    191.28378  0.041728572   0.04256948            3 
  383000    1.1746438   -5.9513853    192.00476  0.041776492  0.042565754            4 
  384000    1.1909984    -5.998478    192.00307  0.041667334  0.042562644            4 
  385000    1.1847344   -5.9677757    193.03102  0.041781606  0.042560658            4 
  386000    1.1956975    -5.938141    193.74863  0.041828289  0.042559784            2 
  387000    1.1873847   -5.9794396    193.96431  0.041766648  0.042559684            3 
  388000    1.1784278     -5.98732    194.50702  0.041775563  0.042558531            4 
  389000    1.2050261   -5.9559515    196.23403  0.042038138  0.042558964            3 
  390000    1.1887776   -5.9627931    196.47799  0.041982477   0.04255993            3 
  391000     1.216443   -5.9660714    197.84201  0.042165816  0.042561827            2 
  392000    1.2129123   -5.9467345    197.59791  0.042006359  0.042562977            4 
  393000    1.1895033   -5.9464029    197.90399  0.041964374  0.042563607            4 
  394000     1.186365   -5.9689158    198.02031  0.041882468   0.04256301            4 
  395000     1.187329   -5.9935011    197.60755  0.041689356  0.042561539            5 
  396000    1.2106087   -5.9643861    199.09065  0.041896181  0.042559785            6 
  397000    1.1985502   -5.9630321    199.52104  0.041880992  0.042557433            2 
  398000    1.1836229   -5.9823875    199.85432  0.041845543  0.042555082            3 
  399000    1.2122171   -5.9755393     199.9724   0.04176533  0.042553791            2 
  400000    1.1658169   -5.9692207    200.73055  0.041818864  0.042551729            2 
  401000    1.1899787   -5.9990937    201.68342  0.041912598  0.042550235            5 
  402000    1.1808907   -5.9468198     201.4181  0.041753337  0.042547802            2 
  403000     1.190326   -5.9271407    201.63562  0.041694711  0.042544928            2 
  404000    1.1841856   -5.9694037    202.38803  0.041746706  0.042542287            2 
  405000    1.1763786   -5.9996434    202.61579  0.041690492  0.042540003            4 
  406000    1.2013342   -6.0234119    202.73561  0.041612399  0.042538094            2 
  407000    1.1639283   -5.9935144    204.18724   0.04180738  0.042535956            3 
  408000    1.2199005    -6.004661    204.60276  0.041789779  0.042534725            3 
  409000    1.2100803   -5.9485536     206.0529  0.041983068  0.042532863            4 
  410000    1.1835356   -5.9302252    205.56658  0.041781826   0.04253074            4 
  411000    1.1660848   -5.9643899    205.51269   0.04166924  0.042528611            7 
  412000    1.1735878   -6.0058826    205.56605  0.041578894  0.042525185            7 
  413000    1.1756514   -5.9851419    206.54622  0.041675993   0.04252126            2 
  414000    1.1991433   -5.9550263    207.67106  0.041801744   0.04251764           10 
  415000    1.1842756    -5.956386    207.69161  0.041705142  0.042515112            3 
  416000    1.1289913   -5.9827592    208.22353  0.041711444  0.042513522            2 
  417000    1.1698108   -5.9211913    209.09087  0.041784747  0.042511021            3 
  418000    1.1945625   -6.0266502    208.77266  0.041621343  0.042508699            5 
  419000     1.202492   -5.9810569    209.82354  0.041731014  0.042505268            5 
  420000    1.1851856    -5.944454    210.92643  0.041850481  0.042502736            2 
  421000    1.2024341   -5.9535555    211.29864   0.04182475   0.04250098            4 
  422000     1.216941   -5.9892759    211.46545  0.041758579  0.042499333            5 
  423000    1.1857551       -6.008    211.64554  0.041695339  0.042496895            2 
  424000    1.2014093   -5.9763529    212.71108  0.041806424  0.042494936            3 
  425000    1.2190574   -6.0185182    212.78581  0.041722707  0.042492135            7 
  426000    1.1896192   -5.9605684    213.19672  0.041705148  0.042489409            5 
  427000    1.1678142   -5.9832828    213.40035  0.041647219  0.042486317            4 
  428000    1.1698555   -6.0123737    214.90747  0.041843354  0.042483914            3 
  429000    1.1698412   -6.0115767    214.95442  0.041754938  0.042481797            4 
  430000    1.1858951   -5.9758391    216.48599   0.04195465  0.042479567            4 
  431000    1.1685544   -5.9843217    215.71222  0.041707699  0.042478055            4 
  432000    1.1722399   -5.9686572    216.85891  0.041832352  0.042476609            4 
  433000    1.2070348   -6.0010441     217.1343   0.04178874  0.042476375            4 
  434000    1.1775762   -6.0394453    218.20739    0.0418985  0.042476443            5 
  435000    1.1742894   -5.9524206    218.75948  0.041907946  0.042476151            3 
  436000    1.1969009    -5.995776    218.71695  0.041803698  0.042475945            6 
  437000    1.1779279   -5.9967861    218.66876  0.041698847  0.042474771            3 
  438000    1.1841033   -5.9812235    220.56957   0.04196529  0.042473515            2 
  439000    1.1960796   -5.9668291    220.04324  0.041769788   0.04247202            1 
  440000    1.1724534   -5.9867051    220.67294  0.041794118  0.042469886            3 
  441000      1.18891   -6.0337574    221.31251  0.041820202  0.042468111            2 
  442000    1.2044289   -5.9935795    220.87178  0.041642493  0.042466599            6 
  443000    1.1932216   -6.0144557    222.23047  0.041804077  0.042464301            3 
  444000    1.1829326   -5.9469744    223.06202  0.041865995  0.042462792            2 
  445000    1.1663306   -5.9972382    223.45358   0.04184524  0.042460818            8 
  446000      1.15633   -6.0280762    222.26162  0.041528703  0.042457516            3 
  447000    1.1876245   -5.9461473    224.31139  0.041817932  0.042454972            3 
  448000    1.1588199   -6.0369494    223.54424  0.041581889  0.042452422            2 
  449000    1.1667795    -6.016796    224.72041  0.041707574  0.042449534            5 
  450000    1.1764584   -5.9896274    224.99496  0.041665733  0.042446667            4 
  451000    1.1837193   -5.9660098    226.39151  0.041831395  0.042444867            5 
  452000    1.1917792   -5.9720291    226.63591  0.041783906  0.042442606            3 
  453000    1.1454614   -5.9809173    227.10671  0.041778276  0.042441753            3 
  454000    1.1544013   -5.9761319    227.90149  0.041832139  0.042440466            2 
  455000    1.1764272   -5.9614583    228.16219  0.041787947   0.04243944            6 
  456000    1.1729371   -5.9694533     229.0172  0.041852559  0.042437958            4 
  457000     1.163742   -6.0126253    229.10154  0.041776356  0.042436146            4 
  458000    1.1738321   -5.9956801    229.65456  0.041785764  0.042433662            6 
  459000    1.1742554   -5.9779976    229.93612  0.041745846  0.042431414            3 
  460000    1.1571365   -6.0156236    230.15736  0.041695173  0.042428974            4 
  461000    1.1841191   -5.9899879    230.46844  0.041660962  0.042425878            7 
  462000    1.1960435   -5.9636522    231.47234  0.041751866  0.042423291            4 
  463000    1.1973783   -5.9811055    230.95771  0.041569062   0.04242045            4 
  464000    1.1919065   -5.9701472    232.36835  0.041732822  0.042416863            4 
  465000    1.1868618   -6.0049877    232.36953  0.041643284    0.0424141            3 
  466000    1.1853672   -5.9690453    232.77828  0.041627017  0.042411352            3 
  467000    1.1885834    -5.985798    233.72548  0.041706902  0.042408875            3 
  468000    1.1701306   -5.9804981    233.68881  0.041611256  0.042405856            4 
  469000    1.1397245    -6.035469    233.78166   0.04153903  0.042402071            3 
  470000    1.1871317   -6.0150246    235.72734  0.041795628  0.042398883            3 
  471000    1.1825759   -5.9730178    236.41931  0.041829319   0.04239641            6 
  472000    1.1734464   -5.9528939    236.76473  0.041801682  0.042394034            5 
  473000    1.1717825   -6.0076041     235.6549  0.041517777   0.04239128            5 
  474000    1.1705003   -6.0391356    237.12761  0.041689102  0.042387802            5 
  475000    1.1452685   -6.0097368    237.32934  0.041636726  0.042384559            5 
  476000    1.1563114   -5.9890699    237.78014  0.041628176  0.042381422            3 
  477000    1.1578633   -5.9967438    238.06523  0.041590712  0.042378386            4 
  478000     1.204088   -6.0177586    239.13023   0.04168937  0.042374993            4 
  479000    1.1765544   -6.0259141    239.38065  0.041645904  0.042371831            4 
  480000    1.1733037   -6.0316722    239.53562  0.041586045   0.04236849            7 
  481000    1.1644833   -6.0134368    240.63058   0.04168929  0.042364883            7 
  482000    1.1724956   -5.9798737    241.38716  0.041733602    0.0423622            7 
  483000    1.1957465   -5.9824905    240.76275  0.041539468  0.042358444            4 
  484000    1.1862739    -6.024364    240.45344  0.041400385  0.042354236            4 
  485000     1.167896   -6.0198365     242.9132  0.041737663  0.042350465            3 
  486000     1.156824    -6.002997    242.39149  0.041562327  0.042345784            3 
  487000    1.2167154   -5.9810428    242.52791  0.041500326  0.042341164            3 
  488000    1.1879375    -5.994262    242.61265  0.041429755  0.042335802            6 
  489000    1.1543595   -5.9699135    242.56177  0.041336361  0.042330017            4 
  490000    1.2036704    -6.005856    243.56178  0.041422072  0.042323862            2 
  491000     1.128367   -6.0023125    243.82462  0.041382318  0.042317908            5 
  492000    1.1642967   -6.0030461    244.45907  0.041405669  0.042311534            2 
  493000    1.1811524   -6.0086002    244.90038  0.041396278  0.042305571            3 
  494000    1.1534255   -5.9457341    246.03446  0.041503789  0.042299896            8 
  495000    1.1396384   -6.0320791    245.62439  0.041350908  0.042293282            6 
  496000    1.1623242   -5.9830114    246.47601   0.04141062  0.042287297            4 
  497000    1.1759051    -6.019117    246.19068  0.041279456  0.042281475           14 
  498000    1.1628208    -6.037601    248.63345   0.04160533  0.042275689            3 
  499000    1.1832973   -6.0115713    247.91525  0.041402013  0.042270069            2 
  500000    1.1656023   -6.0151544    248.02653  0.041337756  0.042264222            3 
  501000    1.1724171     -6.00016    248.28447  0.041298148  0.042258181            2 
  502000    1.1689338   -6.0169814    248.94511   0.04132555  0.042252172            7 
  503000     1.179489   -5.9663391    249.81347  0.041387255  0.042246512            2 
  504000    1.1567967    -6.015089    249.22889   0.04120848  0.042240499            3 
  505000    1.1732227   -5.9779009    250.54913   0.04134474  0.042234402            2 
  506000    1.1431125   -5.9972731    251.25798  0.041379773  0.042228241            4 
  507000    1.1854248   -6.0289957     250.9438  0.041246516  0.042221329            4 
  508000    1.1870857   -6.0226455    251.21791  0.041210287  0.042214658            3 
  509000    1.1605877   -5.9900435    251.71448  0.041210621  0.042208375            4 
  510000    1.1693145   -6.0352334     252.6841  0.041288251  0.042201547            3 
  511000    1.1778882   -5.9621908    253.08989  0.041273629  0.042194751            4 
  512000    1.1596996   -6.0133011    253.34978  0.041235316  0.042188227            2 
  513000    1.1695884   -6.0259866    253.60892   0.04119703  0.042181469            4 
  514000    1.1701323   -6.0401358    253.85838  0.041157325  0.042173801            6 
  515000    1.1612353   -5.9773189    254.38175  0.041162095  0.042166408            2 
  516000    1.1901843   -5.9898801    254.02236  0.041024282  0.042158566            3 
  517000    1.1643518   -5.9981184    255.59621  0.041198616  0.042150814            8 
  518000    1.1643573   -6.0215922    256.41402  0.041250647  0.042142698            5 
  519000    1.1576109   -6.0459301    256.91145  0.041251035  0.042135248            4 
  520000     1.189447   -5.9862641    256.96276  0.041179929  0.042127899            6 
  521000    1.1517321    -5.992955    256.83218  0.041080003   0.04212047            4 
  522000    1.1712906   -6.0270426    258.19697  0.041219184  0.042112887            4 
  523000    1.1624951   -5.9775938    258.92496  0.041256366  0.042106191            3 
  524000    1.1698382   -6.0302425    258.33686  0.041084105  0.042099172            5 
  525000    1.1591331   -6.0024446     258.4429  0.041022683  0.042092034            3 
  526000     1.164559    -6.041036    259.07672  0.041045107   0.04208478            7 
  527000    1.1832168   -6.0180203    260.06017  0.041122734   0.04207753            7 
  528000    1.1761728   -5.9898901    259.41045  0.040942305  0.042070484            3 
  529000    1.1868893   -6.0036365    261.55852  0.041203296  0.042063415            2 
  530000    1.1751583   -6.0424161    261.63428  0.041137466  0.042056208            4 
  531000    1.1708603   -6.0226315    262.61946  0.041214605  0.042050386            3 
  532000    1.1825714   -6.0108833    262.92413  0.041184857  0.042044284            2 
  533000    1.1680288   -6.0076434    263.39821  0.041181709  0.042037351            5 
  534000    1.1656365   -6.0153806    264.11089  0.041215807   0.04203064            2 
  535000    1.1600447   -6.0094834    264.52888  0.041203875  0.042023551            4 
  536000    1.1727985   -6.0030794    264.74984  0.041161355  0.042017369            3 
  537000    1.1789932   -6.0602023    265.12842  0.041143455  0.042010825            7 
  538000    1.1595131   -5.9985114    265.57457  0.041136086  0.042003606            3 
  539000    1.1716432   -5.9881642    266.58972  0.041216715  0.041997135            8 
  540000    1.1921704   -6.0039677    266.07781   0.04106139   0.04199024            6 
  541000    1.1454341   -6.0196848    267.03011  0.041132179  0.041983317            2 
  542000    1.1663591   -5.9943104     267.8006  0.041174754  0.041976698            3 
  543000    1.1646957   -6.0152518    267.70482  0.041084227  0.041970098            2 
  544000    1.1595792   -6.0776971    267.82119  0.041026531  0.041962695            2 
  545000    1.1635899   -6.0228512    267.79249  0.040946864  0.041955086            7 
  546000    1.1807956   -6.0052043    270.40935  0.041271269  0.041947688            4 
  547000    1.1820622   -5.9431529    270.34062  0.041185347  0.041942384            3 
  548000    1.1657694   -6.0052809    271.54411  0.041293204  0.041937754            4 
  549000    1.1681578   -6.0192862    271.18327  0.041163216  0.041932429            6 
  550000    1.1521769    -5.982629    272.03122  0.041216851  0.041927459            6 
  551000    1.1401948    -6.013786    271.64278    0.0410833  0.041922089            3 
  552000    1.1312622   -6.0066563    273.24404  0.041250611  0.041916249            4 
  553000    1.1719241   -6.0413379    273.14181   0.04116061  0.041910256            3 
  554000    1.1390098   -6.0496395    273.67932  0.041167166  0.041904749            6 
  555000    1.1585645   -6.0042688    274.50359  0.041216756  0.041899843            2 
  556000    1.1640354   -6.0267914    275.33303  0.041266941  0.041894788            4 
  557000    1.1746526   -6.0149612    275.09344  0.041157008  0.041889874            3 
  558000    1.1506175   -6.0435835    275.61992  0.041161876  0.041884873            3 
  559000    1.1356246   -6.0315419    275.19315   0.04102462  0.041878986            2 
  560000    1.1467508    -6.013707    276.67983  0.041172594  0.041872806            4 
  561000    1.1709707   -6.0020711    277.03923  0.041152589  0.041866202            4 
  562000    1.1530351   -6.0465087    276.24188  0.040961132  0.041859343            2 
  563000    1.1676759   -6.0533408    276.37945   0.04090874   0.04185189            7 
  564000    1.1449078   -6.0004873    277.55431  0.041009798  0.041844717            4 
  565000    1.1651323   -6.0160328    278.38139  0.041059202  0.041838244            4 
  566000    1.1793124   -5.9580247    277.72459  0.040889958  0.041831358            4 
  567000    1.1508559   -6.0172223    278.11888  0.040875791  0.041824185            2 
  568000    1.1674347   -6.0073909    279.32653  0.040981004  0.041816738            5 
  569000    1.1563934   -6.0349509    279.18536  0.040888307  0.041809522            6 
  570000    1.1600401   -6.0265762    280.21666  0.040967349   0.04180191            7 
  571000     1.177914   -6.0145772    278.79347  0.040687896  0.041793955            3 
  572000    1.1492177   -6.0288486     280.5119  0.040867118   0.04178567            4 
  573000    1.1721444   -6.0094228    281.03138  0.040871346   0.04177747            2 
  574000    1.1753377   -6.0170497    280.84556  0.040773165   0.04176984            5 
  575000     1.117871   -6.0342324    282.06722  0.040879307  0.041762134            2 
  576000    1.1569628   -5.9902737    282.50326  0.040871421  0.041753907            5 
  577000     1.160964   -6.0193504    281.98917  0.040726339  0.041745987            5 
  578000    1.1577861   -6.0388869     282.7708  0.040768569  0.041737632            6 
  579000    1.1651184   -6.0061665    282.65476  0.040681456  0.041729322            2 
  580000    1.1605763   -6.0172215    283.69853  0.040761283  0.041720794            5 
  581000    1.1689714    -6.046644    284.79428   0.04084829  0.041712304            4 
  582000    1.1816295   -6.0661503     283.9412  0.040655956   0.04170334            4 
  583000    1.1385661   -6.0516292    284.06935  0.040604538  0.041694762            4 
  584000    1.1536401   -5.9813286    285.14298   0.04068821  0.041685677            3 
  585000    1.1542762   -6.0222789    285.74588  0.040704541  0.041677222            3 
  586000    1.1544637   -6.0397684    285.41238  0.040587653  0.041668662            3 
  587000    1.1501842   -6.0363893    285.26512  0.040497603  0.041659503            3 
  588000    1.1664488   -6.0306381    286.76289  0.040640999  0.041649577            3 
  589000    1.1372747   -6.0432463    286.65395  0.040556586  0.041639851            1 
  590000    1.1518322   -5.9786483    288.41377  0.040736408  0.041630514            3 
  591000    1.1547376   -6.0402199    286.70944  0.040427164  0.041620953            3 
  592000    1.1611687   -6.0711431    287.94138  0.040532289  0.041611209            6 
  593000    1.1320507   -5.9970304    288.44954  0.040535348  0.041601536            5 
  594000    1.2005264   -6.0620209    289.19443  0.040571609  0.041592005            4 
  595000     1.183378   -5.9982412    290.01531  0.040618391  0.041582575            2 
  596000    1.1527748    -6.008748    289.61716  0.040494569  0.041572782            5 
  597000    1.1495154   -6.0277988    290.31358  0.040523951  0.041563846            4 
  598000    1.1411689   -6.0255512    291.36597  0.040602838   0.04155469            5 
  599000    1.1220715    -6.009528    291.59137  0.040566412  0.041545052            4 
  600000    1.1551638   -6.0112816    292.49379  0.040624137  0.041535009            3 
  601000     1.154495   -6.0525282    292.77378  0.040595366  0.041526024            5 
  602000    1.1557469   -6.0659587    292.29028  0.040461002  0.041516149            5 
  603000    1.1594643   -6.0056514    293.48191  0.040558584  0.041506458            5 
  604000    1.1252107   -6.0417298    293.85068  0.040542313  0.041497737           13 
  605000    1.1495258   -6.0324862    293.90691  0.040483045  0.041488729            6 
  606000    1.1695797   -6.0367198    294.25267  0.040463788  0.041479723            5 
  607000    1.1589947   -6.0071482    296.45444  0.040699402  0.041471163            6 
  608000    1.1476877   -6.0564798    295.97961  0.040567381  0.041462472            2 
  609000    1.1616051    -6.018525    295.52166  0.040438103  0.041452971            6 
  610000    1.1488772   -6.0541319    295.96727  0.040432687  0.041443968            3 
  611000    1.1438552   -6.0404607     295.6136  0.040318276  0.041434784            5 
  612000    1.1488904    -6.014353    296.93261  0.040432001  0.041425219            3 
  613000     1.166105   -6.0421946    297.00748  0.040376221  0.041415597            5 
  614000    1.1885883   -6.0342531    297.87509  0.040428215  0.041405938            3 
  615000    1.1583983   -6.0014507    298.15762  0.040400761  0.041396482            7 
  616000    1.1455469   -6.0258037    298.60125  0.040395191  0.041386444            4 
  617000    1.1655012   -6.0699024    298.53629  0.040320947  0.041376379            5 
  618000    1.1398923   -6.0358871     298.3712  0.040233441  0.041366237            2 
  619000    1.1390076   -6.0163895    298.60644  0.040200113  0.041355892            4 
  620000     1.137291    -6.023825    299.85195  0.040302681  0.041345782            5 
  621000    1.1576731   -6.0251163    300.24886  0.040291043  0.041335737            6 
  622000    1.1292138   -6.0457794    300.32749  0.040236803   0.04132532            3 
  623000    1.1438507   -6.0373548    300.70112  0.040222194  0.041314925            3 
  624000    1.1826467   -6.0140322    301.31685  0.040239964  0.041304602            8 
  625000    1.1759225   -6.0070172    302.39461  0.040319282  0.041294557            6 
  626000    1.1477787   -6.0251126     302.5668  0.040277795  0.041284317            3 
  627000    1.1534959     -6.02547    303.10473  0.040285052  0.041274179            4 
  628000    1.1447537   -6.0622123    303.10958  0.040221547  0.041264228            5 
  629000    1.1450863   -6.0211642    303.04046  0.040148444  0.041253984            4 
  630000    1.1747626   -6.0588861    301.94734  0.039940124  0.041243095            4 
  631000    1.1418422   -6.0047517    303.75804  0.040115959  0.041232285            6 
  632000     1.168325   -6.0198247    303.93214  0.040075441  0.041221538            3 
  633000    1.1501117   -6.0532477     305.0407   0.04015807  0.041210752            4 
  634000     1.163193    -6.056959    305.61263  0.040169904  0.041199422            2 
  635000    1.1896393   -6.0257605    305.71989   0.04012072  0.041188781            3 
  636000    1.1469636   -6.0439187    305.72991  0.040058951  0.041178025            3 
  637000    1.1431383   -6.0092007    307.52487  0.040230884  0.041167544            8 
  638000    1.1746527   -6.0239828    306.69527  0.040059465  0.041156919            6 
  639000    1.1645989   -6.0694798    307.41621  0.040090795  0.041146471            3 
  640000     1.171931    -6.048864    308.06949  0.040113215  0.041136097            6 
  641000    1.1519728   -6.0507337    308.89027  0.040157341  0.041125964            8 
  642000    1.1571846   -6.0545062    309.32294  0.040150953  0.041115925            3 
  643000    1.1372658   -6.0282684    309.29545  0.040084946  0.041105943            3 
  644000    1.1600126   -6.0479396    309.09849  0.039997216  0.041096167            4 
  645000    1.1493673   -6.0575971    309.40129  0.039974327  0.041085716            6 
  646000    1.1581642   -6.0302447    310.16832  0.040011393  0.041074925            2 
  647000    1.1646522   -6.0103888     311.3373  0.040100117  0.041064288            8 
  648000    1.1602856    -6.045595    311.63056  0.040075946  0.041053982            5 
  649000    1.1403379   -6.0443816     311.2999  0.039971738  0.041043031            4 
  650000    1.1364124   -6.0174483    313.05612    0.0401354  0.041032171            3 
  651000    1.1648281   -6.0832483    312.16039  0.039959087  0.041021834            4 
  652000    1.1748443     -6.05773    313.33193  0.040047537  0.041010953            3 
  653000      1.14973   -6.0529787    313.05794  0.039951243  0.041000467            5 
  654000    1.1250824   -6.0309192    314.76289  0.040107402  0.040990236            2 
  655000    1.1508194   -6.0750256    313.38985  0.039871483  0.040980035           13 
  656000    1.1486764   -6.0441365     313.4021  0.039812259  0.040968855            5 
  657000    1.1404124   -6.0612264    314.69774  0.039915999  0.040957625            3 
  658000    1.1399298   -6.0617045    314.73766  0.039860392  0.040946546            3 
  659000    1.1465168   -6.0357078    314.73908  0.039800086  0.040935881            6 
  660000    1.1235744   -6.0370792    316.55014  0.039968452  0.040925232            9 
  661000    1.1560688    -6.027292    315.96362  0.039834042  0.040914192            4 
  662000     1.162127   -6.0654309    317.44303    0.0399601  0.040902686            3 
  663000    1.1250198   -6.0717824    317.58187  0.039917279  0.040891906            4 
  664000    1.1617776   -6.0427111    317.16299  0.039804592  0.040881443            3 
  665000    1.1467597   -6.0607694    317.42176  0.039777162    0.0408706            4 
  666000    1.1409405   -6.0676341    318.54462  0.039857935  0.040860064            2 
  667000    1.1502311   -6.0739676    318.60081  0.039805199  0.040849602           14 
  668000    1.1426012   -6.0351695    319.63046  0.039874059  0.040839232            4 
  669000    1.1147375   -6.0285012    320.17924  0.039882815   0.04082892            3 
  670000    1.1696392   -6.0415209    321.41305  0.039976748  0.040819138            2 
  671000    1.1279821   -6.0623403    321.13519  0.039882661   0.04080928            4 
  672000    1.1338021   -6.0517269    321.97161  0.039927035  0.040799412            3 
  673000    1.1096423   -6.0392301    323.09126  0.040006347  0.040789915            4 
  674000    1.1308593   -6.0154575    323.32095  0.039975389  0.040780875            2 
  675000    1.1498213   -6.0735045     324.3899  0.040048136  0.040771524            4 
  676000    1.1078911   -6.0720459    323.88563   0.03992673  0.040762892            4 
  677000    1.1317014   -6.0147841     324.1653  0.039902178   0.04075418            6 
  678000    1.1637797   -6.0477862    324.44935  0.039878239  0.040745041            7 
  679000    1.1298691   -6.0164394     325.5162  0.039950442  0.040736141            4 
  680000    1.1625192    -6.045626    325.20147  0.039853122  0.040727151            4 
  681000    1.1483925    -6.061544    325.82752  0.039871209  0.040718547            6 
  682000    1.1562918   -6.0252741    326.85248  0.039937987  0.040710347            4 
  683000    1.1197416   -6.0581239    327.79763   0.03999483  0.040702128            4 
  684000    1.1376165   -6.0095295    327.51651  0.039902109  0.040693803           11 
  685000    1.1460584   -6.0563095      328.088  0.039913382  0.040685047            5 
  686000    1.1337626   -6.0686992    328.77795  0.039939012  0.040676427            5 
  687000     1.164838   -6.0495194    329.62502  0.039983626  0.040668019            3 
  688000    1.1582862   -6.0861393     329.0663  0.039857837  0.040660249            6 
  689000    1.1509307   -6.0613063    330.16086  0.039932373  0.040651671            6 
  690000    1.1283437   -6.0921582    328.97871  0.039731729  0.040643022            2 
  691000    1.1259777   -6.0748129    329.53321  0.039741101  0.040633678            4 
  692000    1.1579774   -6.0677552    330.47724  0.039797356  0.040624553            5 
  693000    1.1798282   -6.0628328    330.57559  0.039751755  0.040615089            3 
  694000    1.1458794   -6.0062852    331.02627  0.039748592  0.040606205            2 
  695000    1.1330876   -6.0621892    332.17632  0.039829295  0.040597505            7 
  696000      1.14094   -6.0539968    332.49467  0.039810185  0.040588709            3 
  697000     1.161482   -6.0480615    332.37201  0.039738403  0.040579652            5 
  698000    1.1716816   -6.0257954    333.10322  0.039768771  0.040570674            9 
  699000    1.1408773   -6.0792282    333.64068  0.039775952  0.040561433            4 
  700000    1.1340181   -6.0190757      333.568  0.039710477  0.040552086            4 
  701000    1.1468993   -6.0845583    332.24207  0.039496205  0.040541956            4 
  702000    1.1304615   -6.0441451    334.17946  0.039669927  0.040531662            4 
  703000    1.1512826   -6.0701145    334.30941  0.039628902  0.040521955            2 
  704000    1.1063767   -6.0749544    334.38951  0.039582092  0.040512374            3 
  705000    1.1146275    -6.039637    336.05049   0.03972228  0.040502718            5 
  706000    1.1346223    -6.043268    337.07313  0.039786724  0.040493973           11 
  707000    1.1435878    -6.062509    336.64448  0.039679925  0.040485323            5 
  708000    1.1569507   -6.0592778    337.15464  0.039683927  0.040476292            2 
  709000    1.1298375   -6.0439757    336.46992  0.039547476  0.040466941            9 
  710000    1.1478803   -6.0474938    336.83353  0.039534452  0.040457263            6 
  711000    1.1387272   -6.0368832    337.36786  0.039541475  0.040447051            4 
  712000    1.1574024   -6.0346293    337.91338  0.039549787  0.040436583            6 
  713000    1.1449309   -6.0329545    338.32666   0.03954262  0.040426303            3 
  714000    1.1622268   -6.0065542    338.82276   0.03954514  0.040416007            3 
  715000    1.1337032   -6.0815391    338.13966  0.039410216  0.040405558            4 
  716000    1.1238934    -6.030431    339.14731  0.039472452  0.040394661            4 
  717000    1.1316826   -6.0803662    337.83184   0.03926451  0.040384069            7 
  718000    1.1158772   -6.0658187    339.53513  0.039407513  0.040373436            3 
  719000    1.1165025   -6.0715281    340.49857  0.039464368  0.040362818            5 
  720000    1.1310061   -6.0213404    340.17125  0.039371672  0.040352173            5 
  721000    1.1270365   -6.0521741    341.70901    0.0394948   0.04034189            5 
  722000    1.1534606   -6.0525663    340.85115  0.039341083  0.040331488            3 
  723000    1.1346436   -6.0708903    341.90229  0.039407825  0.040321192            3 
  724000    1.1186764   -6.0485077    343.15596  0.039497693  0.040310943            5 
  725000    1.1337532   -6.0598866    342.50319  0.039368183  0.040301192            3 
  726000    1.1394292   -6.0545247    343.12412  0.039385229  0.040291283            5 
  727000    1.1161728   -6.0512778    344.22889  0.039457691  0.040281334            6 
  728000    1.1570697   -6.0473246    344.77391  0.039465878  0.040271473            5 
  729000    1.1247161   -6.0853971    345.11989  0.039451291  0.040261636            6 
  730000    1.1240731   -6.0517383    344.43335  0.039318876  0.040251613            4 
  731000    1.1281233   -6.0546331    345.50936  0.039387752  0.040240983            4 
  732000    1.1397063   -6.0688724    344.89236  0.039263703  0.040230499            3 
  733000    1.1418278   -6.0611453    346.76056  0.039422528  0.040220576            3 
  734000    1.1492958   -6.0551366    346.80135  0.039373451  0.040210933            4 
  735000    1.1610202   -6.0536349    347.47803  0.039396602  0.040201303            3 
  736000    1.1277763   -6.0795404    346.62078  0.039246012  0.040191324            4 
  737000    1.1576059    -6.081713    347.69026  0.039313688  0.040181068            8 
  738000    1.1065242   -6.0620572    347.42325  0.039230268  0.040170758            6 
  739000    1.1363405   -6.0674902    349.55844  0.039417957   0.04016055            2 
  740000     1.132227   -6.0905111    349.58286  0.039367439  0.040150397            3 
  741000    1.1393983    -6.058555    350.16962  0.039380299  0.040140636            3 
  742000    1.1073118   -6.0273293    351.57366  0.039484912  0.040130937            7 
  743000    1.1345992   -6.0793584     349.8977  0.039243798  0.040121531            3 
  744000    1.1425779   -6.0793766      350.521  0.039260865  0.040111154            3 
  745000    1.1382297    -6.074516    351.28549  0.039293679  0.040101211            5 
  746000    1.1690593   -6.1025844    350.88627  0.039196411  0.040090853            3 
  747000    1.1344028   -6.0761137    351.62481  0.039226329  0.040080364            5 
  748000    1.1297136   -6.0817701    352.21687  0.039239847  0.040070249            2 
  749000    1.1084098   -6.0828916    352.31249  0.039198097  0.040060206            4 
  750000    1.1281806   -6.0567632    352.16832  0.039129813  0.040050084            3 
  751000    1.1262958   -6.0468222    352.34109  0.039096881  0.040039826            9 
  752000    1.1370237   -6.0726745    353.29632  0.039150745  0.040029345            3 
  753000    1.1208939   -6.0606224    353.65324  0.039138251  0.040018677            4 
  754000    1.1251323   -6.0941082    352.47759  0.038956409  0.040007812            6 
  755000    1.1305672    -6.095801    354.08547  0.039082282  0.039997025            4 
  756000    1.1435312   -6.0414925    354.58994  0.039086192  0.039986339            4 
  757000     1.145826   -6.0726685    354.21053  0.038992793  0.039975908            8 
  758000    1.1425816    -6.070623    356.02305  0.039140616  0.039965285            4 
  759000    1.1439547   -6.0824644    355.48102  0.039029537  0.039954686            5 
  760000    1.1250516   -6.0965407    354.99975  0.038925411  0.039943643            2 
  761000    1.1158132   -6.1116315    356.28646  0.039015162  0.039932694            3 
  762000     1.112823   -6.0818009    357.58092  0.039105525  0.039921756            3 
  763000    1.1610481   -6.0732353     357.1813  0.039010627  0.039910435            4 
  764000    1.1537569   -6.0766773    357.98198    0.0390469  0.039899517            4 
  765000    1.1200309     -6.05784    357.47885  0.038941051  0.039888553            2 
  766000    1.1285618   -6.0583729    357.57117  0.038900257  0.039878092            6 
  767000    1.1508406   -6.0804218    358.86802  0.038990441  0.039867874            3 
  768000    1.1285408    -6.078497    358.19833  0.038867006  0.039857291            2 
  769000    1.1447461    -6.072786    360.54296  0.039070542  0.039846649            3 
  770000     1.146347   -6.1049717     358.6128  0.038810909  0.039836041            5 
  771000    1.1470032   -6.1063056    359.76185  0.038884766   0.03982504            7 
  772000    1.1272383   -6.0862995    359.57852  0.038814607  0.039814327            4 
  773000    1.1132918   -6.0900099    360.33154  0.038845574  0.039803753            8 
  774000    1.1204305   -6.0466043    362.00758  0.038975838  0.039793185            3 
  775000    1.1205731   -6.0889179    362.86458  0.039017697   0.03978283            4 
  776000    1.1693901   -6.0751959    362.50734  0.038929053  0.039772221            5 
  777000    1.1466747   -6.0921569    361.76418  0.038799247  0.039761681            4 
  778000    1.1381535   -6.0696063    363.95228  0.038983749  0.039751275            5 
  779000    1.1203227   -6.0601055    363.64652  0.038900997  0.039741111           10 
  780000     1.098714   -6.1051092    363.66043   0.03885261  0.039730488            2 
  781000     1.148527   -6.0918653    364.43372  0.038885373  0.039720136            9 
  782000    1.1199723   -6.0440506     365.5853  0.038958365  0.039710188            5 
  783000    1.1069056   -6.0518184    365.95292  0.038947735  0.039700179            5 
  784000     1.134178   -6.0999404     364.8751  0.038783493  0.039689811            3 
  785000    1.1031338   -6.0540552    366.09549   0.03886364  0.039679402            2 
  786000    1.1479111   -6.0572292    366.45827  0.038852658  0.039669398            5 
  787000     1.119744   -6.0782871    367.97796  0.038964206  0.039659086            6 
  788000    1.1330279   -6.0963495     366.5586  0.038764658  0.039648833            3 
  789000    1.1203396     -6.08206    367.00901  0.038763098   0.03963857            8 
  790000    1.1300364    -6.098751    368.30725  0.038850976  0.039628171            4 
  791000    1.1427131   -6.0782416    369.46803   0.03892415  0.039617966            4 
  792000      1.13936   -6.0613164    369.92895  0.038923501  0.039607689            2 
  793000      1.14092   -6.0712714    368.66985  0.038742103    0.0395975            5 
  794000    1.1357316   -6.0995602    368.86174  0.038713449   0.03958731            4 
  795000    1.1241882   -6.0742398    369.20787  0.038701034  0.039577088            3 
  796000    1.1358622   -6.0710879    370.59945    0.0387981  0.039566758            4 
  797000    1.1390971   -6.0558089    371.47814  0.038841295  0.039556693            3 
  798000    1.1094307   -6.0673509    371.12685  0.038755936  0.039546741            4 
  799000    1.1306641    -6.074712    371.26197  0.038721524  0.039536465            4 
  800000    1.1169455   -6.0783663    372.43595  0.038795411  0.039526205            6 
  801000    1.1430333    -6.122923    371.21042  0.038619478  0.039515921            4 
  802000    1.1525615    -6.105076    371.47994  0.038599329  0.039505424            8 
  803000     1.143919   -6.1091335    373.17714  0.038727391  0.039495162            3 
  804000    1.1536336    -6.100951    373.40669  0.038703015   0.03948492            5 
  805000    1.0913351   -6.0742965    373.25603   0.03863934  0.039474554            4 
  806000    1.1220669   -6.1011704    373.16166  0.038581644  0.039463881            7 
  807000    1.1167098   -6.0365105     374.1199  0.038632786  0.039453462            5 
  808000    1.1350764   -6.0706383     375.4708  0.038724298  0.039442973            5 
  809000    1.1155197   -6.0755332    375.29474  0.038658296  0.039432431            4 
  810000    1.1308357   -6.1035537    375.21192  0.038602049  0.039421744            4 
  811000    1.1161577   -6.0592404     375.3344  0.038567037  0.039411481            3 
  812000    1.1169439   -6.1060414    376.37096   0.03862592  0.039401668            2 
  813000    1.1141189   -6.0900604    376.67044  0.038609106  0.039391632            6 
  814000    1.1277079   -6.1060127    378.03154  0.038701018  0.039381637            5 
  815000    1.1286845   -6.0941978    378.67571  0.038719398  0.039372187            7 
  816000    1.1227612   -6.1063232    378.67117  0.038671484  0.039362769            4 
  817000    1.1086337   -6.1101167    378.68928  0.038625998  0.039353232            5 
  818000    1.1185335   -6.0896077    378.72729  0.038582649  0.039343775            8 
  819000    1.1298719   -6.1037293    379.71052  0.038635584  0.039333956            3 
  820000    1.1244153   -6.1108777    381.01382  0.038720917  0.039324313            4 
  821000    1.1320037     -6.06405    381.62594  0.038735885  0.039315032            5 
  822000    1.0962569   -6.0795547    381.75428  0.038701772  0.039305989            4 
  823000    1.1215668   -6.1292478      379.928  0.038469826  0.039296613            4 
  824000    1.1087691   -6.0935577    382.01438   0.03863414  0.039287376            4 
  825000    1.1260717   -6.1275841    382.47245  0.038633581   0.03927809            2 
  826000    1.1229332   -6.1000538    383.31089  0.038671397  0.039268959            3 
  827000    1.1195494   -6.0819714    383.05689  0.038599042   0.03925989            3 
  828000    1.1264254   -6.0857899    383.53893  0.038600939  0.039250788            5 
  829000    1.1256923   -6.1163814    384.93829  0.038695044  0.039241807            5 
  830000    1.1120561   -6.0841911    385.23068  0.038677779  0.039233314            4 
  831000    1.1463933   -6.0940695    386.72939  0.038781527   0.03922503            4 
  832000    1.0992344   -6.1087335    386.43306  0.038705235  0.039216627            4 
  833000    1.1027658   -6.0690544     387.8998  0.038805502  0.039208287            4 
  834000    1.1119872   -6.1267474    386.62722  0.038631816  0.039199758            3 
  835000    1.1159591   -6.1014298    387.70696  0.038693309  0.039191499            5 
  836000    1.1022349   -6.0673617     388.1982  0.038695993  0.039183094            5 
  837000    1.1394842   -6.0783304    388.70571   0.03870029  0.039174954            3 
  838000    1.1189065   -6.1111812    388.20782  0.038604597  0.039166731            5 
  839000    1.1029093   -6.1281524    389.33948  0.038670985  0.039158208            5 
  840000     1.125817    -6.085899    388.99779  0.038591051  0.039149688            3 
  841000    1.1379394    -6.090573    389.82846  0.038627473  0.039141391            3 
  842000    1.1325869   -6.1097815    390.77635  0.038675411  0.039132927            7 
  843000    1.0981895   -6.0979454    389.03992   0.03845788  0.039124375            4 
  844000     1.109231   -6.0842054    391.89694  0.038694405  0.039115624            2 
  845000    1.1073615   -6.0760221    390.50807  0.038511644   0.03910713            6 
  846000    1.1039149   -6.1257916    390.67674  0.038482736   0.03909845            5 
  847000    1.1254798   -6.1012826    391.71068  0.038539027  0.039089899            3 
  848000    1.1148035   -6.0793656     391.6274  0.038485397  0.039081137            3 
  849000    1.1452013   -6.1159799    391.93705  0.038470461  0.039072327            7 
  850000    1.1110446    -6.124368     392.3409  0.038464794  0.039063504            2 
  851000    1.1212264    -6.116734    393.10038  0.038493966   0.03905471            3 
  852000    1.1129968   -6.0790721    393.59941  0.038497595  0.039045634            5 
  853000    1.1087789   -6.0823702     393.7734   0.03846946  0.039036552            4 
  854000    1.1252343   -6.0909147    394.31098  0.038476872  0.039027456            3 
  855000    1.1312262   -6.0853693    392.91615  0.038295921  0.039018588            6 
  856000    1.1376042   -6.0885504    393.96445  0.038353237  0.039009582            5 
  857000    1.1006935   -6.1083562    395.08456  0.038417402  0.039000458            2 
  858000    1.1000686   -6.0897016       395.18  0.038381896  0.038991266            3 
  859000    1.1329479   -6.0949107    394.86556   0.03830671  0.038982048            3 
  860000    1.1293841    -6.098251    395.70765  0.038343765  0.038972589            6 
  861000    1.1362697    -6.109469    394.53135   0.03818538  0.038962912            8 
  862000    1.1289799   -6.1184135    397.50443  0.038428503  0.038953471            3 
  863000    1.1027384   -6.1308918    396.97755  0.038333097  0.038944128            5 
  864000    1.1027215    -6.114554    396.77156  0.038268862  0.038934889            2 
  865000    1.1134559   -6.1486399    397.89681  0.038333026  0.038925709            2 
  866000    1.0968224   -6.1238194    397.93192   0.03829214  0.038916553            3 
  867000    1.1066049   -6.1031726    398.94024   0.03834489  0.038907393            9 
  868000    1.1268037   -6.1198532     398.9205  0.038298819   0.03889822            5 
  869000    1.1368763   -6.1334901    398.29286  0.038194559  0.038888398            9 
  870000    1.1235837   -6.0746348     400.2645  0.038339512  0.038878911            3 
  871000    1.0974938   -6.1258989    398.96861  0.038171509  0.038869658            2 
  872000    1.1136983   -6.1096782    400.09847   0.03823571  0.038860116            3 
  873000     1.109407   -6.0958444    398.98192   0.03808533  0.038850633            4 
  874000    1.1180365   -6.0765589    400.78921  0.038214074  0.038841118            5 
  875000    1.1138059    -6.106822    400.62247  0.038154521  0.038831587            6 
  876000    1.1053855   -6.1166865    401.75908   0.03821909  0.038821923            4 
  877000    1.1220682   -6.1135694    402.67241  0.038262296  0.038812258            4 
  878000    1.1045411   -6.1261677    402.72678  0.038223878   0.03880283            5 
  879000    1.1118917   -6.0893202    402.16994  0.038127602   0.03879303            8 
  880000    1.1269426   -6.1127761    403.04259  0.038166912  0.038783521            7 
  881000    1.1261737   -6.0882557    403.99317  0.038213504  0.038773969            4 
  882000    1.1098986   -6.1028828    404.97302  0.038262757  0.038764648            2 
  883000    1.1379746   -6.1032613     403.9545  0.038123301  0.038755209            5 
  884000    1.1100518   -6.0560808    406.04466  0.038277211   0.03874625            4 
  885000    1.1091841   -6.1374784      405.257  0.038159793  0.038737236           11 
  886000    1.0999059    -6.123969    405.10342  0.038102278   0.03872792            4 
  887000    1.1133923   -6.1654413    405.75745  0.038120767  0.038718644            4 
  888000    1.1298767    -6.091479    405.76882  0.038078906  0.038709224           10 
  889000    1.0979166   -6.1685475    406.10885  0.038067946  0.038699826            7 
  890000    1.1362081    -6.069319    408.13174  0.038214583  0.038690879            5 
  891000    1.1046124    -6.093052    409.18548  0.038270247   0.03868196            2 
  892000    1.1042914   -6.1327114    407.15096  0.038037272  0.038672759            8 
  893000    1.1265139   -6.1086427    409.01363  0.038168498  0.038663496            3 
  894000    1.1214538   -6.1130527    408.94087  0.038119023  0.038654272            4 
  895000    1.1319572   -6.1645726    408.47158  0.038032735  0.038644892            7 
  896000    1.0816884   -6.0679567    408.77686  0.038018682  0.038635795            2 
  897000    1.0851716   -6.1343801    409.15685  0.038011598  0.038626607            8 
  898000    1.1166887   -6.1212156    409.73358   0.03802279  0.038617525            5 
  899000    1.1162289   -6.1281599    410.25437   0.03802877  0.038608108            6 
  900000    1.1042341   -6.1178959    410.84986  0.038041654  0.038599101            4 
  901000    1.1030431   -6.1361593    409.84425  0.037906424  0.038589732            5 
  902000    1.1178917   -6.1334347    411.13662  0.037983797  0.038580493            9 
  903000     1.106827   -6.1248883    411.38691  0.037964831  0.038571121            7 
  904000    1.1079194   -6.1338494    412.13418   0.03799172  0.038562079           12 
  905000    1.1102912   -6.0921836    413.58032  0.038082903  0.038552797            3 
  906000    1.1087742   -6.1003901    411.44667  0.037844616  0.038543586            4 
  907000    1.1016439   -6.1308003    413.72775  0.038012472  0.038534643            4 
  908000    1.0821985   -6.1040164    414.93209  0.038081139  0.038525993            6 
  909000    1.0942706   -6.1421874    413.43224  0.037901745   0.03851726            4 
  910000     1.111203   -6.1460237    414.19927  0.037930336  0.038508502            3 
  911000    1.1265615   -6.0864515     414.7386  0.037938035  0.038499246           10 
  912000    1.0842356   -6.1347032    415.41058  0.037957839  0.038490001           15 
  913000     1.109649   -6.1238817    415.10408  0.037888288  0.038480883            4 
  914000    1.1105083   -6.0849644    415.87924   0.03791751  0.038471647            5 
  915000    1.1024486   -6.1026915    417.08812  0.037986168  0.038462699            4 
  916000    1.0878255   -6.1364146    416.21029  0.037864837  0.038453751            5 
  917000    1.1014202   -6.1354136    416.05292  0.037809244  0.038444612            4 
  918000    1.1031853   -6.1118974    418.21372  0.037964208  0.038435592            4 
  919000    1.0993218   -6.1368143    415.84047  0.037707696  0.038426428            4 
  920000      1.11421    -6.099476    419.22028  0.037972851  0.038417495            4 
  921000    1.1178882   -6.1490858    419.09339   0.03792014  0.038408692            3 
  922000    1.1050914   -6.1452812    418.63379  0.037837472  0.038399835            3 
  923000     1.104533   -6.1360475    419.68066  0.037890995  0.038390964            5 
  924000    1.0930851   -6.1295472    420.07788  0.037885812  0.038382236            2 
  925000    1.0939771   -6.0928315    420.85428    0.0379148  0.038373416            3 
  926000    1.1360701   -6.1244191    421.53456  0.037935076  0.038364725            3 
  927000    1.0788963   -6.1535071    421.23516  0.037867238  0.038356053            2 
  928000     1.123983   -6.1176401    422.26094  0.037918547  0.038347362            7 
  929000    1.1028214   -6.1537245    422.22065  0.037874117  0.038338732            5 
  930000    1.1107679   -6.1397627    422.17695  0.037829476  0.038330358           19 
  931000    1.1142197   -6.1465143    422.72448  0.037837852  0.038322123            3 
  932000    1.1379248   -6.0982091     424.3206  0.037939967  0.038313773            5 
  933000    1.1171344   -6.1095241    424.69842  0.037933049  0.038305692            4 
  934000    1.1021422   -6.1237918    425.08121  0.037926589  0.038297718            5 
  935000    1.0914397   -6.1406512    424.77225  0.037858489  0.038289443            3 
  936000    1.1256835   -6.0981026    425.80382  0.037909884  0.038281393            6 
  937000    1.1012032    -6.117018    426.42037  0.037924259  0.038273216            3 
  938000    1.1103325   -6.1451699    425.02597  0.037759948  0.038264995            4 
  939000    1.1057864   -6.1197069    426.00325  0.037806465  0.038256966            8 
  940000    1.0883123   -6.1328747    425.96318  0.037762693  0.038248822            5 
  941000    1.1054797   -6.1407506    427.77048  0.037882614  0.038240706            3 
  942000    1.0883336   -6.1040626     428.5706  0.037913181  0.038232707            3 
  943000    1.0870009   -6.0924456    428.52792  0.037869204  0.038224721            8 
  944000      1.08284   -6.1385973    428.98926  0.037869814  0.038216992            3 
  945000    1.0989548   -6.0763611    429.71346  0.037893603  0.038209023            5 
  946000    1.1003187    -6.128158    428.75661  0.037769257  0.038200889            5 
  947000     1.101507   -6.1293501    430.44478  0.037877929   0.03819324            5 
  948000    1.1034353   -6.1456179    431.42927  0.037924514  0.038185538            3 
  949000    1.1144698   -6.1457944    430.33941  0.037788849  0.038178072            9 
  950000    1.0936163   -6.1567674    430.45001  0.037758773  0.038170518            6 
  951000    1.0928638    -6.102306    432.21259  0.037873518  0.038163458            6 
  952000    1.0856025   -6.1085107    432.73809  0.037879735  0.038156227            3 
  953000     1.101498   -6.1273167    434.88539  0.038027754  0.038149245            5 
  954000    1.1021633   -6.1353922    434.16153  0.037924662  0.038141985            7 
  955000    1.0816663   -6.1223944    434.07348  0.037877267  0.038134836            5 
  956000    1.1048964   -6.1253481    434.67097  0.037889729  0.038127441            6 
  957000    1.0911849    -6.121643    434.41098  0.037827497  0.038120053            4 
  958000    1.0853144   -6.1145695    435.95749  0.037922537   0.03811237            5 
  959000    1.0782999   -6.1355095    433.03625  0.037629149  0.038104519            6 
  960000    1.0956224   -6.1408794    434.10014  0.037682304  0.038096337           11 
  961000    1.0990873   -6.1476125    434.26093  0.037657035  0.038088269            4 
  962000    1.0936408   -6.1203039    433.15355  0.037521964  0.038079993            5 
  963000    1.1073455   -6.1370965    434.56616  0.037605241  0.038071437            3 
  964000    1.1075691   -6.1185596    435.29247  0.037629017  0.038063133            5 
  965000    1.0816343   -6.1404853     435.2872  0.037589568   0.03805444            3 
  966000    1.0941995   -6.0987691    435.81144   0.03759588  0.038045915            5 
  967000    1.1102803   -6.0958592    435.23409  0.037507247  0.038037557            6 
  968000    1.0944118   -6.1437467     436.4951  0.037577058  0.038028904            8 
  969000    1.1048635     -6.12541    436.61025  0.037548181  0.038020676            4 
  970000    1.1011236   -6.1406384    437.18219  0.037558607  0.038012265            5 
  971000    1.1110998   -6.1080615    437.81219  0.037573995  0.038003805           11 
  972000    1.0883383   -6.1170727    438.42839  0.037588168  0.037995646            9 
  973000    1.0989351   -6.1230608    440.58576  0.037734306  0.037987773            5 
  974000    1.0956084   -6.1593079    439.74411  0.037623555  0.037979793           14 
  975000     1.087653   -6.1190394    440.64666  0.037662108  0.037971802            3 
  976000    1.0854877   -6.1394397    441.31816  0.037680854  0.037964097            3 
  977000    1.0955547    -6.146726    442.22775  0.037719869  0.037956587            5 
  978000    1.1071944   -6.1410347    441.80632  0.037645392  0.037949166           11 
  979000    1.1110253   -6.1656792    443.06718  0.037714265  0.037941499            5 
  980000    1.1013006   -6.1438242    442.64416  0.037639809  0.037933521            4 
  981000    1.0776078   -6.1732295     440.7922  0.037444121  0.037925354            4 
  982000    1.1105204   -6.1437543    442.47014  0.037548383  0.037917131            3 
  983000    1.0728542   -6.1126231    443.23488  0.037575015  0.037909201            3 
  984000    1.1150664    -6.077775    443.42795   0.03755318  0.037901235            5 
  985000    1.1057791   -6.1493436    442.86048  0.037467045  0.037893074            5 
  986000     1.108575   -6.1295077    445.14998  0.037622547  0.037884945            2 
  987000    1.1070612   -6.1620266    443.82893  0.037472892  0.037876782            8 
  988000    1.0923628   -6.1562367    444.06074  0.037454515  0.037868602            7 
  989000    1.1098223   -6.1401076    444.18445  0.037427068   0.03786027            9 
  990000    1.1014289   -6.1691515    445.29135  0.037482437  0.037852196            3 
  991000    1.0917635   -6.1477957    445.23521  0.037439893  0.037843965            7 
  992000     1.055063   -6.1453319     445.3486  0.037411676  0.037835656            4 
  993000    1.1089783   -6.1099339    446.93145  0.037506836  0.037827657            5 
  994000    1.1006314   -6.1613838    447.71969  0.037535185  0.037820026            5 
  995000    1.0672422   -6.1181516    448.30441  0.037546433  0.037812447            5 
  996000    1.0883031    -6.126565    446.99954   0.03739956  0.037804688            3 
  997000     1.118876   -6.1572371    448.45948  0.037484076  0.037796878            3 
  998000    1.0824078   -6.1477802    448.39927  0.037441489  0.037789217            3 
  999000    1.0689053    -6.119776    449.26844  0.037476513  0.037781493            2 
 1000000    1.1130536   -6.1410972    449.86113  0.037488427  0.037773917            4 
 1001000     1.115992   -6.1571977    450.66244  0.037517685  0.037766274            3 
 1002000    1.0979558   -6.1041624    452.04315  0.037595072  0.037758943            6 
 1003000    1.0918691   -6.1495101    450.55995  0.037434359  0.037751624            3 
 1004000    1.0835691   -6.1322972    451.85412  0.037504492   0.03774443            3 
 1005000    1.0880261   -6.1650248    452.42405  0.037514432   0.03773698            6 
 1006000    1.0665453   -6.1552949    451.63278  0.037411596  0.037729561            5 
 1007000    1.0783117   -6.1186897    453.32167  0.037514206   0.03772219            7 
 1008000    1.1097024   -6.1263529    453.10453  0.037459038  0.037714962            5 
 1009000    1.0808636   -6.1525363    453.57055  0.037460402  0.037707701            3 
 1010000    1.1142494   -6.1341514    453.40341  0.037409522  0.037700313            4 
 1011000    1.0995072   -6.1488722    454.36233   0.03745156  0.037692914            7 
 1012000    1.0738562   -6.1607195    455.50196  0.037508396  0.037685815            3 
 1013000    1.0790204   -6.1733381    454.71487   0.03740662  0.037678529           10 
 1014000    1.1234768   -6.1555561    453.76709  0.037291838  0.037671059            9 
 1015000    1.0630185   -6.1237122    456.22693  0.037457055  0.037663617            7 
 1016000    1.0672626   -6.1387499    456.40317  0.037434643   0.03765604            4 
 1017000     1.087962   -6.1493427    456.34146  0.037392778  0.037648702            2 
 1018000    1.1062015   -6.1368372    456.61205  0.037378197  0.037641014            2 
 1019000    1.0953303   -6.1450933    457.31985  0.037399399  0.037633669            6 
 1020000    1.1085719   -6.1391155    457.34796  0.037365029  0.037626078            3 
 1021000    1.1042746   -6.1690802    457.63722  0.037352042  0.037618537            4 
 1022000     1.109544   -6.1555469    457.83491  0.037331613  0.037610786            3 
 1023000    1.1037877   -6.1651244    457.43266  0.037262354   0.03760301            4 
 1024000    1.0820316   -6.1295422    458.36327  0.037301699  0.037595183            5 
 1025000    1.0936149    -6.119683    457.71362   0.03721249  0.037587256            4 
 1026000    1.0879733   -6.1254363    457.59782  0.037166815  0.037579005            5 
 1027000     1.076348   -6.1616942    458.28177  0.037186122  0.037570785            4 
 1028000    1.0788589   -6.1478837    457.96766  0.037124486  0.037562454           12 
 1029000    1.0989471     -6.14781    457.75356  0.037071069  0.037554225            6 
 1030000    1.0570551   -6.1448403    457.94226  0.037050345   0.03754581            4 
 1031000     1.094573   -6.2129852     458.0653  0.037024353  0.037537578            2 
 1032000    1.1054268   -6.1036537    460.72355  0.037203129  0.037529461            5 
 1033000    1.1177529   -6.1630212    460.16505  0.037122059  0.037521028            7 
 1034000     1.070415   -6.1229439    459.15353  0.037004636  0.037512385            6 
 1035000    1.0610192   -6.1642634    459.92627  0.037031101  0.037503811            4 
 1036000    1.0493561   -6.1381223    459.90361  0.036993534  0.037495204            6 
 1037000    1.0924202   -6.1543721    459.92574  0.036959638  0.037486307            2 
 1038000    1.1098268   -6.1728151    459.34729  0.036877592  0.037477291            3 
 1039000     1.065016   -6.1405112    461.47066  0.037012404  0.037468499            7 
 1040000    1.0977332   -6.1997263    459.98419  0.036857708  0.037459558            7 
 1041000    1.0840271   -6.1454384    461.36914  0.036933168  0.037450593            9 
 1042000    1.0714537   -6.1317555    460.99634  0.036867909  0.037441723            7 
 1043000     1.073842   -6.1140731    463.21153   0.03700955  0.037432794            4 
 1044000    1.0991522   -6.1679851    461.90925  0.036870151  0.037423892            3 
 1045000    1.0822355   -6.1700791    463.57214  0.036967475   0.03741505            3 
 1046000    1.1007986   -6.1417675    463.41587  0.036919684  0.037406307            5 
 1047000    1.0679189   -6.1483445    464.59325  0.036978132  0.037397857            2 
 1048000    1.0803392   -6.1391207    465.33449  0.037001789  0.037389453            4 
 1049000    1.1003613    -6.181049    465.56781   0.03698505   0.03738107            5 
 1050000    1.0775781   -6.1792468    465.18287  0.036919276  0.037372377            4 
 1051000    1.0851349   -6.1602247    465.58727  0.036916213   0.03736368            5 
 1052000    1.0855108   -6.1205863    467.91302  0.037065353   0.03735517            8 
 1053000    1.0876137   -6.2059302    465.29777  0.036823185  0.037346655            3 
 1054000    1.0789572   -6.1482416    468.46314  0.037038515  0.037338358            3 
 1055000    1.0676914   -6.1450027    467.22619  0.036905702  0.037330068            6 
 1056000    1.0735558   -6.1290824    470.70039  0.037144918  0.037321766            4 
 1057000    1.0687396   -6.1382798     468.2166  0.036913954  0.037313722            8 
 1058000    1.0876407    -6.146636    469.29416  0.036963938  0.037305608            4 
 1059000    1.0820515   -6.1743415     468.5858  0.036873293  0.037297643            4 
 1060000    1.0875966   -6.1788557     470.4625  0.036986045  0.037289721            3 
 1061000     1.073311   -6.1590577     470.8326  0.036980254   0.03728172            3 
 1062000     1.069982   -6.1400489    470.96485   0.03695581  0.037273663            5 
 1063000    1.0823046   -6.1505275    470.18887  0.036860212   0.03726574            4 
 1064000    1.0851616   -6.1212563    471.36571  0.036917741  0.037257698            4 
 1065000    1.1054813   -6.1720372    472.20722  0.036948921  0.037249723            4 
 1066000    1.0826148   -6.1180635     473.0616  0.036981051  0.037241591            5 
 1067000    1.0577982   -6.1804095    472.42435  0.036896622  0.037233376            9 
 1068000    1.0724359   -6.1622049     472.8934  0.036898674  0.037225096            5 
 1069000    1.0946465   -6.1615257    471.72293  0.036772913  0.037217022            4 
 1070000    1.0864963   -6.1475382    475.00089  0.036993839  0.037209109           10 
 1071000    1.0726179    -6.149455     474.2538  0.036901167  0.037200979            3 
 1072000     1.093618   -6.1753499    473.22867  0.036787055  0.037193099            6 
 1073000    1.0825937   -6.1755586    473.87465   0.03680294  0.037185178            4 
 1074000    1.0918544   -6.1368711    476.10738  0.036941913  0.037177484            5 
 1075000     1.071127    -6.132096    476.60099  0.036945813  0.037169758            7 
 1076000    1.0925431   -6.1579401    476.71716  0.036920474  0.037161865            4 
 1077000    1.0974916   -6.1419429    475.68776  0.036806543  0.037153929            5 
 1078000    1.0829697   -6.2041611    476.19554  0.036811653   0.03714582            7 
 1079000     1.076769   -6.1851191    474.38733  0.036637885  0.037137311            3 
 1080000    1.0792004   -6.1374719    477.18403  0.036819755  0.037128959            6 
 1081000    1.0870153   -6.1335848    477.25888  0.036791465  0.037120857            7 
 1082000    1.0712191   -6.1680393    477.20907  0.036753625   0.03711292            3 
 1083000    1.0946689   -6.1408781    480.25925  0.036954389  0.037104893            3 
 1084000    1.0737247   -6.1790976     478.4506  0.036781257  0.037096872            6 
 1085000    1.0821746   -6.1849752    478.60583   0.03675928  0.037089005            3 
 1086000    1.0908036   -6.1635787    479.79328   0.03681655  0.037081055            4 
 1087000    1.0798265   -6.2065493    477.81825  0.036631267  0.037073058            5 
 1088000    1.0800106   -6.1556012     479.3237  0.036712906  0.037064973            4 
 1089000    1.0814739   -6.1946308    479.59401  0.036699878  0.037056988            4 
 1090000    1.0456712   -6.1506046    479.55263  0.036663045    0.0370488            4 
 1091000    1.0823381   -6.1879267    481.51189  0.036779094  0.037040656            4 
 1092000    1.0752929   -6.1948326    480.27642  0.036651131  0.037032409            4 
 1093000    1.0881379   -6.1877781    481.19083  0.036687316  0.037024399            5 
 1094000    1.0602033   -6.1505788    482.72783  0.036770858  0.037016398            5 
 1095000    1.0954156   -6.1697252    482.35987  0.036709275  0.037008494            5 
 1096000     1.094655   -6.1423896    484.10164  0.036808215  0.037000393            3 
 1097000     1.086635   -6.1862139    480.88862  0.036530585  0.036992121            4 
 1098000    1.0547644    -6.189527    482.97323  0.036655528  0.036983883            7 
 1099000    1.0837394   -6.1635901    484.74545  0.036756555  0.036975775            5 
 1100000      1.06867   -6.1864097    483.29432  0.036613206  0.036967584            2 
 1101000    1.1067486   -6.1578494     484.7826  0.036692598  0.036959506           11 
 1102000    1.0743604   -6.1510286    484.96689  0.036673237  0.036951584            5 
 1103000    1.0670315   -6.1706192    485.35587  0.036669376  0.036943599            2 
 1104000    1.0852612    -6.192303    484.97182  0.036607173  0.036935546            8 
 1105000    1.0630558   -6.1629811    485.81134  0.036637356  0.036927385            6 
 1106000    1.0843869   -6.1736842    486.48831  0.036655237    0.0369191            5 
 1107000    1.0798946   -6.2233334    485.46168  0.036544842   0.03691074            6 
 1108000    1.0557959   -6.2113941    486.78437   0.03661134  0.036902422            3 
 1109000    1.0916863   -6.1465694    487.89121  0.036661498  0.036894277           15 
 1110000    1.1023333   -6.1752692     486.1162   0.03649521  0.036886131            6 
 1111000     1.076558   -6.1815631    488.43974  0.036636644  0.036877763            5 
 1112000    1.0290019   -6.1874548    486.57616  0.036464041  0.036869404           10 
 1113000    1.0716098   -6.2058475    488.31095  0.036561167  0.036861165            4 
 1114000    1.0677325   -6.1656143     487.6102  0.036475928  0.036852721            4 
 1115000    1.0736238    -6.177349    487.87389  0.036462922  0.036844329            6 
 1116000    1.0801422   -6.1822188    487.87959  0.036430674  0.036835859            7 
 1117000    1.0607289   -6.1519965    489.09122  0.036488453  0.036827566            3 
 1118000    1.0528532   -6.1519125    490.33275  0.036548357  0.036819394            6 
 1119000    1.0661526   -6.1944243    490.77901  0.036548929  0.036811028            8 
 1120000     1.069083   -6.1608668    491.08983  0.036539422   0.03680282            5 
 1121000    1.0644066   -6.1647135    490.52031  0.036464489   0.03679468            6 
 1122000    1.0722545   -6.1760731    491.35593  0.036494053  0.036786501            3 
 1123000    1.0849422    -6.162419    490.37976  0.036389118  0.036778195            6 
 1124000    1.0615125   -6.1587358    492.56321  0.036518625  0.036769838            5 
 1125000    1.0856924   -6.1808481    492.07458  0.036449969  0.036761447            4 
 1126000    1.0831887    -6.159415     492.0302  0.036414314  0.036753138            2 
 1127000    1.0861314   -6.1890998    490.74669  0.036287096  0.036744764            2 
 1128000    1.0777822   -6.1864751     492.1542   0.03635891  0.036736536            4 
 1129000    1.0737115    -6.152844    494.63947  0.036510147  0.036728317            4 
 1130000    1.0750103   -6.1915236    492.25573  0.036302045  0.036720272           12 
 1131000    1.0944513   -6.1826722    493.49714  0.036361416   0.03671218            3 
 1132000    1.0515343   -6.1728484    495.24921  0.036458275  0.036704251            4 
 1133000    1.0899461   -6.1456216    494.44698  0.036367092  0.036696456            6 
 1134000    1.0787185    -6.187536    496.41466   0.03647962  0.036688546            6 
 1135000    1.0769505   -6.1791797    496.35537  0.036443125  0.036680672            6 
 1136000    1.0832457   -6.1956941    495.08821  0.036318091  0.036672665            5 
 1137000    1.0922595   -6.1654513    495.79866  0.036338219  0.036664862            5 
 1138000     1.066599   -6.1340704    496.82182  0.036381211  0.036656888            5 
 1139000    1.0578179    -6.182663    496.50379  0.036326002  0.036648912            2 
 1140000    1.0727882   -6.1812762    497.26772   0.03634998  0.036640915            3 
 1141000    1.0740028   -6.1791986    496.27296  0.036245469  0.036632701            3 
 1142000    1.0689352   -6.2183202    495.83845  0.036182023  0.036624288            6 
 1143000    1.0861655    -6.153473    497.84702  0.036296808  0.036615896            4 
 1144000    1.0747372   -6.1812841    497.94533  0.036272241  0.036607937            4 
 1145000    1.0745845   -6.1667589    498.80739  0.036303304  0.036599987            5 
 1146000    1.0326074   -6.1587084    501.42567  0.036462018  0.036592063            6 
 1147000    1.0810479     -6.21719      499.215  0.036269616     0.036584            3 
 1148000    1.0552856   -6.1796137    499.57712  0.036264309  0.036575876            3 
 1149000     1.075406   -6.1769407    499.79165  0.036248306  0.036567854            2 
 1150000    1.0698795   -6.1821638    500.53686  0.036270787  0.036560162            5 
 1151000    1.0811332   -6.1782238    502.72154  0.036397447  0.036552107            6 
 1152000    1.0816257   -6.1935997    501.22206  0.036257383  0.036544362           15 
 1153000    1.1020983   -6.1847768    503.02965  0.036356581  0.036536438            6 
 1154000    1.0541416   -6.1679529    500.24874  0.036124259  0.036528461            3 
 1155000    1.0615093   -6.2166945    502.07708  0.036224898  0.036520546            4 
 1156000    1.0391551   -6.1792834    504.44125  0.036363989  0.036513034            4 
 1157000    1.0453076   -6.1798389    504.26781  0.036320067  0.036505516            7 
 1158000    1.0606956    -6.177011    503.66533  0.036245346  0.036497967            4 
 1159000    1.0545314   -6.1989679     504.0115  0.036238963  0.036490596            4 
 1160000    1.0646166   -6.1909435    504.28542  0.036227401  0.036482767            5 
 1161000    1.0640561   -6.2057114    504.62721   0.03622073  0.036474969            3 
 1162000     1.055661   -6.1896602    506.13196  0.036297473  0.036467069            4 
 1163000    1.0557443   -6.2194184    503.68936  0.036091241  0.036459133            4 
 1164000    1.0438131   -6.1613762    506.14175  0.036235807  0.036451256            4 
 1165000    1.0462181    -6.187634    506.34585  0.036219302  0.036443526            4 
 1166000    1.0704746   -6.1658903    506.85248  0.036224448  0.036435932            5 
 1167000    1.0533436   -6.1912607    507.28262  0.036224123  0.036428383            6 
 1168000     1.101837   -6.1924633    507.77848  0.036228488  0.036420868            3 
 1169000    1.0594932   -6.1836518    509.16987  0.036296683  0.036413593            8 
 1170000    1.0822993   -6.1987693    507.96052  0.036179524  0.036406259            4 
 1171000     1.057708   -6.2139131    507.79188  0.036136627  0.036398894            5 
 1172000    1.0837012   -6.1759534    508.71063   0.03617112  0.036391243            9 
 1173000    1.0383132   -6.1654519    509.01737  0.036162075  0.036383664           10 
 1174000    1.0506864   -6.2187239    508.49937  0.036094504  0.036375871            4 
 1175000    1.0517194   -6.2166474     509.5267  0.036136645  0.036368342            8 
 1176000     1.055248   -6.2004183    510.99878  0.036210231   0.03636097            5 
 1177000    1.0559401   -6.1715683       511.67  0.036226989  0.036353599            7 
 1178000    1.0504827   -6.1996631    511.04877   0.03615229  0.036346126            2 
 1179000    1.0826579   -6.1867727    511.83555  0.036177237   0.03633872            6 
 1180000    1.0541099   -6.2098542     513.6909  0.036277606  0.036331285            4 
 1181000     1.042469   -6.1973511    511.98065   0.03612621  0.036323796            7 
 1182000    1.0609966   -6.1665372     512.7039  0.036146637  0.036316623            2 
 1183000    1.0654108   -6.1963301    513.09403  0.036143563  0.036309386            3 
 1184000    1.0461466   -6.2170545    512.17192  0.036048136  0.036302047            3 
 1185000    1.0728336   -6.2072527    513.06361  0.036080422  0.036294506            8 
 1186000    1.0461625   -6.2135779    514.02163  0.036117315  0.036287087            4 
 1187000    1.0648692    -6.190479    514.33998  0.036109238  0.036279803           14 
 1188000    1.0787264   -6.2049627     514.3543  0.036079847  0.036272554            8 
 1189000    1.0524671   -6.1940347    515.62149  0.036138316  0.036265132            5 
 1190000    1.0684657   -6.2061491    515.42756  0.036094367   0.03625779            4 
 1191000    1.0715749   -6.1755956    515.93291   0.03609942  0.036250339            4 
 1192000    1.0579226   -6.2191185    516.38376  0.036100655  0.036242873            9 
 1193000    1.0816407   -6.2038899    516.24798  0.036060909  0.036235358           11 
 1194000    1.0734268   -6.1574163    517.71512  0.036133104  0.036228125            4 
 1195000    1.0524024   -6.1743192    518.74125  0.036174425  0.036220909            5 
 1196000    1.0386347   -6.1952989    517.45256  0.036054387  0.036213685           11 
 1197000    1.0737914   -6.1783487    517.85692  0.036052417   0.03620649            5 
 1198000    1.0767704   -6.1873146    518.56043  0.036071259  0.036199285            7 
 1199000    1.0811657   -6.1874499    519.62738  0.036115331  0.036192047            3 
 1200000    1.0475593   -6.1823615    519.11794  0.036049857  0.036184588            4 
 1201000    1.0576084   -6.1987074    518.48663  0.035976036  0.036177036            4 
 1202000    1.0861316   -6.2318014    519.19742  0.035995384   0.03616957            5 
 1203000    1.0718009   -6.2406051    519.75699  0.036004225  0.036161923           10 
 1204000    1.0707937   -6.1951159    519.74488  0.035973483  0.036154288            5 
 1205000     1.056047   -6.1769058    518.93206  0.035887418  0.036146703            7 
 1206000    1.0621778   -6.1896546    521.41284  0.036029079  0.036139193            8 
 1207000     1.065248   -6.1711957    521.32513  0.035993174  0.036131705            4 
 1208000    1.0759357   -6.1905022    521.37184  0.035966601  0.036124138            5 
 1209000    1.0615298   -6.1882761    520.92986  0.035906387  0.036116565            4 
 1210000    1.0155441   -6.2507402    521.35737  0.035906155  0.036108797            2 
 1211000    1.0341279   -6.1640271    521.84114  0.035909795  0.036100881            3 
 1212000    1.0591204   -6.1929292    521.31569  0.035844038   0.03609314            4 
 1213000     1.067035   -6.1940396    521.62886  0.035836003  0.036085375            7 
 1214000    1.0423659   -6.2230415    522.36853  0.035857258   0.03607759            2 
 1215000    1.0400603   -6.2261066    521.34486  0.035757535  0.036069849            3 
 1216000    1.0795648   -6.2086728    522.35075  0.035797064  0.036062105            4 
 1217000    1.0474025    -6.190615    524.18399  0.035893179  0.036054306            3 
 1218000    1.0595278   -6.2097442    523.49499   0.03581657  0.036046579            5 
 1219000    1.0419626   -6.1906576    524.32498  0.035843928  0.036038792            4 
 1220000    1.0616199   -6.1925673    526.01352  0.035929885  0.036031369            2 
 1221000    1.0536535   -6.2044937    525.51627  0.035866522  0.036024105            9 
 1222000    1.0611697   -6.2263466    526.00325   0.03587038  0.036016737            4 
 1223000    1.0557717   -6.2212003    526.46316  0.035872388  0.036009326            5 
 1224000    1.0590887    -6.215668    526.27282  0.035830121  0.036002052            4 
 1225000    1.0585389   -6.2392214    526.28385  0.035801622  0.035994649            7 
 1226000    1.0613704   -6.1728732    529.27979   0.03597606  0.035987363            6 
 1227000    1.0569079    -6.199434    529.65843  0.035972455  0.035980136            7 
 1228000    1.0595691    -6.193161    528.62731  0.035873189  0.035972844            7 
 1229000    1.0589997   -6.1789159    529.00499  0.035869609  0.035965525            5 
 1230000    1.0397519   -6.1709033    528.17241  0.035784038  0.035958408            3 
 1231000     1.085579    -6.171152    529.58053  0.035850293  0.035950984           11 
 1232000    1.0675333   -6.1897036    530.48456  0.035882343  0.035943769            2 
 1233000    1.0590767   -6.1490423    530.29652  0.035840533  0.035936647            5 
 1234000    1.0624008   -6.2017506    531.42192  0.035887488  0.035929343            7 
 1235000    1.0611225   -6.2028136    530.79035  0.035815813  0.035922247            3 
 1236000    1.0755274   -6.2295904    529.59586  0.035706301  0.035914803            2 
 1237000    1.0548124   -6.2067221    530.45305  0.035735183  0.035907312            7 
 1238000    1.0462395   -6.2290089    529.58191  0.035647679  0.035899872            4 
 1239000    1.0541345   -6.2251294    531.39178  0.035740636  0.035892514            3 
 1240000     1.056351   -6.2294602     530.8203  0.035673407  0.035885245            4 
 1241000     1.055208   -6.2318336    530.57111  0.035627928  0.035877765            4 
 1242000     1.068782   -6.1950811    532.58369  0.035734279  0.035870481            8 
 1243000    1.0406736   -6.2058683    533.75977  0.035784377  0.035863224            3 
 1244000    1.0218688    -6.223475    533.48416  0.035737149  0.035856086            9 
 1245000      1.04897   -6.1657308    533.10064  0.035682774   0.03584864            5 
 1246000    1.0600295   -6.2147155     532.7033  0.035627561  0.035841208            5 
 1247000    1.0719187   -6.1880491    532.75937  0.035602738  0.035833703            3 
 1248000    1.0538658   -6.2048635    532.85007  0.035580266    0.0358262            6 
 1249000    1.0404298   -6.2188458    535.77925  0.035747215  0.035818633            4 
 1250000    1.0319494   -6.1975338    535.54367  0.035702911  0.035811063            6 
 1251000    1.0509602   -6.1736136    536.01727   0.03570592  0.035803519            5 
 1252000    1.0411657   -6.1993409    536.90238  0.035736314  0.035795993            5 
 1253000    1.0284032    -6.217058    534.79211  0.035567445  0.035788456            8 
 1254000     1.049206   -6.2025218    534.50956  0.035520306  0.035780855           13 
 1255000    1.0426679   -6.2055137    536.11822  0.035598819  0.035773442            7 
 1256000    1.0539177   -6.2153125    537.72131  0.035676838  0.035765962            3 
 1257000    1.0474699   -6.1710099    538.62327  0.035708252  0.035758794            6 
 1258000    1.0571819   -6.2513692    536.78365  0.035558005  0.035751452            5 
 1259000    1.0153219   -6.2298646    538.31104   0.03563086  0.035744037            3 
 1260000    1.0525143   -6.2000531    537.55964  0.035552886  0.035736703            4 
 1261000    1.0586056   -6.2174713    540.49749   0.03571884  0.035729504            7 
 1262000    1.0815799   -6.2549174    537.78647  0.035511521  0.035722187            4 
 1263000    1.0613567   -6.2561091    539.18544  0.035575708  0.035714782            5 
 1264000    1.0583563   -6.2084742    540.39402  0.035627243  0.035707424            6 
 1265000    1.0381482   -6.2361044    539.70696  0.035553818  0.035700164            4 
 1266000    1.0699586   -6.1995791     541.7102  0.035657596  0.035692795            5 
 1267000    1.0275882   -6.2182893    541.60418  0.035622479  0.035685656            7 
 1268000    1.0696451   -6.2173817    540.21126  0.035502843  0.035678482            4 
 1269000    1.0650853   -6.2458988    540.52956  0.035495768  0.035671149            5 
 1270000     1.018678   -6.2362016    541.32459  0.035519986  0.035663817            4 
 1271000    1.0593805    -6.228535    542.22935   0.03555136  0.035656407            4 
 1272000    1.0458484   -6.2122122    543.09532  0.035580144  0.035649124            8 
 1273000    1.0461975   -6.1823707     542.8199  0.035534164  0.035641817            4 
 1274000    1.0580864   -6.2232905    543.98892   0.03558274  0.035634488            5 
 1275000    1.0463065   -6.1816056    543.53008  0.035524842  0.035627123            5 
 1276000    1.0338298   -6.2308588    543.64182  0.035504298   0.03561978            8 
 1277000    1.0517547   -6.2675883    542.35621  0.035392601  0.035612284            5 
 1278000    1.0781284   -6.2565363    542.30415  0.035361512  0.035604773            6 
 1279000    1.0253634   -6.2279593    543.25606  0.035395886  0.035597274            6 
 1280000    1.0471614   -6.2258807    544.92038  0.035476587  0.035589847            5 
 1281000    1.0515145   -6.2308613    545.53493  0.035488871  0.035582384            9 
 1282000    1.0419044   -6.1900343    544.75122  0.035410246  0.035575014            6 
 1283000    1.0286111   -6.2401036    544.28479  0.035352351  0.035567223            4 
 1284000      1.04253   -6.1959144    544.74701  0.035354817  0.035559619            5 
 1285000     1.041924   -6.2515022    544.66944  0.035322272  0.035552066            3 
 1286000    1.0405387   -6.1937009    547.46048  0.035475666  0.035544445            4 
 1287000    1.0387668   -6.2086339    545.57301  0.035325888   0.03553685            5 
 1288000    1.0247029   -6.2396623    544.98178  0.035260208  0.035529158            7 
 1289000    1.0280757   -6.2320597    546.10768  0.035305642  0.035521495            7 
 1290000    1.0584983   -6.2400537    546.00224  0.035271462  0.035513812            4 
 1291000    1.0377968   -6.2145096    546.69118  0.035288612  0.035506107            7 
 1292000    1.0362865   -6.2246547     547.2081   0.03529464  0.035498376            6 
 1293000    1.0315689   -6.2306036     547.8278  0.035307283  0.035490751            4 
 1294000    1.0486247   -6.2178372    548.94176  0.035351736  0.035483029            6 
 1295000    1.0303353   -6.2360218    546.98672   0.03519863  0.035475385            5 
 1296000    1.0514967   -6.2057052    549.48923  0.035332384   0.03546768            3 
 1297000    1.0421407   -6.2203388    549.18682  0.035285712  0.035460043            4 
 1298000    1.0641317   -6.2290796    549.85235  0.035301255  0.035452675            4 
 1299000    1.0127124   -6.2106857    551.65782  0.035389904  0.035445325            5 
 1300000    1.0573436   -6.2216128    551.00795  0.035321022  0.035437869            9 
 1301000     1.048386   -6.2041393    550.78393  0.035279524  0.035430289            5 
 1302000     1.032833   -6.2517286    550.20949  0.035215661  0.035422988            5 
 1303000    1.0544588   -6.2732989    550.42297  0.035202288  0.035415578            4 
 1304000    1.0083699    -6.264519    550.15068  0.035157891   0.03540802            4 
 1305000    1.0385704   -6.1913786    554.13908  0.035385637  0.035400534            9 
 1306000    1.0396417   -6.2049094    553.66359  0.035328203  0.035393184            4 
 1307000     1.057605   -6.1870877    555.30953  0.035406116  0.035386014            3 
 1308000    1.0549535   -6.2658374    551.83987  0.035157994   0.03537856            6 
 1309000    1.0249432   -6.2243245    552.79846  0.035192161  0.035370925            8 
 1310000    1.0553384   -6.2290503    552.77801  0.035163995  0.035363388            5 
 1311000    1.0511202   -6.2476527    551.28721  0.035042411  0.035355882            8 
 1312000     1.047701   -6.2280746     555.8569  0.035305951  0.035348486            4 
 1313000    1.0495563   -6.2155668     554.1675  0.035171839  0.035341102            5 
 1314000     1.047245   -6.2278859    553.45497  0.035099884  0.035333596            4 
 1315000    1.0552321   -6.2407115    554.89624  0.035164527  0.035325952            5 
 1316000    1.0405799   -6.2177619    554.95791  0.035141712  0.035318293            2 
 1317000    1.0364511   -6.2321441    553.73227  0.035037476  0.035310767            2 
 1318000    1.0389043   -6.2442166     555.7734  0.035139947   0.03530315            6 
 1319000    1.0395047   -6.2528889    556.17465  0.035138656  0.035295511            3 
 1320000     1.051991   -6.2429616    555.35883  0.035060532  0.035287869            7 
 1321000    1.0647399   -6.2151744    557.17449  0.035148529  0.035280302            6 
 1322000    1.0441741   -6.2653804    555.96566  0.035045743  0.035272355            5 
 1323000    1.0154071   -6.2469162    556.44576  0.035049494  0.035264565           13 
 1324000    1.0336783    -6.244739    557.25113  0.035073711  0.035256721            5 
 1325000    1.0454898   -6.2140316    557.15838  0.035041407  0.035248999            5 
 1326000    1.0465459   -6.2613772    556.97136  0.035003228   0.03524135            8 
 1327000     1.004537   -6.2275082    558.08753  0.035046944  0.035233812            5 
 1328000    1.0437507   -6.2273115    561.28459  0.035221172  0.035226373            5 
 1329000    1.0137056   -6.2342542      556.334  0.034884249   0.03521889            3 
 1330000    1.0602628   -6.2050246      558.246   0.03497782  0.035211286            7 
 1331000    1.0451214   -6.2519417      558.298  0.034954796  0.035203464            6 
 1332000    1.0498986   -6.2472125    557.82582  0.034899013  0.035195482            4 
 1333000    1.0504956   -6.2337363    560.73207  0.035054518   0.03518759            7 
 1334000    1.0303384   -6.2320061    560.99094  0.035044412  0.035179762            5 
 1335000    1.0371386   -6.2449469    559.84166  0.034946421  0.035171995            9 
 1336000    1.0194937   -6.2391676    560.35921  0.034952545  0.035164068            6 
 1337000    1.0314051   -6.2253801    560.79068  0.034953296   0.03515621            3 
 1338000    1.0511363    -6.231636    562.14848  0.035011739  0.035148494            3 
 1339000     1.018901   -6.2279698    561.24224  0.034929191  0.035140662            6 
 1340000    1.0097331   -6.2767599    560.32177  0.034845881  0.035132863            6 
 1341000     1.060532   -6.2549261    560.49884    0.0348309  0.035125003           13 
 1342000    1.0151172   -6.2659684    561.13277   0.03484431  0.035117105            7 
 1343000    1.0606976   -6.2428788    562.11352  0.034879221  0.035109374            4 
 1344000    1.0367779   -6.2320783    563.83637  0.034960092  0.035101782            5 
 1345000    1.0433692   -6.2171749    564.24546  0.034959446  0.035094249            3 
 1346000    1.0160635   -6.2827674     563.8243  0.034907399  0.035086579            8 
 1347000    1.0387576   -6.2659216    563.68705  0.034872993  0.035078708            9 
 1348000    1.0288524   -6.2036596    565.43363  0.034955096  0.035070918            3 
 1349000    1.0322832   -6.2539935    564.46421  0.034869299  0.035063281            7 
 1350000    1.0351241   -6.2466843    565.30205  0.034895188  0.035055608            4 
 1351000    1.0265295   -6.2327527    565.59761   0.03488759  0.035047961            4 
 1352000    1.0296175   -6.2293957    565.14126  0.034833657  0.035040226           12 
 1353000     1.059976   -6.2561634    564.72281  0.034782139  0.035032482            9 
 1354000    1.0530386   -6.2521667    565.33326  0.034794021  0.035024959            7 
 1355000     1.017713   -6.2249283    565.11958  0.034755202  0.035017351            7 
 1356000    1.0356626   -6.2695593    566.01765  0.034784762  0.035009826            7 
 1357000    1.0654901   -6.2324718    567.63506  0.034858453  0.035002068            6 
 1358000    1.0316753   -6.2050134    568.12184  0.034862656  0.034994511            8 
 1359000    1.0200807   -6.2593591    565.27077  0.034662176  0.034986744            5 
 1360000    1.0378806   -6.2711134    567.99105  0.034803373  0.034979098            7 
 1361000      1.02221   -6.2393629    567.73153  0.034761911  0.034971358            8 
 1362000    1.0185926   -6.2146549     568.1628  0.034762775   0.03496363            4 
 1363000    1.0199511   -6.2437906    568.80656   0.03477663  0.034956042           11 
 1364000    1.0382784   -6.2512372    569.31287  0.034782067  0.034948478            4 
 1365000    1.0648557   -6.2457451    570.09569  0.034804377  0.034941086            9 
 1366000    1.0203234   -6.2238857    571.61218  0.034871412  0.034933749            4 
 1367000    1.0636987   -6.2706116    571.17887  0.034819487   0.03492621            8 
 1368000    1.0128475   -6.2485511    572.62789  0.034882303  0.034918649            6 
 1369000    1.0327757   -6.2351242    570.83096  0.034747441  0.034911091            6 
 1370000     1.036994   -6.2385269    570.46156  0.034699608  0.034903543            7 
 1371000    1.0362324   -6.2310967    572.83965  0.034818846  0.034895933           12 
 1372000    1.0627066     -6.22562    573.27896   0.03482015  0.034888533           10 
 1373000    1.0452004   -6.2810599    572.61405  0.034754434  0.034881013            9 
 1374000    1.0267515   -6.2401578    572.91814  0.034747582  0.034873649            4 
 1375000    1.0428107   -6.2503104    572.44202  0.034693456  0.034866173            7 
 1376000    1.0227611   -6.2454051    571.50321  0.034611386   0.03485871            2 
 1377000    1.0523899    -6.226778    573.82901  0.034727004   0.03485125            3 
 1378000    1.0519492   -6.2071554    572.26586  0.034607272  0.034843718            5 
 1379000    1.0418758   -6.2243265    572.64401  0.034605029   0.03483607            3 
 1380000    1.0472486   -6.2185082    573.67501  0.034642211  0.034828231            6 
 1381000    1.0507284   -6.2529382    572.90544  0.034570688   0.03482039            5 
 1382000    1.0388239   -6.2863785    573.61964  0.034588738  0.034812505           14 
 1383000    1.0451268   -6.2246942    574.90746  0.034641327  0.034804604            7 
 1384000      1.05471   -6.2473441     574.6448  0.034600481  0.034796839            6 
 1385000     1.043669   -6.2572548    574.91361  0.034591673  0.034789068            3 
 1386000    1.0140334   -6.2594507    575.78727  0.034619244  0.034781189            4 
 1387000     1.045292    -6.256104    575.40335  0.034571218  0.034773393            7 
 1388000    1.0071786   -6.2297197    575.01566  0.034523035  0.034765622            6 
 1389000    1.0040783   -6.2406956    575.64258  0.034535792  0.034757725            3 
 1390000    1.0461037   -6.2883733    576.34041  0.034552782  0.034749912            3 
 1391000    1.0189196    -6.256086    577.34251  0.034587977  0.034742163            4 
 1392000     1.009066   -6.2770436    577.75376  0.034587749   0.03473437            7 
 1393000    1.0263655   -6.2315796    576.68088  0.034498736  0.034726538            9 
 1394000    1.0211924   -6.2305244    578.13818  0.034561106  0.034718719            8 
 1395000    1.0120445   -6.2417345     578.4142   0.03455282  0.034710855            2 
 1396000    1.0429936   -6.2872793     576.9101  0.034438282   0.03470286            8 
 1397000    1.0507811   -6.2545676    576.95979  0.034416595   0.03469481            6 
 1398000    1.0220902   -6.2784977    576.98465  0.034393458  0.034686803            4 
 1399000    1.0182552   -6.2591682    578.16467  0.034439163  0.034678927            6 
 1400000    1.0481164   -6.2647008    579.07235  0.034468593    0.0346711            8 
 1401000    1.0425212   -6.2754457    579.41196   0.03446419  0.034663155            4 
 1402000     1.019192   -6.2699171    580.52163  0.034505565  0.034655167            9 
 1403000    1.0331819    -6.234572    580.38689  0.034472968  0.034647115            8 
 1404000    1.0278786   -6.2295968    578.95771  0.034363587   0.03463918            3 
 1405000    1.0416417   -6.2620559     578.6008   0.03431796  0.034630964            7 
 1406000    1.0074975   -6.2234295    580.10405  0.034382649   0.03462287            4 
 1407000     1.028828   -6.2529654     579.9255  0.034347637  0.034614603            5 
 1408000    1.0262244   -6.2537525    580.49639  0.034357031  0.034606477            7 
 1409000    1.0023508   -6.2628738    580.49108  0.034332333  0.034598314            4 
 1410000    1.0103445   -6.3041328    580.46217  0.034306275  0.034590011            7 
 1411000    1.0237499   -6.2908076    581.39728  0.034337189   0.03458178            3 
 1412000    1.0227994   -6.2761698    581.03727  0.034291624  0.034573645           10 
 1413000    1.0247791   -6.2781181    581.45312   0.03429188  0.034565524            6 
 1414000    1.0337121   -6.2403921    583.39561  0.034382108   0.03455749            5 
 1415000    1.0362837   -6.2690283    582.81931   0.03432387  0.034549551            8 
 1416000    1.0249215   -6.2679459    582.37347  0.034273391  0.034541485           10 
 1417000    1.0414786   -6.2222676    583.92681  0.034340556  0.034533535            3 
 1418000    1.0612171   -6.2357076    584.76646  0.034365683  0.034525608            5 
 1419000    1.0120885    -6.261073    582.85428  0.034229168  0.034517496           17 
 1420000    1.0314745   -6.2350533    582.74939  0.034198908  0.034509417            6 
 1421000    1.0113302   -6.2570664    584.34488  0.034268407  0.034501222            9 
 1422000    1.0076251   -6.2931155    583.93524  0.034220302  0.034492979            3 
 1423000    1.0403333   -6.2538749    583.98431  0.034199128  0.034484893            4 
 1424000    1.0340902   -6.2961594    584.20285  0.034187901  0.034476867            7 
 1425000    1.0208652   -6.2276423    584.44247  0.034177922  0.034468793           12 
 1426000    1.0323304   -6.2625672    586.00259  0.034245126  0.034460831            5 
 1427000    1.0325038    -6.288155    583.82732  0.034094097  0.034452731            8 
 1428000    1.0045392   -6.2659717    586.47505  0.034224735  0.034444816            5 
 1429000    1.0319815   -6.2764608    585.68035  0.034154441  0.034436756            5 
 1430000    1.0152454   -6.2474467    586.50555  0.034178645  0.034428913            6 
 1431000    1.0061289   -6.2505152    587.27389  0.034199504   0.03442123            8 
 1432000   0.99081578   -6.2633922    587.22233  0.034172622  0.034413505            5 
 1433000    1.0427997    -6.255561    588.20408  0.034205867  0.034405766           10 
 1434000    1.0395859    -6.245412    589.43519  0.034253556  0.034397967            6 
 1435000    1.0212983   -6.2602471    589.19281  0.034215611  0.034390206            4 
 1436000   0.99920567   -6.2956145    587.42772  0.034089353  0.034382381            5 
 1437000    1.0332013   -6.2485119    589.72789  0.034199019  0.034374449            4 
 1438000   0.99707613   -6.2659624    589.25445  0.034147801   0.03436651            3 
 1439000    1.0395282   -6.2955605    587.97277  0.034049848  0.034358595            8 
 1440000    1.0253203   -6.2549474    588.50012   0.03405672  0.034350592            4 
 1441000     1.037927   -6.2783827    589.71848  0.034103544  0.034342461            5 
 1442000    1.0153956   -6.2284129    590.76269  0.034140239  0.034334249            5 
 1443000    1.0021501   -6.2449182    588.99207  0.034014326  0.034326054            7 
 1444000    1.0203299   -6.2842741    588.44772  0.033959356  0.034317783           16 
 1445000    1.0036619   -6.2657984    588.24901  0.033924395  0.034309508            6 
 1446000    1.0199859   -6.2532527    589.55649  0.033976285   0.03430127            7 
 1447000    1.0203889   -6.2840909    588.60008  0.033897724  0.034293056            5 
 1448000    1.0418969   -6.2807716    590.80304  0.034001096  0.034284733            7 
 1449000    1.0105556   -6.2603796     590.0219  0.033932706  0.034276465            4 
 1450000     1.004874    -6.308324    588.90643  0.033845197  0.034267997            5 
 1451000    1.0168268    -6.271284    591.54323  0.033973307  0.034259667           15 
 1452000    1.0451583   -6.2915534    590.39619  0.033884079  0.034251302           14 
 1453000     1.024015   -6.2683682    592.43684  0.033977795   0.03424289            4 
 1454000     1.015913   -6.2662493    592.25965  0.033944271  0.034234613            7 
 1455000    1.0396796   -6.2943593    593.99464  0.034020312  0.034226389            6 
 1456000    1.0462005   -6.2592821    593.73048  0.033981827  0.034218072            4 
 1457000    1.0127598   -6.2901695    591.75658  0.033845606  0.034209809            8 
 1458000    1.0247261   -6.2677817    593.48509  0.033921187  0.034201657            2 
 1459000    1.0416067   -6.3197796    591.94183  0.033809791  0.034193297            9 
 1460000    1.0253912   -6.2691662    594.46347  0.033930563  0.034184935            9 
 1461000    1.0287042   -6.2904695    592.25461  0.033781349  0.034176558            6 
 1462000    1.0105947   -6.2774445    594.03044  0.033859464    0.0341681            5 
 1463000   0.99795899   -6.2668597    595.66764  0.033929576   0.03415971            3 
 1464000    1.0169514   -6.2807734    594.62444   0.03384702  0.034151344            8 
 1465000   0.99893775   -6.2672967     593.0641  0.033735159  0.034142872            4 
 1466000    1.0270558   -6.2978357    594.25352  0.033779759   0.03413431            5 
 1467000    1.0238129    -6.285688    595.00517   0.03379943  0.034125678            4 
 1468000    1.0300685   -6.2927169     593.6031  0.033696815    0.0341171            6 
 1469000    1.0317923   -6.2621148    595.21806   0.03376549  0.034108589            9 
 1470000    1.0283407   -6.2846998     595.2107  0.033742103  0.034100218            3 
 1471000    1.0263206   -6.2814555    595.77063  0.033750886  0.034091703            7 
 1472000    1.0143173   -6.2891308    596.51244  0.033769953  0.034083088           21 
 1473000   0.98662384   -6.2856656    594.71276  0.033645211  0.034074802            6 
 1474000    1.0109895    -6.267179     596.1528  0.033703799  0.034066347            4 
 1475000    1.0164569   -6.3035858    596.64729  0.033708887  0.034057781            8 
 1476000    1.0210716    -6.319976    596.93256  0.033702154  0.034049184            5 
 1477000    1.0360185   -6.2650051    597.28592  0.033699273  0.034040563            4 
 1478000    1.0122693   -6.2371664    597.02439  0.033661727  0.034032059            6 
 1479000    1.0066542   -6.2606421    597.27588  0.033653137  0.034023495            5 
 1480000    1.0300802   -6.2911868     596.3498  0.033578255  0.034014831            8 
 1481000    1.0019293   -6.2729234    598.39745  0.033670799  0.034006109            3 
 1482000    1.0152626    -6.287101    596.93168  0.033565659  0.033997423            6 
 1483000    1.0129517   -6.2792503    598.40942  0.033626063  0.033988773           10 
 1484000    1.0158428   -6.2483134    597.95947  0.033578138  0.033980208            5 
 1485000    1.0057182    -6.281302    598.76002   0.03360045  0.033971605            9 
 1486000    1.0102115   -6.2920636    597.90821   0.03353007  0.033963002            3 
 1487000    1.0223775   -6.2994481    598.65839  0.033549562  0.033954289            4 
 1488000    1.0230278   -6.2881867    597.32013  0.033452068  0.033945495            5 
 1489000    1.0268945   -6.2805634    598.69718   0.03350667  0.033936621            9 
 1490000    1.0228485   -6.3061449    599.43281  0.033525325  0.033927941            7 
 1491000    1.0096515   -6.3009396     598.5436  0.033453141  0.033919045           11 
 1492000    1.0102039    -6.322306    600.73292  0.033553001  0.033910319            7 
 1493000    1.0209634    -6.262792    600.20423  0.033501017  0.033901707            6 
 1494000    1.0129726   -6.2792047     599.3297  0.033429814  0.033893004            7 
 1495000    1.0210531   -6.2489707    600.72631  0.033485301  0.033884285            7 
 1496000    1.0296173   -6.2513502    601.23327  0.033491158  0.033875589            9 
 1497000      1.01648   -6.2536477    602.63967  0.033547076  0.033866905            5 
 1498000    1.0115939   -6.2897288    600.22933  0.033390595  0.033858147           11 
 1499000    1.0093368   -6.2937295    602.01593  0.033467641  0.033849374            7 
 1500000    1.0122343   -6.2837416    600.54371  0.033363539  0.033840705            2 
 1501000   0.98216141   -6.2812515    602.89587    0.0334719  0.033831954            4 
 1502000    1.0310091   -6.2556457    602.72107  0.033439917  0.033823222            4 
 1503000      0.99929   -6.2457722     602.8102   0.03342261  0.033814551            5 
 1504000   0.99944695   -6.2908807    602.26306  0.033370072  0.033805825            7 
 1505000    1.0187337   -6.2592814    604.95185   0.03349678  0.033797059            5 
 1506000    1.0143712   -6.3066224    603.77147  0.033409222  0.033788164            7 
 1507000    1.0172327   -6.2888863    603.06547  0.033348013  0.033779328            3 
 1508000      1.00433   -6.2878797    603.41653  0.033345299  0.033770431            4 
 1509000    1.0196547   -6.2498735    603.52232  0.033329044  0.033761345            6 
 1510000    1.0086792   -6.2749489    602.93941  0.033274802  0.033752512           11 
 1511000    1.0319682   -6.2981527    603.44628  0.033280735  0.033743405           10 
 1512000    1.0115763   -6.3195852    602.22487  0.033191406  0.033734402            4 
 1513000    1.0127688   -6.3025797     603.1168  0.033218595  0.033725287            4 
 1514000   0.99700144   -6.2937731    603.21865   0.03320226  0.033716195            4 
 1515000   0.99020444   -6.2842745    604.40488  0.033245593  0.033707068            3 
 1516000    1.0226705   -6.2763746    604.93882  0.033253013  0.033698066            4 
 1517000    1.0383534   -6.2958233    605.24172  0.033247732  0.033689117            4 
 1518000    1.0092457   -6.2750891     605.6818  0.033249989  0.033680166            6 
 1519000    1.0240315   -6.3013548    606.05329   0.03324848  0.033671225            7 
 1520000    1.0053681   -6.2943423    606.72012  0.033263164  0.033662364           11 
 1521000    1.0266831   -6.2835779    605.81846  0.033191895  0.033653594           13 
 1522000    1.0135756   -6.3534016    607.17037  0.033244107  0.033644676           10 
 1523000    1.0266235   -6.3165888    609.18999  0.033332786  0.033635766           12 
 1524000    1.0205701   -6.2774998    609.53542  0.033329802  0.033627206           11 
 1525000    1.0139628   -6.2743783    608.53947  0.033253523  0.033618661            6 
 1526000   0.99868432   -6.2796854    610.11311  0.033317667  0.033610003            3 
 1527000    0.9967509   -6.2764061    608.40906  0.033202852  0.033601378            4 
 1528000     1.007454    -6.232104    612.01109  0.033377568  0.033592787            3 
 1529000   0.99636743   -6.2903585    610.59319  0.033278461  0.033584365            4 
 1530000    1.0057879   -6.2955068    608.78495  0.033158222  0.033575766            4 
 1531000    1.0227564   -6.3235351    608.95073  0.033145587   0.03356704           10 
 1532000    1.0090574   -6.3043423     608.7728  0.033114273   0.03355825            3 
 1533000   0.99775503   -6.2855059    608.85486  0.033097133    0.0335495           12 
 1534000   0.99412422   -6.2806829    610.74708  0.033178351  0.033540716            6 
 1535000   0.98894288   -6.3053243    611.11355  0.033176631  0.033532027            4 
 1536000   0.99768093    -6.303656     609.4258  0.033063466  0.033523187           10 
 1537000   0.99588549   -6.2842048     611.3667  0.033147186  0.033514338            5 
 1538000   0.98033823   -6.3066316    609.35459  0.033016612  0.033505538            5 
 1539000    1.0003448   -6.2972701     610.6897  0.033067452  0.033496795           11 
 1540000   0.98288366   -6.2916038    611.61532  0.033096067  0.033487793           12 
 1541000    1.0025218   -6.3288705    611.04448   0.03304372  0.033478865            5 
 1542000    1.0045827   -6.2997241    612.08872  0.033078725  0.033469923            7 
 1543000    1.0051199   -6.2856577     612.8776  0.033099892  0.033460962            7 
 1544000    1.0098658   -6.2560128    612.33028  0.033048914  0.033452083            3 
 1545000   0.98695944   -6.3196697    610.44025   0.03292558  0.033443035            7 
 1546000    1.0299184   -6.2890357    614.07298  0.033100096  0.033434121            4 
 1547000    1.0073301   -6.2839938    613.22978  0.033033278  0.033425198            7 
 1548000   0.99077452   -6.3039233     612.3489  0.032964519  0.033416254           15 
 1549000   0.99434869   -6.3149916    613.37833  0.032998619  0.033407249           10 
 1550000    1.0082426   -6.2729804    614.17004  0.033019895  0.033398317            4 
 1551000    1.0069059   -6.3148708    613.22085  0.032947606  0.033389412            8 
 1552000      1.02614   -6.2643075    614.30796  0.032984749  0.033380529            6 
 1553000   0.99185672   -6.2798486    614.53168  0.032975514  0.033371622            7 
 1554000   0.97185583   -6.2974003    613.45275  0.032896437   0.03336262            3 
 1555000    1.0177552   -6.3125736    614.49307  0.032931033  0.033353716           11 
 1556000    1.0098782   -6.2853913     614.7753  0.032924984  0.033344938            5 
 1557000     1.033047   -6.2845874    617.10237  0.033028386  0.033336088            4 
 1558000    1.0215665   -6.3049535    616.12544  0.032954934  0.033327361            5 
 1559000    0.9985727   -6.3093472    616.41572  0.032949311  0.033318424            8 
 1560000    1.0013264   -6.2784117    616.83478  0.032950576  0.033309595            7 
 1561000   0.99534164   -6.2815508    615.57388  0.032862155  0.033300873            6 
 1562000    1.0002684   -6.2672587    616.38417  0.032884345  0.033292012            5 
 1563000   0.99535108   -6.2955509    616.28497  0.032858017  0.033283281            7 
 1564000   0.99597026   -6.3005762    617.79224  0.032917319  0.033274423            2 
 1565000   0.99586304   -6.3016801     616.5852  0.032832013  0.033265542            5 
 1566000    1.0131531   -6.2574543    617.35148  0.032851824  0.033256634            5 
 1567000    1.0120179   -6.3150626    615.32638  0.032723164   0.03324777            7 
 1568000   0.99665536    -6.261517    615.96317  0.032736138  0.033238721            5 
 1569000   0.98816819   -6.2576203    618.73551  0.032862519  0.033229877            5 
 1570000   0.99014278   -6.2996378    618.87283  0.032848877  0.033220978            4 
 1571000    1.0080028   -6.3144304    618.57302  0.032812064  0.033212064            9 
 1572000   0.99565468   -6.2913708    617.86593  0.032753707  0.033202984            4 
 1573000   0.98682075   -6.3125099    619.73131  0.032831707   0.03319403            5 
 1574000   0.98767383   -6.2926068    616.52482  0.032641085   0.03318502            8 
 1575000   0.99278083   -6.2994276    620.11376  0.032810252  0.033175923            6 
 1576000   0.98374077   -6.3124806    619.55725  0.032760007  0.033166902            4 
 1577000   0.98644931   -6.2860661    621.92678  0.032864446  0.033157995            7 
 1578000   0.99563561   -6.3050439    619.80534  0.032731587  0.033149127           15 
 1579000   0.97439613   -6.2937066    621.74482  0.032813216  0.033140164            7 
 1580000   0.98284007   -6.3389758    619.84666  0.032692334  0.033131125            7 
 1581000   0.99345971   -6.2662769    622.16862  0.032794045  0.033122207            6 
 1582000    1.0156891   -6.2958277    621.24257  0.032724535  0.033113325            4 
 1583000    1.0246109   -6.3376002    621.04387  0.032693402  0.033104525            8 
 1584000    1.0229215    -6.298348    620.74238  0.032656901  0.033095568            2 
 1585000   0.99993588   -6.3243451    622.69026   0.03273871  0.033086558            6 
 1586000    1.0050611   -6.3022724    622.99978  0.032734331  0.033077596            9 
 1587000   0.99131457   -6.3207295    621.16713  0.032617471  0.033068624            7 
 1588000   0.97628382   -6.2949953    620.47532  0.032560628  0.033059478            3 
 1589000   0.98351643   -6.2960543    621.82471  0.032610904  0.033050552            5 
 1590000   0.97105377   -6.2903325    624.20616  0.032715207  0.033041718            5 
 1591000   0.99556422   -6.2742484    625.26191  0.032749943  0.033032991            4 
 1592000   0.99846986   -6.3130132    622.15482  0.032566731  0.033024027            8 
 1593000    0.9822642   -6.2945199    622.88806  0.032584645  0.033015213            5 
 1594000   0.99768298   -6.3125083    624.24621  0.032635205  0.033006398            4 
 1595000    1.0120111   -6.2919612    625.44361  0.032677304  0.032997592            3 
 1596000   0.98182912   -6.2949546    624.09864  0.032586604  0.032988805            8 
 1597000   0.97752792    -6.346438    622.73687   0.03249514  0.032979939           10 
 1598000   0.98832521   -6.3031714      626.285  0.032659835  0.032971163            6 
 1599000    1.0125329   -6.3174656    625.71503  0.032609706   0.03296232            7 
 1600000   0.98718873   -6.3309189    624.68875  0.032535873  0.032953566            9 
 1601000    1.0053516   -6.3503766    624.79002  0.032520822  0.032944786            9 
 1602000   0.99034542   -6.3033531    627.41123  0.032636872  0.032936167            8 
 1603000    0.9771575   -6.3507233    625.29673  0.032506588  0.032927477            4 
 1604000     1.015248   -6.2910769     627.4976  0.032600665  0.032918848            4 
 1605000    1.0105923   -6.2851656    627.88505   0.03260047  0.032910428            3 
 1606000   0.99634127   -6.3326686     628.3176  0.032602615  0.032901929            5 
 1607000    0.9897823   -6.3127117    628.87822  0.032611399  0.032893358           10 
 1608000   0.97031828    -6.307902    629.78105  0.032637907  0.032884834            3 
 1609000   0.98361754   -6.2969092    629.57947  0.032607182  0.032876298            5 
 1610000   0.99848416   -6.3297725     630.2215   0.03262016  0.032867748            5 
 1611000   0.98527889   -6.2837042    628.29732  0.032500379  0.032859396            6 
 1612000   0.99463621    -6.277082     628.2566  0.032478112  0.032850907            5 
 1613000   0.99291544    -6.347746    629.88289  0.032541997  0.032842304            6 
 1614000    0.9804099    -6.297602    627.74092  0.032411241  0.032833806            7 
 1615000    1.0103878   -6.3092606    628.95843  0.032453995  0.032825164            7 
 1616000   0.97608092   -6.3251426    628.82433  0.032426997  0.032816527            5 
 1617000    1.0007384   -6.3564703    629.77839  0.032456112   0.03280789            3 
 1618000   0.99802611   -6.3267761    631.52593  0.032526058   0.03279935           17 
 1619000   0.98040308   -6.3360272    631.27585  0.032493095  0.032790869           19 
 1620000     0.998509   -6.3368543    630.95072  0.032456313  0.032782229           13 
 1621000    1.0015171   -6.3257734     631.7138  0.032475519  0.032773476           11 
 1622000    1.0063524   -6.3270133    631.66099  0.032452784  0.032764923           10 
 1623000   0.97379383   -6.2909808    632.43898  0.032472735  0.032756349            4 
 1624000     1.028579   -6.3064762     633.7483  0.032519925  0.032747977            7 
 1625000    1.0060001   -6.3507236    632.34633  0.032428017  0.032739508            7 
 1626000   0.96210067   -6.3556148    632.41028  0.032411351  0.032730864            4 
 1627000   0.99300938   -6.3264439    633.47195  0.032445808  0.032722309            4 
 1628000   0.99416087   -6.3144709    633.31815  0.032418005  0.032713779            4 
 1629000   0.98870559   -6.3205583    634.45049  0.032456031  0.032705294            7 
 1630000   0.99834937   -6.2913344    633.72852  0.032399209  0.032696832           19 
 1631000   0.96564177    -6.352984    631.73837  0.032277661  0.032688286            6 
 1632000   0.99045139   -6.3064999    634.81799  0.032415134  0.032679713            9 
 1633000   0.98985564   -6.3109106    634.89326  0.032399125  0.032671267            8 
 1634000   0.98471054   -6.3479455    635.33845  0.032402002  0.032662738            9 
 1635000   0.96346711   -6.3509788    635.42337  0.032386512  0.032654237           11 
 1636000   0.98094542   -6.3128074    637.13639  0.032453973  0.032645848            6 
 1637000   0.99942755   -6.3222873    636.13341  0.032383089  0.032637439            6 
 1638000    1.0020279   -6.3041204    637.70194  0.032443118  0.032629062           10 
 1639000   0.99049241   -6.3381103    635.85706  0.032329523  0.032620857            8 
 1640000   0.99568506   -6.3489725    637.26635   0.03238142  0.032612493            6 
 1641000   0.98119539   -6.3335985    638.01531  0.032399721    0.0326041            5 
 1642000   0.99567154   -6.3307916    637.12787  0.032334951  0.032595833           11 
 1643000   0.98887588   -6.3517692    637.00761  0.032309171  0.032587528           11 
 1644000   0.97648113   -6.3169667    637.60214  0.032319654  0.032579098            4 
 1645000   0.97439744   -6.2954857    636.52511  0.032245447  0.032570678           16 
 1646000   0.99853957   -6.3210777    637.68599  0.032284629  0.032562171            5 
 1647000   0.98304532   -6.3387904     636.9299  0.032226771  0.032553691            4 
 1648000   0.97526892   -6.3420612    639.06189  0.032315023   0.03254523            5 
 1649000   0.97799526   -6.3588011    639.37404    0.0323112  0.032536798            3 
 1650000   0.98761591   -6.3326925    639.12938  0.032279262  0.032528522           10 
 1651000   0.98523992   -6.3265021    639.96122  0.032301697  0.032520147            6 
 1652000   0.99506776   -6.3503481    639.21954  0.032244731  0.032511865           14 
 1653000    0.9661095    -6.351368    638.96562  0.032212423  0.032503424            4 
 1654000   0.97325196    -6.295177    641.05076  0.032298003  0.032494981            5 
 1655000   0.98144371   -6.3346951    641.45934   0.03229906  0.032486572            5 
 1656000   0.99942979   -6.3643613     640.2892  0.032220672  0.032478033            8 
 1657000   0.97170005   -6.3163399    641.88759  0.032281613  0.032469682            3 
 1658000   0.98832559    -6.324203    641.99694  0.032267639  0.032461465            7 
 1659000   0.97538585   -6.3342515    641.30433  0.032213398   0.03245328            5 
 1660000     1.008175   -6.3646693    640.81045  0.032169199  0.032444991            9 
 1661000   0.96761823    -6.341476    641.54725  0.032186798  0.032436656            4 
 1662000   0.98064218   -6.3321996    641.68337  0.032174256  0.032428333            8 
 1663000    1.0005679   -6.3152195    641.42212  0.032141818  0.032419977            7 
 1664000   0.99862643   -6.3454164    642.53504  0.032178237   0.03241168            7 
 1665000   0.97563456   -6.3274903     643.1656   0.03219047   0.03240339            5 
 1666000   0.99379069   -6.3393661    643.79324  0.032202543  0.032395204            8 
 1667000   0.97948577    -6.330778    645.38386   0.03226274  0.032387042            5 
 1668000   0.99698201     -6.33785    645.48026  0.032248215  0.032378836           12 
 1669000   0.99202145   -6.3520911    642.13063  0.032061645  0.032370467            6 
 1670000   0.98076648   -6.3333318    643.36716   0.03210415  0.032362099            9 
 1671000   0.96041843   -6.3218038    645.39744  0.032186188  0.032353855            3 
 1672000    1.0011409   -6.3129745    644.64644  0.032129508  0.032345685            6 
 1673000    1.0081656   -6.3461055    644.83575  0.032119733  0.032337476            7 
 1674000    1.0013584   -6.3445694    645.45781  0.032131512  0.032329329            5 
 1675000   0.97647666   -6.3118272    645.62239  0.032120517  0.032321203            6 
 1676000   0.97698576    -6.352864    645.55297    0.0320979  0.032312983            8 
 1677000    0.9586566   -6.3274481    646.42985  0.032122334  0.032304799           14 
 1678000   0.98262398   -6.3441039    647.97671  0.032180011  0.032296662            7 
 1679000    1.0051977   -6.3210947    647.88018  0.032156054   0.03228843            4 
 1680000   0.97945957   -6.3339553      649.404    0.0322125  0.032280446            8 
 1681000    1.0095661    -6.315813    646.70068  0.032059324  0.032272337           17 
 1682000   0.97865819   -6.3431931    646.99641  0.032054916   0.03226429            9 
 1683000   0.98230047   -6.3257251    648.61783  0.032116153  0.032256316            4 
 1684000    1.0143468   -6.3237005    649.32701  0.032132176  0.032248449            6 
 1685000   0.97104509   -6.2979806    649.32339  0.032112927  0.032240672            8 
 1686000   0.98299364   -6.3303573    649.85172  0.032119994  0.032232758            8 
 1687000   0.97611264   -6.3136086    651.28678  0.032171843  0.032224727            4 
 1688000   0.98754269   -6.3172498    649.83882    0.0320813   0.03221682            9 
 1689000   0.97166275   -6.3012611    650.12893   0.03207662  0.032208928           13 
 1690000    0.9786472   -6.3309631    650.15149  0.032058752  0.032201011            6 
 1691000   0.97269165   -6.3402956     650.0312  0.032033866  0.032192994            4 
 1692000   0.97751356   -6.3547763    650.35417   0.03203084  0.032184954            6 
 1693000   0.98255163   -6.3503668    650.20188  0.032004424   0.03217693            5 
 1694000   0.99649655   -6.3493678    650.55073  0.032002692   0.03216884            7 
 1695000   0.97399711   -6.3514214    650.75943  0.031994072  0.032160781            3 
 1696000   0.96513492   -6.3647614    652.47564  0.032059534  0.032152809            8 
 1697000   0.96546778   -6.3232513      652.016  0.032018071   0.03214491            7 
 1698000   0.99780115   -6.3029607    653.90035  0.032091693  0.032136842            7 
 1699000     0.998891   -6.3247631    650.81924  0.031921681  0.032128739            4 
 1700000   0.97934464   -6.3450993    652.13712  0.031967506  0.032120683            6 
 1701000   0.96769207   -6.3137709    652.68384  0.031975497  0.032112619            7 
 1702000   0.98815089   -6.3608249    651.26641   0.03188731   0.03210461            5 
 1703000   0.99109061   -6.3180384     653.9764  0.032001194  0.032096516            5 
 1704000   0.99963468   -6.3275495    655.08861  0.032036806  0.032088611            7 
 1705000   0.98185341   -6.3300642    655.26252  0.032026516  0.032080752            4 
 1706000   0.98793155   -6.3126899    654.62231  0.031976471  0.032072824            8 
 1707000   0.96743369   -6.3419193     653.2695  0.031891696   0.03206486            4 
 1708000   0.99551332   -6.3740711    654.69025  0.031942342  0.032056898           10 
 1709000   0.97609456   -6.3846842    654.03036  0.031891474  0.032048834            8 
 1710000    0.9597449   -6.3545275    656.07255  0.031972347  0.032040915            9 
 1711000   0.96078111   -6.3275971    657.43728  0.032020128  0.032033026            4 
 1712000   0.98536595   -6.3396103    655.73844  0.031918732  0.032025173            8 
 1713000    1.0102166   -6.3587195    654.74401  0.031851723  0.032017301            9 
 1714000   0.96718075   -6.3416716    654.50283  0.031821413  0.032009302           11 
 1715000    0.9619467   -6.3578039    657.31694  0.031939599  0.032001284            6 
 1716000   0.99678527   -6.3575656    655.83999  0.031849261  0.031993345            9 
 1717000   0.99820536   -6.3519235     656.7815  0.031876408  0.031985397            6 
 1718000   0.99200173   -6.3217778    656.77174   0.03185738  0.031977572            8 
 1719000    0.9736315   -6.3371931    657.65035   0.03188144  0.031969808            3 
 1720000   0.97697737   -6.3849439     656.3814  0.031801424  0.031961892            3 
 1721000   0.94386111   -6.3686238     656.7165  0.031799172   0.03195392           12 
 1722000   0.95181065   -6.3774581    655.69426  0.031731236  0.031945933            7 
 1723000   0.97543262   -6.3269682    656.03998   0.03172954  0.031937948            5 
 1724000   0.98555442   -6.3217433    658.68237  0.031838862  0.031930043            7 
 1725000   0.97920517   -6.3477622    658.19472  0.031796847  0.031921997           11 
 1726000   0.97926134   -6.3472707    658.46807  0.031791622  0.031914059           13 
 1727000   0.96845934    -6.326803    658.89762   0.03179394  0.031906094            6 
 1728000   0.96308364   -6.3442413     656.8895  0.031678699  0.031898139            8 
 1729000   0.98138192   -6.3575959     657.6065  0.031694934  0.031890041            9 
 1730000   0.95348047   -6.3331702    660.44084  0.031813143   0.03188185            5 
 1731000   0.99427118    -6.339244    659.53018  0.031750924  0.031873821           10 
 1732000   0.95596139   -6.3524783    658.69636  0.031692473  0.031865916            9 
 1733000   0.99318544   -6.3421533    660.05934  0.031739726  0.031858043            7 
 1734000   0.98222191    -6.336485    660.51619  0.031743377  0.031850286           10 
 1735000   0.97778678   -6.3559983    660.72728   0.03173522   0.03184243           10 
 1736000   0.97349961   -6.4002091    661.01816  0.031730903  0.031834477           10 
 1737000   0.97166679    -6.331798    660.75804  0.031700155  0.031826689            4 
 1738000   0.97536429   -6.3408236    662.13992  0.031748174  0.031818854            4 
 1739000   0.97832168   -6.3607974    661.77682  0.031712518  0.031811016            7 
 1740000   0.99963459   -6.4103815    659.97622  0.031608057  0.031802968           11 
 1741000   0.96857041   -6.3551715     663.3714  0.031752413  0.031795026           10 
 1742000   0.98559018   -6.3538702    660.75399  0.031608974  0.031787158            5 
 1743000   0.94919795   -6.3432654    662.18159  0.031659093  0.031779126            6 
 1744000    0.9813941   -6.3613796    661.94765  0.031629762   0.03177108            4 
 1745000   0.99187766   -6.3727752    662.77339  0.031651069  0.031763096            7 
 1746000    1.0020371   -6.3570414    660.71815  0.031534849  0.031755126            5 
 1747000    0.9786801   -6.3702626     662.6863   0.03161068  0.031747125            6 
 1748000   0.98545419   -6.3002649    662.07964  0.031563675  0.031739052            8 
 1749000   0.97278773    -6.350485     661.1139  0.031499614  0.031731038            4 
 1750000     0.970167    -6.359384    663.87281  0.031612991  0.031722935           25 
 1751000   0.97042317   -6.3563521    662.47764  0.031528538  0.031714731            6 
 1752000   0.96361385   -6.3367425     665.7202  0.031664774  0.031706634            4 
 1753000   0.97698607   -6.3664259    663.69843  0.031550601  0.031698559            9 
 1754000   0.95463596   -6.3651658     662.6238  0.031481556  0.031690429            9 
 1755000   0.98731804   -6.3417952    663.46282  0.031503458   0.03168246            9 
 1756000   0.97065618   -6.3505151    663.40088  0.031482578  0.031674563            5 
 1757000   0.98442635   -6.3554746     663.6723  0.031477533  0.031666542           11 
 1758000   0.94992449     -6.37791    665.13673  0.031529045  0.031658338            3 
 1759000   0.96168291   -6.3582282    664.83111  0.031496642  0.031650241            4 
 1760000   0.96281678   -6.3646825    665.58847  0.031514606  0.031642263            7 
 1761000   0.94586185    -6.341225    664.88666  0.031463499  0.031634325            4 
 1762000   0.96352534   -6.3430098    664.31425   0.03141857  0.031626319            9 
 1763000   0.98103288   -6.3850285    665.35571  0.031449977    0.0316183            5 
 1764000   0.96970755   -6.3579866    666.79381  0.031500085  0.031610274           11 
 1765000    0.9567587   -6.4001949    664.63614  0.031380365  0.031602178            6 
 1766000   0.99426243   -6.3601583     667.2098  0.031484041  0.031594022            9 
 1767000   0.96447618   -6.3742105    667.49351  0.031479603  0.031585955            9 
 1768000   0.95167211    -6.346115    665.31686  0.031359203  0.031577795            3 
 1769000   0.97732134    -6.365621    667.25319  0.031432692  0.031569538            5 
 1770000   0.96826785   -6.3865227    664.76512  0.031297793  0.031561383            6 
 1771000   0.99006767   -6.3440341    668.72884  0.031466631  0.031553268            4 
 1772000   0.99665864   -6.3598196     664.6053  0.031254952   0.03154523            6 
 1773000   0.99124467   -6.3585044    668.79176  0.031434093  0.031537175            7 
 1774000   0.98226571   -6.3742988    666.71617  0.031318873   0.03152909            9 
 1775000   0.97529879   -6.3686424    668.30409  0.031375779  0.031520867            9 
 1776000   0.98428829   -6.3610098    667.83565  0.031336132  0.031512743           10 
 1777000   0.97343385   -6.3926174    667.60502  0.031307683  0.031504572            4 
 1778000   0.96047313   -6.3834276    666.63677  0.031244693  0.031496309            9 
 1779000   0.98894364   -6.3556624    667.86288  0.031284564  0.031487997            5 
 1780000   0.95781995   -6.3486197    668.31168     0.031288   0.03147978            6 
 1781000   0.96456604   -6.3593963    668.07129  0.031259184  0.031471539            6 
 1782000   0.97810716   -6.3641899    668.52723  0.031262964  0.031463315            4 
 1783000    0.9466443   -6.3656072    670.06257  0.031317189  0.031455105           12 
 1784000   0.94611322    -6.359822    667.31212  0.031171157  0.031446849            9 
 1785000   0.96805563   -6.3505686    669.17941  0.031240869  0.031438565            9 
 1786000   0.96558852   -6.3578638    669.48969  0.031237854  0.031430319            6 
 1787000   0.97602715    -6.379613    668.95985  0.031195665  0.031422052           10 
 1788000   0.95757546   -6.4031122    667.96297  0.031131757  0.031413739            6 
 1789000   0.94789591   -6.3515918    670.21602  0.031219304  0.031405531            6 
 1790000   0.94556493   -6.3722925    671.12441  0.031244153   0.03139737            9 
 1791000   0.95357786   -6.3697069    670.57071  0.031200945  0.031389186           12 
 1792000   0.96285645     -6.38978    669.83631  0.031149382  0.031381006            9 
 1793000   0.93154328   -6.3736962    670.51042   0.03116334  0.031372795            4 
 1794000   0.94976864   -6.3987973    671.45073  0.031189647  0.031364583           13 
 1795000   0.94795559   -6.3450733    670.55071  0.031130488  0.031356342            6 
 1796000   0.97287294   -6.3962622    671.19777  0.031143178  0.031348206           17 
 1797000   0.94337393   -6.3946521    670.46678  0.031091949   0.03133996            9 
 1798000   0.96722326    -6.359353    671.52515  0.031123709  0.031331824            4 
 1799000   0.96852267   -6.3604423    671.70399  0.031114693  0.031323668            9 
 1800000   0.94872431   -6.3717348     672.7457  0.031145634  0.031315357           15 
 1801000   0.97849413   -6.3775217    672.43089  0.031113774  0.031307107            6 
 1802000   0.94840061   -6.3818084     675.2126  0.031225148  0.031298802            2 
 1803000   0.96826489   -6.3815582    672.52451  0.031083588  0.031290575            4 
 1804000   0.95864226   -6.3643704    672.28728  0.031055399  0.031282302           10 
 1805000   0.95826903   -6.3602175    673.70391  0.031103597  0.031274114            7 
 1806000   0.96619032   -6.3617079     673.7047  0.031086411  0.031265906            8 
 1807000   0.95436923   -6.3596482    675.14199  0.031135491  0.031257794            4 
 1808000    0.9742444   -6.3839867    673.28569   0.03103271  0.031249608            8 
 1809000   0.97426162   -6.3644002    675.39308  0.031112635  0.031241441            7 
 1810000   0.96643229   -6.3695142    676.10286  0.031128124  0.031233479            6 
 1811000   0.94895299   -6.3620147    674.08779  0.031018212  0.031225429           11 
 1812000   0.95491854   -6.3940616    674.04868  0.030999296  0.031217327            7 
 1813000   0.96241549   -6.3754764    675.01126  0.031026442  0.031209296            4 
 1814000   0.96549103   -6.3802856    675.77498  0.031044422  0.031201296            6 
 1815000   0.95318918   -6.3846957    676.72816  0.031071082  0.031193198           13 
 1816000   0.95764451   -6.3795494    674.57475  0.030955155  0.031185057            9 
 1817000   0.94827566   -6.3657711    675.96236   0.03100176  0.031176886            9 
 1818000   0.95137555    -6.390324    677.14636  0.031038979  0.031168794            9 
 1819000   0.95910496      -6.3822    676.32213  0.030984155  0.031160575           17 
 1820000   0.96444616   -6.3589094    675.07387  0.030909976  0.031152435            7 
 1821000   0.94219094   -6.3700736    676.11962  0.030940858  0.031144211           17 
 1822000   0.97466891   -6.3528587    678.01529  0.031010579  0.031135998           10 
 1823000    0.9740144   -6.3872697    675.26497  0.030867845   0.03112791           17 
 1824000   0.96191929    -6.392217    676.01685  0.030885273  0.031119725            5 
 1825000   0.95671205   -6.4007278    676.70885  0.030899948  0.031111433            9 
 1826000   0.97021667   -6.3667868    676.90041  0.030891767  0.031103135            5 
 1827000   0.95121938   -6.3718704    676.25722  0.030845522  0.031094848            6 
 1828000   0.95487681   -6.3684134    678.17642  0.030916139  0.031086625            6 
 1829000   0.94409413   -6.3814235    675.54602  0.030779389  0.031078306            7 
 1830000   0.93395291   -6.4169239    677.36366   0.03084534  0.031070029            7 
 1831000   0.96366076   -6.4019312    674.81458  0.030712478   0.03106159            9 
 1832000   0.96898153   -6.3836994    677.53758  0.030819577  0.031053208            8 
 1833000   0.97450039   -6.3797557    678.83093  0.030861563  0.031044928           10 
 1834000   0.96405834   -6.3570192     679.1862  0.030860878  0.031036729            7 
 1835000   0.97210339   -6.3855472    680.26012   0.03089283   0.03102851            7 
 1836000   0.95876221   -6.3416185    679.46844  0.030840071  0.031020286           10 
 1837000   0.94063555   -6.3785038    678.31275  0.030770856  0.031012048           11 
 1838000   0.95472542   -6.3617231    678.51718  0.030763383  0.031003862           10 
 1839000   0.95119188   -6.3534232    680.57714  0.030840001  0.030995806            5 
 1840000   0.94660669   -6.4118839    679.31746  0.030766189  0.030987715            9 
 1841000   0.97322765   -6.4109303    680.75935  0.030814745  0.030979596           13 
 1842000   0.96196397   -6.3942636    680.76031   0.03079806  0.030971465           11 
 1843000    0.9525651   -6.3898504    682.53135  0.030861428  0.030963384            9 
 1844000   0.95394234   -6.3764927    682.42155   0.03083973  0.030955355           14 
 1845000   0.95879727   -6.3692013    683.03256  0.030850613  0.030947351           12 
 1846000   0.96535917    -6.370675    684.09935  0.030882058  0.030939358            5 
 1847000   0.96412103   -6.3865407    682.20917  0.030780056  0.030931355            8 
 1848000   0.94255283   -6.3390939     682.6572  0.030783604  0.030923387           12 
 1849000    0.9611328   -6.3750409    682.73082  0.030770273  0.030915366            8 
 1850000   0.96204395   -6.4084181    681.94964  0.030718452  0.030907283            4 
 1851000   0.93629128   -6.3617244    682.25381  0.030715551  0.030899189            9 
 1852000   0.95708211   -6.3971682    682.41214   0.03070609  0.030891058            6 
 1853000   0.94914445   -6.3940367    683.63554  0.030744538  0.030882843            8 
 1854000   0.94669696   -6.4102721    683.05641  0.030701924  0.030874643           19 
 1855000   0.93854674   -6.4199845      682.304  0.030651572  0.030866503           10 
 1856000   0.94191896   -6.4273491    682.33535  0.030636465  0.030858283            5 
 1857000   0.96258129   -6.3939912    682.86236  0.030643617  0.030849997            6 
 1858000   0.94763205   -6.3741539    682.14068  0.030594756  0.030841829            4 
 1859000   0.95193973   -6.3843594    683.66467  0.030646614  0.030833637            5 
 1860000   0.95241411   -6.3839225    682.54544  0.030579993  0.030825473            5 
 1861000   0.95129413   -6.3776066    684.41442  0.030647252  0.030817352            6 
 1862000   0.93992869   -6.3843814    685.00394  0.030657176  0.030809214           13 
 1863000   0.95690285    -6.392259    682.78315  0.030541383  0.030801032            5 
 1864000   0.97911849   -6.3868112    685.98217  0.030668015  0.030792941            4 
 1865000   0.94958505   -6.3837255    685.61981   0.03063538  0.030784817           10 
 1866000   0.94937177   -6.3934082    684.92635  0.030587993  0.030776735           10 
 1867000   0.95548597   -6.3945992    686.81207  0.030655779  0.030768628           15 
 1868000   0.95881977   -6.4258741     686.7035  0.030634524  0.030760423            6 
 1869000   0.95129429   -6.3887796    688.07487  0.030679279  0.030752373           15 
 1870000   0.93861834    -6.369689    687.83817  0.030652325  0.030744274           10 
 1871000   0.94126432    -6.423708    687.64429  0.030627306  0.030736203            6 
 1872000   0.96006525   -6.4201565    686.88406  0.030577104  0.030728105            4 
 1873000   0.94803178   -6.3712415    688.32172  0.030624743  0.030720114            6 
 1874000   0.94517319   -6.4053191     689.2063  0.030647737  0.030712236            5 
 1875000   0.95397397   -6.3888233    689.17545   0.03063002   0.03070438            7 
 1876000   0.95675873   -6.4127808    689.64123  0.030634383  0.030696481           10 
 1877000   0.94873694    -6.366145    688.90675  0.030585453  0.030688659            5 
 1878000   0.95434016   -6.3750763    690.62609   0.03064546  0.030680814            4 
 1879000   0.94520052   -6.3829634    689.96379  0.030599778  0.030672946           10 
 1880000     0.953229   -6.3979013    689.33289  0.030555536   0.03066499            6 
 1881000   0.94694302   -6.4083579     689.2176  0.030534184  0.030656986           11 
 1882000   0.95912466   -6.4033244    687.78774  0.030454647  0.030648883            9 
 1883000    0.9569195   -6.4009309    689.18946  0.030500507  0.030640787           16 
 1884000   0.94998526   -6.3662913    689.93035  0.030517089  0.030632719            5 
 1885000   0.96558151   -6.3480193    692.00894  0.030592791  0.030624635            8 
 1886000   0.96249916   -6.3783647    688.96966  0.030442279  0.030616583            4 
 1887000   0.95944701   -6.3684922    689.37844  0.030444199  0.030608512            5 
 1888000   0.92506713   -6.3802447    690.23487  0.030465875  0.030600523           10 
 1889000   0.94827622   -6.3768723    691.38158  0.030500334  0.030592617            7 
 1890000   0.95183517   -6.3760323    691.97279  0.030510264  0.030584663            5 
 1891000   0.95783391   -6.4363599    690.55095  0.030431472  0.030576584            8 
 1892000    0.9609611   -6.3903345    690.74836  0.030424082  0.030568486            7 
 1893000   0.96827819   -6.3871852    692.55917  0.030487725   0.03056049            4 
 1894000   0.92317212    -6.423437    692.03794  0.030448695  0.030552554            6 
 1895000   0.94298847   -6.4074577    691.85623  0.030424636  0.030544679           16 
 1896000   0.97982383   -6.3893228    692.22912  0.030424979  0.030536796            8 
 1897000   0.95097996   -6.4191014    692.27076   0.03041077    0.0305289            5 
 1898000   0.94161117   -6.3722149    694.99404  0.030514315  0.030521168           12 
 1899000   0.94003304   -6.3845586    693.64631  0.030439104   0.03051341            8 
 1900000   0.94095718     -6.41769    693.78744  0.030429274  0.030505569            4 
 1901000   0.97015208   -6.4071489    693.92565  0.030419325  0.030497802            4 
 1902000   0.94617783   -6.3806454    695.76792  0.030484049  0.030490024            5 
 1903000   0.94346265   -6.4109832    693.80344  0.030382004  0.030482234           15 
 1904000   0.92589107   -6.4016966    696.27962  0.030474423  0.030474417            9 
 1905000   0.94931765   -6.4117227    696.80363  0.030481349  0.030466649           17 
 1906000   0.95723068   -6.3865545    694.50081  0.030364673  0.030458973            7 
 1907000   0.95724052   -6.3948595    696.39463  0.030431508  0.030451293            4 
 1908000   0.93420409   -6.3989417    697.43398  0.030460953  0.030443614            7 
 1909000   0.95539779    -6.404075    695.55444  0.030362949  0.030435972           11 
 1910000   0.95895672   -6.4226358    698.06397  0.030456543  0.030428487            6 
 1911000   0.94018499   -6.4333354    697.68151  0.030423928  0.030420913            7 
 1912000   0.95291163   -6.3906088    697.27181  0.030390159  0.030413395            5 
 1913000   0.97895633    -6.376745    697.86578  0.030400147  0.030405863            4 
 1914000   0.94362128   -6.3890315    699.42717  0.030452246  0.030398242            9 
 1915000   0.94735423   -6.3966908    698.06298  0.030376979  0.030390624           15 
 1916000   0.96309225   -6.4322495    697.95904  0.030356604  0.030382979            9 
 1917000   0.95489445   -6.4052779    697.94163  0.030340012  0.030375404            6 
 1918000   0.93837325   -6.3924751    701.79534  0.030491629  0.030367867            5 
 1919000   0.94174167   -6.4040584    699.70451  0.030384945  0.030360384            9 
 1920000   0.94494396   -6.3898542    697.68892  0.030281637   0.03035291           11 
 1921000   0.93022852   -6.4199831    699.83447  0.030358948  0.030345341            5 
 1922000    0.9521609   -6.4038704    701.52831  0.030416593  0.030337807            8 
 1923000   0.94552993   -6.4082545    701.43358  0.030396671  0.030330275            7 
 1924000   0.93936205   -6.3968996     701.7405  0.030394166  0.030322744           16 
 1925000    0.9364852   -6.3915676    701.60081  0.030372329  0.030315334           11 
 1926000   0.96353652   -6.4012811    701.47673  0.030351191  0.030307777            6 
 1927000   0.94393406   -6.3981934    700.56195  0.030295881  0.030300256           11 
 1928000   0.92671315   -6.4179176    702.32563  0.030356398  0.030292758           13 
 1929000   0.93360581   -6.4078268    701.62445   0.03031037  0.030285242            6 
 1930000   0.94287543   -6.4130535    702.46936  0.030331147  0.030277746            9 
 1931000    0.9467971    -6.428227    702.32202  0.030309081  0.030270218           11 
 1932000   0.92476512   -6.3701119    703.04235  0.030324463  0.030262768            7 
 1933000   0.95304234   -6.4113203    703.25338  0.030317873   0.03025532            8 
 1934000   0.94127225   -6.4252918    704.34206  0.030349107  0.030247897            7 
 1935000   0.94028249   -6.4583748    701.83953  0.030225647  0.030240356           12 
 1936000   0.94192314   -6.3927207    702.56505  0.030241264  0.030232848           10 
 1937000   0.93896706   -6.4229237    702.32786  0.030215448  0.030225331            9 
 1938000   0.92362934   -6.4005841    703.77256  0.030261978  0.030217844            5 
 1939000   0.93446289   -6.4287352    704.69104  0.030285845  0.030210316            4 
 1940000   0.95563603    -6.395197    705.09225  0.030287468  0.030202895            5 
 1941000   0.94189701   -6.4255727    705.34488   0.03028271  0.030195531           10 
 1942000   0.94113802   -6.3679642    705.57659  0.030277059  0.030188116            5 
 1943000   0.94569645   -6.3945316    705.16998  0.030244037  0.030180744            4 
 1944000   0.93305861   -6.3985542    709.00744   0.03039298  0.030173459            5 
 1945000   0.95196426   -6.4327246    705.08247  0.030209189  0.030166146            3 
 1946000   0.95262984   -6.4289952     705.0544  0.030192463  0.030158784           17 
 1947000   0.95456669   -6.4155387    705.34516  0.030189401  0.030151443           19 
 1948000   0.92789289   -6.4302767    706.52143  0.030224223   0.03014412            8 
 1949000   0.95394086   -6.4163812    706.74234  0.030218161  0.030136775            5 
 1950000   0.94259403   -6.4352302    706.62119  0.030197487  0.030129415            7 
 1951000   0.93944361   -6.4289441    705.74106  0.030144415  0.030122018           11 
 1952000   0.94450432   -6.4342132    706.43229  0.030158482  0.030114586            7 
 1953000      0.92509   -6.4173632    707.31331  0.030180633  0.030107156            5 
 1954000    0.9421743   -6.4316014    708.57898  0.030219165  0.030099799            8 
 1955000   0.93668882   -6.3936915    707.71844  0.030167026  0.030092433            7 
 1956000    0.9525533   -6.4169583     707.7764  0.030154073  0.030085014            6 
 1957000   0.92924051   -6.4453062    706.31046  0.030076242  0.030077621           11 
 1958000   0.94004333   -6.4081866    708.68055  0.030161753  0.030070173            5 
 1959000    0.9427731    -6.444641    708.15649  0.030124064   0.03006272            4 
 1960000   0.95480605   -6.4085945    709.61464  0.030170691   0.03005527            8 
 1961000    0.9357482    -6.431386    708.06262  0.030089352  0.030047919            7 
 1962000   0.93313787   -6.4134214    708.71494  0.030101722   0.03004045            9 
 1963000   0.93367139   -6.4214081    708.71356  0.030086329  0.030032992            7 
 1964000   0.94617769   -6.4171193       706.68  0.029984725  0.030025509           16 
 1965000   0.92954421   -6.4589578    708.77276  0.030058217  0.030017994            7 
 1966000   0.91902902   -6.4047152    709.30098  0.030065318  0.030010524            9 
 1967000   0.94538314   -6.4382222    709.14582  0.030043459  0.030003027            8 
 1968000   0.92727096   -6.4283274    709.60109  0.030047472  0.029995488           15 
 1969000   0.94754337   -6.4035334    707.44322  0.029940884  0.029987891            5 
 1970000   0.93820221   -6.4244622    706.92202  0.029903639  0.029980282           10 
 1971000   0.93134947    -6.390628    711.40821  0.030078142  0.029972736            9 
 1972000   0.95737071   -6.4068812    710.09726  0.030007491  0.029965154            7 
 1973000   0.92994626   -6.4380739    709.94117  0.029985689  0.029957626           14 
 1974000   0.92558872   -6.3987199    708.01071  0.029889003  0.029950054           11 
 1975000   0.95467193   -6.4112701    712.04154  0.030043947  0.029942523            6 
 1976000   0.93091142   -6.4044045    711.33393  0.029998901  0.029935038            5 
 1977000   0.93805451   -6.4063049    712.06646  0.030014604  0.029927609            5 
 1978000   0.93742145   -6.4238304    712.64645  0.030023865  0.029920147           12 
 1979000   0.95808725   -6.4451993    710.99519  0.029939161  0.029912645            5 
 1980000   0.95126377   -6.4493806    709.74842  0.029871566  0.029905055           10 
 1981000   0.93345499   -6.4448775    711.33298  0.029923144  0.029897429            7 
 1982000   0.94155616   -6.4337999    712.00395  0.029936257  0.029889875            8 
 1983000   0.94222149   -6.4150317    712.86044  0.029957154  0.029882422            8 
 1984000   0.92927804   -6.3745312    713.87743  0.029984771  0.029874996            7 
 1985000    0.9148015   -6.4197146    711.84296  0.029884255   0.02986754            5 
 1986000   0.92993922     -6.43357    713.68961  0.029946694  0.029860075           11 
 1987000   0.93107942   -6.3965156    710.47758  0.029796912  0.029852541            9 
 1988000   0.91764504   -6.4310339    713.25618  0.029898398  0.029844992           15 
 1989000   0.93723468    -6.435658    712.74069  0.029861768    0.0298374            7 
 1990000   0.94578344   -6.4371966    712.83831  0.029850851  0.029829894            5 
 1991000   0.94261214   -6.4084083    715.03009  0.029927595  0.029822377            7 
 1992000   0.91936078   -6.4181547    714.52452  0.029891421  0.029814922           10 
 1993000   0.91882031   -6.4142287     715.4658   0.02991578  0.029807536           14 
 1994000   0.93291981   -6.4130305    715.52895  0.029903417  0.029800077           11 
 1995000   0.92614061    -6.434294    714.69417  0.029853557  0.029792677            4 
 1996000   0.92694627   -6.4430208    713.78715  0.029800733  0.029785159            3 
 1997000   0.94393056   -6.4228812    718.14867  0.029967813  0.029777831            7 
 1998000   0.92735069   -6.4234334    715.30763  0.029834319  0.029770496           12 
 1999000   0.92942584    -6.460746    715.00903  0.029806947  0.029763086            7 
 2000000   0.92283692   -6.4003569    715.16357  0.029798482  0.029755718            5 
 2001000   0.93568124    -6.464777    717.92538  0.029898608  0.029748454            3 
 2002000   0.91923725   -6.4319681    715.78501  0.029794581  0.029741139           12 
 2003000   0.91930652   -6.4361377    715.64481  0.029773873  0.029733728           10 
 2004000   0.92801154   -6.4345771    714.85016  0.029725972  0.029726247           12 
 2005000   0.91564128   -6.4590863    717.30847   0.02981332   0.02971878           16 
 2006000   0.93217339   -6.4214413    717.85929   0.02982134  0.029711341           19 
 2007000   0.92471047   -6.4117222    715.87544  0.029724109  0.029703956            5 
 2008000   0.93417753   -6.4490139    718.59151  0.029822025  0.029696536           10 
 2009000   0.93214723   -6.4477329    719.46767  0.029843524  0.029689108           25 
 2010000   0.94351503   -6.4283176    718.33381  0.029781667  0.029681676           11 
 2011000   0.93474223   -6.4482732    718.45323  0.029771806   0.02967434           25 
 2012000   0.91322658   -6.4255634     716.5787   0.02967937  0.029667028           12 
 2013000   0.93552188   -6.4453388    717.34093   0.02969618  0.029659583           16 
 2014000   0.92484829   -6.4362514    718.41706  0.029725962   0.02965215            6 
 2015000   0.93319695   -6.4568432    718.47276  0.029713514  0.029644732           17 
 2016000   0.92905367   -6.4524662    718.84302   0.02971408  0.029637335            6 
 2017000   0.91880733    -6.465136    718.75866  0.029695863  0.029629907            8 
 2018000   0.91184998   -6.4320372     719.3389  0.029705108  0.029622472            7 
 2019000   0.94277991   -6.4408829    718.96285  0.029674874  0.029615055           14 
 2020000   0.93076068   -6.4534027     717.3622   0.02959415  0.029607582            9 
 2021000   0.94078367   -6.4496756    720.00403  0.029688439  0.029600117            6 
 2022000   0.91566633   -6.4507382    719.54355  0.029654779  0.029592685            7 
 2023000   0.94462723   -6.4519645     720.4984  0.029679453  0.029585307           10 
 2024000    0.9235796   -6.4458201    720.47137  0.029663676  0.029577827            9 
 2025000   0.93111102    -6.443245     718.1822  0.029554823   0.02957043            7 
 2026000   0.95058046   -6.4151658    721.37685  0.029671638  0.029563019            5 
 2027000   0.91076188   -6.4349522    722.22996  0.029692072  0.029555528           10 
 2028000   0.91885555   -6.4590772    719.72709  0.029574585  0.029548023            5 
 2029000   0.91328889   -6.4456914    720.45724  0.029589997  0.029540483            7 
 2030000   0.92615666   -6.4799085    719.82958  0.029549654  0.029532895            5 
 2031000   0.93960648   -6.4607197    721.15143  0.029589341  0.029525442           15 
 2032000   0.93343343   -6.4189996    721.58556  0.029592584  0.029517946            6 
 2033000    0.9346753   -6.4267226    720.39346  0.029529163  0.029510474            9 
 2034000   0.90919704   -6.4578737    720.26076  0.029509208  0.029502978           11 
 2035000   0.93107985   -6.4451631    721.82355  0.029558704  0.029495523           16 
 2036000    0.9399665   -6.4611179    722.19522  0.029559398    0.0294881            5 
 2037000   0.91773505   -6.4346055    722.14863  0.029542981  0.029480683            6 
 2038000   0.94099198   -6.4425236    721.46387  0.029500485  0.029473318            6 
 2039000   0.92274612    -6.418169    723.70248  0.029577508  0.029465977            7 
 2040000   0.94255407    -6.436866     723.3732  0.029549559  0.029458665            8 
 2041000   0.94580697   -6.4583326     723.1084  0.029524269  0.029451326            5 
 2042000   0.90334922     -6.45755     724.2549  0.029556599   0.02944397            9 
 2043000   0.91490916   -6.4815613    723.40586    0.0295075  0.029436582            8 
 2044000   0.90021549    -6.466621    723.73943  0.029506663  0.029429206           29 
 2045000   0.90346797   -6.4102532    724.54848  0.029525203  0.029421866           25 
 2046000   0.93810465   -6.4554413    724.74333  0.029518709  0.029414548            5 
 2047000   0.92879077   -6.4770644    724.70788  0.029502845  0.029407209            5 
 2048000    0.9362609   -6.4589388    723.26619  0.029429777  0.029399869            9 
 2049000   0.95372587   -6.4355535     727.9903  0.029607544  0.029392635            7 
 2050000   0.92972664   -6.4423284    725.75451  0.029502216  0.029385427           25 
 2051000   0.91850226   -6.4492267    726.21803  0.029506665  0.029378311           18 
 2052000   0.93979281   -6.4472087    727.41077  0.029540723  0.029371144            6 
 2053000   0.92501808   -6.4589393     726.6464  0.029495308   0.02936399           10 
 2054000   0.92747961   -6.4243066    727.54928  0.029517579   0.02935677            8 
 2055000   0.92444521   -6.4318304    728.32947  0.029534853  0.029349644           12 
 2056000   0.91459583   -6.4672535    727.38627  0.029482258  0.029342384           11 
 2057000    0.9324788   -6.4713908    727.35351  0.029466598  0.029335168            9 
 2058000   0.91117472   -6.4482415    728.60141   0.02950281  0.029327892            7 
 2059000   0.91525907   -6.4560612    726.49434  0.029403203  0.029320693            4 
 2060000   0.92318275    -6.468276    725.60248  0.029352851  0.029313461            7 
 2061000   0.93385741   -6.4402936    729.09487  0.029479819  0.029306281            9 
 2062000   0.91805467   -6.4549883    728.90954  0.029458032  0.029299126            9 
 2063000   0.90854915   -6.4509027    727.51108  0.029387263  0.029291986           12 
 2064000    0.9274808   -6.4610461    730.39362  0.029489406  0.029284866            3 
 2065000   0.93352708   -6.4568996    730.68849  0.029487025  0.029277793           10 
 2066000   0.91664608   -6.4318561    730.56418  0.029467739  0.029270696            9 
 2067000   0.92126232   -6.4603887    731.09473  0.029474872  0.029263621           21 
 2068000   0.90377846   -6.4392005    730.15057  0.029422573  0.029256405            4 
 2069000   0.89605782   -6.4498984    729.83611  0.029395687  0.029249221            9 
 2070000   0.93659493   -6.4689646    728.66893  0.029334498  0.029241921            4 
 2071000   0.93045171   -6.4674474    731.11787  0.029418875   0.02923466            7 
 2072000   0.92749757   -6.4444876    729.42451  0.029336571  0.029227413           10 
 2073000   0.92606092   -6.4528734     730.2723    0.0293565  0.029220175            5 
 2074000   0.91526923    -6.466099    731.25767  0.029381938  0.029212952           12 
 2075000   0.94556435    -6.485879    731.88508  0.029392975  0.029205758            9 
 2076000   0.90067965   -6.4570947    729.22103  0.029271878  0.029198563            9 
 2077000     0.918401     -6.43721    730.97025  0.029327967  0.029191329            6 
 2078000   0.91206453   -6.4561891    732.35112   0.02936923  0.029184123            9 
 2079000   0.89507604   -6.4582517    731.25375  0.029311117  0.029176986           15 
 2080000   0.90196712   -6.4420478    732.39557  0.029342771  0.029169882           12 
 2081000   0.92431954   -6.4585378    731.64371  0.029298563   0.02916276            9 
 2082000   0.91445635   -6.4641167    733.75332  0.029368929  0.029155566           12 
 2083000   0.93241415   -6.4700422    730.37669  0.029219743  0.029148351            6 
 2084000   0.90832815   -6.4645356    732.78976  0.029302214  0.029141092            5 
 2085000   0.92279826   -6.4917198    731.07942  0.029219801  0.029133886            8 
 2086000   0.93199111   -6.4702016    732.68625  0.029269984  0.029126694            7 
 2087000   0.91779716   -6.4402453    735.94861  0.029386225    0.0291196           11 
 2088000   0.90974022   -6.4546722    732.15208  0.029220629  0.029112475            6 
 2089000   0.91824117   -6.4207698    732.61446  0.029225086  0.029105341           10 
 2090000   0.90183359   -6.4563777    732.82225  0.029219388  0.029098189           11 
 2091000   0.92705267   -6.4350148    733.76228  0.029242878  0.029091016            9 
 2092000   0.91433213   -6.4599538    733.68584  0.029225854  0.029083821            6 
 2093000   0.91191626   -6.4629011    735.65998  0.029290492  0.029076576            6 
 2094000   0.92278082   -6.4428279    734.42119  0.029227204  0.029069415           11 
 2095000   0.91924678   -6.4263479    734.15304  0.029202587  0.029062298           15 
 2096000   0.93606333    -6.445327    735.75616  0.029252392  0.029055163            5 
 2097000   0.89334579   -6.4409191    734.71579  0.029197099  0.029048042            8 
 2098000   0.92558099   -6.4392165    736.73381  0.029263339  0.029040877            7 
 2099000    0.9162246   -6.4737827    736.56605  0.029242736  0.029033703            5 
 2100000   0.89876994   -6.4780857    733.87666   0.02912209  0.029026532           10 
 2101000   0.92773563   -6.4615211    736.18036  0.029199602  0.029019305           17 
 2102000   0.93138646   -6.4411879    735.86465  0.029173194  0.029012144            8 
 2103000   0.91604419   -6.4672999    736.27744  0.029175679   0.02900493            8 
 2104000   0.92642696   -6.4802884    735.34964  0.029125065  0.028997796           10 
 2105000   0.92178667   -6.4668572    736.29604  0.029148695  0.028990623            8 
 2106000    0.8935553    -6.467079    736.46328  0.029141472  0.028983473            6 
 2107000   0.91474491   -6.4707222    735.92781  0.029106463  0.028976321            7 
 2108000   0.90809466   -6.4551907    737.41069  0.029151277   0.02896913            6 
 2109000   0.93002167     -6.46769    736.69881  0.029109325  0.028961972            7 
 2110000   0.90176426   -6.4630846     738.1104   0.02915128  0.028954781            6 
 2111000   0.92354346    -6.470768    737.32595  0.029106504  0.028947577            9 
 2112000   0.93241577    -6.473362    736.62634  0.029065118  0.028940402            6 
 2113000   0.89112401   -6.4610605    736.77037  0.029057042  0.028933196            7 
 2114000   0.92732195   -6.4693292    735.40998  0.028989671  0.028925973            9 
 2115000   0.91772023   -6.4563264    739.07202  0.029120253  0.028918804            5 
 2116000   0.91441458   -6.4670286    737.64493  0.029050289    0.0289117           11 
 2117000   0.91594874   -6.4715825    738.70755  0.029078395   0.02890456            9 
 2118000   0.91144478    -6.492745    738.82741  0.029069382  0.028897389            5 
 2119000    0.9195657   -6.4704426    738.92775  0.029059609  0.028890234            8 
 2120000   0.92112394   -6.4630995    739.28462   0.02905993  0.028883078           16 
 2121000   0.90836614   -6.4737024     740.3436  0.029087836  0.028875982           17 
 2122000   0.90880713   -6.4656911    740.15029  0.029066537   0.02886889            8 
 2123000   0.90826301   -6.4750592    738.62884  0.028993124  0.028861784           11 
 2124000   0.92954127   -6.4283255    741.90371  0.029107961  0.028854753           10 
 2125000   0.89122615    -6.445273    739.50169  0.029000066  0.028847758            4 
 2126000   0.89855776   -6.4909472    740.14138  0.029011499   0.02884069            7 
 2127000   0.90250425    -6.449217    739.85973  0.028986825  0.028833638            9 
 2128000   0.89058192   -6.4705748    740.81931  0.029010781   0.02882661           10 
 2129000   0.91247091   -6.4787802    742.19696  0.029051079  0.028819571           22 
 2130000   0.90934532   -6.4635475    741.35457  0.029004482  0.028812535            8 
 2131000   0.91326501   -6.5037257    741.70394  0.029004534  0.028805554           10 
 2132000    0.8975652   -6.4798867    741.82359  0.028995606   0.02879845            9 
 2133000   0.92107019   -6.4730673    740.60562  0.028934428   0.02879135            5 
 2134000   0.90430393    -6.447151    741.06496  0.028938807  0.028784322            8 
 2135000   0.91246519   -6.4793754    742.80407  0.028993133  0.028777285            5 
 2136000   0.91145956    -6.485317    743.44687  0.029004637  0.028770247            6 
 2137000   0.90946567   -6.4546102     742.7486  0.028963836  0.028763179            4 
 2138000   0.89963209   -6.4514988    744.79615  0.029030096  0.028756209           13 
 2139000   0.91484017   -6.4613464    742.76904   0.02893755  0.028749238            5 
 2140000   0.89759869   -6.4657212    741.13739   0.02886049  0.028742262           13 
 2141000   0.88362012   -6.4790874    742.84276  0.028913388  0.028735312            6 
 2142000   0.91663841   -6.4829274    744.48822  0.028963905  0.028728299            8 
 2143000   0.91998909   -6.4575107    744.67177  0.028957527  0.028721306           13 
 2144000   0.91196263   -6.4165096    746.09753  0.028999438  0.028714463            5 
 2145000   0.93245468   -6.4870455    747.99132  0.029059492  0.028707629            6 
 2146000   0.90621712   -6.4981212    745.37781  0.028944463  0.028700802           10 
 2147000   0.90765139   -6.4768229    745.94337  0.028952933  0.028693957            9 
 2148000   0.91095072   -6.4950947    748.17279  0.029025946  0.028687176            4 
 2149000   0.91714054   -6.4538167    749.27849  0.029055316  0.028680513           11 
 2150000   0.89762042   -6.4614766    746.90985  0.028949994  0.028673778           13 
 2151000   0.91598033   -6.4573928    749.61321  0.029041268   0.02866702            5 
 2152000   0.91275875   -6.4849196    748.05161  0.028967302  0.028660238           15 
 2153000   0.89185648   -6.4622183    748.56211  0.028973607  0.028653535           10 
 2154000   0.88729521   -6.4671478    747.88428  0.028933932  0.028646784           13 
 2155000   0.90749485   -6.4939377    746.90843   0.02888277  0.028640068            8 
 2156000   0.89576204   -6.4764623    748.67646  0.028937711  0.028633437           14 
 2157000   0.91126588   -6.4686762    750.81739  0.029007008  0.028626783            8 
 2158000   0.89996458   -6.4536614    750.07141  0.028964759  0.028620089            6 
 2159000   0.91279983   -6.4645693    749.79164  0.028940545  0.028613346           12 
 2160000   0.90326254   -6.4604099    748.70717  0.028885308  0.028606613           10 
 2161000   0.91101549   -6.5136367    749.92467  0.028918891  0.028599895           13 
 2162000   0.91526018   -6.4903485    749.69123  0.028896517  0.028593165           11 
 2163000   0.90954741   -6.4650315    752.50786  0.028991673  0.028586478            9 
 2164000   0.89787858   -6.4679117    750.94091  0.028917934  0.028579884           16 
 2165000   0.89775486   -6.4448998    749.21802  0.028838261  0.028573167           12 
 2166000   0.89243165   -6.4644245    751.56474  0.028915233  0.028566438           12 
 2167000   0.90573749   -6.4833769    751.89882  0.028914737  0.028559723            9 
 2168000   0.89937105   -6.4831621    751.13603   0.02887208  0.028552983            8 
 2169000   0.90978324    -6.471053    752.26491   0.02890214  0.028546156            6 
 2170000   0.91492792    -6.477806    748.99962  0.028763426  0.028539298            5 
 2171000    0.8816271   -6.4853757    751.50931  0.028846511  0.028532473            6 
 2172000   0.92403532   -6.4997248    751.93718  0.028849646  0.028525723           19 
 2173000   0.88409084   -6.4776811    750.70948  0.028789288  0.028518951            9 
 2174000   0.90711669   -6.4825237    750.55048  0.028769951  0.028512225            7 
 2175000   0.91754404   -6.4831895    753.74291  0.028879039  0.028505501            7 
 2176000   0.90200196   -6.4621707    753.46481  0.028855117  0.028498815            7 
 2177000   0.90282706   -6.4651252    753.84638  0.028856468  0.028492124            9 
 2178000   0.90871963    -6.474346    752.36629  0.028786589  0.028485419            8 
 2179000   0.90978845   -6.4689782    752.69732  0.028786038  0.028478761            6 
 2180000   0.91391186   -6.4883713    753.01392  0.028784936  0.028472099            7 
 2181000   0.89531849   -6.5169846    754.21397   0.02881759  0.028465403            4 
 2182000   0.89768477   -6.4647174    754.70329  0.028823071  0.028458704           12 
 2183000   0.88982669   -6.4912227    753.32018  0.028757069  0.028451935            5 
 2184000   0.89999348   -6.5206016    752.58788   0.02871596   0.02844516           19 
 2185000   0.89490339   -6.4822524    753.40708  0.028734061  0.028438368            9 
 2186000   0.89707492   -6.5077405    753.76995  0.028734749  0.028431592            5 
 2187000   0.91393145   -6.4658877    753.72342  0.028719838  0.028424846            7 
 2188000   0.92615237   -6.5092016    753.34286  0.028692217  0.028418065           11 
 2189000   0.90377055   -6.4905482    754.99859  0.028742142  0.028411295            8 
 2190000   0.89659735   -6.5082418    755.84302   0.02876115  0.028404588            6 
 2191000   0.91299743   -6.4869421    753.71788  0.028667195  0.028397817            8 
 2192000   0.90826796   -6.4911675    754.78873  0.028694827  0.028391044            6 
 2193000   0.90068755   -6.5000454    753.64075  0.028638119  0.028384301           10 
 2194000   0.90087165   -6.5007544    754.37729  0.028653042  0.028377488            8 
 2195000   0.89379697   -6.4917926    754.91837   0.02866053  0.028370712            6 
 2196000   0.91096441   -6.4896731    754.05013  0.028614531  0.028363953           23 
 2197000   0.91043809    -6.517045    756.79741  0.028705713  0.028357162           12 
 2198000   0.89236518   -6.5117779    755.88758  0.028658158  0.028350398            9 
 2199000   0.87930503    -6.504897     755.7737   0.02864081  0.028343709           15 
 2200000   0.90077816   -6.4988264    752.78039  0.028514409  0.028336957           16 
 2201000   0.89814068   -6.4961127    755.74724  0.028613783   0.02833024            6 
 2202000   0.90707312   -6.4859983    756.47413  0.028628297   0.02832353            3 
 2203000   0.90192627   -6.4781842    757.91355  0.028669751   0.02831676            5 
 2204000   0.93009916   -6.5138204    757.35221  0.028635519  0.028309972            9 
 2205000   0.89301589   -6.5153858    756.05705  0.028573585  0.028303168            6 
 2206000   0.90587742   -6.4957485    756.41452  0.028574136  0.028296326            6 
 2207000   0.89619074   -6.4855164    755.89504  0.028541574  0.028289518            9 
 2208000   0.91546408   -6.5137862    754.19232  0.028464384  0.028282723           15 
 2209000   0.91495386   -6.5050675    756.72363  0.028546991  0.028275855            9 
 2210000   0.89397839   -6.4620195    757.91368  0.028578947  0.028269068           11 
 2211000   0.87081765   -6.5027343    758.69614  0.028595512  0.028262287            8 
 2212000   0.89163037   -6.5066858    758.56609  0.028577686  0.028255439            5 
 2213000   0.89310756   -6.5334676    757.63301  0.028529636  0.028248591           14 
 2214000   0.91285813    -6.527768    757.18826   0.02850001  0.028241711            9 
 2215000   0.89963698   -6.5020178    755.82741  0.028435945  0.028234864           12 
 2216000   0.89470345   -6.5041783    756.13671  0.028434744  0.028227962            8 
 2217000   0.89510278    -6.515688    755.27597  0.028389564  0.028221097            7 
 2218000   0.90735088   -6.4563069    758.60988  0.028502024  0.028214273            9 
 2219000    0.9075176   -6.5105975    758.13036  0.028471172  0.028207405           18 
 2220000   0.89818788   -6.5141575    756.31111  0.028390057  0.028200413           13 
 2221000   0.90552872   -6.4982826    757.86267  0.028435489  0.028193415           13 
 2222000   0.89306782   -6.5091176    758.34632  0.028440831  0.028186397           26 
 2223000   0.89891473   -6.4840258    758.99477  0.028452345  0.028179493            9 
 2224000   0.91590193   -6.4847889    760.33793  0.028489881  0.028172589           13 
 2225000   0.91477414   -6.5078139    756.64281  0.028338682  0.028165681            9 
 2226000   0.89902192    -6.537952    755.50242  0.028283259  0.028158729            5 
 2227000   0.91075362   -6.5042523    760.52634  0.028458552  0.028151816            7 
 2228000   0.91162334   -6.4939933    758.80208  0.028381287  0.028144952            8 
 2229000   0.87345823   -6.5029244    758.55997  0.028359502  0.028138051            6 
 2230000    0.9018803   -6.5124969    757.73162   0.02831583  0.028131137            7 
 2231000   0.88198838   -6.4918195    757.17425  0.028282319  0.028124258           10 
 2232000   0.87121698   -6.4989939    761.40764  0.028427704  0.028117411            8 
 2233000   0.88041368   -6.4882933     759.4258  0.028341013  0.028110512            6 
 2234000   0.89699123   -6.5104128    759.80237  0.028342374  0.028103649           19 
 2235000   0.87511528   -6.4847746    759.48395  0.028317821  0.028096832            8 
 2236000   0.90146927   -6.5036158    759.10141  0.028290899  0.028089966           12 
 2237000   0.88548631   -6.5209498    758.93958  0.028272224  0.028082999           17 
 2238000   0.86518079   -6.5009818    759.24839   0.02827109  0.028076083            6 
 2239000   0.88923492   -6.4771815    761.13334  0.028328619   0.02806924            4 
 2240000   0.88506549   -6.4818193    760.99361  0.028310774  0.028062462            9 
 2241000   0.90853952   -6.5085776    761.21837  0.028306499  0.028055642            6 
 2242000   0.90008366   -6.4935951    762.09006  0.028326274  0.028048828            7 
 2243000    0.8947561   -6.5117257    761.58803  0.028294993  0.028042077           21 
 2244000   0.88860652   -6.5140312    763.02996  0.028335932  0.028035313           16 
 2245000   0.88315845   -6.5013778    761.15582  0.028253742  0.028028482           12 
 2246000   0.87849558    -6.489963    762.59136  0.028294425  0.028021712           12 
 2247000   0.89699241   -6.5226948    761.61935  0.028245785  0.028014905            9 
 2248000   0.89246021   -6.5295423    764.39629  0.028336161  0.028008079           13 
 2249000   0.88506847   -6.5059572     764.4731  0.028326408  0.028001227            9 
 2250000   0.90324359   -6.4589598     764.2947  0.028307211  0.027994416            5 
 2251000   0.88266629   -6.4968539    762.10235  0.028213474  0.027987576            6 
 2252000   0.88671119   -6.5090323    761.82577  0.028190711  0.027980692            4 
 2253000   0.87949761   -6.5475084    760.70035  0.028136572  0.027973753           25 
 2254000   0.88636016   -6.5233387    763.43014  0.028225012  0.027966817            9 
 2255000   0.90659942   -6.4782817    765.39113  0.028284964  0.027960018            4 
 2256000   0.90883591   -6.5267321    764.95273  0.028256233  0.027953229           11 
 2257000   0.89628325   -6.5229868    764.35538  0.028221658  0.027946394            7 
 2258000   0.87786613   -6.5064462    763.61639  0.028181886  0.027939464            7 
 2259000   0.87936427   -6.5331971    762.43015  0.028125651  0.027932607           18 
 2260000   0.87415697   -6.5097217    763.68118  0.028159335  0.027925771           13 
 2261000   0.88257242   -6.4839998    765.66599  0.028220035  0.027919012            6 
 2262000    0.8963643   -6.5065575    766.02072  0.028220628  0.027912313           19 
 2263000   0.87797818   -6.5163195     767.3735  0.028257972  0.027905512           16 
 2264000   0.91064127   -6.5486969    765.35432  0.028171169  0.027898737           28 
 2265000    0.8922864    -6.539953    764.97576  0.028144803  0.027891884            7 
 2266000   0.90401799   -6.4974544    765.78766  0.028162241  0.027885093            8 
 2267000   0.89522286    -6.511737    766.92205  0.028191518  0.027878251           10 
 2268000   0.88952622   -6.5228277     764.9926  0.028108194  0.027871467            8 
 2269000   0.89935569     -6.53346    764.57738  0.028080556  0.027864656            7 
 2270000   0.90067752   -6.5128516    767.16149   0.02816305  0.027857853           12 
 2271000   0.90440722   -6.5044088    765.53805  0.028091078  0.027851069            9 
 2272000   0.88746361    -6.522208      765.324  0.028070863  0.027844268            7 
 2273000   0.89617383   -6.5005515    765.59236  0.028068352  0.027837484            6 
 2274000   0.87551911   -6.5125907    766.48775  0.028088821  0.027830703            8 
 2275000   0.87889417   -6.5164605    765.79994   0.02805128    0.0278239            5 
 2276000   0.87880807   -6.4878659    769.75462  0.028183751  0.027817142           23 
 2277000   0.88205678   -6.5143291    766.92386  0.028067774  0.027810413           12 
 2278000   0.88586673   -6.5175563    767.78141  0.028086824  0.027803654           14 
 2279000   0.88266165   -6.5112548    765.75287  0.028000324  0.027796788            9 
 2280000   0.86965935   -6.5351326    767.41308  0.028048724  0.027789991           13 
 2281000    0.8868606   -6.5347952    767.18748  0.028028185  0.027783192           11 
 2282000   0.88181756   -6.5191406    768.27516  0.028055622  0.027776368            6 
 2283000    0.8555322   -6.5057911    767.73439  0.028023594  0.027769502           12 
 2284000   0.89498365    -6.546047    767.76689   0.02801251  0.027762659           13 
 2285000   0.88384808     -6.50472    768.36124  0.028021927  0.027755775            7 
 2286000    0.8905924   -6.5195756    770.49465   0.02808744    0.0277489            8 
 2287000     0.868716   -6.5024218    770.00698  0.028057389   0.02774207            8 
 2288000   0.88183347   -6.5252821    768.90203  0.028004882  0.027735197           12 
 2289000   0.88225595   -6.5082546    769.05255  0.027998127  0.027728342            9 
 2290000   0.88319774   -6.5317439    768.66067   0.02797164  0.027721405            5 
 2291000    0.8809378   -6.5207439    767.17147  0.027905262  0.027714549            7 
 2292000   0.88911614   -6.5229396    768.39856  0.027937702  0.027707699           22 
 2293000   0.88023585   -6.4961335    769.18913  0.027954249  0.027700827           10 
 2294000   0.87514656   -6.5115856    767.86372  0.027893916  0.027693952            9 
 2295000   0.89361776   -6.5220875    770.16903   0.02796547  0.027687069           12 
 2296000   0.87665237   -6.5034717    769.31247  0.027922201  0.027680163            9 
 2297000   0.88812622   -6.5219451    768.72965    0.0278889  0.027673211           10 
 2298000   0.88120273   -6.5350107    770.89116  0.027955148  0.027666345            4 
 2299000   0.88186952   -6.5081323    770.04851  0.027912444  0.027659523            6 
 2300000   0.88627441   -6.5383677    771.36375  0.027947962  0.027652707           10 
 2301000   0.86905415   -6.5405427    770.37369   0.02789996  0.027645808            8 
 2302000   0.88296371   -6.5059315    768.76085  0.027829454  0.027638872           17 
 2303000   0.89322737   -6.5214982     770.3633  0.027875354  0.027631995           15 
 2304000   0.90046785   -6.5236848    770.60788  0.027872102  0.027625125            8 
 2305000   0.88160484   -6.5235958    768.65144  0.027789278  0.027618218            6 
 2306000   0.88197479   -6.5557694      770.291  0.027836477  0.027611274           17 
 2307000   0.87676399   -6.5565144    769.58534  0.027798922  0.027604329           20 
 2308000   0.87078834   -6.4912263    770.60677  0.027823757  0.027597397           11 
 2309000   0.90034663   -6.5395009    771.45221  0.027842219  0.027590498            8 
 2310000   0.87542167   -6.5224099    770.38952   0.02779183  0.027583642            8 
 2311000   0.86294698   -6.5344877    770.90275   0.02779831  0.027576776            8 
 2312000   0.86221531    -6.534198    772.94462  0.027859884  0.027569938           12 
 2313000   0.87106377   -6.5217416    771.75141   0.02780485  0.027563067           14 
 2314000   0.87920389   -6.5276188     772.2105  0.027809367  0.027556236            6 
 2315000    0.8824064   -6.5356224    773.07476  0.027828465  0.027549398           10 
 2316000   0.89860096   -6.5329614     772.6053  0.027799557  0.027542574            6 
 2317000   0.88033998   -6.4916954    774.44184  0.027853612  0.027535783           11 
 2318000   0.88583497   -6.5301882    773.59449  0.027811134  0.027528965            8 
 2319000   0.88078872   -6.5421364    773.94604  0.027811774  0.027522153           11 
 2320000   0.87899944   -6.5139772     771.5984   0.02771546  0.027515314            7 
 2321000   0.87740181   -6.5664673     771.4719  0.027698977   0.02750846           14 
 2322000   0.88297617   -6.5391096    773.72764  0.027768003  0.027501514           10 
 2323000   0.89810584   -6.4972991    774.73464  0.027792174   0.02749465            6 
 2324000   0.86278333   -6.5353647    774.12613  0.027758395  0.027487779            9 
 2325000   0.88020582    -6.519914    774.54582  0.027761499  0.027480942            6 
 2326000   0.88687249   -6.5420616    772.38497  0.027672147  0.027474072           13 
 2327000   0.88346892   -6.5336741    774.14952  0.027723447  0.027467157           17 
 2328000   0.86173958    -6.546174    775.72829  0.027768052  0.027460309            7 
 2329000   0.88209458   -6.5289094    774.35657  0.027707048  0.027453468            9 
 2330000   0.87474881   -6.5160885     773.4364  0.027662246  0.027446548           10 
 2331000   0.88879265   -6.5190024     772.6299  0.027621547  0.027439629           16 
 2332000   0.87667725   -6.5305918    773.30938  0.027633983  0.027432678            6 
 2333000   0.87416215   -6.5612312    773.38843  0.027624962  0.027425788           14 
 2334000   0.88864266   -6.5238602    775.10577  0.027674442  0.027418823           14 
 2335000   0.88313549   -6.5653166    772.68451  0.027576178  0.027411855           15 
 2336000   0.87844053   -6.5249101    772.50088  0.027557823  0.027404807            5 
 2337000   0.85297036   -6.5086956    774.43781  0.027615098  0.027397857           19 
 2338000   0.88098988   -6.5485766    774.06668  0.027590059  0.027390858           19 
 2339000   0.89170628     -6.53022    775.05813  0.027613586  0.027383948           18 
 2340000   0.87621125   -6.5390726    775.33277  0.027611566  0.027377042           11 
 2341000   0.88482648   -6.5283882    776.38997  0.027637404  0.027370159           19 
 2342000   0.87018949   -6.5442148    777.45848  0.027663624  0.027363304            9 
 2343000   0.87169392    -6.528234    777.21168  0.027643039  0.027356427           10 
 2344000   0.87262638    -6.547337    774.32015  0.027528447  0.027349517           11 
 2345000    0.8786721   -6.5577378    776.18615  0.027583019  0.027342594           10 
 2346000   0.87159734   -6.5536718    773.75741  0.027484989  0.027335638            5 
 2347000   0.87916694   -6.5354427    777.10425  0.027592112  0.027328696            7 
 2348000   0.86931516   -6.5446594    777.90944  0.027608938   0.02732179            9 
 2349000   0.88027409   -6.5206903    777.63066  0.027587295  0.027314922            4 
 2350000   0.88071596   -6.5075557    777.67009  0.027576954  0.027308056            8 
 2351000   0.88331023   -6.5330076    775.94023  0.027503907  0.027301196            7 
 2352000    0.8714056   -6.5248054    777.91649  0.027562234  0.027294252            6 
 2353000   0.87995404   -6.5374508    777.63677  0.027540614  0.027287301           10 
 2354000   0.86997005   -6.5081613    774.35504  0.027412738  0.027280349           13 
 2355000   0.89068199   -6.5154073    777.01541  0.027495238  0.027273388           10 
 2356000   0.86939513   -6.5317128    777.68842  0.027507372  0.027266413           13 
 2357000   0.87768291   -6.5417538     774.8689  0.027396015  0.027259378           33 
 2358000   0.87401822    -6.556291    776.93831  0.027457532  0.027252349            4 
 2359000   0.88446565   -6.5351038    776.25312  0.027421687  0.027245337            6 
 2360000   0.87153278   -6.5707979    776.28142  0.027411067  0.027238313            4 
 2361000   0.85564571   -6.5224122    777.61184  0.027446416   0.02723129           11 
 2362000   0.87576615   -6.5333755    776.19644  0.027384859  0.027224247            8 
 2363000   0.87459998   -6.5417095    777.08931  0.027404758  0.027217247           16 
 2364000   0.87861553   -6.5409424    776.22844  0.027362819  0.027210216           16 
 2365000   0.85299624   -6.5386728    777.22202  0.027386259  0.027203203           16 
 2366000   0.88454293   -6.5326084    778.92812  0.027434774  0.027196251           16 
 2367000   0.88128904   -6.5163288    778.14726  0.027395693  0.027189252            8 
 2368000   0.86276763   -6.5609693    776.94538  0.027341828  0.027182231           26 
 2369000   0.88525754   -6.5741099    778.82192  0.027396297   0.02717517           10 
 2370000    0.8715594   -6.5434867    776.73487  0.027311353  0.027168111            7 
 2371000   0.86523658   -6.5303607    777.15646  0.027314651  0.027161029           10 
 2372000   0.86396222   -6.5166526    775.60963  0.027248793  0.027153949           11 
 2373000   0.89697406   -6.5121048    777.63759  0.027308526  0.027146905            6 
 2374000    0.8966516   -6.5503871    777.33863  0.027286529  0.027139895            7 
 2375000   0.85372228   -6.5124975    778.56816  0.027318181  0.027132861            6 
 2376000   0.88596866   -6.5274337    778.80279  0.027314913  0.027125885            6 
 2377000   0.88482063   -6.5266784    778.70844  0.027300113  0.027118936            8 
 2378000   0.87641565   -6.5505069    778.72516  0.027289219  0.027111973            9 
 2379000   0.87907291   -6.5261921    779.57107   0.02730738  0.027105091            9 
 2380000   0.86859839   -6.5317356    781.00365  0.027346066  0.027098164           15 
 2381000    0.8460614   -6.5327001    779.17678  0.027270642  0.027091194           11 
 2382000   0.86608953   -6.5294409    780.77076  0.027314958  0.027084177            7 
 2383000   0.84523968   -6.5768383    778.89133  0.027237772   0.02707719           12 
 2384000   0.86990374   -6.5141713     779.6135   0.02725159   0.02707013           10 
 2385000     0.868575   -6.5237046    779.16848  0.027224615  0.027063139            3 
 2386000   0.88512177   -6.5454501    780.25673  0.027251213  0.027056149           10 
 2387000   0.86652958   -6.5395501    781.80752  0.027293936  0.027049186           10 
 2388000   0.85929505   -6.5482343    781.85494  0.027284162    0.0270422            8 
 2389000   0.86471157    -6.537698    782.00515  0.027277981  0.027035304           13 
 2390000   0.88664839   -6.5358462    780.16102  0.027202267  0.027028323            6 
 2391000   0.85566261   -6.5230521    780.70428  0.027209824  0.027021379            9 
 2392000   0.86169905   -6.5611831    779.72792  0.027164434  0.027014418            7 
 2393000   0.87036224   -6.5332837    781.35797  0.027209847  0.027007485           11 
 2394000   0.86840918   -6.5148631    782.00258   0.02722092  0.027000587           15 
 2395000    0.8630049   -6.5621084    781.32883  0.027186111   0.02699364            9 
 2396000   0.86025212   -6.5507997    782.04736  0.027199755  0.026986724            7 
 2397000   0.85538054   -6.5692691    780.81248  0.027145476  0.026979775           17 
 2398000   0.89124842   -6.5562328    782.56634  0.027195105  0.026972816            6 
 2399000   0.87878271   -6.5499526    782.31399  0.027175003  0.026965866            5 
 2400000   0.86007065   -6.5435682    782.64254  0.027175088  0.026958928           11 
 2401000   0.89275966   -6.5535178    783.38096  0.027189399  0.026952024            5 
 2402000    0.8593813   -6.5812522    782.19341  0.027136879  0.026945139            7 
 2403000   0.85808832    -6.552631    784.84579  0.027217568  0.026938286            6 
 2404000   0.85696174   -6.5428524    785.32112  0.027222723  0.026931429           11 
 2405000   0.85644225   -6.5323314    784.27256  0.027175071  0.026924607           23 
 2406000   0.87965038   -6.5633218    782.91008  0.027116586  0.026917711           45 
 2407000   0.86466932   -6.5472286    785.61123  0.027198838  0.026910774           13 
 2408000   0.88480157   -6.5318968    784.87124  0.027161934  0.026903859            7 
 2409000   0.87492762   -6.5796432    783.00764  0.027086192  0.026896925           10 
 2410000   0.86988521   -6.5317427    782.48706  0.027056952  0.026889968            8 
 2411000   0.86982476   -6.5650983    783.42419  0.027078121  0.026883005           10 
 2412000   0.86753899   -6.5666281    782.58001  0.027037728  0.026876034           11 
 2413000   0.86929453   -6.5406144    782.66494  0.027029456  0.026869112            9 
 2414000    0.8635962   -6.5649087    783.47441  0.027046203  0.026862219           15 
 2415000   0.85256151   -6.5800206    784.16862  0.027058958  0.026855275            9 
 2416000   0.87233703   -6.5675934     786.3905  0.027124396  0.026848346           15 
 2417000   0.86835698   -6.5360489    786.30373  0.027110182   0.02684143           45 
 2418000   0.86337533    -6.544941    783.72438  0.027010077  0.026834504            4 
 2419000   0.84759718   -6.5599077    785.02616  0.027043756  0.026827575            8 
 2420000   0.87719555   -6.5555791    786.22254  0.027073779  0.026820645            8 
 2421000   0.85527116   -6.5309197     784.8371  0.027014908  0.026813715            8 
 2422000   0.86104576   -6.5502636    785.80545  0.027037072  0.026806806           14 
 2423000   0.85629163   -6.5203009    787.32754  0.027078262  0.026799891            8 
 2424000   0.86038575   -6.5692514    783.91099  0.026949635  0.026792909           29 
 2425000   0.86437745   -6.5578686    784.32024  0.026952586  0.026785884           20 
 2426000   0.84440464   -6.5366505    784.59853  0.026951035  0.026778849            8 
 2427000   0.84631291   -6.5286905    784.02666  0.026920295  0.026771864           12 
 2428000   0.85345376   -6.5518526     783.9318  0.026905951  0.026764893           11 
 2429000   0.86866647   -6.5771062    784.57007  0.026916772  0.026757891           23 
 2430000   0.88205427    -6.563542    785.88488  0.026950785  0.026750852            6 
 2431000   0.86815843   -6.5918284    785.72284  0.026934144  0.026743907           21 
 2432000   0.87750697   -6.5351475    785.10283  0.026901824  0.026736892           17 
 2433000   0.86083154   -6.5685312    787.05398  0.026957596  0.026729892           11 
 2434000   0.83955138   -6.5747747    785.28184  0.026885848  0.026722899            8 
 2435000   0.88723271   -6.5364028    786.30937  0.026909972  0.026715921            7 
 2436000   0.86803983   -6.5413266    786.53291  0.026906572  0.026708998            9 
 2437000   0.84387968   -6.5416241    787.07201  0.026913966  0.026702043            7 
 2438000   0.86374982   -6.5727135    786.19767   0.02687304  0.026695096            9 
 2439000   0.86534186   -6.5951414    785.80746   0.02684869  0.026688136           19 
 2440000   0.87796252   -6.5659179    787.31642  0.026889222  0.026681204           17 
 2441000   0.86657633   -6.5403618    788.36783    0.0269141  0.026674251           34 
 2442000    0.8654996   -6.5415124    787.50024  0.026873473  0.026667302           29 
 2443000   0.85834275   -6.5845835    785.29843  0.026787366  0.026660363           42 
 2444000   0.87502352   -6.5549901    787.28327  0.026844083  0.026653408            9 
 2445000   0.86180443   -6.5438935    787.31317  0.026834123   0.02664652           14 
 2446000   0.85218052   -6.5459067    788.94017  0.026878583  0.026639604           13 
 2447000   0.86180805   -6.5652807    789.03662  0.026870883  0.026632747           13 
 2448000   0.86237148   -6.5783572    787.43257  0.026805303  0.026625794           12 
 2449000   0.85783937   -6.5974646    786.92417  0.026777058  0.026618818           21 
 2450000   0.85488077   -6.5880875    787.54935  0.026787393  0.026611784           14 
 2451000   0.83228946    -6.568326    789.09411  0.026828985  0.026604794            8 
 2452000   0.86247441   -6.5786368    787.43141  0.026761535  0.026597839           39 
 2453000   0.85492409   -6.5834241    787.73054  0.026760787  0.026590895           23 
 2454000    0.8545477   -6.5787568    788.00911  0.026759342  0.026583905            7 
 2455000   0.85234619   -6.5390092    790.00017  0.026816027  0.026576972           14 
 2456000   0.87511752   -6.5962793    788.05512  0.026739112  0.026570055           13 
 2457000     0.859752   -6.5821786    787.92961  0.026723973    0.0265631           16 
 2458000   0.86939685   -6.5529944    790.84172  0.026811829  0.026556151           11 
 2459000   0.86921988   -6.5949543    788.96793  0.026737425  0.026549246           18 
 2460000    0.8516246   -6.5711269    791.91383  0.026826349  0.026542316           15 
 2461000   0.85228169    -6.596943    788.98673  0.026716332  0.026535367           18 
 2462000   0.86770068   -6.5788623    790.63547  0.026761287  0.026528501           11 
 2463000   0.84734744   -6.5968771    792.87232  0.026826104  0.026521674            8 
 2464000   0.85517779   -6.6008173    790.74225  0.026743177  0.026514742           11 
 2465000   0.86640689   -6.5826048    790.29041  0.026717052  0.026507865           10 
 2466000   0.87008514   -6.5875672    789.36759  0.026675033  0.026500953            7 
 2467000   0.84373995   -6.5906218    789.28607  0.026661467  0.026494021            9 
 2468000   0.84791129   -6.5872056    790.94317  0.026706617  0.026487106            7 
 2469000   0.87865449   -6.5721061    791.20729  0.026704715  0.026480216           12 
 2470000   0.84587013   -6.5538763     791.0131  0.026687352  0.026473321            9 
 2471000    0.8533975   -6.5624532    793.18486  0.026749793  0.026466411           28 
 2472000   0.86321634   -6.6030299    791.30653  0.026675651  0.026459566           29 
 2473000   0.86305957   -6.5770289    790.74375  0.026645901  0.026452634           18 
 2474000   0.87905243   -6.5947752    791.27892  0.026653157  0.026445778           11 
 2475000    0.8445586   -6.5720359    792.27599  0.026675959  0.026438907           13 
 2476000   0.83849329   -6.5780495     792.7798  0.026682142  0.026432014            9 
 2477000   0.85668244   -6.5848807    792.16914  0.026650826    0.0264251            9 
 2478000    0.8491267   -6.5828593    791.79792  0.026627587  0.026418245           13 
 2479000   0.84694453   -6.5827134    792.96425  0.026656053  0.026411421           15 
 2480000   0.84412726   -6.5707225    793.36354  0.026658721  0.026404558            9 
 2481000   0.85724791   -6.5764659    792.90547   0.02663259  0.026397689            9 
 2482000   0.85942332   -6.5619405    793.22382  0.026632548  0.026390813           18 
 2483000   0.86753271   -6.5662262    793.72513  0.026638647  0.026383954           11 
 2484000   0.84677958   -6.6098214    792.96679  0.026602482  0.026377077           37 
 2485000   0.84015082   -6.5722456    792.74478  0.026584332  0.026370144            9 
 2486000    0.8556585   -6.5665833    790.82421  0.026509259  0.026363248           10 
 2487000   0.84426039   -6.5796977    792.70237  0.026561532  0.026356364           14 
 2488000   0.87585722   -6.6104339    793.74152  0.026585662  0.026349516           10 
 2489000   0.85523625   -6.5625562    795.84543  0.026645421  0.026342692           10 
 2490000   0.85137176    -6.558627     795.2635  0.026615244  0.026335879           11 
 2491000   0.86573281   -6.5648064    793.71995  0.026552922  0.026329036           22 
 2492000    0.8307488   -6.5731707    796.43261  0.026632979  0.026322232            7 
 2493000   0.87084373    -6.575316    795.36714  0.026586681  0.026315409            7 
 2494000   0.84238082    -6.576156    795.93981  0.026595155  0.026308655            6 
 2495000   0.85372897   -6.5639313    795.09964  0.026556434  0.026301895           14 
 2496000   0.85028017   -6.5963781    794.29866  0.026519052  0.026295123            9 
 2497000   0.84954858   -6.5809264    795.83148  0.026559588  0.026288373           14 
 2498000   0.84746542   -6.5790863    796.62035  0.026575272  0.026281638           11 
 2499000   0.84759878    -6.575694    797.93638  0.026608523  0.026274906           11 
 2500000   0.84850746    -6.606733    798.43537  0.026614512  0.026268194            6 
 2501000   0.86076628   -6.5719084    798.42727  0.026603601  0.026261481           10 
 2502000   0.84850011    -6.600542    796.92089  0.026542795  0.026254747           13 
 2503000   0.84891114   -6.5809431    797.74666  0.026559684  0.026248009           21 
 2504000   0.83584752   -6.5604428    798.83419   0.02658527  0.026241308           15 
 2505000   0.84161213   -6.5842795     797.3927  0.026526703  0.026234621           17 
 2506000   0.85062336   -6.5924126    797.99997  0.026536312  0.026227938           23 
 2507000   0.85569634    -6.586877    796.31283  0.026469646  0.026221222           11 
 2508000   0.82996148   -6.5747341     798.9748  0.026547541  0.026214556           16 
 2509000   0.83618916   -6.5902545    800.52706  0.026588517  0.026207899           16 
 2510000   0.85459408   -6.5969572    799.64349  0.026548589  0.026201225            8 
 2511000   0.84609937    -6.560934    800.05602  0.026551706  0.026194593           13 
 2512000   0.85283021    -6.541025    801.67709  0.026594914  0.026188008           11 
 2513000   0.82904152   -6.5651479     799.9121  0.026525802  0.026181433           13 
 2514000   0.84319378   -6.5878437    800.34279  0.026529528  0.026174834            8 
 2515000   0.85286649   -6.6231647    800.43613  0.026522072  0.026168223            9 
 2516000   0.86937215   -6.5945233    798.82704  0.026458235  0.026161563            7 
 2517000   0.85090358   -6.6014843    799.02207  0.026454181  0.026154888           13 
 2518000   0.83671988   -6.6038634    799.73104  0.026467138  0.026148242           22 
 2519000   0.85759306   -6.6239284    799.66182  0.026454341  0.026141581           22 
 2520000   0.86896426   -6.5792757    800.01761  0.026455609   0.02613497           21 
 2521000   0.85913382   -6.5693961    802.13831  0.026515216  0.026128322           19 
 2522000   0.83380288   -6.6016254    800.56351  0.026452667  0.026121689           11 
 2523000   0.84454345   -6.5866175    802.09686  0.026492828  0.026115016           11 
 2524000    0.8433422   -6.5909442     802.4881  0.026495249  0.026108378           13 
 2525000    0.8527555   -6.6046753    800.42408  0.026416636  0.026101751           24 
 2526000    0.8732926    -6.605267    800.42121  0.026406084  0.026095113           20 
 2527000   0.84090748   -6.5831792    801.54298  0.026432627  0.026088496           11 
 2528000   0.85884464   -6.5752481    801.34099  0.026415513  0.026081874           13 
 2529000   0.83973605   -6.6123186    800.46801  0.026376302  0.026075249           14 
 2530000   0.84378701   -6.6047034    802.17026  0.026421945  0.026068593            8 
 2531000   0.86968862   -6.5955505     801.1458  0.026377776   0.02606193           12 
 2532000   0.85863943   -6.6004224    800.24648  0.026337759  0.026055339            9 
 2533000   0.86526326   -6.5795834    802.94146  0.026416024  0.026048736           14 
 2534000   0.85325712   -6.5874354    801.86347  0.026370148  0.026042161           18 
 2535000   0.84192279    -6.580713    801.00484   0.02633152  0.026035594            6 
 2536000   0.87440615   -6.5721221    803.30875  0.026396844  0.026029029           21 
 2537000   0.84025606   -6.6130956    803.81585  0.026403096  0.026022428           18 
 2538000   0.85595053    -6.575996     802.5588  0.026351419  0.026015828           11 
 2539000   0.84486511   -6.5747701    802.64132  0.026343748   0.02600923           15 
 2540000   0.82175363   -6.6265442    804.15883  0.026383164  0.026002569           18 
 2541000    0.8408659    -6.587025    801.82213  0.026296147   0.02599597           14 
 2542000   0.84997504   -6.6070321    801.72188  0.026282516  0.025989398           13 
 2543000   0.84058223   -6.5956221    803.90544  0.026343736  0.025982853           12 
 2544000   0.85582251   -6.6180064    804.27467  0.026345475  0.025976312           12 
 2545000   0.83397551   -6.5816174     805.2589  0.026367351  0.025969791           14 
 2546000   0.84283208   -6.5800867    803.74491   0.02630744  0.025963251            9 
 2547000   0.84327886   -6.5622947    805.94861  0.026369212  0.025956727           15 
 2548000   0.83966731   -6.6200352    803.26772  0.026271184  0.025950158           21 
 2549000   0.83871962   -6.6181071    804.11383  0.026288539  0.025943587           12 
 2550000   0.84031299   -6.5999365    804.52551  0.026291683  0.025937051            9 
 2551000   0.84994924   -6.6054098    804.75131  0.026288753  0.025930528           15 
 2552000   0.83514854   -6.5934291    804.21831  0.026261047  0.025923974            9 
 2553000   0.84890375   -6.5714436    804.05487  0.026245426  0.025917432           11 
 2554000   0.82985245   -6.5814246    804.65469  0.026254721  0.025910824           14 
 2555000   0.83619979   -6.6068092    805.59515  0.026275119  0.025904244           21 
 2556000   0.86050078   -6.6141128    805.95787  0.026276665  0.025897707           17 
 2557000   0.84513585   -6.6177842    806.08174  0.026270426  0.025891173           27 
 2558000    0.8356165   -6.6154899    804.78794  0.026218007  0.025884671           31 
 2559000   0.84303459   -6.6009864    805.59418  0.026234017  0.025878157           38 
 2560000   0.82875185   -6.6386336    807.01489  0.026270016  0.025871613           22 
 2561000   0.83309673   -6.5844814    806.37518  0.026238942  0.025865067           11 
 2562000   0.83469259   -6.6044333    805.13269  0.026188287  0.025858563           19 
 2563000   0.85826085   -6.5654554    807.33312  0.026249614  0.025852064           13 
 2564000   0.84423963    -6.582506    805.76872  0.026188531  0.025845551           16 
 2565000   0.83215871    -6.590921     808.6986  0.026273509  0.025839041            7 
 2566000   0.84238176   -6.5829516    805.84135  0.026170478  0.025832558            9 
 2567000    0.8424478   -6.5921102    808.21377  0.026237299  0.025826008           16 
 2568000   0.85471443   -6.6110115    805.34163  0.026133879  0.025819437           12 
 2569000   0.84132469   -6.6390922    805.89864  0.026141775  0.025812823           11 
 2570000   0.84470429   -6.5937487    806.44034  0.026149168  0.025806214            7 
 2571000   0.84977273   -6.6233393    805.92464  0.026122282  0.025799627           21 
 2572000   0.85749695   -6.6167068    806.40373  0.026127648  0.025793007            6 
 2573000   0.83404088   -6.6063558    805.17992  0.026077857   0.02578641            6 
 2574000   0.84606305   -6.5538312    808.53711  0.026176415  0.025779827           12 
 2575000   0.85002979   -6.6092811    806.06934  0.026086386  0.025773236           11 
 2576000   0.84617315   -6.6125475    805.90133  0.026070825  0.025766588            7 
 2577000   0.84130347   -6.6276532    805.27833  0.026040562  0.025759946           14 
 2578000   0.82328954   -6.6002885    804.46288  0.026004101  0.025753278           35 
 2579000    0.8368356   -6.5891909    808.72487  0.026131733  0.025746704           13 
 2580000   0.84426243    -6.577082    806.92421  0.026063443  0.025740139           20 
 2581000   0.84285586   -6.6176669    806.40975  0.026036735  0.025733556           29 
 2582000   0.83970776   -6.6220993    806.66393  0.026034855  0.025726951           15 
 2583000   0.84408322   -6.6011317    807.03758   0.02603683  0.025720318            7 
 2584000   0.83186549   -6.5997548    807.31451  0.026035685  0.025713704            9 
 2585000   0.82928098   -6.5996317    806.92855  0.026013171  0.025707046            9 
 2586000   0.81825561   -6.6129754    808.28574  0.026046846  0.025700412           13 
 2587000   0.82839112   -6.6086849    807.31645  0.026005555  0.025693768            7 
 2588000   0.82924492   -6.5907219    805.96699  0.025952054   0.02568712            8 
 2589000    0.8455681   -6.6370602    807.81644  0.026001559  0.025680509           11 
 2590000   0.84691811   -6.6073243    807.96243  0.025996217   0.02567382           11 
 2591000   0.85057115   -6.5982259    809.75786   0.02604393  0.025667184           25 
 2592000   0.83380845   -6.5823353    811.46374  0.026088726   0.02566066            6 
 2593000   0.83706891   -6.5963469    808.37949  0.025979544  0.025654144           12 
 2594000   0.82611064   -6.6138049    808.52544  0.025974217  0.025647552            6 
 2595000   0.83160995   -6.5981517    808.36554  0.025959073  0.025640937           14 
 2596000   0.84331532   -6.5970926    810.53393   0.02601868  0.025634347           12 
 2597000    0.8454525    -6.638086    810.84187  0.026018543  0.025627734           10 
 2598000   0.85177142   -6.6017211    810.45929  0.025996256  0.025621122            7 
 2599000   0.84412699   -6.6211009    809.56086  0.025957447  0.025614546            8 
 2600000   0.83664091   -6.6019081    808.81682  0.025923616   0.02560797           14 
 2601000   0.82365408   -6.6288172    810.88145  0.025979798  0.025601399           20 
 2602000    0.8320429   -6.6034037    810.22853  0.025948902  0.025594811           22 
 2603000     0.810207   -6.6090496    811.45061  0.025978058  0.025588258            8 
 2604000   0.83593942   -6.6197888     810.8973  0.025950375  0.025581705           11 
 2605000   0.84892179   -6.5960166    811.92581  0.025973315  0.025575199           10 
 2606000   0.84306746   -6.6245939    811.26939  0.025942357  0.025568668           12 
 2607000   0.82605935    -6.626257    809.38359  0.025872126  0.025562072           18 
 2608000   0.82917875    -6.615967    809.75037  0.025873925  0.025555478            7 
 2609000    0.8259281    -6.599953    810.49475  0.025887784  0.025548862           19 
 2610000   0.82882428   -6.6168853    810.13268  0.025866305  0.025542273            5 
 2611000    0.8198903   -6.6069529    809.89163  0.025848705  0.025535732            7 
 2612000   0.84753468   -6.6197979    810.25408  0.025850373  0.025529122           27 
 2613000   0.84372205   -6.6184969    810.07743  0.025834846  0.025522566           13 
 2614000   0.84976204   -6.6206093    809.50409  0.025806685  0.025515993            6 
 2615000   0.82857829   -6.6096043    812.60864   0.02589575  0.025509393           11 
 2616000   0.82522797    -6.616421    810.57124  0.025820949  0.025502751           11 
 2617000   0.82520372   -6.6288186     810.4166  0.025806159    0.0254961           27 
 2618000   0.82341722   -6.6372723    810.59524  0.025801988  0.025489435            7 
 2619000    0.8342949   -6.6253623    810.24605  0.025781025  0.025482783           24 
 2620000   0.83427002   -6.6388147    810.45581  0.025777856  0.025476123           33 
 2621000   0.83707082   -6.6012278    810.12808  0.025757601  0.025469472           20 
 2622000   0.82298871   -6.6523299    812.67766   0.02582881  0.025462847           30 
 2623000   0.81060519   -6.6316749    810.91776   0.02576305  0.025456232            8 
 2624000   0.83669975   -6.6298125    810.35244  0.025735278   0.02544964           32 
 2625000   0.83899366   -6.5927906    812.29773   0.02578723  0.025443096           19 
 2626000   0.83624433   -6.6043932    811.14538  0.025740841  0.025436538           12 
 2627000   0.82837468   -6.6107832    814.03124  0.025822587  0.025429974           14 
 2628000   0.83748789   -6.6005988    815.92384  0.025872775  0.025423441           12 
 2629000   0.82243854   -6.6357499    813.43744  0.025784121  0.025416915           16 
 2630000   0.83921146   -6.6231947    812.43593  0.025742583  0.025410336           10 
 2631000   0.81776619   -6.5976727    814.43356  0.025796071  0.025403763            9 
 2632000   0.84126562   -6.5955102     814.3442  0.025783441  0.025397187            9 
 2633000   0.84250412   -6.5949422    813.52864  0.025747837  0.025390659           13 
 2634000   0.84190383   -6.6151176    814.90903  0.025781734  0.025384154            9 
 2635000   0.81842651   -6.6291627    813.98556  0.025742744  0.025377635           16 
 2636000   0.82186266   -6.6434219    813.01355  0.025702249  0.025371026           13 
 2637000   0.82755918   -6.6189942    813.90495  0.025720672  0.025364469           13 
 2638000   0.82223975   -6.6206249    813.63697  0.025702457  0.025357934            7 
 2639000   0.81783516   -6.6058199    812.95779   0.02567127  0.025351402           18 
 2640000   0.84064315   -6.6262307    814.52848  0.025711126  0.025344849           14 
 2641000   0.82130561   -6.6506016    813.37682  0.025665052  0.025338226           15 
 2642000    0.8200329   -6.6305098    812.69795  0.025633925  0.025331581           19 
 2643000   0.81895123   -6.6014938    815.03826  0.025698016  0.025324983           12 
 2644000   0.82256004   -6.6607513    815.19042  0.025693092   0.02531841           17 
 2645000   0.83438254   -6.6242408    812.13745  0.025587191  0.025311806           24 
 2646000    0.8350566   -6.6213275    813.59149  0.025623315  0.025305193           15 
 2647000   0.82567171   -6.6458568     814.7884  0.025651316  0.025298546           18 
 2648000   0.84122959   -6.6505329    812.48295  0.025569076  0.025291919            9 
 2649000   0.82040541   -6.6046046    812.41309  0.025557226  0.025285316           19 
 2650000   0.82818604   -6.6011624    813.46594   0.02558069  0.025278733           10 
 2651000   0.84077567   -6.6464607    815.19974  0.025625542  0.025272133           18 
 2652000   0.82886947   -6.6271076    814.84729  0.025604804  0.025265517            9 
 2653000   0.83199917    -6.641936    814.46582  0.025583171  0.025258884           13 
 2654000   0.83753554   -6.6458769    814.44807  0.025572974  0.025252252           11 
 2655000   0.83812864   -6.6293658    813.10278  0.025521117  0.025245624            7 
 2656000   0.82004921   -6.6505674    814.31766  0.025549625  0.025238987           23 
 2657000   0.81591139   -6.6429563    815.06494  0.025563447  0.025232377           20 
 2658000   0.84899289   -6.6293937    813.08807  0.025491851  0.025225752           10 
 2659000   0.81932236   -6.6344332    814.80152  0.025535963  0.025219153           19 
 2660000   0.84191002   -6.6187509    815.00159  0.025532631  0.025212542           11 
 2661000   0.84307301    -6.625998    815.31288  0.025532785   0.02520596           17 
 2662000   0.82681195   -6.6565797    814.68702  0.025503601  0.025199345            7 
 2663000   0.82377553   -6.5862898    814.20321  0.025478884  0.025192733           16 
 2664000   0.82966539   -6.6505098    815.43363  0.025507809  0.025186106            8 
 2665000   0.81491646    -6.628078    814.55222  0.025470676  0.025179437            8 
 2666000   0.82277617   -6.6651086    816.31742  0.025516299  0.025172764           21 
 2667000   0.81996175   -6.6450062    816.66887  0.025517712  0.025166101           13 
 2668000   0.84203302   -6.6215403    816.02036  0.025487892  0.025159439            7 
 2669000   0.80695144   -6.6418748    815.35804  0.025457663  0.025152768           40 
 2670000   0.81623841    -6.625607    816.59159  0.025486629  0.025146112           26 
 2671000   0.83720313   -6.6156149     814.9624  0.025426257  0.025139458           18 
 2672000   0.82535221   -6.6232516    814.00293  0.025386818  0.025132801           14 
 2673000   0.82697031   -6.6511134    815.94615  0.025437902  0.025126121           10 
 2674000   0.81630259    -6.638326    814.47511  0.025382545  0.025119463            9 
 2675000   0.82036531   -6.6585932     815.9879  0.025420184  0.025112824           12 
 2676000   0.82337568   -6.6374763    817.06871  0.025444342  0.025106179           15 
 2677000   0.83048925   -6.6460195    815.73449  0.025393304    0.0250995           22 
 2678000   0.83121821   -6.6516601    815.06476  0.025362981  0.025092845           12 
 2679000   0.83676401   -6.6510597    817.61459  0.025432829   0.02508618           13 
 2680000   0.83233079   -6.6906616    815.09968  0.025345139  0.025079567           20 
 2681000   0.83211558   -6.6460148    815.52171  0.025348804  0.025072901           21 
 2682000   0.83840664   -6.6555952    816.62278  0.025373564  0.025066246            9 
 2683000   0.81342122    -6.643766    817.78425  0.025400182  0.025059586           13 
 2684000   0.83649313   -6.6012656    817.90768   0.02539455  0.025052944           11 
 2685000   0.82303628     -6.62625    817.26156  0.025365039  0.025046337            9 
 2686000   0.82022827   -6.6370675    816.17939  0.025322021  0.025039654           10 
 2687000   0.82722198   -6.6577397    817.53419  0.025354615  0.025033069            7 
 2688000   0.80943506   -6.6720681    817.92867  0.025357412   0.02502644           15 
 2689000   0.82724569   -6.6422309    818.15589  0.025355023  0.025019797           14 
 2690000   0.81091882   -6.6523178    818.31592  0.025350555  0.025013166           20 
 2691000   0.81925572   -6.6401041    816.26824  0.025277723  0.025006532           14 
 2692000   0.80749184   -6.6565887    815.78003   0.02525322  0.024999849           10 
 2693000   0.81290883   -6.6485557    815.95222  0.025249171   0.02499316           25 
 2694000   0.82592239   -6.6323539    816.20422  0.025247594  0.024986428           15 
 2695000   0.84100976   -6.6631678    816.95707  0.025261505  0.024979719           33 
 2696000   0.81008741   -6.6740548    816.28806  0.025231456  0.024972982           31 
 2697000   0.81376726   -6.6408361    816.45701  0.025227321  0.024966257           10 
 2698000   0.83403427   -6.6349266    817.14899  0.025239344  0.024959592           17 
 2699000   0.81525839     -6.64144    816.18908  0.025200354  0.024952911            9 
 2700000   0.82053338   -6.6196142    818.70059  0.025268537  0.024946256           12 
 2701000   0.82848767   -6.6510334    817.31625  0.025216471  0.024939661           21 
 2702000   0.82429988   -6.6296312    819.20891   0.02526551   0.02493308           26 
 2703000   0.81399199   -6.6490838    820.09316  0.025283425   0.02492648           11 
 2704000   0.82058919   -6.6193427    820.17208  0.025276507  0.024919884           13 
 2705000   0.82938765   -6.6898508    818.13397  0.025204374  0.024913265           14 
 2706000   0.79978379   -6.6834376    818.17651  0.025196369  0.024906621           32 
 2707000   0.81067112   -6.6416438    817.46609  0.025165192  0.024900008           12 
 2708000   0.82450622   -6.6399427    817.78868  0.025165826  0.024893398           21 
 2709000   0.81965746   -6.6614582    819.36199  0.025204934  0.024886821           19 
 2710000   0.80874736   -6.6726358    818.26977  0.025162047  0.024880213           12 
 2711000   0.81262376   -6.6342295    819.71925  0.025197321  0.024873584           17 
 2712000   0.80204095   -6.6676383    817.78503  0.025128596  0.024866951           13 
 2713000   0.82307686   -6.6803533     819.4041  0.025169066  0.024860346           24 
 2714000    0.8125209   -6.6762324    820.98538  0.025208345  0.024853719           25 
 2715000   0.83332313   -6.6636787    820.63961  0.025188447  0.024847091           16 
 2716000   0.82454198   -6.6222282    820.79473  0.025183933  0.024840491           14 
 2717000   0.81330766   -6.6705711    820.95715  0.025179645  0.024833949           15 
 2718000   0.81645113   -6.6167637    819.73832  0.025133012  0.024827382           17 
 2719000   0.82160065   -6.6725862    821.23209   0.02516955  0.024820819           17 
 2720000   0.82909568   -6.6291493    822.79366  0.025208139  0.024814273           17 
 2721000   0.83143776   -6.6308955    819.73649  0.025105246  0.024807746           15 
 2722000    0.7989388   -6.6536114    822.74447  0.025188111  0.024801185           15 
 2723000    0.8201071   -6.6585471    821.73255  0.025147893  0.024794592           13 
 2724000   0.83213641   -6.6712148    820.88647  0.025112777  0.024787981           22 
 2725000   0.81367605   -6.6455675    820.69746  0.025097782  0.024781408           19 
 2726000   0.81635039   -6.6605324    822.47596  0.025142943  0.024774849            9 
 2727000   0.82542511   -6.6445288    821.59718  0.025106869  0.024768249           16 
 2728000   0.80843084   -6.6606696    822.51931  0.025125834  0.024761675           15 
 2729000   0.82517357   -6.6738431    820.63742  0.025059161  0.024755075           14 
 2730000   0.81062772   -6.6570241    823.25124  0.025129769  0.024748534           18 
 2731000   0.81648469   -6.6539004    821.87717  0.025078639  0.024742027           12 
 2732000   0.80185671   -6.6466919    822.54227  0.025089747  0.024735504           11 
 2733000   0.79442305   -6.6414245    822.17731  0.025069439  0.024728988           19 
 2734000    0.8183883   -6.6738232    822.32415  0.025064745  0.024722401           19 
 2735000   0.81650501   -6.6675987    822.73593  0.025068127   0.02471581           12 
 2736000   0.82935553   -6.6540907    822.33846  0.025046859  0.024709233           15 
 2737000   0.81139197   -6.6850135    822.41266  0.025039967  0.024702676           14 
 2738000    0.8075946   -6.6727414    822.53558  0.025034562  0.024696091           19 
 2739000   0.82153725   -6.6536348     824.8027  0.025094399  0.024689541           17 
 2740000    0.8116402   -6.6510033    824.66504  0.025081053  0.024683049           21 
 2741000   0.81256287   -6.6669732    822.99579  0.025021154  0.024676545           15 
 2742000   0.82283398   -6.6790128    824.28725  0.025051278  0.024670041           14 
 2743000   0.82847581   -6.6475283    823.91044  0.025030698  0.024663558           22 
 2744000   0.78923471   -6.6599637    826.33942  0.025095342  0.024657075           23 
 2745000   0.80492898   -6.6412199    826.86305  0.025102096  0.024650597           17 
 2746000   0.81039466   -6.6584521    824.78465  0.025029881  0.024644104           11 
 2747000   0.83395035   -6.6827453    823.30574  0.024975905   0.02463759           25 
 2748000   0.83114473   -6.6701643    824.14429  0.024992246  0.024631118           17 
 2749000   0.81191683   -6.6445085    824.59749  0.024996893  0.024624632           26 
 2750000   0.80425817    -6.655739    824.23463  0.024976807  0.024618178           41 
 2751000   0.82913048   -6.6613728    824.15458  0.024965303  0.024611704           17 
 2752000   0.80654031   -6.6607128    824.38028  0.024963066  0.024605211           12 
 2753000   0.81146374   -6.6901539    823.82093  0.024937066  0.024598704           28 
 2754000   0.80785463   -6.6634205    823.46512  0.024917245  0.024592182           19 
 2755000   0.79664689   -6.6867126    825.67537  0.024975056  0.024585658           10 
 2756000   0.82422995   -6.6822726    824.68037  0.024935909   0.02457913           12 
 2757000   0.79454801   -6.6513693    826.69541  0.024987771  0.024572631           10 
 2758000   0.82037966   -6.6426745    826.67494  0.024978092  0.024566142           10 
 2759000   0.84143579   -6.6551387    825.07324  0.024920661   0.02455967           17 
 2760000   0.81709136   -6.6868845    824.85361     0.024905  0.024553183           18 
 2761000   0.80258628   -6.6409453    826.63321  0.024949692  0.024546719           19 
 2762000   0.81169337    -6.679797    824.03259  0.024862195  0.024540266           10 
 2763000   0.78757534    -6.661392     825.2603  0.024890225  0.024533771           11 
 2764000    0.7987768   -6.6658823    825.67569  0.024893744  0.024527299            7 
 2765000   0.80690274   -6.6173202    827.18006   0.02493008  0.024520859           15 
 2766000   0.81892135   -6.6805147    824.67995  0.024845744  0.024514424           22 
 2767000   0.79662602   -6.6694785    825.39035   0.02485816   0.02450796           19 
 2768000   0.80083489   -6.6829743    825.80991  0.024861811  0.024501465           27 
 2769000   0.81819089   -6.6831738    826.72651  0.024880417  0.024494959           16 
 2770000   0.80528625   -6.6423604    826.97974  0.024879054  0.024488481           11 
 2771000   0.81118242   -6.6677041    825.70217  0.024831654  0.024481995           16 
 2772000   0.81120518   -6.6430287     826.4208    0.0248443   0.02447552           15 
 2773000   0.81229507   -6.6646981    828.58583  0.024900403  0.024469097           30 
 2774000   0.81855161   -6.6470773    827.65938  0.024863596   0.02446267           22 
 2775000   0.81801738   -6.6598542    825.73327  0.024796795  0.024456188           22 
 2776000   0.80053016   -6.6808038     826.5711  0.024813013  0.024449706           18 
 2777000   0.81409027   -6.6571583     827.5286  0.024832811   0.02444328           12 
 2778000   0.81058438   -6.6337693    826.23315  0.024785012  0.024436813           12 
 2779000   0.80129642   -6.6441155    827.12615  0.024802871  0.024430363           14 
 2780000    0.7999563   -6.6612665    828.14911  0.024824613  0.024423927           27 
 2781000   0.80497063   -6.6633741    826.83812  0.024776403  0.024417483           10 
 2782000   0.79740159   -6.6444693    826.10034  0.024745397   0.02441106            9 
 2783000   0.81359613   -6.6709827    827.29363  0.024772237  0.024404627           15 
 2784000   0.79890332   -6.6708361    827.29079  0.024763254  0.024398175           35 
 2785000   0.81168424   -6.6565896    829.70582  0.024826625  0.024391751           57 
 2786000   0.80163611   -6.6630681    828.89163   0.02479336  0.024385299           18 
 2787000   0.80438535   -6.6637968    827.97742  0.024757129  0.024378854           17 
 2788000   0.82847468   -6.6546706    827.86075  0.024744762  0.024372409           22 
 2789000   0.80687702   -6.6609876    828.15162  0.024744581  0.024365966           13 
 2790000   0.80517069   -6.6965422     827.2711  0.024709412  0.024359493           22 
 2791000    0.8170021   -6.6677752    828.37769  0.024733599  0.024353043           43 
 2792000   0.79692035   -6.6775835    827.74159  0.024705754  0.024346584           29 
 2793000   0.78973312   -6.6900248    827.53457  0.024690732  0.024340105           55 
 2794000   0.81316037   -6.6965439     827.0104  0.024666261  0.024333598           35 
 2795000   0.77884231   -6.6871221    828.50994  0.024702145  0.024327111           65 
 2796000    0.8053521   -6.6865478    827.11004  0.024651587  0.024320625           27 
 2797000   0.79504166   -6.7001221    829.32546  0.024708779  0.024314128           81 
 2798000   0.81375044    -6.694696    828.74606  0.024682692   0.02430769           54 
 2799000   0.81402937   -6.7062697    828.51829  0.024667092   0.02430123           30 
 2800000   0.82604571   -6.6858102    828.06129  0.024644681   0.02429478           39 
 2801000   0.80060418   -6.7028541    828.29223  0.024642754  0.024288301           20 
 2802000   0.78255644   -6.6972799    830.75934  0.024707332  0.024281814           11 
 2803000   0.80799976   -6.6968214    830.01896  0.024676506  0.024275336           21 
 2804000   0.80613233   -6.6936565    828.20197  0.024613706  0.024268864           10 
 2805000    0.7953151   -6.7100061    829.64754  0.024647877  0.024262389           20 
 2806000   0.79106092   -6.6820447    829.90673   0.02464679  0.024255913           12 
 2807000    0.7962258   -6.6586614    829.97877  0.024640149  0.024249467            7 
 2808000   0.81695403   -6.6718339    829.28646  0.024610828  0.024243055           19 
 2809000   0.78254794   -6.6726635    829.48853  0.024608061  0.024236608           22 
 2810000   0.79866343   -6.6845612    829.98382  0.024613992  0.024230161           36 
 2811000   0.81500716   -6.6604698    831.89981  0.024662036   0.02422374            7 
 2812000   0.79403046   -6.6798965    831.55143  0.024642942  0.024217301           28 
 2813000   0.80216792   -6.6775736     829.8277  0.024583117  0.024210809           32 
 2814000   0.80632637   -6.6737282    830.89227  0.024605907  0.024204326           19 
 2815000   0.79809292   -6.7011938    828.23131  0.024518393  0.024197823           27 
 2816000   0.80475517   -6.6920082    830.19222  0.024567715  0.024191311           14 
 2817000   0.80027689   -6.6862502    829.65789  0.024543187  0.024184808           17 
 2818000   0.81096304   -6.6801111    830.68602  0.024564881   0.02417831           21 
 2819000   0.79658952   -6.6905987    829.46628   0.02452011  0.024171821           10 
 2820000   0.81022331   -6.6912433    830.81815  0.024551364  0.024165312           16 
 2821000   0.80761886   -6.6992472    828.99467  0.024488795    0.0241588           20 
 2822000   0.79211673   -6.6717959    832.29831  0.024577673    0.0241523           14 
 2823000   0.80041251   -6.6883669    829.72284   0.02449294  0.024145841            8 
 2824000   0.79012002   -6.6533279    830.47513  0.024506466  0.024139393           14 
 2825000   0.81075499   -6.6925108    828.03523  0.024425818  0.024132948           20 
 2826000   0.79870018   -6.6961855    830.61932  0.024493375    0.0241265            7 
 2827000   0.80178712   -6.6737674     830.8153  0.024490488  0.024120054           15 
 2828000   0.79094464   -6.6922739    828.04518    0.0244002  0.024113595           22 
 2829000   0.80031634   -6.6687878    832.34364  0.024518194  0.024107124           24 
 2830000   0.78766758   -6.6977562    832.80742  0.024523187  0.024100653           22 
 2831000   0.79743811   -6.6899344    832.41477  0.024502966  0.024094197           20 
 2832000   0.80961469   -6.6819943    832.41794  0.024494407  0.024087721           13 
 2833000   0.81600614   -6.7020048     832.8746  0.024499194  0.024081266           54 
 2834000   0.80795028   -6.7004763    829.15226  0.024381094  0.024074821           24 
 2835000   0.80996385    -6.706025    829.85233  0.024393072  0.024068381           33 
 2836000   0.81762854   -6.6600392     831.6775  0.024438102  0.024061887           13 
 2837000   0.80456031   -6.7019836    832.87481  0.024464658  0.024055397           17 
 2838000   0.79942691   -6.7010058    832.34903  0.024440599  0.024048935           14 
 2839000   0.79153661   -6.6601658    832.28509  0.024430113  0.024042459           16 
 2840000   0.77588852   -6.6887348    832.64847  0.024432174  0.024036034           12 
 2841000   0.80915822   -6.6730871    832.38458  0.024415833  0.024029626           15 
 2842000   0.78951144   -6.6898579    831.66541  0.024386154  0.024023213           26 
 2843000   0.79245938   -6.6855325    832.21753   0.02439376  0.024016799           47 
 2844000   0.80518533   -6.6478852    832.80535  0.024402407  0.024010349           18 
 2845000   0.79165253   -6.7074657    831.77765  0.024363727  0.024003932           14 
 2846000   0.80061284   -6.6781799    832.98441  0.024390501  0.023997478           20 
 2847000   0.78601168   -6.6573595    832.46905   0.02436685  0.023991016           10 
 2848000   0.79804202   -6.7144082    832.15267  0.024349036  0.023984561           23 
 2849000   0.78915059   -6.6849031    831.67619  0.024326553   0.02397815           38 
 2850000   0.79454258     -6.66937    832.58081  0.024344468  0.023971767           12 
 2851000   0.79340949   -6.6878058    832.58293  0.024335991  0.023965359            8 
 2852000    0.7931482   -6.7110734    833.49061   0.02435398  0.023958936           11 
 2853000   0.79643714   -6.6900625    832.69671  0.024322255  0.023952511           10 
 2854000   0.80942575   -6.6659595    834.91513  0.024378508  0.023946063            8 
 2855000   0.79020109   -6.6897475    831.87593  0.024281259   0.02393964            9 
 2856000   0.79435478   -6.6908705    833.77133  0.024328062  0.023933206           18 
 2857000   0.78973192   -6.6923525    833.52629  0.024312399  0.023926764           18 
 2858000   0.79051739   -6.6708207    834.30892  0.024326712   0.02392031           39 
 2859000   0.78321916   -6.7150606    834.33989  0.024319106  0.023913861           14 
 2860000   0.80941272   -6.6994302    833.39439  0.024283053  0.023907414           31 
 2861000   0.79536991   -6.6934943     832.5029  0.024248599  0.023900929           20 
 2862000   0.79413946   -6.7037552    831.82422  0.024220365  0.023894443           28 
 2863000   0.79777699   -6.6904178    834.74661  0.024296967  0.023887966           15 
 2864000   0.78802761   -6.7008381      833.483  0.024251717  0.023881511           24 
 2865000   0.79720889   -6.6715651    833.80978  0.024252757  0.023875116           12 
 2866000   0.79392887   -6.7188267    834.02893  0.024250667  0.023868667           20 
 2867000   0.79685489   -6.7204324    832.78674  0.024206102   0.02386221           38 
 2868000   0.78768801   -6.6652777    835.43617  0.024274645  0.023855781           35 
 2869000   0.78550356   -6.6697407     836.9646  0.024310579  0.023849387           25 
 2870000   0.78077622   -6.6927032    833.84164   0.02421143  0.023842979           44 
 2871000   0.79737414   -6.6742494    833.92505  0.024205418  0.023836571           39 
 2872000   0.78235783   -6.7107795    835.01025  0.024228477  0.023830154           17 
 2873000   0.79505037   -6.7117562    834.15422  0.024195215  0.023823745           23 
 2874000   0.78916328   -6.7008201    833.55771    0.0241695  0.023817304           24 
 2875000   0.79464001   -6.6942627    830.79084  0.024080894  0.023810854           22 
 2876000   0.79458194   -6.7115093    834.94479  0.024192883  0.023804427           13 
 2877000   0.78396264   -6.7145258    833.04154  0.024129346  0.023797988           14 
 2878000   0.79164443   -6.6761024    834.74466  0.024170276   0.02379157            9 
 2879000   0.79707822   -6.6952366    836.54246  0.024213919   0.02378518           29 
 2880000   0.78149301     -6.71719     834.9236  0.024158669  0.023778766           43 
 2881000   0.77901082   -6.7239796     834.6019  0.024140978  0.023772318           39 
 2882000   0.79476016   -6.6915333    833.91083  0.024112619  0.023765877           26 
 2883000   0.78310098   -6.7262344    837.23185   0.02420025  0.023759441           10 
 2884000   0.78972355   -6.7302249    834.12042  0.024101954  0.023752969           31 
 2885000   0.78911569   -6.7099952    835.45774  0.024132228  0.023746538           30 
 2886000   0.79163982   -6.7028628    836.12717  0.024143196  0.023740106           19 
 2887000   0.78200265   -6.6923483    836.46612  0.024144617  0.023733682           15 
 2888000   0.79464961    -6.707893    838.50671  0.024195138  0.023727272           12 
 2889000   0.80250448   -6.6784288    837.06299  0.024145119  0.023720882           32 
 2890000   0.79953738   -6.7119652    836.60127  0.024123451  0.023714486           28 
 2891000   0.78951375   -6.6883867    837.47925  0.024140414  0.023708134           20 
 2892000   0.77216351   -6.7108115    834.33043  0.024041333  0.023701736           17 
 2893000   0.76746033   -6.7335053    837.48323   0.02412384  0.023695321           13 
 2894000   0.78370311   -6.7124061    837.10208  0.024104529  0.023688943           31 
 2895000   0.79411412   -6.7183162    835.95412  0.024063158  0.023682538            6 
 2896000   0.77840722   -6.6987572    837.77812  0.024107335  0.023676158           21 
 2897000   0.78774342   -6.6988349    835.93228  0.024045918  0.023669764           14 
 2898000    0.7821102   -6.7180483    837.94846  0.024095596  0.023663412           14 
 2899000   0.78633722   -6.7110418    837.20967  0.024066048  0.023657036            8 
 2900000   0.81002931   -6.7182213    840.21315  0.024144056  0.023650671           11 
 2901000     0.782359   -6.7056071    836.82824  0.024038499  0.023644314           20 
 2902000   0.78771676   -6.6919738    839.23681   0.02409938  0.023637968           18 
 2903000   0.79379584    -6.688268    838.63084  0.024073683  0.023631613           18 
 2904000   0.77894932   -6.6913138    837.40321  0.024030166  0.023625268           15 
 2905000   0.79322795   -6.7026606    835.63245  0.023971097  0.023618901           22 
 2906000    0.7930676   -6.7255079    835.33511  0.023954322  0.023612508           10 
 2907000   0.79219736   -6.7194976    838.41363  0.024034332  0.023606148           21 
 2908000   0.78296998   -6.6883832    838.52561  0.024029276  0.023599771           12 
 2909000   0.79934806   -6.7202849    838.16209  0.024010602  0.023593404           16 
 2910000    0.7864364   -6.7111666    837.14954  0.023973355  0.023586968           18 
 2911000   0.76573307   -6.7196742    839.09152  0.024020712  0.023580541           13 
 2912000   0.80578348   -6.7039411    836.92754  0.023950536  0.023574113            8 
 2913000   0.79058126   -6.7140654    837.82387  0.023967956  0.023567709           43 
 2914000   0.77666295    -6.690285    835.78407  0.023901397  0.023561297           22 
 2915000   0.78997368   -6.7198734     837.6698  0.023947107  0.023554882           24 
 2916000   0.77028129   -6.7169089    838.27465   0.02395618  0.023548479           10 
 2917000   0.78908224   -6.7120129    837.16137  0.023916163  0.023542089           18 
 2918000   0.78201273   -6.6840194    836.93359  0.023901462   0.02353568           33 
 2919000   0.79494976   -6.7332353    836.52201  0.023881524  0.023529293           25 
 2920000   0.77269057     -6.69676    839.08895  0.023946602  0.023522893           19 
 2921000   0.77185734   -6.7040121    838.02833  0.023908146  0.023516487           18 
 2922000   0.77989971   -6.7212403    835.18588  0.023818899  0.023510061            8 
 2923000   0.77010861   -6.7232675    838.24041  0.023897833  0.023503624            7 
 2924000   0.77736285   -6.6991628    838.74724  0.023904105  0.023497233           18 
 2925000   0.79022453   -6.7080168    838.71117  0.023894905  0.023490861           15 
 2926000    0.7555344   -6.6832221    838.41284  0.023878242  0.023484471           11 
 2927000   0.80252664    -6.700032    836.89422  0.023826848  0.023478054           31 
 2928000   0.81434039   -6.6844501    838.83497  0.023873946  0.023471657           13 
 2929000   0.77756882   -6.6975617    838.19153  0.023847489  0.023465221           21 
 2930000   0.79380433   -6.7196002    838.73383  0.023854773  0.023458745           25 
 2931000   0.78163043   -6.7388372    836.88365  0.023794031  0.023452291           20 
 2932000   0.78056315   -6.7100746     837.4616  0.023802342  0.023445862           28 
 2933000    0.7738376   -6.6925519    839.14723  0.023842119  0.023439468           36 
 2934000   0.78612588    -6.740354    838.83175  0.023825033  0.023433042           39 
 2935000   0.78070548   -6.7631193    837.53484  0.023780092  0.023426634           14 
 2936000   0.77249746   -6.7098418    838.54026   0.02380053  0.023420219           20 
 2937000   0.78284562   -6.7137331    839.15082   0.02380975  0.023413827           12 
 2938000   0.78533613   -6.6867061    840.43573  0.023838091  0.023407485           13 
 2939000   0.78968392   -6.7047432     838.2919  0.023769193  0.023401118           30 
 2940000   0.77351485   -6.6889072    841.79736  0.023860469  0.023394745           15 
 2941000   0.77066528   -6.7071793    838.17695  0.023749772  0.023388348           26 
 2942000   0.77793312   -6.7138926    837.86972  0.023732997  0.023381928           19 
 2943000   0.79237783   -6.7178836    838.56636  0.023744659  0.023375515           14 
 2944000   0.79535376   -6.7169233    838.76396  0.023742186  0.023369108           22 
 2945000   0.79818875   -6.7546052    840.14045  0.023773074    0.0233627           49 
 2946000   0.77235377   -6.7255835    840.18892  0.023766376  0.023356312           22 
 2947000   0.80082529   -6.7254805    841.63877  0.023799309  0.023349971           17 
 2948000   0.75796845   -6.7070539    842.24586  0.023808397  0.023343639           10 
 2949000   0.77995069   -6.7480112    839.42303  0.023720556  0.023337272           15 
 2950000   0.77042123   -6.7314841    840.69806  0.023748533  0.023330889           19 
 2951000   0.78770899   -6.7488952    839.51926  0.023707197  0.023324515           10 
 2952000   0.77209934   -6.7203447    840.74298  0.023733711  0.023318151           18 
 2953000   0.79315676   -6.6974413    841.24427   0.02373982  0.023311801           31 
 2954000   0.78963502   -6.7155061    840.10295  0.023699587  0.023305452           16 
 2955000   0.77986215   -6.7416558    841.41004  0.023728428  0.023299075           26 
 2956000   0.78456142   -6.7324878    840.45599  0.023693505  0.023292696           31 
 2957000   0.78242646   -6.7042531    843.05564  0.023758754  0.023286351           29 
 2958000    0.7945944   -6.7437116    841.09682  0.023695538  0.023280006           23 
 2959000   0.77988157   -6.7001051    840.60573    0.0236737  0.023273646           13 
 2960000    0.7902893   -6.6984943    840.59278  0.023665337  0.023267313           19 
 2961000   0.78851912   -6.7423964    843.43987  0.023737473  0.023260973           17 
 2962000   0.79332676   -6.7243646    842.82739  0.023712227  0.023254633           30 
 2963000   0.76808259   -6.7144266    840.18977  0.023630042  0.023248333           36 
 2964000   0.76271417   -6.7032156    841.71718  0.023665013  0.023242019           19 
 2965000   0.77180582   -6.7250257    843.58243  0.023709456  0.023235707           11 
 2966000   0.77970452   -6.7366112    841.47184  0.023642162  0.023229373           17 
 2967000   0.80106293   -6.7215476    840.87051  0.023617305  0.023223031           26 
 2968000   0.77731921   -6.7253969    844.04988  0.023698615  0.023216697           10 
 2969000   0.77865218   -6.7373029    840.74596  0.023597899  0.023210364           26 
 2970000   0.77029471   -6.7064259    840.13826  0.023572903  0.023204017           38 
 2971000   0.77084408   -6.7259336     841.6098  0.023606244   0.02319768           16 
 2972000   0.78093125   -6.7495614     841.4377  0.023593475   0.02319135           23 
 2973000   0.77222631   -6.7323525    842.25924  0.023608567   0.02318501           20 
 2974000   0.77130284   -6.7013882    844.20371  0.023655114  0.023178683           26 
 2975000    0.7828034   -6.7196196    843.54035  0.023628581  0.023172368           17 
 2976000   0.78103152   -6.7174634    843.46672   0.02361858  0.023166072           12 
 2977000     0.767237   -6.7292226    840.70011  0.023533202  0.023159751           10 
 2978000   0.76392803   -6.7287879    842.53792  0.023576727  0.023153446           12 
 2979000   0.76417172   -6.7440429     843.0001  0.023581742  0.023147145           15 
 2980000   0.76538017   -6.7309161    843.71453  0.023593807  0.023140854           16 
 2981000   0.76274329   -6.7083338    841.93167  0.023536052  0.023134543           10 
 2982000   0.78811657   -6.7527034    840.01798  0.023474681  0.023128231           25 
 2983000   0.77484648   -6.7389886     842.7277   0.02354251  0.023121849           25 
 2984000   0.77378338   -6.7422586    841.92712  0.023512263  0.023115479           15 
 2985000    0.7507505   -6.7297069    840.86903  0.023474847  0.023109112           31 
 2986000   0.77855076   -6.7445035    842.08793  0.023501003  0.023102731           57 
 2987000   0.76852628   -6.7486626    842.05655  0.023492259  0.023096345           87 
 2988000   0.76516327   -6.7532496    842.43485  0.023494948  0.023089985           52 
 2989000   0.77749673   -6.7307654    842.34852   0.02348468  0.023083597           36 
 2990000   0.77019126   -6.7591341    840.42045   0.02342309  0.023077198           36 
 2991000   0.78259853   -6.7675425    842.55528  0.023474738  0.023070782           47 
 2992000   0.76866492   -6.7607906    842.91941  0.023477033  0.023064347           30 
 2993000   0.76567584   -6.7863655    842.73603  0.023464084  0.023057931           83 
 2994000   0.77452427   -6.7095023    842.04074  0.023436894   0.02305153           20 
 2995000   0.76897293   -6.7174965    843.07216  0.023457768  0.023045168           15 
 2996000    0.7830745   -6.7292196    842.43607  0.023432245  0.023038837           30 
 2997000   0.76979773    -6.759703    843.76166  0.023461285  0.023032487           37 
 2998000    0.7761296    -6.743675    843.08498   0.02343465    0.0230261           30 
 2999000   0.78671339   -6.7340695    843.83504  0.023447678  0.023019753           36 
 3000000     0.764168   -6.7576424    843.64049  0.023434458  0.023013409           45 
 3001000   0.76710252   -6.7410299    842.84168  0.023404468  0.023007087           34 
 3002000   0.77284203   -6.7313081    843.69967  0.023420488  0.023000752           28 
 3003000   0.76549682   -6.7612408    844.83806   0.02344428  0.022994415           18 
 3004000   0.76114859   -6.7428176      844.136     0.023417   0.02298808           27 
 3005000   0.75674385    -6.753363    843.65394  0.023395839  0.022981736           51 
 3006000   0.78378557   -6.7339801    845.29625  0.023433584  0.022975399           26 
 3007000   0.78542855   -6.7246986    843.92393   0.02338776  0.022969089           32 
 3008000   0.76562517   -6.7381135    843.67177  0.023372999  0.022962765           23 
 3009000   0.76495365   -6.7651396    843.42292  0.023358339  0.022956419           19 
 3010000   0.76769305   -6.7333655    843.85805  0.023362626  0.022950091           19 
 3011000   0.75474619   -6.7515024    844.35076  0.023368503  0.022943762           75 
 3012000   0.77665318   -6.7589757    844.74773  0.023371728  0.022937427           47 
 3013000   0.77126662   -6.7271203    845.05949  0.023372594  0.022931116           58 
 3014000   0.76238531   -6.7452594    845.47188  0.023376241  0.022924843           18 
 3015000   0.78062544   -6.7597497     842.4831  0.023285879  0.022918553           53 
 3016000   0.75086552    -6.742116     846.1119  0.023378423  0.022912266           23 
 3017000   0.76028232   -6.7466436    845.83822  0.023363115  0.022906003           28 
 3018000   0.77705221   -6.7613876    845.33942  0.023341601  0.022899731            9 
 3019000   0.76646432   -6.7437687    845.80489  0.023346718  0.022893507           14 
 3020000   0.77001855   -6.7504614    844.88754  0.023313674  0.022887271           13 
 3021000   0.77284702   -6.7319679    846.41712   0.02334815  0.022881009           23 
 3022000    0.7649432    -6.762891    847.11761   0.02335974  0.022874802           16 
 3023000   0.76737516   -6.7176002    845.72802  0.023313707  0.022868559           13 
 3024000   0.76090048   -6.7325308    846.52588  0.023327984  0.022862327           13 
 3025000   0.76387056    -6.749063    847.28695  0.023341238  0.022856091           21 
 3026000   0.77824867   -6.7508747    847.31734  0.023334362  0.022849864           32 
 3027000   0.75591143   -6.7136443    847.90412  0.023342807   0.02284363           31 
 3028000   0.76644908   -6.7366101    846.93438   0.02330841  0.022837375           15 
 3029000   0.77055081   -6.7405224    847.27966  0.023310214  0.022831128           16 
 3030000   0.76554982   -6.7461241    845.71644  0.023259528  0.022824868           32 
 3031000   0.76678047   -6.7529254    845.02993  0.023232979  0.022818608           25 
 3032000   0.76946729   -6.7115505     846.0163  0.023252427   0.02281235           16 
 3033000   0.78967817   -6.7146393    848.57013  0.023314928  0.022806134           31 
 3034000   0.76771046   -6.7440251    847.68804  0.023283016  0.022799918           13 
 3035000   0.76580982   -6.7545353    846.09446  0.023231589  0.022793672           23 
 3036000   0.77272344   -6.7563907     846.7284  0.023241337  0.022787423           36 
 3037000   0.75583612   -6.7784958    844.58908  0.023174983   0.02278117           34 
 3038000   0.76474017   -6.7506652     845.0828  0.023180898  0.022774888           50 
 3039000   0.76333073   -6.7672409    845.51542  0.023185133   0.02276859           49 
 3040000   0.76197236   -6.7415116    847.89168  0.023242645  0.022762303           47 
 3041000    0.7542992   -6.7722387    845.54437  0.023170678  0.022756037           40 
 3042000   0.74998012   -6.7657907    845.92397   0.02317346  0.022749743           37 
 3043000   0.76107929   -6.7853631    847.89858  0.023219919  0.022743457           55 
 3044000   0.76157969   -6.7778702    846.35945  0.023170156  0.022737135           33 
 3045000    0.7794436   -6.7767436    845.32861  0.023134335  0.022730831           53 
 3046000   0.78888932   -6.7678283    846.14552   0.02314909   0.02272454           25 
 3047000   0.77146874     -6.72743    845.84969  0.023133401  0.022718262            9 
 3048000   0.76454414   -6.7656806    844.27372  0.023082724  0.022712002           10 
 3049000    0.7572864   -6.7475014    845.76658  0.023115955  0.022705762           17 
 3050000   0.76619992   -6.7379876    847.72566  0.023161903  0.022699535           31 
 3051000   0.76859678    -6.742333    848.17538  0.023166595  0.022693285           24 
 3052000   0.76122355   -6.7552017    846.90053  0.023124195  0.022687027           15 
 3053000   0.76733984   -6.7636642    846.70459  0.023111273  0.022680783           31 
 3054000   0.76140638    -6.751633     847.4424  0.023123838  0.022674527           15 
 3055000   0.77471463   -6.7692287       847.32  0.023112929  0.022668275           44 
 3056000   0.76780348   -6.7477751    848.24694  0.023130643   0.02266204           35 
 3057000   0.76422766   -6.7477441    847.49524  0.023102585  0.022655796           47 
 3058000   0.74119699   -6.7857836    847.13398  0.023085186  0.022649535           83 
 3059000   0.76039287   -6.7635747    848.35175  0.023110814  0.022643261           45 
 3060000     0.750553   -6.7645426    848.11022  0.023096684  0.022636991           54 
 3061000    0.7589096   -6.7618744     847.1762   0.02306371  0.022630678           85 
 3062000   0.77532208   -6.7598174    846.94148   0.02304979  0.022624379           54 
 3063000   0.73976656   -6.7805631    846.15751  0.023020936  0.022618129           26 
 3064000   0.75446533   -6.7669406    846.97301  0.023035602  0.022611836           97 
 3065000   0.76163625   -6.7799977    849.09462   0.02308577  0.022605556           68 
 3066000   0.73739395   -6.7818192    847.05332  0.023022758  0.022599289           55 
 3067000   0.76528647   -6.7848035    848.66044  0.023058919  0.022593001           22 
 3068000   0.76813775   -6.7790943    845.53421  0.022966488  0.022586747           44 
 3069000   0.76993607   -6.7654418    848.02404  0.023026611  0.022580504            8 
 3070000   0.76093377   -6.7383738    848.37872  0.023028738  0.022574285           13 
 3071000   0.75229757   -6.7628155    849.49843  0.023051623  0.022568065           18 
 3072000   0.77915756   -6.7633634      850.614  0.023074381  0.022561847           40 
 3073000   0.76161186   -6.7516572    849.84858  0.023046116  0.022555623           36 
 3074000   0.75946016   -6.7932674    848.59373  0.023004601  0.022549419           35 
 3075000   0.75739582   -6.7714979    849.69943  0.023027085  0.022543176           22 
 3076000   0.77458755   -6.7810006    850.30308  0.023035953  0.022536933           21 
 3077000   0.77914842   -6.7826338    850.17946  0.023025118  0.022530685           37 
 3078000   0.77037949   -6.7753747    849.74339  0.023005831  0.022524447           24 
 3079000    0.7639008   -6.7524935    850.21804  0.023011206  0.022518254           44 
 3080000   0.77103654   -6.7411539    850.79613  0.023019376  0.022512096           13 
 3081000   0.76748268   -6.7583784    849.43687   0.02297514  0.022505893           22 
 3082000   0.73798314   -6.7615272    849.83981   0.02297858   0.02249969           27 
 3083000    0.7521768   -6.7872841    850.33392  0.022984483  0.022493454           26 
 3084000   0.76888935   -6.7751092    850.35175  0.022977512  0.022487221           24 
 3085000   0.77126252   -6.7978837    849.04784  0.022934842   0.02248102           16 
 3086000   0.75133597   -6.7684736    851.80515  0.023001867  0.022474857           12 
 3087000   0.74846752   -6.7786402    853.15365  0.023030819  0.022468672           18 
 3088000   0.75114319    -6.784525    848.06317  0.022885988  0.022462484           51 
 3089000   0.75265356   -6.7955916     850.0538  0.022932281  0.022456271           18 
 3090000   0.75162811   -6.8084803    849.82633  0.022918725  0.022450085           30 
 3091000    0.7602605   -6.7763021    850.86708  0.022939369  0.022443911           22 
 3092000   0.76948015    -6.754799    849.67011   0.02289969  0.022437744           20 
 3093000    0.7614903   -6.7604056    850.60575  0.022917495  0.022431628           41 
 3094000   0.75821365   -6.7686616    851.09425  0.022923245  0.022425478           29 
 3095000   0.77921038   -6.7472115    852.19984  0.022945607   0.02241936           27 
 3096000   0.77738171   -6.7720509    851.97771  0.022932217  0.022413248           30 
 3097000    0.7476862   -6.7742802    852.14805  0.022929395  0.022407134           19 
 3098000   0.75859509    -6.752475    853.25386  0.022951739  0.022401003           18 
 3099000   0.75341358   -6.7467801    851.44998  0.022895826  0.022394905           21 
 3100000   0.76043056   -6.7557782    851.49673  0.022889697   0.02238877           17 
 3101000   0.75114989   -6.7778855    852.77455  0.022916655  0.022382615           14 
 3102000   0.74059064   -6.7855025    849.56846  0.022823137  0.022376486           27 
 3103000   0.75148551   -6.7907088    851.59138  0.022870109  0.022370343           38 
 3104000   0.75831298   -6.7715497    851.56207  0.022861954  0.022364205           36 
 3105000   0.75407054   -6.7834034    852.33702   0.02287539  0.022358081           43 
 3106000   0.74621905   -6.7787598    853.66644  0.022903693  0.022351968           32 
 3107000   0.76251551   -6.7585225    852.31332  0.022860029  0.022345858           15 
 3108000   0.75037682   -6.7385444    853.35372   0.02288057  0.022339761           11 
 3109000   0.76125774   -6.7556052    851.33693  0.022819152  0.022333679           25 
 3110000    0.7425033   -6.7749692    851.78774  0.022823895    0.0223276           49 
 3111000   0.75446717   -6.7524935    853.41932  0.022860262  0.022321507           25 
 3112000   0.75688924   -6.7715931    854.65957  0.022886128  0.022315426           24 
 3113000   0.74361653   -6.8021319    852.04714  0.022808843    0.0223093           37 
 3114000    0.7614152   -6.8085428    852.13622  0.022803902  0.022303163           20 
 3115000   0.74572654   -6.7714684    854.22057  0.022852343   0.02229703           17 
 3116000   0.74967195   -6.7888446    853.48034  0.022825212  0.022290908           21 
 3117000   0.76670233   -6.7727561    852.94379  0.022803545  0.022284768           22 
 3118000   0.74363273   -6.7909511    853.17994  0.022802543  0.022278645           20 
 3119000   0.73601763   -6.7686424    854.47406  0.022829808  0.022272569           44 
 3120000   0.76085952   -6.7738183    853.06094  0.022784747  0.022266494           33 
 3121000   0.74561149   -6.7816214    853.10266  0.022778561  0.022260401           13 
 3122000   0.74026489   -6.7940463     853.0183  0.022769013  0.022254286           14 
 3123000   0.74801924   -6.8001924    852.87907  0.022758007  0.022248167           30 
 3124000   0.75087668   -6.7920931    853.12168  0.022757194  0.022242042           50 
 3125000   0.75059769   -6.7895149    854.75884  0.022793569  0.022235939           13 
 3126000   0.75664479   -6.7747886    851.73829  0.022705755  0.022229831           25 
 3127000   0.76444814   -6.7641322    851.37698  0.022688865  0.022223714           66 
 3128000   0.73162364   -6.8027899    852.66377  0.022715893  0.022217576           27 
 3129000   0.73815111   -6.8064088    853.95469  0.022743014  0.022211418           28 
 3130000   0.75097367   -6.7905124    853.35188  0.022719699  0.022205289           45 
 3131000   0.74146321   -6.7666404    850.97734  0.022649243  0.022199135           78 
 3132000   0.75493894   -6.8053679    852.16462  0.022673601  0.022192957           39 
 3133000   0.73975933   -6.7902004    852.04737  0.022663245  0.022186781           57 
 3134000   0.74611306   -6.7823902    854.06485  0.022709659  0.022180621           20 
 3135000   0.74412067   -6.7918153    852.36348   0.02265719  0.022174472           72 
 3136000   0.72887321   -6.8084922    852.92186  0.022664803  0.022168321          103 
 3137000   0.75120734   -6.8070693    852.17907  0.022637846  0.022162163           43 
 3138000   0.75336943    -6.770944    853.27187  0.022659652  0.022156024           39 
 3139000   0.75438133   -6.7922719    852.37052  0.022628505  0.022149891           78 
 3140000   0.75912559    -6.800544    855.89786  0.022714911  0.022143791           35 
 3141000   0.73662286   -6.7725948    853.58547   0.02264633  0.022137677           32 
 3142000   0.74621826   -6.7774024     852.6808  0.022615128   0.02213155           22 
 3143000   0.73830636   -6.7686978    852.52548  0.022603815   0.02212545           24 
 3144000   0.74671946   -6.8015576     852.9266  0.022607257  0.022119329           17 
 3145000   0.74765496   -6.8232823    853.08313  0.022604217  0.022113177           20 
 3146000   0.76039266   -6.8206052     852.9814  0.022594337   0.02210699           49 
 3147000   0.74403218   -6.7836589    852.20384  0.022566567  0.022100815           39 
 3148000   0.76583459   -6.7914203    852.14451  0.022557828  0.022094616           44 
 3149000   0.75338037   -6.7495128    852.40911  0.022557667  0.022088423           56 
 3150000   0.75147737   -6.7810152    852.59194  0.022555342  0.022082229          130 
 3151000   0.74268289   -6.8009899    851.85134  0.022528598   0.02207603          164 
 3152000   0.74067944   -6.8056832    851.38282  0.022509064  0.022069814          163 
 3153000   0.75283788   -6.8018299    851.58737  0.022507331  0.022063601          123 
 3154000   0.73114526   -6.8179987    851.89413    0.0225083  0.022057419           76 
 3155000   0.75319236   -6.7698165    852.30352  0.022511979  0.022051245          127 
 3156000   0.75658234   -6.8130885     854.6488  0.022566772  0.022045064          125 
 3157000   0.73508056   -6.8018412    854.34408  0.022551581  0.022038864          119 
 3158000   0.74485384   -6.7975078    852.14984  0.022486538  0.022032698          133 
 3159000   0.75969351   -6.7987288    853.45406  0.022513825  0.022026544          154 
 3160000   0.75087558   -6.7941206    851.16177  0.022446249   0.02202038          147 
 3161000   0.74899662   -6.8008529    853.10666  0.022490421  0.022014221          179 
 3162000   0.73410294   -6.7999122    852.41112  0.022464978  0.022008058          124 
 3163000   0.74926301   -6.8025047    853.71158  0.022492138  0.022001905           56 
 3164000   0.73865504    -6.777242    853.81872  0.022487851  0.021995766           37 
 3165000   0.75474045   -6.7865546    852.17636  0.022437503  0.021989607           45 
 3166000   0.75854593   -6.8483927    854.72894  0.022497603  0.021983447           77 
 3167000   0.72712717   -6.7852749    852.81432   0.02244012  0.021977292           80 
 3168000   0.75489025   -6.7905516    853.17478  0.022442518  0.021971127          141 
 3169000   0.75802076   -6.8204466    853.85237  0.022453255  0.021964967          159 
 3170000   0.74554407   -6.7921103     852.2042  0.022402844  0.021958796          109 
 3171000   0.75879443   -6.8081122    851.26219  0.022371024  0.021952609          135 
 3172000   0.73318868   -6.7757544    853.04619  0.022410839  0.021946443          183 
 3173000    0.7436699   -6.8133376     852.2828  0.022383727  0.021940245          204 
 3174000   0.74033716   -6.7852592    852.93076  0.022393687   0.02193404          203 
 3175000    0.7416513   -6.8079563    853.24126  0.022394784  0.021927858          177 
 3176000   0.75642772   -6.8305664    851.01251  0.022329254  0.021921648          214 
 3177000   0.74862007   -6.8197157    853.49768  0.022387412   0.02191545          244 
 3178000   0.74232425   -6.8071315     852.6569   0.02235832   0.02190926          222 
 3179000   0.75883075   -6.8032652    852.87826   0.02235709  0.021903083          207 
 3180000   0.74735904    -6.826565    854.03608    0.0223804  0.021896903          291 
 3181000    0.7248234   -6.8516825    853.75068  0.022365888  0.021890712          211 
 3182000   0.74161409   -6.8300672    854.06069  0.022366978  0.021884518          235 
 3183000   0.76426563   -6.8133275     852.9016  0.022329605  0.021878314          267 
 3184000   0.74632732   -6.8127865    853.07475  0.022327124  0.021872105          257 
 3185000   0.73876371   -6.8325884    852.29882  0.022299812  0.021865907          232 
 3186000   0.73478138   -6.8264223    854.60574  0.022353153  0.021859704          269 
 3187000   0.73639838   -6.8074473    854.07116  0.022332161   0.02185349          202 
 3188000   0.76103751   -6.8389603     852.2096  0.022276495   0.02184728          295 
 3189000   0.73067681   -6.8409962    853.30207  0.022298058  0.021841064          263 
 3190000   0.74503792    -6.816704    852.80261   0.02227802   0.02183487          256 
 3191000   0.75620838   -6.8058758    852.63998  0.022266792  0.021828657          238 
 3192000   0.72463782    -6.848928    854.26077   0.02230213  0.021822462          269 
 3193000   0.73979547   -6.8301359    853.59784  0.022277843  0.021816237          330 
 3194000   0.74029384   -6.8486511    853.28133   0.02226261  0.021809998          315 
 3195000   0.73771659   -6.8381761    853.65192  0.022265308  0.021803757          372 
 3196000   0.72874076   -6.8356082     852.4602  0.022227268  0.021797529          385 
 3197000    0.7485507   -6.8469573    854.30974  0.022268526  0.021791281          400 
 3198000   0.72976394   -6.8450097    853.25897  0.022234182  0.021785041          405 
 3199000   0.73342756   -6.8398042    853.84031  0.022242375  0.021778814          384 
 3200000   0.73899031    -6.847959    854.18193  0.022244321  0.021772609          394 
 3201000   0.76944109   -6.8369967    852.83417  0.022202285  0.021766385          480 
 3202000   0.72827747   -6.8203107    852.95918  0.022198605  0.021760153          522 
 3203000   0.73917771   -6.8758788    854.57736  0.022233775  0.021753946          594 
 3204000   0.72520332   -6.8486186    854.46052  0.022223796  0.021747733          648 
 3205000   0.73944628   -6.8453793    854.58527  0.022220106  0.021741482          633 
 3206000   0.74074805   -6.8707926    853.60421  0.022187674  0.021735236          640 
 3207000   0.75101621   -6.8717399    851.08824  0.022115379  0.021728972          625 
 3208000   0.74222444   -6.8865232     852.8016  0.022152993  0.021722676          699 
 3209000   0.75317927   -6.8710047    852.10361  0.022127963  0.021716372          764 
 3210000   0.73743048   -6.8776644    851.04301  0.022093536  0.021710067          789 
 3211000   0.74429269   -6.8884633     850.7877   0.02208003  0.021703742          833 
 3212000   0.73271895   -6.9076049    850.37722  0.022062506  0.021697395         1014 
 3213000   0.74968187   -6.8973774    852.91377  0.022121428   0.02169104         1013 
 3214000   0.72168261   -6.9067892    852.97987  0.022116259  0.021684688         1043 
 3215000    0.7376117   -6.9008083    850.76716  0.022052026  0.021678344          987 
 3216000   0.73283477    -6.923752      851.016  0.022051617  0.021671991         1124 
 3217000   0.73582037   -6.9212605    851.66287  0.022061519  0.021665633         1192 
 3218000   0.73940612   -6.9405868    851.90268  0.022060873   0.02165926         1231 
 3219000   0.73499852   -6.9372754    851.33485   0.02203932  0.021652872         1243 
 3220000   0.72971005   -6.9406827    849.73576  0.021991091  0.021646465         1360 
 3221000   0.73444185    -6.957816    849.89632  0.021988418  0.021640043         1382 
 3222000   0.73808878    -6.970152    848.76126  0.021952236  0.021633585         1551 
 3223000   0.73584796   -6.9552678    848.05639    0.0219272  0.021627114         1634 
 3224000   0.73514589   -6.9885643    846.98084  0.021892598  0.021620605         1734 
 3225000   0.73735304   -6.9757455    847.58856  0.021901513  0.021614106         1726 
 3226000   0.72444721   -7.0422775    846.32605  0.021862111  0.021607552         1931 
 3227000   0.75000109   -7.0146034    846.63221  0.021863243  0.021600982         1906 
 3228000   0.75563751   -7.0363379    845.67213  0.021831684  0.021594366         2006 
 3229000     0.725164   -7.0112154    845.55436  0.021821884  0.021587765         1996 
 3230000   0.74190637    -7.060713      843.643  0.021765815  0.021581134         2111 
 3231000   0.74843364   -7.0466589    844.57311  0.021783068   0.02157449         2104 
 3232000   0.74363671   -7.0831991    844.89294  0.021784575  0.021567827         2310 
 3233000   0.73428311   -7.0833086    842.73149  0.021722123  0.021561112         2387 
 3234000   0.73179247   -7.1041329     842.8378  0.021718146  0.021554392         2431 
 3235000   0.74020028   -7.0921567    844.09802  0.021743895   0.02154765         2538 
 3236000   0.72539001   -7.1190055    842.43621  0.021694381  0.021540878         2698 
 3237000   0.73906953   -7.1372944    842.19741  0.021681531   0.02153405         2827 
 3238000   0.74243345    -7.171494    839.91709  0.021616149  0.021527196         2917 
 3239000   0.73200994   -7.1736483     838.4488  0.021571699  0.021520317         3070 
 3240000   0.72684037   -7.2004907    839.12257  0.021582371   0.02151339         3152 
 3241000    0.7274148   -7.2180296    840.61325   0.02161404   0.02150644         3266 
 3242000   0.71752216   -7.2237951     837.2984  0.021522167  0.021499449         3346 
 3243000   0.74457105   -7.2383586    838.54956  0.021547681  0.021492436         3407 
 3244000   0.73217564   -7.2703322    836.85812  0.021497588  0.021485371         3506 
 3245000   0.75737944   -7.2787071    834.94626  0.021441866  0.021478267         3546 
 3246000     0.755223   -7.2734491    833.86834  0.021407587  0.021471158         3580 
 3247000   0.71925156   -7.2786887    835.06446  0.021431692  0.021464038         3577 
 3248000   0.72326452   -7.2939152    834.76448  0.021417397  0.021456915         3632 
 3249000   0.73003814   -7.2874171    833.28244  0.021372793  0.021449775         3658 
 3250000    0.7399499   -7.2896915    833.25435  0.021365496  0.021442626         3691 
 3251000   0.71536977   -7.2937024    832.69779  0.021344658   0.02143546         3691 
 3252000   0.74070488   -7.2824296    834.06961  0.021373247  0.021428293         3678 
 3253000   0.71586939   -7.3335088    834.93097  0.021388743  0.021421121         3682 
 3254000   0.74049657   -7.3116909    833.31804  0.021340863  0.021413928         3735 
 3255000   0.72526986    -7.334337    833.46884  0.021338168  0.021406723         3798 
 3256000   0.72425727   -7.3329647    833.44869  0.021331099  0.021399505         3756 
 3257000   0.72943961   -7.3396732    831.66612  0.021278941  0.021392264         3838 
 3258000   0.72154153   -7.3414846    830.06437   0.02123144  0.021385016         3856 
 3259000   0.72308341   -7.3556075    830.36346  0.021232573  0.021377774         3822 
 3260000   0.72980561   -7.3409591    832.93265  0.021291734  0.021370524         3803 
 3261000   0.71046807    -7.369495     832.7301  0.021280029  0.021363276         3782 
 3262000    0.7218778   -7.3655463    832.41996  0.021265582  0.021356026         3793 
 3263000   0.71955246   -7.3542024    832.47186  0.021260391  0.021348776         3779 
 3264000    0.7273963   -7.3647983     830.9054  0.021213884  0.021341515         3809 
 3265000   0.73363863   -7.3386027    831.61603  0.021225524  0.021334255         3802 
 3266000   0.72598773   -7.3687161    831.70726  0.021221353  0.021326995         3830 
 3267000   0.72741118   -7.3599912    831.60124  0.021212153  0.021319721         3819 
 3268000   0.72264234   -7.3382763    831.90294  0.021213355  0.021312448         3813 
 3269000   0.73906838   -7.3624918    831.81472  0.021204617  0.021305176         3822 
 3270000   0.72067547   -7.3684901     830.2784  0.021158981  0.021297898         3836 
 3271000   0.72410003   -7.3464698    831.38161  0.021180618  0.021290613         3816 
 3272000   0.73750155   -7.3540425     829.4945  0.021126082  0.021283336         3867 
 3273000   0.72627502   -7.3531506    833.39888  0.021219037  0.021276053         3833 
 3274000   0.72647894   -7.3857287    830.55658   0.02114021  0.021268766         3861 
 3275000    0.7319461   -7.3725152    829.84193  0.021115571  0.021261493         3814 
 3276000   0.73853883   -7.3624345    831.73001  0.021157153  0.021254195         3794 
 3277000   0.73916547   -7.4315053    832.00184   0.02115761  0.021246899         3849 
 3278000   0.72522837   -7.3605599    830.17909  0.021104817  0.021239603         3837 
 3279000    0.7210091    -7.383844    830.99331  0.021119074   0.02123228         3883 
 3280000   0.73603978   -7.3940378    829.31544  0.021070006  0.021224928         3892 
 3281000   0.74675738   -7.3863294    829.64543  0.021071966  0.021217582         3897 
 3282000   0.72139813   -7.4165728    830.76564  0.021093988  0.021210225         3910 
 3283000   0.70917439   -7.4161879    827.61584  0.021007611  0.021202854         3925 
 3284000   0.73964028   -7.4049163    829.74494  0.021055241  0.021195499         3889 
 3285000   0.72004404   -7.3924731    827.75312  0.020998303  0.021188142         3909 
 3286000   0.71525942   -7.4278734    826.95851  0.020971762  0.021180777         3908 
 3287000   0.72017831   -7.3978271    827.72104  0.020984713  0.021173395         3916 
 3288000   0.72488951    -7.432725     828.3883  0.020995243  0.021166007         3904 
 3289000    0.7326304   -7.4177307    828.85951  0.021000798  0.021158623         3921 
 3290000   0.73567878   -7.4368266    829.08086  0.021000022  0.021151235         3923 
 3291000   0.72568998   -7.4167186    828.38958  0.020976137  0.021143831         3899 
 3292000    0.7336829   -7.4325678    827.11574  0.020937519  0.021136443         3934 
 3293000   0.73371116   -7.4095218    826.86797  0.020924891  0.021129054         3924 
 3294000   0.73439217   -7.4421051      828.608  0.020962558  0.021121666         3930 
 3295000   0.70781419   -7.4382261    828.92811  0.020964292  0.021114272         3924 
 3296000    0.7286737   -7.4398125    828.49888  0.020947079  0.021106876         3920 
 3297000   0.72561658   -7.4383472    826.41709  0.020888108  0.021099477         3941 
 3298000   0.72631432   -7.4259193    828.09605  0.020924198  0.021092074         3932 
 3299000   0.73620037   -7.4642687    829.05699  0.020942129  0.021084669         3946 
 3300000   0.73290832   -7.4481331    826.80492  0.020878912  0.021077266         3939 
 3301000   0.72342384   -7.4453961    826.51215  0.020865196  0.021069858         3928 
 3302000   0.73695603   -7.4580933    827.90765  0.020894096  0.021062462         3926 
 3303000   0.75996215   -7.4441215    825.71835  0.020832535  0.021055068         3929 
 3304000   0.70692451   -7.4371438    829.05358  0.020910351  0.021047675         3933 
 3305000   0.72640754   -7.4350032    830.31841  0.020935915  0.021040283         3935 
 3306000   0.72220148   -7.4320034    827.79203  0.020865901   0.02103289         3915 
 3307000    0.7263805   -7.4333971    826.58593  0.020829199  0.021025503         3906 
 3308000    0.7211963   -7.4426837    827.05812  0.020834798  0.021018111         3937 
 3309000   0.69947443   -7.4408009    828.42548  0.020862937  0.021010726         3919 
 3310000   0.72875182   -7.4494442      826.489   0.02080788  0.021003334         3933 
 3311000   0.71171786   -7.4360436    825.77421  0.020783605   0.02099594         3944 
 3312000   0.71072453   -7.4458396    827.64651  0.020824439  0.020988551         3928 
 3313000   0.71508697   -7.4312926    825.67653  0.020768602  0.020981168         3937 
 3314000   0.71906012   -7.4462525    826.99752  0.020795552  0.020973792         3934 
 3315000    0.7307739   -7.4624339    826.69409  0.020781651  0.020966408         3947 
 3316000   0.71115454   -7.4501266    827.25932  0.020789589  0.020959027         3914 
 3317000   0.71429813   -7.4516234     827.4537  0.020788205  0.020951658         3948 
 3318000   0.71694674   -7.4689528    827.14784  0.020774258  0.020944279         3938 
 3319000   0.72529973   -7.4487947    827.64776   0.02078055  0.020936899         3940 
 3320000   0.71647695   -7.4320873    826.96859  0.020757244  0.020929521         3943 
 3321000   0.70791147   -7.4347139    826.12279   0.02072977  0.020922148         3939 
 3322000   0.71676977   -7.4631366    826.83952  0.020741509  0.020914768         3936 
 3323000   0.72753457   -7.4516247    826.33256  0.020722554  0.020907391         3939 
 3324000   0.72515096   -7.4613677    826.63689  0.020723949  0.020900014         3939 
 3325000   0.71858436   -7.4180995    826.80282  0.020721875  0.020892654         3920 
 3326000   0.73319012   -7.4519015    826.72596  0.020713719  0.020885277         3940 
 3327000   0.71631462   -7.4570652    825.35621  0.020673184  0.020877903         3941 
 3328000   0.73404477   -7.4365437    827.22542  0.020713778  0.020870543         3925 
 3329000   0.72349815   -7.4704016    826.02367  0.020677473  0.020863182         3919 
 3330000   0.71814011   -7.4450705    827.05628  0.020697104  0.020855811         3939 
 3331000    0.7180425   -7.4569316    827.72325  0.020707576  0.020848449         3937 
 3332000   0.71589217   -7.4447207    827.87125  0.020705063  0.020841084         3921 
 3333000   0.71469311   -7.4484651      827.268  0.020683768  0.020833713         3938 
 3334000   0.71524291   -7.4319719    828.85502  0.020717232  0.020826352         3945 
 3335000   0.73108564    -7.453465    828.62644  0.020705308  0.020819002         3928 
 3336000   0.72034264   -7.4599603    825.59601  0.020623402  0.020811641         3947 
 3337000   0.70116243   -7.4519608    828.86043  0.020698742  0.020804276         3934 
 3338000   0.70982225   -7.4664019    825.79778  0.020616082  0.020796921         3937 
 3339000   0.73465838   -7.4569256    827.06199  0.020641459  0.020789566         3937 
 3340000   0.71802465   -7.4682246    827.73497   0.02065207  0.020782215         3940 
 3341000   0.71505312   -7.4615035    827.71608  0.020645418   0.02077487         3932 
 3342000   0.71668195   -7.4782812    826.32649   0.02060459  0.020767525         3942 
 3343000   0.71666056   -7.4436013    827.48439  0.020627291   0.02076018         3935 
 3344000   0.72082504   -7.4708548    826.76293  0.020603143   0.02075285         3943 
 3345000   0.70526134   -7.4583502    825.35456  0.020561897  0.020745499         3936 
 3346000   0.69243219    -7.480128    827.59182  0.020611472  0.020738159         3939 
 3347000   0.71740655   -7.4296261    827.10703  0.020593243  0.020730819         3938 
 3348000   0.72502305   -7.4499273    826.98397  0.020584029  0.020723483         3946 
 3349000   0.72101107   -7.4632298    826.28403  0.020560466  0.020716148         3948 
 3350000   0.71674929   -7.4616476    827.19424  0.020576971  0.020708808         3928 
 3351000   0.71288055   -7.4674392    824.76978  0.020510539  0.020701482         3938 
 3352000   0.71591558   -7.4656758     826.2786   0.02054193  0.020694147         3952 
 3353000   0.72939832   -7.4527898    827.28436    0.0205608  0.020686814         3946 
 3354000   0.72662129   -7.4599052    826.32054  0.020530723   0.02067947         3944 
 3355000   0.71329861   -7.4584856    825.22565  0.020497408  0.020672131         3942 
 3356000   0.73368943   -7.4479442    824.67367  0.020477594  0.020664796         3942 
 3357000   0.71495234   -7.4570225    825.61911  0.020494964  0.020657456         3946 
 3358000   0.70536149   -7.4411766    825.90287  0.020495902  0.020650128         3938 
 3359000   0.71475299   -7.4727712     826.4647  0.020503739  0.020642792         3960 
 3360000   0.72440568   -7.4799937    824.65134  0.020452662  0.020635452         3946 
 3361000   0.71169864     -7.48878    826.41675  0.020490349  0.020628117         3967 
 3362000   0.70412986    -7.449474    825.89375  0.020471291  0.020620782         3949 
 3363000   0.73025583   -7.4636506    826.13217  0.020471111  0.020613447         3960 
 3364000   0.71141763   -7.4697662    825.92781  0.020459963   0.02060612         3946 
 3365000   0.71809677   -7.4687807     825.7961  0.020450622  0.020598795         3947 
 3366000   0.71684246   -7.4739184    825.22369  0.020430375  0.020591469         3953 
 3367000   0.70385286   -7.4759603    826.96074  0.020467299  0.020584143         3959 
 3368000   0.71874356   -7.4516339    825.87235  0.020434292  0.020576814         3953 
 3369000   0.70828527    -7.471303    825.41633  0.020416947   0.02056948         3947 
 3370000   0.70582871   -7.4538664    826.51754  0.020438119  0.020562163         3945 
 3371000   0.72547844   -7.4632171    825.94453  0.020417891  0.020554851         3939 
 3372000   0.71348684   -7.4797908    827.31474  0.020445699  0.020547532         3955 
 3373000   0.70247936   -7.4712151    826.78756  0.020426612  0.020540215         3957 
 3374000   0.70612923   -7.4593167    825.33957  0.020384795    0.0205329         3957 
 3375000   0.72124455   -7.4750789    824.83363  0.020366262  0.020525589         3950 
 3376000   0.72118815   -7.4497225    824.34913   0.02034827  0.020518288         3945 
 3377000   0.70829545   -7.4788148    826.18272  0.020387492  0.020510985         3951 
 3378000   0.72639652   -7.4883825    825.53033  0.020365362  0.020503668         3948 
 3379000   0.71479487   -7.4545569    825.55825  0.020360024  0.020496359         3955 
 3380000   0.70930631   -7.4619647    826.16994  0.020369081  0.020489047         3949 
 3381000   0.72187165   -7.4628326    826.52258  0.020371749  0.020481734         3939 
 3382000   0.70849651   -7.4758288    825.07803  0.020330131  0.020474415         3958 
 3383000   0.70516368   -7.4859795     824.9133  0.020320063  0.020467103         3952 
 3384000   0.70880382    -7.503224    825.85759  0.020337313  0.020459786         3957 
 3385000   0.70110443   -7.4859581    825.48615   0.02032216  0.020452475         3955 
 3386000   0.71305033    -7.478508    826.00178  0.020328849  0.020445166         3946 
 3387000    0.7121533   -7.4766978    824.98852  0.020297916  0.020437867         3961 
 3388000   0.70026504   -7.5061439    825.61103  0.020307237  0.020430561         3957 
 3389000   0.70892484   -7.4759204    824.83434  0.020282147  0.020423254         3943 
 3390000   0.71853951   -7.4892536    827.16811  0.020333533  0.020415951         3951 
 3391000   0.70362993   -7.4792371     825.6386  0.020289949  0.020408661         3950 
 3392000   0.70576372   -7.4884722    827.79637  0.020336978  0.020401369         3944 
 3393000    0.7066942    -7.482814    824.98119  0.020261843  0.020394068         3941 
 3394000   0.71533095   -7.4774908    826.22075  0.020286308  0.020386771         3946 
 3395000   0.70344709   -7.4825256    824.67767  0.020242456  0.020379464         3958 
 3396000   0.70053955   -7.4812221    825.11086  0.020247126  0.020372172         3948 
 3397000    0.7235535   -7.4932091    825.64098   0.02025417  0.020364882         3947 
 3398000   0.68829214   -7.4743665    823.90607  0.020205662  0.020357594         3937 
 3399000   0.70335144   -7.4798447    824.05375  0.020203338  0.020350302         3954 
 3400000   0.73267974   -7.4791469    825.67002   0.02023701  0.020343015         3945 
 3401000   0.68752464   -7.5092813    826.57594  0.020253257  0.020335729         3948 
 3402000   0.70325102   -7.4900899    825.50696  0.020221119  0.020328446         3948 
 3403000   0.70391766   -7.4935472    826.01009  0.020227498  0.020321162         3948 
 3404000   0.69874009   -7.4979694    825.88317  0.020218448   0.02031388         3959 
 3405000   0.70398136   -7.4784893    825.69191  0.020207829  0.020306605         3955 
 3406000   0.70942457   -7.4755404    824.08301  0.020162532  0.020299325         3947 
 3407000   0.70519817   -7.5033864    824.88925  0.020176334  0.020292057         3951 
 3408000   0.70833502   -7.4954611    824.75063  0.020167024  0.020284783         3951 
 3409000   0.71389494    -7.459284    824.81777   0.02016275  0.020277511         3955 
 3410000   0.71294703   -7.4954446     824.2376  0.020142659  0.020270245         3948 
 3411000   0.71325067   -7.4881804    825.89353  0.020177209  0.020262971         3955 
 3412000   0.70953615   -7.4913742    826.57094   0.02018784  0.020255705         3947 
 3413000   0.70028136   -7.4843828    825.65479  0.020159556  0.020248447         3960 
 3414000   0.72028311     -7.47548    827.17658  0.020190797  0.020241188         3955 
 3415000   0.71604102   -7.5106729    825.21381  0.020136989  0.020233932         3956 
 3416000   0.71472797   -7.4746946    825.67126  0.020142254  0.020226668         3939 
 3417000    0.7033574   -7.4873873    824.91442  0.020117901  0.020219418         3947 
 3418000   0.70463591   -7.4705009    824.83099  0.020109981  0.020212167         3952 
 3419000   0.69946912   -7.4910628    825.26508   0.02011468  0.020204917         3949 
 3420000   0.69815942   -7.4995995    826.08321  0.020128733  0.020197666         3949 
 3421000   0.71492149   -7.4997208    825.66373  0.020112631  0.020190423         3951 
 3422000   0.70007747   -7.4813487    824.81756  0.020086148   0.02018317         3954 
 3423000   0.70402868   -7.4883233     827.1441  0.020136919  0.020175934         3955 
 3424000   0.70562091   -7.5144846    823.39763  0.020039857  0.020168692         3959 
 3425000    0.7087091   -7.4960603    824.63423  0.020064093  0.020161445         3943 
 3426000   0.70783901   -7.4917516     825.7698  0.020085858  0.020154206         3942 
 3427000   0.70911686   -7.4788932     826.5982  0.020100141  0.020146971         3956 
 3428000   0.69357029   -7.4881121    826.18078   0.02008413  0.020139738         3951 
 3429000    0.7093244   -7.5097717    825.93994   0.02007242  0.020132507         3934 
 3430000   0.69187591   -7.4823837    825.86454  0.020064736  0.020125275         3952 
 3431000   0.71734327   -7.4818719    824.60248  0.020028235  0.020118048         3957 
 3432000   0.68955201   -7.4824561    824.85089  0.020028431  0.020110826         3955 
 3433000   0.69440761   -7.4872996    825.05561  0.020027566  0.020103596         3953 
 3434000   0.71899654   -7.5061616    825.76504   0.02003895  0.020096376         3944 
 3435000    0.7060878   -7.4961595    825.28621  0.020021499  0.020089159         3950 
 3436000   0.70243592   -7.4701082    826.42542  0.020043302  0.020081939         3957 
 3437000   0.70554055   -7.4802538    826.20415  0.020032105  0.020074724         3952 
 3438000   0.69605857   -7.5055381    825.13881  0.020000456  0.020067511         3968 
 3439000   0.69489416   -7.4854721    825.19618   0.01999603    0.0200603         3949 
 3440000   0.69738456   -7.4966434    825.26758  0.019991947  0.020053091         3949 
 3441000   0.70354226   -7.5143542    825.60372  0.019994278  0.020045881         3950 
 3442000   0.71245928    -7.491278    823.40367  0.019935204  0.020038675         3949 
 3443000   0.71282174   -7.4877231     825.1402  0.019971444  0.020031478         3953 
 3444000   0.70401923   -7.4906607    824.40208  0.019947785  0.020024269         3958 
 3445000   0.69151865   -7.4758885    824.32353  0.019940095  0.020017059         3952 
 3446000    0.6921452   -7.5017794    825.77561  0.019969424  0.020009864         3965 
 3447000   0.70602215   -7.5063852    825.11227  0.019947594  0.020002655         3952 
 3448000   0.71116991   -7.4907937    826.49837  0.019975309  0.019995465         3947 
 3449000   0.68959983   -7.4745419    823.04614  0.019886106  0.019988269         3944 
 3450000   0.71491482   -7.5104463    825.05153  0.019928781   0.01998107         3949 
 3451000   0.70362325   -7.5026299     824.6481  0.019913264  0.019973882         3955 
 3452000   0.68298089   -7.4945562    823.92037  0.019889928  0.019966688         3962 
 3453000   0.68776573   -7.5073624    825.45383  0.019921175  0.019959502         3947 
 3454000   0.68617739   -7.5147163    825.47333  0.019915878  0.019952313         3964 
 3455000   0.70225342    -7.519668    824.69737  0.019891398  0.019945136         3957 
 3456000   0.69804459   -7.4947161    824.93581  0.019891392  0.019937955         3941 
 3457000    0.7042116   -7.5136883    824.68204  0.019879521   0.01993078         3950 
 3458000   0.69366552   -7.4988082    824.34763  0.019865713  0.019923604         3960 
 3459000   0.69408554   -7.4749685    825.55732  0.019889113  0.019916438         3962 
 3460000   0.70440925   -7.5052175    826.32807  0.019901928  0.019909267         3952 
 3461000   0.68030891    -7.492609    824.24218  0.019845955  0.019902101         3958 
 3462000   0.69348989   -7.4859901    825.05276  0.019859733  0.019894927         3946 
 3463000   0.68519283   -7.5243532    823.73552    0.0198223   0.01988776         3961 
 3464000   0.67380806   -7.4826663    825.35311  0.019855492  0.019880587         3959 
 3465000   0.70775651   -7.4834165    825.91734  0.019863332  0.019873424         3962 
 3466000   0.70222845   -7.4898345    824.61476  0.019826283  0.019866266         3954 
 3467000   0.69543641   -7.5003121     825.2539  0.019835927    0.0198591         3953 
 3468000   0.69221915   -7.5243904    825.78713   0.01984302  0.019851935         3945 
 3469000   0.68732944   -7.5252725    825.20063  0.019823211  0.019844778         3956 
 3470000    0.7021969   -7.4886888    823.74678  0.019782584  0.019837629         3956 
 3471000   0.69275001   -7.5110243    824.61601  0.019797753  0.019830472         3965 
 3472000   0.68807641   -7.5337973     823.6105  0.019767917   0.01982332         3953 
 3473000   0.68040892   -7.5031535    823.75497  0.019765692  0.019816169         3963 
 3474000   0.69315359    -7.504731    825.10199  0.019792314  0.019809014         3929 
 3475000   0.70497555   -7.4988749    825.14446  0.019787637  0.019801869         3965 
 3476000   0.68841122   -7.5019334     824.6838    0.0197709  0.019794729         3956 
 3477000   0.69678791    -7.501889    824.44337  0.019759452  0.019787588         3958 
 3478000   0.69482077   -7.5219585    825.80902  0.019786492  0.019780443         3955 
 3479000    0.6973203   -7.4980812    825.37269  0.019770353  0.019773308         3950 
 3480000   0.69505761   -7.5017508    825.07506  0.019757545  0.019766171         3948 
 3481000   0.67800378   -7.5095349    825.04279  0.019751096  0.019759033         3952 
 3482000   0.68724421   -7.5074584    824.14619  0.019723966  0.019751899         3963 
 3483000   0.68888109   -7.5136715    823.42629  0.019701079  0.019744767         3958 
 3484000    0.6902719    -7.509792    824.14727  0.019712669  0.019737647         3961 
 3485000   0.67874451   -7.5089624      824.424   0.01971363  0.019730514         3949 
 3486000   0.70056006   -7.5010427    825.57902  0.019735586  0.019723401         3959 
 3487000   0.68803229   -7.5099326    825.37651  0.019725086  0.019716282         3955 
 3488000   0.69617845   -7.4953139    825.28522   0.01971725  0.019709164         3951 
 3489000   0.69682284   -7.5002102    823.45788  0.019667954  0.019702051         3948 
 3490000   0.70482486   -7.4873219     824.1491  0.019678823  0.019694936         3959 
 3491000   0.69208234   -7.5070574    825.28247   0.01970024  0.019687817         3945 
 3492000   0.69984554   -7.5114138    824.85563  0.019684413  0.019680705         3949 
 3493000   0.68918937   -7.5318782    824.61525  0.019673043  0.019673592         3955 
 3494000   0.68922785   -7.5211729    823.60306  0.019643271  0.019666488         3956 
 3495000   0.69969075   -7.4854146     824.0274  0.019647768   0.01965939         3949 
 3496000   0.68896467    -7.515302    825.05898  0.019666738  0.019652292         3944 
 3497000   0.69797339   -7.5143027    824.59682  0.019650101  0.019645185         3961 
 3498000   0.68578339   -7.5065704    826.63542  0.019693049  0.019638091         3965 
 3499000   0.68045858   -7.5142091    823.67078  0.019616814     0.019631         3956 
 3500000   0.69078158   -7.4958048    823.56125  0.019608601  0.019623905         3961 
 3501000   0.68653971   -7.4931572    823.42808  0.019599831  0.019616815         3954 
 3502000   0.70408093   -7.5250646    824.53715  0.019620625  0.019609721         3959 
 3503000   0.69838793   -7.5259456    825.44757  0.019636682  0.019602629         3953 
 3504000   0.69167246   -7.5215158    825.31059   0.01962782  0.019595546         3952 
 3505000    0.6840035    -7.502393    824.05768  0.019592432  0.019588459         3950 
 3506000   0.69319902   -7.5027977    823.39608  0.019571118  0.019581378         3950 
 3507000    0.6827053   -7.4856292    824.22463  0.019585226  0.019574299         3955 
 3508000   0.68056658   -7.5200024    824.77126  0.019592628  0.019567221         3943 
 3509000   0.69222217   -7.5085056    825.79902  0.019611452  0.019560141         3946 
 3510000   0.70077728   -7.5201174    824.83914  0.019583076  0.019553072         3936 
 3511000   0.70139154   -7.5076419      824.046  0.019558673  0.019546001         3956 
 3512000   0.68934415   -7.5241961    825.23031  0.019581205  0.019538933         3955 
 3513000   0.68844547   -7.5117612    823.39697  0.019532142  0.019531865         3958 
 3514000   0.68583806   -7.5088634    824.42576  0.019550981  0.019524801         3952 
 3515000   0.68538011   -7.4895646    824.96978  0.019558316  0.019517746         3955 
 3516000   0.69775519   -7.5086785    823.64888  0.019521447  0.019510683         3955 
 3517000   0.69602458   -7.5252948    825.66955  0.019563775  0.019503623         3949 
 3518000   0.67389315   -7.5227249    823.14567  0.019498429  0.019496569         3946 
 3519000   0.68608055   -7.5164559    824.59199  0.019527138  0.019489518         3938 
 3520000   0.69934452   -7.4935933    824.12116  0.019510444  0.019482464         3955 
 3521000   0.68475504   -7.5094698    823.27378  0.019484848  0.019475425         3946 
 3522000   0.69162586   -7.5076786    826.17669     0.019548  0.019468388         3957 
 3523000   0.69795339   -7.5158528    824.68702  0.019507215  0.019461347         3951 
 3524000   0.69001037   -7.4998244     825.2167  0.019514205  0.019454303         3960 
 3525000    0.6971635   -7.5152003    825.17337  0.019507645  0.019447258         3944 
 3526000   0.68646458   -7.5073205    824.54763  0.019487323  0.019440221         3949 
 3527000   0.69292911   -7.5151754    823.12273  0.019448132  0.019433189         3954 
 3528000   0.69269302   -7.5061136    823.87265  0.019460333  0.019426154         3956 
 3529000   0.68120801   -7.5131854    821.90311   0.01940831  0.019419125         3955 
 3530000   0.69845979   -7.5180088     824.3897  0.019461513  0.019412101         3942 
 3531000   0.70660636   -7.4952527    823.85863  0.019443468  0.019405082         3950 
 3532000   0.67701445   -7.5352886    825.29931  0.019471954  0.019398063         3949 
 3533000   0.68345155   -7.5032319    823.66462  0.019427885  0.019391043         3942 
 3534000   0.67778821    -7.514027    826.30841  0.019484729  0.019384034         3934 
 3535000   0.69208541   -7.5250149     823.3298     0.019409  0.019377022         3944 
 3536000   0.68791689   -7.5253941    823.73476  0.019413055  0.019370008         3957 
 3537000   0.69782701   -7.5221857    824.66263  0.019429428  0.019362996         3955 
 3538000   0.67685815   -7.5323163    824.47877  0.019419605  0.019355991         3950 
 3539000   0.67838226   -7.5374364    822.80215  0.019374639  0.019348977         3957 
 3540000   0.68137396   -7.5245868    823.13364  0.019376969  0.019341977         3958 
 3541000    0.6817097   -7.5265216    822.97148   0.01936768  0.019334976         3955 
 3542000   0.66878509   -7.5334598    823.86218  0.019383168  0.019327984         3952 
 3543000   0.69286651   -7.5362998    823.44709  0.019367934  0.019320993         3956 
 3544000   0.68557809   -7.5257917    824.56369  0.019388725  0.019314002         3944 
 3545000   0.67768002   -7.5122705    825.00219  0.019393563  0.019307012         3952 
 3546000   0.68298434   -7.5230101    824.10912  0.019367107  0.019300027         3948 
 3547000    0.6905933   -7.5130759    821.30286  0.019295716  0.019293043         3961 
 3548000   0.68358432   -7.5256982    824.30777  0.019360855  0.019286056         3949 
 3549000   0.68056732   -7.5187813    825.23588  0.019377193  0.019279071         3942 
 3550000   0.68456125   -7.5117892    822.66915  0.019311482  0.019272093         3949 
 3551000   0.69224292    -7.514775     823.7117   0.01933051  0.019265115         3944 
 3552000   0.68252338   -7.5226087    823.94409   0.01933052   0.01925814         3963 
 3553000   0.67384981   -7.5239868    824.17584  0.019330515  0.019251159         3967 
 3554000   0.70161561   -7.5377699    822.92293  0.019295698  0.019244182         3949 
 3555000   0.68190572   -7.5167905    823.93628  0.019314024  0.019237205         3956 
 3556000   0.67788139   -7.5028476    823.79923  0.019305381  0.019230236         3957 
 3557000   0.67889965   -7.5322598    825.38618  0.019337133  0.019223266         3956 
 3558000   0.67946784    -7.533032    823.08927  0.019277901  0.019216299         3955 
 3559000   0.67363296   -7.5341399    823.87841  0.019290962  0.019209333         3956 
 3560000   0.68898948   -7.5155109    822.87276  0.019262003  0.019202369         3934 
 3561000    0.6748325   -7.5332093    823.09043  0.019261687   0.01919541         3948 
 3562000   0.68670269   -7.5145021    822.40254  0.019240187  0.019188452         3958 
 3563000   0.68434958   -7.5142509    822.85535  0.019245377  0.019181498         3952 
 3564000   0.68227896   -7.5277282    824.37913  0.019275606  0.019174539         3962 
 3565000   0.68020715   -7.5219734    824.30355  0.019268433  0.019167583         3938 
 3566000   0.69270737   -7.5187995    823.89553  0.019253494  0.019160639         3957 
 3567000   0.68308595   -7.5149229     824.3252  0.019258135  0.019153693         3962 
 3568000   0.69044353   -7.5463231    823.47205  0.019232811  0.019146746         3951 
 3569000   0.68432248   -7.5204775    824.15525  0.019243375  0.019139802         3953 
 3570000   0.68343099   -7.5204557    824.42845  0.019244362  0.019132856         3962 
 3571000    0.6706806   -7.5206928    823.73821  0.019222865  0.019125916         3942 
 3572000    0.6813576   -7.5320872    823.63634  0.019215107  0.019118975         3950 
 3573000   0.68224578    -7.521188    822.62238   0.01918608  0.019112036         3959 
 3574000   0.68169405   -7.5346189    824.41212  0.019222443  0.019105098         3954 
 3575000   0.67557705   -7.5236471    823.71913  0.019200912  0.019098175         3954 
 3576000     0.681819   -7.5245513    824.18996  0.019206515  0.019091244         3954 
 3577000   0.67696799   -7.5248555    822.97621  0.019172868  0.019084322         3961 
 3578000   0.67949008   -7.4995075    824.21467  0.019196354  0.019077403         3948 
 3579000   0.69495807   -7.5272247    824.66154  0.019201396  0.019070486         3934 
 3580000   0.68107818   -7.5119918    823.24609  0.019163084  0.019063574         3951 
 3581000   0.66150583   -7.5255454    822.79548  0.019147247  0.019056654         3952 
 3582000   0.69393827   -7.5515612    823.68754  0.019162654  0.019049735         3955 
 3583000   0.67798024   -7.5056544    823.09441  0.019143511  0.019042822         3951 
 3584000   0.67808652   -7.5385941     821.8677  0.019109647  0.019035909         3960 
 3585000   0.68029187   -7.5091774    825.22123  0.019182269  0.019029002         3955 
 3586000   0.69048878   -7.5180317    823.05318  0.019126538  0.019022095         3960 
 3587000   0.67242092   -7.5031045    820.71274  0.019066833  0.019015197         3953 
 3588000   0.67688925   -7.5511976    822.76576  0.019109201  0.019008298         3952 
 3589000   0.69197129   -7.5213885    822.67445  0.019101757  0.019001394         3948 
 3590000   0.68552032   -7.5298838    823.00595  0.019104131  0.018994496         3953 
 3591000   0.67962928   -7.5262612    824.76363    0.0191396  0.018987612         3946 
 3592000   0.69771288   -7.5323285     823.6605  0.019108679   0.01898072         3955 
 3593000   0.68254989   -7.5272697    823.18007  0.019092218  0.018973832         3959 
 3594000   0.68804209   -7.5237854    824.21969  0.019111011  0.018966945         3947 
 3595000    0.6916977    -7.546279    822.79064  0.019072569  0.018960059         3955 
 3596000   0.65610351   -7.5309145    822.51624  0.019060906  0.018953173         3950 
 3597000   0.66853086   -7.5378184    824.28819  0.019096659  0.018946297         3957 
 3598000   0.67901555    -7.528666    823.66269  0.019076864  0.018939412         3950 
 3599000     0.674697   -7.5340572    824.62056  0.019093743  0.018932537         3945 
 3600000   0.67897047   -7.5276412     822.5348  0.019040157  0.018925667         3961 
 3601000    0.6964556   -7.5179374    823.26817  0.019051841  0.018918799         3954 
 3602000   0.68741696   -7.5271274    823.08969  0.019042423  0.018911928         3954 
 3603000   0.68508337   -7.5321262    823.80939  0.019053784   0.01890506         3953 
 3604000   0.67725932   -7.5363712    822.89406  0.019027332  0.018898192         3957 
 3605000   0.68727841   -7.5575302    822.56393  0.019014423  0.018891324         3953 
 3606000   0.67698364   -7.5289687    823.74059  0.019036342  0.018884461         3954 
 3607000   0.66665661   -7.5321014    822.89641  0.019011561  0.018877605         3954 
 3608000   0.67777249   -7.5316132    823.75658  0.019026159  0.018870761         3965 
 3609000   0.66820297   -7.5319697    825.24806  0.019055326  0.018863912         3949 
 3610000   0.67361529   -7.5566095    822.23086  0.018980398  0.018857063         3959 
 3611000   0.67111747   -7.5550689    823.62522  0.019007321  0.018850211         3944 
 3612000   0.66376495   -7.5364358    825.03875   0.01903467  0.018843369         3951 
 3613000   0.67380594   -7.5519025    823.41447  0.018991938  0.018836523         3952 
 3614000   0.68783289   -7.5583341    822.28022  0.018960529   0.01882968         3960 
 3615000   0.67491194   -7.5362201    824.80436  0.019013471  0.018822835         3953 
 3616000   0.67271851   -7.5275798    823.32861  0.018974203  0.018815987         3953 
 3617000   0.68416021   -7.5345844    824.78768  0.019002573  0.018809157         3958 
 3618000    0.6837072   -7.5370442    823.15016  0.018959604  0.018802332         3958 
 3619000   0.67994931   -7.5019147    821.65033  0.018919829  0.018795501         3956 
 3620000   0.67598001    -7.513756    823.12259  0.018948494  0.018788681         3952 
 3621000   0.67452997   -7.5330186    822.56151  0.018930349  0.018781853         3947 
 3622000   0.68433015   -7.5433844    824.24181  0.018963782   0.01877503         3942 
 3623000   0.66429696   -7.5296904     822.7056  0.018923213  0.018768206         3946 
 3624000   0.67545735   -7.5532649     822.0281  0.018902412   0.01876139         3958 
 3625000   0.66065454   -7.5605574    823.71965  0.018936084  0.018754569         3954 
 3626000   0.66342272   -7.5445818    824.55051  0.018949957  0.018747754         3957 
 3627000   0.68203693   -7.5353417    823.22738  0.018914332  0.018740939         3949 
 3628000   0.67231253   -7.5483081    822.27123  0.018887156  0.018734134         3960 
 3629000   0.67524078   -7.5500514    822.78969  0.018893857  0.018727326         3960 
 3630000   0.65979027   -7.5603535    822.61959  0.018884747  0.018720513         3954 
 3631000     0.667942   -7.5517789    823.43784  0.018898326  0.018713708         3956 
 3632000   0.66836067    -7.536076    821.19833  0.018841738    0.0187069         3950 
 3633000    0.6846296   -7.5503619    821.89088  0.018852438    0.0187001         3958 
 3634000   0.67897237   -7.5540243    822.99678   0.01887261  0.018693301         3953 
 3635000    0.6855551   -7.5321429    823.50225  0.018879006   0.01868651         3961 
 3636000   0.68360109   -7.5174072    823.40315  0.018871543   0.01867972         3959 
 3637000   0.67672979   -7.5387448    823.18257    0.0188613  0.018672933         3954 
 3638000   0.65391809   -7.5342492    822.75597  0.018846344  0.018666149         3957 
 3639000    0.6850992   -7.5334066    823.38363  0.018855538  0.018659366         3951 
 3640000   0.67630667   -7.5514678    823.40955  0.018850951  0.018652582         3952 
 3641000   0.65666506   -7.5278638    823.56883  0.018849419  0.018645801         3957 
 3642000    0.6540798   -7.5559029    823.19849   0.01883577  0.018639027         3950 
 3643000   0.66120374    -7.513005    821.19278  0.018784719  0.018632252         3965 
 3644000   0.66391604   -7.5379807    821.95768  0.018797056  0.018625481         3965 
 3645000   0.67463509   -7.5533124    823.38706  0.018824579   0.01861871         3958 
 3646000   0.66662501   -7.5470135    821.97956  0.018787245  0.018611938         3964 
 3647000   0.66002134   -7.5618986    821.88032  0.018779826  0.018605167         3964 
 3648000   0.66887306   -7.5436113    821.83568  0.018773659  0.018598397         3963 
 3649000   0.67251226   -7.5485035    822.22216   0.01877734  0.018591639         3966 
 3650000   0.67132072   -7.5578493    824.41424  0.018822243  0.018584872         3943 
 3651000   0.65995207   -7.5590055    821.72273  0.018755654  0.018578108         3967 
 3652000   0.67517261   -7.5249094    821.21555  0.018738946  0.018571347         3970 
 3653000   0.66903477   -7.5707597    821.66417   0.01874405  0.018564592         3970 
 3654000    0.6470383    -7.565952    822.35487  0.018754672  0.018557834         3968 
 3655000    0.6603923   -7.5657903    823.87195   0.01878413  0.018551084         3962 
 3656000   0.67222098   -7.5371711     823.3819  0.018767822  0.018544335         3969 
 3657000   0.67515542   -7.5379688    821.25266  0.018714171  0.018537588         3959 
 3658000   0.66481267    -7.551134    820.85603  0.018700019  0.018530843         3966 
 3659000   0.66912479    -7.528813     822.1412  0.018724178  0.018524104         3968 
 3660000   0.67009999    -7.552334    824.02434  0.018761939  0.018517366         3963 
 3661000   0.66785708    -7.550903    821.50411  0.018699447  0.018510627         3965 
 3662000   0.67424611   -7.5714435    821.82975  0.018701751  0.018503906         3965 
 3663000   0.65562582   -7.5494741    823.62517  0.018737491  0.018497173         3961 
 3664000   0.67267589   -7.5620184    822.85375  0.018714832   0.01849045         3967 
 3665000   0.68155425   -7.5466995    821.78224  0.018685362  0.018483722         3971 
 3666000    0.6663323   -7.5647435    824.17657  0.018734692  0.018476998         3957 
 3667000   0.66134843   -7.5431317    822.76154  0.018697426  0.018470277         3957 
 3668000    0.6557406    -7.559359    822.91861  0.018695897  0.018463561         3961 
 3669000   0.67260892   -7.5427131    822.94367  0.018691371   0.01845685         3954 
 3670000   0.67004239   -7.5688038    821.60283  0.018655832  0.018450135         3961 
 3671000   0.66925269   -7.5720674    825.07322  0.018729529  0.018443424         3957 
 3672000   0.66484228   -7.5308387    822.67058  0.018669902  0.018436709         3961 
 3673000   0.66123008   -7.5256068    822.86515  0.018669234  0.018430004         3968 
 3674000   0.66799589   -7.5316697    823.01352  0.018667518  0.018423303         3966 
 3675000   0.66870366   -7.5362714    824.08316  0.018686693  0.018416609         3968 
 3676000   0.65478311   -7.5526615    822.83007  0.018653203   0.01840991         3969 
 3677000   0.67007187   -7.5404872    821.12376  0.018609459  0.018403214         3965 
 3678000   0.66876786   -7.5491536    822.27147  0.018630403  0.018396523         3946 
 3679000   0.66018771   -7.5631882    822.15113  0.018622613  0.018389835         3959 
 3680000   0.64814997    -7.538128    823.45526  0.018647085  0.018383146         3967 
 3681000   0.66314077   -7.5462184      822.744  0.018625917  0.018376459         3968 
 3682000   0.67244128   -7.5663528    822.93975  0.018625289  0.018369775         3957 
 3683000   0.67270158   -7.5772078    821.84893   0.01859555  0.018363096         3966 
 3684000   0.64910989   -7.5437839     823.9852  0.018638826  0.018356415         3951 
 3685000   0.65808994   -7.5558562    824.62678  0.018648276  0.018349746         3962 
 3686000   0.67553603   -7.5635863    821.57768  0.018574283  0.018343067         3963 
 3687000   0.66216728   -7.5470251     822.8013  0.018596901    0.0183364         3965 
 3688000   0.64752603   -7.5759058    823.15513  0.018599854  0.018329726         3963 
 3689000   0.66839211   -7.5564625    821.07876  0.018547907  0.018323061         3963 
 3690000   0.66651246   -7.5444849    821.25626  0.018546889  0.018316399         3964 
 3691000   0.67527281   -7.5371703    822.93202  0.018579699  0.018309741         3958 
 3692000   0.66330179   -7.5322395    821.85252  0.018550301  0.018303089         3966 
 3693000   0.65750752   -7.5528052    822.25712  0.018554407  0.018296435         3974 
 3694000   0.66221735   -7.5667552    823.22602  0.018571242  0.018289775         3970 
 3695000   0.66580245   -7.5498404    821.96326  0.018537737  0.018283122         3951 
 3696000   0.66320691   -7.5584421    822.51798  0.018545229  0.018276469         3969 
 3697000   0.65130064   -7.5611674    822.16252    0.0185322  0.018269822         3962 
 3698000    0.6574889   -7.5450321    822.10566  0.018525907  0.018263178         3967 
 3699000   0.64796598   -7.5656459    823.66633  0.018556059  0.018256537         3967 
 3700000   0.67251326   -7.5506533    821.60695  0.018504661  0.018249889         3963 
 3701000   0.67000995   -7.5491618    821.55714   0.01849854  0.018243253         3971 
 3702000   0.66560129   -7.5455092     822.0018  0.018503552   0.01823661         3970 
 3703000   0.64863238   -7.5490997    821.35645  0.018484032  0.018229974         3968 
 3704000   0.65838786   -7.5522993    822.19714  0.018497956  0.018223349         3967 
 3705000   0.67050997   -7.5470684    821.99255  0.018488362  0.018216722         3957 
 3706000   0.65571138   -7.5635162    821.40367  0.018470131    0.0182101         3961 
 3707000   0.66383814   -7.5751417    821.52377  0.018467848  0.018203475         3962 
 3708000   0.66111658   -7.5708011    820.59104  0.018441906  0.018196854         3967 
 3709000   0.65449188   -7.5472336    820.40271  0.018432702  0.018190236         3964 
 3710000   0.65482527    -7.542538    821.15537   0.01844464  0.018183619         3957 
 3711000   0.66965775   -7.5568039    821.88651  0.018456088  0.018177005         3968 
 3712000   0.66190987   -7.5521719    822.78222  0.018471224   0.01817039         3958 
 3713000   0.66350275   -7.5540178    822.89299  0.018468736  0.018163776         3960 
 3714000   0.67124847   -7.5647572    822.19183  0.018448031  0.018157167         3958 
 3715000   0.66397676   -7.5479943    821.08369  0.018418207  0.018150565         3971 
 3716000   0.67035359   -7.5467498    822.54349  0.018445988  0.018143962         3965 
 3717000    0.6586467   -7.5772859    822.54533  0.018441066  0.018137367         3965 
 3718000   0.65715405    -7.563557    823.50108  0.018457528  0.018130772         3968 
 3719000   0.64963892   -7.5789374    822.94015  0.018439996  0.018124176         3961 
 3720000   0.66132613   -7.5515868    822.54948  0.018426288  0.018117582         3965 
 3721000   0.66216425   -7.5450761    820.85254  0.018383332  0.018110993         3965 
 3722000   0.65697573   -7.5388346    822.86003  0.018423339  0.018104406         3966 
 3723000   0.65920628   -7.5839936    821.35233  0.018384643  0.018097819         3968 
 3724000   0.65510511   -7.5620086    820.82083  0.018367813  0.018091236         3955 
 3725000   0.65349558   -7.5623301     822.4278  0.018398832  0.018084657         3963 
 3726000   0.68007254   -7.5603198    823.30998  0.018413625  0.018078076         3961 
 3727000   0.66018366   -7.5469162    821.75491  0.018373913  0.018071498         3957 
 3728000   0.63935941   -7.5656364    822.12688    0.0183773  0.018064922         3967 
 3729000   0.64962779   -7.5495159    821.36885  0.018355432  0.018058354         3960 
 3730000   0.64827072    -7.535741    821.85986   0.01836148  0.018051786         3969 
 3731000   0.66185694    -7.575481    822.99792  0.018381978  0.018045222         3957 
 3732000   0.65270038   -7.5710477    823.04124   0.01837802  0.018038654         3967 
 3733000   0.64750778    -7.551578    821.84649  0.018346426  0.018032096         3970 
 3734000   0.64590044   -7.5798288    822.34749  0.018352694   0.01802554         3970 
 3735000    0.6561556   -7.5707735    821.04602  0.018318742  0.018018986         3960 
 3736000   0.65421178   -7.5673911    822.67369  0.018350145  0.018012432         3964 
 3737000   0.64238041   -7.5740035    822.32922  0.018337553  0.018005875         3960 
 3738000   0.66617274   -7.5654365    821.44164   0.01831286  0.017999323         3971 
 3739000   0.65682644    -7.563505     822.4879  0.018331281   0.01799277         3968 
 3740000   0.65325154   -7.5754479    821.99725  0.018315447   0.01798623         3963 
 3741000   0.66812794   -7.5734497    822.43903  0.018320392  0.017979689         3962 
 3742000   0.64198445   -7.5594374    822.06677  0.018307206  0.017973144         3964 
 3743000   0.64929494   -7.5604441    821.91497  0.018298935   0.01796661         3954 
 3744000   0.64849197   -7.5656718    821.42554  0.018283154  0.017960071         3957 
 3745000   0.65508012   -7.5715801    820.85995  0.018265686  0.017953541         3961 
 3746000   0.65037626   -7.5872571    820.71962  0.018257689  0.017947011         3969 
 3747000   0.65749535   -7.5663153    821.24293  0.018264454  0.017940486         3965 
 3748000   0.64632586   -7.5795557    821.20269  0.018258687  0.017933954         3947 
 3749000   0.66208303    -7.557874    821.00594  0.018249443  0.017927424         3965 
 3750000   0.65519015   -7.5695945    822.10187   0.01826893    0.0179209         3963 
 3751000   0.67192025   -7.5745079    821.73645  0.018255942  0.017914374         3967 
 3752000   0.65053862    -7.582769    820.87717  0.018231991  0.017907853         3967 
 3753000   0.64159541   -7.5713555    822.14316  0.018255244  0.017901329         3964 
 3754000   0.64492109   -7.5677334    821.92283   0.01824549  0.017894815         3961 
 3755000   0.65489646   -7.5753512    821.48354  0.018230882  0.017888299         3964 
 3756000   0.66134219   -7.5778551    821.76984   0.01823238  0.017881783         3971 
 3757000   0.65892141   -7.5884137    820.51251  0.018199639  0.017875271         3963 
 3758000   0.64990154   -7.5820388     820.9406  0.018204289  0.017868758         3969 
 3759000   0.64656399   -7.5652136    820.99075  0.018200558   0.01786226         3969 
 3760000   0.66400581    -7.563091    822.15006  0.018221411  0.017855753         3963 
 3761000   0.64527226   -7.5559248    821.78446  0.018208465  0.017849251         3956 
 3762000    0.6395675   -7.5805468    820.66881  0.018178912   0.01784275         3966 
 3763000    0.6469867   -7.5571248    820.99411  0.018181285  0.017836262         3954 
 3764000   0.66760298   -7.5686521    820.39956  0.018163292  0.017829767         3957 
 3765000   0.64140398   -7.5790975    820.48287  0.018160312  0.017823279         3958 
 3766000   0.65469159   -7.5830769    821.47719  0.018177491  0.017816791         3966 
 3767000   0.64583183   -7.5779262    821.79883  0.018179781  0.017810308         3947 
 3768000   0.65175095   -7.5809427    822.99192  0.018201343  0.017803826         3969 
 3769000   0.66043204   -7.5769595    821.85216  0.018171313  0.017797348         3954 
 3770000   0.65141017   -7.5614046    820.60421  0.018138908  0.017790872         3969 
 3771000    0.6421424   -7.5621339    820.27216   0.01812676  0.017784391         3966 
 3772000   0.65314392   -7.5448167    820.80277  0.018133677  0.017777917         3969 
 3773000   0.64053333    -7.584988    823.11147  0.018179863  0.017771449         3968 
 3774000   0.64480412   -7.5850828    821.82736  0.018146691  0.017764979         3961 
 3775000   0.64827662    -7.571538    821.31596  0.018130595  0.017758515         3972 
 3776000   0.65152271   -7.5808602    821.51816  0.018130256  0.017752048         3971 
 3777000   0.64530231    -7.585618    819.43754   0.01807955  0.017745583         3968 
 3778000   0.65563269   -7.5417818    821.49569  0.018120163  0.017739123         3974 
 3779000   0.66338884   -7.5864018    821.42394  0.018113785   0.01773267         3967 
 3780000   0.64218464   -7.5812549     822.4349  0.018131281  0.017726214         3971 
 3781000   0.62924214   -7.5928021     821.6221  0.018108571  0.017719766         3966 
 3782000   0.63115424   -7.5666471    821.29783  0.018096638  0.017713309         3962 
 3783000   0.63547443   -7.5699679    822.08934   0.01810929  0.017706861         3959 
 3784000   0.65274533   -7.5737804    821.45897  0.018090622  0.017700422         3973 
 3785000   0.64828468   -7.5652284    819.56155  0.018044068  0.017693979         3954 
 3786000   0.63932534   -7.5634394    820.59736  0.018062101  0.017687544         3963 
 3787000   0.63799477   -7.5779345    820.51078  0.018055426  0.017681103         3969 
 3788000   0.63876899   -7.5768682    821.63339  0.018075356  0.017674666         3959 
 3789000   0.64478747   -7.5620264     819.7963  0.018030182  0.017668227         3967 
 3790000   0.65321526    -7.558698    820.31181  0.018036759  0.017661801         3968 
 3791000   0.64811316   -7.5839287    822.04355  0.018070068  0.017655372         3964 
 3792000   0.65267244   -7.5852372    821.90484  0.018062255  0.017648943         3960 
 3793000   0.63761148    -7.569492    821.40526  0.018046517  0.017642528         3967 
 3794000   0.64878353   -7.5590659    821.37448  0.018041084  0.017636109         3958 
 3795000   0.63485258   -7.5683668    821.96193   0.01804923  0.017629693         3960 
 3796000   0.64651424   -7.5898782    820.97782  0.018022871  0.017623274         3960 
 3797000   0.63571473   -7.5824476    821.04673  0.018019637  0.017616863         3968 
 3798000   0.63839492   -7.5873892     820.1911  0.017996118  0.017610446         3968 
 3799000   0.64772191   -7.5811462    823.48587  0.018063654  0.017604039         3970 
 3800000   0.63822971   -7.5783294    821.55796  0.018016622  0.017597637         3965 
 3801000   0.65630851   -7.5828144    821.09093  0.018001643  0.017591238         3959 
 3802000   0.65270829   -7.5823196    821.04774  0.017995961  0.017584836         3971 
 3803000   0.64294779   -7.5816012    822.18562  0.018016163  0.017578434         3973 
 3804000   0.63383177   -7.5738214    819.72695  0.017957566  0.017572045         3974 
 3805000   0.63308318   -7.5629439    822.12921  0.018005458  0.017565645         3970 
 3806000   0.64245144   -7.5700161    821.66892  0.017990649  0.017559257         3962 
 3807000   0.64508122   -7.5968051    820.55324  0.017961502  0.017552867         3970 
 3808000   0.65010965     -7.58275    821.75973  0.017983187  0.017546476         3967 
 3809000   0.64624728   -7.5740828    821.61185  0.017975231   0.01754009         3965 
 3810000   0.63960101   -7.5745697    822.15344  0.017982359  0.017533705         3959 
 3811000   0.63857901   -7.6011375    821.00693   0.01795257  0.017527325         3970 
 3812000   0.63912374   -7.5855459    820.70638   0.01794129  0.017520949         3956 
 3813000   0.65028548   -7.5759803    819.36767  0.017907327  0.017514582         3965 
 3814000   0.64320079   -7.5558943      822.337   0.01796751  0.017508208         3959 
 3815000   0.63321886   -7.5918617    821.57597  0.017946177  0.017501847         3971 
 3816000   0.65987104   -7.5863633     821.3256  0.017936006  0.017495484         3967 
 3817000   0.63781706   -7.5870404    820.39317   0.01791095  0.017489127         3968 
 3818000   0.63852037   -7.5930554    820.49392  0.017908458  0.017482761         3968 
 3819000   0.63401263    -7.590532    821.62272    0.0179284  0.017476395         3970 
 3820000   0.63823472   -7.6041558    819.23997  0.017871727  0.017470035         3967 
 3821000   0.64006006   -7.5684195    821.95117  0.017926179  0.017463676         3972 
 3822000   0.63337819   -7.5985212    821.74266  0.017916943   0.01745732         3971 
 3823000   0.63430154   -7.5784274    821.22003  0.017900864  0.017450977         3950 
 3824000   0.63268771   -7.5921477    821.01162  0.017891641  0.017444626         3966 
 3825000   0.63692705   -7.5891325    821.14811  0.017889937  0.017438283         3969 
 3826000   0.61495772   -7.5754596    821.08064  0.017883792  0.017431945         3969 
 3827000   0.64681004   -7.5951982    821.06641  0.017878809  0.017425605         3971 
 3828000   0.64058502   -7.5787079    820.87911  0.017870061  0.017419273         3964 
 3829000   0.63444113    -7.574013     819.9722  0.017845656  0.017412937         3969 
 3830000   0.63975828   -7.5770438    821.82587  0.017881329  0.017406602         3967 
 3831000   0.64874319    -7.592711    820.89232  0.017856354  0.017400272         3971 
 3832000   0.63951342   -7.5897023    819.65542  0.017824796  0.017393942         3964 
 3833000   0.63699892   -7.5898482    820.17786  0.017831504  0.017387624         3972 
 3834000   0.62608529   -7.5892877     820.6227  0.017836522    0.0173813         3965 
 3835000   0.64072261   -7.5708582    819.75006  0.017812909  0.017374984         3966 
 3836000   0.65114894   -7.5849596    820.46333   0.01782376  0.017368673         3961 
 3837000   0.64111952   -7.5830574    822.76974  0.017869207   0.01736236         3959 
 3838000   0.63527403   -7.5878871    821.98296  0.017847467  0.017356043         3966 
 3839000   0.64214709    -7.572654    819.36519  0.017785994  0.017349734         3969 
 3840000     0.642161   -7.5915685    820.31976  0.017802078  0.017343429         3963 
 3841000   0.64005042   -7.5649374    820.77159  0.017807246  0.017337123         3963 
 3842000   0.63150412   -7.5974485    820.50884  0.017796912  0.017330823         3971 
 3843000   0.63615184   -7.5679828    821.95608  0.017823664  0.017324523         3968 
 3844000    0.6507052    -7.589361    819.68085  0.017769703  0.017318226         3959 
 3845000   0.64169208   -7.5747568    820.35577  0.017779709  0.017311936         3963 
 3846000   0.62888267   -7.5848244    819.56008  0.017757845  0.017305642         3974 
 3847000   0.63678524   -7.5864015    821.00418  0.017784511  0.017299348         3966 
 3848000   0.63055209   -7.5937987    819.47962  0.017746873  0.017293061         3965 
 3849000   0.63791375   -7.6166293    821.08408     0.017777   0.01728678         3965 
 3850000   0.63531114   -7.6075998    821.37979  0.017778783  0.017280497         3956 
 3851000   0.64087015   -7.5719307    821.61692  0.017779298  0.017274216         3962 
 3852000   0.63418288   -7.5961681    820.92703  0.017759758  0.017267937         3973 
 3853000   0.63963173    -7.598913     819.7991  0.017730753  0.017261659         3965 
 3854000   0.62564265   -7.5965822    819.43165  0.017718207  0.017255384         3970 
 3855000   0.62919529   -7.5926115    820.30163  0.017732417  0.017249109         3963 
 3856000   0.62451417   -7.5737815    820.55307  0.017733253  0.017242843         3970 
 3857000   0.63739669   -7.5920469    820.00761   0.01771687  0.017236576         3977 
 3858000   0.63470533    -7.605776    819.52491  0.017701851  0.017230313         3962 
 3859000   0.63687963   -7.6106093    820.19094  0.017711647  0.017224052         3974 
 3860000   0.62701081   -7.5785156    820.69325  0.017717903   0.01721779         3973 
 3861000   0.62867013   -7.5858044    819.95131    0.0176973  0.017211539         3971 
 3862000   0.62961865   -7.5910115    818.47427  0.017660847  0.017205285         3962 
 3863000   0.63309094     -7.59759    821.19287  0.017714921  0.017199033         3963 
 3864000   0.62307538    -7.588967     821.1086  0.017708519  0.017192781         3961 
 3865000   0.62680652   -7.6115728    821.16685  0.017705193  0.017186538         3968 
 3866000   0.63390679   -7.5854819    820.46741  0.017685536  0.017180297         3968 
 3867000   0.62801626   -7.6045386    821.97072  0.017713359   0.01717406         3962 
 3868000   0.61486812   -7.5761541    819.43197  0.017654084  0.017167823         3963 
 3869000   0.63744501   -7.5868122    820.85623  0.017680198  0.017161588         3964 
 3870000   0.63024625   -7.5936794    820.55096  0.017669056  0.017155358         3972 
 3871000    0.6309792   -7.5930659    820.45154  0.017662351  0.017149129         3963 
 3872000   0.63981042   -7.5771593    821.42091  0.017678652  0.017142905         3964 
 3873000   0.63699825   -7.5883393    820.86097   0.01766204   0.01713668         3963 
 3874000    0.6461494   -7.6101385    819.89426  0.017636686  0.017130456         3964 
 3875000   0.63081741   -7.6011756    821.21323  0.017660499  0.017124237         3972 
 3876000    0.6353167   -7.5774581    819.75755  0.017624646  0.017118021         3963 
 3877000   0.63495894   -7.5846135    818.74338  0.017598302  0.017111803         3969 
 3878000   0.63667523   -7.5803495    819.72467   0.01761485  0.017105588         3958 
 3879000   0.64250227   -7.6081174    820.78725  0.017633137  0.017099371         3965 
 3880000   0.62806022   -7.5996555    821.23417  0.017638191  0.017093164         3960 
 3881000   0.62167416   -7.6039688    821.89501  0.017647836  0.017086959         3965 
 3882000   0.63062457   -7.5890353    821.09883  0.017626198  0.017080759         3975 
 3883000   0.63355378   -7.5893553    820.02412  0.017598595  0.017074555         3965 
 3884000   0.62970853   -7.6021064    820.98084  0.017614591  0.017068351         3970 
 3885000   0.62405307   -7.5774188    821.36336  0.017618262  0.017062153         3952 
 3886000    0.6338059   -7.5925428    820.32109  0.017591377  0.017055961         3955 
 3887000   0.60766503   -7.6007131    821.12842   0.01760416  0.017049772         3959 
 3888000   0.62733178   -7.5854129    820.78874  0.017592351  0.017043585         3960 
 3889000   0.62480617   -7.5920788    821.39448  0.017600807  0.017037406         3967 
 3890000   0.63262024    -7.602877    820.17255  0.017570106  0.017031217         3965 
 3891000   0.62365658    -7.619261    821.32698  0.017590315  0.017025033         3971 
 3892000   0.63339356   -7.6215874    819.95498  0.017556419   0.01701886         3969 
 3893000   0.62324097   -7.6030301    819.59033  0.017544103  0.017012681         3970 
 3894000    0.6151155   -7.5804716    821.12361  0.017572411  0.017006505         3967 
 3895000     0.629304   -7.6165818    820.40304  0.017552483  0.017000329         3971 
 3896000   0.62953024   -7.6253678    820.27201  0.017545175  0.016994155         3962 
 3897000   0.62051129   -7.6140131    819.99513  0.017534752  0.016987985         3961 
 3898000   0.62060118   -7.6009052    820.30775  0.017536937  0.016981821         3969 
 3899000   0.62982778   -7.5898522     820.4944  0.017536428  0.016975657         3968 
 3900000   0.62896159   -7.5897083    820.51958   0.01753247  0.016969498         3977 
 3901000   0.62886749    -7.614712    819.37058   0.01750343  0.016963344         3968 
 3902000   0.63216163   -7.6098298    821.06207  0.017535069   0.01695719         3970 
 3903000   0.62866315   -7.6007359    819.27625  0.017492447   0.01695104         3969 
 3904000   0.63723586   -7.6169663    821.16494  0.017528282  0.016944885         3961 
 3905000   0.63484666   -7.6080373    819.28469  0.017483668  0.016938738         3972 
 3906000   0.63516562   -7.5797716    820.59778  0.017507206  0.016932597         3968 
 3907000   0.63323925   -7.6085189    819.74148  0.017484461  0.016926455         3971 
 3908000   0.62134373   -7.5955297    820.01713  0.017485865  0.016920316         3967 
 3909000   0.63430906   -7.6080126     818.9171  0.017457941  0.016914175         3966 
 3910000   0.61724162   -7.5936705     820.3931  0.017484934  0.016908041         3967 
 3911000   0.62628364   -7.6222718    820.62465  0.017485397  0.016901915         3973 
 3912000   0.61980963   -7.5820808    819.47762  0.017456493  0.016895788         3965 
 3913000   0.62348006   -7.6122226    819.10161  0.017444024  0.016889663         3964 
 3914000   0.63193056   -7.5914474    819.97206    0.0174581  0.016883537         3965 
 3915000   0.62013233   -7.5747357    818.43877  0.017421004  0.016877419         3965 
 3916000   0.61287337   -7.6115287    819.78544  0.017445213  0.016871301         3969 
 3917000    0.6180957   -7.5838628    819.63929   0.01743765  0.016865183         3965 
 3918000    0.6258964   -7.6029648    820.18387  0.017444782  0.016859063         3970 
 3919000      0.61739   -7.5946531    819.81013  0.017432384  0.016852949         3968 
 3920000    0.6187177   -7.6039435     819.6383  0.017424284  0.016846837         3963 
 3921000    0.6301139   -7.5922677    818.67966  0.017399466  0.016840732         3967 
 3922000   0.62652629   -7.6150826    819.89719  0.017420899   0.01683462         3964 
 3923000   0.62407867   -7.6068651    818.60965  0.017389108   0.01682852         3973 
 3924000   0.62507884   -7.6000563    820.25276  0.017419571   0.01682242         3964 
 3925000   0.61818495   -7.6135493    820.14851  0.017412919  0.016816324         3962 
 3926000   0.64227584   -7.6047188      820.296  0.017411615  0.016810227         3967 
 3927000   0.63397179   -7.5828015    820.19422  0.017405021  0.016804135         3969 
 3928000   0.62437102   -7.6112815    819.96428  0.017395712  0.016798043         3972 
 3929000   0.62894778   -7.6215793    820.49646  0.017402572  0.016791954         3967 
 3930000   0.62997598    -7.610216    819.47703  0.017376527  0.016785876         3972 
 3931000   0.64451443   -7.6005902     818.3559   0.01734834  0.016779793         3969 
 3932000   0.62317425   -7.6082161    819.07986  0.017359271  0.016773706         3971 
 3933000   0.62145807   -7.6026507    820.44491  0.017383781  0.016767624         3966 
 3934000    0.6227774   -7.5936805    820.58922  0.017382419  0.016761543         3966 
 3935000   0.61892762   -7.6021318    821.32901  0.017393668  0.016755468         3970 
 3936000   0.61238326   -7.6169918    820.16743  0.017364656  0.016749395         3972 
 3937000   0.63699745   -7.6058978    819.83762  0.017353264  0.016743326         3971 
 3938000   0.62092924    -7.615179     821.0517  0.017374549  0.016737257         3969 
 3939000   0.61749089   -7.6059562    820.64787  0.017361595  0.016731189         3971 
 3940000    0.6174126   -7.6207238    819.71432  0.017337443  0.016725123         3966 
 3941000   0.61180232   -7.6021834    818.72569  0.017312139   0.01671906         3969 
 3942000   0.61840148   -7.6072929    818.59322  0.017304947  0.016713003         3970 
 3943000   0.61604797   -7.6105411    819.16876  0.017312722  0.016706948         3964 
 3944000   0.61317542   -7.5961944    820.40404  0.017334433  0.016700902         3971 
 3945000   0.62433636   -7.6250569    819.10086  0.017302511  0.016694852         3973 
 3946000   0.63385582   -7.6075779    817.73134  0.017269204  0.016688805         3965 
 3947000    0.6174855    -7.616593    819.29835  0.017297913  0.016682763         3971 
 3948000   0.61370767    -7.611552    819.10854  0.017289525  0.016676721         3968 
 3949000   0.61982164   -7.6129009    819.75796  0.017298851  0.016670679         3972 
 3950000   0.61529618   -7.6152573    820.66997  0.017313713  0.016664638         3962 
 3951000   0.62732921   -7.5995222    820.35835  0.017302758  0.016658601         3958 
 3952000   0.62972926   -7.5936782    818.52059  0.017259628  0.016652564         3966 
 3953000   0.61866022   -7.6190052    819.34436  0.017272628  0.016646538         3972 
 3954000   0.59681007   -7.6235977     820.3018  0.017288438  0.016640506         3971 
 3955000   0.61343781   -7.5888963    819.16193  0.017260049  0.016634478         3969 
 3956000   0.61675372   -7.5977056    819.01026  0.017252491   0.01662845         3966 
 3957000    0.6140961   -7.6244376    819.77702  0.017264279   0.01662243         3969 
 3958000   0.60442616   -7.6181563    819.45608   0.01725316  0.016616414         3965 
 3959000    0.6079043   -7.6129672    819.21664  0.017243762  0.016610396         3972 
 3960000   0.61454666   -7.6067114    820.36247   0.01726352  0.016604383         3973 
 3961000   0.62457359   -7.6162111    818.85622  0.017227472  0.016598374         3963 
 3962000   0.62108405   -7.6184294    819.55797  0.017237884  0.016592364         3971 
 3963000   0.60829653   -7.6173554    820.79741  0.017259597  0.016586356         3964 
 3964000   0.61240087   -7.6026101    820.10813  0.017240753  0.016580352         3969 
 3965000   0.61266061   -7.6126411      818.736  0.017207566  0.016574355         3968 
 3966000   0.61116881   -7.6035668    820.07809  0.017231427   0.01656836         3965 
 3967000   0.61742395   -7.6228851    819.36716  0.017212149  0.016562365         3965 
 3968000   0.62414621   -7.6378585    820.80536  0.017238016  0.016556378         3971 
 3969000   0.60570876   -7.6026682    819.05255  0.017196871  0.016550384         3968 
 3970000   0.61867101   -7.6129213     819.2424  0.017196524  0.016544398         3971 
 3971000   0.62357573   -7.6388263    819.12199  0.017189667  0.016538412         3966 
 3972000   0.61658849   -7.6050541    821.12825  0.017227431  0.016532429         3967 
 3973000   0.60873052   -7.6231612    818.43733  0.017166653  0.016526445         3966 
 3974000    0.6270501   -7.6206278     818.8296  0.017170559  0.016520466         3972 
 3975000    0.6099738   -7.6064005    819.93088  0.017189327  0.016514487         3973 
 3976000   0.60782532   -7.5972471    820.03892  0.017187268  0.016508513         3969 
 3977000   0.61181653   -7.6168718    820.28927  0.017188192  0.016502543         3969 
 3978000   0.62748635   -7.5937184    818.85469  0.017153819  0.016496578         3965 
 3979000   0.61107313   -7.6028401    820.31516  0.017180095  0.016490613         3965 
 3980000   0.61255851   -7.6090445    820.18354  0.017173022  0.016484643         3971 
 3981000   0.61926221   -7.6277816    818.84731  0.017140737  0.016478687         3963 
 3982000   0.61080381   -7.6179087    819.68862  0.017154039  0.016472732         3965 
 3983000   0.60818803   -7.6097315     818.5286  0.017125462   0.01646678         3971 
 3984000     0.622856   -7.6278739    819.02239  0.017131492  0.016460824         3967 
 3985000   0.61429613   -7.6026216    819.63102  0.017139921   0.01645487         3965 
 3986000   0.61342784   -7.6170919    820.49601  0.017153705  0.016448923         3964 
 3987000    0.5960371   -7.6138921    818.60992  0.017109981   0.01644298         3966 
 3988000   0.61476464   -7.6125599    818.10234  0.017095084  0.016437035         3969 
 3989000   0.61348956   -7.6267515    819.91681  0.017128704  0.016431089         3977 
 3990000     0.629054   -7.6199299    819.99974  0.017126143  0.016425148         3963 
 3991000   0.62319694   -7.6165173    819.92312  0.017120252  0.016419204         3972 
 3992000   0.61748312   -7.6209388    818.44137  0.017085032   0.01641327         3965 
 3993000   0.61427381   -7.6290638    819.77492  0.017108584  0.016407337         3963 
 3994000   0.60591157   -7.6271557    819.46542  0.017097843  0.016401404         3963 
 3995000   0.59745797   -7.6074108    819.72815  0.017099044  0.016395471         3958 
 3996000   0.62007819   -7.6227933    818.56833  0.017070577  0.016389547         3963 
 3997000   0.61488705   -7.6196732    819.80382  0.017092065  0.016383622         3966 
 3998000   0.60595128   -7.6241029     819.2171  0.017075561  0.016377702         3970 
 3999000   0.61574754   -7.6055166    817.75309  0.017040783  0.016371782         3967 
 4000000   0.61938537   -7.6211293    820.12483  0.017085934  0.016365867         3962 
 4001000   0.61568051   -7.6224236    819.11042  0.017060535  0.016359951         3973 
 4002000    0.6049338   -7.6136302    819.36931  0.017061663  0.016354041         3972 
 4003000   0.61115252   -7.6111538    819.24344   0.01705478  0.016348135         3964 
 4004000     0.608783   -7.6062262    818.36214  0.017032179  0.016342227         3970 
 4005000   0.60714741   -7.6170437    818.70577  0.017035076  0.016336324         3973 
 4006000   0.62490663    -7.617019    818.92661  0.017035418   0.01633042         3971 
 4007000   0.60897165   -7.6000384    820.06125  0.017054764  0.016324525         3965 
 4008000   0.60926015   -7.6233164    819.62003  0.017041335  0.016318628         3973 
 4009000   0.60595979   -7.6349444    819.62128   0.01703711   0.01631274         3967 
 4010000   0.61344778   -7.6373874    818.30604  0.017005529  0.016306846         3967 
 4011000   0.60800465   -7.6233745    818.77766  0.017011087  0.016300956         3965 
 4012000    0.6107501    -7.633885    819.53107  0.017022496  0.016295071         3969 
 4013000   0.62044028   -7.6335337    819.84567  0.017024788  0.016289188         3965 
 4014000   0.59902935   -7.6164292    819.41632  0.017011633  0.016283302         3968 
 4015000    0.6077761    -7.632092    820.12475  0.017022099  0.016277419         3964 
 4016000   0.61444581   -7.6295172    817.91964  0.016972104  0.016271539         3968 
 4017000   0.60824293   -7.6220366    818.75386  0.016985185  0.016265665         3966 
 4018000   0.60823588   -7.6334284     818.8206  0.016982342  0.016259793         3970 
 4019000   0.60857102   -7.6305699    819.88611   0.01700021  0.016253918         3975 
 4020000   0.60601636    -7.603431    818.76165  0.016972671  0.016248052         3972 
 4021000   0.61851268   -7.6199185    819.42583  0.016982215  0.016242189         3973 
 4022000   0.61166803   -7.6339387    819.62753  0.016982172  0.016236325         3973 
 4023000   0.61326787   -7.6290401    818.40997   0.01695273  0.016230463         3966 
 4024000   0.61724181   -7.6323444    819.82373  0.016977794  0.016224607         3962 
 4025000   0.61059565   -7.6297777    818.42726  0.016944664   0.01621875         3973 
 4026000   0.61601823   -7.6297364    817.99423  0.016931492  0.016212897         3970 
 4027000   0.61044495   -7.6399018     819.9836  0.016968455  0.016207043         3970 
 4028000   0.59475289   -7.6125388     819.4055  0.016952282  0.016201195         3960 
 4029000   0.60507666   -7.6331344    818.72127  0.016933922  0.016195352         3976 
 4030000   0.60812604   -7.6388348    820.07665  0.016957747  0.016189511         3971 
 4031000   0.61606597   -7.6150433    817.42852  0.016898795   0.01618367         3958 
 4032000   0.60699051   -7.6405541    818.13656  0.016909238  0.016177831         3968 
 4033000   0.59991394   -7.6216125    818.08209   0.01690392  0.016171994         3976 
 4034000   0.61303755   -7.6221327    819.38661  0.016926678  0.016166162         3964 
 4035000   0.61257234    -7.631456    818.16095   0.01689717  0.016160327         3975 
 4036000   0.59329303   -7.6178459    818.48375  0.016899648  0.016154498         3973 
 4037000   0.62271632   -7.6246683    818.67041  0.016899315  0.016148669         3972 
 4038000   0.59398478   -7.6250636    818.37676   0.01688907  0.016142842         3968 
 4039000   0.60499056   -7.6569827    819.13091  0.016900448   0.01613702         3959 
 4040000   0.60598796   -7.6141409    821.04373   0.01693572  0.016131196         3966 
 4041000   0.61107783   -7.6344387    818.15155  0.016871887  0.016125385         3971 
 4042000    0.5960735   -7.6398292    818.65496  0.016878092  0.016119565         3975 
 4043000   0.61776152   -7.6233058    818.37788  0.016868206   0.01611375         3971 
 4044000   0.61343743    -7.624203    818.61114  0.016868842  0.016107937         3970 
 4045000   0.59768533    -7.659084    817.76419  0.016847223  0.016102127         3972 
 4046000   0.60371647     -7.61957    820.38063  0.016896948   0.01609632         3964 
 4047000   0.59701993   -7.6359287    818.99165  0.016864172  0.016090517         3966 
 4048000   0.60516683   -7.6281387    818.32351  0.016846251  0.016084718         3970 
 4049000   0.61590745   -7.6483826     818.9552  0.016855092  0.016078923         3975 
 4050000   0.60220813   -7.6277091    818.44599  0.016840452   0.01607312         3967 
 4051000   0.60766017   -7.6442712    817.09567  0.016808518  0.016067325         3973 
 4052000   0.60090363   -7.6313427     818.5911  0.016835125  0.016061537         3970 
 4053000   0.60367531   -7.6112483    817.99083  0.016818629  0.016055747         3975 
 4054000   0.60706254   -7.6343401    818.60298  0.016827063  0.016049965         3970 
 4055000   0.59483542    -7.631345    817.73919  0.016805162  0.016044175         3970 
 4056000   0.60103373   -7.6375462    817.76446  0.016801538  0.016038396         3967 
 4057000   0.58888034   -7.6455919    817.71189  0.016796317  0.016032616         3968 
 4058000   0.59198918    -7.642763    817.56269  0.016789114  0.016026834         3965 
 4059000   0.60642586   -7.6474599    819.66994  0.016828241  0.016021063         3973 
 4060000   0.60392852   -7.6214923    819.95358  0.016829918  0.016015291         3973 
 4061000   0.60146589   -7.6144662    818.27087  0.016791243  0.016009523         3960 
 4062000   0.59008774   -7.6247536    818.42124  0.016790195  0.016003753         3969 
 4063000   0.60707993   -7.6419461    819.02064  0.016798356  0.015997984         3970 
 4064000   0.60855433    -7.629312    817.63523  0.016765814  0.015992223         3974 
 4065000   0.59344737    -7.626689    816.90675  0.016746756  0.015986465         3964 
 4066000   0.60940176   -7.6363213    818.50233  0.016775339  0.015980703         3973 
 4067000   0.60039141   -7.6189483    819.49923  0.016791641   0.01597495         3970 
 4068000   0.58607151    -7.633413    819.22796  0.016781956  0.015969202         3969 
 4069000   0.61498213   -7.6326215    819.27915   0.01677888  0.015963453         3960 
 4070000   0.59281656   -7.6356405    818.12341  0.016751094  0.015957706         3971 
 4071000   0.61609737    -7.637064    817.12269  0.016726494  0.015951962         3971 
 4072000   0.59996477    -7.632427    817.80143  0.016736277  0.015946219         3972 
 4073000   0.61153797    -7.645783     817.1639  0.016719124  0.015940481         3972 
 4074000    0.6108482    -7.647665     817.5857  0.016723648  0.015934743         3969 
 4075000   0.60487387   -7.6387267    818.98609  0.016748182  0.015929011         3969 
 4076000   0.59133801   -7.6357576     819.4888  0.016754351  0.015923276         3969 
 4077000   0.60193723   -7.6397266    817.64434  0.016712541  0.015917543         3965 
 4078000    0.5993774   -7.6489386    818.39215  0.016723724  0.015911814         3970 
 4079000   0.60384933   -7.6589185    818.44221  0.016720647  0.015906091         3969 
 4080000   0.61148937   -7.6333837    819.49343  0.016738019  0.015900367         3956 
 4081000    0.6054461   -7.6368091    818.48823  0.016713392  0.015894653         3965 
 4082000   0.59815801    -7.634119     817.7484  0.016694194  0.015888935         3970 
 4083000   0.60979604   -7.6475556    818.40268  0.016703459  0.015883224         3959 
 4084000   0.59087355   -7.6308545     819.4848   0.01672145  0.015877515         3972 
 4085000   0.59694805    -7.638925    819.26168  0.016712805  0.015871804         3966 
 4086000    0.6039768      -7.6451    816.92491  0.016661056  0.015866094         3974 
 4087000   0.59076394   -7.6372548    817.11737  0.016660904  0.015860389         3973 
 4088000   0.59779445   -7.6581753    818.85907  0.016692333  0.015854683         3966 
 4089000   0.61606771    -7.634994    819.31369  0.016697516  0.015848985         3967 
 4090000   0.59461529   -7.6439523    820.64255  0.016720508  0.015843287         3966 
 4091000   0.60451681   -7.6462174    817.07864  0.016643825  0.015837589         3968 
 4092000   0.59026824   -7.6349046     818.6969  0.016672713  0.015831894         3970 
 4093000   0.58773794   -7.6395843    817.55855  0.016645463  0.015826201         3972 
 4094000   0.60805788   -7.6265972    818.19998  0.016654453  0.015820507         3964 
 4095000    0.6004012   -7.6434337    819.67168  0.016680335  0.015814821         3976 
 4096000   0.58649772    -7.648216    818.73546  0.016657216  0.015809134         3972 
 4097000   0.59531159   -7.6730339    819.05377  0.016659624  0.015803449         3974 
 4098000   0.59095466    -7.626653    817.51721  0.016624313  0.015797764         3970 
 4099000   0.59690896   -7.6501675     819.3842  0.016658213  0.015792084         3973 
 4100000   0.59663975   -7.6568013    817.02906  0.016606282   0.01578641         3973 
 4101000   0.59400863   -7.6391185    819.05251  0.016643349  0.015780733         3973 
 4102000   0.60539105   -7.6492145    819.16674  0.016641613  0.015775061         3966 
 4103000   0.60130995    -7.625795    819.49982  0.016644322  0.015769396         3960 
 4104000    0.5876315   -7.6413252    819.36055  0.016637438  0.015763727         3965 
 4105000   0.60374836   -7.6424989    819.23555  0.016630848  0.015758067         3975 
 4106000   0.59597822   -7.6406394    818.42294  0.016610305  0.015752407         3967 
 4107000   0.58518585   -7.6374895    816.72618  0.016571832  0.015746751         3961 
 4108000   0.58566557   -7.6262286    817.78653  0.016589308  0.015741096         3967 
 4109000   0.58793556   -7.6200086    817.81632  0.016585875  0.015735438         3973 
 4110000   0.58738356   -7.6619188    817.38598  0.016573114  0.015729784         3968 
 4111000   0.58837148   -7.6491545     817.0276  0.016561818   0.01572413         3973 
 4112000    0.5844338   -7.6328879    819.44458  0.016606773  0.015718487         3966 
 4113000    0.5990936   -7.6565301    818.29237   0.01657939  0.015712842         3971 
 4114000    0.5992787   -7.6443381    819.42335  0.016598269    0.0157072         3973 
 4115000   0.60620927   -7.6407352    817.77914  0.016560938  0.015701559         3972 
 4116000   0.59808504   -7.6514726    818.67831   0.01657512   0.01569592         3961 
 4117000   0.60382039   -7.6478998     818.2583  0.016562592  0.015690286         3972 
 4118000   0.60237367   -7.6329442    818.88425  0.016571237  0.015684653         3975 
 4119000   0.59645014   -7.6562522    817.40274  0.016537241  0.015679022         3972 
 4120000   0.59182813   -7.6446542    817.68812  0.016538999  0.015673399         3974 
 4121000   0.59939197   -7.6245676       817.97  0.016540686  0.015667771         3975 
 4122000   0.59108949   -7.6452781    818.02936  0.016537873  0.015662149         3978 
 4123000   0.58407224   -7.6547978    817.21757  0.016517454  0.015656529         3963 
 4124000    0.5883589   -7.6411666     816.5292  0.016499539  0.015650911         3967 
 4125000   0.58827573   -7.6541826    818.01084  0.016525472  0.015645295         3974 
 4126000   0.58857715   -7.6410475    817.06722  0.016502408  0.015639682         3975 
 4127000    0.5883674   -7.6409869    817.81366  0.016513481   0.01563407         3969 
 4128000   0.59182133   -7.6445792    817.95103  0.016512254  0.015628462         3972 
 4129000    0.5771527   -7.6472084    817.90036  0.016507232  0.015622856         3973 
 4130000    0.5981107   -7.6360412    816.99109  0.016484889  0.015617253         3969 
 4131000   0.58381847    -7.639091    817.32286  0.016487591  0.015611653         3972 
 4132000   0.57602518   -7.6613838     817.0547  0.016478193  0.015606053         3976 
 4133000   0.58051956   -7.6495366    817.23682  0.016477878  0.015600454         3974 
 4134000   0.58524531   -7.6584528    817.60846  0.016481383  0.015594856         3966 
 4135000    0.5993819   -7.6496434    817.04011  0.016465943  0.015589259         3965 
 4136000   0.60879985   -7.6466948    817.66367  0.016474526   0.01558367         3966 
 4137000    0.5951091   -7.6525245    818.75891  0.016492606  0.015578079         3972 
 4138000   0.58714795   -7.6467137    818.98914  0.016493256  0.015572491         3961 
 4139000   0.58939563   -7.6461867     819.4514  0.016498579  0.015566909         3971 
 4140000   0.58338005     -7.65697    817.86833  0.016462728  0.015561328         3973 
 4141000   0.58428133   -7.6549067    817.50117  0.016451364  0.015555753         3974 
 4142000   0.58222659   -7.6385679    818.40593  0.016465595  0.015550175         3970 
 4143000    0.5934756   -7.6401668    816.58749  0.016425044  0.015544599         3970 
 4144000   0.57894399   -7.6353076    817.42396  0.016437901  0.015539026         3964 
 4145000   0.59019481   -7.6671863    816.66597  0.016418697  0.015533458         3972 
 4146000   0.60056863   -7.6574489    817.03462  0.016422146  0.015527892         3969 
 4147000    0.5907397    -7.642444    817.50001  0.016427538  0.015522326         3970 
 4148000   0.59874937   -7.6597708    817.25047  0.016418565  0.015516762         3964 
 4149000    0.5812114   -7.6411252    817.30765  0.016415756  0.015511204         3974 
 4150000   0.58113379   -7.6443931    818.01431   0.01642599  0.015505648         3970 
 4151000   0.57507788   -7.6623992    818.31132  0.016427996  0.015500094         3969 
 4152000   0.57189676   -7.6510484    818.03817  0.016418557  0.015494538         3973 
 4153000   0.59499577   -7.6632418    817.58509  0.016405512  0.015488986         3966 
 4154000   0.58867883    -7.638459    818.02615  0.016410411  0.015483434         3954 
 4155000   0.58239047    -7.645205    818.71446  0.016420266  0.015477887         3977 
 4156000   0.58486698   -7.6608154    817.65519  0.016395075  0.015472344         3969 
 4157000   0.58523878   -7.6244466     817.6933  0.016391895  0.015466803         3972 
 4158000   0.59289326   -7.6602086    816.98011  0.016373659  0.015461268         3967 
 4159000   0.58144007    -7.660936    817.19456  0.016374019  0.015455731         3968 
 4160000   0.59036977   -7.6307452    818.65365  0.016399312  0.015450199         3979 
 4161000     0.595196   -7.6472736    817.94967  0.016381272  0.015444665         3967 
 4162000   0.59337957   -7.6734074      817.516  0.016368653  0.015439135         3975 
 4163000   0.57566101    -7.650026    816.90694  0.016352529  0.015433609         3971 
 4164000   0.59157477   -7.6387282    817.59736  0.016362419  0.015428086         3973 
 4165000   0.58046602   -7.6447368    817.39455  0.016354433  0.015422564         3971 
 4166000   0.59242275   -7.6626685    819.16147  0.016385851  0.015417045         3975 
 4167000   0.58612012    -7.665804    817.41273  0.016346947  0.015411523         3971 
 4168000   0.58490533   -7.6639619    817.59322  0.016346634  0.015406009         3969 
 4169000   0.57880787   -7.6559804    816.95825   0.01633002  0.015400496         3965 
 4170000   0.58964345    -7.645954    818.07101  0.016348342   0.01539499         3972 
 4171000   0.59119485   -7.6601149    816.82553  0.016319538   0.01538948         3968 
 4172000   0.58733295   -7.6603083    817.79528  0.016334997  0.015383974         3972 
 4173000   0.58074146   -7.6406776    818.21891  0.016339542   0.01537847         3970 
 4174000   0.58941379    -7.680599    817.54782  0.016322229  0.015372972         3973 
 4175000   0.58903081   -7.6573018    816.72434  0.016301883  0.015367469         3972 
 4176000   0.59083659   -7.6644024    818.53602  0.016334132  0.015361971         3972 
 4177000   0.58787108   -7.6592985    818.31828  0.016325877  0.015356478         3971 
 4178000   0.58621397   -7.6676344    816.90728  0.016293826  0.015350985         3967 
 4179000   0.58767178   -7.6702537    817.64347  0.016304608  0.015345493         3967 
 4180000   0.58548379   -7.6615916    819.32495   0.01633423  0.015340007         3968 
 4181000   0.58038516    -7.674774    817.99382  0.016303791  0.015334521         3973 
 4182000   0.56970045   -7.6473508    816.76766   0.01627546  0.015329043         3968 
 4183000   0.58151629   -7.6502166    818.97213  0.016315486  0.015323564         3966 
 4184000   0.56486646   -7.6468764    817.12651  0.016274827  0.015318089         3967 
 4185000   0.58236021   -7.6481448    818.09432  0.016290209  0.015312616         3969 
 4186000   0.57788752   -7.6614267    818.07817  0.016285996  0.015307146         3970 
 4187000   0.57054396   -7.6364911    817.34601  0.016267535   0.01530167         3976 
 4188000   0.58161586   -7.6673809    818.33421  0.016283314  0.015296198         3974 
 4189000   0.56849294   -7.6295809    817.66501  0.016266114  0.015290727         3974 
 4190000    0.5806801   -7.6557569    816.83033  0.016245631  0.015285261         3969 
 4191000   0.58388059   -7.6624452    817.39795  0.016253041  0.015279802         3965 
 4192000   0.57272687   -7.6767642    818.45636  0.016270204  0.015274341         3974 
 4193000   0.59386054   -7.6676921    817.37838    0.0162449  0.015268882         3966 
 4194000   0.58264975   -7.6558735    816.98619  0.016233234  0.015263426         3968 
 4195000   0.58028761   -7.6692345    817.28801   0.01623536  0.015257977         3973 
 4196000   0.58792671   -7.6653169    815.98329  0.016205579  0.015252529         3972 
 4197000   0.56998971   -7.6648187    816.47629  0.016211506  0.015247081         3976 
 4198000   0.58180032   -7.6659139    817.27213  0.016223442  0.015241633         3970 
 4199000   0.58118691   -7.6749707    816.84475  0.016211097  0.015236188         3973 
 4200000   0.58366989   -7.6564929    817.20629   0.01621441  0.015230745         3970 
 4201000   0.57902558    -7.657176    818.23162   0.01623089  0.015225304         3974 
 4202000   0.58013446   -7.6475074    816.49958  0.016192678  0.015219866         3974 
 4203000   0.58202292   -7.6622605    816.25407  0.016183957  0.015214432         3970 
 4204000   0.57720067   -7.6689917    817.07551   0.01619639  0.015209002         3972 
 4205000   0.57830793   -7.6495838    815.78538  0.016166971  0.015203578         3965 
 4206000   0.58492023   -7.6613487    816.58295   0.01617893  0.015198151         3970 
 4207000   0.57822615   -7.6639391    817.29195  0.016189128  0.015192725         3972 
 4208000   0.58521072   -7.6729835    817.57676  0.016190921  0.015187303         3969 
 4209000   0.57805519   -7.6703428    816.74856  0.016170677  0.015181881         3972 
 4210000   0.58383838    -7.638003    816.04159  0.016152842  0.015176466         3977 
 4211000   0.58233096   -7.6750841    816.95102  0.016167004  0.015171053         3971 
 4212000   0.57296263   -7.6694457    816.98755  0.016163888  0.015165639         3970 
 4213000   0.57584763   -7.6801332    818.41573  0.016188301   0.01516023         3968 
 4214000   0.58267531   -7.6751072    816.04961  0.016137668  0.015154827         3976 
 4215000   0.57163888   -7.6574473    816.48634  0.016142474  0.015149419         3970 
 4216000   0.58110486    -7.660692     816.2997  0.016134956  0.015144015         3971 
 4217000   0.58088626   -7.6921069    816.88071  0.016142611   0.01513861         3971 
 4218000   0.58451658   -7.6624315    816.94633  0.016140081  0.015133211         3970 
 4219000   0.57231875   -7.6675114     817.4079  0.016145372  0.015127817         3971 
 4220000   0.57357556   -7.6632046    816.39382  0.016121521   0.01512242         3967 
 4221000    0.5731435    -7.666523    816.76419  0.016125014  0.015117026         3977 
 4222000   0.56890878   -7.6374553     816.4999  0.016115978  0.015111633         3965 
 4223000   0.57643743   -7.6692418    817.89579  0.016139707  0.015106248         3974 
 4224000   0.58217092   -7.6732676    816.64981  0.016111305  0.015100863         3967 
 4225000   0.58038555   -7.6645486    817.60852  0.016126401  0.015095475         3972 
 4226000   0.55717253   -7.6837782    817.12616  0.016113073  0.015090089         3974 
 4227000   0.57949477   -7.6554396    815.96849  0.016086438  0.015084707         3966 
 4228000   0.59400693   -7.6723622    816.53555   0.01609381  0.015079331         3967 
 4229000   0.56860386   -7.6673939     816.6306  0.016091878  0.015073954         3972 
 4230000   0.56161901   -7.6652908    817.08485  0.016097022  0.015068584         3971 
 4231000   0.57931678   -7.6795176    816.86923  0.016088971  0.015063218         3967 
 4232000   0.58565701   -7.6636338    817.47664   0.01609713  0.015057851         3971 
 4233000   0.58696169   -7.6514606    816.32175  0.016070591  0.015052489         3974 
 4234000   0.57541969   -7.6796339    817.07141   0.01608155  0.015047125         3960 
 4235000   0.56874893   -7.6837082    816.51441  0.016066793  0.015041761         3969 
 4236000   0.58356764    -7.655469    815.71597  0.016047292  0.015036406         3972 
 4237000   0.57751455   -7.6751806     816.5086  0.016059095  0.015031049         3968 
 4238000   0.58301363   -7.6594586    816.42018  0.016053567  0.015025695         3965 
 4239000   0.57407943   -7.6593415    815.63439  0.016034332  0.015020344         3971 
 4240000   0.57321685   -7.6673818     815.4796  0.016027508  0.015014996         3971 
 4241000   0.56531533    -7.670725    816.91778  0.016051988  0.015009649         3971 
 4242000    0.5754955   -7.6871446    817.83917  0.016066305  0.015004304         3970 
 4243000   0.55985969   -7.6869517    818.13957  0.016068418  0.014998957         3968 
 4244000   0.57910887   -7.6748307    816.08055  0.016024202  0.014993618         3965 
 4245000   0.59191691   -7.6671175    814.89711  0.015997195  0.014988274         3973 
 4246000   0.57603762   -7.6770187    818.04178  0.016055146  0.014982938         3966 
 4247000   0.57337765   -7.6714352    816.24195   0.01601605  0.014977598         3966 
 4248000   0.56997928     -7.67837    816.47033   0.01601676  0.014972264         3971 
 4249000   0.57363658   -7.6717442    816.61835  0.016015893  0.014966932         3960 
 4250000   0.57739005   -7.6765914    815.80813  0.015996238  0.014961603         3969 
 4251000   0.56960283   -7.6618658    815.70776  0.015990507   0.01495628         3963 
 4252000   0.57059897   -7.6740819    817.35605  0.016019051  0.014950955         3968 
 4253000   0.58756201   -7.6843163    816.81976  0.016004776  0.014945636         3975 
 4254000   0.57620095   -7.6678586    816.21524  0.015989172  0.014940314         3967 
 4255000   0.56248055   -7.6744125    816.56546  0.015992273  0.014934995         3973 
 4256000   0.57143134   -7.6817838    816.51925  0.015987611  0.014929679         3971 
 4257000   0.56413163   -7.6649832    817.50734  0.016003197  0.014924366         3969 
 4258000   0.56654976   -7.6779445     815.9929    0.0159698  0.014919062         3972 
 4259000   0.57414514   -7.6922268    816.70516  0.015979987  0.014913754         3967 
 4260000   0.57627623    -7.693104    815.59183  0.015954457  0.014908448         3969 
 4261000   0.56589197   -7.6874858    815.82837  0.015955338   0.01490314         3974 
 4262000   0.56616946   -7.6851023     815.9037  0.015953068   0.01489784         3970 
 4263000   0.56893512   -7.6785438    817.26056   0.01597585  0.014892539         3972 
 4264000    0.5579689   -7.6773051    816.98411    0.0159667  0.014887243         3972 
 4265000   0.56334637   -7.6748464    816.65008   0.01595643  0.014881949         3973 
 4266000   0.55991305   -7.6685845    816.60842  0.015951876  0.014876657         3968 
 4267000   0.56946137   -7.6795873    816.16788  0.015939534  0.014871369         3970 
 4268000    0.5745724   -7.6655991     815.4456  0.015921696  0.014866081         3968 
 4269000   0.58193953   -7.6837843    816.64677  0.015941414  0.014860799         3973 
 4270000   0.56937694   -7.6683826    816.25618  0.015930058  0.014855513         3959 
 4271000   0.57103247   -7.6646313    817.05755  0.015941964  0.014850233         3969 
 4272000   0.56537486   -7.6759207    815.47725  0.015907406  0.014844953         3970 
 4273000   0.57524286   -7.6906555    817.02655  0.015933898  0.014839678         3970 
 4274000   0.56838195   -7.6826168    817.05329  0.015930691  0.014834405         3970 
 4275000   0.55656161   -7.6866774     816.8049  0.015922123  0.014829135         3971 
 4276000    0.5698686   -7.6763234    816.81882   0.01591867  0.014823866         3970 
 4277000   0.57076376   -7.6867628    815.67562  0.015892674  0.014818601         3969 
 4278000   0.58134905   -7.6920928    816.42564  0.015903569  0.014813335         3972 
 4279000   0.56707522   -7.6739031    815.25727  0.015877099  0.014808068         3963 
 4280000   0.56554493   -7.6911329    816.74114  0.015902281  0.014802807         3970 
 4281000   0.57243311   -7.6874628    815.93893   0.01588295  0.014797548         3972 
 4282000    0.5641597   -7.6761098     817.1284   0.01590239  0.014792295         3966 
 4283000   0.55879508   -7.6801638    816.07179  0.015878119  0.014787041         3967 
 4284000   0.56418413   -7.6944775    816.34028  0.015879635  0.014781794         3973 
 4285000   0.56642069   -7.6853437    816.31689  0.015875474  0.014776546         3967 
 4286000   0.57022777   -7.6724401    816.35954    0.0158726  0.014771296         3975 
 4287000   0.56520028   -7.7055941    815.78802  0.015857787  0.014766048         3962 
 4288000    0.5577417   -7.7002994    817.36824    0.0158848  0.014760805         3968 
 4289000   0.55440005    -7.675669    815.65026  0.015847716  0.014755559         3967 
 4290000    0.5744361   -7.6951992    816.32774  0.015857182  0.014750325         3976 
 4291000   0.57268316   -7.6628006    815.89126   0.01584501  0.014745091         3968 
 4292000   0.55892086    -7.677461    815.74404   0.01583846  0.014739857         3972 
 4293000   0.56618702   -7.6863031     817.0896   0.01586089  0.014734628         3968 
 4294000   0.56901692   -7.6791583    816.06155  0.015837245  0.014729397         3966 
 4295000   0.57753523   -7.6947469    816.51691  0.015842392  0.014724173         3964 
 4296000   0.56013101   -7.6650561     816.5664  0.015839665  0.014718949         3964 
 4297000   0.56332293   -7.6807983    815.65721  0.015818346  0.014713728         3963 
 4298000   0.56289487   -7.6773725    815.56568  0.015812891  0.014708509         3972 
 4299000   0.56512745   -7.6808087    817.50544  0.015846814  0.014703288         3975 
 4300000   0.56030402   -7.6889827    817.25695  0.015838313  0.014698075         3965 
 4301000   0.56546091   -7.6738133    816.69347  0.015823713  0.014692862         3972 
 4302000   0.56403949   -7.6746801    817.26814  0.015831167  0.014687652         3966 
 4303000   0.56656266   -7.6872216    817.32882  0.015828663  0.014682446         3970 
 4304000   0.56149097   -7.6929261    814.01374  0.015760799  0.014677238         3971 
 4305000   0.57062869   -7.6682166     815.4304   0.01578456  0.014672036         3972 
 4306000   0.57095882   -7.6979124    815.50788  0.015782394  0.014666831         3972 
 4307000    0.5628465   -7.6867468    816.81196  0.015803962  0.014661631         3969 
 4308000   0.56130754   -7.6979832    815.37006  0.015772401  0.014656432         3972 
 4309000   0.55853577   -7.6729571    817.30594   0.01580618  0.014651237         3970 
 4310000   0.56251417   -7.6893109    816.21022  0.015781327  0.014646044         3973 
 4311000   0.55706805   -7.6690062    816.16083  0.015776711  0.014640856         3968 
 4312000   0.57344635   -7.6946137    816.44853  0.015778613  0.014635669         3967 
 4313000   0.56993317   -7.6945951    815.74341   0.01576133   0.01463048         3972 
 4314000    0.5622418   -7.6938013    815.96651  0.015761986  0.014625293         3969 
 4315000    0.5622213   -7.6771064    814.89159  0.015737574   0.01462011         3971 
 4316000   0.55700079   -7.6882852    815.21339  0.015740141  0.014614929         3966 
 4317000   0.55853833   -7.6847052    815.08627  0.015734041   0.01460975         3966 
 4318000   0.56193561   -7.7021439    815.52827  0.015738928  0.014604575         3963 
 4319000   0.55174397   -7.6880506    815.88676    0.0157422  0.014599403         3969 
 4320000   0.55043137    -7.695707    816.62034  0.015752707  0.014594231         3970 
 4321000    0.5587468   -7.6948333     815.0107  0.015718019  0.014589064         3969 
 4322000    0.5663043   -7.6976485    815.93259  0.015732157  0.014583896         3971 
 4323000   0.55491241   -7.7077565    816.35349  0.015736631  0.014578733         3965 
 4324000   0.56166261   -7.6932077    815.42075  0.015715016  0.014573571         3971 
 4325000   0.57369012   -7.7122453    816.50781  0.015732328  0.014568414         3966 
 4326000   0.55947044   -7.6895112     815.8874   0.01571674  0.014563259         3968 
 4327000   0.56003692   -7.6992654    815.71986  0.015709881  0.014558106         3968 
 4328000   0.56248983   -7.6929412    815.98675   0.01571139  0.014552953         3967 
 4329000   0.56518987   -7.6922145    816.81559  0.015723716  0.014547805         3955 
 4330000   0.54915041   -7.6870086    816.25083  0.015709215  0.014542657         3970 
 4331000   0.56218462   -7.7150949    815.84895  0.015697856  0.014537516         3973 
 4332000   0.55375721   -7.7018197    815.43862  0.015686339   0.01453237         3970 
 4333000   0.54706195   -7.6992051    816.70408  0.015707056  0.014527229         3967 
 4334000   0.55648915   -7.7054417    815.82335  0.015686497  0.014522091         3964 
 4335000   0.57417207   -7.6913477      816.142  0.015689004  0.014516957         3968 
 4336000   0.55737971   -7.6954536    816.43831  0.015691081  0.014511823         3970 
 4337000   0.55184793   -7.6814769    815.40293  0.015667568  0.014506691         3974 
 4338000   0.55334351   -7.7001215    816.42759   0.01568364   0.01450156         3968 
 4339000   0.55733977    -7.692434     815.6422  0.015664942  0.014496433         3967 
 4340000    0.5569997   -7.7051085    816.72222   0.01568207  0.014491308         3970 
 4341000   0.56032829   -7.6810422    815.69972  0.015658829  0.014486182         3971 
 4342000   0.54469503   -7.6901237    814.67023  0.015635464  0.014481059         3969 
 4343000   0.56024809   -7.6836049    815.02044  0.015638584  0.014475938         3974 
 4344000   0.56080207   -7.6904669    817.21279  0.015677041  0.014470819         3972 
 4345000   0.56935172   -7.6973751    815.33851  0.015637486  0.014465706         3976 
 4346000   0.54858118   -7.6966635    814.96151  0.015626659  0.014460593         3970 
 4347000   0.55892414   -7.6810012    815.25734  0.015628735  0.014455482         3973 
 4348000   0.55708521   -7.7076435    816.37066  0.015646478  0.014450376         3973 
 4349000   0.54106574   -7.6921971    815.82398  0.015632405  0.014445272         3974 
 4350000   0.54975555   -7.6820186    815.91192  0.015630496  0.014440176         3965 
 4351000   0.55875194   -7.6994324    814.50366  0.015599932  0.014435073         3970 
 4352000   0.55794625   -7.6744159    816.73699  0.015639112  0.014429977         3965 
 4353000   0.56401353   -7.7081012    816.66722  0.015634184   0.01442488         3972 
 4354000   0.55735576   -7.7198597    817.80172  0.015652307  0.014419786         3974 
 4355000   0.55109542   -7.7072759    816.38021  0.015621512  0.014414694         3964 
 4356000   0.55231822   -7.6983483    816.83587  0.015626643  0.014409606         3965 
 4357000    0.5640323   -7.6929852    815.10098  0.015589874  0.014404518         3970 
 4358000   0.55183742   -7.6790235    814.90826  0.015582612  0.014399429         3975 
 4359000   0.53794597   -7.7068335    815.21128   0.01558483  0.014394344         3969 
 4360000   0.55046764   -7.6890186    815.77025  0.015591939  0.014389259         3970 
 4361000   0.54678976   -7.6973791    816.06691  0.015594032  0.014384182         3969 
 4362000   0.55442671   -7.7088318    815.71729  0.015583778  0.014379107         3973 
 4363000   0.55083598   -7.6969758    815.47648  0.015575607  0.014374033         3967 
 4364000   0.56323807   -7.7050302    814.82347  0.015559568   0.01436896         3964 
 4365000   0.56410424   -7.7101611    815.44289  0.015567829   0.01436389         3965 
 4366000   0.54208013   -7.7010987    815.79203  0.015570927  0.014358825         3969 
 4367000   0.54468625   -7.7052719    817.30317  0.015596198  0.014353756         3971 
 4368000   0.54495751   -7.6912545    814.93974  0.015547538   0.01434869         3971 
 4369000   0.54903223   -7.6852642    816.51659  0.015574056   0.01434363         3963 
 4370000   0.56018256   -7.6744597    814.50985  0.015532224  0.014338571         3971 
 4371000   0.56021142    -7.701468    816.81337  0.015572588   0.01433351         3970 
 4372000   0.55513348   -7.7088592    816.27466  0.015558758  0.014328454         3973 
 4373000   0.56400454   -7.6871829    814.67257   0.01552467  0.014323401         3972 
 4374000   0.56099979   -7.7099713    815.15461  0.015530304  0.014318349         3965 
 4375000   0.55548731   -7.7012584    814.98971  0.015523613  0.014313306         3971 
 4376000   0.54594155   -7.6840071    815.84583  0.015536369  0.014308259         3969 
 4377000   0.54309516   -7.6870935     815.4067  0.015524459  0.014303216         3971 
 4378000    0.5433868   -7.7046635    814.53971  0.015504411  0.014298173         3969 
 4379000   0.54928162   -7.7120235    816.40632  0.015536392  0.014293134         3965 
 4380000   0.55247463   -7.7143126    814.81039  0.015502481  0.014288095         3977 
 4381000   0.55515432   -7.6982036    814.92952  0.015501208   0.01428306         3966 
 4382000   0.54806352   -7.7106381    816.06559  0.015519276  0.014278025         3967 
 4383000   0.55427596   -7.7200659    814.45286  0.015485072  0.014272993         3970 
 4384000   0.55588718   -7.7011732    814.92095  0.015490438  0.014267964         3965 
 4385000   0.55281743   -7.7027662    815.23831  0.015492936  0.014262934         3969 
 4386000   0.54538468   -7.6940081    814.88402  0.015482673  0.014257913         3972 
 4387000   0.54275794   -7.6904448    816.12305  0.015502679  0.014252889         3971 
 4388000   0.55439704    -7.681613    814.80526   0.01547412  0.014247871         3972 
 4389000     0.551062   -7.7178829    816.69218  0.015506421  0.014242853         3968 
 4390000     0.546524    -7.720719    817.63339  0.015520755  0.014237833         3970 
 4391000   0.55207421   -7.6842153    814.09686  0.015450104   0.01423282         3972 
 4392000   0.55394359   -7.7045671    816.33028  0.015488962  0.014227809         3976 
 4393000   0.55199267   -7.7033159    815.70608  0.015473596  0.014222805         3970 
 4394000    0.5517053   -7.7091401    814.95647  0.015455858  0.014217797         3970 
 4395000   0.55205911   -7.7120754    815.72684  0.015466948  0.014212797         3972 
 4396000   0.55394547   -7.6779485    815.05226  0.015450642  0.014207797         3969 
 4397000   0.54552252   -7.6865954    814.89543  0.015444156  0.014202796         3972 
 4398000   0.55387254   -7.7200958    815.04743  0.015443524    0.0141978         3970 
 4399000   0.55915156   -7.7188924    815.02011  0.015439496  0.014192805         3970 
 4400000   0.56126929   -7.7076987    815.60839  0.015447129   0.01418781         3974 
 4401000   0.53273146    -7.699205    816.18519   0.01545454  0.014182819         3971 
 4402000   0.55543683   -7.7083082     814.6218  0.015421433  0.014177829         3970 
 4403000   0.54518154   -7.7136528    815.19851  0.015428846  0.014172839         3970 
 4404000   0.54268397   -7.7030315    816.03672  0.015441203  0.014167856         3973 
 4405000   0.54288141   -7.7146029    815.38398   0.01542535  0.014162872         3970 
 4406000   0.53581005   -7.7209772    814.14888  0.015398488  0.014157888         3970 
 4407000   0.53705155   -7.7191598     815.2415  0.015415655  0.014152906         3961 
 4408000   0.54870932   -7.7158625    815.22283  0.015411805  0.014147927         3972 
 4409000   0.54391807   -7.7012879    814.77292  0.015399806  0.014142951         3972 
 4410000    0.5495768   -7.7292771    814.52277  0.015391587  0.014137974         3958 
 4411000   0.54341496    -7.701793    814.58042  0.015389186  0.014133005         3970 
 4412000   0.54937937   -7.7018925    815.17308  0.015396893  0.014128036         3972 
 4413000   0.54386039   -7.6988933    816.12451   0.01541137  0.014123073         3973 
 4414000   0.55824552   -7.7191101    815.86295   0.01540294  0.014118109         3971 
 4415000   0.55082895   -7.7173293     815.1124  0.015385285  0.014113145         3967 
 4416000   0.54287431    -7.699142      814.384  0.015368056  0.014108189         3970 
 4417000   0.54342214   -7.7257285    815.22554  0.015380453  0.014103229         3966 
 4418000   0.54697035   -7.7133473    815.68941  0.015385721  0.014098275         3971 
 4419000   0.54843868   -7.7003556    814.66187  0.015362862  0.014093319         3969 
 4420000   0.53581803   -7.7127886    815.39795  0.015373265  0.014088364         3972 
 4421000   0.54346778   -7.7083778    815.38764  0.015369593  0.014083414         3970 
 4422000    0.5490674   -7.6992635     816.0182     0.015378   0.01407847         3973 
 4423000   0.54562466   -7.7001503    815.93022  0.015372866  0.014073526         3965 
 4424000   0.53390728   -7.7096054    815.30097  0.015357538  0.014068581         3970 
 4425000   0.54290326    -7.713908    815.73058  0.015362158  0.014063641         3972 
 4426000   0.55125626   -7.6884556    813.77115  0.015321795  0.014058703         3966 
 4427000   0.53257324   -7.7032759     816.4317  0.015368415   0.01405377         3971 
 4428000   0.54419628   -7.7188001    814.76319  0.015333544  0.014048838         3971 
 4429000   0.53021948   -7.7163525    816.04528  0.015354205  0.014043908         3964 
 4430000   0.54916686   -7.7168308    814.67558  0.015324973  0.014038977         3970 
 4431000   0.53957446   -7.7271079    816.30525  0.015352164  0.014034052         3967 
 4432000   0.55158101   -7.7115587    815.12964  0.015326595  0.014029125         3968 
 4433000   0.54322231   -7.7074527     816.0953  0.015341291  0.014024204         3971 
 4434000   0.54166507    -7.714958    814.95933  0.015316481  0.014019284         3963 
 4435000   0.53130361   -7.7078138    816.64242  0.015344653  0.014014364         3972 
 4436000    0.5530504   -7.7097211    815.87771  0.015326828  0.014009448         3967 
 4437000   0.54401379   -7.7254112    815.10715  0.015308901  0.014004532         3971 
 4438000   0.54737869   -7.7247633    815.99103  0.015322049  0.013999619         3964 
 4439000   0.54791027   -7.7186048    815.38074   0.01530714  0.013994704         3970 
 4440000   0.53993401   -7.7291595    814.32343  0.015283848  0.013989795         3970 
 4441000   0.52961464   -7.7065049    814.43105  0.015282426  0.013984891         3974 
 4442000   0.55213648   -7.6974618    814.95572  0.015288829   0.01397999         3960 
 4443000   0.53671718   -7.7243713    814.89556  0.015284259   0.01397509         3973 
 4444000   0.54214545   -7.7201352    814.49227  0.015273257  0.013970194         3976 
 4445000   0.53980266   -7.7342942    814.95415   0.01527848  0.013965297         3967 
 4446000   0.53895087   -7.7043512    813.79495  0.015253317  0.013960402         3969 
 4447000   0.55015516   -7.7175393    813.71904  0.015248464  0.013955505         3976 
 4448000   0.54062353   -7.7171389    815.04966  0.015269965  0.013950615         3967 
 4449000   0.53474425   -7.7268167    813.85424  0.015244142  0.013945724         3974 
 4450000   0.54737015    -7.711611    814.44577  0.015251793  0.013940839         3971 
 4451000   0.54166135   -7.7063381    813.70019  0.015234408  0.013935954         3973 
 4452000   0.54844354   -7.7168651    814.44511   0.01524493  0.013931071         3969 
 4453000   0.54470221   -7.7026308    814.69263  0.015246138  0.013926187         3972 
 4454000    0.5379266   -7.7289062    815.04042  0.015249222  0.013921309         3976 
 4455000   0.52488376   -7.7245668    814.56631  0.015236931  0.013916432         3976 
 4456000   0.53394374   -7.7123615    814.45008  0.015231338  0.013911557         3967 
 4457000   0.53244129    -7.717147    814.95967  0.015237448  0.013906683         3970 
 4458000   0.53623169    -7.706632    813.96104  0.015215363   0.01390181         3968 
 4459000   0.52764993   -7.7212357    815.13935  0.015233972  0.013896945         3971 
 4460000   0.55072072   -7.6928333    816.00494  0.015246729  0.013892081         3969 
 4461000   0.54262757    -7.730601    814.77837  0.015220398  0.013887221         3970 
 4462000   0.54131094   -7.7046997    814.83059  0.015217963  0.013882358         3973 
 4463000   0.53074197   -7.7175486     814.4327  0.015207123  0.013877498         3964 
 4464000   0.53020642   -7.7206421    814.28726  0.015201002  0.013872641         3971 
 4465000    0.5425407   -7.7125506    815.91627     0.015228  0.013867788         3975 
 4466000   0.53597648   -7.7131548    814.71437  0.015202164  0.013862933         3972 
 4467000   0.54219105   -7.6969406    813.83354  0.015182329  0.013858086         3970 
 4468000   0.54475536   -7.7222302     815.0494  0.015201608  0.013853237         3971 
 4469000   0.53749164   -7.7481829    814.40191  0.015186132  0.013848389         3971 
 4470000   0.54768366   -7.7209207    815.16415  0.015196945  0.013843542         3970 
 4471000   0.52509686    -7.721641    813.94401  0.015170805  0.013838702         3967 
 4472000   0.53356757   -7.7248757    814.48523  0.015177498  0.013833862         3969 
 4473000   0.54266059   -7.6967519    814.20938  0.015168965  0.013829027         3975 
 4474000   0.55405684   -7.7118506    815.30985  0.015186072  0.013824193         3974 
 4475000   0.55630635   -7.7294101    815.05583  0.015177948  0.013819359         3975 
 4476000   0.53966174   -7.7355949    813.44097  0.015144492   0.01381453         3970 
 4477000   0.52510834   -7.7178437    814.78935  0.015166208  0.013809701         3970 
 4478000   0.54034094   -7.7183412    815.66383  0.015179095  0.013804872         3966 
 4479000   0.54116884   -7.7173211    814.85608  0.015160677  0.013800046         3971 
 4480000   0.53646848   -7.7126493     813.8292  0.015138192  0.013795221         3974 
 4481000   0.54076184   -7.7336227     815.4962  0.015165815  0.013790397         3973 
 4482000    0.5376239   -7.7145955    814.15363  0.015137469  0.013785577         3968 
 4483000   0.53234739   -7.7114011    815.11305  0.015151927  0.013780761         3967 
 4484000   0.54692268   -7.7332964    814.48178  0.015136816  0.013775948         3973 
 4485000   0.52599279   -7.7225752    813.15914  0.015108865  0.013771133         3974 
 4486000   0.54639783   -7.7318567    815.87909  0.015156024  0.013766322         3970 
 4487000    0.5412629   -7.7371876    816.07196  0.015156228  0.013761513         3970 
 4488000   0.53516083   -7.7357193    815.27628  0.015138077  0.013756708         3969 
 4489000   0.53936619   -7.7200463    813.86603  0.015108525    0.0137519         3973 
 4490000   0.55041447   -7.7211378    813.69556  0.015101996  0.013747099         3972 
 4491000   0.52525333   -7.7270593    814.40411  0.015111781    0.0137423         3976 
 4492000   0.53962256   -7.7254273     814.3737  0.015107853  0.013737504         3966 
 4493000   0.53061871   -7.7257792    814.94611  0.015115107  0.013732706         3969 
 4494000   0.52584098   -7.7169956    814.41885  0.015101966   0.01372791         3973 
 4495000   0.54076237   -7.7429977     814.6873  0.015103584  0.013723122         3974 
 4496000   0.53152556   -7.7447927      814.873  0.015103666  0.013718333         3966 
 4497000    0.5363866   -7.7287872    814.73114  0.015097679  0.013713543         3969 
 4498000   0.54275964   -7.7288328    815.79556  0.015114043  0.013708757         3976 
 4499000   0.53733847   -7.7377669    813.58836    0.0150698  0.013703976         3974 
 4500000   0.52954614   -7.7217762    814.59204  0.015085038  0.013699194         3973 
 4501000   0.52579345   -7.7234873    814.45215  0.015079096  0.013694414         3973 
 4502000   0.53181082   -7.7192443     813.9055  0.015065628  0.013689639         3972 
 4503000   0.52840627   -7.7200592    815.33789  0.015088791  0.013684864         3972 
 4504000   0.52473173   -7.7277561    814.74116    0.0150744   0.01368009         3972 
 4505000   0.54173444   -7.7295989    813.47919   0.01504771  0.013675316         3967 
 4506000   0.52097124   -7.7374265    815.34255  0.015078831   0.01367055         3971 
 4507000   0.53101908   -7.7324337    815.27684   0.01507427  0.013665782         3971 
 4508000    0.5410579   -7.7202204    815.37478  0.015072737  0.013661021         3972 
 4509000   0.53276824   -7.7296153    814.90747  0.015060758  0.013656257         3976 
 4510000   0.53686207   -7.7375703     814.2914  0.015046035  0.013651498         3971 
 4511000   0.52063963   -7.7240153    813.58039  0.015029565  0.013646738         3968 
 4512000   0.51986972   -7.7365593    815.01966  0.015052816  0.013641982         3980 
 4513000   0.52509055   -7.7164427    814.11781  0.015032828  0.013637229         3972 
 4514000   0.52388024   -7.7145815    814.71195  0.015040466  0.013632478         3964 
 4515000    0.5311534   -7.7409281    814.43523  0.015032027  0.013627727         3968 
 4516000   0.53086998   -7.7517508    813.64958  0.015014201  0.013622979         3973 
 4517000    0.5214906    -7.743886    814.50505  0.015026659  0.013618232         3975 
 4518000   0.53243459   -7.7350124    814.33264  0.015020154  0.013613488         3974 
 4519000   0.53386714   -7.7334903    813.88617  0.015008597  0.013608746         3975 
 4520000   0.53284262   -7.7233417    812.57716  0.014981142  0.013604009         3963 
 4521000    0.5312082    -7.736742    813.45916  0.014994086  0.013599272         3974 
 4522000   0.52502567   -7.7284029    814.88385  0.015017025  0.013594533         3965 
 4523000   0.53477826   -7.7166073    814.24939  0.015002016  0.013589797         3971 
 4524000   0.52599286   -7.7425865    813.86852  0.014991684  0.013585065         3969 
 4525000   0.52344984   -7.7234852    813.07568   0.01497377  0.013580338         3966 
 4526000   0.52420899   -7.7465492    814.74866  0.015001264  0.013575609         3964 
 4527000   0.53278117   -7.7275604    813.61698  0.014977118  0.013570881         3964 
 4528000   0.53043021   -7.7425084    814.83004  0.014996136  0.013566156         3970 
 4529000   0.51593494   -7.7241415    813.95806   0.01497678  0.013561434         3968 
 4530000   0.52726038   -7.7236183    813.64664  0.014967745  0.013556713         3967 
 4531000   0.51247941    -7.733869    814.60291   0.01498203  0.013551996         3970 
 4532000   0.51796314   -7.7463276    814.64168  0.014979437  0.013547282         3971 
 4533000   0.52790909   -7.7543323    814.65058  0.014976296  0.013542567         3974 
 4534000   0.52747343   -7.7362146    814.89879  0.014977555  0.013537853         3972 
 4535000   0.52312025   -7.7385019    814.13979  0.014960305  0.013533144         3972 
 4536000   0.53012183   -7.7244147    813.63401  0.014947715  0.013528436         3974 
 4537000   0.52307644   -7.7263916    813.33478  0.014938924  0.013523729         3977 
 4538000   0.52124186   -7.7404935    814.23986  0.014952252   0.01351903         3967 
 4539000   0.52885148   -7.7179368    813.17997  0.014929499  0.013514329         3974 
 4540000   0.52675488   -7.7427473    813.96905  0.014940695   0.01350963         3972 
 4541000   0.52567488   -7.7372641    812.97948  0.014919245  0.013504932         3964 
 4542000   0.51878944   -7.7310165    814.44208  0.014942795  0.013500239         3972 
 4543000   0.52504264   -7.7190971    812.87157  0.014910697  0.013495549         3974 
 4544000   0.52245647   -7.7436064    814.54685  0.014938139  0.013490856         3971 
 4545000   0.52050404   -7.7208293    814.25588  0.014929517  0.013486166         3972 
 4546000   0.53039812   -7.7217306    813.89259  0.014919574   0.01348148         3970 
 4547000   0.52110502   -7.7424558    813.90707  0.014916558  0.013476795         3974 
 4548000    0.5218232   -7.7456568     814.0992  0.014916799  0.013472112         3975 
 4549000   0.53241569   -7.7357935    814.88305  0.014927879  0.013467431         3974 
 4550000   0.52292574   -7.7469361    814.24368  0.014912888  0.013462753         3973 
 4551000    0.5250607   -7.7294782     813.6352  0.014898469  0.013458077         3975 
 4552000   0.52901414   -7.7287303    814.11361  0.014903954  0.013453404         3975 
 4553000   0.51176115   -7.7489698    814.78952  0.014913052  0.013448729         3969 
 4554000   0.52824791   -7.7364619    813.58806  0.014887792  0.013444061         3970 
 4555000   0.52585831     -7.73028    814.00772  0.014892201  0.013439391         3968 
 4556000   0.51789319   -7.7128765    814.51953  0.014898294  0.013434724         3970 
 4557000   0.52922271   -7.7350717    814.03276  0.014886123  0.013430062         3974 
 4558000   0.51877556   -7.7346433    814.06181  0.014883388  0.013425399         3969 
 4559000     0.526651   -7.7367427    815.08474  0.014898822   0.01342074         3973 
 4560000   0.51903908   -7.7579573     814.3974  0.014882993   0.01341608         3973 
 4561000   0.50709793    -7.740069    814.30819    0.0148781  0.013411426         3970 
 4562000   0.51997878    -7.725224    813.65835  0.014862968  0.013406771         3967 
 4563000   0.50789349   -7.7437093    813.96727  0.014865353   0.01340212         3968 
 4564000   0.51998931   -7.7496198    813.84317   0.01485983  0.013397472         3974 
 4565000   0.51656334   -7.7455103    812.78657  0.014837287  0.013392821         3972 
 4566000   0.52420816   -7.7492561    812.56254  0.014829949  0.013388172         3965 
 4567000   0.53115521   -7.7370343    813.28714  0.014839923  0.013383529         3970 
 4568000   0.51938518   -7.7426121    813.74636  0.014845052  0.013378886         3975 
 4569000   0.52438694   -7.7398712    813.35961  0.014834749  0.013374246         3972 
 4570000    0.5177064   -7.7295008    814.41634  0.014850772  0.013369606         3974 
 4571000   0.51606613   -7.7424948    813.59217  0.014832498  0.013364972         3966 
 4572000   0.51784175   -7.7394591    812.80262  0.014814863  0.013360338         3977 
 4573000   0.52309719   -7.7359315    813.54175  0.014825092  0.013355707         3974 
 4574000   0.51842755    -7.749319     814.4916  0.014839156   0.01335108         3975 
 4575000   0.51980962   -7.7412737    813.98131  0.014826618   0.01334645         3972 
 4576000   0.51685411   -7.7692059    814.18376  0.014827064  0.013341822         3968 
 4577000   0.52586344   -7.7264161    813.32117   0.01480812  0.013337198         3972 
 4578000    0.5188028   -7.7459859     812.9936  0.014798922  0.013332577         3966 
 4579000   0.51731983   -7.7381087    812.70472  0.014790433  0.013327958         3974 
 4580000   0.52604997   -7.7483705    815.30323  0.014834484  0.013323339         3967 
 4581000   0.51541407   -7.7356776    814.27337  0.014812511  0.013318725         3971 
 4582000    0.5286862   -7.7446395    813.02585   0.01478659  0.013314112         3972 
 4583000   0.52476997   -7.7396212    814.07031  0.014802355  0.013309499         3970 
 4584000      0.51521   -7.7576224    812.57063  0.014771863  0.013304889         3970 
 4585000   0.52043261   -7.7403135    813.69345  0.014789049  0.013300278         3969 
 4586000   0.50687966   -7.7366183    813.88342  0.014789276  0.013295671         3968 
 4587000   0.51471256   -7.7471013    813.12329  0.014772242  0.013291069         3970 
 4588000    0.5095781   -7.7482269    814.71543  0.014797941  0.013286472         3969 
 4589000   0.51369853   -7.7598622    812.48563  0.014754224  0.013281873         3974 
 4590000    0.5179714    -7.715079    814.53523  0.014788221  0.013277276         3969 
 4591000   0.51800725   -7.7474763    814.41501  0.014782818  0.013272679         3963 
 4592000   0.52303463   -7.7337781    813.77753   0.01476803  0.013268087         3969 
 4593000   0.52333314   -7.7402505    814.67826  0.014781157  0.013263497         3972 
 4594000   0.51784938   -7.7583284    814.08574  0.014767192  0.013258909         3973 
 4595000   0.51433414   -7.7464664    813.66549  0.014756356  0.013254321         3976 
 4596000   0.51968233   -7.7405438    813.54574  0.014750974  0.013249735         3972 
 4597000   0.50873693   -7.7488988    813.83442  0.014752999  0.013245151         3977 
 4598000   0.51951395   -7.7447057    814.27894  0.014757847  0.013240571         3972 
 4599000   0.51246302   -7.7511004    813.35791  0.014737949  0.013235991         3972 
 4600000   0.50765784   -7.7438762    812.65441     0.014722  0.013231414         3975 
 4601000   0.51829183   -7.7335092    812.96183  0.014724368  0.013226839         3971 
 4602000   0.50527549   -7.7474676    813.64416  0.014733525  0.013222265         3975 
 4603000   0.50731334   -7.7371432    812.65984  0.014712503  0.013217691         3975 
 4604000   0.52092752   -7.7427001    813.32249  0.014721302  0.013213123         3968 
 4605000   0.51563345    -7.749699    812.03132   0.01469474  0.013208553         3975 
 4606000   0.50550553   -7.7492923    812.04631  0.014691821  0.013203985         3969 
 4607000   0.51005134   -7.7511416    813.01982  0.014706241  0.013199423         3968 
 4608000   0.51511274   -7.7464461    813.22363  0.014706735  0.013194859         3976 
 4609000   0.50678592   -7.7478438    813.19008  0.014702938  0.013190298         3978 
 4610000   0.51820906   -7.7616978    812.24464  0.014682658   0.01318574         3962 
 4611000   0.51393344   -7.7607066    813.85474  0.014708573  0.013181184         3967 
 4612000   0.52066012   -7.7574624    813.04849  0.014690815  0.013176629         3974 
 4613000   0.50919384   -7.7644791    812.03853  0.014669386  0.013172075         3971 
 4614000   0.50974864   -7.7607304    813.26418  0.014688343  0.013167526         3971 
 4615000   0.51838242   -7.7466591      813.167  0.014683406   0.01316298         3971 
 4616000   0.52036809   -7.7428877    813.26435  0.014681982  0.013158431         3974 
 4617000   0.51083434   -7.7588126      812.518  0.014665331  0.013153889         3974 
 4618000   0.51317411   -7.7536644    814.11517  0.014690977  0.013149348         3971 
 4619000   0.51219352   -7.7470028    813.44891  0.014675776  0.013144806         3974 
 4620000   0.52252994   -7.7457919    815.28761  0.014705765  0.013140268         3971 
 4621000   0.51499019   -7.7503061      813.068  0.014662555  0.013135733         3977 
 4622000   0.51208072   -7.7429967    813.39785   0.01466533    0.0131312         3975 
 4623000   0.52140137    -7.748991    812.46718  0.014645381  0.013126668         3972 
 4624000   0.51287907    -7.762329    813.89367  0.014667922  0.013122141         3970 
 4625000   0.51858003   -7.7557177    812.17121  0.014633715  0.013117609         3975 
 4626000   0.50594932   -7.7636365    813.20813  0.014649231  0.013113084         3970 
 4627000   0.50767461   -7.7640043    815.24915  0.014682824  0.013108561         3973 
 4628000   0.52231786   -7.7518043    814.29088  0.014662397   0.01310404         3971 
 4629000   0.52048688   -7.7469336    812.79404  0.014632283  0.013099521         3968 
 4630000   0.50852277   -7.7475674    813.66381  0.014644777  0.013095001         3972 
 4631000   0.51853117   -7.7581086    813.29383  0.014634957  0.013090485         3965 
 4632000   0.50877473   -7.7548739    813.28187  0.014631582  0.013085973         3970 
 4633000   0.51387815   -7.7482758    814.45244  0.014649479  0.013081458         3971 
 4634000   0.51149164    -7.752801    813.61937  0.014631337   0.01307695         3971 
 4635000   0.50087285   -7.7276505    813.86708  0.014632634  0.013072445         3958 
 4636000   0.51168934   -7.7475559    813.65362   0.01462564  0.013067939         3973 
 4637000    0.5045365   -7.7721703    812.42602  0.014600425  0.013063435         3976 
 4638000   0.50148687   -7.7538153    813.63282   0.01461896   0.01305893         3974 
 4639000   0.51408614   -7.7471851    811.96162  0.014585788  0.013054431         3971 
 4640000   0.50823547   -7.7617197    812.81502  0.014597971  0.013049934         3970 
 4641000    0.5060832   -7.7637453     813.3297  0.014604067   0.01304544         3967 
 4642000    0.5247625   -7.7545028    813.03406  0.014595614  0.013040942         3966 
 4643000   0.51289687   -7.7571515    812.41102  0.014581288   0.01303645         3966 
 4644000   0.51102397   -7.7578482    813.71838  0.014601607  0.013031959         3967 
 4645000   0.51652037   -7.7489536    811.91554   0.01456612  0.013027471         3975 
 4646000   0.50334384   -7.7477602    812.40369  0.014571741  0.013022981         3974 
 4647000    0.5045722   -7.7596249    812.89529  0.014577421  0.013018496         3971 
 4648000   0.51202723   -7.7669406    812.50497  0.014567286  0.013014013         3977 
 4649000   0.50166152   -7.7630352    813.87336  0.014588682  0.013009533         3973 
 4650000   0.50202827   -7.7558095    813.35727  0.014576295  0.013005055         3973 
 4651000   0.51528269   -7.7608048    812.94223  0.014565725  0.013000579         3970 
 4652000   0.51240546    -7.766912    814.30363  0.014586981  0.012996105         3975 
 4653000   0.51794977   -7.7658323    813.63057  0.014571792  0.012991634         3968 
 4654000   0.51071621   -7.7686762    812.49491  0.014548326  0.012987162         3973 
 4655000   0.50162724    -7.749619    813.21689  0.014558125  0.012982692         3967 
 4656000   0.49451948   -7.7746209    814.04658  0.014569849  0.012978221         3968 
 4657000   0.49899331   -7.7689314    813.06291  0.014549118  0.012973755         3974 
 4658000   0.51203571    -7.765943    813.34135  0.014550976  0.012969287         3975 
 4659000   0.50745989   -7.7610099    813.18796  0.014545109  0.012964824         3972 
 4660000   0.50192542   -7.7533548     812.1847  0.014524047  0.012960363         3970 
 4661000   0.49435362   -7.7645886    812.89774  0.014533679  0.012955906         3972 
 4662000   0.50116925   -7.7666996    813.49023  0.014541152  0.012951449         3969 
 4663000   0.51939999   -7.7775428    813.04829  0.014530136  0.012946995         3970 
 4664000   0.51003926   -7.7593443    813.11997  0.014528301  0.012942544         3966 
 4665000   0.50889704   -7.7562388    812.90664  0.014521376  0.012938094         3974 
 4666000   0.49682468   -7.7596651    812.31011   0.01450761  0.012933647         3970 
 4667000    0.5048305   -7.7545497    812.87714  0.014514626  0.012929203         3970 
 4668000   0.50976604   -7.7645393    812.20682   0.01449955  0.012924762         3968 
 4669000   0.50819075   -7.7649125    813.05541  0.014511591  0.012920318         3968 
 4670000   0.49931238   -7.7620099    813.78342  0.014521474  0.012915878         3974 
 4671000   0.50414111   -7.7568386    812.81321  0.014501056  0.012911445         3971 
 4672000   0.49756342   -7.7528175    814.28751  0.014524249  0.012907012         3965 
 4673000   0.49937844   -7.7588186    811.90687  0.014478687  0.012902576         3974 
 4674000   0.49897013   -7.7610739    813.54171  0.014504737  0.012898144         3972 
 4675000   0.49898506   -7.7618196    812.78866  0.014488211  0.012893713         3973 
 4676000   0.51046025   -7.7680551    811.52417  0.014462578  0.012889287         3971 
 4677000    0.5002652   -7.7517394    813.07394  0.014487099  0.012884863         3968 
 4678000   0.49774515   -7.7678176    812.33609  0.014470858  0.012880438         3967 
 4679000   0.51078639   -7.7576148    813.07355    0.0144809  0.012876015         3976 
 4680000   0.50096591   -7.7716031    813.31362   0.01448208  0.012871596         3969 
 4681000   0.51052578   -7.7546321    813.27158  0.014478238  0.012867178         3972 
 4682000   0.48767952   -7.7632758    811.92921  0.014451253  0.012862761         3970 
 4683000   0.50158501    -7.774462    811.71537  0.014444362  0.012858343         3967 
 4684000   0.50713661   -7.7407727    813.39731  0.014471202  0.012853932         3970 
 4685000   0.50854872   -7.7510328    812.30319  0.014448652  0.012849523         3971 
 4686000   0.51113939   -7.7605334    812.90077  0.014456195  0.012845114         3968 
 4687000   0.50138699   -7.7589845    813.08312  0.014456353  0.012840707         3975 
 4688000   0.51602439   -7.7574331     812.7236  0.014446879  0.012836302         3975 
 4689000   0.50672306   -7.7692235     812.5698  0.014441064  0.012831897         3972 
 4690000   0.49009748   -7.7598636    813.13973  0.014448112  0.012827496         3966 
 4691000   0.50637287   -7.7583796    811.98985  0.014424605  0.012823098         3975 
 4692000   0.50674697   -7.7734735    813.71755  0.014452216  0.012818699         3970 
 4693000   0.49706609   -7.7505241    812.99285  0.014436268  0.012814305         3974 
 4694000   0.50890684   -7.7638164     812.6924  0.014427858  0.012809908         3976 
 4695000   0.50037589   -7.7771605    811.85164  0.014409862  0.012805515         3971 
 4696000   0.49240817   -7.7571192    811.73572  0.014404737  0.012801125         3969 
 4697000   0.49736966   -7.7547479    814.20184  0.014445423   0.01279674         3972 
 4698000   0.50423698   -7.7809362    812.28049  0.014408268  0.012792356         3971 
 4699000   0.50381249    -7.758378    812.68221  0.014412326  0.012787972         3972 
 4700000    0.4941238   -7.7694696    814.09997  0.014434397  0.012783588         3970 
 4701000    0.4946705   -7.7688082    811.79665  0.014390496  0.012779207         3968 
 4702000   0.49606601   -7.7743434    814.05966  0.014427543  0.012774827         3971 
 4703000   0.49696554   -7.7788174    811.92046   0.01438657  0.012770449         3969 
 4704000   0.49177691   -7.7846825    812.17029  0.014387937  0.012766073         3973 
 4705000    0.5053073   -7.7618313    811.91525  0.014380362  0.012761698         3975 
 4706000   0.49719791    -7.770404    812.07335  0.014380106  0.012757327         3973 
 4707000   0.50519506   -7.7450121    812.43187  0.014383398  0.012752956         3970 
 4708000   0.50174333   -7.7691047    812.72908  0.014385604  0.012748588         3972 
 4709000   0.49559303   -7.7741694    812.40712  0.014376851  0.012744224         3969 
 4710000   0.50605058   -7.7791226    814.38701  0.014408829  0.012739862         3973 
 4711000   0.50474438   -7.7763974    812.24706  0.014367917  0.012735501         3976 
 4712000   0.49588369   -7.7681256    812.09483  0.014362175  0.012731141         3971 
 4713000   0.50025466   -7.7752008    812.32018  0.014363112  0.012726784         3974 
 4714000   0.49292704   -7.7562812     811.7523  0.014350026  0.012722429         3975 
 4715000   0.49204537   -7.7642235    812.05364  0.014352309  0.012718073         3974 
 4716000   0.49029591   -7.7748369    813.92331  0.014382303  0.012713723         3972 
 4717000   0.50533769   -7.7645783    813.09023  0.014364537  0.012709374         3972 
 4718000   0.49982243   -7.7490662    812.56492  0.014352214  0.012705027         3974 
 4719000   0.50887891   -7.7667584    811.09649  0.014323241  0.012700682         3969 
 4720000   0.49063279   -7.7970833    812.95156  0.014352958  0.012696339         3974 
 4721000   0.49406041   -7.7636781    812.80009  0.014347244  0.012691996         3968 
 4722000   0.50377237   -7.7755795    811.90297  0.014328374  0.012687655         3974 
 4723000   0.49442864   -7.7727221    812.02225  0.014327445  0.012683314         3973 
 4724000   0.48928248   -7.7853724    813.21796  0.014345504  0.012678977         3973 
 4725000   0.50359655    -7.788562      813.022  0.014339012  0.012674643         3977 
 4726000   0.49438166   -7.7695833    812.08451  0.014319448  0.012670309         3972 
 4727000   0.49209447   -7.7645943    811.81923  0.014311742  0.012665979         3973 
 4728000   0.49573481   -7.7858529    812.62285  0.014322879   0.01266165         3971 
 4729000   0.50146192   -7.7739489    812.61555  0.014319721  0.012657323         3975 
 4730000   0.48566834   -7.7741018    812.62385   0.01431684  0.012652995         3972 
 4731000   0.48940671   -7.7663546    812.57181  0.014312897  0.012648674         3976 
 4732000   0.49918064   -7.7709433    812.72265  0.014312529  0.012644354         3970 
 4733000   0.49606764   -7.7573891    811.09645  0.014280873  0.012640035         3970 
 4734000   0.49309056   -7.7711456    812.30349  0.014299104  0.012635714         3971 
 4735000    0.4915173   -7.7747576    812.28812  0.014295813  0.012631399         3967 
 4736000   0.50280144    -7.782379       811.84   0.01428491  0.012627088         3971 
 4737000   0.49386133   -7.7663895    811.78805   0.01428098  0.012622776         3973 
 4738000   0.48998298   -7.7810647    811.61135  0.014274858  0.012618465         3971 
 4739000   0.49668228     -7.76958    811.01217   0.01426131  0.012614157         3971 
 4740000   0.49942267   -7.7763786    811.86876  0.014273361  0.012609852         3970 
 4741000   0.48652427   -7.7593763    812.60272  0.014283251  0.012605547         3971 
 4742000   0.49363213   -7.7721752    811.81476  0.014266392  0.012601245         3971 
 4743000   0.48806973   -7.7636944    813.57606   0.01429433  0.012596945         3961 
 4744000   0.48942599   -7.7721343     812.3012  0.014268922  0.012592646         3973 
 4745000   0.48905704   -7.7590093    811.45456  0.014251046   0.01258835         3973 
 4746000   0.48937621   -7.7653733    813.02626   0.01427564  0.012584057         3971 
 4747000   0.50311376   -7.7860306    811.88664  0.014252627  0.012579763         3975 
 4748000   0.48742293   -7.7626678    812.59994  0.014262144  0.012575472         3973 
 4749000   0.49167597   -7.7807986    810.78425   0.01422728  0.012571183         3970 
 4750000   0.49184043   -7.7852264    811.99068   0.01424545  0.012566896         3964 
 4751000   0.50246931   -7.7840981    811.34651  0.014231153  0.012562611         3975 
 4752000   0.49189783   -7.7844365    811.31312  0.014227573  0.012558326         3968 
 4753000   0.50874762   -7.7806465     811.9879   0.01423641  0.012554044         3972 
 4754000   0.49007972   -7.7665639    812.94701  0.014250228  0.012549768         3972 
 4755000   0.50072109   -7.7687161    811.90766  0.014229016  0.012545489         3962 
 4756000   0.48706034   -7.7824978    812.95686  0.014244408  0.012541215         3969 
 4757000   0.49497086   -7.7652472     812.7028  0.014236963  0.012536941         3972 
 4758000   0.48367965   -7.7708187    811.29957  0.014209394   0.01253267         3977 
 4759000   0.49114398   -7.7673222    811.76643  0.014214583    0.0125284         3970 
 4760000   0.48108477    -7.788198    811.20021  0.014201684  0.012524129         3970 
 4761000   0.49335986   -7.7726793    812.10516  0.014214541  0.012519862         3971 
 4762000   0.48693779   -7.7778346    812.56461  0.014219596  0.012515596         3974 
 4763000   0.48467332   -7.7717191     812.4716  0.014214984  0.012511334         3968 
 4764000   0.48157274   -7.7727559    811.50169  0.014195034  0.012507074         3971 
 4765000   0.49180234   -7.7778046    811.01355  0.014183518  0.012502814         3969 
 4766000   0.49531478   -7.7845796    811.54614  0.014189854  0.012498557         3976 
 4767000   0.48196705   -7.7766308    810.53651  0.014169228  0.012494299         3968 
 4768000   0.48940675   -7.7691976    812.10033  0.014193588  0.012490045         3972 
 4769000   0.49454007     -7.79236    811.44507  0.014179162  0.012485794         3973 
 4770000   0.48220304   -7.7896563    812.81513  0.014200124  0.012481546         3975 
 4771000   0.49181006    -7.781401     811.3353  0.014171301  0.012477299         3973 
 4772000   0.48099323   -7.7848491    813.23973  0.014201588  0.012473052         3974 
 4773000   0.49569899   -7.7747721    811.47184  0.014167746  0.012468805         3968 
 4774000   0.47921363    -7.778922    812.07429  0.014175295   0.01246456         3972 
 4775000   0.48509514   -7.7879661     812.3335   0.01417685   0.01246032         3973 
 4776000   0.48767853   -7.7894048    811.98435  0.014167789  0.012456082         3974 
 4777000   0.49281857   -7.7824977    812.04926  0.014165956  0.012451842         3975 
 4778000   0.47553562   -7.7664681    810.92602  0.014143401  0.012447608         3970 
 4779000   0.49461858   -7.7921738    811.29082  0.014146802  0.012443377         3959 
 4780000   0.48834996   -7.7844022    811.76048  0.014152031  0.012439148         3973 
 4781000   0.49482462   -7.7877495    810.21296  0.014122097   0.01243492         3963 
 4782000   0.48839018   -7.7748146    811.56664  0.014142734  0.012430689         3970 
 4783000   0.49270188   -7.7883885    811.91666  0.014145875  0.012426464         3970 
 4784000   0.48023196   -7.7948126    812.52907  0.014153586  0.012422241         3970 
 4785000   0.47437788   -7.7786916    811.06513  0.014125133  0.012418017         3972 
 4786000   0.49995238   -7.7795611      811.142   0.01412352  0.012413797         3968 
 4787000   0.47790423   -7.7666079    811.65333  0.014129471  0.012409578         3968 
 4788000   0.49460263   -7.7829206    811.49735  0.014123805   0.01240536         3976 
 4789000   0.48731817   -7.7673207    812.07702  0.014130943  0.012401145         3968 
 4790000   0.49084618   -7.7926098    811.58723  0.014119472  0.012396931         3974 
 4791000   0.47967619   -7.7898762    811.46631  0.014114421  0.012392719         3968 
 4792000    0.4915962   -7.7840957    812.20581  0.014124336  0.012388512         3970 
 4793000   0.49013303   -7.7866729    811.24556  0.014104694  0.012384304         3971 
 4794000   0.49511475   -7.7718311    811.08701  0.014098995  0.012380099         3969 
 4795000   0.48958235   -7.7806601    811.79734    0.0141084  0.012375892         3975 
 4796000   0.48850279   -7.7842001    812.62353  0.014119814  0.012371688         3966 
 4797000   0.48440034   -7.7777208    811.33954  0.014094565  0.012367485         3972 
 4798000   0.47433491   -7.7863939    812.36591  0.014109454  0.012363286         3972 
 4799000   0.47416334   -7.7678542    809.90211   0.01406373  0.012359091         3973 
 4800000    0.4739272   -7.7934579    812.03373  0.014097808  0.012354897         3971 
 4801000   0.47686105   -7.7704123    811.23929  0.014081082  0.012350703         3967 
 4802000   0.48124743   -7.7808598    810.56526  0.014066453  0.012346513         3971 
 4803000   0.48968315   -7.8024955    811.44216  0.014078738  0.012342321         3975 
 4804000   0.48284657   -7.7936818    812.56344  0.014095258  0.012338135         3971 
 4805000   0.49053841   -7.7889645    812.42667  0.014089953  0.012333951         3972 
 4806000   0.47971343   -7.7832382    811.97009  0.014079104  0.012329767         3971 
 4807000   0.49085059   -7.7813826    812.12084  0.014078789  0.012325584         3973 
 4808000   0.46703054   -7.7818881     811.2435  0.014060654  0.012321403         3977 
 4809000   0.47439368   -7.7865701    810.91976   0.01405212  0.012317225         3970 
 4810000   0.47509826   -7.7988407    812.82302  0.014082173  0.012313046         3972 
 4811000    0.4882444   -7.7904765    811.95651  0.014064237  0.012308872         3975 
 4812000   0.48697641   -7.8114593    811.09754  0.014046438  0.012304701         3975 
 4813000   0.48871251   -7.7837931    811.87003  0.014056895  0.012300531         3970 
 4814000   0.49581458   -7.8101349     812.2148  0.014059943  0.012296363         3970 
 4815000   0.48557171   -7.7849523    811.53561  0.014045268  0.012292194         3974 
 4816000   0.48496811   -7.7975185    813.42772  0.014075092  0.012288027         3972 
 4817000   0.47582296   -7.7856492     811.3101  0.014035536  0.012283862         3977 
 4818000    0.4791105   -7.8032659    810.56592  0.014019751  0.012279698         3977 
 4819000   0.47615915   -7.7831162    811.25924  0.014028831  0.012275538         3971 
 4820000    0.4857215   -7.7918714     811.3591  0.014027647  0.012271383         3972 
 4821000   0.47787659   -7.7714116    811.97482   0.01403538  0.012267227         3976 
 4822000   0.47557096   -7.8013519    810.69005  0.014010266  0.012263072         3974 
 4823000   0.47839206   -7.7910047    810.82922  0.014009766  0.012258919         3974 
 4824000   0.47798257    -7.793119    812.39788   0.01403396  0.012254769         3972 
 4825000   0.47722796   -7.7848634    812.42631  0.014031543   0.01225062         3973 
 4826000   0.47481457   -7.7906265    812.38266  0.014027881  0.012246473         3978 
 4827000   0.48080362   -7.7998314    812.21628  0.014022103  0.012242327         3972 
 4828000   0.48771675    -7.796315    810.82952  0.013995262  0.012238183         3977 
 4829000   0.47568546   -7.8064193    812.68804  0.014024436  0.012234042         3969 
 4830000   0.47020482   -7.7872257    810.30681  0.013980449  0.012229899         3968 
 4831000   0.48131451   -7.7685063    811.96159  0.014006099   0.01222576         3973 
 4832000   0.47038444   -7.7899074    810.84837  0.013984002  0.012221624         3975 
 4833000    0.4799243   -7.7934031    811.30706  0.013989018  0.012217489         3973 
 4834000   0.47689428    -7.816102    811.96972  0.013997547  0.012213356         3967 
 4835000   0.45811814   -7.7841447    810.78948   0.01397431  0.012209222         3973 
 4836000   0.48399774   -7.7998986    811.98402  0.013992005  0.012205092         3970 
 4837000   0.46894969   -7.7916097    811.59924  0.013982483  0.012200964         3969 
 4838000   0.48215382   -7.7932181    812.07489  0.013987786  0.012196839         3970 
 4839000   0.47983042   -7.7945696     810.9353   0.01396527  0.012192712         3976 
 4840000   0.47879919   -7.8246444    811.39715  0.013970337  0.012188587         3976 
 4841000   0.47418373     -7.78718    811.59653  0.013970883  0.012184467         3972 
 4842000   0.47831514   -7.7966487    809.94612  0.013939593  0.012180346         3970 
 4843000   0.47481338   -7.8026793    811.06318  0.013955936  0.012176232         3973 
 4844000   0.48277313    -7.810677    812.55875  0.013978784  0.012172115         3973 
 4845000   0.48943133   -7.7885662    811.85349  0.013963768  0.012168002         3975 
 4846000   0.48022713   -7.7961569    811.47428  0.013954366  0.012163888         3974 
 4847000   0.48352652   -7.7985078    812.11708  0.013962538  0.012159779         3973 
 4848000   0.47508283   -7.8015619    811.05134  0.013941339  0.012155668         3973 
 4849000   0.46068092    -7.781928     812.6277  0.013965555  0.012151563         3976 
 4850000   0.47452694   -7.7863546    811.08539  0.013936175  0.012147458         3973 
 4851000   0.46760185   -7.8058158    810.37283  0.013921061  0.012143355         3971 
 4852000   0.46298769   -7.7932704    812.52397  0.013955138  0.012139252         3975 
 4853000   0.47190548   -7.8063506    811.15431  0.013928744  0.012135151         3976 
 4854000   0.48199854    -7.817689    810.92491  0.013921936  0.012131053         3975 
 4855000   0.46800769   -7.7946151    811.80762  0.013934219  0.012126958         3976 
 4856000   0.47799161   -7.7948379    810.91049  0.013915954  0.012122862         3972 
 4857000   0.47506323   -7.7820129    810.86933  0.013912383  0.012118768         3970 
 4858000    0.4796787   -7.8048279    811.23553  0.013915801  0.012114677         3974 
 4859000    0.4838062   -7.8054952    811.58199  0.013918879  0.012110589         3972 
 4860000    0.4678318   -7.7972828    810.35795  0.013895027  0.012106502         3976 
 4861000    0.4754504   -7.7996719    811.41082  0.013910218  0.012102417         3975 
 4862000     0.480757   -7.8200839    811.71552  0.013912579  0.012098331         3976 
 4863000    0.4804572   -7.7846747    811.21803  0.013901193  0.012094251         3972 
 4864000   0.46963817   -7.8086818    811.52396  0.013903577  0.012090171         3969 
 4865000   0.46569251   -7.7959814    811.93756  0.013907803  0.012086093         3975 
 4866000    0.4723909   -7.7919066    811.38125  0.013895418  0.012082013         3973 
 4867000   0.46739833   -7.7983939    811.55166  0.013895481  0.012077939         3975 
 4868000   0.47537841    -7.795828    810.77264  0.013879291  0.012073867         3974 
 4869000   0.47750749   -7.7962388    811.06257  0.013881402  0.012069796         3975 
 4870000   0.48575959   -7.7963909    809.92003  0.013859001  0.012065726         3974 
 4871000   0.46612074   -7.8033934    811.59432    0.0138848   0.01206166         3969 
 4872000   0.46969548   -7.7982682     811.1934  0.013875092  0.012057595         3973 
 4873000   0.47546628   -7.8017255    810.04867  0.013852669  0.012053533         3975 
 4874000   0.46645135    -7.803565    810.74622  0.013861753  0.012049472         3970 
 4875000   0.46821852   -7.8063214     810.9676  0.013862694  0.012045412         3967 
 4876000   0.47708479   -7.7957203    811.53014  0.013869465   0.01204135         3973 
 4877000   0.46661563   -7.7850249    810.55538  0.013849965  0.012037295         3973 
 4878000   0.48514998   -7.8049036    811.12086  0.013856787  0.012033239         3974 
 4879000   0.47687194   -7.8106475    810.62168   0.01384542  0.012029187         3976 
 4880000   0.46945139   -7.7943878    812.99581  0.013883125  0.012025137         3975 
 4881000   0.46076128   -7.8112133    810.54433  0.013838427  0.012021086         3972 
 4882000   0.47684497   -7.8067982    811.52488   0.01385233  0.012017038         3971 
 4883000   0.46121385    -7.806996    810.30557  0.013828684  0.012012988         3974 
 4884000   0.46341499   -7.8121322    811.12611  0.013839853  0.012008943         3975 
 4885000   0.47018707   -7.8033317    809.79514  0.013814315  0.012004902         3973 
 4886000   0.46359154   -7.8121182    810.81377  0.013828861  0.012000863         3971 
 4887000   0.47678681   -7.7968936    810.40319   0.01381903  0.011996823         3977 
 4888000   0.47595574   -7.8204263    810.30047  0.013814452  0.011992785         3971 
 4889000   0.47161912   -7.8032301    810.15171   0.01380909  0.011988746         3974 
 4890000   0.47371955    -7.796431    809.96629  0.013803106  0.011984714         3972 
 4891000   0.46426045   -7.8019079    810.22733  0.013804732  0.011980683         3974 
 4892000   0.46746887   -7.8085473    811.48049  0.013823257  0.011976653         3972 
 4893000   0.46728494   -7.7892009    811.10421  0.013814024  0.011972624         3970 
 4894000   0.46135635    -7.797043    812.03442   0.01382704  0.011968597         3971 
 4895000   0.45910876   -7.8099082     812.4738  0.013831696  0.011964572         3970 
 4896000   0.47083821   -7.7964949    811.68344  0.013815418   0.01196055         3969 
 4897000   0.47117968   -7.8033129    810.29288  0.013788933  0.011956527         3967 
 4898000   0.46740057     -7.80389    810.84968  0.013795591  0.011952506         3971 
 4899000   0.46444673   -7.8131646    811.38587  0.013801896  0.011948488         3966 
 4900000   0.46778848   -7.8094232     811.3869  0.013799097   0.01194447         3969 
 4901000    0.4641798   -7.8135815    811.66462  0.013801004  0.011940455         3974 
 4902000    0.4674637   -7.7966998    809.90373  0.013768253  0.011936441         3975 
 4903000   0.47044183   -7.8179266    811.98354  0.013800794  0.011932429         3965 
 4904000   0.47407151   -7.8000834    810.29984  0.013769369   0.01192842         3968 
 4905000   0.45854977   -7.8008867    811.59001  0.013788481  0.011924411         3972 
 4906000    0.4668018    -7.792462    811.47334  0.013783689  0.011920408         3963 
 4907000   0.47672669    -7.796961    808.25974  0.013726305  0.011916405         3971 
 4908000   0.47323483   -7.8202613    811.03428  0.013770617  0.011912403         3970 
 4909000   0.47102937   -7.8262534    812.41279  0.013791213    0.0119084         3972 
 4910000   0.46555223   -7.8068186    810.64581  0.013758415  0.011904402         3973 
 4911000   0.46156995   -7.8020811    810.82452  0.013758646  0.011900407         3975 
 4912000   0.46418578   -7.8064553    810.75634  0.013754688   0.01189641         3970 
 4913000   0.46686514   -7.8114248    810.75945  0.013751941  0.011892416         3975 
 4914000    0.4742637   -7.8003748    810.64755  0.013747245  0.011888422         3972 
 4915000   0.47003882   -7.8096823    810.72622  0.013745782  0.011884433         3973 
 4916000   0.45997845   -7.8007309    810.90084  0.013745946  0.011880444         3973 
 4917000   0.46865408   -7.8088806    811.40855  0.013751755  0.011876457         3959 
 4918000   0.46636357   -7.8053046    810.14259  0.013727508  0.011872471         3975 
 4919000   0.47124443   -7.8043313     810.7586  0.013735153  0.011868486         3969 
 4920000   0.45451787   -7.8167402     810.8381  0.013733708  0.011864503         3975 
 4921000   0.46671474   -7.8126882    810.54332  0.013725925  0.011860524         3975 
 4922000   0.45235198   -7.7996286    810.57427   0.01372366  0.011856546         3970 
 4923000   0.46669123   -7.8228537    809.39335  0.013700883   0.01185257         3972 
 4924000   0.46321655   -7.8179802     810.8207  0.013722257  0.011848598         3978 
 4925000   0.45960931   -7.8170754    811.98011  0.013739088  0.011844625         3972 
 4926000   0.45394585   -7.8187939    810.16494  0.013705592  0.011840653         3977 
 4927000   0.44942919   -7.8219509    811.04415  0.013717681  0.011836683         3973 
 4928000   0.47682647   -7.8171202    811.05565  0.013715091  0.011832715         3972 
 4929000   0.47023182   -7.8189495    810.64498  0.013705366   0.01182875         3971 
 4930000   0.46712729   -7.8058763    810.01674  0.013691966  0.011824785         3973 
 4931000   0.45380719   -7.8218203    810.12452  0.013691011  0.011820823         3974 
 4932000   0.46190123    -7.818895     810.1212  0.013688179  0.011816862         3970 
 4933000     0.476047   -7.8109985     809.3536  0.013672437  0.011812903         3974 
 4934000   0.45908794   -7.8048742    810.39926  0.013687327  0.011808944         3974 
 4935000   0.47243931   -7.8010069    809.80349  0.013674493  0.011804987         3979 
 4936000    0.4656117   -7.8210518    811.32891  0.013697476  0.011801031         3972 
 4937000   0.45750601   -7.7998858    809.50737  0.013663955  0.011797081         3971 
 4938000   0.45820688   -7.8075156    810.43545   0.01367685   0.01179313         3969 
 4939000   0.45724402   -7.7954497    810.57695  0.013676469  0.011789183         3971 
 4940000   0.46979248   -7.8058806    810.45598   0.01367166  0.011785234         3972 
 4941000   0.45374535   -7.8235834    810.38178  0.013667641  0.011781287         3972 
 4942000   0.45989574   -7.8099959    811.58744  0.013685206  0.011777344         3972 
 4943000   0.45979472   -7.7977794    809.61053  0.013649109  0.011773401         3972 
 4944000   0.45894026   -7.8190623    811.47935  0.013677848   0.01176946         3970 
 4945000   0.46024062   -7.8152037    810.30842  0.013655349   0.01176552         3967 
 4946000   0.45661701    -7.806444    810.93612  0.013663164  0.011761582         3974 
 4947000   0.45817721   -7.8110395    810.04119  0.013645327  0.011757647         3970 
 4948000   0.46058735   -7.8150521    809.84473   0.01363926  0.011753716         3976 
 4949000   0.46499076   -7.8149636    810.13191   0.01364134  0.011749782         3974 
 4950000   0.46111406   -7.8239236    809.43062  0.013626778   0.01174585         3969 
 4951000   0.46721447   -7.8230886    811.54885  0.013659679  0.011741921         3972 
 4952000   0.46039438   -7.8021808    810.21671  0.013634503  0.011737994         3970 
 4953000   0.45856412   -7.8238193    810.34773  0.013633955  0.011734069         3970 
 4954000   0.46149808   -7.8184909     810.7923  0.013638681  0.011730148         3972 
 4955000   0.45430449   -7.8170246    811.54727  0.013648626  0.011726226         3970 
 4956000   0.45560526   -7.8287993    809.90756    0.0136183  0.011722305         3973 
 4957000   0.45786456   -7.8026169    808.83073   0.01359745  0.011718387         3974 
 4958000   0.45108192   -7.8149521    810.02057  0.013614706   0.01171447         3974 
 4959000   0.46686511   -7.8106095    809.21781  0.013598471  0.011710555         3973 
 4960000   0.45001065   -7.8149075    810.35914  0.013614905  0.011706643         3975 
 4961000   0.45781493   -7.8215697    810.94787   0.01362205  0.011702731         3973 
 4962000   0.45991731   -7.8192884    810.84811  0.013617629  0.011698821         3972 
 4963000   0.47305864    -7.812504    810.50423  0.013609111  0.011694913         3972 
 4964000   0.45879888   -7.8177021    809.78149  0.013594237  0.011691008         3976 
 4965000   0.45499039   -7.8155177    810.44515  0.013602638  0.011687105         3968 
 4966000   0.45572825   -7.8032311    808.93657  0.013574583  0.011683201         3977 
 4967000   0.46038828   -7.8205016    809.15511  0.013575517    0.0116793         3975 
 4968000     0.440719    -7.811925    810.13895  0.013589287  0.011675399         3977 
 4969000   0.45574489   -7.8191255    809.82263  0.013581248    0.0116715         3970 
 4970000   0.46715202   -7.8197898    811.57559  0.013607907  0.011667606         3974 
 4971000   0.45193735   -7.8129025    810.99016  0.013595356  0.011663712         3976 
 4972000   0.45336615   -7.8099828    809.64231  0.013570031  0.011659819         3974 
 4973000   0.45152059   -7.8089667    809.96092  0.013572641  0.011655927         3969 
 4974000   0.46913997   -7.8139622    809.89238  0.013568764  0.011652037         3974 
 4975000   0.43949056   -7.8296426    810.61694  0.013578173   0.01164815         3979 
 4976000   0.46042735   -7.8264168    810.18368  0.013568189  0.011644264         3971 
 4977000   0.46121304   -7.8175405    809.78333  0.013558759  0.011640379         3976 
 4978000   0.45539671    -7.820182    810.26739  0.013564139  0.011636493         3974 
 4979000   0.45472935   -7.8312859    810.69968   0.01356865  0.011632609         3973 
 4980000   0.45211289   -7.8143546    809.74371  0.013549928  0.011628729         3975 
 4981000   0.46233444   -7.8245913    810.44082  0.013558871   0.01162485         3969 
 4982000    0.4566833   -7.8179445    808.32704  0.013520792  0.011620972         3977 
 4983000   0.45043941   -7.8238457    809.36574   0.01353545  0.011617099         3978 
 4984000   0.44317104     -7.82103    810.35219  0.013549227  0.011613227         3972 
 4985000   0.46118862   -7.8407348    810.18434  0.013543703  0.011609355         3976 
 4986000   0.44734603   -7.8037817    810.07498  0.013539159  0.011605486         3970 
 4987000   0.45703275   -7.8243597    809.74268  0.013530892  0.011601618         3975 
 4988000   0.44832595   -7.8310132    809.98089  0.013532159  0.011597752         3972 
 4989000   0.45414931   -7.8217082    809.55999  0.013522416  0.011593887         3970 
 4990000   0.44690828   -7.8166033    809.62593  0.013520807  0.011590024         3974 
 4991000   0.44325845   -7.8258023    808.97809  0.013507281  0.011586162         3974 
 4992000   0.46149155   -7.8268335    810.63459  0.013532228  0.011582301         3969 
 4993000   0.45722028   -7.8121566    809.52814  0.013511051  0.011578445         3973 
 4994000   0.44892817   -7.8234365    810.36295  0.013522276  0.011574591         3974 
 4995000   0.45383379   -7.8305727    810.34169  0.013519214  0.011570736         3973 
 4996000    0.4542507   -7.8301684    810.71315  0.013522704  0.011566883         3973 
 4997000   0.45225482   -7.8298934    809.64022  0.013502105  0.011563031         3976 
 4998000   0.46229612   -7.8262885    810.02441  0.013505809  0.011559181         3976 
 4999000    0.4454332   -7.8286752    810.17339  0.013505591  0.011555334         3972 
 5000000   0.45932318   -7.8186929    809.51468  0.013491911  0.011551487         3974 
 5001000   0.44022328   -7.8358398    810.69464  0.013508876  0.011547645         3972 
 5002000   0.45526441   -7.8194983     810.5134  0.013503155  0.011543802         3976 
 5003000   0.45765931   -7.8376973     810.4135  0.013498792  0.011539961         3976 
 5004000   0.45111948   -7.8275607    809.67509  0.013483798  0.011536121         3972 
 5005000    0.4497388   -7.8316349    810.01544   0.01348677  0.011532285         3977 
 5006000   0.45327207   -7.8358885    810.20087  0.013487163  0.011528448         3975 
 5007000   0.46098068   -7.8437804    809.90348   0.01347952  0.011524614         3973 
 5008000   0.44579305    -7.844596    809.96086  0.013477783  0.011520781         3974 
 5009000   0.44845527   -7.8286234    808.55792  0.013451752  0.011516948         3970 
 5010000   0.44085682   -7.8297931    810.19852  0.013476356  0.011513118         3975 
 5011000   0.44710854    -7.828169    810.25976  0.013474685  0.011509293         3973 
 5012000    0.4466991   -7.8229041    810.67215  0.013478853  0.011505467         3976 
Loop time of 10608.8 on 48 procs for 5000000 steps with 4000 atoms

Performance: 81441.885 tau/day, 471.307 timesteps/s
99.4% CPU use with 48 MPI tasks x no OpenMP threads

MPI task timing breakdown:
Section |  min time  |  avg time  |  max time  |%varavg| %total
---------------------------------------------------------------
Pair    | 680.18     | 705.29     | 731.96     |  50.0 |  6.65
Neigh   | 66.197     | 67.478     | 70.241     |  10.0 |  0.64
Comm    | 563.26     | 596.93     | 623.2      |  62.1 |  5.63
Output  | 15.033     | 15.038     | 15.116     |   0.3 |  0.14
Modify  | 9066.7     | 9108.6     | 9161.4     |  23.2 | 85.86
Other   |            | 115.5      |            |       |  1.09

Nlocal:        83.3333 ave          88 max          79 min
Histogram: 1 3 9 5 8 8 5 3 5 1
Nghost:        1756.12 ave        1769 max        1741 min
Histogram: 1 3 6 5 5 9 5 8 2 4
Neighs:        10516.8 ave       11131 max        9869 min
Histogram: 4 4 5 3 4 10 4 5 6 3
FullNghs:      21033.8 ave       22334 max       19876 min
Histogram: 4 5 7 2 9 4 7 5 3 2

Total # of neighbors = 1009621
Ave neighs/atom = 252.40525
Neighbor list builds = 270063
Dangerous builds = 0

#clear
#
#next RN
#
#jump SELF
Total wall time: 2:56:51
