
units lj                  # Use reduced LJ style units
atom_style atomic         # Uncharged point particles
atom_modify map hash      # Needed for indexing of clusters etc
                          # Used to be able to find where atoms are in relation to each other.

lattice fcc 1.0 spacing 1 1 1
Lattice spacing in x,y,z = 1.5874011 1.5874011 1.5874011
region box block 0 10 0 10 0 10 units lattice
create_box 2 box
Created orthogonal box = (0.0000000 0.0000000 0.0000000) to (15.874011 15.874011 15.874011)
  3 by 4 by 4 MPI processor grid
create_atoms 1 box
Created 4000 atoms
  using lattice units in orthogonal box = (0.0000000 0.0000000 0.0000000) to (15.874011 15.874011 15.874011)
  create_atoms CPU = 0.005 seconds
set type 1 type/fraction 2 0.1 78393
Setting atom values ...
  435 settings made for type/fraction
mass 1 1.0
mass 2 1.0
pair_style lj/cut  3.5
pair_modify tail  yes
pair_coeff 1  1  1.0  1.0   # Intearaction between 1 and 1 set with epsilon = 1 and sigma = 1
pair_coeff 1  2  1.5  0.8
pair_coeff 2  2  0.5  0.88

write_data data.0
System init for write_data ...
Neighbor list info ...
  update every 1 steps, delay 10 steps, check yes
  max neighbors/atom: 2000, page size: 100000
  master list distance cutoff = 3.8
  ghost atom cutoff = 3.8
  binsize = 1.9, bins = 9 9 9
  1 neighbor lists, perpetual/occasional/extra = 1 0 0
  (1) pair lj/cut, perpetual
      attributes: half, newton on
      pair build: half/bin/atomonly/newton
      stencil: half/bin/3d
      bin: standard
WARNING: Not all mixed pair coeffs generated from mixing. Use write_data with 'pair ij' option to store all pair coeffs. (../write_data.cpp:312)


#############################
#   M E L T   S Y S T E M   #
#############################

velocity all create 2.4 1741580 mom yes dist gaussian # Assign velocities
                                                    # Temperature 2.4, random number seed, zero linear momentum
                                                                                # Gaussian distribution

timestep 0.002   # simulation timestep
thermo 1000       # output thermodynamic data every 1000 steps bf 100

# Define a fix  in this case with index 1 applied to all
# particles in the simulation. This fix is for simulations
# in the anisotropic NPT ensemble. Note that we use the MTK
# correction.
fix 1 all npt temp 2.4 2.4 0.1 iso 5.68 5.68 0.5 mtk yes tchain 5 pchain 5 # Use NPT ensemble
                                                                         # Set temperature and pressure and damping
                                                                         # Numbers of thermostats in chain and in barostat
run 10000          # run for 10000 steps
Per MPI rank memory allocation (min/avg/max) = 3.642 | 3.644 | 3.648 Mbytes
Step Temp E_pair E_mol TotEng Press Volume 
       0          2.4   -7.6732445            0   -4.0741445   -3.0506691         4000 
    1000     2.400109   -4.5803983            0  -0.98113485    5.7310192    4838.6961 
    2000    2.4318343   -4.6249228            0  -0.97808338    5.9707943    4789.8705 
    3000     2.405053   -4.6709925            0   -1.0643149     5.686881    4790.2427 
    4000    2.4022876    -4.669745            0   -1.0672144    5.7117945    4794.2816 
    5000    2.3717438   -4.6479641            0   -1.0912378    5.4331512    4832.4138 
    6000    2.4119072   -4.6065899            0  -0.98963357    5.7700967    4822.6553 
    7000    2.3390241   -4.6301814            0   -1.1225223     5.477578    4844.0449 
    8000    2.4146307   -4.6437923            0   -1.0227516    5.5924619    4827.2997 
    9000    2.3754856   -4.6718736            0    -1.109536    5.5977559    4803.5806 
   10000    2.4518261   -4.6952167            0   -1.0183971    5.6715249    4791.6842 
Loop time of 2.21464 on 48 procs for 10000 steps with 4000 atoms

Performance: 780263.392 tau/day, 4515.413 timesteps/s
99.4% CPU use with 48 MPI tasks x no OpenMP threads

MPI task timing breakdown:
Section |  min time  |  avg time  |  max time  |%varavg| %total
---------------------------------------------------------------
Pair    | 0.90834    | 0.96917    | 1.0615     |   3.1 | 43.76
Neigh   | 0.19323    | 0.19935    | 0.21789    |   1.1 |  9.00
Comm    | 0.66594    | 0.77103    | 0.84629    |   4.1 | 34.82
Output  | 0.00024484 | 0.00025135 | 0.00031674 |   0.0 |  0.01
Modify  | 0.23307    | 0.25963    | 0.29612    |   2.6 | 11.72
Other   |            | 0.01521    |            |       |  0.69

Nlocal:        83.3333 ave          91 max          75 min
Histogram: 2 4 2 6 4 10 12 2 5 1
Nghost:        1455.52 ave        1474 max        1432 min
Histogram: 1 3 6 1 4 10 9 7 2 5
Neighs:        7939.31 ave        8808 max        6937 min
Histogram: 2 0 4 4 8 11 10 5 3 1

Total # of neighbors = 381087
Ave neighs/atom = 95.271750
Neighbor list builds = 905
Dangerous builds = 208

# Equilibrate just above the melting temperature to avoid step fn in T

fix 1 all npt temp 1.25 1.25 0.1 iso 5.68 5.68 0.5 mtk yes tchain 5 pchain 5
run 2000
Per MPI rank memory allocation (min/avg/max) = 3.642 | 3.644 | 3.648 Mbytes
Step Temp E_pair E_mol TotEng Press Volume 
   10000    2.4518261   -4.6952167            0   -1.0183971    5.6715249    4791.6842 
   11000    1.2319777   -6.2278148            0   -4.3803104    5.5842548    3974.6993 
   12000    1.2434547    -6.231691            0   -4.3669752    5.3011907     3992.084 
Loop time of 0.494593 on 48 procs for 2000 steps with 4000 atoms

Performance: 698756.344 tau/day, 4043.729 timesteps/s
99.6% CPU use with 48 MPI tasks x no OpenMP threads

MPI task timing breakdown:
Section |  min time  |  avg time  |  max time  |%varavg| %total
---------------------------------------------------------------
Pair    | 0.20476    | 0.22902    | 0.26236    |   1.8 | 46.30
Neigh   | 0.032568   | 0.034146   | 0.036508   |   0.5 |  6.90
Comm    | 0.14955    | 0.17188    | 0.20469    |   2.8 | 34.75
Output  | 5.2746e-05 | 5.4044e-05 | 6.855e-05  |   0.0 |  0.01
Modify  | 0.041501   | 0.054922   | 0.06611    |   2.7 | 11.10
Other   |            | 0.004569   |            |       |  0.92

Nlocal:        83.3333 ave          92 max          76 min
Histogram: 2 3 3 13 5 10 5 4 2 1
Nghost:        1643.85 ave        1665 max        1612 min
Histogram: 2 0 3 1 9 7 11 6 5 4
Neighs:        9558.21 ave       10650 max        8624 min
Histogram: 4 1 4 12 7 6 9 2 2 1

Total # of neighbors = 458794
Ave neighs/atom = 114.69850
Neighbor list builds = 144
Dangerous builds = 7

#############################
# L I N E A R  Q U E N C H  #
#############################

# Define solid atoms. This closely follows ten Wolde  Ruiz-Montero and Frenkel  Faraday Discuss  1996  104  93-110
# Compute components of the per-atom q6 vector
compute q6 all orientorder/atom degrees 1 6 components 6 nnn NULL cutoff 1.3 # compute the Q6 parameter.
                                                                             # Use all neighbours within 1.3 unit cell.

# get number of connections
compute coord_number all coord/atom orientorder q6 0.5

# An atom is solid if it has 8 or more connections (of a possible 14)
variable is_solid atom c_coord_number>=8
group solid dynamic all var is_solid    # Must be dynamic to update
dynamic group solid defined

# do clustering
compute cluster solid cluster/atom 1.3 # Create a cluster where all atoms within are solid and max 1.3 units from another member

# define chunks one chunk per cluster
compute clus_chunks solid chunk/atom c_cluster nchunk every compress yes  # Says which atoms are in which chunk

# count the size of each chunk
compute size_chunks solid property/chunk clus_chunks count


# Find the maximum entry in the vector of chunk sizes
variable max_n equal max(c_size_chunks)


# Thermo style which includes this variable
# thermo_style custom step temp pe vol v_max_n

thermo ${N}  # Print the thermo information every 100 steps
thermo 1000  

# Reset the npt fix at a lower temperature (below freezing)
fix 1  all npt temp  ${temp} ${temp}  0.1  iso  5.68  5.68  0.5  mtk yes tchain  5  pchain  5
fix 1  all npt temp  0.45 ${temp}  0.1  iso  5.68  5.68  0.5  mtk yes tchain  5  pchain  5
fix 1  all npt temp  0.45 0.45  0.1  iso  5.68  5.68  0.5  mtk yes tchain  5  pchain  5

dump dmp2 all dcd ${N} traj.dcd
dump dmp2 all dcd 1000 traj.dcd


compute msd all msd com yes
variable twopoint equal c_msd[4]/6/(step*dt+1.0e-6)
fix 9 all vector 10 c_msd[4]
variable fit equal slope(f_9)/6/(10*dt)
thermo_style custom step temp pe c_msd[4] v_twopoint v_fit v_max_n

fix 1 all npt temp 1.25 ${temp} 0.1 iso 5.68 5.68 0.5 mtk yes tchain 5 pchain 5
fix 1 all npt temp 1.25 0.45 0.1 iso 5.68 5.68 0.5 mtk yes tchain 5 pchain 5
run 5000000 # 5000000  # Run for this many steps
Neighbor list info ...
  update every 1 steps, delay 10 steps, check yes
  max neighbors/atom: 2000, page size: 100000
  master list distance cutoff = 3.8
  ghost atom cutoff = 3.8
  binsize = 1.9, bins = 9 9 9
  4 neighbor lists, perpetual/occasional/extra = 1 3 0
  (1) pair lj/cut, perpetual
      attributes: half, newton on
      pair build: half/bin/atomonly/newton
      stencil: half/bin/3d
      bin: standard
  (2) compute orientorder/atom, occasional
      attributes: full, newton on
      pair build: full/bin/atomonly
      stencil: full/bin/3d
      bin: standard
  (3) compute coord/atom, occasional
      attributes: full, newton on
      pair build: full/bin/atomonly
      stencil: full/bin/3d
      bin: standard
  (4) compute cluster/atom, occasional
      attributes: full, newton on
      pair build: full/bin/atomonly
      stencil: full/bin/3d
      bin: standard
Per MPI rank memory allocation (min/avg/max) = 9.747 | 9.754 | 9.761 Mbytes
Step Temp PotEng c_msd[4] v_twopoint v_fit v_max_n 
   12000    1.2434547    -6.231691 8.6242218e-31 5.9890427e-33 8.3333333e+20            1 
   13000    1.2653366   -6.2532104   0.57556452  0.003689516  0.047779929            1 
   14000    1.2657966   -6.2759952    1.1350821 0.0067564406  0.047166773            3 
   15000    1.2716091   -6.2519197    1.6408525 0.0091158472  0.046159312            2 
   16000    1.2494642   -6.2433052    2.1582454  0.011240861  0.044915746            5 
   17000    1.2794316   -6.2037339    2.7064014  0.013266673  0.044725482            1 
   18000    1.2551308    -6.251762    3.2123582  0.014872028  0.044435036            2 
   19000    1.2154139   -6.2154102    3.8110736  0.016715235  0.044438543            4 
   20000    1.2490904   -6.1838511    4.4577392  0.018573913   0.04515531            3 
   21000    1.2527029    -6.217223    5.0610395  0.020083489  0.045942183            1 
   22000     1.232488   -6.2617618    5.5919999  0.021181817  0.046282935            2 
   23000    1.2230999   -6.2048246    6.1828157  0.022401506  0.046516405            1 
   24000    1.2510184   -6.2026154    6.7014235  0.023268831   0.04671013            2 
   25000    1.2398611   -6.2121707    7.3210405  0.024403468  0.046810225            1 
   26000    1.2406743   -6.2234822    7.8376477  0.025120665  0.046894779            1 
   27000    1.2377209   -6.2028459    8.3798668  0.025863786  0.046865494            2 
   28000    1.2166357   -6.1936074    8.9307531  0.026579622  0.046781758            2 
   29000    1.2695906   -6.2052073    9.4575138  0.027176763  0.046703687            1 
   30000    1.2639127   -6.2116701    10.042253  0.027895146   0.04668588            2 
   31000    1.2762346   -6.2045564     10.57958   0.02843973  0.046655677            4 
   32000    1.2502566   -6.2331033    11.120005  0.028958347  0.046578929            2 
   33000    1.2530252   -6.2431771    11.643463  0.029402683  0.046510961            2 
   34000    1.2281219   -6.2149096    12.089493   0.02963111  0.046404192            3 
   35000    1.2323629   -6.2190658    12.607828  0.030018637  0.046249531            4 
   36000    1.2090055   -6.2294925    13.174373  0.030496234  0.046131237            6 
   37000    1.2397707   -6.2336034    13.604468  0.030640693  0.046005025            3 
   38000    1.2858148   -6.2458987    14.130089  0.030987037  0.045849181            2 
   39000    1.2570299   -6.2544676    14.660606  0.031326081  0.045712097            7 
   40000    1.2384077   -6.2587352    15.253515  0.031778155  0.045617708            3 
   41000    1.2699936   -6.2626804    15.753465  0.032019238  0.045527187            1 
   42000    1.2605152    -6.220406    16.272978  0.032287655   0.04543384            2 
   43000    1.2407586   -6.1929456    16.847524  0.032650241  0.045366431            3 
   44000    1.2336854   -6.1941108    17.485652  0.033116764  0.045298598            2 
   45000     1.225965   -6.2098878    17.988279  0.033311628  0.045258863            1 
   46000    1.2155284   -6.2382734    18.375178  0.033288365   0.04520091            4 
   47000    1.2364213   -6.2051821    19.020519  0.033724324  0.045136493            2 
   48000    1.2466751   -6.1990579     19.64849  0.034111961  0.045108169            2 
   49000    1.2642312   -6.2683027    19.994985  0.034005076  0.045088932            2 
   50000    1.2430706   -6.2224991    20.526521  0.034210867  0.045029042            1 
   51000    1.2532739   -6.2116063    21.121834    0.0345128  0.044992115            2 
   52000    1.2372826   -6.2140087    21.701659    0.0347783  0.044982568            1 
   53000    1.2677536   -6.2433827    22.293889  0.035053285  0.044984232            3 
   54000    1.2220341   -6.2541686    22.986821   0.03547349  0.045016949            1 
   55000    1.2584922   -6.1804431    23.577914  0.035724112  0.045051678            2 
   56000    1.2422134   -6.2385654    24.012248  0.035732512  0.045072015            1 
   57000    1.2269484   -6.2391114    24.469994  0.035774845  0.045087539            4 
   58000     1.239213   -6.2255574    25.209364   0.03622035  0.045104822            2 
   59000    1.2555558   -6.2485603    25.656183  0.036237547  0.045128642            2 
   60000    1.2431182   -6.2300845    26.439342  0.036721308  0.045162943            3 
   61000    1.2279129   -6.1885761    26.851241  0.036682023  0.045209516            3 
   62000    1.2575136   -6.2156292    27.355384  0.036767989  0.045232739            4 
   63000    1.2362942   -6.2361536    27.911398  0.036919839  0.045259653            2 
   64000    1.2423226   -6.2538825    28.332452  0.036891213  0.045270636            1 
   65000    1.2403214   -6.2366382    28.887344  0.037035057   0.04526885            2 
   66000    1.2403557   -6.2354411    29.448414  0.037182341  0.045261434            1 
   67000    1.2483663     -6.22858    29.840875  0.037115516   0.04525525            2 
   68000    1.2352423   -6.2647323    30.588871  0.037486361  0.045243424            4 
   69000    1.2502421     -6.25994    31.157423  0.037629737  0.045246751            2 
   70000    1.2380151   -6.1763948    31.748267  0.037795556  0.045248339            3 
   71000    1.2397028   -6.2204818    32.175453  0.037764616  0.045250602            2 
   72000    1.2313222   -6.3008559    32.633412  0.037770153   0.04525037            2 
   73000    1.2549342   -6.2207708    33.338998  0.038058216  0.045265502            4 
   74000    1.2391981   -6.2864979    33.979567  0.038265278  0.045292123            2 
   75000    1.2473013   -6.2000666    34.422805  0.038247561  0.045304111            2 
   76000    1.2642913   -6.2674567     34.85303  0.038216042  0.045312395            1 
   77000    1.2309696   -6.2876884    35.486935  0.038405774  0.045324908            3 
   78000    1.2264202   -6.2661642    35.938467  0.038395797   0.04532811            3 
   79000    1.2292506   -6.2709991    36.373607  0.038368784  0.045314396            1 
   80000    1.2583507   -6.2701331    36.601998  0.038127081  0.045283109            2 
   81000    1.2290891   -6.2193382    37.179264  0.038250272  0.045242002            2 
   82000    1.2418175   -6.2223958    37.778253  0.038392534  0.045197822            3 
   83000    1.2233347   -6.2735337     38.19828  0.038351686  0.045155023            4 
   84000    1.2617318    -6.216493    38.886284  0.038577662  0.045115989            1 
   85000    1.2191733   -6.2062364    39.463094  0.038689308  0.045088295            3 
   86000     1.197633    -6.222308    40.024868  0.038783787  0.045071121            2 
   87000    1.2345655    -6.274566    40.633121  0.038920613  0.045057549            4 
   88000    1.2622393   -6.2517771    40.896359  0.038727613  0.045041377            4 
   89000    1.2300618   -6.1908244    41.801437  0.039139922  0.045030076            4 
   90000    1.2168768   -6.2420234    42.162448  0.039039303  0.045017579            2 
   91000    1.2312209   -6.2338371    42.698749  0.039101418  0.045007189            3 
   92000    1.2358018   -6.2372744    43.143205   0.03907899  0.044990714            2 
   93000    1.2392075   -6.2464787    43.514835  0.038991788  0.044969093            3 
   94000    1.2445059   -6.1947934    44.097647  0.039093658  0.044941958            1 
   95000    1.2362033   -6.2752237    44.395423  0.038943353  0.044910947            4 
   96000    1.2275905   -6.2331638    44.992293   0.03905581   0.04487921            3 
   97000     1.246657   -6.2231895    45.561195   0.03914192  0.044843259            2 
   98000    1.2424987   -6.2465918    46.083857  0.039186953  0.044810454            2 
   99000    1.2511175   -6.2287672    46.556953  0.039189354  0.044779787            2 
  100000    1.2489436    -6.272445    46.994742  0.039162285  0.044754328            2 
  101000    1.2316531   -6.2230564     47.61932  0.039289868  0.044726883            3 
  102000    1.2335307   -6.2131677    48.274408  0.039439876  0.044697946            5 
  103000    1.2259108   -6.2673607    48.735023   0.03942963  0.044671632            2 
  104000     1.255552   -6.2391033    49.155185  0.039387167  0.044647711            5 
  105000    1.2123869   -6.2286824    49.876389  0.039584436  0.044626165            4 
  106000    1.2345821   -6.2465959    50.513793  0.039712102  0.044608404            1 
  107000     1.228022   -6.2419266    50.886138  0.039630949  0.044595794            1 
  108000    1.2400186   -6.2995217     51.23918  0.039536404   0.04457168            3 
  109000    1.2277326   -6.2421424    51.925769    0.0396986  0.044555227            2 
  110000    1.2391051   -6.2317112    52.277986  0.039604535  0.044540844            3 
  111000    1.2699438   -6.2770078    52.843212  0.039672081   0.04452538            2 
  112000     1.244231   -6.2176007    53.407406  0.039737653   0.04450906            2 
  113000    1.2450138   -6.2104768    54.105387  0.039900728  0.044494564            2 
  114000    1.2234613   -6.2551718    54.692772  0.039980096  0.044488469            2 
  115000    1.2207981   -6.2677962    55.085976  0.039917373  0.044483761            2 
  116000    1.2432552    -6.220573    55.859226  0.040128754  0.044476056            2 
  117000    1.2030141    -6.247412    56.104773  0.039960665  0.044469701            3 
  118000      1.23717   -6.2572273    56.528241  0.039921074  0.044452771            2 
  119000    1.2181914   -6.2570719    57.152048  0.040022443  0.044432058            3 
  120000    1.2246819   -6.2177378    57.729513   0.04008994  0.044422225            6 
  121000    1.2410358   -6.2583246    58.065023  0.039989685  0.044415428            3 
  122000    1.2316495   -6.2542513    58.590071   0.04002054  0.044398945            3 
  123000    1.2089637   -6.2788228    59.289412  0.040168978  0.044386539            1 
  124000    1.2197651    -6.273045    59.719124   0.04013382  0.044371235            4 
  125000    1.2372039   -6.2548622    60.065692  0.040043795  0.044355234            1 
  126000    1.2598837   -6.2308696    60.954137  0.040313582  0.044338886            2 
  127000    1.2220816   -6.2526925    61.151177  0.040125444  0.044322688            8 
  128000    1.2234737   -6.2833761    61.581506  0.040092126  0.044303688            2 
  129000    1.2525038   -6.2424164    62.082649   0.04010507  0.044282882            2 
  130000    1.2151869   -6.2635066    62.515022  0.040073732  0.044257347            2 
  131000    1.2382952   -6.2352212    63.084438   0.04013005  0.044231338            2 
  132000    1.2546543   -6.2575783    63.484895  0.040078848  0.044207828            2 
  133000    1.2257723   -6.2606817     63.96745  0.040079856  0.044185622            2 
  134000    1.2430152   -6.2877003    64.499607  0.040111696  0.044166101            3 
  135000    1.2215626   -6.2392204    65.232726  0.040267115  0.044153994            5 
  136000    1.2338231     -6.28517    65.808182  0.040323641  0.044143523            3 
  137000    1.2402177   -6.2607008    66.673069  0.040555395  0.044135379            3 
  138000    1.2617594   -6.2376447    67.168383  0.040560618  0.044130417            1 
  139000     1.223541   -6.2299884    67.607396  0.040532012  0.044128878            2 
  140000     1.225609   -6.2721438    68.169781   0.04057725  0.044122454            3 
  141000    1.2387693   -6.2570729    68.640444  0.040567638  0.044119505            3 
  142000     1.234031   -6.2201174    69.720442  0.040915752  0.044120808            2 
  143000    1.2246874   -6.3255497    69.503456  0.040503179  0.044119963            3 
  144000    1.2241872   -6.2651769    70.452739  0.040771261   0.04411053            2 
  145000    1.2048151   -6.2520184    70.425454  0.040474398  0.044103511            4 
  146000    1.2006999   -6.2783927    71.083691  0.040572883  0.044093651            5 
  147000    1.2367383   -6.2415168    71.706728  0.040650073  0.044085478            1 
  148000    1.2417602    -6.241301    71.796147  0.040425758  0.044074169            4 
  149000    1.2384414    -6.223748    72.826028  0.040730441  0.044062244            2 
  150000    1.2297718   -6.2555647    72.965762  0.040536534  0.044047956            1 
  151000    1.2334406   -6.2936849    73.637555  0.040638827    0.0440355            1 
  152000    1.2330589   -6.2829031    73.925635  0.040529405  0.044024418            4 
  153000    1.2301103   -6.2606642    74.348668  0.040494917  0.044009741            2 
  154000    1.2285787   -6.2653478    74.881265  0.040520165  0.043993853            3 
  155000    1.2268648   -6.2684691    75.604136  0.040647385  0.043977869            3 
  156000    1.2451651   -6.2420455     75.78299  0.040482366  0.043962868            3 
  157000      1.22449   -6.2830006    76.433034  0.040569551  0.043946099            1 
  158000    1.2031289   -6.2285443    76.924285   0.04057188  0.043928971            2 
  159000     1.202023   -6.3011115    77.313075   0.04052048  0.043913136            3 
  160000    1.2262554   -6.2180561    78.198958  0.040728624  0.043899059            2 
  161000    1.2393146   -6.2660875    78.464847  0.040613275    0.0438858            3 
  162000    1.2296911   -6.2599761    78.831481  0.040551173  0.043869162            3 
  163000    1.2408508   -6.2444399    79.352684  0.040568857  0.043850344            3 
  164000    1.2034497   -6.2640562    79.967233  0.040633756   0.04383401            2 
  165000    1.1801051   -6.3143494    80.237589  0.040524035  0.043818383            2 
  166000    1.2295276   -6.2175916    81.716872  0.041022526  0.043809783            2 
  167000    1.2246426   -6.2398691    81.491724  0.040664533  0.043804133            5 
  168000    1.1987201   -6.2651459    82.070148  0.040709398  0.043794205            2 
  169000    1.2113585   -6.2680576    82.830027  0.040843209   0.04378817            2 
  170000    1.2203849    -6.245021    83.196854  0.040782772  0.043780637            1 
  171000    1.2239654   -6.2669583    83.821513  0.040848691  0.043771825            1 
  172000    1.2380459    -6.248419    84.258648  0.040822988  0.043760126            2 
  173000    1.2525911   -6.2805671    84.595557  0.040749305   0.04374953            3 
  174000    1.2368436   -6.2925159    85.138774  0.040775275  0.043738122            2 
  175000     1.219151   -6.2737503    85.602011  0.040762862  0.043729737            3 
  176000    1.2515551   -6.2741442    86.230478  0.040828825  0.043718155            3 
  177000    1.2092028   -6.2994764    86.477031  0.040714233   0.04370719            3 
  178000     1.232681   -6.2439285    87.101425  0.040777821  0.043694686            2 
  179000    1.2304893   -6.2868353    87.512266  0.040741278  0.043680403            5 
  180000    1.2147562   -6.2670806    88.241827  0.040852698   0.04366719            3 
  181000    1.2456382   -6.2473746    88.707623  0.040841447  0.043655162            1 
  182000    1.2023475   -6.2851908    89.414985  0.040940927  0.043645687            2 
  183000    1.2377462   -6.2371122    89.735818  0.040863305  0.043632739            3 
  184000    1.2177719   -6.2684351    89.877236   0.04070527  0.043618933            1 
  185000    1.2343597    -6.252715    90.202986  0.040631975  0.043600236            3 
  186000    1.2262661   -6.2763986    90.428444  0.040514536  0.043579059            3 
  187000    1.2176136   -6.2585703    91.346181  0.040706854  0.043557923            2 
  188000    1.2260208   -6.2925166    92.127754   0.04083677  0.043539133            3 
  189000    1.2453395   -6.2702445    92.451589  0.040763487  0.043525174            2 
  190000    1.2542208   -6.2752615    93.009013  0.040793427  0.043512062            2 
  191000    1.2166369   -6.2746563    93.527746  0.040806172   0.04349741            3 
  192000    1.2258254   -6.2939654    94.009669  0.040802808  0.043484194            4 
  193000    1.2394784   -6.2981076    94.365303  0.040744949  0.043472944            4 
  194000    1.2289305   -6.2934031    95.283893  0.040929507  0.043463503            4 
  195000     1.227097   -6.2948024     95.71378  0.040903325   0.04345457            2 
  196000    1.2128134   -6.2811302    96.415191  0.040992853  0.043447107            4 
  197000    1.2193343   -6.2504355    97.059663  0.041057387  0.043443114            2 
  198000    1.2195493    -6.303904    97.528915  0.041047523  0.043438013            5 
  199000    1.2135168   -6.2442468    97.739835  0.040929579  0.043427141            5 
  200000    1.2326948   -6.2547379    98.184112  0.040910047  0.043416256            3 
  201000    1.2270017   -6.2891378    98.627435  0.040890313  0.043405537            4 
  202000    1.2614995    -6.296217    99.233741  0.040938012  0.043394444            4 
  203000    1.2199363   -6.2373744    100.11166  0.041096741  0.043386246            1 
  204000    1.2145114   -6.2860056    100.11911  0.040898331  0.043376577            3 
  205000     1.231542    -6.278578    100.73734  0.040950137  0.043367808            1 
  206000    1.2146683   -6.2883785    101.36163  0.041003894  0.043360156            2 
  207000    1.2467616   -6.2722711    101.96718   0.04104959  0.043357112            3 
  208000    1.2229076   -6.2752963    102.86206  0.041210759  0.043355382            3 
  209000    1.2146144   -6.2554095     103.4642  0.041253669   0.04335271            4 
  210000    1.2141379   -6.3095215    103.42363  0.041041123  0.043348971            2 
  211000    1.2242936   -6.2892985    104.28836  0.041188137   0.04334455            3 
  212000    1.1984473   -6.2786781    104.87927  0.041226126  0.043339682            3 
  213000      1.18685   -6.2719245    105.27659  0.041188023    0.0433349            3 
  214000    1.2041194   -6.3171072    105.16108  0.040950575  0.043326993            7 
  215000     1.210712   -6.2803099    106.26899  0.041189531  0.043319213            2 
  216000    1.1946072   -6.2511446    106.99686  0.041279652  0.043312884            3 
  217000    1.2186243   -6.2662715     106.9926  0.041087787  0.043308157            2 
  218000    1.2548847   -6.2944275     107.5606  0.041116437  0.043302959            2 
  219000    1.2115875   -6.2789958    108.21048  0.041175981  0.043298135            2 
  220000    1.2216743   -6.3048617    108.42181  0.041068868  0.043292312            1 
  221000    1.2113286   -6.2698038    109.14008  0.041153877  0.043284154            2 
  222000    1.2046829   -6.3098826    109.45878   0.04108813  0.043275767            1 
  223000    1.2293598   -6.2654222    110.21478   0.04118639  0.043268497            2 
  224000    1.2184965   -6.2530322    110.12663   0.04096973  0.043260332            3 
  225000    1.2324452   -6.2484957    110.87166  0.041063579  0.043252144            1 
  226000    1.2348275    -6.307511    111.08659  0.040961131  0.043242882            3 
  227000    1.1999413   -6.2634699    112.31594  0.041231989  0.043233989            2 
  228000    1.2415626   -6.2787581    112.27153  0.041034914   0.04322459            7 
  229000    1.1987438   -6.2405818     112.9066  0.041086828  0.043212783            3 
  230000    1.2369187   -6.2840284    113.49665  0.041121975  0.043203149            3 
  231000     1.214532   -6.2459013    113.31898  0.040879863   0.04319154            2 
  232000    1.1968968   -6.2775438    113.92084  0.040919842  0.043177878            1 
  233000    1.2104481   -6.2880662    114.51761  0.040957658  0.043164289            2 
  234000    1.2028721    -6.258536    115.05594  0.040974337  0.043151427            4 
  235000    1.2264168    -6.288215    115.06802  0.040804263  0.043137773            5 
  236000    1.2077858   -6.2925407    115.63617   0.04083198  0.043123737            2 
  237000    1.2073177   -6.2912146    116.02062  0.040794873  0.043109629            1 
  238000    1.2108178   -6.2795137     116.7282  0.040871218  0.043096416            5 
  239000    1.2258034   -6.2398876    117.17714  0.040856744  0.043081933            2 
  240000    1.2162312   -6.2927213    117.28866  0.040725228   0.04306627            4 
  241000     1.230082   -6.2734017    118.41565  0.040945937  0.043050647            7 
  242000    1.2157548   -6.2848623    118.51963  0.040812546  0.043034378            4 
  243000     1.239394   -6.2589977    118.79546  0.040739184  0.043016899            1 
  244000    1.2345628   -6.2646971    118.99437  0.040640153  0.042997632            2 
  245000    1.2125926   -6.2760714    119.19234  0.040541614  0.042977006            3 
  246000    1.2246801   -6.2872417    119.69857  0.040548296  0.042956423            2 
  247000    1.2129364   -6.2714198    120.70851  0.040724869  0.042937378            2 
  248000    1.1966011   -6.2893308    121.02708  0.040667703  0.042917675            3 
  249000    1.1875337   -6.2948456    121.77817  0.040755746  0.042899416            4 
  250000    1.1874762   -6.3280922    121.99482  0.040664942  0.042882551            3 
  251000    1.2318681   -6.2742528    122.49453  0.040668835   0.04286411            5 
  252000    1.1966347   -6.2693258    122.94306  0.040655774  0.042847046            5 
  253000      1.19248   -6.2828281     123.5884  0.040707641    0.0428301            1 
  254000    1.2445071   -6.2823048     123.9733  0.040673656  0.042814186            3 
  255000    1.2112312   -6.3211284     124.3557  0.040639118  0.042798227            2 
  256000    1.2166862   -6.2629989    124.89597   0.04065624  0.042783087            3 
  257000     1.208045   -6.2771013    125.27853  0.040622092  0.042767153            6 
  258000     1.208222   -6.2786392     125.9279  0.040674388  0.042752878            5 
  259000     1.187319   -6.3060771    126.09248  0.040570297  0.042735782            3 
  260000    1.2064395   -6.3177775    126.29407  0.040478868  0.042716782            2 
  261000    1.1942111   -6.2950935     126.8339  0.040496136  0.042699219            3 
  262000    1.1868802   -6.3182243    127.49568  0.040552061  0.042681741            2 
  263000    1.2027176   -6.2470689      128.393  0.040682192  0.042664434            2 
  264000    1.1837643    -6.281909    128.79083   0.04065367  0.042647075            2 
  265000    1.1891608   -6.2980073    128.94773  0.040549602  0.042630831            2 
  266000    1.2296918    -6.283742    129.53051  0.040579734  0.042614763            2 
  267000    1.1999779   -6.2871925    130.23784  0.040648515  0.042596704            3 
  268000    1.2028342   -6.2980263    130.90468  0.040704192  0.042581848            5 
  269000    1.2216704   -6.2998198    131.02588   0.04059042  0.042566561            3 
  270000    1.2285656    -6.298108    131.56202  0.040605561  0.042550593            3 
  271000    1.2100666   -6.2847483    131.85379  0.040545447  0.042534119            2 
  272000    1.2115671   -6.2797994     132.3454  0.040546997  0.042517415            2 
  273000    1.1830439    -6.298574    132.62212  0.040482941  0.042499225            5 
  274000    1.2244147   -6.2692717    133.06153  0.040468836  0.042482673            2 
  275000    1.1973678   -6.2817597    133.37461  0.040416549  0.042465495            3 
  276000    1.2124449   -6.2680239    134.56078  0.040628254  0.042448533            4 
  277000    1.2352886   -6.3004732    134.61834    0.0404989  0.042433497            2 
  278000    1.2114436    -6.284075    135.30807  0.040559973  0.042419744            6 
  279000    1.2045543   -6.3089748     136.3393   0.04072261  0.042405826            4 
  280000    1.1918997    -6.298665    136.29639  0.040564401  0.042393446            1 
  281000    1.1800354   -6.3045945    136.59958  0.040509959  0.042381188            4 
  282000    1.2103249   -6.2809985    137.36766  0.040593281  0.042368697            2 
  283000    1.2211003   -6.3036711     138.0725   0.04065739  0.042356388            5 
  284000    1.1837499   -6.2821087    138.91768  0.040762231  0.042344469            5 
  285000    1.1870648   -6.3124995    138.96905  0.040634226  0.042332706            1 
  286000    1.2024984    -6.308133    139.32913  0.040597066  0.042320777            1 
  287000    1.2001574   -6.3105778    139.85347   0.04060786  0.042309872            1 
  288000    1.1940047    -6.326703    139.83619  0.040461861  0.042298491            3 
  289000    1.2090347   -6.3016653     140.5018  0.040513784   0.04228483            2 
  290000    1.2021288   -6.2935606    141.36823  0.040623054  0.042273388            2 
  291000    1.2168037   -6.3056156    141.59595  0.040548668  0.042261082            1 
  292000    1.2136723   -6.2776988    141.59562   0.04040971   0.04224899            2 
  293000    1.2124312    -6.281648    142.68196  0.040580761  0.042235488            4 
  294000    1.1972212   -6.3417836    142.95458  0.040520004  0.042223401            3 
  295000    1.1984008   -6.3208464     143.4027  0.040509238  0.042209662            1 
  296000    1.2138356     -6.27601    144.00144  0.040540945  0.042197228            3 
  297000    1.2139525   -6.2605503    144.35235  0.040502905  0.042184279            1 
  298000    1.2243144   -6.2692571    144.64373  0.040448471  0.042170068            1 
  299000    1.1932034   -6.2638467    145.42109  0.040529847  0.042155516            1 
  300000    1.2077403   -6.3008018    145.54254  0.040428484  0.042140883            3 
  301000    1.2004264   -6.3111405    145.11664  0.040176257  0.042125103            1 
  302000    1.1952562   -6.3077841    145.88321  0.040254748  0.042107558            3 
  303000    1.2160735   -6.3002732     146.8685  0.040392876  0.042093527            2 
  304000    1.2018225   -6.2830984    148.36001  0.040668863  0.042081477            3 
  305000    1.2180934    -6.308546    147.99326  0.040435317  0.042069459            1 
  306000    1.2180475   -6.3151954    148.80743    0.0405249    0.0420572            1 
  307000    1.1787976   -6.2957476    149.33161  0.040535181  0.042046133            2 
  308000    1.2114495   -6.2752351    149.77245  0.040522848  0.042034982            2 
  309000    1.1932918   -6.2871658    150.22917  0.040514879  0.042023478            2 
  310000    1.2238349    -6.321497    150.46324  0.040447108  0.042011888            3 
  311000    1.2058574   -6.3192019    151.52592    0.0406018  0.042000405            2 
  312000    1.1964029   -6.2669132     152.3115  0.040681491  0.041989428            2 
  313000    1.2330189   -6.2569471    152.05332  0.040482779  0.041979367            2 
  314000    1.2073442   -6.2772369    152.75374   0.04053974  0.041968737            2 
  315000    1.2032051    -6.304857    152.36959  0.040309417  0.041958136            3 
  316000    1.2139701   -6.2960113    153.61885  0.040511301   0.04194769            2 
  317000    1.2084175   -6.2882656    154.25711  0.040551291  0.041937158            2 
  318000    1.1825724   -6.2613521    154.60082  0.040513842  0.041927165            3 
  319000    1.2057709   -6.3131361    154.69584  0.040411663  0.041916067            3 
  320000    1.2028409   -6.2950788    155.79556   0.04057176  0.041906377            3 
  321000    1.1975565   -6.2895629     155.5963  0.040393639  0.041896602            2 
  322000    1.1834122   -6.3298085    156.32367  0.040456437  0.041886253            4 
  323000    1.2101896   -6.3329408    156.33708  0.040334645  0.041875398            3 
  324000    1.2149773    -6.308803    157.16794  0.040423852  0.041864111            2 
  325000    1.1575776   -6.3172903    157.20522  0.040309031   0.04185253            2 
  326000    1.2162497   -6.3119223    158.17319  0.040432819  0.041841195           11 
  327000    1.1822218   -6.3187294    157.76143  0.040204237  0.041830571            5 
  328000    1.2063195    -6.317902    158.99483  0.040395027  0.041818531            2 
  329000    1.2126709   -6.3264916    158.94808  0.040260405  0.041806708            3 
  330000    1.2208396   -6.2864858    160.19918  0.040454337  0.041796089            4 
  331000    1.2414215   -6.2891844     160.3568  0.040371802   0.04178549            5 
  332000    1.2139418   -6.3051943    160.84169  0.040371911  0.041775553            4 
  333000    1.1947155   -6.2963354    161.63402  0.040448954  0.041765497            4 
  334000    1.2099145   -6.2678218    162.92715  0.040650487  0.041758144            3 
  335000    1.1806379    -6.265356    163.67087  0.040714147  0.041751335            3 
  336000    1.2224131   -6.3436419    163.11308  0.040454632  0.041745574            3 
  337000    1.1568961   -6.3217715    164.11049  0.040581229  0.041738271            5 
  338000    1.1878549   -6.3183536     164.6363  0.040590805  0.041731471            1 
  339000    1.2126844   -6.2941349    165.25355    0.0406228  0.041725033            5 
  340000    1.1890428   -6.3188516    165.50643  0.040565302  0.041718429            3 
  341000    1.2065026   -6.3192953    165.95043  0.040554846  0.041712722            4 
  342000    1.1837331   -6.3106462    166.32732  0.040528099  0.041706278            4 
  343000    1.1971521   -6.2767698    166.81335  0.040528025  0.041699072            2 
  344000    1.1901258   -6.2790117     167.5534  0.040589487  0.041694004            5 
  345000    1.1916208   -6.3182966    168.12571  0.040610074  0.041687868            3 
  346000     1.197308   -6.3164767    168.26789  0.040526947  0.041680476            3 
  347000     1.205018   -6.3046697    169.21569  0.040637775  0.041674316            1 
  348000    1.1730023   -6.3536269    169.17786   0.04051194  0.041666602            3 
  349000    1.1779298   -6.3021576       169.98  0.040587392  0.041658992            3 
  350000    1.1835991   -6.2889691    170.30507  0.040548826  0.041652355            1 
  351000    1.2089476   -6.3164537    171.13056  0.040629287  0.041645737            3 
  352000    1.1864032   -6.3267224    170.85382  0.040448347  0.041638521            2 
  353000    1.1843219   -6.3356726    170.69801  0.040296981  0.041630315            6 
  354000    1.1937829    -6.333361    172.24289   0.04054682  0.041622784            2 
  355000      1.22696   -6.3410237    172.64663  0.040527378  0.041615732            4 
  356000     1.173512   -6.3346057    172.95161  0.040484928  0.041609031            3 
  357000    1.1682262   -6.2981701    173.90507  0.040594088  0.041603353            4 
  358000    1.1775899   -6.3079984    174.42787  0.040602392  0.041597471            2 
  359000     1.176898   -6.3163121    174.21644  0.040440215  0.041590943            5 
  360000    1.1845358   -6.2969182    175.02725  0.040515567  0.041584346            5 
  361000    1.1949833   -6.3265936    174.66914  0.040320669  0.041577249            6 
  362000    1.1844647   -6.3023965    176.07554  0.040533044   0.04156939            3 
  363000    1.1871367   -6.3208912    176.10074  0.040427167  0.041561851            1 
  364000    1.2019933   -6.3001917    176.24285  0.040348638  0.041554889            3 
  365000    1.2091541   -6.3047384    177.25635  0.040469486  0.041547103            1 
  366000    1.2108752   -6.2786523    177.69287  0.040458304   0.04153909            3 
  367000    1.1932632   -6.3349804    177.65844  0.040340245  0.041531406            3 
  368000     1.225022   -6.3382203    178.75572  0.040479104   0.04152397            1 
  369000    1.1863522   -6.3052606    179.28827  0.040489672    0.0415176            3 
  370000    1.1782999   -6.3335235    179.06466  0.040329879  0.041510879            5 
  371000    1.1968228   -6.3573249     179.5027  0.040319564   0.04150295            2 
  372000    1.1923297   -6.3065205    180.71136  0.040481936   0.04149474            3 
  373000    1.2046435   -6.3301385    180.55794  0.040339129  0.041486987            3 
  374000     1.188635   -6.3035092    180.55467  0.040230541  0.041478257            5 
  375000    1.1993406   -6.3339889      181.028  0.040228444  0.041468944            2 
  376000    1.1760124   -6.2558031    181.91034  0.040317009  0.041459122            2 
  377000    1.2290186   -6.3667927    182.58805  0.040359869  0.041449851            3 
  378000    1.2090906    -6.303022    182.57762  0.040250798   0.04143923            3 
  379000    1.1883761   -6.3533844    183.16532  0.040273816  0.041429355            1 
  380000     1.199498   -6.3062452    183.46013  0.040232485  0.041418652            5 
  381000    1.1911205    -6.334873    183.05482  0.040038238  0.041408178            4 
  382000    1.2232056   -6.3200919    184.35853   0.04021783  0.041397747            4 
  383000    1.2057956   -6.2794556    185.25571  0.040308031  0.041388013            3 
  384000    1.1905611   -6.3421051    184.45396  0.040029072  0.041377809            1 
  385000    1.1970327   -6.3335417      184.635  0.039964287  0.041367318            3 
  386000    1.2172149   -6.3128711    185.94483  0.040143529  0.041357011            2 
  387000    1.1957074   -6.3062118    186.00003  0.040051686  0.041345795            2 
  388000    1.2039397   -6.3074112    186.85016  0.040131048  0.041334105            2 
  389000    1.1940772   -6.3651841    187.05699  0.040072191  0.041322989            3 
  390000    1.1602414    -6.368243    186.89094  0.039933962  0.041311651            1 
  391000     1.205696   -6.3237143    187.36902  0.039933721  0.041299975            2 
  392000    1.1861407   -6.3606894    187.65819  0.039893323  0.041287633            2 
  393000    1.1751914   -6.3601663    188.30882  0.039929774  0.041275554            1 
  394000    1.1810443   -6.3170203    188.21901  0.039809435  0.041263776            2 
  395000    1.1792963   -6.3559461    188.70977  0.039812187  0.041250969            2 
  396000    1.1895134    -6.313672    189.86377  0.039954497   0.04123855            6 
  397000    1.1829135   -6.3175249      190.393  0.039964944  0.041225644            2 
  398000    1.1584567   -6.3373719     189.9749  0.039776988  0.041213507            3 
  399000    1.2003996   -6.3140653    190.29421  0.039743986   0.04120044            4 
  400000    1.2154101   -6.3667093    190.61428  0.039711307  0.041186258            1 
  401000    1.2155051   -6.3450879    191.09868  0.039712943  0.041171847            2 
  402000    1.2121694   -6.3515116    191.79148  0.039757769  0.041156275            2 
  403000    1.1958099   -6.3283748    191.95699   0.03969334  0.041140293            2 
  404000    1.2034526    -6.339166    192.00506  0.039605003  0.041124248            4 
  405000    1.1838511   -6.3028545     192.6953  0.039649238  0.041108351            4 
  406000    1.1933254   -6.3153804    193.65671  0.039748914  0.041093686            3 
  407000    1.1563432   -6.3385097    193.63166  0.039646123  0.041079101            4 
  408000    1.1977349   -6.3286165    194.62723  0.039752294  0.041064322            6 
  409000    1.1854562   -6.3481955    194.38475  0.039605694   0.04105005            3 
  410000    1.1893867   -6.3256282    195.59778  0.039755646  0.041035915            2 
  411000    1.1762529   -6.3341838    195.08949  0.039555858  0.041021092            4 
  412000    1.1709057   -6.3534822    195.11378  0.039464761  0.041005002            2 
  413000    1.1734508   -6.3650165    195.02339  0.039350966  0.040988379            2 
  414000    1.1839436   -6.3409237    196.45616  0.039544315  0.040971727            2 
  415000    1.2030678   -6.3117428    196.72285  0.039502579  0.040955521            2 
  416000    1.1932948   -6.3106154    197.93571  0.039650582  0.040939121            3 
  417000    1.1774036   -6.3208283    198.05866  0.039580068  0.040923963            5 
  418000    1.1942191   -6.3606146    197.61614  0.039397157  0.040908314            3 
  419000    1.1756168   -6.3585389    199.01183  0.039580713  0.040892996            2 
  420000    1.1919971   -6.3326534    198.99491  0.039483116  0.040877977            2 
  421000    1.2005996   -6.3372949    200.06903  0.039601946  0.040864185            2 
  422000    1.1865379   -6.3557208    200.08481  0.039511218  0.040849124            3 
  423000    1.1618333   -6.3168548    200.03076  0.039407162  0.040834775            2 
  424000    1.1763662   -6.3272241    201.03524  0.039511644  0.040819982            5 
  425000     1.191912   -6.3295824    201.24177   0.03945917  0.040804881            3 
  426000    1.1728868   -6.3665607    201.28006  0.039374034    0.0407898            3 
  427000    1.1767813   -6.3225072    202.71978  0.039562798  0.040774513            6 
  428000     1.199077   -6.3179481     202.8557  0.039496825  0.040760151            3 
  429000    1.1793618   -6.3297968    202.42116   0.03932035  0.040745568            2 
  430000    1.1838718   -6.3381775    203.92229  0.039519824  0.040731684            3 
  431000    1.1534483   -6.3593236    203.64937  0.039375361  0.040718161           11 
  432000    1.2020176   -6.2720109    205.06433  0.039557162  0.040703988            3 
  433000    1.1816328   -6.3448021    205.04309  0.039461719  0.040691208            2 
  434000    1.1713565   -6.3427814    205.51844  0.039462066  0.040678684            2 
  435000    1.1841005   -6.3618094    206.09007  0.039480855  0.040664963            2 
  436000    1.1553812   -6.3368306    207.47823  0.039655624  0.040652819            2 
  437000    1.1674619   -6.3460107    207.43342  0.039556336  0.040641375            3 
  438000    1.1946217   -6.3507694    207.68352  0.039513608  0.040629349            2 
  439000    1.1557147    -6.312366       208.43  0.039565299  0.040617477            2 
  440000    1.1758736   -6.2929511    208.44542  0.039478299  0.040605515            1 
  441000    1.1758986   -6.3339857    209.49704  0.039587499  0.040593226            3 
  442000    1.2167049   -6.3411719    209.53337  0.039504783  0.040581284            6 
  443000    1.1670998   -6.3532929    209.48509  0.039406526  0.040569116            2 
  444000    1.1687217   -6.3082031    210.39313    0.0394882  0.040556749            4 
  445000    1.1932274   -6.3711181    209.67268  0.039264547  0.040544213            2 
  446000    1.1468213   -6.3509775    210.84031  0.039394677  0.040531703            4 
  447000    1.1723659   -6.3496731    211.36917  0.039405141  0.040519223            5 
  448000    1.1645947   -6.3386101     211.4055   0.03932394  0.040505472            2 
  449000    1.1772438   -6.3287809     212.4235  0.039425297  0.040492209            4 
  450000    1.1719272   -6.2773036    213.34363   0.03950808  0.040479311            3 
  451000    1.1830217   -6.3389392    213.46495  0.039442895   0.04046773            2 
  452000    1.1726058   -6.3145617    213.18665  0.039304323  0.040454667            2 
  453000    1.2036083   -6.3699212    212.99472  0.039182252  0.040441268            3 
  454000    1.1588184   -6.3055168    213.97341  0.039275589   0.04042694            4 
  455000    1.1787865   -6.3161028    214.28766  0.039246824  0.040412663            2 
  456000    1.1771912   -6.3387136    213.66643  0.039047228  0.040397616            1 
  457000    1.1932269   -6.3749125    214.38574  0.039092951  0.040382632            3 
  458000    1.1745898    -6.354115    216.04445  0.039309398  0.040368278            2 
  459000    1.1687205   -6.3570944    216.00007  0.039215699   0.04035504            3 
  460000    1.1529545   -6.3423606    216.85704  0.039285696  0.040342394            5 
  461000    1.1740229   -6.3627561    217.71329  0.039355258  0.040331109            1 
  462000    1.2016384   -6.3481904    217.77954  0.039282025  0.040319366            6 
  463000     1.154722    -6.331896    218.80283  0.039381358  0.040308374            3 
  464000    1.1765631   -6.3715703    218.90274  0.039314428  0.040297298            2 
  465000    1.1866968   -6.3487214    220.58637  0.039531607  0.040287617            2 
  466000    1.1809158   -6.3405925    220.79599  0.039484261  0.040277695            3 
  467000      1.17919   -6.3501038     220.3921  0.039327641  0.040267545            4 
  468000    1.1736587   -6.3326419    220.92823  0.039339073  0.040258225            2 
  469000    1.1705784   -6.3531728    221.49368  0.039355665  0.040248862            4 
  470000    1.1567474   -6.3258439    221.33138  0.039243153  0.040238573            2 
  471000    1.1707848   -6.3557022    222.60771  0.039385653  0.040227849            4 
  472000    1.1781242   -6.3211921    222.52167  0.039287018  0.040217721            3 
  473000    1.1874461   -6.3342725    223.80989  0.039430918   0.04020813            2 
  474000    1.1843692   -6.3586662    223.53606  0.039299588  0.040198111            3 
  475000     1.160193   -6.3200276    223.94068  0.039287838  0.040187615            2 
  476000     1.164111   -6.3566798    224.57355  0.039316097  0.040178218            2 
  477000    1.1580639   -6.3737093    224.96123  0.039301403   0.04016827            2 
  478000    1.1703525   -6.3710076    225.10135   0.03924361  0.040157551            2 
  479000    1.1568813   -6.3665666    225.17176  0.039173931  0.040146377            2 
  480000    1.1789652   -6.3736643    225.60408  0.039167376  0.040135174            3 
  481000    1.1703924   -6.3665716    226.39059  0.039222209  0.040124071            5 
  482000    1.1878367   -6.3508725     226.5928  0.039175795  0.040112578            5 
  483000     1.158977   -6.3845731    226.37071  0.039056368  0.040101416            2 
  484000    1.1893679   -6.3490666    227.15317  0.039110394  0.040090716            1 
  485000      1.16609   -6.3539799    228.12053  0.039195967  0.040079933            2 
  486000    1.1418084   -6.3878487    227.85637  0.039070022  0.040068738            4 
  487000    1.1579568   -6.3461032    228.47684  0.039095969  0.040057573            3 
  488000      1.17257   -6.3656254    229.60858  0.039209116  0.040046159            4 
  489000    1.1719213   -6.3514109    229.79662  0.039160979   0.04003524            2 
  490000    1.1528606   -6.3850954    230.09602  0.039131977  0.040024668            2 
  491000    1.1851049   -6.3312433    231.14155  0.039229727  0.040013927            3 
  492000    1.1619087    -6.367797    231.60863  0.039229104  0.040003861            2 
  493000     1.175756   -6.3314246    231.76147  0.039175367  0.039993771            1 
  494000    1.1927671   -6.3038744    232.96661  0.039299361  0.039984536            2 
  495000    1.1643278    -6.333207    233.42245  0.039296709  0.039975595            1 
  496000    1.1975831   -6.3608503    233.24009  0.039186843  0.039966132            2 
  497000    1.1757309   -6.3358645    233.91977   0.03922196   0.03995697            4 
  498000    1.1774764   -6.3859685    234.51448  0.039242717   0.03994737            2 
  499000    1.1406612   -6.3369109    234.46869  0.039156428  0.039937469            4 
  500000    1.1580167   -6.3462898    235.20439  0.039200731  0.039928095            3 
  501000    1.1724038    -6.343709    236.22196  0.039291744  0.039919788            2 
  502000    1.1769499   -6.3261513    236.52469  0.039263727  0.039910896            5 
  503000    1.1587485   -6.3871011    236.16234  0.039125636  0.039902217            3 
  504000    1.1816527   -6.3237157    237.02753   0.03919106  0.039893084            3 
  505000    1.1579464    -6.367845    236.80547  0.039076811   0.03988434            2 
  506000     1.179376   -6.3600953    238.12392   0.03921672  0.039875629            4 
  507000    1.1547651   -6.3372798    237.96963  0.039114008  0.039866366            2 
  508000    1.1739532    -6.356743       238.04  0.039048557  0.039856786            3 
  509000    1.1573663   -6.3793789    237.99796  0.038964958  0.039846393            4 
  510000       1.1528   -6.3263653      238.382  0.038951307  0.039835345            8 
  511000    1.1683498   -6.3457847    239.73859  0.039096313  0.039825383            3 
  512000    1.1703217   -6.3756395    240.04607  0.039069998   0.03981558            3 
  513000    1.2055366   -6.3884341    240.67334  0.039095734  0.039806192            3 
  514000    1.1415169   -6.3770262     241.1556  0.039097859  0.039796527            2 
  515000    1.1701016   -6.3868781    241.74271  0.039116943  0.039787255            2 
  516000    1.1599285   -6.3453136     241.6773  0.039030571  0.039778055            3 
  517000    1.1653447   -6.3456674    242.74196  0.039126686  0.039769629            3 
  518000    1.1685654   -6.3671817    243.01562  0.039095176  0.039761221            2 
  519000    1.1904772   -6.3643309    243.66073  0.039123431  0.039752318            2 
  520000    1.1668807   -6.3765847    243.88552  0.039084219  0.039743193            3 
  521000    1.1722267   -6.3705959    244.02768  0.039031939  0.039734134            6 
  522000    1.1630474   -6.3425939    244.63061  0.039053419  0.039725484            2 
  523000    1.1486023   -6.3667683     246.5898  0.039290917  0.039716605            2 
  524000    1.1702562   -6.3555954    245.27555  0.039006925  0.039707617            3 
  525000    1.1689012   -6.4083592    245.22259   0.03892422  0.039698161            4 
  526000    1.1725262    -6.373186    246.80748  0.039101311  0.039688955            5 
  527000     1.176143   -6.3496656    246.56989  0.038989545  0.039679834            3 
  528000    1.1539607   -6.3785855    247.80402  0.039110483  0.039671432            5 
  529000    1.1683903   -6.3223559    247.84253  0.039042616  0.039663536            2 
  530000    1.1840765   -6.3719779    248.74628   0.03911105  0.039656406            1 
  531000    1.1739719   -6.3628602    248.34293  0.038974095  0.039648504            2 
  532000    1.1537696   -6.3611299     249.4746  0.039078102   0.03964012            4 
  533000    1.1645262   -6.3592048    250.16754  0.039113124  0.039632162            4 
  534000    1.1507744   -6.4045656    249.45443  0.038928593   0.03962374            2 
  535000    1.1715609    -6.347984    250.35463  0.038996048  0.039615567            3 
  536000    1.1471556    -6.362336    252.09254  0.039193493  0.039608043            3 
  537000    1.1929891   -6.3208266    251.91861  0.039093514  0.039601106            4 
  538000    1.1855877   -6.3513942    252.61838  0.039129241  0.039594187            3 
  539000    1.1723385   -6.3773135    252.44881  0.039030429  0.039587442            2 
  540000    1.1822777   -6.3543562    254.52328  0.039278283  0.039581267            2 
  541000    1.1314875   -6.3512087    254.11513  0.039142811  0.039575498            4 
  542000     1.161353   -6.3793327    254.89742  0.039190871  0.039570472            2 
  543000    1.2003597    -6.386609    256.17226  0.039314343  0.039565156            2 
  544000    1.1541593   -6.3878139    255.83352  0.039190184  0.039559415            2 
  545000    1.1474734   -6.3558777    256.39484  0.039204104  0.039553119            2 
  546000    1.1516685   -6.3443641    257.31881  0.039273322  0.039547614            4 
  547000    1.1497122   -6.3364931    257.70993  0.039261111  0.039543131            3 
  548000    1.1488354   -6.3790003    258.48472  0.039307287  0.039538772            2 
  549000    1.1586587   -6.3684903     258.7079  0.039269566  0.039534317            2 
  550000    1.1647865    -6.367317    259.89929   0.03937868   0.03953018            1 
  551000    1.1786569   -6.3673054    260.45651  0.039391487  0.039526499            2 
  552000    1.1460437   -6.3500438    260.37656  0.039308055  0.039523135            3 
  553000    1.1456763   -6.3637395     261.0651  0.039340732  0.039518998            2 
  554000    1.1852501    -6.398018     261.2089   0.03929135  0.039514931            4 
  555000    1.1476812   -6.4027346     261.6378  0.039284955  0.039511081            3 
  556000    1.1597409   -6.3800427    262.38866  0.039326838  0.039507452            6 
  557000    1.1621672   -6.3740852    262.63163  0.039292583  0.039503512            4 
  558000    1.1677083   -6.4353545    262.32964  0.039177067  0.039499433            3 
  559000    1.1455723   -6.3736427    263.17943  0.039233666  0.039494816            2 
  560000    1.1486633   -6.3831474    263.65112  0.039233797  0.039490657            3 
  561000    1.1535704   -6.3586487    263.29224  0.039110553  0.039486033            2 
  562000    1.1270954    -6.374835    264.70483   0.03925042  0.039481001            3 
  563000    1.1514292   -6.4131801    263.92809  0.039065732  0.039475233            2 
  564000    1.1609462    -6.352766    265.56418  0.039238206  0.039469804            3 
  565000    1.1557039   -6.3534869    265.61297  0.039175954    0.0394651            3 
  566000    1.1871046   -6.3819747    266.10324  0.039178922  0.039459786            4 
  567000    1.2052921   -6.3955755    266.02584  0.039098448  0.039454895            1 
  568000    1.1584362   -6.3990048    267.35003  0.039223889  0.039449451            1 
  569000    1.1712335   -6.3316073    267.31839  0.039150321  0.039443952            1 
  570000    1.1632323   -6.3609493    266.86364  0.039015152   0.03943755            2 
  571000    1.1759834   -6.3314995    267.78724  0.039081617  0.039431731            1 
  572000    1.1606841   -6.3829595    268.53974  0.039122922  0.039425813            3 
  573000    1.1500521   -6.3782142    268.73793  0.039083469  0.039419311            3 
  574000    1.1467302   -6.3923024    268.13827   0.03892832  0.039413464            2 
  575000    1.1407356   -6.4403866    269.03077  0.038989967  0.039407453            2 
  576000    1.1679252   -6.3744258    269.54285  0.038996361  0.039401618            3 
  577000    1.1851224   -6.3658893    269.79143  0.038964678  0.039395955            2 
  578000    1.1377609   -6.3728054    270.59575  0.039013228  0.039390325            4 
  579000    1.1453297   -6.3539516    272.16482  0.039171678  0.039384944            3 
  580000    1.1442893   -6.3833424    272.09063  0.039093481  0.039379221            3 
  581000    1.1545282   -6.4222308    271.74606  0.038976772  0.039373302            4 
  582000    1.1807881   -6.4033825    272.23467  0.038979763  0.039367403            3 
  583000    1.1583991   -6.3693477    272.78702  0.038991856  0.039362083            2 
  584000    1.1297975   -6.3663354    273.51651  0.039029182  0.039356894            1 
  585000    1.1711599   -6.3991827    274.11772  0.039048108  0.039351135            4 
  586000    1.1638697   -6.3878521    274.39572  0.039021007  0.039345927            2 
  587000    1.1543151   -6.3730755    274.88543  0.039024053  0.039340718            2 
  588000    1.1747386   -6.3990931    275.76907  0.039082917  0.039335718            1 
  589000     1.179133   -6.3784884    275.07289  0.038918065  0.039330501            5 
  590000    1.1591442   -6.3648443    276.15815  0.039005388  0.039325167            3 
  591000    1.1538306   -6.4050059    275.57584  0.038857281  0.039319516            3 
  592000    1.1748871   -6.3815566    276.34868  0.038900433  0.039313506            3 
  593000    1.1456643   -6.4114571    276.82805    0.0389022  0.039307438            2 
  594000    1.1347531   -6.3855584    277.33937  0.038908441  0.039301847            4 
  595000    1.1496292   -6.3677655    278.20345  0.038964068  0.039296461            3 
  596000    1.1548425    -6.433871       278.77  0.038977909  0.039291307            5 
  597000    1.1555738    -6.372601     280.2007  0.039112326  0.039287083            3 
  598000    1.1589908   -6.3820322    279.78611  0.038989145  0.039282511            2 
  599000    1.1471277   -6.3876206    280.82655  0.039068802  0.039277445            3 
  600000    1.1650268   -6.3695385    280.91842  0.039016447  0.039272439            1 
  601000    1.1660322   -6.3981605    281.77376  0.039070128  0.039268126            1 
  602000    1.1569712    -6.399198    282.13457  0.039055173  0.039263357            3 
  603000    1.1663723   -6.3725384    282.61335  0.039056572  0.039258938            3 
  604000    1.1654609   -6.4196465    282.25075  0.038941881  0.039254667            3 
  605000     1.196273   -6.3730754    283.42591  0.039039381  0.039250602            2 
  606000    1.1515525   -6.3730811    283.99889  0.039053753  0.039246455            3 
  607000    1.1526773   -6.4082497    284.46803   0.03905382    0.0392421            3 
  608000    1.1571293   -6.4236622    284.71435  0.039023348  0.039237605            3 
  609000     1.140793   -6.3937342    284.80268  0.038971358  0.039233544            6 
  610000    1.1532985   -6.3844835    285.07162   0.03894421  0.039228873            2 
  611000     1.156146   -6.4009608    284.82194  0.038846418  0.039223847            2 
  612000    1.1625031   -6.4238192    285.42842  0.038865526  0.039218504            4 
  613000    1.1651816   -6.3763597    285.78112  0.038850071   0.03921296            3 
  614000    1.1575663    -6.391266    286.69975  0.038911475  0.039207437            4 
  615000     1.140347   -6.3962273    287.31225    0.0389312  0.039201884            5 
  616000    1.1564187   -6.3713545    288.29935  0.039001536  0.039196991            3 
  617000    1.1555305   -6.3806972    289.09194  0.039045372  0.039192805            2 
  618000    1.1601556   -6.3581932    289.12938  0.038987241  0.039188441            7 
  619000    1.1512067   -6.3654374    290.76609    0.0391446  0.039183962            3 
  620000    1.1651575   -6.4179717    290.24899   0.03901196  0.039179806            2 
  621000    1.1968282   -6.3932007    290.47278  0.038979171  0.039175623            1 
  622000    1.1632026   -6.4016009    291.66722   0.03907653  0.039171368            3 
  623000    1.1435007   -6.3851561     291.8301  0.039035593  0.039167247            3 
  624000    1.1546338   -6.3790656     291.8318  0.038973263  0.039163316            4 
  625000    1.1723195   -6.3879171    293.23598  0.039098131  0.039159149            2 
  626000    1.1353119   -6.3394168    293.17696  0.039027817  0.039155618            4 
  627000    1.1685524   -6.3780249     293.6425  0.039027445  0.039152323            3 
  628000      1.11758   -6.3840466    294.09751  0.039025678  0.039148942            1 
  629000     1.157999   -6.4176379    293.88817    0.0389359  0.039145484            4 
  630000    1.1353136   -6.3982878     295.7556  0.039121111   0.03914174            3 
  631000    1.1634936   -6.4496744    294.01497  0.038829236  0.039138333            3 
  632000    1.1509547   -6.3722036    295.84074  0.039008537  0.039134169            3 
  633000    1.1667111   -6.3734533    295.57234  0.038911576  0.039129813            2 
  634000    1.1282078   -6.3507306    297.38494  0.039088451  0.039125783            2 
  635000    1.1533556   -6.4164426    296.17391  0.038867968  0.039121061            3 
  636000    1.1337796    -6.386072    296.63007  0.038866623   0.03911625            3 
  637000    1.1451483   -6.4074942    297.73122  0.038949662  0.039111789            1 
  638000    1.1605073    -6.386915     297.3767  0.038842306  0.039107343            4 
  639000    1.1575628   -6.4470258    298.53424  0.038932478  0.039102868            3 
  640000    1.1538326   -6.4159241    298.94009  0.038924491   0.03909858            3 
  641000    1.1138528   -6.4352457    299.08285  0.038882326  0.039094609            2 
  642000    1.1554746   -6.4047351    298.62505  0.038762337  0.039090152            3 
  643000     1.137523   -6.3902413    300.00769  0.038881246  0.039085597            3 
  644000    1.1444216   -6.3945214    300.51015  0.038885889  0.039081175            2 
  645000    1.1688153   -6.4070275    300.77504  0.038859824  0.039076836            3 
  646000     1.141939   -6.4110219    301.16171   0.03884955  0.039072268            3 
  647000    1.1291278   -6.3908563    301.05034   0.03877516  0.039067401            4 
  648000    1.1515819   -6.3957697    302.45688  0.038896203  0.039062724            3 
  649000    1.1458093   -6.3914207    302.59623  0.038854164  0.039058031            2 
  650000     1.146469    -6.443451    302.30244  0.038756723  0.039053512            3 
  651000      1.15023   -6.4032992     302.7997  0.038760843  0.039048668            3 
  652000    1.1446912   -6.3814989    303.28514  0.038763438  0.039043216            3 
  653000    1.1273618   -6.4391783    303.38781  0.038717178  0.039038126            2 
  654000     1.134568   -6.3942714     304.7529  0.038831919  0.039033315            3 
  655000    1.1414247   -6.3961502    305.22438  0.038832619  0.039028515            3 
  656000    1.1761364   -6.3613527     306.0724  0.038881148  0.039024012            2 
  657000    1.1321694   -6.4074939    306.15535  0.038832489  0.039019309            3 
  658000    1.1603271     -6.39121    306.31717  0.038793967  0.039014374            2 
  659000     1.152191   -6.3720483    306.51283  0.038759842  0.039009734            3 
  660000    1.1654983   -6.4126946    307.03048  0.038766474  0.039005021            3 
  661000    1.1645874   -6.4260985    307.48049   0.03876456   0.03899999            2 
  662000    1.1394622   -6.3951948    307.35039  0.038689627  0.038994456            3 
  663000    1.1477864   -6.4140143    308.04808  0.038718964  0.038989185            2 
  664000    1.1534651   -6.4330683     308.2562  0.038686773  0.038983775            2 
  665000    1.1342278   -6.4106072    308.17878  0.038618895  0.038978349            5 
  666000    1.1365245   -6.3736185    309.72346  0.038754186  0.038972996            3 
  667000     1.114804   -6.4178182    309.49801  0.038667917  0.038967547            4 
  668000    1.1422827    -6.414471     310.5184  0.038737325  0.038961966            7 
  669000     1.163679    -6.372211    310.27725  0.038649384  0.038956423            2 
  670000    1.1572805   -6.4174757    310.25369  0.038588767  0.038950721            2 
  671000    1.1822027   -6.3764261      311.935  0.038740065  0.038945255            2 
  672000    1.1582134   -6.4355793    311.20921  0.038592412  0.038939607            3 
  673000    1.1559775   -6.3755293    311.94232  0.038625844  0.038933991            1 
  674000    1.1500057   -6.4049137    311.06613  0.038460204  0.038928099            4 
  675000    1.1500472   -6.4215172    312.69004  0.038603709  0.038922049            2 
  676000    1.1497635   -6.4148511    313.97005  0.038704395  0.038916095            4 
  677000    1.1645336   -6.3952502    312.71562  0.038492814  0.038910208            2 
  678000    1.1480945   -6.4051997     313.4032  0.038520551  0.038904559            3 
  679000    1.1553318   -6.4302447    313.88485  0.038522932  0.038898748            3 
  680000    1.1400599   -6.4036793    315.28174  0.038637468  0.038893159            4 
  681000    1.1221183   -6.4217285    314.52637  0.038488298  0.038887208            3 
  682000     1.138519   -6.4060364    316.16447  0.038632022  0.038880948            2 
  683000    1.1266082   -6.4170731    315.67729  0.038516019  0.038874728            5 
  684000    1.1371668    -6.384318    315.84162   0.03847973  0.038868246            5 
  685000    1.1552839   -6.4327861     316.2224  0.038469878  0.038862208            7 
  686000    1.1397905   -6.4493896    317.00472  0.038508834  0.038856081            4 
  687000    1.1541845   -6.3590306    317.82822  0.038552671  0.038850427            2 
  688000    1.1341099   -6.4143852    318.02322  0.038520254  0.038844306            2 
  689000    1.1630675   -6.3988026    318.88499  0.038568577  0.038838311            4 
  690000     1.143123   -6.3997237    318.35787  0.038449018  0.038832406            2 
  691000    1.1566084   -6.4235951    317.60898   0.03830306  0.038826394            2 
  692000    1.1607231   -6.4083105    319.59822  0.038487261  0.038820181            4 
  693000    1.1657427   -6.3629993    319.89167  0.038467012  0.038813862            1 
  694000     1.130963   -6.4377152     319.1791  0.038326021  0.038807405            2 
  695000    1.1108723   -6.3430861    319.96657  0.038365296  0.038800681            3 
  696000    1.1320823   -6.3925354    320.82537  0.038412999  0.038793928            2 
  697000    1.1425351   -6.4375181    320.71224  0.038344362  0.038787099            2 
  698000    1.1408184    -6.412004    321.07781  0.038333072  0.038780404            3 
  699000    1.1686556   -6.4057146    322.54538  0.038453192   0.03877374            4 
  700000    1.1512274   -6.3956863    323.22889   0.03847963  0.038767341            4 
  701000    1.1719608   -6.4056522    323.38096  0.038442815  0.038760614            7 
  702000    1.1426975   -6.4285216    323.34757   0.03838409  0.038754526            2 
  703000    1.1477129   -6.4045768     324.2829  0.038440362  0.038748245            2 
  704000    1.1419355   -6.4260902    323.33257  0.038273269  0.038741777            3 
  705000    1.1626585   -6.3927913    324.85546  0.038398991  0.038735401            2 
  706000     1.134382   -6.4357262    323.25893  0.038156153  0.038728806            3 
  707000    1.1251068   -6.3945447    325.95067  0.038419457  0.038722586            2 
  708000    1.1442819    -6.446339    326.19381   0.03839381   0.03871598            5 
  709000    1.1655691   -6.3748848    325.69897  0.038281496  0.038709368            2 
  710000    1.1344692   -6.4330349    325.59803  0.038215731  0.038702691            4 
  711000    1.1538909   -6.4376531    325.88348  0.038195439  0.038695933            6 
  712000     1.134836   -6.4081506    327.05339  0.038278721  0.038689324            6 
  713000    1.1171139   -6.4229988    326.88817  0.038205723  0.038682088            1 
  714000    1.1128683   -6.3940943    326.91248  0.038155051  0.038675016            2 
  715000    1.1636979   -6.4200503    327.17677  0.038132491  0.038667971            2 
  716000    1.1452133   -6.4150788    328.09228  0.038185787   0.03866097            4 
  717000    1.1701149   -6.4570952    328.48593  0.038178281  0.038653437            5 
  718000    1.1401703   -6.4045661    329.41233  0.038232629  0.038646502            3 
  719000    1.1302274   -6.4246854     329.5226  0.038192234  0.038639494            3 
  720000    1.1558829   -6.4033096     330.7088  0.038276481  0.038632804            4 
  721000    1.1500242   -6.4421173    330.60162  0.038211006  0.038625525            2 
  722000    1.1367368   -6.4356205      330.596  0.038157433  0.038618041            5 
  723000    1.1297929   -6.4057524    330.81142  0.038129486  0.038610728            3 
  724000    1.1130157   -6.4243776    330.91967  0.038089281  0.038603448            2 
  725000    1.1375778   -6.4268217     331.4524  0.038097977  0.038596371            2 
  726000     1.114521   -6.3861162    331.18265  0.038014538  0.038588934            2 
  727000     1.132571   -6.4226953    331.75931  0.038028349  0.038581221            2 
  728000    1.1112034   -6.4388787    332.30097  0.038038114   0.03857338            2 
  729000    1.1531373   -6.4095244    333.00865  0.038066832  0.038565556            1 
  730000    1.1263936   -6.4308898    332.88875  0.038000999  0.038557984            3 
  731000     1.113889   -6.3897845    334.00622  0.038076404  0.038550289            4 
  732000    1.1139704   -6.4441539     333.9914  0.038022701  0.038541916            2 
  733000    1.1167641   -6.4366711    334.02899  0.037975101  0.038533714            2 
  734000    1.1628455   -6.3995664    333.62667  0.037877688  0.038525197            2 
  735000    1.1354443   -6.4768191    333.79998  0.037845803  0.038517084            2 
  736000    1.1114992   -6.4542993    333.94785  0.037811124  0.038508931            3 
  737000    1.1472849   -6.3936111    335.75164  0.037963776  0.038500333            4 
  738000    1.1343626   -6.4214609    336.43102  0.037989049  0.038492043            2 
  739000    1.1519025   -6.4321982    336.00414  0.037889507  0.038483634            2 
  740000    1.1165156   -6.4426863    335.76574  0.037811458  0.038474376            5 
  741000    1.1300558   -6.4472199    336.11822  0.037800069  0.038465677            3 
  742000    1.1248294   -6.4448491    337.21883  0.037872735  0.038456632            3 
  743000     1.140218   -6.4145819    337.22214  0.037822133  0.038447593            3 
  744000    1.1142565   -6.4110497    336.76916   0.03772056  0.038438633            2 
  745000    1.0969508   -6.4134472    337.44497  0.037745522  0.038429416            4 
  746000     1.127886   -6.4343188    337.85892  0.037741166   0.03842032            3 
  747000    1.1342167   -6.4087447     339.9003  0.037918374  0.038411839            2 
  748000    1.1106302   -6.4242806     339.3601  0.037807498  0.038403245            3 
  749000    1.1349451   -6.4347899    339.42815  0.037764591  0.038394235            2 
  750000    1.1066908   -6.4403635    340.17575  0.037797306  0.038385534            1 
  751000    1.1235904   -6.3828242    340.41317  0.037773321  0.038377156            5 
  752000    1.1357783   -6.4208883    339.83545   0.03765907  0.038368229            4 
  753000    1.1376253    -6.432835    340.56162  0.037689422  0.038359398            5 
  754000     1.128472   -6.4676007    340.71396  0.037656274  0.038350353            5 
  755000    1.1231253   -6.4578506    342.22373  0.037773038  0.038341441            7 
  756000    1.1270458   -6.4154658    342.20132  0.037720604  0.038332877            3 
  757000    1.1439372    -6.456926    341.74505  0.037620547  0.038323751            4 
  758000    1.1321007   -6.4277422    342.99003  0.037707787   0.03831509            2 
  759000    1.1061108   -6.4535006    342.85048  0.037642784  0.038306498            3 
  760000    1.1255427   -6.4247557    344.48389  0.037772356  0.038297851            5 
  761000    1.1351262   -6.4712358    344.33965  0.037706926  0.038289321            3 
  762000    1.1373153   -6.4302444    343.69851  0.037587326  0.038280483            2 
  763000    1.1272016   -6.4378198    343.94465  0.037564947  0.038272003            4 
  764000    1.1538098   -6.4420457     345.4315  0.037677956  0.038263431            3 
  765000     1.136009   -6.4906517    345.85259  0.037674574  0.038255003            5 
  766000    1.1414953   -6.4721689    346.74123  0.037722066  0.038246659            4 
  767000    1.1245034   -6.4876595    346.54972  0.037652077  0.038238278            3 
  768000    1.1291094   -6.4012293    346.78593  0.037628682   0.03823007            2 
  769000    1.1355642   -6.4598804    347.65226   0.03767363  0.038221491            2 
  770000    1.1445028   -6.4173168    347.94547  0.037656436  0.038212839            3 
  771000    1.1372104   -6.4601939     347.4638  0.037555533    0.0382043            3 
  772000    1.1208619   -6.4042234    350.05621  0.037786724  0.038195941            2 
  773000     1.139312   -6.4313117    349.39554  0.037666617  0.038187801            3 
  774000    1.1257506   -6.4067569    349.16547  0.037593182  0.038179568            6 
  775000    1.1251047   -6.4492359    349.75666  0.037608243  0.038170984            6 
  776000    1.0846015   -6.4477703    349.95015  0.037580558  0.038162269            2 
  777000    1.1350291   -6.4049242      350.553  0.037596846  0.038153624            3 
  778000    1.1318234   -6.4461316    351.34416  0.037633265  0.038145213            3 
  779000     1.126811   -6.4650954    351.76006  0.037629446  0.038136793            4 
  780000    1.1147629   -6.4276965    352.98454  0.037712024   0.03812834            2 
  781000    1.1389254   -6.4803025    351.19644  0.037472944  0.038119709            3 
  782000    1.1419066   -6.4704082    352.07997  0.037519179  0.038111249            4 
  783000     1.149293   -6.4409783    351.93377  0.037455701   0.03810229            3 
  784000    1.1025997    -6.471589    352.43029  0.037460702  0.038093483            6 
  785000    1.1125728   -6.4180986    353.76352  0.037554514  0.038084921            3 
  786000    1.1149993   -6.4429086     354.3951  0.037573696  0.038076402            2 
  787000    1.1191706   -6.4400048    353.48371  0.037429449  0.038067452            5 
  788000    1.1211336   -6.4603346    353.81654  0.037417147  0.038058089            2 
  789000    1.1066422   -6.4547691     354.3446  0.037425496  0.038049261            2 
  790000    1.1179284   -6.4304072     353.8738   0.03732846  0.038040098            3 
  791000    1.1303333   -6.4119905    355.07724  0.037408053  0.038031119            4 
  792000    1.1164934   -6.4548385    355.51736  0.037407129   0.03802254            2 
  793000    1.1114709   -6.4509307    355.20998  0.037327657  0.038013635            3 
  794000    1.1208424   -6.4575232    356.78859  0.037446326  0.038004793            4 
  795000     1.115621   -6.4439436    356.19737  0.037337251  0.037995858            3 
  796000    1.1479552   -6.4084202    358.63429  0.037545466  0.037986991            2 
  797000    1.1385592   -6.4141468    358.15209  0.037447939  0.037978128            5 
  798000    1.1410805   -6.4632132     358.0647  0.037391886  0.037969285            2 
  799000    1.1160919   -6.4442136    358.13002  0.037351901  0.037960364            3 
  800000    1.0913815   -6.4388163    358.74147  0.037368903  0.037951675            5 
  801000    1.1070642   -6.4322913    360.04876  0.037458257  0.037943171            1 
  802000    1.1132908   -6.4294113    361.15621  0.037526622  0.037934791            3 
  803000    1.1306429   -6.4228288    362.27651   0.03759615  0.037926687            1 
  804000    1.1352511   -6.4658005    360.79133  0.037395453  0.037918691            4 
  805000    1.1250767   -6.4330988     362.6155  0.037537836  0.037910822            3 
  806000    1.1166087   -6.4517999    362.53529   0.03748297  0.037902805            4 
  807000    1.1102948   -6.4502716    362.86772  0.037470851  0.037894882            3 
  808000    1.1143102   -6.4417194     362.7806  0.037415491  0.037886818            3 
  809000    1.0977024   -6.4914206    363.67808   0.03746169  0.037878621            3 
  810000    1.1333502   -6.4198345    363.11913  0.037357935  0.037870684            4 
  811000    1.1415125   -6.4229695    364.94941   0.03749994  0.037862634            5 
  812000    1.1098507   -6.4341589    364.51834  0.037409517   0.03785469            3 
  813000    1.0942796   -6.4344767    364.79959  0.037392331  0.037846673            3 
  814000    1.1130592   -6.4538136    364.20599  0.037285626  0.037838496            3 
  815000    1.1260655   -6.4265534     365.1724  0.037338692  0.037830541            4 
  816000     1.134082   -6.4641099    364.87591  0.037262654  0.037821902            1 
  817000    1.1123548   -6.4417075    366.60385  0.037393293  0.037813975            4 
  818000    1.1039108   -6.4669636    365.69382  0.037254871  0.037805749            4 
  819000     1.116805   -6.4533991    366.30019  0.037271081  0.037797496            5 
  820000    1.1048458   -6.4559081    367.57712  0.037355398  0.037789591            2 
  821000    1.1447219   -6.4749901    368.30451   0.03738373  0.037781612            9 
  822000    1.1212033   -6.4320161    368.00751  0.037308142   0.03777389            4 
  823000    1.1313315   -6.4387061    367.65897  0.037227518  0.037765822            3 
  824000    1.1166333   -6.4594474    367.91791  0.037208527  0.037758114            3 
  825000    1.0930197   -6.4608432     368.5654  0.037228828  0.037750368            3 
  826000     1.105314   -6.4372252    370.28017  0.037356757  0.037742604            3 
  827000    1.1441925    -6.438075    370.06227  0.037289628  0.037734822            2 
  828000     1.113491   -6.4435681    370.49959  0.037288606  0.037726968            2 
  829000    1.1448688   -6.4293979    371.82273  0.037376631  0.037719116            2 
  830000    1.1069655   -6.4257385    370.96031  0.037245011  0.037711504            3 
  831000    1.1315753   -6.4698713    371.31733  0.037235993  0.037703461            5 
  832000    1.1301081   -6.4151362    372.65941  0.037325662  0.037695447            2 
  833000    1.1217699   -6.4416203    372.64613  0.037279525  0.037687846            6 
  834000     1.118163    -6.473744    373.55271   0.03732541  0.037680488            4 
  835000    1.1439708   -6.4531847    373.82367  0.037307752  0.037673022            2 
  836000    1.1118141   -6.4680673    374.14957  0.037295611  0.037665359            6 
  837000    1.1075531   -6.4670016    373.78957   0.03721521  0.037657635            3 
  838000    1.1365489   -6.4500325    375.12605  0.037303705  0.037650063            2 
  839000    1.1127948   -6.4532018     375.7276  0.037318991  0.037642427            3 
  840000    1.1085529   -6.4461238    376.22559  0.037323967  0.037634685            2 
  841000    1.1101116   -6.4381599    375.73862  0.037231334  0.037626847            5 
  842000    1.1270905   -6.4483828    376.40466  0.037253035  0.037619347            3 
  843000    1.1066909   -6.4610311    376.54467  0.037222684  0.037611951            5 
  844000    1.1159011   -6.4609874    377.08289  0.037231723  0.037604312            2 
  845000    1.1274573   -6.4386121    378.33007  0.037310658  0.037597064            2 
  846000    1.1183654   -6.4781666     378.4775  0.037281077  0.037589831            2 
  847000    1.1189902   -6.4798697    377.41143  0.037132176  0.037582495            2 
  848000    1.1136202   -6.4689951     379.0818  0.037252535  0.037575119            3 
  849000    1.0847294   -6.4534785     378.8693  0.037187799  0.037567789            3 
  850000    1.0982278   -6.4704098    377.86767   0.03704585   0.03755995            4 
  851000    1.1125451   -6.4473147    378.20613  0.037035461  0.037552012            3 
  852000    1.1343216   -6.4337173    379.87629  0.037155349  0.037544264            4 
  853000    1.1209336   -6.4672476    380.60245  0.037182733  0.037536741            5 
  854000    1.1093637   -6.4638833     380.5352  0.037132631  0.037528838            3 
  855000    1.1255957   -6.4687497    381.68663  0.037201426   0.03752126            3 
  856000    1.1077934   -6.4663674    382.51839  0.037238939  0.037513854            3 
  857000    1.1144918   -6.4633207    382.89611  0.037232216   0.03750658            2 
  858000    1.1005997   -6.4324118    383.54314  0.037251665  0.037499395            1 
  859000    1.1170346   -6.4302571    382.93043  0.037148859  0.037492088            3 
  860000     1.097382   -6.4546039    384.36097   0.03724428  0.037484984            2 
  861000    1.1137631   -6.4979131    383.19714  0.037088379  0.037477724            4 
  862000    1.1184686   -6.4764356    385.34027   0.03725254  0.037470546            2 
  863000    1.1249973   -6.4839179    384.97892   0.03717448  0.037463565            2 
  864000    1.1205862   -6.4498038    386.16334  0.037245692  0.037456541            3 
  865000    1.1385209   -6.4585932    386.02193  0.037189011  0.037449911            3 
  866000    1.1288381   -6.4626045    386.53813   0.03719574  0.037443255            2 
  867000    1.1087384   -6.4891772    386.20038  0.037120375  0.037436846            2 
  868000    1.1294269   -6.4341435     388.6146   0.03730939  0.037430408           13 
  869000    1.0911224   -6.4568118    389.74305  0.037374669  0.037424195            2 
  870000    1.0876021   -6.4619942    389.36267  0.037295275  0.037418122            3 
  871000    1.1173308   -6.4717472    389.46636  0.037262376  0.037412159            5 
  872000    1.1135716   -6.4345838     390.0935  0.037279577  0.037406224            4 
  873000    1.1007989   -6.4238419    390.92029  0.037315797  0.037400515            3 
  874000    1.1067353   -6.4862045    390.82503  0.037264019  0.037394669            3 
  875000     1.120342   -6.4780632    390.91605    0.0372301  0.037388817            5 
  876000    1.1185144   -6.4319747    393.08445  0.037393878  0.037383376            5 
  877000    1.0925784   -6.4605693     392.7306  0.037317617   0.03737759            7 
  878000    1.0903596   -6.5094127    392.76787  0.037278651  0.037371924            7 
  879000    1.0788452   -6.4865285     393.0071  0.037258921  0.037366781            3 
  880000    1.1192036    -6.482997    393.92392  0.037303401   0.03736194            4 
  881000    1.0992727   -6.4541133    395.59351  0.037418985  0.037357004            4 
  882000    1.0958356   -6.5001867    394.45311  0.037268812  0.037351961            2 
  883000    1.1038606   -6.4289185    395.65068  0.037339626  0.037346835            6 
  884000    1.1262265    -6.477038    395.54209   0.03728715  0.037341753            3 
  885000    1.1106822   -6.4529198    397.31391  0.037411856  0.037336987            3 
  886000    1.1162473   -6.5068338    395.62632  0.037210903  0.037332179            3 
  887000    1.1024971   -6.4459313    398.07767  0.037399254  0.037327132            4 
  888000    1.1260231   -6.4585026    397.82592  0.037333513  0.037322096            4 
  889000    1.1116941   -6.4466136    398.12982  0.037320005  0.037317068            4 
  890000    1.0971101   -6.4564467    398.86069  0.037346506   0.03731222            3 
  891000    1.0895222   -6.5015984    397.98253  0.037222459  0.037307075            5 
  892000    1.1322973    -6.473522    398.66718  0.037244692  0.037302021            4 
  893000    1.0849832   -6.4276836    400.06018  0.037332976  0.037297186            3 
  894000    1.1169142   -6.4675295     400.0651  0.037291676  0.037291822            2 
  895000    1.1142627   -6.4854304    400.12245  0.037255349  0.037286764            2 
  896000     1.106767   -6.5020254    400.56065  0.037254524  0.037281858            2 
  897000    1.1198459    -6.472287     399.6315  0.037126673  0.037276683            4 
  898000    1.0798036   -6.5018496    399.54855  0.037077631  0.037271334            6 
  899000    1.1077284   -6.4827674    400.75859  0.037148553  0.037265839            3 
  900000    1.1208109   -6.4611523     402.2489  0.037245269   0.03726035            4 
  901000    1.1099717    -6.465916    401.84676  0.037166737  0.037254782            5 
  902000     1.117152   -6.4809306    401.72707  0.037114475  0.037249232            2 
  903000    1.0995777   -6.4673814    403.09037  0.037199185  0.037243736            5 
  904000       1.1277   -6.4704757    403.77298   0.03722096  0.037238322            4 
  905000     1.113897   -6.4630265    403.01821  0.037110332  0.037233224            3 
  906000    1.1075304   -6.4359421    404.59774  0.037214656   0.03722799            3 
  907000    1.0902231   -6.4410629    404.95922  0.037206837  0.037222759            4 
  908000    1.0886407   -6.4606869    404.28862  0.037104315  0.037217533            4 
  909000    1.0916878   -6.5368456    403.88124   0.03702615  0.037211922            6 
  910000    1.1065761   -6.5152856    403.91408  0.036988469  0.037205996            3 
  911000    1.0919718   -6.4948128    403.89349  0.036945984  0.037199931            4 
  912000    1.1006893   -6.4530323    405.34149  0.037037783  0.037193696            2 
  913000    1.0966441   -6.4581296    405.82049  0.037040936  0.037187584            3 
  914000    1.1131591   -6.4834529    406.23968  0.037038628   0.03718152            5 
  915000    1.0993636   -6.4455115    406.93196  0.037061199  0.037175674            3 
  916000    1.1234596   -6.4864284     407.5834  0.037080004  0.037169766            4 
  917000    1.1123787   -6.4964967     406.6703  0.036956589   0.03716364            5 
  918000    1.1192004   -6.4644366    406.24059  0.036877323   0.03715761            2 
  919000    1.0957166   -6.4638787    407.70805  0.036970262  0.037151669            5 
  920000    1.0723812   -6.4605343    407.54899  0.036915669  0.037145275            6 
  921000    1.0929975   -6.4849214    407.26625  0.036850005  0.037138647            3 
  922000    1.1194472   -6.4896966    407.25398  0.036808928  0.037132145            4 
  923000    1.0873352   -6.4729936    409.18965  0.036943811  0.037125743            2 
  924000    1.0960587   -6.4785554    408.94418   0.03688169  0.037119221            5 
  925000    1.0944534   -6.4879213    409.94805  0.036932257  0.037112529            4 
  926000    1.1000383   -6.4718426    408.52422  0.036764238  0.037105595            4 
  927000    1.1095689   -6.4770095    409.04881  0.036771738  0.037098972            4 
  928000    1.1193398   -6.4936951     410.8707  0.036895716  0.037092413            2 
  929000    1.1374919   -6.5092443    408.98049  0.036686445   0.03708566            3 
  930000    1.1002016   -6.4917466      411.379  0.036861917   0.03707878            2 
  931000    1.1035071   -6.4988675    411.50263   0.03683339  0.037071903            2 
  932000    1.0951879   -6.4662395    412.37646  0.036872001  0.037065276            5 
  933000     1.098356   -6.4874182     412.0807  0.036806065  0.037058665            5 
  934000    1.0994656   -6.4934517    412.48442  0.036802679  0.037052233            2 
  935000    1.1103543   -6.4922833    413.89225  0.036888793  0.037045517            6 
  936000    1.0863091   -6.4941662    412.93229  0.036763915  0.037038972            5 
  937000    1.1172896   -6.4993176    413.32567  0.036759665  0.037032244            2 
  938000    1.1061122   -6.5132983    412.76843  0.036670969  0.037025674            4 
  939000    1.0692929   -6.4916083    415.10711  0.036839466  0.037019073            3 
  940000     1.096954   -6.4890589    414.98909  0.036789813  0.037012216            2 
  941000    1.1060567   -6.4961975    414.57316  0.036713882  0.037005663            2 
  942000    1.0995752    -6.485984     415.6022  0.036765941  0.036999339            4 
  943000    1.0753686   -6.4722696    416.38108  0.036795783  0.036993115            3 
  944000    1.1133844   -6.4968102    417.38539  0.036845462  0.036986861            4 
  945000     1.097416   -6.4841406    416.80661  0.036755433  0.036980584            7 
  946000     1.088983   -6.4310294    418.20389  0.036839666  0.036974579            2 
  947000    1.1009137   -6.4800932    419.50127   0.03691493  0.036968536            3 
  948000    1.1238023   -6.4476255    420.50866  0.036964544   0.03696263            3 
  949000    1.1134935   -6.5048534    419.15365  0.036806608   0.03695694            5 
  950000    1.1079487   -6.5006693    419.45854  0.036794609  0.036951106            4 
  951000    1.1036545   -6.4961823    420.16215  0.036817574   0.03694514            2 
  952000    1.1169907   -6.5195826    420.95606  0.036848395  0.036939568            3 
  953000    1.1204459   -6.4758137    421.25256  0.036835656  0.036934208            4 
  954000    1.1170678   -6.4839915    421.78567  0.036843612  0.036928808            5 
  955000    1.1009725   -6.4702767    422.65304  0.036880719  0.036923226            4 
  956000    1.0645954   -6.5140455      422.749  0.036850506  0.036918093            2 
  957000    1.0932126   -6.5015832     422.1986  0.036764072  0.036912653            2 
  958000    1.0814388   -6.4701792    423.25018   0.03681717  0.036907098            3 
  959000    1.1098273   -6.5040911     423.0578  0.036762061  0.036901761            2 
  960000    1.0993964   -6.5098691    424.02825  0.036808008   0.03689622            3 
  961000    1.0890768   -6.5086292    424.46896  0.036807923  0.036890956            2 
  962000    1.0821478   -6.5026162    424.96343  0.036812494  0.036885695            4 
  963000    1.1250215   -6.5172094    425.45029  0.036816398  0.036880087            3 
  964000     1.105778   -6.5079309    424.44497  0.036691301  0.036874308            6 
  965000    1.0964478   -6.4928599    427.45587  0.036913288  0.036868903            4 
  966000    1.0984291   -6.4739369    427.90706  0.036913998   0.03686367            3 
  967000    1.0810853   -6.4938572    427.86846  0.036872497  0.036858329            3 
  968000    1.0794978   -6.5005956    426.87068  0.036748509  0.036852988            2 
  969000     1.108358   -6.5318398    428.28995  0.036832641  0.036847555            3 
  970000    1.0983301    -6.490523    428.23279  0.036789759  0.036842312            3 
  971000    1.0813962   -6.4919909    428.47323  0.036772505  0.036836721            3 
  972000    1.1077559   -6.4686404    429.17683  0.036794996  0.036831485            4 
  973000    1.1048585   -6.5012199     429.7093  0.036802784  0.036826285            2 
  974000     1.121441   -6.5092972    430.45224  0.036828563  0.036820804            3 
  975000    1.0903283   -6.5014371    430.42081  0.036788103  0.036815403            3 
  976000    1.1271903   -6.5009904    430.17646  0.036729548  0.036809814            2 
  977000    1.0925719   -6.5182146    430.82519  0.036747286  0.036803957            2 
  978000    1.0900856   -6.4934626     430.6757  0.036696975  0.036798005            2 
  979000    1.0810785   -6.4862069    429.39537  0.036550508  0.036792043            2 
  980000    1.1170812   -6.5056622    430.58785  0.036614613   0.03678594            4 
  981000    1.1115247   -6.5065018    429.28346  0.036466484  0.036779635            3 
  982000    1.0833111   -6.5322578    430.55553  0.036537299  0.036773117            2 
  983000    1.1056432   -6.4915486    431.13093  0.036548909  0.036766678            4 
  984000    1.1031051   -6.4948174     431.8332   0.03657124  0.036760352            2 
  985000    1.0831717   -6.4768253    432.51677  0.036591943  0.036754023            2 
  986000    1.0759723   -6.5029238    432.67467  0.036568177  0.036747866            5 
  987000    1.1124418   -6.5010758    434.73242  0.036704865  0.036741939            5 
  988000    1.1058822   -6.5262089    432.95742  0.036518001   0.03673625            4 
  989000    1.0907588   -6.5123466    434.99249  0.036652552  0.036730258            2 
  990000    1.1054732   -6.4613316    435.55353  0.036662755  0.036724662            2 
  991000    1.1128155   -6.5215748    435.31411  0.036605626  0.036719015            4 
  992000    1.1047967   -6.5136263    436.53433  0.036671231  0.036713278            4 
  993000    1.1160825    -6.512727    434.69342   0.03647981  0.036707603            3 
  994000    1.1032105   -6.5138243    436.35822  0.036582681  0.036701684            6 
  995000    1.0656856     -6.51939     436.1936  0.036532127  0.036695398            3 
  996000    1.0713976   -6.4951258    436.21264  0.036497041  0.036689138            4 
  997000    1.1068458    -6.506309    437.20216  0.036543142  0.036683034            3 
  998000    1.0873195       -6.527    435.46305   0.03636131  0.036676727            4 
  999000    1.1225258   -6.5110815    439.49481  0.036661229  0.036670711            4 
 1000000    1.1085855   -6.5086926    438.15317  0.036512764  0.036664736            2 
 1001000    1.0819123   -6.5375338    439.07307   0.03655287  0.036658821            4 
 1002000    1.0883035   -6.5018763       439.24  0.036530273  0.036652827            5 
 1003000    1.0911851   -6.4685769    438.99136  0.036473194  0.036646738            1 
 1004000    1.0841863   -6.5241986     439.7059  0.036496174   0.03664074            4 
 1005000     1.085213   -6.4905593    440.03697  0.036487311  0.036634515            2 
 1006000    1.0793271   -6.4855438    440.64935  0.036501768  0.036628613            3 
 1007000    1.1053241   -6.4935059     439.0409  0.036332415  0.036622706            6 
 1008000    1.0890003   -6.4839754    441.40421   0.03649175  0.036616597            4 
 1009000    1.0919133    -6.508836    441.53157  0.036466103  0.036610416            2 
 1010000    1.0880345   -6.5050494    442.31022  0.036494242   0.03660453            3 
 1011000    1.0623058   -6.5361822    442.56071  0.036478792  0.036598709            2 
 1012000    1.1029755   -6.4681856     442.9962  0.036478607  0.036592807            2 
 1013000    1.0855985   -6.5265066    442.74564  0.036421984  0.036586627            4 
 1014000     1.074225    -6.491434    444.19116  0.036504862  0.036580473            4 
 1015000    1.1033725   -6.5471344    443.81502  0.036438015  0.036574552            8 
 1016000      1.09321   -6.4942346    443.74106  0.036396085  0.036568694            1 
 1017000    1.0816321    -6.528207    445.18425  0.036478552  0.036562839            3 
 1018000    1.0826371   -6.5139758    445.38438  0.036459102  0.036557158            7 
 1019000    1.0786564   -6.5014102    445.30672  0.036416971  0.036551407            3 
 1020000    1.1110988   -6.5186346    446.99299  0.036519035  0.036545338            3 
 1021000    1.0892767   -6.5482591    446.06791  0.036407763  0.036539501            3 
 1022000    1.1383775   -6.4973118     447.3966  0.036480479  0.036533773            4 
 1023000    1.0835844   -6.5012896     446.5874  0.036378902   0.03652813            3 
 1024000    1.1006411    -6.505057    448.51044  0.036499873  0.036522224            2 
 1025000    1.1164989   -6.5164809    447.35731  0.036370513  0.036515995            4 
 1026000    1.0812787   -6.5172153    448.60403  0.036436325  0.036510104            6 
 1027000    1.0866024   -6.4903747    447.77158    0.0363333  0.036504053            7 
 1028000    1.0840677    -6.476098    449.65864  0.036450928  0.036498138            2 
 1029000    1.0776183   -6.5243852    450.31768  0.036468876  0.036492328            6 
 1030000    1.0884299    -6.490257    450.12976  0.036418265  0.036486575            3 
 1031000    1.0983133   -6.5566874    449.47546  0.036330056  0.036480874            3 
 1032000    1.1010626   -6.5385415    450.05529  0.036341674     0.036475            5 
 1033000    1.0893226   -6.5374885    451.50901  0.036423767  0.036469002            4 
 1034000    1.0846652   -6.5153764    449.48413  0.036225349  0.036462972            3 
 1035000    1.0721479   -6.4964264    450.44389  0.036267624  0.036456711            5 
 1036000    1.0878048   -6.5397677    450.79578  0.036260922  0.036450519            5 
 1037000    1.0682174   -6.5180609    450.90715  0.036234904  0.036444384            2 
 1038000    1.0806186   -6.4905681    452.80803  0.036352604  0.036438284            4 
 1039000    1.0793185   -6.5658285    451.88113  0.036243273  0.036431954            3 
 1040000    1.0671752   -6.4749635    453.97742  0.036376396  0.036425964            5 
 1041000    1.0642163   -6.4656353    453.62097  0.036312918  0.036419917            3 
 1042000    1.0990788   -6.5201658    454.18704   0.03632334  0.036413855            4 
 1043000    1.0966227   -6.5464519    453.86091  0.036262457  0.036407766            3 
 1044000    1.0504295   -6.4890093    454.53253  0.036281332  0.036401576            5 
 1045000    1.0720747   -6.5111817    456.35826  0.036392206  0.036395514            2 
 1046000    1.0591145   -6.5022853    455.78685  0.036311891  0.036389549            3 
 1047000    1.0788562    -6.541172    454.40588  0.036167293  0.036383674            4 
 1048000    1.0797171   -6.5385142     456.1013  0.036267597  0.036377811            3 
 1049000    1.1018954   -6.5183495    457.41378  0.036337288   0.03637213            3 
 1050000    1.0842944   -6.4949863    457.10484  0.036278162   0.03636649            2 
 1051000    1.0587393   -6.5447544    457.02501  0.036237315  0.036360798            3 
 1052000    1.1058002   -6.5006269    458.04887  0.036283972  0.036354814            5 
 1053000    1.1046215   -6.5358448    456.20893  0.036103904  0.036348813            5 
 1054000    1.0608139   -6.5002654    457.00672  0.036132726  0.036342426            2 
 1055000    1.0936641   -6.5564264    456.47684  0.036056622  0.036336063            4 
 1056000    1.0674704   -6.5200274    457.77648  0.036125037  0.036329904            3 
 1057000    1.0864647    -6.534786    457.82651  0.036094805  0.036323608            2 
 1058000    1.1021237   -6.5182416    459.43172  0.036187124  0.036317434            2 
 1059000    1.1009396   -6.5265515    458.34068  0.036067098  0.036311237            2 
 1060000    1.0843716    -6.524661     459.4775  0.036122445  0.036304868            3 
 1061000     1.076486   -6.5357156    458.77438  0.036033174  0.036298434            3 
 1062000    1.0969047   -6.5135345    460.59822  0.036142358  0.036291847            2 
 1063000    1.0787951   -6.5388143    459.60034   0.03603013  0.036285373            5 
 1064000    1.0839312   -6.5430237    460.16967  0.036040858  0.036278726            2 
 1065000    1.0887679   -6.5301786    461.68176  0.036125333  0.036272419            2 
 1066000    1.0820658   -6.5414715     461.8322  0.036103205  0.036265909            7 
 1067000    1.0491818   -6.5260445    461.16689  0.036017408  0.036259248            3 
 1068000    1.0822938   -6.5049057    460.41407  0.035924943  0.036252473            3 
 1069000    1.0850093    -6.555849    462.12441  0.036024666  0.036245765            5 
 1070000    1.0966277    -6.505034    463.18708   0.03607376  0.036239077            5 
 1071000    1.0685796   -6.5452781    462.83264    0.0360125  0.036232361            5 
 1072000    1.0876979   -6.4904707    463.65612   0.03604292  0.036225769            5 
 1073000    1.0952653   -6.4942314    463.11802  0.035967538  0.036219342            3 
 1074000    1.0617296   -6.5225769    464.07304   0.03600815  0.036212878            4 
 1075000    1.0652731   -6.5310412    463.77311  0.035951404  0.036206582            2 
 1076000    1.0680676   -6.5145155    466.05333  0.036094589  0.036200131            3 
 1077000    1.0702194   -6.5444107    465.28432  0.036001572  0.036193795            3 
 1078000    1.0769659   -6.5175588    465.63613  0.035995372  0.036187271            2 
 1079000     1.075106   -6.5563161    464.53093  0.035876655  0.036180719            3 
 1080000    1.0797197   -6.5439476    464.62867  0.035850978  0.036173925            3 
 1081000    1.0765136   -6.5561532    466.23919  0.035941967   0.03616718            6 
 1082000    1.0969972   -6.4970235    466.32388  0.035915271   0.03616048            3 
 1083000    1.0773342    -6.534869    466.27821  0.035878594  0.036153525            3 
 1084000    1.0843679   -6.5632435    467.58273  0.035945782  0.036146697            5 
 1085000    1.0930907   -6.4932263    467.83766  0.035932232  0.036140131            5 
 1086000    1.0571527   -6.5330895    467.33092  0.035860261  0.036133415            4 
 1087000     1.053773   -6.5174842    468.73324  0.035934778  0.036126699            4 
 1088000    1.0861801   -6.4962272    469.29475  0.035944758  0.036120037            2 
 1089000    1.0836639   -6.5614008    469.88745  0.035957105  0.036113435            2 
 1090000    1.0923953   -6.5280221    470.68625  0.035985188  0.036106667            4 
 1091000    1.0760994    -6.581521     468.3378  0.035772823  0.036099891            3 
 1092000    1.0576583   -6.5465878    470.38532  0.035896316  0.036093247            3 
 1093000    1.0655387   -6.5745156    469.73439  0.035813845  0.036086563            3 
 1094000    1.0635752   -6.5425557    470.33412  0.035826791  0.036080313            2 
 1095000    1.0810055   -6.5263506    472.22288  0.035937815  0.036074091            4 
 1096000    1.0642968    -6.526886     472.5356  0.035928802  0.036067823            3 
 1097000     1.073486    -6.559581     473.2222  0.035948207  0.036061711            2 
 1098000    1.0823385   -6.5498348    473.56336   0.03594136   0.03605581            6 
 1099000     1.077724   -6.5267239    474.80682  0.036002944  0.036049503            5 
 1100000    1.0821165   -6.5075907    473.65506  0.035882959  0.036043254            3 
 1101000    1.0948864   -6.5418418    475.06762  0.035957283  0.036036822            5 
 1102000     1.073294   -6.5244615     474.0607   0.03584851  0.036030331            3 
 1103000    1.0830522   -6.5345022    474.32378  0.035835885  0.036023851            2 
 1104000    1.0838782   -6.5594584    473.75669  0.035760619  0.036017347            3 
 1105000    1.0682718   -6.5220543    476.32947  0.035922283   0.03601094            5 
 1106000    1.0713098   -6.5249875    475.40659  0.035820268  0.036004567            4 
 1107000    1.0810719   -6.5252321    475.69527  0.035809641  0.035998238            2 
 1108000    1.0794206   -6.5519863    477.06406  0.035880269  0.035991915            3 
 1109000    1.0529905   -6.5385271    476.54978  0.035809271  0.035985984            2 
 1110000    1.0892721   -6.5433689    475.89943  0.035728186  0.035979498            3 
 1111000    1.0658973   -6.5534735    477.17352  0.035791593  0.035973039            4 
 1112000    1.1041704   -6.5320903    477.53389  0.035786413  0.035966423            3 
 1113000    1.0684973   -6.5118457    477.34983  0.035740478  0.035960051            3 
 1114000    1.0818432   -6.5777568    478.53748  0.035797238  0.035953722            1 
 1115000    1.0645862    -6.530879    477.05672  0.035654463  0.035947141            3 
 1116000    1.0672341   -6.5075556    479.70771  0.035820468  0.035940764            4 
 1117000    1.0848999   -6.5937543    477.44825  0.035619833   0.03593419            1 
 1118000    1.0686705   -6.5929935    479.23246  0.035720964  0.035927434            4 
 1119000    1.0907953   -6.5475793    480.26577  0.035765994  0.035920723            5 
 1120000    1.0850491   -6.5427305    479.34595  0.035665621  0.035914168            9 
 1121000    1.0855924   -6.5551197    478.61028  0.035579117   0.03590738            3 
 1122000    1.0643125   -6.5613978    478.47737  0.035537535  0.035900667            7 
 1123000    1.1108287   -6.5599099    479.32937  0.035569113  0.035893695            3 
 1124000    1.0728113   -6.5595559    479.52968  0.035552319  0.035886639            5 
 1125000    1.0773944   -6.5551707    480.71189  0.035608288  0.035879507            7 
 1126000    1.0774108   -6.5116248    482.87117  0.035736469  0.035872574            2 
 1127000    1.0823063     -6.53384    482.15969  0.035652151  0.035865647            4 
 1128000    1.0930816   -6.5255708    480.87127   0.03552536  0.035858754            5 
 1129000    1.0769829   -6.5561062    481.20405  0.035518457  0.035851395            3 
 1130000     1.067425   -6.5601185    480.77603  0.035455459  0.035844098            3 
 1131000    1.0679932   -6.5741885    482.13504  0.035524244  0.035836784            2 
 1132000    1.0551846   -6.5571019    482.16034  0.035494725   0.03582953            4 
 1133000    1.0745044   -6.5609529    482.28608  0.035472645  0.035822314            6 
 1134000    1.0765863   -6.5885068    480.90759  0.035340064  0.035815026            3 
 1135000    1.0735449     -6.51181    484.09653  0.035543064  0.035807972            3 
 1136000    1.0676627   -6.5371076    485.07018    0.0355832  0.035800902            3 
 1137000    1.0555994   -6.5519968    485.58694  0.035589779  0.035793783            3 
 1138000    1.0732498   -6.5720693    485.43957  0.035547713  0.035786824            4 
 1139000    1.0883898   -6.5279558     486.1314   0.03556712  0.035779769            5 
 1140000    1.0621743   -6.5469459    485.88403  0.035517839  0.035772845            3 
 1141000    1.0680966    -6.546387    486.03805  0.035497959  0.035765871            6 
 1142000    1.0645649   -6.5279525    486.11106  0.035472202  0.035758794            3 
 1143000    1.0898572   -6.5722047    485.75031  0.035414866  0.035751782            3 
 1144000    1.0697881   -6.5403035    486.62639  0.035447727  0.035744749            3 
 1145000    1.0682146   -6.5540121    487.29331  0.035465306  0.035737669            3 
 1146000    1.0725312   -6.5570994    486.37107  0.035367297  0.035730652            1 
 1147000    1.0606257   -6.5474192    489.15623  0.035538814  0.035723667            4 
 1148000    1.0751752   -6.5275859    489.82258  0.035556227  0.035716882            3 
 1149000     1.035081   -6.5413074    489.62839  0.035511198  0.035710135            4 
 1150000    1.0891248   -6.5829989    489.05557  0.035438809  0.035703116            3 
 1151000    1.0777807   -6.5643934     490.0275  0.035478389  0.035696067            3 
 1152000    1.0755127   -6.5338468    489.22897  0.035389827  0.035689257            2 
 1153000    1.0682508   -6.5506951    488.87968  0.035333889   0.03568213            5 
 1154000      1.09202   -6.5494844    489.78652  0.035368755  0.035675088            4 
 1155000    1.0543379   -6.5432432    489.30959  0.035303722  0.035667945            6 
 1156000     1.061609   -6.5345717    491.29964  0.035416641  0.035660488            6 
 1157000    1.0809843    -6.575717    489.45574  0.035253223  0.035653036            3 
 1158000    1.0708926   -6.5358014    488.86984  0.035180616  0.035645742            3 
 1159000    1.0484163   -6.5382852    490.36194  0.035257545  0.035638362            3 
 1160000    1.0666601     -6.57308    489.91582  0.035195102  0.035630877            3 
 1161000    1.0601108   -6.5416941    491.44778  0.035274748  0.035623351            3 
 1162000    1.0710696   -6.5807951    491.81627  0.035270817  0.035615862            2 
 1163000    1.0529564   -6.5722437    492.41728  0.035283554  0.035608257            7 
 1164000    1.0794612   -6.5791558    491.95328  0.035220023  0.035600585            3 
 1165000    1.0616308   -6.5605401    491.88558  0.035184948  0.035592994            3 
 1166000    1.0766292   -6.5287954    493.60478  0.035277643   0.03558538            2 
 1167000    1.0669056   -6.5486406    494.94592  0.035343182  0.035577978            4 
 1168000    1.0780566   -6.6000842    492.98235  0.035172827  0.035570545            9 
 1169000    1.0738744   -6.5730132    494.22333  0.035231204  0.035563072            8 
 1170000    1.0724549    -6.559666    493.10567  0.035121486  0.035555676            2 
 1171000    1.0625385    -6.567104    493.40125  0.035112529  0.035547725            2 
 1172000    1.0639007   -6.5338295      495.238  0.035213168  0.035540067            2 
 1173000    1.0766459   -6.5599034    494.87619  0.035157444  0.035532574            5 
 1174000    1.0794649   -6.5600723    495.51465  0.035172817  0.035524961            5 
 1175000    1.0527352   -6.5699568    493.53544  0.035002513  0.035517207            4 
 1176000    1.0689852   -6.5830504    494.15643  0.035016754  0.035509286            5 
 1177000    1.0638873   -6.5372165    496.05428  0.035121374  0.035501468            3 
 1178000    1.0763317   -6.5398131    495.31972  0.035039595  0.035493817            4 
 1179000    1.0754473   -6.5892052    496.13203  0.035067291   0.03548611            5 
 1180000    1.0661276   -6.5703724    496.09209  0.035034752  0.035478419            3 
 1181000    1.0795308   -6.5490434    497.49859  0.035104332  0.035470677            2 
 1182000     1.087616   -6.5709426    497.63269  0.035084087  0.035462692            2 
 1183000    1.0535715   -6.5742314     497.6578  0.035056199  0.035454754            2 
 1184000    1.0972376   -6.5130357    498.15965  0.035061912  0.035447007            3 
 1185000     1.078739   -6.5250537     498.2261  0.035036997  0.035439365            5 
 1186000    1.0632787   -6.5764118    496.88915  0.034913515  0.035431546            4 
 1187000    1.0651363   -6.5862209    496.66905   0.03486865  0.035423555            4 
 1188000    1.0329162   -6.5957215    498.67354  0.034979906  0.035415509            2 
 1189000    1.0769854   -6.5725563    498.98164   0.03497208  0.035407463            7 
 1190000    1.0533584   -6.5722587    499.27279  0.034963081  0.035399528            5 
 1191000    1.0568613   -6.5819078    499.77125  0.034968602  0.035391627            3 
 1192000    1.0970745   -6.5649207     498.0846   0.03482135  0.035383611            3 
 1193000    1.0471938   -6.5849021    500.53479  0.034963313  0.035375716            2 
 1194000    1.0708519   -6.5766002    500.34851  0.034921029  0.035367779            4 
 1195000    1.0378568   -6.5516113    499.17526   0.03480999  0.035359814            3 
 1196000    1.0486697   -6.6030343    499.72667  0.034819306   0.03535169            4 
 1197000    1.0411795   -6.5587203    502.08245  0.034954223  0.035343676            3 
 1198000     1.054203   -6.5784992     501.8622  0.034909724  0.035335818            2 
 1199000    1.0631007   -6.5365063    502.02957  0.034892241  0.035327861            5 
 1200000    1.0404949   -6.5916342    501.92591  0.034855966  0.035320052            3 
 1201000    1.0456003   -6.5517649    501.95105  0.034828688  0.035312027            5 
 1202000    1.0536183   -6.5344206    502.98975  0.034871724  0.035303903            3 
 1203000    1.0590502   -6.5500489     501.9546   0.03477103  0.035295807            4 
 1204000    1.0381805   -6.5590207    502.98441  0.034813428  0.035287656            4 
 1205000    1.0498196   -6.5273455    503.88179  0.034846597  0.035279631            6 
 1206000    1.0652836   -6.5603669    503.07771  0.034762141  0.035271615            6 
 1207000    1.0618257   -6.5369093    505.92777  0.034930114  0.035263721           10 
 1208000    1.0813476   -6.5423028    504.75758  0.034820473  0.035255659            5 
 1209000    1.0716751   -6.5682888      505.611  0.034850496  0.035247598            2 
 1210000     1.058115   -6.5542453    503.89157  0.034703276  0.035239365            2 
 1211000    1.0751025   -6.5781395    505.47971  0.034783905  0.035231311           10 
 1212000    1.0382258   -6.6112928    505.37764  0.034748187   0.03522318            4 
 1213000    1.0764773   -6.5957961    505.46843  0.034725778   0.03521511            2 
 1214000    1.0544837     -6.59054    504.92066  0.034659573  0.035207023            5 
 1215000    1.0648643   -6.5519899    507.06537  0.034778146  0.035198829            4 
 1216000    1.0417783   -6.5665582    506.31766  0.034698305  0.035190696            4 
 1217000     1.051609   -6.5574933    506.28519   0.03466757  0.035182539            2 
 1218000    1.0501205   -6.5671531    507.43274  0.034717621  0.035174409            3 
 1219000    1.0546263   -6.5682559    508.95648  0.034793306  0.035166486            5 
 1220000    1.0607136   -6.5564411    509.55928  0.034805962  0.035158393            7 
 1221000    1.0497767   -6.5912171    509.15312  0.034749735  0.035150232            2 
 1222000      1.05298   -6.5419262    508.84906  0.034700563  0.035142368            3 
 1223000    1.0577833   -6.5745466    509.87981  0.034742424  0.035134447            5 
 1224000    1.0367253   -6.5944007    509.91783  0.034716628   0.03512656            2 
 1225000    1.0704492   -6.5757305    510.05087  0.034697338  0.035118634            4 
 1226000    1.0683102     -6.60815     509.8826  0.034657599  0.035110731            6 
 1227000    1.0452689   -6.5737684    511.45231  0.034735962  0.035102721            2 
 1228000     1.067747   -6.6002223    510.98237  0.034675785     0.035095            3 
 1229000    1.0568721   -6.5546959    511.05298  0.034652358  0.035087324            9 
 1230000    1.0423898   -6.5566619    511.96454  0.034685944  0.035079663            6 
 1231000     1.065803   -6.5741201    512.34845  0.034683757  0.035071863            6 
 1232000    1.0524387   -6.5357768    513.62626  0.034742036  0.035064108            4 
 1233000    1.0471239   -6.5276312    513.08604  0.034677348  0.035056429            3 
 1234000    1.0479246   -6.5754742    513.42691  0.034672266  0.035048731            7 
 1235000    1.0568178   -6.6059229    514.82351  0.034738429  0.035040969            2 
 1236000    1.0607937   -6.5742055    514.16284  0.034665779   0.03503317            6 
 1237000    1.0356884    -6.605009    514.55485  0.034664164  0.035025384            3 
 1238000    1.0385491   -6.5507831    515.18292  0.034678441  0.035017819            3 
 1239000    1.0553081   -6.5474588    515.91862  0.034699934  0.035010139            8 
 1240000     1.060898   -6.5846214    514.89608  0.034603231  0.035002451            7 
 1241000    1.0465947    -6.591472    516.75682  0.034700297  0.034994688            3 
 1242000    1.0583265   -6.5562847    515.85452  0.034611817  0.034986955            5 
 1243000    1.0718715   -6.5786688    516.23857  0.034609719  0.034979365            3 
 1244000    1.0392771   -6.5858701    516.91821  0.034627426   0.03497171            3 
 1245000    1.0544833   -6.5923196    516.65039  0.034581686  0.034964105            4 
 1246000    1.0365737   -6.5799562    517.19046  0.034590052  0.034956383            4 
 1247000    1.0539259   -6.5697308    517.99205  0.034615881  0.034948571            4 
 1248000    1.0465739   -6.5876873    516.35304  0.034478702  0.034940697            3 
 1249000    1.0592273   -6.6076031    516.76555  0.034478619  0.034932627            2 
 1250000    1.0506587   -6.5611105    517.89136  0.034526091  0.034924614            5 
 1251000    1.0427598   -6.5839537    517.54149  0.034475186  0.034916387           10 
 1252000    1.0385448   -6.5351464    517.50203  0.034445024  0.034907993            4 
 1253000    1.0702655   -6.6158201    517.89301  0.034443536  0.034899807            3 
 1254000    1.0529461   -6.5896095    518.00231  0.034423333  0.034891677            5 
 1255000    1.0705513   -6.5627887    519.03438  0.034464434  0.034883604            9 
 1256000    1.0485277   -6.5995218    518.72541  0.034416495  0.034875394            4 
 1257000     1.056393   -6.5957251    518.74424  0.034390364  0.034867187            6 
 1258000    1.0364204   -6.6037741    518.45616  0.034343943  0.034858852            8 
 1259000    1.0572051   -6.5485112    520.55519  0.034455599  0.034850471            6 
 1260000    1.0433644   -6.5717561    520.55547  0.034428272  0.034842278            3 
 1261000    1.0639014   -6.5756842    521.32794  0.034452018  0.034834062            5 
 1262000    1.0649969   -6.5849012    519.56622  0.034308387  0.034825752            2 
 1263000    1.0681667   -6.5951016    520.65679   0.03435318  0.034817514            3 
 1264000    1.0442519   -6.5362971    520.22701  0.034297667  0.034809333            3 
 1265000    1.0532348   -6.5541722    521.31863  0.034342466  0.034800987            8 
 1266000    1.0628623   -6.5797576    520.14824  0.034238299  0.034792674            3 
 1267000    1.0532118   -6.5838908    523.01218  0.034399644  0.034784381            3 
 1268000    1.0607856   -6.6151997    522.00011  0.034306001  0.034776164            5 
 1269000    1.0635261   -6.6018308    523.67315  0.034388833  0.034767908            2 
 1270000    1.0517187   -6.5732785    523.63459  0.034359225  0.034759628            7 
 1271000    1.0648271   -6.6316843    522.49646   0.03425757  0.034751425            4 
 1272000    1.0543791   -6.5702693    524.53869  0.034364432  0.034743257            2 
 1273000    1.0285161   -6.5614034    524.22328   0.03431679  0.034735126            4 
 1274000    1.0549093   -6.5798808    523.42557  0.034237675  0.034727059            3 
 1275000    1.0284808   -6.5692948    522.92589  0.034178162  0.034718794            3 
 1276000    1.0373073   -6.5915093    524.34344  0.034243955   0.03471057            9 
 1277000     1.040844   -6.5771131    524.99272  0.034259509  0.034702403            3 
 1278000    1.0479972   -6.5637502    525.82775  0.034287151   0.03469404            4 
 1279000    1.0625273   -6.5979505    524.06596  0.034145554  0.034685511            2 
 1280000    1.0560743   -6.5887641    526.11672  0.034252391   0.03467695            1 
 1281000    1.0506483   -6.5848022    524.57289  0.034125221  0.034668566            1 
 1282000    1.0196923   -6.5830597    526.08973    0.0341972  0.034660114            4 
 1283000     1.012247   -6.5426878    526.56697  0.034201544  0.034651649            5 
 1284000    1.0407258   -6.5833753    525.29031   0.03409205    0.0346431            4 
 1285000    1.0524854   -6.6099186     525.2748  0.034064513  0.034634477            4 
 1286000    1.0459865   -6.5860937    525.61884  0.034060319  0.034626033            4 
 1287000    1.0610855   -6.6040556    526.92314  0.034118307   0.03461752            3 
 1288000    1.0562592   -6.5599086    527.57964  0.034134294  0.034608954            7 
 1289000    1.0627745   -6.6000668    527.37804  0.034094779  0.034600614            3 
 1290000    1.0526123   -6.5753174     528.5388  0.034143333  0.034592335            3 
 1291000    1.0525485   -6.5765607    529.14936  0.034156297  0.034583933            1 
 1292000    1.0224052   -6.6224219    528.23033  0.034070584  0.034575562            5 
 1293000    1.0582193   -6.6213674    528.13516    0.0340381  0.034567067            4 
 1294000    1.0422955   -6.5987697    530.71862   0.03417817  0.034558774            4 
 1295000     1.041322   -6.5687427    531.32916  0.034191066  0.034550493            3 
 1296000    1.0352167   -6.5442293    530.90763  0.034137579  0.034542256            3 
 1297000    1.0530856   -6.5975209    530.26815  0.034070171  0.034534071            3 
 1298000    1.0462663   -6.6009115    530.33237  0.034048047  0.034525643            5 
 1299000    1.0489731   -6.5947197    530.76315  0.034049471   0.03451747            2 
 1300000    1.0270972   -6.5758778    533.26838   0.03418387  0.034509243            4 
 1301000     1.028282   -6.6000104    531.67409  0.034055476  0.034501172            2 
 1302000    1.0512448     -6.58194    532.80656  0.034101803   0.03449303            5 
 1303000     1.041779   -6.5720006    531.32625  0.033980957  0.034484991            6 
 1304000    1.0461513   -6.5577562     534.9584  0.034187014  0.034476886            3 
 1305000    1.0446411   -6.5931149    533.47398  0.034066027  0.034468706            4 
 1306000    1.0420822   -6.6076669    533.57113  0.034046141  0.034460667            7 
 1307000    1.0443352   -6.5860076    533.66992  0.034026391  0.034452531            7 
 1308000    1.0477519   -6.5921567     533.4816  0.033988379  0.034444412            3 
 1309000     1.048921   -6.5668316    535.80447  0.034110292  0.034436471            3 
 1310000    1.0170968   -6.5732416    535.21303   0.03404663  0.034428503            4 
 1311000    1.0563495   -6.5891881    534.63741  0.033984071   0.03442036            3 
 1312000    1.0491248   -6.6221929    535.75321   0.03402904  0.034412311            9 
 1313000    1.0412989   -6.5894422    534.95617  0.033952537  0.034404331            6 
 1314000    1.0360148   -6.5788077    535.20893  0.033942728  0.034396435            2 
 1315000    1.0425176   -6.6405621    535.31174  0.033923431  0.034388458            3 
 1316000    1.0300895   -6.6208049    537.12013  0.034012166  0.034380362            2 
 1317000     1.041593   -6.5929635    538.59961  0.034079955  0.034372283            2 
 1318000    1.0229247   -6.5857392    536.66845  0.033931996  0.034364322            2 
 1319000    1.0367571   -6.5783329     535.4121  0.033826896  0.034356301            3 
 1320000    1.0610105    -6.614475    536.88847  0.033894474  0.034348284            2 
 1321000    1.0543753   -6.5772473    538.31117  0.033958565  0.034340431            6 
 1322000    1.0529714   -6.6057272     538.3298  0.033934052  0.034332553            6 
 1323000    1.0349975   -6.6249875    537.38843  0.033849108  0.034324646            3 
 1324000    1.0467129    -6.544011    541.59473  0.034088288  0.034316906            3 
 1325000    1.0580559   -6.6090646    539.20715  0.033912399  0.034309356            4 
 1326000    1.0148185   -6.6570097    539.94592  0.033933253  0.034301632            1 
 1327000    1.0286059   -6.5947329    539.97655  0.033909605  0.034293712            2 
 1328000    1.0274313   -6.6196827    541.24838  0.033963879  0.034285898            2 
 1329000     1.048493   -6.5791388    543.02664  0.034049827  0.034278284            8 
 1330000    1.0448824   -6.6052744    541.86084   0.03395118  0.034270667            4 
 1331000    1.0203854   -6.6071301    543.05786  0.034000617  0.034262937            6 
 1332000    1.0270926   -6.6180661    542.45614  0.033937446  0.034255353            3 
 1333000     1.040218   -6.5744459    542.29773  0.033902084    0.0342477            2 
 1334000    1.0523181   -6.6112969    543.64771  0.033961001  0.034240063            6 
 1335000     1.019768   -6.6075078    543.61256  0.033933368  0.034232435            6 
 1336000    1.0613201   -6.6001338    543.99795  0.033932008  0.034224886            6 
 1337000    1.0410866   -6.5934364    544.19813  0.033919105  0.034217418            5 
 1338000    1.0549674   -6.6400548    543.65648   0.03386002  0.034209862            2 
 1339000     1.040407   -6.5902639    546.87727   0.03403518   0.03420239            2 
 1340000    1.0405235    -6.611981    545.41682  0.033918956  0.034194829            4 
 1341000    1.0105177    -6.628982    546.34607  0.033951409  0.034187314            3 
 1342000    1.0485486   -6.6428775    545.45999  0.033871087  0.034179748           10 
 1343000    1.0418857   -6.6048429     545.1928  0.033829287  0.034172189            3 
 1344000    1.0554377   -6.6160839     545.6272  0.033831052  0.034164589            5 
 1345000    1.0437177   -6.6215644    548.65269  0.033993351  0.034157025            3 
 1346000    1.0416186    -6.635656    546.40941  0.033829211  0.034149375            4 
 1347000    1.0388261   -6.6107125    545.37099  0.033739854   0.03414168            8 
 1348000    1.0436758   -6.6251347    547.52242  0.033847825  0.034133955            3 
 1349000    1.0169592   -6.6172956      548.647  0.033892204  0.034126407            3 
 1350000    1.0357625   -6.5962537    548.50834   0.03385854  0.034118665            3 
 1351000    1.0459119   -6.5597541    548.05886  0.033805753   0.03411132            3 
 1352000    1.0420018   -6.6189193    548.52206  0.033809299  0.034103773            5 
 1353000    1.0350501   -6.6007518    549.69063  0.033856284  0.034096166            3 
 1354000     1.041461   -6.6244613    548.76706  0.033774437  0.034088578            5 
 1355000    1.0501631    -6.616161    548.26797  0.033718818  0.034080786            2 
 1356000    1.0085503   -6.6120828      549.317  0.033758419  0.034073058           11 
 1357000    1.0385664   -6.6002039    548.88231  0.033706848  0.034065452            3 
 1358000    1.0191815   -6.6007361    551.21284  0.033825039  0.034057806            2 
 1359000    1.0187538   -6.5768362    549.73816  0.033709723  0.034050137            6 
 1360000    1.0181903   -6.5839361    551.39346  0.033786364  0.034042373            3 
 1361000    1.0097063   -6.6191531    550.78992  0.033724585  0.034034796            3 
 1362000    1.0542604   -6.6006295    551.49428  0.033742919  0.034027202            7 
 1363000    1.0363936   -6.6146372    550.25989  0.033642693   0.03401962            3 
 1364000     1.028027   -6.6160778    552.09796  0.033730325  0.034011946            3 
 1365000    1.0490873   -6.6225844    551.72049  0.033682569  0.034004242            8 
 1366000    1.0332259   -6.6012345    554.07884  0.033801784  0.033996744            6 
 1367000    1.0358429   -6.5706911    552.66134  0.033690645  0.033989166            4 
 1368000    1.0343239   -6.6255478    552.26958  0.033642153  0.033981544            4 
 1369000    1.0199497    -6.628575    553.45475  0.033689722  0.033973996            3 
 1370000     1.033163   -6.6519031     553.3152  0.033656643  0.033966245            2 
 1371000    1.0116543   -6.6230382    554.56192  0.033707873  0.033958609            5 
 1372000    1.0397279   -6.6016614    554.22394  0.033662775  0.033950874            4 
 1373000    1.0324724   -6.6723732     552.9209  0.033559171  0.033943182            4 
 1374000    1.0290826   -6.6253393    555.60572  0.033697582  0.033935502            4 
 1375000    1.0193196   -6.6445149    554.04492   0.03357848  0.033927764            5 
 1376000    1.0087494   -6.6031322    556.20123  0.033684668  0.033920049            6 
 1377000    1.0340101   -6.6010698    555.70516  0.033630184  0.033912493            3 
 1378000    1.0387948    -6.634359     555.5707  0.033597647  0.033904947            6 
 1379000     1.037262   -6.6102731    556.92592   0.03365518  0.033897372            1 
 1380000    1.0450937   -6.5976559    555.75561  0.033560121  0.033889883            4 
 1381000   0.99343103   -6.6005552    557.35002  0.033632031   0.03388246            5 
 1382000    1.0440917   -6.6125869    557.63057  0.033624612  0.033874934            2 
 1383000    1.0317154   -6.6220305    557.76835  0.033608602  0.033867269            4 
 1384000    1.0437499   -6.6276384    556.78309  0.033524993  0.033859655            2 
 1385000     1.050701   -6.6446717    558.10954  0.033580598  0.033851959            3 
 1386000    1.0100511   -6.6549007    557.36753  0.033511756  0.033844292            2 
 1387000    1.0249805   -6.6024773    559.57292  0.033620099  0.033836747            4 
 1388000    1.0078308   -6.5997711    558.84566  0.033552213  0.033829345            2 
 1389000    1.0154818   -6.6345142    559.83874  0.033587638   0.03382203            4 
 1390000    1.0346301   -6.6383056    559.89011  0.033566553   0.03381481            4 
 1391000    1.0238126   -6.6400063    561.15334  0.033618101  0.033807484            4 
 1392000    1.0189827   -6.6325728    562.15817  0.033654105  0.033800243            4 
 1393000    1.0118509   -6.6233618    561.55964   0.03359414   0.03379304            3 
 1394000    1.0251329   -6.6194473    561.48592  0.033565633   0.03378579            2 
 1395000    1.0312761   -6.6167791    560.57043  0.033486884  0.033778565            8 
 1396000    1.0379804   -6.6183764    562.17859  0.033558894  0.033771213            4 
 1397000      1.01569   -6.6334454    561.52402  0.033495826  0.033764091            4 
 1398000    1.0407249    -6.586176    563.67721  0.033600215  0.033756843            2 
 1399000    1.0193225   -6.6150955    563.87783  0.033588148  0.033749728            3 
 1400000    1.0444807   -6.5874241    564.13932  0.033579721  0.033742558            4 
 1401000    1.0511605    -6.643441    561.66238  0.033408421  0.033735136            2 
 1402000    1.0256855   -6.6171915    563.74306  0.033508266  0.033728026            6 
 1403000    1.0645537   -6.6242261    564.13361   0.03350758  0.033720617            6 
 1404000    1.0269743   -6.6158427    563.88696  0.033469074  0.033713147            4 
 1405000    1.0094475   -6.6287958    564.52528  0.033483113  0.033705738            2 
 1406000    1.0342812   -6.6213907    563.85913  0.033419816  0.033698235            5 
 1407000    1.0236024   -6.6376682    564.17832  0.033414968  0.033690755            5 
 1408000    1.0545133   -6.6238399    564.31418  0.033399277  0.033683312            2 
 1409000    1.0446845   -6.6567108    563.98347  0.033356013  0.033675818            7 
 1410000    1.0133659   -6.6285141    565.30525  0.033410476   0.03366809            4 
 1411000    1.0298787   -6.6406415    565.65087   0.03340721   0.03366052            5 
 1412000    1.0160866   -6.6284313    566.19819  0.033415852  0.033652907            3 
 1413000    1.0318753   -6.6801098    564.46468  0.033289967  0.033645426            2 
 1414000    1.0261237   -6.6267878    566.10745   0.03336324   0.03363794            8 
 1415000    1.0279416   -6.6382644    565.19536  0.033285946  0.033630293            4 
 1416000    1.0300351   -6.6466287    566.27867  0.033326193  0.033622675            4 
 1417000    1.0107274   -6.6430342    566.18709  0.033297288   0.03361517            4 
 1418000    1.0174661   -6.6403986    568.12005  0.033387403  0.033607518            3 
 1419000    1.0206278   -6.6265767     567.8199  0.033346247  0.033599815            4 
 1420000    1.0274238   -6.6481017    568.42383  0.033358206  0.033592201            3 
 1421000    1.0521708    -6.634745    566.99698  0.033251054  0.033584501            6 
 1422000     1.033287   -6.6290444    568.22948  0.033299899  0.033576764            4 
 1423000    1.0119308     -6.66369    567.55722  0.033237129  0.033569147            6 
 1424000     1.029873   -6.6602248    567.85276  0.033231084  0.033561627            3 
 1425000    1.0103785   -6.6366124    569.15549  0.033283947  0.033553977            4 
 1426000    1.0228912   -6.6087209    568.95895   0.03324912  0.033546324            2 
 1427000    1.0026804    -6.626669    569.39497  0.033251283  0.033538808            5 
 1428000    1.0408643   -6.6088267    571.47744  0.033349524  0.033531496            4 
 1429000    1.0048866   -6.6833063     570.7364  0.033282972  0.033524079            4 
 1430000    1.0063814   -6.6335547    571.78643  0.033320888  0.033516719            3 
 1431000    1.0171432   -6.6002632    571.99287  0.033309624  0.033509344            2 
 1432000    1.0124604    -6.633753    571.71746  0.033270336  0.033501943            5 
 1433000    1.0286575   -6.6446726    572.52413  0.033294029  0.033494571            3 
 1434000    1.0100349   -6.6296356    572.49238  0.033268967   0.03348726            3 
 1435000   0.99630064    -6.574227    573.92107   0.03332875  0.033479976            2 
 1436000     1.031446   -6.6281654    573.62777   0.03328852  0.033472788            2 
 1437000    1.0563956   -6.6500844    572.63696  0.033207896  0.033465482            3 
 1438000    1.0246814   -6.6607616    573.49551  0.033234557  0.033458133            5 
 1439000    1.0081186   -6.6541481     572.2666  0.033140294  0.033450772            2 
 1440000    1.0027157   -6.6457942    573.25423  0.033174435  0.033443425            3 
 1441000    1.0153798   -6.6386335    573.40817  0.033160315  0.033436055            4 
 1442000    1.0411038   -6.6439198    574.64199  0.033208622  0.033428657            2 
 1443000    1.0082856   -6.6531214    575.01305  0.033207037  0.033421115            5 
 1444000    1.0162045   -6.6444735    574.78862  0.033171089  0.033413831            5 
 1445000    1.0296588   -6.6618226    575.99838    0.0332179  0.033406415            2 
 1446000    1.0203011   -6.6518601    574.80619  0.033126221  0.033398893            7 
 1447000    1.0185285   -6.6331428    577.69498  0.033269695  0.033391513            2 
 1448000    1.0274943   -6.6375605    575.94886  0.033146228  0.033384052            2 
 1449000    1.0099037   -6.6440306    574.34062  0.033030861  0.033376544            6 
 1450000    1.0255446   -6.6369995    575.98751   0.03310273  0.033368912            6 
 1451000    1.0194094   -6.6602537     576.3914  0.033103113  0.033361263            4 
 1452000    1.0196522   -6.6684581    576.86498  0.033107494  0.033353652            3 
 1453000    1.0279652   -6.6235412    577.30062  0.033109694  0.033346001            2 
 1454000    1.0233048   -6.6679305    576.04302  0.033014845  0.033338395           12 
 1455000    1.0301405   -6.6308961    576.85057  0.033038406  0.033330746            4 
 1456000     1.016668   -6.6667868    575.94909  0.032964119   0.03332313            4 
 1457000    1.0408467   -6.6481211    578.34917  0.033078767  0.033315496            3 
 1458000    1.0389784   -6.6605743    576.65175  0.032959062  0.033307933            3 
 1459000    1.0229302   -6.6452477    579.35062  0.033090622  0.033300365            6 
 1460000    1.0247244   -6.6045705    578.90758   0.03304267  0.033292886            4 
 1461000    1.0047664   -6.6289081    577.28891  0.032927727  0.033285379            3 
 1462000   0.98952079   -6.6547408    579.37111  0.033023889  0.033277846            9 
 1463000    1.0275748   -6.6467674    578.63796  0.032959556  0.033270188            3 
 1464000    1.0246496   -6.6258291    582.23767  0.033141944  0.033262652            2 
 1465000    1.0154147   -6.6321015    578.65338  0.032915437  0.033255153            6 
 1466000    1.0252634   -6.6687195    580.08197  0.032974191  0.033247481            3 
 1467000     1.018131   -6.6508905     580.0684  0.032950943  0.033239799           10 
 1468000     1.009508   -6.6291228    580.35859   0.03294497  0.033232191            2 
 1469000     1.013245    -6.662902    579.29425  0.032862165   0.03322442            7 
 1470000    1.0015394    -6.647836    580.32725   0.03289837   0.03321664            4 
 1471000    1.0177427    -6.638134     579.7788  0.032844936  0.033208992            3 
 1472000    1.0118941   -6.6341954    580.93345  0.032887989  0.033201294            3 
 1473000    1.0038669   -6.6299342    582.03891  0.032928203  0.033193609            3 
 1474000    1.0069746   -6.6454993    581.75888  0.032890032  0.033185943            4 
 1475000    1.0204245   -6.6731778    580.44904  0.032793731  0.033178213            8 
 1476000   0.99510443   -6.6762333    582.43218  0.032883479  0.033170511            5 
 1477000    0.9941983   -6.6445425    581.55725  0.032811851  0.033162824            4 
 1478000   0.99745869   -6.6648535    583.02885  0.032872624  0.033155268            5 
 1479000   0.99476527   -6.6214603    585.49187  0.032989175  0.033147776           10 
 1480000    1.0288013   -6.6822238    582.96079  0.032824369  0.033140193            4 
 1481000   0.99269454   -6.6427165    586.10795   0.03297929  0.033132775            9 
 1482000    1.0210704   -6.6150995    586.08418  0.032955701  0.033125364            7 
 1483000    1.0027072   -6.6186888    584.64707  0.032852724  0.033117929           12 
 1484000   0.98490965    -6.623623    584.38694  0.032815978  0.033110513            6 
 1485000     1.017541   -6.6622948    584.35716  0.032792209  0.033103111            4 
 1486000    1.0209989   -6.6573586    584.84981  0.032797768  0.033095464            3 
 1487000    1.0144731   -6.6420506    587.34073  0.032915307  0.033088026            3 
 1488000    1.0313768   -6.6092888    586.90232  0.032868634  0.033080624            5 
 1489000    1.0131317   -6.6858114    585.57054  0.032772025  0.033073017            5 
 1490000    1.0048722   -6.6591668    587.01995  0.032831093  0.033065506            2 
 1491000    1.0183984   -6.7006414    586.94847  0.032805079   0.03305808            7 
 1492000    1.0103381   -6.6461772    588.48029  0.032868649  0.033050568            4 
 1493000    1.0197624   -6.6247725    588.35959  0.032839896  0.033043215            9 
 1494000    1.0101932   -6.6830996    588.46054  0.032823546  0.033035704            7 
 1495000    1.0146446   -6.6566877     587.9695  0.032774219  0.033028235            3 
 1496000    1.0115278   -6.6351612    588.44941  0.032779044  0.033020885            5 
 1497000    1.0157699   -6.6357973    589.51743  0.032816601  0.033013608            5 
 1498000    1.0202325   -6.6556447    588.13957  0.032718045  0.033006252            7 
 1499000    1.0119971   -6.6628005    590.01656  0.032800565  0.032998827            4 
 1500000     1.017762   -6.6167455    590.86829  0.032826016  0.032991597            7 
 1501000    1.0299508   -6.6348353    591.13035  0.032818696  0.032984388            4 
 1502000    1.0133578   -6.6262367    591.43589  0.032813798  0.032977181            3 
 1503000   0.97892671   -6.6404626      592.534   0.03285285  0.032970014            3 
 1504000    1.0063668   -6.6610374    591.84565  0.032792866  0.032962796            3 
 1505000    1.0073681    -6.640973     591.9071  0.032774479  0.032955655            4 
 1506000   0.98775679    -6.692316     590.6362  0.032682393  0.032948319            3 
 1507000   0.97119192   -6.6524257    593.87722  0.032839926  0.032940887            5 
 1508000    1.0041225   -6.6632883    591.92288   0.03271015  0.032933597            4 
 1509000    1.0151815   -6.6480345    592.98434  0.032747092  0.032926417            4 
 1510000    1.0026996   -6.6875511    592.33665  0.032689661  0.032919156            5 
 1511000   0.99915294   -6.7096363    592.14377  0.032657388  0.032911925            5 
 1512000    1.0093868   -6.6719308     593.6233  0.032717333  0.032904703            5 
 1513000    1.0098757   -6.7050324    593.57095  0.032692826  0.032897574            4 
 1514000   0.99746973   -6.6684985    593.26012  0.032654124  0.032890302            4 
 1515000    1.0081256   -6.6649775    594.49433  0.032700458  0.032883193            4 
 1516000    1.0217507   -6.6704938    594.85943  0.032698957  0.032876037            3 
 1517000     1.012022   -6.6667189    593.80706  0.032619593  0.032868971           10 
 1518000    1.0046521   -6.6647987    595.59491  0.032696251   0.03286182            3 
 1519000    1.0271512    -6.633043    596.93684  0.032748345  0.032854755            7 
 1520000    1.0025365   -6.6538088    595.63493  0.032655424  0.032847694            6 
 1521000    0.9936663   -6.5998478    597.65704  0.032744742  0.032840504           12 
 1522000   0.97951672   -6.6988154     597.3525  0.032706554  0.032833341            6 
 1523000    1.0149669   -6.6633882    597.12949  0.032672877   0.03282617            6 
 1524000   0.99237545   -6.6616528    598.24711   0.03271255  0.032819046           11 
 1525000   0.99179801   -6.6425271    598.57055  0.032708773  0.032812028           10 
 1526000    1.0390273   -6.6944645    598.61149  0.032689575  0.032805101            2 
 1527000    0.9940438   -6.6481324    601.20221  0.032809551  0.032798074            4 
 1528000    1.0189569    -6.679549    598.16784  0.032622592   0.03279115            5 
 1529000    1.0083876   -6.6762316    598.15305   0.03260045  0.032784146            4 
 1530000    0.9843167   -6.6845524    599.05078  0.032628038  0.032777114            3 
 1531000    1.0120218   -6.6743015    601.90503  0.032762085  0.032770178            2 
 1532000   0.99744646   -6.6681819    601.63466  0.032725993  0.032763388            3 
 1533000   0.99682372   -6.6590872    601.50478  0.032697585  0.032756563            3 
 1534000   0.98557183   -6.6639304    601.22337  0.032660982  0.032749651            4 
 1535000   0.98678619   -6.6650488    601.21188  0.032639081  0.032742617            2 
 1536000    0.9957822   -6.6784462    601.87874  0.032654011  0.032735596            4 
 1537000    1.0177153   -6.6686516    601.15487  0.032593519  0.032728546            6 
 1538000   0.99849957   -6.6786526     601.5211   0.03259217  0.032721419            5 
 1539000    1.0114261   -6.6657051    601.94814  0.032594116  0.032714213            3 
 1540000    1.0152588   -6.6458776    601.65308  0.032556985  0.032707032            4 
 1541000    1.0215894   -6.6798154    602.16731  0.032563666  0.032699874            3 
 1542000    1.0128153   -6.6728855    600.55794  0.032455574    0.0326927            4 
 1543000    0.9995895   -6.6538914    600.70691  0.032442585  0.032685576            4 
 1544000     1.016692   -6.6696178    606.56051  0.032737506  0.032678677            2 
 1545000   0.99598767    -6.670699    606.17292  0.032695411  0.032671779            4 
 1546000    1.0034297   -6.6703694    603.95799  0.032554872  0.032664919            2 
 1547000    1.0103045   -6.6867824     604.9866  0.032589237  0.032658089            3 
 1548000    1.0022482   -6.6863037    604.00003  0.032515075  0.032651032            5 
 1549000    0.9960648   -6.6771156    603.49256  0.032466783   0.03264393            8 
 1550000   0.97928997   -6.6698038    604.58104  0.032504357  0.032636748            6 
 1551000    0.9854193   -6.6304855    606.59445  0.032591578  0.032629682            2 
 1552000    1.0027361   -6.6788804    606.95698  0.032590044  0.032622786            5 
 1553000   0.98558949   -6.6523835    604.90207  0.032458793  0.032615839            3 
 1554000   0.98770801   -6.6511206      605.891  0.032490937  0.032608817            4 
 1555000    1.0002094   -6.6857864    607.70758  0.032567394   0.03260185            3 
 1556000    1.0082372   -6.6500563    605.69934  0.032438911  0.032594746            3 
 1557000    1.0161348   -6.6687663    606.94567  0.032484782  0.032587549            5 
 1558000    1.0112246   -6.6183256     605.4998  0.032386596  0.032580391            4 
 1559000    0.9981567   -6.6800245    605.85277  0.032384689  0.032573265            3 
 1560000   0.99947709   -6.6807729     607.6788  0.032461474  0.032566108            5 
 1561000    1.0206697   -6.6754568    605.68571  0.032334278  0.032558909            8 
 1562000   0.99886561   -6.6875627     606.0332  0.032332117  0.032551563           10 
 1563000    1.0256548   -6.7032279    605.79419  0.032298688  0.032544333            5 
 1564000     1.009212   -6.6813385    608.08399  0.032400042  0.032537211            4 
 1565000   0.99985161   -6.6631223    609.14094   0.03243562  0.032530148            4 
 1566000    1.0047323   -6.6944074    609.05248    0.0324102   0.03252318            4 
 1567000    0.9915899   -6.6653935    610.91432   0.03248853   0.03251617            4 
 1568000    1.0096566   -6.6974821    609.53564  0.032394539  0.032509061            4 
 1569000    1.0120967   -6.7029908    608.52639  0.032320288  0.032501885            4 
 1570000    1.0043333   -6.6464464    610.79825  0.032420289  0.032494775            3 
 1571000   0.97533699   -6.6953793    610.36059  0.032376437  0.032487722            3 
 1572000    1.0111629   -6.7017418    609.39459  0.032304632  0.032480572            5 
 1573000    1.0073712   -6.6711094    610.20597   0.03232708  0.032473269            5 
 1574000   0.98570015   -6.7046467    607.15502  0.032145014  0.032465959           10 
 1575000   0.99207431   -6.6905245    610.28943  0.032290446  0.032458644            4 
 1576000    1.0122213   -6.6308832    612.69223  0.032397009   0.03245147            2 
 1577000   0.98202848   -6.6867338    611.01941  0.032288068   0.03244419            4 
 1578000    1.0114547   -6.6991278    609.96817  0.032212092  0.032436943            6 
 1579000    1.0301198   -6.7087385    610.05498  0.032196273  0.032429641            6 
 1580000   0.98422031   -6.6474564    612.17719  0.032287826  0.032422369            5 
 1581000    1.0023603   -6.6547653     612.8438   0.03230254  0.032415344            4 
 1582000    1.0126898   -6.6715181    612.78552  0.032279052  0.032408209            5 
 1583000   0.99913964   -6.6801862    613.65314  0.032304334  0.032400945            5 
 1584000    0.9803107   -6.6804852    613.62656  0.032282542  0.032393719            3 
 1585000   0.97476322   -6.6822078    611.95451  0.032174264  0.032386456            7 
 1586000   0.99434641    -6.690557    611.33008  0.032121169  0.032379203            3 
 1587000   0.99773392   -6.6966189    612.21235  0.032147256  0.032371971            4 
 1588000    1.0087412   -6.6732769    613.31457  0.032184853  0.032364831            5 
 1589000   0.99473793   -6.6654393    614.97431  0.032251642  0.032357738            5 
 1590000   0.99936815   -6.6898842    613.21379  0.032139088  0.032350603            5 
 1591000   0.98709489   -6.7174043    614.71649  0.032197595  0.032343366            6 
 1592000   0.98275476   -6.6993945    614.44323  0.032163067  0.032336215            5 
 1593000    1.0060915   -6.6732544    616.20704  0.032235145  0.032329054            4 
 1594000    1.0162151   -6.6838533    617.35289  0.032274827  0.032322027            2 
 1595000     1.017235   -6.6617606    613.98655  0.032078712  0.032314783            4 
 1596000    1.0124476    -6.695862    614.41532  0.032081001  0.032307501            4 
 1597000    1.0032562   -6.6872392    615.72764   0.03212939  0.032300307            3 
 1598000    1.0104848    -6.663854    615.95127  0.032120947  0.032293093            5 
 1599000   0.99429437   -6.6627334    617.12047  0.032161792   0.03228586            2 
 1600000    1.0004968   -6.6860063    617.53442  0.032163251  0.032278739            6 
 1601000   0.97840385   -6.6614987    618.09298  0.032172235  0.032271717            4 
 1602000   0.99408565    -6.700777    616.52535  0.032070607  0.032264616            5 
 1603000    1.0014287   -6.6919728    619.66819  0.032213984  0.032257483            3 
 1604000    1.0088826   -6.6923975    618.25873  0.032120674  0.032250288            3 
 1605000   0.96970078   -6.6913116    617.95997  0.032085149  0.032243016            5 
 1606000    1.0138239   -6.6870831    618.99639  0.032118949  0.032235862            4 
 1607000    1.0021022   -6.6756505    618.42663  0.032069416  0.032228693            2 
 1608000   0.99046493   -6.6982215    620.18037  0.032140359  0.032221509            3 
 1609000   0.97874552   -6.6886614    618.69476  0.032043441  0.032214352            4 
 1610000    1.0071861   -6.7278891    620.20752  0.032101839  0.032207107            4 
 1611000   0.99965546   -6.6755608    618.78552  0.032008355  0.032199943            5 
 1612000    0.9910998   -6.6658667    621.84294  0.032146554  0.032192817            2 
 1613000    1.0189096   -6.7001622    619.61306  0.032011421  0.032185537            3 
 1614000   0.98954884    -6.699358    621.23391  0.032075274  0.032178353            5 
 1615000   0.99057349    -6.711827     620.3868  0.032011703   0.03217094            6 
 1616000   0.99268971   -6.6934971    619.88743  0.031966142  0.032163696            3 
 1617000   0.98446264   -6.6968499    620.66353   0.03198637  0.032156462            3 
 1618000    1.0183385   -6.7016808    620.49569  0.031957957   0.03214914            4 
 1619000   0.98461498   -6.7056839    619.87641  0.031906342  0.032141751            3 
 1620000   0.98038198   -6.6707754    621.42788  0.031966455  0.032134359            3 
 1621000    1.0017718   -6.6949914    621.97908  0.031975071  0.032127075            4 
 1622000   0.97114407   -6.6719269    621.31703  0.031921343  0.032119628            6 
 1623000     1.001101    -6.687691    621.93217   0.03193326  0.032112352            3 
 1624000    1.0062106   -6.7018745     622.2494  0.031929875  0.032105142            9 
 1625000   0.99128915   -6.6967266    621.26191  0.031859585  0.032097865            2 
 1626000    1.0063029    -6.738463    623.35271  0.031947146  0.032090613           12 
 1627000   0.99366448     -6.69402    624.72591  0.031997844  0.032083467            7 
 1628000   0.98929061   -6.6900585    623.55265  0.031918133  0.032076339            4 
 1629000     1.003485   -6.7230673     624.6795  0.031956185  0.032069241            6 
 1630000    1.0122255   -6.7073794    625.04725  0.031955381  0.032062134            5 
 1631000   0.97756353   -6.7139471    625.68797  0.031968525  0.032055072            5 
 1632000   0.98969306   -6.6741475    624.42684   0.03188454  0.032047876            6 
 1633000   0.97485059   -6.6857795    625.50257  0.031919911   0.03204081            5 
 1634000    1.0086091   -6.7097701    624.99456  0.031874468   0.03203367            9 
 1635000   0.97921019   -6.6840852    624.42116  0.031825747  0.032026565            5 
 1636000   0.98394845   -6.6891697    626.27102  0.031900521  0.032019328            2 
 1637000   0.97297157   -6.6654489    626.73686  0.031904747  0.032012024            4 
 1638000    1.0025481   -6.6871885    626.44516  0.031870429  0.032004819            5 
 1639000   0.98163031   -6.7352842    624.26503  0.031740138  0.031997434            7 
 1640000   0.99545698   -6.7074011    627.15464  0.031867614  0.031990042            4 
 1641000    1.0007531   -6.6990863    628.29473   0.03190609  0.031982875            3 
 1642000   0.99236026   -6.6600092    626.47641  0.031794377  0.031975748            1 
 1643000   0.99506428   -6.6976347    628.52394  0.031878877  0.031968504            5 
 1644000   0.96320131    -6.710016    628.14128  0.031840089  0.031961235            4 
 1645000   0.99686902   -6.7192481    627.35009  0.031780653  0.031954079            5 
 1646000    0.9972401   -6.7184426    628.47362  0.031818227  0.031946773            4 
 1647000   0.97089968   -6.6826546    629.39574  0.031845564  0.031939483            4 
 1648000   0.98514554   -6.6961554    629.91592  0.031852544  0.031932277            4 
 1649000    0.9720196   -6.7032865    630.27378  0.031851313  0.031925174            2 
 1650000   0.96462598   -6.7029097    627.56982  0.031695445  0.031917974            3 
 1651000   0.96892432   -6.7399785    628.93054   0.03174493  0.031910776            2 
 1652000   0.98031695   -6.6927534    630.51164   0.03180547  0.031903597            5 
 1653000   0.99817318   -6.6673922    630.13528  0.031767256  0.031896365            5 
 1654000   0.98321547   -6.6916458    630.02695  0.031742591  0.031889186            3 
 1655000   0.98372296   -6.6874233    631.18403  0.031781673  0.031881988            4 
 1656000   0.95992574   -6.6825468    632.31056   0.03181917  0.031874848            4 
 1657000   0.99237853    -6.717802    630.33247  0.031700487  0.031867727            5 
 1658000   0.98905462   -6.7162349    631.12537  0.031721219  0.031860618            2 
 1659000    0.9900265   -6.7280117    631.16618  0.031704148  0.031853404           13 
 1660000   0.99323728   -6.7441092    630.39242  0.031646206  0.031846172           11 
 1661000    0.9870869   -6.7237939    631.71749  0.031693633  0.031838836            7 
 1662000    1.0047086    -6.717485    631.92024  0.031684729   0.03183154            4 
 1663000   0.98975955   -6.7006834    631.16188  0.031627675  0.031824302            2 
 1664000    0.9824178   -6.7228448    632.10236  0.031655767  0.031817141            4 
 1665000   0.97251863    -6.725305    632.12399  0.031637838  0.031809891            7 
 1666000   0.96789156     -6.68112    632.14826  0.031620061  0.031802638            8 
 1667000   0.98954308   -6.7064525    632.64758  0.031626054  0.031795496            3 
 1668000    0.9869465   -6.7402046    634.12654  0.031680982  0.031788283            5 
 1669000   0.98455721   -6.7056335    632.90786  0.031601151  0.031780947            6 
 1670000    1.0017896   -6.7183872    633.58817  0.031616176  0.031773678            2 
 1671000   0.99025735   -6.7103722    633.52579  0.031594145  0.031766398            3 
 1672000    1.0069962   -6.7160772    634.74202  0.031635866  0.031759018            3 
 1673000    1.0075064    -6.741126    632.55905  0.031508221  0.031751671            4 
 1674000   0.95610541   -6.6795357    633.73297  0.031547838  0.031744256            3 
 1675000   0.97450025   -6.7182468    635.51629  0.031617726  0.031736871            2 
 1676000    0.9667442   -6.7209162    635.29701  0.031587958   0.03172952            8 
 1677000   0.99698052   -6.6888399    633.29155  0.031469467  0.031722219            3 
 1678000   0.98776577   -6.7010694    635.65512  0.031568093  0.031714922            6 
 1679000   0.99109991   -6.7203556    634.87022  0.031510335  0.031707432           11 
 1680000   0.96867433   -6.6676883    635.60636  0.031528093  0.031699923            2 
 1681000   0.97944871   -6.7315952    633.09031  0.031384608  0.031692306           15 
 1682000   0.98967915   -6.7051891    636.13174  0.031516634  0.031684789            5 
 1683000   0.98326214   -6.7386506    633.19947  0.031352717  0.031677221            3 
 1684000   0.98666282   -6.7029511    633.01044  0.031324744  0.031669603            7 
 1685000   0.97882944   -6.6929298    635.85359  0.031446765  0.031661947            3 
 1686000    1.0008924   -6.7191839    636.51321  0.031460716  0.031654394            6 
 1687000   0.96243461   -6.7119565    635.89813  0.031411684  0.031646829           12 
 1688000   0.95062822   -6.7073844    634.66801  0.031332346  0.031639204            8 
 1689000   0.97814257    -6.708336    637.50981  0.031454007  0.031631736            3 
 1690000   0.96867841   -6.6957455    636.46885  0.031384066  0.031624206            3 
 1691000    0.9873241   -6.7338567    636.80821   0.03138223  0.031616821            4 
 1692000    0.9796887   -6.6773506    636.30541  0.031338919  0.031609301            6 
 1693000   0.97114644   -6.7104023    638.40109  0.031423562  0.031601776            2 
 1694000   0.99179942   -6.6964607    638.17015  0.031393651   0.03159421            5 
 1695000    0.9981738   -6.7078918    638.41018  0.031386931  0.031586559            4 
 1696000    1.0000091   -6.7071034    636.91816  0.031295114  0.031579017            4 
 1697000   0.98676386   -6.6951129    638.24885  0.031342018  0.031571522            5 
 1698000   0.98184527    -6.722078    637.52317  0.031287945  0.031564061            5 
 1699000   0.99189971   -6.7245282    639.15881  0.031349755  0.031556594            4 
 1700000   0.99620263   -6.6816081    641.36534  0.031439477  0.031549176            6 
 1701000   0.98759827   -6.7378767    640.60205  0.031383601  0.031541781            6 
 1702000    0.9799554   -6.7366852    639.18829   0.03129594  0.031534367            4 
 1703000   0.98945671   -6.7245417    639.60255  0.031297835  0.031526911            6 
 1704000    0.9759991   -6.7035697    640.15925  0.031306693  0.031519347            3 
 1705000    1.0012954   -6.7425247    639.32057   0.03124734  0.031511823            4 
 1706000   0.99398178   -6.7464144    639.65431  0.031245326  0.031504316            6 
 1707000   0.99812588    -6.733018    640.82075  0.031283966  0.031496921            7 
 1708000   0.96280854   -6.7202474    642.08377  0.031327272  0.031489419            3 
 1709000   0.97631795   -6.7530375    642.34345  0.031321604  0.031481918            6 
 1710000   0.99736071   -6.7240129     640.1704  0.031197388  0.031474405            5 
 1711000   0.97240035   -6.6915633    642.91312  0.031312737  0.031466923            3 
 1712000   0.97230133   -6.7231067    642.56117  0.031277315  0.031459357            4 
 1713000    0.9766069    -6.717142    642.42615  0.031252488  0.031451805            2 
 1714000   0.97449633   -6.7113009    641.92528  0.031209903  0.031444179            3 
 1715000   0.98094607   -6.7151508    642.42745  0.031216106  0.031436647            5 
 1716000   0.97214318     -6.68849    643.66707  0.031258113  0.031429091            2 
 1717000   0.95906242    -6.715219    643.43281  0.031228539  0.031421406            3 
 1718000   0.97859958   -6.7327216    639.61283  0.031025069  0.031413722            5 
 1719000   0.98353467   -6.6881656    640.79001  0.031064088  0.031406028            3 
 1720000   0.96468316   -6.7234077    642.41523  0.031124769  0.031398317            7 
 1721000   0.97239253   -6.6780808    643.35565   0.03115222  0.031390637           10 
 1722000   0.98208842   -6.7283419    641.63793  0.031051003  0.031382869            5 
 1723000   0.96543431   -6.7143308    642.28426  0.031064242   0.03137511            5 
 1724000   0.97105628   -6.6749938    642.21864  0.031043051  0.031367367           10 
 1725000   0.96335285   -6.7197997    643.60262  0.031091914  0.031359565            4 
 1726000   0.97641967   -6.7234172    643.83232   0.03108499  0.031351785            7 
 1727000   0.97104668   -6.7003326    642.47499  0.031001496  0.031343933            5 
 1728000   0.98200561   -6.7270886    643.90732  0.031052629  0.031336058            5 
 1729000   0.96345128   -6.7214827    642.03952  0.030944646  0.031328204            3 
 1730000   0.98382858   -6.7185043    643.97008  0.031019753  0.031320301            5 
 1731000   0.96654874   -6.7419955    642.57491  0.030934667  0.031312421            9 
 1732000   0.99181212   -6.7474043    643.19041  0.030946421  0.031304367            9 
 1733000    0.9699665   -6.7572381    642.87451  0.030913373  0.031296324            4 
 1734000   0.95322874   -6.7564632      642.665  0.030885477  0.031288253            6 
 1735000   0.98522318   -6.7059266    643.22042  0.030894353  0.031280194            2 
 1736000   0.97759834   -6.7205573    645.32258  0.030977466  0.031272383            4 
 1737000   0.98448158   -6.7440265    644.77584  0.030933403  0.031264484            6 
 1738000   0.95992671   -6.7330291    648.19475  0.031079533  0.031256613            4 
 1739000   0.96246973   -6.7292922    644.99486  0.030908322  0.031248853            3 
 1740000   0.95736835   -6.7381982     645.6604  0.030922433  0.031240999            4 
 1741000   0.96277491   -6.7511034    646.19355  0.030930191   0.03123317            4 
 1742000   0.98560579   -6.7367455    646.95358  0.030948793  0.031225329            6 
 1743000   0.96373312   -6.7451677    646.38744   0.03090397  0.031217423            5 
 1744000   0.96159467   -6.7386094    648.44529   0.03098458  0.031209544            8 
 1745000   0.95621743   -6.7328094    648.22353  0.030956234  0.031201817            3 
 1746000   0.95413958   -6.7130598    648.72001    0.0309622  0.031193996            7 
 1747000   0.96256039   -6.7115417    648.78356  0.030947508  0.031186243            3 
 1748000   0.96448262   -6.7482213    647.95483  0.030890295  0.031178459            7 
 1749000   0.97451459   -6.7501032    647.75753  0.030863233  0.031170594            4 
 1750000   0.97549764   -6.7391996    648.10622  0.030862201  0.031162741            7 
 1751000    0.9542115   -6.7715201    647.64952   0.03082284  0.031154862            4 
 1752000   0.97428307   -6.7356601    648.20704  0.030831765  0.031146952            5 
 1753000    0.9688766   -6.7585113    644.91546  0.030657704  0.031138986            7 
 1754000    0.9549277   -6.7216514    648.99918  0.030834244  0.031131039            4 
 1755000   0.97464423   -6.7688304    649.93331  0.030861031  0.031123108            6 
 1756000   0.96110764   -6.7834474    648.64861  0.030782489  0.031115266            7 
 1757000   0.97216021   -6.7080453    650.56572  0.030855896  0.031107445            5 
 1758000   0.95731201    -6.729788    649.16074  0.030771745  0.031099649            3 
 1759000   0.97404029    -6.754403    650.53879  0.030819537  0.031091737            2 
 1760000   0.97289788   -6.7314534    650.08493  0.030780537  0.031083792            2 
 1761000   0.97309761   -6.7605131    648.83078  0.030703709  0.031075808            5 
 1762000   0.96805271   -6.7699222    649.81469  0.030732818  0.031067791           10 
 1763000   0.95092032   -6.7397841    647.41537  0.030601974  0.031059717            8 
 1764000   0.95977278   -6.7455248    648.73867   0.03064714  0.031051726            3 
 1765000   0.99270265   -6.7517738     650.1362   0.03069576  0.031043732            3 
 1766000   0.98521824   -6.7405017    649.80903   0.03066294  0.031035707            6 
 1767000    0.9935203   -6.7267411    651.50278  0.030725466  0.031027759            2 
 1768000   0.97483029   -6.7674022    650.63451  0.030667162  0.031019698            3 
 1769000   0.96504558   -6.7325054    651.83474  0.030706366  0.031011761            6 
 1770000   0.96979357   -6.7378733    651.17364  0.030657893  0.031003755           14 
 1771000   0.96940513   -6.7220049    651.64262  0.030662649  0.030995785            6 
 1772000   0.95466055     -6.71273    652.25166  0.030673987  0.030987831            4 
 1773000     0.937069   -6.7530077    652.31051  0.030659453  0.030979903            6 
 1774000   0.96370042   -6.7599891    652.29501  0.030641442  0.030971827            4 
 1775000   0.97760883    -6.739333    651.50569  0.030587122  0.030963764           10 
 1776000   0.95129871   -6.7586762    651.57941  0.030573358  0.030955565            2 
 1777000    0.9794611   -6.7634276    652.06813  0.030579072  0.030947325            4 
 1778000   0.95530691   -6.7183412    651.34726  0.030528087  0.030939114            4 
 1779000   0.97012552   -6.7254402    652.60328  0.030569762  0.030930992           16 
 1780000   0.95607661    -6.745348    651.57023  0.030504224  0.030922822            8 
 1781000   0.97919718   -6.7401168    653.45111  0.030575103  0.030914622            2 
 1782000   0.97793396   -6.7623142     653.9279  0.030580242  0.030906499            4 
 1783000   0.97613055   -6.7264437    652.38627  0.030491039  0.030898446            7 
 1784000   0.96726326   -6.7198191    653.43094  0.030522746  0.030890397            5 
 1785000    0.9797844   -6.7473544    654.03247  0.030533729  0.030882361            6 
 1786000   0.94319287   -6.7450775    652.13541  0.030428117   0.03087416            3 
 1787000   0.96042946   -6.7651585    654.23464  0.030508983  0.030865932            5 
 1788000   0.96783101   -6.7479177    654.78457  0.030517551  0.030857741            6 
 1789000   0.95901435   -6.7401256    655.11568  0.030515916  0.030849604            3 
 1790000   0.96989529   -6.7113691    653.72831  0.030434279  0.030841397            6 
 1791000     0.975077   -6.7643239    653.86024  0.030423424  0.030833058            7 
 1792000   0.97559071   -6.7786493    654.82592  0.030451354  0.030824828            7 
 1793000   0.96469204   -6.7400884    654.63684  0.030425583   0.03081657            7 
 1794000   0.97865002   -6.7338193    654.85031  0.030418539   0.03080837            6 
 1795000   0.96486544   -6.7513215    654.77168  0.030397943  0.030800259           12 
 1796000   0.95681288   -6.7148519    656.58885  0.030465333  0.030792228            3 
 1797000   0.95131807   -6.7761196    657.08154  0.030471227  0.030784192            3 
 1798000   0.95774099   -6.7250793    656.61419  0.030432619  0.030776146            3 
 1799000   0.95382685   -6.7277919    658.20221  0.030489263   0.03076814            5 
 1800000   0.97220056    -6.765153    657.37637  0.030434091  0.030760124            6 
 1801000    0.9574225   -6.7981565    655.72829  0.030340935  0.030752082            5 
 1802000   0.98322674   -6.7841441    655.36566  0.030307328  0.030743917            3 
 1803000   0.96825677   -6.7439854    656.05191  0.030322237  0.030735703            3 
 1804000   0.95184954   -6.7345019    658.18625  0.030404021  0.030727569            3 
 1805000   0.98708223    -6.767762     656.9973  0.030332285  0.030719356            5 
 1806000   0.94296092    -6.762026     658.8645  0.030401647  0.030711134            6 
 1807000   0.96857253   -6.7931209    657.42782  0.030318567  0.030702881            6 
 1808000   0.95128644   -6.7762684    657.23918  0.030293104    0.0306947            3 
 1809000   0.93359487   -6.7603048    658.35119  0.030327584  0.030686484            4 
 1810000   0.95271904   -6.7483364    659.20475  0.030350127  0.030678295            7 
 1811000   0.96305568   -6.7502723    657.85923  0.030271454  0.030670098            5 
 1812000   0.96978228   -6.7266364    660.42537  0.030372764  0.030662037           10 
 1813000   0.96129603   -6.7598084     657.0812  0.030202298  0.030653932            3 
 1814000   0.97262444   -6.7599737    659.61299  0.030301956  0.030645902            4 
 1815000    0.9690211   -6.7533545    659.27543  0.030269763  0.030637963            4 
 1816000   0.96030819   -6.7818481    658.31916  0.030209212  0.030629812            4 
 1817000   0.93729538   -6.7735219    658.16972  0.030185733  0.030621666            6 
 1818000   0.96145079   -6.7450838    660.25461  0.030264696  0.030613454           10 
 1819000   0.96502956   -6.7708449    660.69422  0.030268198  0.030605272            7 
 1820000    0.9555293   -6.7809611    658.58616  0.030155044   0.03059706            5 
 1821000   0.95584898   -6.7699313    659.67245  0.030188196  0.030588834           12 
 1822000   0.93801858   -6.7616923    660.81365  0.030223822  0.030580613            5 
 1823000   0.95610468   -6.7332195    660.42495  0.030189475  0.030572536            7 
 1824000   0.95081644   -6.7536623    660.82023  0.030190983  0.030564312            9 
 1825000    0.9757387    -6.764937    660.73415  0.030170509  0.030556144            5 
 1826000   0.97031542    -6.761958    659.04257  0.030076788  0.030547985            4 
 1827000   0.94603908   -6.7604905     661.3032  0.030163437  0.030539894            4 
 1828000   0.96245292   -6.7647552    662.81742  0.030215966  0.030531888            4 
 1829000   0.95916279   -6.7428734     663.1973  0.030216753  0.030523822            3 
 1830000   0.94814655   -6.7778395    660.77522  0.030089946  0.030515753            5 
 1831000   0.95851046   -6.7447826    662.05448  0.030131735  0.030507604            5 
 1832000    0.9602673   -6.7745934    663.35107  0.030174266   0.03049954            4 
 1833000   0.93730791    -6.768668    663.32239  0.030156501  0.030491506            5 
 1834000   0.94744797   -6.7586885    661.70902  0.030066749  0.030483458            4 
 1835000   0.95589233   -6.7610891    663.63674  0.030137908  0.030475371            7 
 1836000   0.95618065   -6.7414162    664.97624  0.030182291  0.030467337           14 
 1837000   0.94422134   -6.7350983    664.28639  0.030134567  0.030459369            8 
 1838000   0.95843706   -6.7232321    665.01919  0.030151396  0.030451413            6 
 1839000   0.96406923   -6.7916328    663.50918  0.030066575  0.030443404            3 
 1840000   0.93747848    -6.762926    666.15589  0.030170104  0.030435353            6 
 1841000   0.98662446   -6.7765858    663.19469  0.030019676  0.030427319           16 
 1842000   0.95492246   -6.7652697    665.83124  0.030122658  0.030419271            6 
 1843000   0.94505949    -6.735884    664.51249  0.030046685  0.030411248            6 
 1844000    0.9719532   -6.7409158    665.64254  0.030081459  0.030403311            4 
 1845000   0.95119379   -6.7658837    666.15609  0.030088351  0.030395248            6 
 1846000   0.94906641   -6.7522348    666.24571  0.030076097   0.03038725            6 
 1847000   0.95698785   -6.7944309    663.08085  0.029917021  0.030379205            3 
 1848000   0.94614994   -6.7766864    664.27002  0.029954456   0.03037097            7 
 1849000    0.9385925   -6.7108139    664.05544  0.029928585  0.030362875            4 
 1850000   0.95108126   -6.7795836    665.77787  0.029989994  0.030354754            4 
 1851000   0.95354292   -6.7388554    666.54426  0.030008296  0.030346616            4 
 1852000   0.95661864    -6.746195    665.71545  0.029954799  0.030338577            4 
 1853000   0.95497549   -6.7680065    666.96366  0.029994768   0.03033052            5 
 1854000   0.94994704   -6.7228658    666.72264  0.029967756  0.030322481            4 
 1855000   0.94875301   -6.7947402    666.24579  0.029930179  0.030314457            3 
 1856000   0.95021457   -6.7903484    668.12296  0.029998337  0.030306341            9 
 1857000   0.95537666    -6.795425    665.88181  0.029881611  0.030298376            7 
 1858000   0.94071057   -6.7726818    669.19421  0.030014092   0.03029033            4 
 1859000   0.96809801   -6.7528431    669.36871   0.03000577  0.030282362            4 
 1860000   0.95005581   -6.7577806    666.16137   0.02984594   0.03027439            3 
 1861000   0.93837533   -6.7686043    669.24031  0.029967773  0.030266446            3 
 1862000   0.96037586   -6.7885577    666.69622  0.029837819    0.0302584            4 
 1863000   0.94762522   -6.7788465    669.36061  0.029940983   0.03025037            5 
 1864000   0.95310255   -6.8007081    671.22205  0.030008139  0.030242404            8 
 1865000   0.95792151   -6.7726128    669.84564  0.029930547  0.030234477            3 
 1866000   0.92764259   -6.7694976    670.31805  0.029935604  0.030226451            5 
 1867000    0.9557821   -6.7594509    671.78756  0.029985161  0.030218615            8 
 1868000   0.94664664   -6.7841191    673.05192  0.030025514  0.030210791           12 
 1869000   0.97104944   -6.7709151    671.97334  0.029961358  0.030203005            7 
 1870000    0.9544696   -6.7578775    672.92123  0.029987577  0.030195281            5 
 1871000   0.95257357   -6.7755344    673.94956  0.030017351  0.030187527            7 
 1872000   0.93689204   -6.7618488    673.16997  0.029966612  0.030179848            4 
 1873000   0.96808006   -6.7924307     672.7576  0.029932266  0.030172091           10 
 1874000    0.9516203   -6.7815071     670.2534  0.029804936  0.030164295            1 
 1875000   0.92851026   -6.7665566    673.37473  0.029927766  0.030156549            7 
 1876000   0.92082151   -6.7756344    672.88535  0.029890074  0.030148771            7 
 1877000   0.93879956    -6.771903    673.91969  0.029920071  0.030141057            4 
 1878000   0.96987134   -6.7960229    672.55905  0.029843763  0.030133371            6 
 1879000   0.94996224   -6.7335311    674.10978  0.029896655  0.030125617            5 
 1880000    0.9467524   -6.7541795    674.68659  0.029906321  0.030118014            5 
 1881000   0.94480519   -6.7937441    673.67622  0.029845659  0.030110262            7 
 1882000   0.96769819   -6.7364388    674.15923  0.029851188  0.030102482            8 
 1883000   0.95818197   -6.7783253    675.33924  0.029887557  0.030094711            2 
 1884000   0.94445988   -6.7654177    674.09734  0.029816761  0.030086902            5 
 1885000    0.9687981   -6.7769215    673.74241  0.029785253  0.030079123            8 
 1886000   0.94610968   -6.7981525    674.04519  0.029782838  0.030071346            4 
 1887000   0.94121196   -6.7829739    674.21776  0.029774676  0.030063607           12 
 1888000   0.96297073   -6.7548011     675.1754  0.029801174  0.030055833            7 
 1889000   0.93876528    -6.754603    675.33361  0.029792377  0.030048078            2 
 1890000   0.92596373   -6.7296796    675.15559  0.029768765  0.030040322            7 
 1891000   0.97754056   -6.7803256    676.20181  0.029799128   0.03003261            4 
 1892000   0.95390013   -6.7895535    676.79586  0.029809543  0.030024752            5 
 1893000   0.95530894   -6.7700835     676.8826  0.029797614  0.030017026           16 
 1894000   0.93015288   -6.8201145    675.51725  0.029721808  0.030009296            5 
 1895000   0.94219175   -6.7621858    676.45247   0.02974725  0.030001517            4 
 1896000   0.93374148   -6.7722901    677.40324  0.029773349  0.029993837            4 
 1897000   0.96338515   -6.7888903    677.25512  0.029751148  0.029986196            3 
 1898000   0.96034716   -6.8144814    678.85699  0.029805804  0.029978465            4 
 1899000   0.93919171   -6.7855933    676.58874  0.029690571  0.029970769            5 
 1900000   0.94114617   -6.7529246     678.6257  0.029764285   0.02996315            4 
 1901000   0.94171926   -6.7555742    678.45685  0.029741226  0.029955562            3 
 1902000   0.95457651   -6.7927545    679.58934  0.029775208  0.029947993            7 
 1903000   0.94679625    -6.796354    680.71448  0.029808832  0.029940377           10 
 1904000   0.97676366   -6.7953118    681.01146  0.029806174  0.029932756            5 
 1905000    0.9561279    -6.758914    680.51679  0.029768888  0.029925225            9 
 1906000   0.94995137   -6.8206503    678.18923  0.029651505  0.029917648            4 
 1907000   0.95193596   -6.7405491    679.44221   0.02969071  0.029910041            2 
 1908000   0.93969422   -6.7793713    678.31896   0.02962609  0.029902435           10 
 1909000   0.96082513   -6.7744331    681.23938  0.029738056  0.029894872            4 
 1910000   0.94371966   -6.7964788    680.96075  0.029710329  0.029887364            4 
 1911000   0.93602321   -6.7574698    681.14844  0.029702967  0.029879735            3 
 1912000    0.9483624   -6.7549992    683.08297  0.029771747  0.029872204            3 
 1913000   0.93518427   -6.7777882    681.61999  0.029692455  0.029864693            4 
 1914000   0.94979157   -6.7747142    680.63427  0.029634024    0.0298571            4 
 1915000   0.97256185   -6.7933673    681.08556  0.029638188  0.029849465            5 
 1916000   0.95474956   -6.7834183     681.6141  0.029645707  0.029841921            7 
 1917000   0.95157364   -6.7948844    682.16831  0.029654334  0.029834324            6 
 1918000   0.94759054   -6.7559167    681.79816  0.029622791  0.029826774            9 
 1919000   0.92240609   -6.7725022    681.78277  0.029606686  0.029819103            5 
 1920000   0.92718173   -6.7894608    682.01187   0.02960121  0.029811509            5 
 1921000   0.95487671   -6.8107085     680.9901  0.029541476   0.02980386            3 
 1922000   0.94519759    -6.793783    682.79842   0.02960451  0.029796122            4 
 1923000   0.92220441   -6.7705117    681.94154  0.029551982  0.029788433            2 
 1924000   0.94482139   -6.7515702    683.16842  0.029589762   0.02978067            5 
 1925000   0.96897142    -6.770714    682.80923  0.029558841  0.029772899            8 
 1926000    0.9460859   -6.7935541    681.35503  0.029480574  0.029765029            7 
 1927000   0.95729947    -6.816986    680.88694  0.029445033  0.029757173            6 
 1928000   0.93734507   -6.7750517    682.44261  0.029497001  0.029749301            7 
 1929000    0.9481329   -6.7665645    684.67151  0.029577999  0.029741464            4 
 1930000   0.95857097   -6.7770925    681.39913  0.029421379  0.029733722            6 
 1931000   0.95014668   -6.8011924    682.06149  0.029434727  0.029725758            5 
 1932000   0.94250873   -6.7437893    684.07523  0.029506351  0.029717877            9 
 1933000   0.93021172   -6.7495831    685.46815  0.029551136  0.029710035            5 
 1934000   0.93883215   -6.7882564    683.75455   0.02946202  0.029702243            3 
 1935000   0.95934204     -6.75427    684.21965  0.029466824  0.029694496            6 
 1936000   0.93859467   -6.7942096    684.67996  0.029471417  0.029686741            5 
 1937000   0.94840158   -6.8062661    682.04085  0.029342663  0.029678933            4 
 1938000   0.96239681   -6.7718232    684.57584  0.029436526  0.029671179           12 
 1939000   0.94365091   -6.7931141    683.03464  0.029355107  0.029663394            7 
 1940000   0.94658426   -6.7946961    684.74253  0.029413339  0.029655539            5 
 1941000   0.94901617   -6.7783429    684.58452  0.029391401  0.029647658            5 
 1942000   0.94143095   -6.7769896    685.15285  0.029400655  0.029639821            6 
 1943000   0.93846871   -6.7791404    684.41857   0.02935403   0.02963194            3 
 1944000   0.94472594   -6.8100238    682.74239  0.029267078  0.029624062            2 
 1945000    0.9343043   -6.8166129    684.31553  0.029319432  0.029616099            3 
 1946000   0.94404773   -6.7878371    685.20866  0.029342611  0.029608159            5 
 1947000   0.94533029   -6.8249273     686.0258  0.029362515  0.029600174            4 
 1948000   0.92606103   -6.7733226    686.30406  0.029359346   0.02959225            4 
 1949000   0.92992915   -6.7536004    686.10303  0.029335686  0.029584354            2 
 1950000   0.94414551   -6.7911097    686.57234  0.029340698  0.029576547            2 
 1951000   0.94025434   -6.7906829    685.48821  0.029279353  0.029568636            8 
 1952000   0.93585648    -6.845434    685.26078  0.029254644  0.029560705            4 
 1953000   0.93599445   -6.7903394    685.49845  0.029249806  0.029552688            3 
 1954000   0.96034822   -6.7763472    687.19695  0.029307274   0.02954478            6 
 1955000   0.92985932   -6.7894189    686.66482    0.0292696  0.029536806            3 
 1956000   0.92537216   -6.7869895    685.63132  0.029210605   0.02952887            5 
 1957000   0.96032716   -6.8248464    685.35856  0.029184064   0.02952084            6 
 1958000    0.9481003   -6.7752536    687.82332   0.02927406  0.029512945            7 
 1959000   0.95064207   -6.8096545    685.99336  0.029181273  0.029505089            4 
 1960000   0.93956355    -6.814712    686.44139  0.029185433  0.029497116            3 
 1961000   0.92284803   -6.7918161     688.6136  0.029262859  0.029489135            6 
 1962000   0.94341136   -6.8429671    686.90919  0.029175552  0.029481158            3 
 1963000   0.92071681   -6.8197046    687.09759  0.029168687  0.029473213            6 
 1964000   0.95928215    -6.818563    688.71624  0.029222515   0.02946539           11 
 1965000   0.93347465   -6.7659789    688.37827  0.029193311  0.029457609            3 
 1966000   0.93418466   -6.7875578       689.17  0.029212021  0.029449822            4 
 1967000   0.93305336   -6.8009799    689.35965  0.029205205  0.029441958            3 
 1968000    0.9256947   -6.7882817     690.1776     0.029225  0.029434138            3 
 1969000   0.92742306   -6.7998242    690.85839   0.02923897  0.029426387            3 
 1970000   0.92219736   -6.7893173    690.48029  0.029208134  0.029418675            7 
 1971000   0.94266981   -6.8010946    691.28736  0.029227438  0.029410951            3 
 1972000   0.93567961   -6.8001824    689.60455  0.029141504  0.029403222            5 
 1973000    0.9213547   -6.8103136    691.16695  0.029192725  0.029395547            2 
 1974000   0.94494614   -6.8024033    690.28503  0.029140705  0.029387914            8 
 1975000   0.94343093   -6.7813107    692.08414  0.029201863  0.029380176            7 
 1976000   0.94232996   -6.8117642    690.42629  0.029117168  0.029372444            6 
 1977000   0.91301101   -6.8032881    692.10175  0.029173063  0.029364781            7 
 1978000   0.92702588    -6.802889    692.86568  0.029190499  0.029357101            4 
 1979000   0.91153428   -6.7669113    693.23698  0.029191384  0.029349428            5 
 1980000   0.92582201   -6.7844283    692.73564   0.02915554  0.029341717            3 
 1981000   0.92010429   -6.8210096    693.84245  0.029187382  0.029334012            4 
 1982000   0.92865539   -6.8034261    692.56224  0.029118829   0.02932633            6 
 1983000   0.94455072   -6.8509073    692.39348  0.029097053  0.029318655            4 
 1984000   0.92645534   -6.7841333    695.63849  0.029218687  0.029311016            5 
 1985000    0.9564677   -6.7897374     693.8614  0.029129362  0.029303482            4 
 1986000   0.92613525   -6.7920033    693.48237   0.02909879  0.029295865            5 
 1987000   0.92686946   -6.8351853    694.88317  0.029142894  0.029288306            5 
 1988000   0.92566661   -6.8073278    694.01957  0.029092034  0.029280686            3 
 1989000   0.93956316   -6.8401759    694.97986  0.029117641  0.029273039            6 
 1990000   0.93346083   -6.8034162    694.54595  0.029084839  0.029265373            3 
 1991000   0.94402925   -6.7824991    696.03055  0.029132368  0.029257817           17 
 1992000   0.92328742    -6.796217    693.35895   0.02900598  0.029250197            4 
 1993000   0.95534026   -6.8255956    694.00733  0.029018537  0.029242608            6 
 1994000   0.92219382   -6.8182793    696.04345  0.029089078  0.029234977            3 
 1995000   0.92548279   -6.8060103    695.56149  0.029054365  0.029227446            3 
 1996000   0.93265552   -6.7865888     697.4299  0.029117815  0.029219952            5 
 1997000   0.94027784   -6.8279216    695.25786  0.029012597  0.029212458           11 
 1998000   0.90764944   -6.8308855    696.95171  0.029068723  0.029204888            4 
 1999000   0.94093438    -6.816938    696.26055  0.029025369   0.02919737            5 
 2000000   0.93435563   -6.8239691    697.32239    0.0290551  0.029189894           12 
 2001000    0.9052598   -6.8045605    698.86739  0.029104922  0.029182476            7 
 2002000   0.95941629   -6.8180494    697.88513  0.029049498  0.029175125            7 
 2003000   0.93228762   -6.8185627    698.11953  0.029044747  0.029167691            6 
 2004000   0.96023982   -6.8180651    700.16503  0.029115312  0.029160221            2 
 2005000    0.9223227   -6.8469438    698.35189  0.029025432  0.029152827           10 
 2006000   0.93676575   -6.7736353    699.94003  0.029076937  0.029145442            4 
 2007000   0.92443161   -6.8136796    699.58735  0.029047806  0.029138101            6 
 2008000   0.92514604   -6.8190386    700.61839  0.029076128  0.029130791            3 
 2009000   0.92159144   -6.7674677    701.17418   0.02908471  0.029123489            7 
 2010000   0.94206042   -6.7807275    702.01964  0.029105292  0.029116262            3 
 2011000   0.90966496    -6.800817    701.77637  0.029080738  0.029109015            4 
 2012000    0.9270558   -6.7921144     699.3872  0.028967329  0.029101643            8 
 2013000   0.93645936   -6.8220236    701.62818   0.02904571  0.029094293            4 
 2014000   0.93550882   -6.8156119    699.67008  0.028950268   0.02908698            9 
 2015000   0.93538199   -6.8158136    702.09734  0.029036284  0.029079641            4 
 2016000   0.93824546    -6.828617    702.08409  0.029021333  0.029072333            3 
 2017000   0.94589426   -6.8339357    701.54899  0.028984837  0.029065027            5 
 2018000    0.9421035   -6.8403539    703.41834  0.029047669  0.029057764           14 
 2019000   0.94273637   -6.8365965    703.60501  0.029040986  0.029050536            6 
 2020000   0.94462643   -6.8402186    704.21007   0.02905157  0.029043329            7 
 2021000   0.92521681   -6.8149073    702.59278  0.028970509  0.029036083            6 
 2022000   0.93039864   -6.8207647    704.33164  0.029027846  0.029028914            5 
 2023000    0.9198205   -6.8308235    704.66693  0.029027308  0.029021772            3 
 2024000   0.91146303   -6.8065003    705.01546  0.029027317  0.029014644            4 
 2025000   0.92306431   -6.8056508    704.41304  0.028988191  0.029007498            3 
 2026000   0.91859534   -6.8310881    705.65847   0.02902511  0.029000334            8 
 2027000   0.92033433   -6.8285613    704.52816  0.028964322  0.028993229            7 
 2028000   0.93103408   -6.8208792     705.8115  0.029002773  0.028986127            6 
 2029000   0.94168347   -6.8162622     703.8387  0.028907454  0.028978992            8 
 2030000   0.93073374   -6.8071535    705.24276  0.028950852  0.028971796            3 
 2031000    0.9326828   -6.8211223    703.18431  0.028852138  0.028964696            5 
 2032000   0.93875575   -6.8219654    705.32658  0.028925795  0.028957606           13 
 2033000   0.93935466   -6.8459994    705.92141  0.028935949  0.028950466            5 
 2034000   0.94017247   -6.8094361    706.55155   0.02894754  0.028943289            6 
 2035000    0.9306035   -6.8533851    707.42313  0.028969006  0.028936168           13 
 2036000   0.93034569   -6.7998538    708.85482  0.029013377  0.028929109            2 
 2037000   0.93522036   -6.8679802    705.85603  0.028876453  0.028922028            9 
 2038000   0.91073908   -6.8375921    705.27851   0.02883867  0.028914963            7 
 2039000    0.9327978    -6.830821    708.52192  0.028957084  0.028907921            7 
 2040000    0.9146232   -6.8396595    707.07793  0.028883902  0.028900851            4 
 2041000     0.932583    -6.838299    708.44248  0.028925465   0.02889385            2 
 2042000   0.92714932   -6.8428165    707.82059   0.02888592  0.028886799            2 
 2043000   0.93006017   -6.8140685    707.59051  0.028862397  0.028879721            6 
 2044000    0.9141382   -6.8240641     709.3915  0.028921702  0.028872601            3 
 2045000   0.92536153   -6.8095701    708.69407  0.028879139  0.028865571           12 
 2046000   0.91458875   -6.8397294    710.89773  0.028954779  0.028858456            3 
 2047000    0.9115392   -6.8272675    708.75651  0.028853465  0.028851415            6 
 2048000   0.92373787   -6.8067501    711.51192  0.028951494  0.028844414            6 
 2049000   0.92114717    -6.831072    710.94936  0.028914485  0.028837457            6 
 2050000   0.91232634   -6.8484059    711.20217  0.028910657  0.028830489           10 
 2051000   0.92860023   -6.7955892    710.88109  0.028883516  0.028823468            3 
 2052000   0.92727186   -6.8267354    710.63093  0.028859281  0.028816495            4 
 2053000   0.89965144   -6.8184288    710.38923  0.028835413  0.028809656            4 
 2054000    0.9344667   -6.8352841    712.22881  0.028896008  0.028802809            4 
 2055000   0.91645857   -6.8108456    711.61407  0.028857018  0.028796026            4 
 2056000   0.90481958   -6.8201631    710.87417  0.028812993  0.028789128            7 
 2057000   0.91941582   -6.8335966    710.70979  0.028792327  0.028782241            3 
 2058000   0.91856872   -6.8033929    714.26826  0.028922427  0.028775382            5 
 2059000   0.93739642   -6.8369694    712.88367  0.028852342  0.028768483            8 
 2060000   0.91054893   -6.8334457    711.45138  0.028780396  0.028761549           15 
 2061000   0.93013184   -6.8578599     711.8245  0.028781518  0.028754584            4 
 2062000   0.90359751   -6.8465665    713.60748  0.028839617   0.02874766           10 
 2063000   0.92809633    -6.830491     713.8321  0.028834711  0.028740823            3 
 2064000   0.92520747   -6.8624347     714.1357  0.028832998  0.028734026            3 
 2065000   0.91307444   -6.8320821    713.17554  0.028780288  0.028727198            5 
 2066000   0.93156575   -6.8324694    714.40461  0.028815933  0.028720418            5 
 2067000   0.93148353   -6.8063838     714.7125  0.028814405   0.02871362            4 
 2068000   0.92919484   -6.8179487    713.72008   0.02876048  0.028706801            5 
 2069000    0.9173129   -6.8286507    714.96192  0.028796597   0.02869991            4 
 2070000   0.92605129   -6.8509991     714.7875  0.028775664  0.028693026            5 
 2071000    0.9313639   -6.8511655    714.86764  0.028764994  0.028686179            5 
 2072000   0.92404586   -6.8477071    715.80392  0.028788768  0.028679279            5 
 2073000   0.91487323   -6.8499762    716.22962  0.028791993  0.028672364            5 
 2074000    0.9249382   -6.8384458    717.79326  0.028840938  0.028665583            4 
 2075000   0.91289709   -6.8230791    717.78547  0.028826726  0.028658798            7 
 2076000   0.93300298   -6.8172304    715.07917  0.028704206     0.028652            6 
 2077000     0.943459   -6.8471619    717.77428  0.028798519   0.02864512            5 
 2078000   0.92372171   -6.8913707    715.25493  0.028683627   0.02863829            8 
 2079000    0.9125228   -6.8440675    716.67909  0.028726916  0.028631414            4 
 2080000   0.92499399   -6.8312804      718.172  0.028772917  0.028624531            4 
 2081000   0.92365005   -6.8291718    715.95905  0.028670473  0.028617704           13 
 2082000   0.91255807   -6.8583212    716.10411  0.028662508  0.028610855            5 
 2083000   0.92213788   -6.8219806      716.125  0.028649584  0.028603965            5 
 2084000   0.91075809   -6.8403928    718.01499  0.028711412  0.028597064            4 
 2085000   0.92657264   -6.8033503    716.43059  0.028634316  0.028590129            7 
 2086000   0.92541559   -6.8963233    716.66779  0.028630065  0.028583195           14 
 2087000   0.89539228   -6.8394042    718.15211  0.028675615   0.02857626            4 
 2088000     0.911232   -6.8201922      717.665  0.028642441  0.028569375            4 
 2089000   0.92184581   -6.8525968    716.92564  0.028599236  0.028562474            5 
 2090000    0.8987081   -6.8431977    719.03492  0.028669654  0.028555518            7 
 2091000    0.8927092   -6.8167497     719.5995  0.028678443  0.028548726           12 
 2092000   0.90649609   -6.8491288     717.8078  0.028593364  0.028541927            3 
 2093000    0.9107386   -6.8554477    719.42631  0.028644144  0.028535028            5 
 2094000   0.92202699   -6.8575226    719.23067  0.028622679  0.028528178            4 
 2095000    0.9303715   -6.8999595    718.21039  0.028568432  0.028521321            4 
 2096000   0.93466244   -6.8588553    719.51437  0.028606647  0.028514473            6 
 2097000    0.8930399   -6.8193079    718.19423  0.028540543  0.028507622            4 
 2098000   0.92641969    -6.841161    718.60355  0.028543198  0.028500848            5 
 2099000   0.88864628   -6.8362006    721.43941  0.028642187  0.028493992            5 
 2100000   0.92553016   -6.8190016    722.02272  0.028651695  0.028487232            7 
 2101000   0.90682781   -6.8546631    718.94803  0.028516105   0.02848052           10 
 2102000    0.9253855    -6.837782    719.76398  0.028534887  0.028473822            5 
 2103000   0.92301646   -6.8262572    722.02767  0.028611019   0.02846708            5 
 2104000   0.92178322   -6.8323366     719.9173  0.028513835  0.028460351            5 
 2105000   0.91527583   -6.8281484    721.04786  0.028545046  0.028453515            5 
 2106000   0.91699091   -6.8570962     722.0558  0.028571375  0.028446666            7 
 2107000   0.91560373   -6.8808069    720.74414  0.028505938   0.02843976            6 
 2108000    0.9137327   -6.8308668    720.79532  0.028494439  0.028432915            9 
 2109000   0.91736582    -6.824403    721.00187  0.028489089  0.028426036            5 
 2110000   0.88244141   -6.8488265    719.82801  0.028429226  0.028419155            5 
 2111000   0.90475899   -6.8491674    720.26732  0.028433101  0.028412216            9 
 2112000   0.91868664   -6.8441936    721.60685  0.028472492  0.028405312            7 
 2113000   0.92089879   -6.8677953    720.73309  0.028424558   0.02839851            3 
 2114000   0.91251818   -6.8502736    721.11127   0.02842602  0.028391636            3 
 2115000   0.91679654   -6.8194028    722.37862  0.028462515  0.028384717            7 
 2116000   0.90852795   -6.8200742    723.12251   0.02847836  0.028377862            4 
 2117000   0.91490145   -6.8559362    724.78884  0.028530501  0.028371042            4 
 2118000   0.92387106   -6.8868286    720.83295  0.028361385  0.028364164            7 
 2119000   0.90138337   -6.8465867    723.58215  0.028456117   0.02835728            5 
 2120000    0.8952764   -6.8367226    721.99278  0.028380219  0.028350377            7 
 2121000   0.91283809   -6.8491261    721.95818  0.028365479  0.028343476            2 
 2122000   0.91056794   -6.8418762    722.69649  0.028381106  0.028336589            8 
 2123000   0.89657419   -6.8243028    722.91017  0.028376125  0.028329634            3 
 2124000   0.90831395   -6.8530132    723.18953  0.028373726  0.028322811            8 
 2125000    0.9024469   -6.8732118    724.19839  0.028399937  0.028315909            6 
 2126000   0.92265154   -6.8227841    723.59659  0.028362989  0.028309019            4 
 2127000    0.9272153    -6.876362    724.25877  0.028375598  0.028302132            5 
 2128000   0.91380641   -6.8415341    722.67972  0.028300427  0.028295238           11 
 2129000   0.92800178   -6.8567091    725.88808  0.028412717  0.028288387            4 
 2130000   0.91313555   -6.8741545    725.10786  0.028368852  0.028281511            5 
 2131000   0.91940526   -6.8681076    724.26718  0.028322665  0.028274661            2 
 2132000   0.90948429   -6.8848581    725.28115  0.028349013  0.028267802            2 
 2133000    0.8864673   -6.8527007    726.79771  0.028394972  0.028260951            3 
 2134000   0.90990474   -6.8461151    726.31979  0.028363003  0.028254191            2 
 2135000   0.88485168   -6.8536719    727.59745  0.028399588  0.028247472            7 
 2136000     0.902781   -6.8638078    725.95924   0.02832238  0.028240744            3 
 2137000   0.92127771   -6.8737883    728.01891  0.028389444  0.028233997            6 
 2138000   0.90639547    -6.846645    728.51324  0.028395433  0.028227286            2 
 2139000   0.89355513   -6.8429922    727.54609  0.028344479  0.028220575           11 
 2140000   0.92393311   -6.8585454    728.49251  0.028368089  0.028213829            6 
 2141000    0.9004496   -6.8717726    726.40917  0.028273749  0.028207009           13 
 2142000   0.93105236   -6.8642566    727.18575  0.028290762  0.028200178            6 
 2143000   0.89598671   -6.8557165    729.39907  0.028363628   0.02819339            5 
 2144000   0.91159723   -6.8929716    729.14094  0.028340366  0.028186627            7 
 2145000    0.9359307   -6.8479132    729.31786  0.028334027  0.028179856            9 
 2146000    0.8913855   -6.8486783    730.43498  0.028364204  0.028173102            9 
 2147000   0.90079577    -6.873267    728.89906  0.028291378  0.028166348            4 
 2148000   0.89320664   -6.8807642    727.95109   0.02824143  0.028159607            5 
 2149000   0.89139077   -6.8868194    728.77018  0.028260051  0.028152874           14 
 2150000   0.91327816   -6.8436753    730.45873  0.028312354  0.028146167            3 
 2151000   0.90635343   -6.8605698    728.93064  0.028239991  0.028139486            3 
 2152000   0.92753741   -6.8881986     729.4131  0.028245551  0.028132736            3 
 2153000   0.91322933   -6.8514653    730.84421  0.028287824  0.028126012            7 
 2154000   0.89253996   -6.8684014    730.64701  0.028267062  0.028119334            3 
 2155000   0.91109183   -6.8528489    728.50396  0.028171073  0.028112604            5 
 2156000   0.91309092   -6.8669447    731.32827  0.028267172  0.028105947           10 
 2157000   0.89773207   -6.8436457    731.86643  0.028274858   0.02809932            7 
 2158000   0.91762176   -6.8535502    730.81253  0.028221059  0.028092609            6 
 2159000   0.91365569   -6.8458819    729.74755  0.028166881  0.028085875            4 
 2160000   0.91598742   -6.8668533    731.37515  0.028216634  0.028079212            4 
 2161000   0.90727957    -6.848213      731.405  0.028204728  0.028072526            6 
 2162000   0.90041659   -6.8405282    733.58071  0.028275544  0.028065895           10 
 2163000    0.9145639   -6.8888345    730.82904  0.028156459  0.028059183            6 
 2164000   0.89537816   -6.8921739    732.04741  0.028190365  0.028052465            4 
 2165000   0.91252295   -6.8419191    732.51459  0.028195327  0.028045734            5 
 2166000   0.91171122   -6.8873845    730.53809  0.028106267  0.028038971            9 
 2167000   0.89377845    -6.869549    729.98487  0.028072022  0.028032153            5 
 2168000   0.90697741   -6.8662158    732.88918   0.02817071  0.028025379            5 
 2169000   0.91112647    -6.885693    731.67612  0.028111116  0.028018538            3 
 2170000   0.91052995   -6.8723562    731.28083  0.028082981  0.028011683            3 
 2171000   0.89695186    -6.882004    731.99379  0.028097413  0.028004863            4 
 2172000   0.90412976   -6.8496249    733.26121  0.028133103  0.027998031            8 
 2173000   0.89802217   -6.8403343    731.28877  0.028044515   0.02799123            4 
 2174000   0.89633977   -6.8814558    731.87546  0.028054104  0.027984425           21 
 2175000   0.90236531    -6.868285    732.77773  0.028075775  0.027977618            8 
 2176000   0.89980974    -6.845591    734.05279  0.028111703  0.027970879            7 
 2177000   0.88463219   -6.8509228    734.80929  0.028127748   0.02796414            5 
 2178000   0.90541899   -6.8563799    733.59507  0.028068376  0.027957382            4 
 2179000   0.90865063   -6.8792139    735.46984  0.028127193  0.027950671            6 
 2180000   0.89012562   -6.8588595    733.55022  0.028040911   0.02794394            4 
 2181000   0.90587865   -6.8724122    736.23236  0.028130535   0.02793722            4 
 2182000   0.89835632   -6.8724636    733.77007  0.028023605  0.027930595           12 
 2183000   0.90930568    -6.874384    733.27609  0.027991911  0.027923924            6 
 2184000   0.90804594   -6.8742601    732.42775  0.027946724  0.027917288            5 
 2185000    0.8834772    -6.848332    737.33086  0.028120933  0.027910695            3 
 2186000   0.90546485   -6.8659745    735.25203  0.028028821  0.027904111            8 
 2187000   0.90635491   -6.8673488    735.90004  0.028040697  0.027897529           10 
 2188000   0.89724336   -6.8546222    736.05292  0.028033703  0.027890894            8 
 2189000   0.90819122   -6.8796812    736.96242  0.028055521   0.02788426            8 
 2190000   0.90143445   -6.8623147     736.1022  0.028009977  0.027877677            9 
 2191000   0.92433319   -6.8509362    738.17579  0.028076061  0.027871126            3 
 2192000   0.91889553   -6.8707135    735.84391  0.027974601  0.027864559            5 
 2193000   0.89856692   -6.8526444       737.38  0.028020216  0.027857952           10 
 2194000   0.91208787   -6.8608847    738.23305  0.028039845  0.027851334            6 
 2195000   0.90518037   -6.8210363    739.42241  0.028072225  0.027844755            6 
 2196000   0.90050356    -6.870742    736.58354  0.027951713  0.027838186            8 
 2197000   0.89449478   -6.8728577    739.11083  0.028034852  0.027831591            5 
 2198000   0.90010954   -6.8649824    740.14088  0.028061149  0.027824989            5 
 2199000   0.90377744   -6.8825199    738.56233  0.027988568   0.02781834            7 
 2200000   0.89717005    -6.873952    738.30064  0.027965934  0.027811713            4 
 2201000   0.89372399   -6.8775187    737.21076  0.027911963  0.027805005            6 
 2202000   0.89807189     -6.89861    737.17066  0.027897769  0.027798299            7 
 2203000   0.91897785   -6.8634342    738.44891  0.027933458  0.027791539            4 
 2204000   0.88194988   -6.8744307    739.13279  0.027946642  0.027784817            5 
 2205000   0.90649846   -6.8988147    738.58942  0.027913432  0.027778112            4 
 2206000   0.90275607   -6.8899211    739.83866   0.02794797  0.027771437            9 
 2207000   0.88005355   -6.9097178    738.87727  0.027899006  0.027764741            6 
 2208000   0.90392351   -6.8648573    738.10776  0.027857328  0.027758024            7 
 2209000   0.88254104   -6.8795262    741.00904  0.027954166  0.027751376            8 
 2210000   0.88904643   -6.8874942    741.19962  0.027948703  0.027744642            8 
 2211000   0.90086298   -6.8960743    737.42611  0.027793838  0.027737972            7 
 2212000   0.88404667   -6.8568517    740.60408  0.027900998  0.027731249           10 
 2213000   0.89534234   -6.8612545    742.20686  0.027948744  0.027724605            4 
 2214000   0.87793287   -6.9104326    740.19875  0.027860537  0.027717945            6 
 2215000   0.90239945   -6.8867181    740.58525    0.0278625  0.027711229            5 
 2216000   0.88441167   -6.8907035    739.41835  0.027806045  0.027704565            5 
 2217000   0.89380984   -6.8769703    739.79051  0.027807492  0.027697911            5 
 2218000   0.89108864   -6.9000127    739.33709  0.027777919  0.027691228            5 
 2219000   0.91374762   -6.8637145    741.03815  0.027829283  0.027684509            5 
 2220000   0.88961573   -6.8802581    741.20439  0.027822988  0.027677857            5 
 2221000   0.88933664   -6.8800114    741.65744  0.027827459  0.027671202            4 
 2222000   0.89455238   -6.8704439    740.80548  0.027782984  0.027664531            7 
 2223000   0.89629923   -6.8596883    742.02151  0.027816071  0.027657871            7 
 2224000   0.89597134   -6.8370491    742.18161  0.027809563  0.027651162            8 
 2225000   0.89892061   -6.8772375    742.78653   0.02781972  0.027644527            5 
 2226000   0.88149796   -6.8894742    741.70754  0.027766829  0.027637795            6 
 2227000    0.9023184   -6.8879346     741.6679  0.027752878  0.027631087            9 
 2228000   0.88549597   -6.8861039    741.30634  0.027726898  0.027624345            5 
 2229000    0.9067848   -6.8941371    742.77876  0.027769507  0.027617607           17 
 2230000   0.90527494    -6.878786    742.02159  0.027728759  0.027610962            4 
 2231000   0.90755075    -6.885422     741.5038   0.02769699  0.027604281            5 
 2232000   0.90083381   -6.9062234    740.58911   0.02765043  0.027597529            6 
 2233000   0.88946296   -6.8920703    742.95946  0.027726506  0.027590845            5 
 2234000    0.8775482   -6.8734477     742.7714   0.02770708  0.027584188            7 
 2235000   0.90318945   -6.8697397    743.14237  0.027708515  0.027577528            4 
 2236000    0.9124084   -6.8744822    742.38432  0.027667871  0.027570891           12 
 2237000   0.89193689   -6.9074251    743.37558   0.02769243  0.027564278            5 
 2238000    0.9064605   -6.8671485    745.45257  0.027757394  0.027557691            6 
 2239000   0.87958688   -6.8728275    744.14652  0.027696387  0.027551084            8 
 2240000    0.8825669   -6.8826187    744.33668  0.027691097  0.027544472            4 
 2241000   0.87549552   -6.8746782    743.98542  0.027665678  0.027537755            8 
 2242000    0.8983861   -6.8599932    745.36784  0.027704722  0.027531027           10 
 2243000   0.90224868   -6.9014968    744.02759  0.027642577   0.02752432            5 
 2244000   0.89082068   -6.8476109    746.76506  0.027731917  0.027517653            6 
 2245000   0.88577543   -6.9081673    743.08821  0.027583081   0.02751097            6 
 2246000   0.91436489   -6.8873639    745.00159  0.027641793   0.02750424            6 
 2247000   0.89041379   -6.8694284    745.36781  0.027643073  0.027497532            5 
 2248000    0.9002632   -6.8758543    744.84602  0.027611433  0.027490831            6 
 2249000   0.88375157   -6.8934976    744.23784  0.027576621  0.027484097            7 
 2250000   0.88867806   -6.8919064    745.73907  0.027619966  0.027477349            9 
 2251000   0.89821457   -6.9061538    745.66171  0.027604832  0.027470531            7 
 2252000   0.89111708   -6.8632773    746.36296  0.027618523  0.027463753            5 
 2253000   0.88428679   -6.9109286     744.9439  0.027553777   0.02745695            5 
 2254000   0.88645063   -6.9011365    745.34886  0.027556524  0.027450074            7 
 2255000   0.88787289   -6.9082376    744.36011  0.027507765  0.027443251            4 
 2256000   0.89679175   -6.8852322    744.63234  0.027505627  0.027436426            2 
 2257000   0.89619553   -6.8737634    745.52167  0.027526276  0.027429606            4 
 2258000   0.89019334   -6.9109639    746.60216  0.027553962  0.027422831            7 
 2259000   0.89198583   -6.8922764    745.85366  0.027514153  0.027416013           11 
 2260000    0.9045969   -6.8836608    746.02366  0.027508247  0.027409192            4 
 2261000    0.8792205   -6.8863776    745.96945  0.027494083  0.027402424            4 
 2262000   0.88232002   -6.8690998    747.48242  0.027537666  0.027395609            7 
 2263000   0.89776219   -6.9212376    746.40517  0.027485829  0.027388815            5 
 2264000   0.88311277    -6.885315    746.41759  0.027474146  0.027382076            6 
 2265000   0.90177775   -6.9061634    748.48294  0.027538004  0.027375313            2 
 2266000    0.8806609   -6.9287557    745.98648  0.027434042  0.027368572            5 
 2267000   0.89395902   -6.9166011    747.29614  0.027470083  0.027361807           13 
 2268000   0.87317283   -6.8947514    748.70514  0.027509742  0.027355057            4 
 2269000   0.88227532   -6.9168462      749.516  0.027527398  0.027348323            5 
 2270000   0.91958421   -6.8864609    747.74138  0.027450124  0.027341675            6 
 2271000   0.88526021   -6.9030468    749.20973  0.027491917  0.027335019            8 
 2272000   0.86833358   -6.8923347    747.91877  0.027432467  0.027328432            4 
 2273000   0.86801913   -6.9196181    748.71657  0.027449647  0.027321791           10 
 2274000   0.87710334   -6.9189383    747.76531  0.027402716  0.027315086            4 
 2275000   0.90767547   -6.9218638    749.82502  0.027466118  0.027308394            3 
 2276000    0.8985965   -6.8958602    751.84143  0.027527879  0.027301745            3 
 2277000   0.87110603   -6.8869195    748.84606  0.027406165  0.027295124            5 
 2278000   0.89666437   -6.9180393    750.25404  0.027445641  0.027288442            4 
 2279000   0.89064797   -6.9151618    749.49885  0.027405984  0.027281806            6 
 2280000     0.891594   -6.9388318    749.94536  0.027410284  0.027275158           21 
 2281000   0.89561116   -6.9200942     750.5116  0.027418954  0.027268519            6 
 2282000   0.89284048   -6.8992396    751.05359  0.027426731  0.027261876            5 
 2283000   0.88670333   -6.9165538     750.7095  0.027402157  0.027255229            6 
 2284000   0.87361621   -6.8893157    753.06173  0.027475983  0.027248651            5 
 2285000   0.89766186    -6.891344    751.51476   0.02740754  0.027242037            7 
 2286000   0.87243895   -6.8741539    753.74182  0.027476736  0.027235545            9 
 2287000   0.87899259   -6.9172106    752.79685  0.027430289   0.02722907            4 
 2288000   0.87697854   -6.9266266    751.74164  0.027379867  0.027222549            6 
 2289000   0.89718503   -6.9247411    750.86686  0.027336059  0.027215989            4 
 2290000   0.90099465   -6.8997628    754.64434  0.027461585  0.027209478            4 
 2291000   0.90054568    -6.898977    753.42183   0.02740513  0.027203047            6 
 2292000   0.88545471   -6.9211039    753.08029  0.027380755  0.027196595            8 
 2293000   0.89187095   -6.9086836    753.36245  0.027379068  0.027190125            5 
 2294000   0.90527679   -6.9014969    754.92782  0.027423998  0.027183712            5 
 2295000   0.87990743   -6.9072752    754.32957  0.027390326   0.02717732            3 
 2296000   0.88104751   -6.9213971    755.41049  0.027417628  0.027170942           11 
 2297000    0.8895367   -6.8883724    754.92352  0.027388025  0.027164493            2 
 2298000   0.87561151   -6.9272411    754.90005  0.027375256   0.02715806            6 
 2299000    0.8626015   -6.8949273    756.58977  0.027424596  0.027151595            7 
 2300000   0.87284001   -6.9166216    753.93074  0.027316331  0.027145142           11 
 2301000   0.86693363   -6.9146281    754.30224  0.027317914   0.02713873            7 
 2302000   0.86981677   -6.9078783    756.84453  0.027398079  0.027132321           11 
 2303000   0.87474402   -6.9258223    754.33505  0.027295377  0.027125927            7 
 2304000   0.88586555   -6.9223049    756.00453  0.027343914  0.027119496            4 
 2305000   0.87399513   -6.9403791    755.56589  0.027316193  0.027113055            8 
 2306000   0.89205828    -6.931719    754.81707  0.027277287  0.027106595            6 
 2307000    0.8760821   -6.8866424    756.28285  0.027318409   0.02710007            4 
 2308000   0.88403926   -6.9240201    754.72355  0.027250273   0.02709364            6 
 2309000   0.87775919   -6.9208303    754.35808  0.027225281  0.027087164            3 
 2310000   0.86263362   -6.8939194    755.70746  0.027262174  0.027080655            4 
 2311000   0.86654476   -6.8763744    757.03943  0.027298407  0.027074159           11 
 2312000   0.85464026   -6.9038259    755.72917  0.027239373  0.027067699            3 
 2313000   0.88782337   -6.8990122    758.20378  0.027316752   0.02706123            4 
 2314000   0.91169868   -6.8893659    757.06118  0.027263799  0.027054825            6 
 2315000   0.89114651   -6.9081636    758.42588  0.027301148  0.027048382            6 
 2316000   0.86578158   -6.9271495    756.00039  0.027202087  0.027041889            7 
 2317000   0.86223682   -6.9110335    756.46521  0.027207064  0.027035336            6 
 2318000   0.88526788   -6.9282367    755.74409  0.027169402    0.0270288            9 
 2319000   0.87162553   -6.9003294    755.28403  0.027141154  0.027022208            7 
 2320000   0.89786317   -6.9148853    756.71924  0.027181007  0.027015651            7 
 2321000   0.88220781   -6.9139524    757.34078  0.027191612  0.027009125            5 
 2322000   0.88961213   -6.8992416    757.36518  0.027180777  0.027002526            6 
 2323000    0.8777083     -6.91018    757.36756  0.027169162  0.026995957            4 
 2324000   0.86556361   -6.9182623    756.22357  0.027116451  0.026989408            6 
 2325000   0.86286881   -6.9294044    757.07632  0.027135352  0.026982894            7 
 2326000   0.88744707   -6.9407482    757.25809  0.027130198  0.026976392            7 
 2327000    0.8760702   -6.9160852    760.02405  0.027217592  0.026969805            5 
 2328000   0.86584959    -6.924763     755.5282  0.027044967   0.02696321            7 
 2329000   0.87198285    -6.939101    758.23032  0.027130039  0.026956641            5 
 2330000   0.88072851   -6.8799261    758.84238  0.027140285  0.026950141           11 
 2331000    0.8759373   -6.9202193    758.55417  0.027118339  0.026943614            6 
 2332000   0.89691663    -6.907861    756.65699  0.027038915  0.026937062            8 
 2333000   0.88303575   -6.9033401    759.21343   0.02711864  0.026930495            6 
 2334000   0.88713089   -6.9460376    757.81558  0.027057112   0.02692396            5 
 2335000   0.88152473    -6.929224    759.94941  0.027121678   0.02691743            6 
 2336000   0.88591655   -6.9479427    760.04489  0.027113474  0.026910881            7 
 2337000   0.86556035   -6.9349136    762.53171  0.027190547  0.026904348            3 
 2338000   0.87611037   -6.9235047    759.72362  0.027078829  0.026897842           10 
 2339000   0.87528899    -6.925105    760.30803  0.027088073  0.026891303            8 
 2340000    0.8659532   -6.8912846    760.40641      0.02708  0.026884775            9 
 2341000   0.90156788   -6.9289459    761.39894  0.027103764  0.026878298            5 
 2342000   0.87957919   -6.9106964    762.22563  0.027121607  0.026871867            5 
 2343000   0.87350389   -6.9415731    760.40173   0.02704516  0.026865365            6 
 2344000   0.89213917   -6.9283669    760.29105  0.027029688  0.026858855           11 
 2345000   0.88426056   -6.9109101    760.91987  0.027040507  0.026852336            4 
 2346000   0.87172604   -6.9272033    761.41747  0.027046656  0.026845847            6 
 2347000   0.88780226   -6.9132189    761.60305  0.027041722  0.026839369            7 
 2348000   0.87079232   -6.9198686    762.00438  0.027044448  0.026832888            7 
 2349000   0.89372737   -6.9172084    760.54648  0.026981215  0.026826379            4 
 2350000   0.87513845   -6.9058456    763.31253   0.02706782  0.026819883            4 
 2351000   0.87519433   -6.8560853    763.74418  0.027071607  0.026813446            2 
 2352000   0.88333061   -6.9104307    764.34883   0.02708152  0.026806994            6 
 2353000   0.86562055    -6.926514    761.56375  0.026971375  0.026800509            3 
 2354000   0.87942489   -6.9242612    761.65779  0.026963246  0.026793993            8 
 2355000   0.86564088   -6.9091051     762.8956  0.026995598  0.026787462            3 
 2356000   0.86968714   -6.9342962    762.80154  0.026980813  0.026780871           12 
 2357000   0.87750841   -6.9145925    763.34766  0.026988674  0.026774292            5 
 2358000   0.89025862   -6.9172197    760.33583  0.026870788   0.02676775            9 
 2359000   0.86029803   -6.9165519    764.59518  0.027009862   0.02676127            5 
 2360000   0.86973085   -6.9016907     764.0418  0.026978877  0.026754762            8 
 2361000   0.87885335   -6.8809629    765.88083   0.02703236  0.026748342            4 
 2362000   0.85644355   -6.9226321    763.57102  0.026939424  0.026741929            8 
 2363000   0.85946859   -6.9390274     765.3164  0.026989575  0.026735458            7 
 2364000   0.87450928   -6.9425107    764.77674  0.026959135   0.02672904            9 
 2365000   0.88941332   -6.8943941    765.23843  0.026964004  0.026722649            5 
 2366000   0.87958217   -6.9214962    766.00686  0.026979672  0.026716254           12 
 2367000   0.89150389   -6.9516507    766.84446  0.026997763   0.02670987            9 
 2368000   0.86685177   -6.8952808    765.64463  0.026944138  0.026703492            6 
 2369000    0.8843508   -6.9156007     766.1559  0.026950749  0.026697109            5 
 2370000   0.87003221   -6.9235219    766.14972   0.02693916  0.026690658            6 
 2371000   0.87374519   -6.9344483    765.94582  0.026920632  0.026684208            5 
 2372000    0.8725916   -6.9346036    766.70559  0.026935975  0.026677781            7 
 2373000   0.89049433   -6.9449655    766.94978  0.026933199  0.026671391            6 
 2374000   0.86878152   -6.9178515    766.73078  0.026914167  0.026664995            7 
 2375000   0.87344401   -6.9512524    768.24233  0.026955871  0.026658605           17 
 2376000   0.87724447     -6.93236    766.87735  0.026896652  0.026652187            6 
 2377000   0.87429553   -6.9594169    766.77617   0.02688179  0.026645772            5 
 2378000   0.85912053   -6.9211518    766.52813  0.026861793  0.026639327            3 
 2379000   0.87455821   -6.9530794     766.8338  0.026861209  0.026632916            5 
 2380000   0.88017259   -6.9710389    765.43974  0.026801111  0.026626488           14 
 2381000    0.8676588   -6.9266766    767.01522  0.026844996  0.026620084           12 
 2382000   0.87321138   -6.9587776    767.79943  0.026861161  0.026613645            6 
 2383000   0.87662287   -6.9319895     765.9991  0.026786932  0.026607244           11 
 2384000   0.87263741   -6.9480295    768.31758  0.026856739   0.02660084           17 
 2385000   0.88729592   -6.9308532     769.7822  0.026896653  0.026594436            5 
 2386000   0.88706146   -6.9236646     769.4854  0.026875014  0.026588071            5 
 2387000   0.85373473   -6.8973637    769.20302  0.026853897  0.026581728           10 
 2388000    0.8679973   -6.9290396    767.58817  0.026786298   0.02657535            6 
 2389000   0.87543751   -6.9173763    768.09742   0.02679285  0.026568978            8 
 2390000   0.84819892   -6.9189747    767.10881  0.026747169  0.026562574            5 
 2391000   0.87202717   -6.9364248    767.50617  0.026749832  0.026556158            4 
 2392000   0.87258813   -6.9496194    769.83087  0.026819637   0.02654969           13 
 2393000    0.8573508   -6.9370601     769.9162  0.026811401   0.02654325            8 
 2394000   0.87007351   -6.9561115    768.26535  0.026742737  0.026536806            8 
 2395000   0.87496083   -6.9368504    768.17724  0.026728505  0.026530356           10 
 2396000   0.85829351   -6.9299853    770.08297  0.026783631  0.026523929            7 
 2397000   0.87016321   -6.9371774    768.97373  0.026733894  0.026517497            8 
 2398000   0.85691739   -6.9564363     767.9638  0.026687649  0.026511044            5 
 2399000   0.88375308   -6.9520799    767.53165  0.026661514  0.026504623            8 
 2400000   0.88064014   -6.9418451    772.10317  0.026809138  0.026498181           17 
 2401000   0.89126832     -6.95179    770.32372  0.026736211  0.026491782            5 
 2402000   0.85566073   -6.9498783    772.03703  0.026784521  0.026485354           10 
 2403000   0.86949068   -6.9190025    771.61157   0.02675862  0.026478934            3 
 2404000   0.86466999   -6.9320153    770.07067  0.026694075  0.026472498            9 
 2405000   0.87518817   -6.9594692     768.3761  0.026624258  0.026466045            8 
 2406000    0.8677254   -6.9315955    769.85112  0.026664281  0.026459582            6 
 2407000   0.85623705   -6.9291525    770.01691  0.026658943  0.026453134           11 
 2408000   0.86952366    -6.944293    769.51403  0.026630469  0.026446657            4 
 2409000   0.86755686   -6.9561809    770.68206  0.026659819  0.026440217            5 
 2410000   0.86746743   -6.9274138    771.11065  0.026663577  0.026433735            3 
 2411000   0.89244129   -6.9513586    772.13065  0.026687773  0.026427286            5 
 2412000   0.84561465   -6.9431982    771.45158  0.026653247  0.026420822            9 
 2413000   0.87203237     -6.91424    770.77467  0.026618824  0.026414378           12 
 2414000   0.87850217   -6.9340566    769.78374   0.02657359  0.026407911            7 
 2415000   0.86342894    -6.939085    771.84401  0.026633679  0.026401462            6 
 2416000   0.85020184   -6.9028769    772.30082  0.026638411  0.026395009            6 
 2417000   0.86373497   -6.9375721     772.6908  0.026640836  0.026388592            8 
 2418000   0.87335378    -6.990544    771.02625  0.026572451   0.02638212           10 
 2419000   0.84859712   -6.9296557    772.88218  0.026625402  0.026375703            6 
 2420000   0.87636776   -6.9507634    771.59161  0.026569959  0.026369234            8 
 2421000   0.85866759   -6.9669911    769.81533  0.026497843  0.026362796            5 
 2422000    0.8741933   -6.9296755    773.49602  0.026613543  0.026356341            5 
 2423000   0.88008209   -6.9596882    770.67866  0.026505663  0.026349895           15 
 2424000   0.85308366   -6.9555462    773.19548  0.026581253  0.026343508           10 
 2425000   0.84290973   -6.9816447    773.22347  0.026571253  0.026337119            6 
 2426000   0.86519173   -6.9287969    774.49713  0.026604051  0.026330762            7 
 2427000    0.8742971   -6.9479152    772.98471  0.026541159  0.026324386            9 
 2428000   0.86923407   -6.9514134     774.4175  0.026579404  0.026317992            7 
 2429000   0.86601313   -6.9346671    772.79983  0.026512962  0.026311576            7 
 2430000   0.86144806   -6.9412771    776.07371  0.026614325  0.026305193            4 
 2431000   0.85391085   -6.9521987    772.62896  0.026485293   0.02629871            6 
 2432000   0.87112061   -6.9776108    775.44783  0.026570992  0.026292302            4 
 2433000   0.86571136   -6.9301705    772.95033  0.026474528  0.026285845            5 
 2434000   0.86460067   -6.9566026    773.41354   0.02647951  0.026279361            4 
 2435000   0.88025827   -6.9485952    773.79201  0.026481588  0.026272901            3 
 2436000   0.85675496   -6.9247868     775.2141  0.026519366  0.026266505            8 
 2437000   0.87197621   -6.9159837    775.74403  0.026526605  0.026260092            4 
 2438000   0.86329729    -6.955274    773.94358  0.026454183  0.026253638            5 
 2439000    0.8600466   -6.9560598    776.79724  0.026540838  0.026247212            9 
 2440000   0.87093176   -6.9634036     775.1884  0.026475014  0.026240803            5 
 2441000   0.85397271   -6.9673499    775.95037  0.026490181  0.026234373            4 
 2442000   0.85573267   -6.9368027    772.97154   0.02637768  0.026227925            6 
 2443000   0.84259967   -6.9620569    773.67215  0.026390781  0.026221437            8 
 2444000   0.86856911   -6.9498392    774.58237  0.026411019  0.026214904            9 
 2445000   0.85159724   -6.9780805    774.52586  0.026398291  0.026208349            9 
 2446000    0.8766837   -6.9695248    774.05847  0.026371575   0.02620179            4 
 2447000   0.86155774   -6.9913326     773.8916  0.026355115   0.02619527            9 
 2448000   0.86063607   -6.9648796    774.59172  0.026368182  0.026188762           16 
 2449000    0.8431918   -6.9742894    774.47626  0.026353486  0.026182153           13 
 2450000   0.87106726   -6.9659708      774.898  0.026357075  0.026175576            6 
 2451000   0.86748642   -6.9383665    775.18896  0.026356214  0.026169059            6 
 2452000    0.8482349    -6.958321    774.51811  0.026322665  0.026162546            6 
 2453000   0.86282764   -6.9367898    775.68569    0.0263516  0.026155991            5 
 2454000   0.84543981   -6.9308548     775.0174  0.026318168  0.026149483            2 
 2455000   0.85565269   -6.9439706     775.5069  0.026324063  0.026143023            6 
 2456000   0.85494569    -6.944393    776.54745  0.026348651  0.026136508            8 
 2457000   0.84361724   -6.9713785    774.15608   0.02625682  0.026130011            8 
 2458000   0.87147388   -6.9489471    775.72282  0.026299255  0.026123511            4 
 2459000   0.85101711   -6.9788591    776.06116  0.026300026  0.026116968            8 
 2460000   0.87058941   -6.9934042    776.23373  0.026295181  0.026110425            8 
 2461000   0.86371877   -7.0026686    775.96669  0.026275453  0.026103858           10 
 2462000   0.85754935   -6.9680023    776.88266  0.026295785  0.026097275            6 
 2463000   0.85169385   -7.0068549     774.5836  0.026207322  0.026090687            5 
 2464000   0.86778277   -6.9829213    775.26953  0.026219884  0.026084076            9 
 2465000   0.84490912   -6.9793314    776.08235  0.026236726  0.026077469            8 
 2466000   0.85904933   -6.9773543    776.35395  0.026235265  0.026070894            7 
 2467000   0.87480471   -6.9727115     775.7429  0.026203989  0.026064312            8 
 2468000   0.86074984   -6.9847589    777.77574  0.026262012  0.026057772            4 
 2469000   0.85138983   -6.9614392    776.86192  0.026220532  0.026051197            9 
 2470000   0.85066494   -6.9910363    775.59809  0.026167277  0.026044642            9 
 2471000   0.85892075   -6.9971481    776.19378  0.026176777     0.026038            9 
 2472000   0.84724239   -6.9807219    776.92242   0.02619075  0.026031414            4 
 2473000   0.84688677   -6.9637757    776.60473  0.026169454  0.026024818            4 
 2474000    0.8505348   -6.9745398    777.38828  0.026185269  0.026018175            5 
 2475000   0.85159409   -6.9735734    775.65777  0.026116423  0.026011529            7 
 2476000   0.83247136    -6.988366    777.56185   0.02616996  0.026004852            4 
 2477000   0.84744605   -6.9637913    776.51362  0.026124129  0.025998216            5 
 2478000   0.85278316   -6.9880331    777.13089  0.026134345    0.0259916            8 
 2479000    0.8548885   -6.9642976    776.93959  0.026117372  0.025984935            4 
 2480000   0.84792011   -6.9649987     777.5027  0.026125763  0.025978242            4 
 2481000    0.8507065   -6.9588082    777.67298  0.026120952  0.025971589            5 
 2482000   0.83891344   -6.9985411    779.01101  0.026155352  0.025964908            7 
 2483000   0.85726605   -6.9617308     777.7187  0.026101447   0.02595817            7 
 2484000   0.87016513   -6.9979456    776.60429  0.026053552   0.02595147           13 
 2485000   0.84162551   -6.9528511    776.73788  0.026047548  0.025944764            7 
 2486000   0.82961275   -6.9369905      778.736  0.026104049    0.0259381            3 
 2487000    0.8582312   -6.9792172    775.13473  0.025972883  0.025931413            6 
 2488000   0.84408128   -6.9705951    778.86452   0.02608737   0.02592463            7 
 2489000   0.86602181   -6.9878166    776.80591  0.026007965  0.025917911           16 
 2490000   0.85797124   -6.9716363    778.74087  0.026062278  0.025911208           12 
 2491000   0.85110761   -6.9536243    778.65912  0.026049081  0.025904498            8 
 2492000   0.84593186    -6.988061    775.56588  0.025935189  0.025897763           15 
 2493000   0.85637493   -6.9729885     776.2301  0.025946988  0.025890991            6 
 2494000   0.84888283   -7.0010191    776.09512  0.025932074    0.0258842           11 
 2495000   0.84491854    -7.005642    776.71143  0.025942265  0.025877372           11 
 2496000   0.85437551   -6.9637266    778.39367  0.025988036  0.025870601            5 
 2497000   0.83231589     -6.98022    777.82431  0.025958627  0.025863872            8 
 2498000   0.85338868   -6.9829088    778.28603  0.025963638  0.025857146            5 
 2499000   0.85255059   -6.9734148    778.88082  0.025973083  0.025850392            4 
 2500000   0.84579475   -6.9639282    779.18142  0.025972714  0.025843694            9 
 2501000   0.83836129    -6.955917     778.4757  0.025938814  0.025836994            6 
 2502000   0.83763444   -6.9968697    777.79081  0.025905636  0.025830246            7 
 2503000    0.8496103   -6.9565207    777.67419  0.025891403  0.025823479            5 
 2504000   0.84495941   -6.9933779    776.18663  0.025831557  0.025816714            7 
 2505000   0.84391721     -6.97301    777.96062   0.02588026  0.025809955            6 
 2506000   0.84359287   -6.9632198    780.55871  0.025956329  0.025803204            5 
 2507000    0.8618834   -6.9647365    780.31924  0.025938015  0.025796475           10 
 2508000   0.84773031   -6.9442724     780.1411  0.025921754  0.025789755            5 
 2509000   0.85219856   -6.9615654    778.78962  0.025866535  0.025783046            7 
 2510000    0.8421647   -6.9816195    779.57671  0.025882361  0.025776356            6 
 2511000   0.86865637   -6.9830931    780.74584  0.025910854  0.025769602            8 
 2512000   0.85026271   -6.9855767    779.16855  0.025848214  0.025762886            7 
 2513000   0.86372748   -6.9950828    781.01963  0.025899311  0.025756079            5 
 2514000   0.86117045   -6.9771735    779.01012  0.025822399  0.025749324            5 
 2515000    0.8624487   -6.9753317    778.54931  0.025796863  0.025742624           12 
 2516000   0.85609359   -6.9868907    780.77001  0.025860162   0.02573587            6 
 2517000   0.84862044   -6.9514471    778.64753  0.025779616  0.025729133            4 
 2518000   0.84600959   -6.9766395    781.51248  0.025864194  0.025722366            9 
 2519000    0.8260261   -6.9806778    780.39208  0.025816861  0.025715587            4 
 2520000   0.85138301   -6.9981705    781.23592  0.025834521  0.025708866            5 
 2521000   0.83746233   -6.9989264    780.41542  0.025797151  0.025702067            6 
 2522000   0.84083806   -6.9759873    779.40878   0.02575366  0.025695299            9 
 2523000   0.85330324   -6.9835227    780.74281  0.025787515  0.025688541            6 
 2524000   0.84932081   -6.9698863    781.99083  0.025818503  0.025681795            5 
 2525000    0.8511313   -7.0057598    781.15837  0.025780804  0.025675055            9 
 2526000   0.82924205   -6.9873112    781.73296  0.025789554  0.025668292            4 
 2527000    0.8249415   -6.9901836    781.11484  0.025758964  0.025661571           13 
 2528000    0.8620373   -6.9978063    779.33833  0.025690214  0.025654833            6 
 2529000    0.8501031   -6.9939185    780.33027  0.025712741  0.025648048            7 
 2530000   0.84716019   -6.9745615    779.54853  0.025676829  0.025641301            3 
 2531000   0.84619565   -7.0057036    781.07498  0.025716942  0.025634537            6 
 2532000   0.84554615   -6.9835798    781.39709  0.025717387  0.025627795            7 
 2533000   0.86505207   -6.9623111    781.19411  0.025700556  0.025621067            6 
 2534000   0.85614738   -6.9844774    781.27093   0.02569294  0.025614288            8 
 2535000   0.84085781   -6.9532706    781.26151  0.025682495  0.025607521            4 
 2536000   0.81816782   -6.9949135    781.79532  0.025689909  0.025600704            6 
 2537000   0.85652047    -6.985391    781.74044  0.025677981  0.025593911            4 
 2538000   0.85467707   -6.9641639    781.28197   0.02565281  0.025587143            5 
 2539000   0.83870051   -6.9724918    780.50382  0.025617166    0.0255804            4 
 2540000   0.83190376   -6.9875213    782.24144  0.025664089  0.025573623            4 
 2541000   0.83154942     -6.99813    780.76301  0.025605503  0.025566813           11 
 2542000   0.83763056   -6.9940968    781.48139  0.025618981  0.025560001            4 
 2543000     0.836416   -6.9766375    780.97151  0.025592198  0.025553205            6 
 2544000   0.83590637   -6.9937761    783.15612  0.025653699    0.0255464            6 
 2545000   0.84970558   -6.9913047    782.80447  0.025632104  0.025539588            5 
 2546000    0.8419443   -6.9690267     783.1469  0.025633245   0.02553281            5 
 2547000   0.83626062   -7.0058534    781.67816  0.025575126  0.025526006            6 
 2548000    0.8277364   -6.9739879    782.95964     0.025607  0.025519191            8 
 2549000   0.84879241   -6.9977994    782.86521  0.025593867   0.02551238            6 
 2550000   0.85001176   -7.0281541     781.4884  0.025538837  0.025505538            5 
 2551000   0.85917972   -6.9786593    782.72538  0.025569234  0.025498706            8 
 2552000   0.84122123   -6.9902503    781.48346   0.02551866  0.025491876            8 
 2553000   0.85859959   -7.0049444     784.7287  0.025614594  0.025485062           11 
 2554000   0.85753766   -7.0058354    781.69957  0.025505729  0.025478236            5 
 2555000   0.86330141   -6.9771725    784.71722  0.025594169  0.025471435           13 
 2556000   0.86499484   -6.9895994    783.13938  0.025532713  0.025464667            8 
 2557000   0.84140499   -6.9950328    783.15649  0.025523285  0.025457869            3 
 2558000   0.83667885    -6.980892    783.66558  0.025529893  0.025451115            5 
 2559000   0.84305127    -6.972414    784.02438    0.0255316   0.02544439            5 
 2560000   0.84923069   -6.9919198    783.94026  0.025518889  0.025437612            5 
 2561000   0.84035781   -7.0042185    783.28753  0.025487685  0.025430833            9 
 2562000   0.83300003   -6.9879034     781.8819  0.025432016  0.025424019            5 
 2563000   0.81125582   -7.0087018    785.92631  0.025553593  0.025417275           13 
 2564000   0.83483066   -7.0043211    786.02919   0.02554697  0.025410526            4 
 2565000   0.83068811   -6.9953112    784.02152  0.025471784  0.025403724            3 
 2566000   0.82661886   -7.0075662     784.7978  0.025487068  0.025396944            5 
 2567000   0.83598284   -7.0100988    785.46515  0.025498804  0.025390181            6 
 2568000   0.83012864   -6.9715465    785.49791  0.025489937  0.025383422            9 
 2569000   0.83707774   -6.9715508    783.32764  0.025409616  0.025376644            6 
 2570000    0.8373109    -7.017609    785.44987  0.025468543  0.025369869            3 
 2571000    0.8473394   -6.9840584     786.2044  0.025483093  0.025363136            8 
 2572000   0.84186624   -6.9682814    786.17912  0.025472366  0.025356405           10 
 2573000   0.85729477   -6.9708308    786.97923   0.02548838  0.025349706           10 
 2574000   0.83376507   -6.9985547    786.63099  0.025467204   0.02534295            3 
 2575000   0.83446333   -7.0139634    785.00018  0.025404537  0.025336173            8 
 2576000    0.8572933   -7.0109009    786.60873  0.025446711  0.025329425            3 
 2577000   0.84637296   -7.0310436     784.7509  0.025376759  0.025322682            3 
 2578000   0.84128393   -7.0187322    787.17226  0.025445186  0.025315977            5 
 2579000   0.84498522   -6.9729513    787.57091    0.0254482  0.025309239            4 
 2580000   0.83407414   -6.9920874    786.30512  0.025397452  0.025302528            9 
 2581000   0.83917062   -6.9909824    787.02301  0.025410791  0.025295792            6 
 2582000   0.83905318   -7.0117915    788.33735  0.025443369  0.025289045            4 
 2583000   0.84070748   -7.0142209    786.32072  0.025368458  0.025282273           11 
 2584000   0.83781136   -6.9790209    788.98026   0.02544441  0.025275553            7 
 2585000   0.82476873   -7.0243402    786.43492  0.025352512  0.025268822            6 
 2586000   0.83307258   -7.0149584    787.55225  0.025378714   0.02526209            4 
 2587000   0.85585759   -7.0028325    786.74663  0.025342953  0.025255364            5 
 2588000   0.85046408   -7.0182586    784.62397  0.025264811  0.025248618            8 
 2589000   0.84254075   -7.0013483    785.16043   0.02527232  0.025241846           13 
 2590000   0.81988815   -7.0429382     784.1649  0.025230531  0.025235031           11 
 2591000   0.85049073    -7.001173    785.38076  0.025259898  0.025228233            9 
 2592000    0.8245516   -7.0285288    786.64637  0.025290843  0.025221417            9 
 2593000   0.82964263   -7.0312089    785.39409  0.025240844  0.025214622            6 
 2594000   0.84597799    -6.998156    788.17665  0.025320504  0.025207865            7 
 2595000   0.83670705   -7.0270617    788.76041  0.025329493  0.025201086            6 
 2596000   0.84701963   -7.0009823    789.58083  0.025346072  0.025194326            3 
 2597000   0.83837113   -7.0083168     786.0533   0.02522312  0.025187567            6 
 2598000   0.83798293   -6.9943906    788.21097   0.02528262  0.025180813            8 
 2599000   0.81133475   -6.9942444    788.42718  0.025279825    0.0251741            4 
 2600000   0.84439992   -6.9755782    790.08151  0.025323125  0.025167324            6 
 2601000    0.8354961   -7.0032813    787.69094  0.025236798  0.025160586           12 
 2602000   0.83473728   -7.0292061    789.48465  0.025284545  0.025153836           12 
 2603000   0.82420528   -7.0132517     788.2528  0.025235395  0.025147045            8 
 2604000    0.8288243   -6.9890681    789.15417   0.02525455  0.025140239            9 
 2605000   0.82199884   -7.0420077    787.03917  0.025177197  0.025133382            6 
 2606000   0.82345977   -7.0171784    787.07051  0.025168538  0.025126533            5 
 2607000   0.82805725   -7.0150915     788.5859  0.025207323  0.025119747           26 
 2608000    0.8351081   -7.0175856    789.60011  0.025230065  0.025112976            9 
 2609000   0.83264238   -6.9951953    787.17724  0.025143006  0.025106248           22 
 2610000   0.85137441   -6.9964432    789.07179  0.025193863  0.025099552            4 
 2611000   0.82443616   -7.0244779    789.48917  0.025197535  0.025092804            7 
 2612000   0.82107471   -7.0032662    790.28414  0.025213251  0.025086067            4 
 2613000   0.83218719   -7.0265048    790.18196  0.025200343  0.025079369            8 
 2614000   0.83437665   -6.9999729    790.56939  0.025203054  0.025072677           10 
 2615000   0.83318723   -6.9923339    789.97332  0.025174421  0.025065967           14 
 2616000   0.83350304   -7.0031833    791.54171  0.025214759  0.025059223           14 
 2617000   0.82266702   -7.0109549     790.1596  0.025161113  0.025052505           10 
 2618000    0.8355406   -7.0139094    790.18206  0.025152217  0.025045809            6 
 2619000   0.85011254   -7.0234321    791.91643  0.025197799  0.025039164            8 
 2620000   0.82376047   -6.9931342    790.07138  0.025129497  0.025032512           16 
 2621000   0.84201254   -7.0141295    791.80679  0.025175086  0.025025871           13 
 2622000   0.81466468   -7.0242914    791.56419  0.025157774    0.0250192            6 
 2623000   0.83058452   -7.0193776    792.87763  0.025189911  0.025012528           10 
 2624000   0.84276351   -7.0050479     792.1192  0.025156225  0.025005912            5 
 2625000   0.83617534   -7.0264205    792.87307  0.025170574  0.024999298            4 
 2626000    0.8504355   -7.0416364    792.40202   0.02514604  0.024992664            7 
 2627000   0.81827781   -7.0390207    792.14881  0.025128436  0.024986043            6 
 2628000   0.83012561   -7.0041133    793.63228  0.025165914  0.024979417           13 
 2629000   0.84178284   -7.0278622     792.1921  0.025110692  0.024972793           13 
 2630000   0.83985929   -7.0158209    792.24232  0.025102735   0.02496621           12 
 2631000   0.84967917    -7.007752     791.3153  0.025063832  0.024959608            9 
 2632000    0.8442826   -7.0249406    792.83838  0.025102532  0.024952977            6 
 2633000   0.84714533   -6.9988195    791.49428  0.025050458  0.024946372            6 
 2634000   0.81587576   -7.0256705    792.06027  0.025058854  0.024939726            5 
 2635000   0.82869258   -7.0418121    792.76748   0.02507171  0.024933101            8 
 2636000   0.82567309   -7.0382306    792.07611  0.025040342  0.024926494           13 
 2637000   0.84919208   -7.0542548    791.38219  0.025008918  0.024919824            3 
 2638000   0.82324737   -7.0162696    793.48592  0.025065893  0.024913182            9 
 2639000   0.81873271    -6.973669    791.54115  0.024994984  0.024906563            8 
 2640000   0.81287074   -7.0242087    793.41282  0.025044597  0.024899923            6 
 2641000   0.83498806   -7.0304888    793.46608  0.025036794  0.024893294            3 
 2642000   0.83059662   -7.0431117    793.23962  0.025020175  0.024886685           10 
 2643000   0.82528622   -7.0030286    795.28113  0.025075077  0.024880066           19 
 2644000   0.82793447   -7.0263559    795.75357  0.025080483  0.024873452           12 
 2645000     0.823233   -7.0166302    795.08941  0.025050076  0.024866829            5 
 2646000   0.84677824    -7.039384    794.57269  0.025024335  0.024860212           10 
 2647000   0.83647498   -7.0168117    794.68185  0.025018318  0.024853597            5 
 2648000   0.83752708   -7.0230299    793.57805  0.024974133  0.024847003            6 
 2649000   0.82562439   -7.0327334    793.67344  0.024967706  0.024840393            6 
 2650000   0.82412822   -7.0646485    793.60797  0.024956225  0.024833705           15 
 2651000   0.83510407   -7.0168134    793.97084  0.024958218  0.024827083           10 
 2652000   0.83091556    -6.997114    793.83394  0.024944505  0.024820396            6 
 2653000   0.83760521   -7.0266836    794.60132  0.024959207   0.02481374            5 
 2654000   0.84128157     -7.03545    793.89558  0.024927643   0.02480712            6 
 2655000   0.84235692   -7.0375357    794.77151  0.024945747  0.024800471            3 
 2656000   0.85040793   -6.9997611    794.46006  0.024926583  0.024793852            6 
 2657000   0.82038878   -7.0128699    794.45482  0.024917037  0.024787249            3 
 2658000   0.82678633   -7.0220112    792.42253  0.024843947  0.024780608            7 
 2659000   0.82868506   -7.0139836    793.83657   0.02487892  0.024773936            6 
 2660000    0.8185246    -7.026508    794.52857  0.024891246  0.024767214            8 
 2661000   0.84931973    -7.046236    794.97884  0.024895993  0.024760496            4 
 2662000   0.84085674   -7.0404418    796.21078  0.024925206  0.024753789            3 
 2663000   0.84258907   -7.0298865    797.70867   0.02496272  0.024747142            7 
 2664000   0.82903372     -6.97788    796.95263  0.024929699  0.024740502            5 
 2665000   0.81497698   -6.9997556    795.91476  0.024887891   0.02473389            5 
 2666000   0.83085686   -7.0479166    794.29304  0.024827864  0.024727253            6 
 2667000    0.8377929   -6.9914002    794.19041  0.024815348  0.024720556            7 
 2668000   0.83322164   -7.0501559    795.54824  0.024848458  0.024713895            7 
 2669000   0.83173333   -7.0534813    794.27405  0.024799365  0.024707187            5 
 2670000   0.82122486   -7.0293469    795.40324  0.024825319   0.02470048           12 
 2671000   0.81617301   -7.0054546    794.48869  0.024787492  0.024693781            9 
 2672000   0.81798108   -7.0209856    793.41604  0.024744762  0.024687101            9 
 2673000   0.80210584   -7.0345101    794.25026  0.024761512  0.024680485           11 
 2674000   0.83523509   -7.0456354     794.8845  0.024772017   0.02467386           19 
 2675000   0.84168314   -7.0200038    797.48897  0.024843893  0.024667238           10 
 2676000   0.83028687   -7.0354177    796.71943  0.024810645  0.024660641            4 
 2677000   0.83358702   -7.0544196    797.53605  0.024826798  0.024654041            4 
 2678000   0.81823298   -7.0288948     796.3533  0.024780723  0.024647448           11 
 2679000   0.85770118   -7.0393335    797.54561  0.024808561  0.024640864            6 
 2680000   0.83277335   -7.0349057    796.47314  0.024765956  0.024634281            8 
 2681000   0.82714713   -7.0206812    797.83418  0.024799023  0.024627672            7 
 2682000   0.81666413   -7.0711624    795.35053  0.024712607  0.024621035            4 
 2683000   0.82703835   -7.0404113    796.12204  0.024727359  0.024614373           17 
 2684000   0.82640972   -7.0132505    797.81392  0.024770675  0.024607789            8 
 2685000    0.8107782    -7.017384    797.04793  0.024737676  0.024601215            7 
 2686000   0.82958428   -7.0472591    797.88741  0.024754511  0.024594553            6 
 2687000   0.83712027   -7.0242959    796.45111  0.024700754  0.024587904           11 
 2688000   0.83087358     -7.02635    795.89522  0.024674331  0.024581226           13 
 2689000   0.81184551   -7.0233147    796.43396  0.024681851  0.024574542            6 
 2690000   0.82847201   -7.0318693    797.19097  0.024696127  0.024567845            5 
 2691000   0.81703925    -7.037355    796.56335  0.024667514  0.024561169            6 
 2692000   0.82942131   -7.0561498    796.38339   0.02465278  0.024554481            7 
 2693000   0.83129818   -7.0395647    796.60556    0.0246505  0.024547822            8 
 2694000   0.83151835   -7.0491119    796.01356  0.024623038  0.024541125            7 
 2695000   0.82008412   -7.0476309    796.61167  0.024632395  0.024534457            9 
 2696000   0.83827172   -7.0409703    799.79105  0.024721533  0.024527831            7 
 2697000   0.81132612   -7.0286521    796.63683  0.024614906  0.024521199            8 
 2698000   0.81546327   -7.0482476    798.54305  0.024664661  0.024514579            6 
 2699000   0.81445633   -7.0394999    797.35577  0.024618864  0.024507969            4 
 2700000   0.80912654   -7.0478581    798.35897  0.024640709  0.024501314           13 
 2701000   0.82013371    -7.009806    799.78968  0.024675727  0.024494657            4 
 2702000   0.80490101   -7.0528324    798.29631  0.024620537  0.024488029            5 
 2703000   0.81581999   -7.0550517    799.51686  0.024649058  0.024481393           11 
 2704000   0.81629918   -7.0527556    799.40526  0.024636503  0.024474799           13 
 2705000   0.80418625   -7.0559195     797.2717  0.024561667  0.024468151            7 
 2706000   0.80959693   -7.0427967    798.48362  0.024589912   0.02446152            5 
 2707000   0.81745987   -7.0431038    798.88664  0.024593235  0.024454858            7 
 2708000   0.83132502   -7.0391114    800.66984  0.024639028  0.024448245            4 
 2709000   0.80750332   -7.0452042    799.09375  0.024581449  0.024441614           10 
 2710000    0.8243424   -7.0446875    801.08655  0.024633658  0.024434975           14 
 2711000   0.82391625   -7.0691675    800.08337  0.024593734   0.02442833            6 
 2712000   0.81147125    -7.062871    798.10966  0.024524018  0.024421673            3 
 2713000   0.81720376   -7.0538831    798.38688  0.024523494   0.02441502            5 
 2714000   0.80388921   -7.0415098    799.94122  0.024562184  0.024408411            6 
 2715000   0.81657658   -7.0592107    797.59343  0.024481075  0.024401771            3 
 2716000   0.80738647   -7.0434517    800.25388  0.024553691  0.024395127           11 
 2717000   0.81367593   -7.0524186    798.64682  0.024495363  0.024388477            9 
 2718000   0.79734485   -7.0715512    796.51755  0.024421068  0.024381835            5 
 2719000    0.8204836     -7.04034     799.0447   0.02448954  0.024375177           12 
 2720000   0.81270952   -7.0360937    801.90618  0.024568204  0.024368512            4 
 2721000   0.81261939   -7.0500768     798.7893  0.024463717   0.02436183           10 
 2722000   0.81919602   -7.0197911    800.74034   0.02451446  0.024355154           11 
 2723000   0.81355132   -7.0563835    799.72616   0.02447442  0.024348506            4 
 2724000   0.83870328    -7.038968    800.75615  0.024496945  0.024341864           16 
 2725000   0.82017873   -7.0503094    799.14669  0.024438737  0.024335192            4 
 2726000   0.83256334   -7.0664272    800.05976  0.024457684  0.024328546           15 
 2727000   0.81813687   -7.0640525    799.48556  0.024431168  0.024321872            6 
 2728000   0.81083896   -7.0746816    799.70706  0.024428979  0.024315215           28 
 2729000   0.79542896   -7.0621123     799.4747  0.024412932  0.024308503            7 
 2730000   0.82481703   -7.0378682    799.89746  0.024416894  0.024301818            4 
 2731000   0.80174717   -7.0603913    801.31152  0.024451102  0.024295157            6 
 2732000     0.794884   -7.0352413    801.71569  0.024454481  0.024288512            9 
 2733000   0.80776849   -7.0663797    802.00155  0.024454249  0.024281847            7 
 2734000   0.81584262   -7.0234172    801.56327  0.024431946  0.024275197            7 
 2735000   0.81706789   -7.0770355    801.52266  0.024421775  0.024268567            7 
 2736000   0.81223792   -7.0449312    801.52232  0.024412839  0.024261917            4 
 2737000   0.81570818   -7.0378263    800.76018  0.024380714  0.024255291            8 
 2738000   0.82488932   -7.0495542    800.23476  0.024355818  0.024248641           12 
 2739000   0.80884129   -7.0838386    800.78651  0.024363713  0.024241978            5 
 2740000   0.79276968   -7.0658777    801.44276   0.02437478  0.024235302           19 
 2741000   0.82977745   -7.0559404    800.12921  0.024325952  0.024228643            8 
 2742000   0.82783001    -7.046855    800.47773  0.024327672  0.024221978            6 
 2743000   0.82498336   -7.0454509    800.24065  0.024311601  0.024215296           11 
 2744000   0.81484663   -7.0752343    800.76962  0.024318805  0.024208653           10 
 2745000   0.81834724   -7.0286698    800.58701  0.024304402     0.024202            7 
 2746000   0.80374064   -7.0543494    801.37574  0.024319487  0.024195329           18 
 2747000   0.81123803   -7.0519072    801.00835  0.024299489  0.024188613           15 
 2748000   0.82070232   -7.0614078    801.24918   0.02429795  0.024181932            9 
 2749000   0.80400996     -7.05484    800.82865  0.024276363  0.024175289            6 
 2750000   0.79889376   -7.0866232    800.51816  0.024258126  0.024168594           10 
 2751000   0.81704355   -7.0588664    801.77827  0.024287479  0.024161899            6 
 2752000   0.81065246   -7.0493128    803.41315   0.02432816  0.024155208            8 
 2753000   0.80504324      -7.0604    801.83814  0.024271647  0.024148523            6 
 2754000   0.80864754   -7.0775227    801.76928   0.02426075  0.024141837            6 
 2755000   0.80123359    -7.062112     801.1339  0.024232725  0.024135113            9 
 2756000    0.8101575   -7.0597843    804.80421  0.024334912  0.024128453            6 
 2757000   0.79410947   -7.0588055    801.93364  0.024239319  0.024121737           11 
 2758000   0.82842571   -7.0689986    801.63008  0.024221358  0.024115032            9 
 2759000   0.81788395   -7.0416917    803.10313  0.024257072  0.024108354            7 
 2760000    0.8022888   -7.0891067    803.39637  0.024257137  0.024101668            9 
 2761000   0.78064101   -7.0680687    801.72536  0.024197916  0.024094986            6 
 2762000   0.79954054   -7.0631077    800.77757  0.024160559  0.024088283           11 
 2763000   0.80419602   -7.0682819    802.13898  0.024192875  0.024081587            8 
 2764000   0.80762776   -7.0653351    803.05169   0.02421164  0.024074885            6 
 2765000   0.81365669   -7.0816311    802.43131  0.024184187   0.02406816            7 
 2766000   0.80920032   -7.0353729    802.02292  0.024163139  0.024061499            8 
 2767000    0.8115522   -7.0681613    802.49401  0.024168594  0.024054817           13 
 2768000   0.81113141   -7.0534749    803.54045  0.024191367  0.024048122           13 
 2769000   0.79983149   -7.0877764    801.98775  0.024135902  0.024041414            5 
 2770000   0.80324924   -7.0667704    801.56836  0.024114572  0.024034712           18 
 2771000   0.80292281   -7.0761539    803.88469  0.024175529   0.02402803            8 
 2772000   0.81416214   -7.0793797     804.0485  0.024171732  0.024021361            9 
 2773000   0.81418959    -7.073779    802.18561  0.024107032  0.024014689           15 
 2774000   0.81020759   -7.0651399    803.83152  0.024147786  0.024008041           10 
 2775000   0.81289527    -7.082162    802.44236  0.024097368  0.024001354            6 
 2776000   0.81610651   -7.0763813    805.31254  0.024174848  0.023994681            5 
 2777000    0.7881497   -7.0559162    802.93793  0.024094885  0.023988015            7 
 2778000   0.78883476   -7.0811789    803.19968  0.024094063  0.023981352           10 
 2779000   0.81191051   -7.0522784    804.47926  0.024123763   0.02397472            4 
 2780000   0.81291645   -7.0733909    803.67357  0.024090934   0.02396806            5 
 2781000   0.80326461   -7.0638098    804.05521  0.024093708  0.023961371           11 
 2782000   0.81159597   -7.0704455    806.06097  0.024145129  0.023954704           10 
 2783000   0.80710985   -7.0633586    803.89925  0.024071723   0.02394802            5 
 2784000   0.80776614   -7.0224736    805.57344   0.02411319  0.023941344            4 
 2785000   0.82607455   -7.0687541    805.56517  0.024104284  0.023934699            5 
 2786000   0.82171326   -7.0710617    802.89854  0.024015869  0.023928046            6 
 2787000   0.81187454   -7.0539749    804.99315  0.024069882  0.023921359            5 
 2788000   0.79152823   -7.0664606    803.25122  0.024009183  0.023914726           15 
 2789000   0.79753763   -7.0688049    804.93336  0.024050835   0.02390804            7 
 2790000   0.78848312   -7.0867345    804.85438  0.024039856   0.02390137           10 
 2791000   0.79041048    -7.084533    803.16961  0.023980939  0.023894657           10 
 2792000   0.80357158   -7.0513176    804.43987  0.024010264  0.023887957            9 
 2793000   0.79624556   -7.0414984    803.96912  0.023987621  0.023881287           11 
 2794000   0.79582698    -7.051835    805.25573   0.02401741  0.023874622           14 
 2795000   0.81595283   -7.0580775    804.00068  0.023971398  0.023867939            3 
 2796000   0.80572341   -7.1096331    802.37785  0.023914457  0.023861282            6 
 2797000   0.79715366   -7.0600336    805.27189  0.023992131  0.023854637            9 
 2798000   0.80075414   -7.0439656    805.13801  0.023979569  0.023847973           16 
 2799000   0.78994532   -7.0748007    805.28883  0.023975492  0.023841285            6 
 2800000   0.82072047    -7.070683     803.2252  0.023905512  0.023834619            7 
 2801000   0.78773283   -7.0857782    803.81323  0.023914472  0.023827909            9 
 2802000   0.81073147   -7.0822253    803.53134  0.023897553   0.02382119            5 
 2803000   0.80291282   -7.0659895    805.55574  0.023949213  0.023814503            7 
 2804000   0.81452214   -7.0930297    803.33187   0.02387458  0.023807831            8 
 2805000   0.80022989   -7.1293479    805.32328  0.023925231  0.023801108            3 
 2806000   0.80659678   -7.0863217    806.30403  0.023945831  0.023794415            6 
 2807000   0.79121701   -7.0932562    804.83435  0.023893669  0.023787722           11 
 2808000     0.793922   -7.0924559    803.63839  0.023849667  0.023781022           12 
 2809000   0.81062902   -7.0724918    805.17835  0.023886862  0.023774351            8 
 2810000   0.79673992   -7.0585605    805.79287  0.023896586  0.023767735            5 
 2811000    0.7934888   -7.0900953    807.48559  0.023938266  0.023761128           11 
 2812000   0.79471986    -7.082522    807.32188  0.023924902    0.0237545            7 
 2813000   0.79439307    -7.084079    806.70711  0.023898184  0.023747875            3 
 2814000    0.7894163   -7.1147704    805.69353  0.023859676  0.023741214            5 
 2815000   0.80096129   -7.0463547    805.56017  0.023847252   0.02373456           13 
 2816000   0.80394157   -7.0728207    806.87752  0.023877768  0.023727921            8 
 2817000    0.8067286   -7.0550267    806.27264  0.023851398  0.023721324            5 
 2818000    0.8014326   -7.0976632    809.11796  0.023927075  0.023714722            8 
 2819000   0.79490085   -7.1007461    805.93539  0.023824506  0.023708116           12 
 2820000      0.79601   -7.0894884    806.36483  0.023828748  0.023701504            9 
 2821000   0.78614636   -7.0839032    805.48519  0.023794316  0.023694902           10 
 2822000   0.80096496   -7.0809478    808.02075  0.023860759  0.023688307            4 
 2823000   0.78552104   -7.0766594    806.92284  0.023819897   0.02368167            9 
 2824000    0.8095015    -7.087739    807.26158  0.023821458  0.023675058            4 
 2825000    0.7874042   -7.0773501    807.28836  0.023813816  0.023668462           11 
 2826000   0.79880759   -7.0838722    808.90196  0.023852971  0.023661847            6 
 2827000   0.81329387   -7.0852037    808.54874  0.023834122  0.023655218            9 
 2828000   0.78938458   -7.0776749    805.74944  0.023743206  0.023648609            6 
 2829000   0.80564972   -7.0707007    808.10614  0.023804234  0.023641995            5 
 2830000   0.80793235   -7.0741497    807.79159   0.02378656  0.023635387           20 
 2831000   0.80288526   -7.0603704     808.1006  0.023787254   0.02362877            6 
 2832000   0.80037989   -7.0724496    808.32693  0.023785515  0.023622127            8 
 2833000   0.79737765    -7.102963    808.26206  0.023775211  0.023615515            8 
 2834000   0.79203153   -7.0868226    809.48171  0.023802685  0.023608897           10 
 2835000   0.80495767   -7.0774938    808.87768  0.023776534   0.02360227            7 
 2836000   0.78917315   -7.0769373    809.71605  0.023792785  0.023595622            6 
 2837000   0.80315595   -7.0713363    806.71231  0.023696167  0.023588945            3 
 2838000   0.78079289   -7.0746087    807.22611  0.023702904  0.023582327            6 
 2839000   0.81084657   -7.0748216    807.82792   0.02371222  0.023575702            7 
 2840000   0.80509542    -7.075059    807.25107  0.023686945  0.023569038            5 
 2841000   0.80436693   -7.1010482    807.76749  0.023693755   0.02356236            6 
 2842000   0.81216522   -7.0924612    806.62208  0.023651832  0.023555664            5 
 2843000   0.77387533   -7.1023217    805.20075  0.023601851  0.023548948           10 
 2844000   0.78650518   -7.0895234    806.50765  0.023631846  0.023542252            8 
 2845000   0.78966757   -7.1100072    808.35397  0.023677621  0.023535562            6 
 2846000   0.79408634   -7.1139182    806.89992  0.023626725  0.023528878           11 
 2847000    0.8067016   -7.0908052    809.66221   0.02369928  0.023522194            9 
 2848000   0.78736919   -7.1113507    807.92837  0.023640226  0.023515503           10 
 2849000   0.80789671   -7.0789829    807.56001  0.023621154  0.023508789           20 
 2850000   0.81347723   -7.0860536    810.44416  0.023697198  0.023502102           25 
 2851000   0.78405672   -7.0892261    806.28951  0.023567448  0.023495435           26 
 2852000   0.78708466   -7.0943172    808.26351  0.023616863  0.023488787            6 
 2853000   0.80220627   -7.0939579      807.325  0.023581172  0.023482162            8 
 2854000   0.79229582   -7.0882111    807.21616  0.023569731  0.023475493           24 
 2855000   0.77840496   -7.0692732     809.1641  0.023618333  0.023468851           23 
 2856000   0.80097347    -7.100299    808.83183  0.023600368  0.023462253            7 
 2857000   0.78173341   -7.0383462    812.39564  0.023696057  0.023455695            6 
 2858000   0.81504145   -7.0868051    810.51112  0.023632818  0.023449139            6 
 2859000    0.7905996   -7.0765295    809.84748  0.023605208  0.023442566            6 
 2860000   0.80407122   -7.0835966     811.2955  0.023639146  0.023435988            6 
 2861000   0.78780049   -7.0791172    810.03072  0.023594044  0.023429425            5 
 2862000   0.80087481   -7.0927466    809.72004  0.023576754  0.023422822            7 
 2863000   0.80763603   -7.1066947    809.88605  0.023573351  0.023416165            5 
 2864000   0.77401945   -7.0634217     809.7388  0.023560836  0.023409515            5 
 2865000   0.77946745   -7.0971324    808.96127  0.023529996  0.023402888            8 
 2866000   0.79707351    -7.101808    808.51384  0.023508776  0.023396242            8 
 2867000   0.79094618   -7.0898039    809.81243  0.023538322  0.023389645            4 
 2868000   0.79207587   -7.1033613    809.53022  0.023521915  0.023383059            6 
 2869000   0.80316429    -7.096002    809.25278  0.023505657  0.023376469            7 
 2870000    0.8012344    -7.095161    809.93501  0.023517277  0.023369857            8 
 2871000   0.78496519   -7.1068671    809.19003  0.023487462  0.023363228            6 
 2872000   0.78350819   -7.0984249    809.46073  0.023487138  0.023356589            4 
 2873000   0.80475034    -7.106399     807.3142  0.023416701  0.023349925            5 
 2874000    0.8027559   -7.1095418    809.99983  0.023486425  0.023343256            9 
 2875000   0.79809138   -7.0613705    811.78413  0.023529975   0.02333659           10 
 2876000   0.77099421   -7.0864205    810.29053  0.023478516  0.023329929            4 
 2877000   0.79853071   -7.0958786    809.99629  0.023461832  0.023323278            9 
 2878000   0.80044038   -7.0877455     808.7296  0.023417003  0.023316623            5 
 2879000   0.79447238   -7.0988255    809.34408  0.023426655  0.023309962           10 
 2880000   0.79531541   -7.1078403     809.2663   0.02341627   0.02330327            5 
 2881000   0.76849139   -7.1012543    811.44748  0.023471233  0.023296629            4 
 2882000   0.79743279   -7.1056399     810.0283  0.023422054  0.023289967           10 
 2883000   0.80208277   -7.0804036    811.54636  0.023457809  0.023283334            6 
 2884000   0.78572157    -7.102671    811.84032  0.023458169  0.023276661            9 
 2885000   0.79654354   -7.1152329    809.78715  0.023390732  0.023270004           12 
 2886000   0.79314835   -7.0997465     811.2069  0.023423623  0.023263379            7 
 2887000   0.77248332   -7.1216744    810.11993  0.023384134  0.023256735            5 
 2888000   0.79571599   -7.1264274    809.67314  0.023363145  0.023250145            4 
 2889000   0.79519669   -7.0838121    810.27653  0.023372462  0.023243513            8 
 2890000   0.79694927   -7.1252411    811.75581   0.02340703  0.023236922           14 
 2891000   0.78589708   -7.1060173    810.60685  0.023365815  0.023230328            9 
 2892000   0.79710821   -7.1157709    813.68445  0.023446417  0.023223762            6 
 2893000   0.78389587   -7.1031345    813.08647  0.023421087  0.023217204            6 
 2894000   0.77668423   -7.0968125    812.83731   0.02340582  0.023210656            6 
 2895000   0.79844036   -7.0809212    814.56286  0.023447405  0.023204149            6 
 2896000   0.78538021   -7.0974497    811.40585  0.023348465  0.023197642            6 
 2897000   0.80592678   -7.0908144    810.56537  0.023316228  0.023191091            8 
 2898000   0.79931873   -7.1112991    812.45088  0.023362402  0.023184518            8 
 2899000   0.79519873   -7.0950954    813.85651  0.023394748  0.023178001            6 
 2900000   0.78683772   -7.1228705     814.1405  0.023394842  0.023171462            5 
 2901000   0.78824267   -7.1130343    813.28252  0.023362132   0.02316492           11 
 2902000   0.77762127    -7.082792    812.07882  0.023319516  0.023158352            6 
 2903000   0.78847237   -7.0762406    813.58909  0.023354837  0.023151832           16 
 2904000   0.78736208   -7.1226516    813.90619  0.023355894  0.023145282           11 
 2905000   0.79532697   -7.1335961    811.65081  0.023283156  0.023138758           11 
 2906000   0.79638209   -7.1206384    812.09109  0.023287769  0.023132204           11 
 2907000   0.78050401   -7.1412516    814.84527  0.023358711  0.023125639           10 
 2908000   0.80376496    -7.110255    813.33515  0.023307403  0.023119057           10 
 2909000   0.78091484   -7.0969617    813.90627  0.023315752  0.023112472            6 
 2910000    0.7826581   -7.1023988    813.06721  0.023283712  0.023105911            9 
 2911000   0.77178102   -7.1148159    812.10933  0.023248292  0.023099335            9 
 2912000    0.7762128   -7.1389761    812.18769  0.023242551  0.023092734           11 
 2913000   0.79162298   -7.1335924    811.46179  0.023213806  0.023086132           10 
 2914000   0.79629128   -7.1417145      812.456  0.023234271   0.02307954           14 
 2915000    0.7909416   -7.1167784      813.152  0.023246198   0.02307291           15 
 2916000   0.78892672   -7.1675091    811.48146  0.023190485  0.023066262           13 
 2917000   0.78783756   -7.1215405    811.46975  0.023182201   0.02305962            5 
 2918000   0.78102866     -7.10592    812.61107   0.02320685  0.023053024           15 
 2919000   0.79707741   -7.1331864    813.31231  0.023218919  0.023046431            8 
 2920000   0.79931435    -7.114621    815.04288  0.023260356   0.02303986            6 
 2921000   0.77442488   -7.0871606     812.2534  0.023172812  0.023033274           12 
 2922000   0.78830494   -7.0836488    813.49359  0.023200251  0.023026722           12 
 2923000   0.77364888   -7.0938521    814.32103  0.023215903  0.023020173            6 
 2924000   0.79168943   -7.0741275    815.47978  0.023240988  0.023013652           16 
 2925000    0.7871294   -7.0841193    815.20702  0.023225271  0.023007157            6 
 2926000    0.7738451   -7.0946485    813.12049  0.023157909  0.023000642            7 
 2927000   0.77981805   -7.0996737    812.42801  0.023130281  0.022994138           14 
 2928000    0.7967684    -7.101102    814.25198  0.023174294  0.022987647            8 
 2929000    0.7868044   -7.1093149    813.02089  0.023131356  0.022981107           12 
 2930000   0.78519095   -7.0889058    814.35116  0.023161296  0.022974598           19 
 2931000    0.7660089   -7.0872294    815.85107  0.023196039  0.022968086            3 
 2932000   0.76792774   -7.1229503    814.51151  0.023150054  0.022961517            8 
 2933000   0.79148491    -7.096639    815.93751  0.023182677  0.022954962            7 
 2934000   0.77233364   -7.1179341    816.37892  0.023187313  0.022948407            3 
 2935000   0.78518565   -7.1062558    813.22531  0.023089873  0.022941897            4 
 2936000   0.78773074   -7.1030602    814.64475  0.023122296  0.022935356            7 
 2937000   0.79889183   -7.1132588    814.74238  0.023117194   0.02292883            9 
 2938000   0.75432339   -7.0903759    815.79884  0.023139291  0.022922277            8 
 2939000   0.78468339   -7.1046344     815.7191  0.023129157  0.022915753            5 
 2940000   0.77834883   -7.0943859    815.11235  0.023104091  0.022909243            6 
 2941000   0.77755607   -7.0781339    815.05351  0.023094568   0.02290273           11 
 2942000   0.78625479   -7.1068675    817.21533  0.023147953  0.022896224            6 
 2943000   0.76987845   -7.1063352    814.90594  0.023074695  0.022889692           12 
 2944000   0.77441359   -7.1592076    814.67094  0.023060206  0.022883178           12 
 2945000   0.78545267   -7.1445702    814.97058  0.023060854  0.022876613           27 
 2946000    0.7908711   -7.1374322     814.3903  0.023036612  0.022870091            9 
 2947000   0.77278927   -7.1262631     817.2816  0.023110553  0.022863563            5 
 2948000   0.76957486   -7.1165162    816.21763  0.023072638  0.022857051            9 
 2949000   0.78879681   -7.1210368    815.97948  0.023058084  0.022850556           13 
 2950000   0.79836357   -7.1162285    817.66629  0.023097918  0.022844081            5 
 2951000   0.78203022   -7.1067993    816.20518   0.02304883  0.022837596            7 
 2952000   0.77400272   -7.1017384    814.95458  0.023005719  0.022831122           13 
 2953000   0.79608935   -7.1155801    815.23687  0.023005894   0.02282463           11 
 2954000      0.79722   -7.1484687    815.77026  0.023013153  0.022818129            7 
 2955000   0.78018285   -7.1220066    816.01136  0.023012165  0.022811636            5 
 2956000   0.78285499   -7.1216592    816.45015   0.02301675  0.022805133           11 
 2957000   0.77740642   -7.1516634     814.7557  0.022961214  0.022798612            7 
 2958000   0.77575009    -7.160405    815.60897   0.02297749  0.022792083           19 
 2959000   0.77792318   -7.1350823    816.75581  0.023002022  0.022785569           12 
 2960000   0.77789455    -7.148444    816.12761  0.022976566  0.022779087            6 
 2961000   0.77983368   -7.1195114    815.75003  0.022958179  0.022772598           10 
 2962000   0.78133685   -7.1341242    815.82158  0.022952441  0.022766079            7 
 2963000   0.76771278   -7.1090453    815.74872  0.022942646  0.022759592           12 
 2964000   0.79000603   -7.1490799    814.16858   0.02289048  0.022753061            6 
 2965000   0.75952277   -7.1292085    815.12209  0.022909559  0.022746476            8 
 2966000   0.77259419   -7.1394262    815.12901  0.022902029  0.022739891            7 
 2967000   0.78182258   -7.1418388    816.25624   0.02292597  0.022733345            6 
 2968000   0.76982108   -7.1233637      817.112  0.022942273  0.022726808            7 
 2969000   0.78654493   -7.1551792    815.98067  0.022902792  0.022720272            8 
 2970000   0.79955685   -7.1290996    815.72566  0.022887925  0.022713715           11 
 2971000   0.78864165   -7.1284163    817.76416  0.022937399   0.02270713            8 
 2972000   0.76943259   -7.1392605      814.665  0.022842783  0.022700567           14 
 2973000   0.75815622   -7.0954393    816.91599  0.022898195  0.022693987           16 
 2974000   0.77812883   -7.1306171    815.94643  0.022863328  0.022687466            7 
 2975000   0.77192171   -7.1523255     815.9232  0.022854992  0.022680912           23 
 2976000   0.79520903   -7.1590552    816.50033  0.022863473  0.022674345            9 
 2977000   0.75672921    -7.141873    816.80611  0.022864352   0.02266782           20 
 2978000   0.78656962   -7.1321998    816.76944  0.022855648  0.022661313            6 
 2979000   0.77224667   -7.1187528    817.48835  0.022868086  0.022654801           10 
 2980000    0.7697119   -7.1249276    815.82037  0.022813769  0.022648286            8 
 2981000   0.76328269   -7.1214017    818.48986  0.022880741  0.022641796           13 
 2982000    0.7760481   -7.1100242    816.86142   0.02282756  0.022635305           11 
 2983000    0.7721777   -7.1398911    815.97009  0.022795007  0.022628815           14 
 2984000   0.77908565   -7.1438458      815.896  0.022785299  0.022622312           11 
 2985000   0.77986142   -7.1269938    817.06135    0.0228102  0.022615816            8 
 2986000    0.7758925   -7.1444487    817.51642  0.022815261  0.022609267            6 
 2987000   0.79905823     -7.14802    816.91091  0.022790729  0.022602725            5 
 2988000   0.78584951   -7.1418659    815.49094    0.0227435  0.022596184           14 
 2989000   0.78228765   -7.1700438    816.87271  0.022774415  0.022589652            6 
 2990000   0.76778177    -7.136904    817.98991  0.022797935  0.022583126           13 
 2991000   0.78275742   -7.1241559    817.52233  0.022777286  0.022576606            8 
 2992000   0.76916673   -7.1287635    815.38126   0.02271004  0.022570086           20 
 2993000   0.75338187   -7.1209236     819.0024  0.022803274  0.022563556            5 
 2994000   0.76726824    -7.162058    817.30375  0.022748379   0.02255707           16 
 2995000   0.76293074    -7.158929    817.46453  0.022745257  0.022550606           17 
 2996000   0.77182607   -7.1325603    818.66391  0.022771026  0.022544102            7 
 2997000   0.76948581   -7.1712225    816.48835  0.022702935  0.022537592            7 
 2998000   0.75846458   -7.1423046     816.1232  0.022685212  0.022531085            7 
 2999000   0.77896223    -7.111077    817.02872   0.02270281  0.022524575           14 
 3000000   0.76370423   -7.1427244    818.43875   0.02273441  0.022518091            5 
 3001000   0.78317437    -7.123232    817.65635  0.022705108  0.022511585            6 
 3002000   0.78241401   -7.1013693    817.60039  0.022695991  0.022505082           10 
 3003000   0.75840862   -7.1549784    818.69031  0.022718679  0.022498587            6 
 3004000   0.78028725    -7.138665    816.21465  0.022642439  0.022492093            8 
 3005000    0.7859144   -7.1592919    816.73543  0.022649346  0.022485606            5 
 3006000   0.79122137   -7.1383514    817.79284  0.022671126  0.022479106           11 
 3007000   0.77395569   -7.1583371    819.02078  0.022697616  0.022472614            5 
 3008000   0.77212371   -7.1530558    816.92299  0.022631953  0.022466136           10 
 3009000    0.7815611   -7.1094302    818.06667  0.022656106  0.022459667            6 
 3010000   0.78551946   -7.1266397     817.8017  0.022641243  0.022453206            8 
 3011000   0.77544872   -7.1445514    817.91297  0.022636803  0.022446748           11 
 3012000   0.76703809   -7.1322627    820.35528  0.022696859  0.022440284           15 
 3013000   0.75767421   -7.1524329    819.68154  0.022670692  0.022433831            9 
 3014000   0.78900456   -7.1292031    820.16274  0.022676475   0.02242736           10 
 3015000   0.77522148   -7.1228627     820.3198  0.022673295  0.022420889           10 
 3016000   0.76967823   -7.1430423    819.60877  0.022646131  0.022414406            7 
 3017000    0.7689362   -7.1384074    819.71716  0.022641619  0.022407941            4 
 3018000   0.76003328   -7.1538141    818.08138  0.022588949  0.022401457           11 
 3019000   0.77972206   -7.1416436    816.82747  0.022546855  0.022394953           10 
 3020000   0.77090729   -7.1513927    819.33855   0.02260868  0.022388471            6 
 3021000   0.78626158   -7.1482264     820.4951  0.022633099  0.022381976            8 
 3022000    0.7511972   -7.1473202    818.50083  0.022570616  0.022375508           13 
 3023000   0.76685603     -7.17056      819.152    0.0225811  0.022368993            8 
 3024000   0.76879622   -7.1494793    817.11625  0.022517533  0.022362454           12 
 3025000    0.7762503   -7.1543209    817.11663    0.0225101  0.022355919           13 
 3026000   0.76044104   -7.1719121    818.28035  0.022534709  0.022349381            8 
 3027000   0.75437499   -7.1499896    818.39966  0.022530549  0.022342855           10 
 3028000    0.7683745   -7.1558731    819.05118  0.022541039  0.022336325           23 
 3029000   0.76520158   -7.1310231    819.20108  0.022537721  0.022329819            6 
 3030000   0.77124835    -7.140178    820.42997  0.022564081  0.022323352           13 
 3031000    0.7769873   -7.1537825    820.01337  0.022545182    0.0223169            9 
 3032000   0.76925495   -7.1424525    819.15854  0.022514252   0.02231042           14 
 3033000   0.76434067   -7.1347326    820.18294  0.022534975  0.022303935            7 
 3034000   0.77386334   -7.1617666    821.39811  0.022560924  0.022297451            4 
 3035000   0.76173882   -7.1445652    820.09727  0.022517772  0.022290971           11 
 3036000   0.76952833   -7.1255436    819.82365  0.022502845  0.022284522            4 
 3037000   0.75710025   -7.1807507    820.57924  0.022516168  0.022278059            8 
 3038000   0.77423965   -7.1687136    819.57006  0.022481075  0.022271575            7 
 3039000   0.75563095   -7.1431695    822.47065  0.022553215  0.022265106            7 
 3040000   0.75928965    -7.184668    819.83222  0.022473471  0.022258636            9 
 3041000   0.75769612   -7.1763104    819.92467  0.022468614  0.022252182            7 
 3042000    0.7657955   -7.1498989    819.99202  0.022463073  0.022245708            9 
 3043000    0.7550005   -7.1416167    820.22205  0.022461991  0.022239266            5 
 3044000   0.77140826   -7.1518632    819.98089  0.022448009  0.022232778            7 
 3045000   0.76767982    -7.153233    820.97449   0.02246783   0.02222631            6 
 3046000   0.73476243   -7.1669058    820.12241  0.022437142  0.022219836           17 
 3047000   0.75686915    -7.160811    819.11072  0.022402109   0.02221336           10 
 3048000   0.76809459   -7.1505065    820.21149  0.022424855  0.022206887           10 
 3049000   0.75538894   -7.1326108    820.62419   0.02242878  0.022200445            8 
 3050000   0.76549888   -7.1425213    820.63139  0.022421623  0.022194033            5 
 3051000   0.77674853   -7.1501564    822.10466  0.022454514  0.022187599            6 
 3052000   0.76051897   -7.1363308     823.4678  0.022484376   0.02218116            8 
 3053000   0.75845426   -7.1747165    821.03187  0.022410522  0.022174769            5 
 3054000   0.76591396   -7.1473842    821.97617   0.02242895  0.022168363            5 
 3055000   0.76778538   -7.1539297    819.93446  0.022365915   0.02216195           10 
 3056000   0.76368063   -7.1543389    821.35252  0.022397266  0.022155494           18 
 3057000   0.76235571   -7.1509671    818.10777  0.022301487  0.022149035           10 
 3058000    0.7718343   -7.1569243    818.54667  0.022306155  0.022142606           17 
 3059000   0.75724698   -7.1563125    820.86748  0.022362087  0.022136182           13 
 3060000   0.74774211   -7.1507211    821.77485  0.022379489  0.022129727           10 
 3061000   0.75705025    -7.153025    821.45637  0.022363508  0.022123262           13 
 3062000   0.77044846   -7.1884339    822.43819  0.022382925  0.022116786           10 
 3063000   0.76770539   -7.1894867    822.45081  0.022375961  0.022110349            9 
 3064000   0.74059094   -7.1477858    821.93503   0.02235463  0.022103961            5 
 3065000   0.75650132   -7.1935252    820.41526  0.022306016  0.022097554           11 
 3066000   0.76281224   -7.1686255    820.52382  0.022301691  0.022091118            4 
 3067000   0.75342592   -7.1754257    822.87764  0.022358375    0.0220847           36 
 3068000   0.75355715   -7.1743682    820.32132  0.022281652  0.022078241            7 
 3069000   0.75077742       -7.157    821.27548  0.022300301  0.022071778           15 
 3070000   0.76800635   -7.1774038    820.80157  0.022280173  0.022065355            8 
 3071000   0.76997053   -7.1986424    821.45125  0.022290547  0.022058923            6 
 3072000   0.74899045   -7.1723226     820.0141  0.022244306   0.02205248           10 
 3073000   0.76151679   -7.1813958    822.11403  0.022294013  0.022046065            7 
 3074000   0.76652111   -7.1664642    822.62568  0.022300631  0.022039655           10 
 3075000   0.75736858   -7.1938011    822.97465  0.022302836  0.022033257            7 
 3076000   0.76899969   -7.1682003    820.82051  0.022237227  0.022026838           10 
 3077000   0.73938142   -7.1804185    821.60026  0.022251117  0.022020425            9 
 3078000   0.75156564   -7.1805412    822.52923  0.022269039  0.022014027           11 
 3079000   0.75057647   -7.1541492    822.71852   0.02226693  0.022007661           17 
 3080000   0.77333166   -7.1861913    822.34218  0.022249518  0.022001269           11 
 3081000   0.75463293   -7.1892364    823.46335  0.022272621  0.021994861            5 
 3082000   0.76029768   -7.1780421    821.38694  0.022209251  0.021988453           25 
 3083000   0.75269713   -7.1656156    822.53808  0.022233162  0.021982029            5 
 3084000   0.74388992   -7.1652339    822.15794  0.022215682  0.021975627           12 
 3085000   0.75182984   -7.1587617    821.97309  0.022203487  0.021969228           16 
 3086000   0.76835207   -7.1877113    820.73608  0.022162888  0.021962851           10 
 3087000   0.75595818   -7.1729625    823.44952  0.022228958  0.021956486           10 
 3088000   0.76716745   -7.1554908    824.35859  0.022246292  0.021950139           10 
 3089000    0.7669834   -7.1635796    825.62051  0.022273133  0.021943787            9 
 3090000   0.76133003   -7.1460559    823.00339  0.022195345  0.021937434            5 
 3091000   0.74495492   -7.1635113     825.6648  0.022259916  0.021931096           11 
 3092000   0.76990131   -7.1511688    823.75602  0.022201273  0.021924738            6 
 3093000    0.7695415    -7.175768    824.68326  0.022219077  0.021918386            6 
 3094000   0.73670723   -7.1743241    824.55515  0.022208445  0.021912034           13 
 3095000   0.75654949    -7.157446    823.26794  0.022166611  0.021905676           12 
 3096000   0.75856359   -7.1962492    822.09682  0.022127929  0.021899317           16 
 3097000   0.76157016   -7.1740811    824.49946  0.022185434  0.021892951           13 
 3098000    0.7552481   -7.1659656    823.76273  0.022158455  0.021886577            5 
 3099000   0.75706984   -7.1905594    823.12267  0.022134093  0.021880236            8 
 3100000   0.76750298   -7.1667133    824.04813  0.022151831  0.021873877            9 
 3101000    0.7523918     -7.15268    824.05519  0.022144878  0.021867525            6 
 3102000   0.77103673   -7.1758989    822.69567  0.022101216  0.021861193           15 
 3103000   0.77319585   -7.1731436    824.74523  0.022149136  0.021854863            8 
 3104000   0.76767953   -7.1751742    823.01274  0.022095488  0.021848548            8 
 3105000   0.75793065   -7.1810329    823.59721  0.022104058  0.021842213           10 
 3106000   0.75104834   -7.1901878    825.09069  0.022137012  0.021835872            8 
 3107000   0.75611582   -7.2044971    822.24297  0.022053507  0.021829529           12 
 3108000   0.77627405   -7.1913417    822.81576   0.02206177  0.021823183            9 
 3109000   0.75689767   -7.1627299    826.34905  0.022149379  0.021816823           14 
 3110000   0.76507692   -7.1867631    824.65998  0.022096998  0.021810512            9 
 3111000   0.76590351   -7.1834564    823.38296  0.022055688  0.021804169           10 
 3112000   0.76113073   -7.1856802    823.42808  0.022049809  0.021797845            8 
 3113000   0.75467816    -7.170831    824.74236  0.022077909  0.021791527            8 
 3114000   0.74592312   -7.1837271    825.50353  0.022091188   0.02178522           19 
 3115000   0.72883082    -7.181986    826.40372  0.022108179  0.021778921           12 
 3116000   0.75051778   -7.2107535    825.56416  0.022078631  0.021772614           13 
 3117000   0.75988649   -7.1633071    825.06048  0.022058082  0.021766297           18 
 3118000   0.73309279   -7.1877757    824.21391  0.022028381      0.02176            7 
 3119000   0.75934281   -7.2063701    825.11951  0.022045514  0.021753717           14 
 3120000   0.75920999   -7.1732702     825.5252  0.022049284  0.021747435           16 
 3121000   0.74468727   -7.1829441    825.15723  0.022032394  0.021741187            6 
 3122000   0.74685875   -7.1774452    824.91999  0.022019005  0.021734909            4 
 3123000   0.76123077   -7.1652481    823.92507  0.021985406  0.021728648           11 
 3124000   0.74908033    -7.163387    826.09372  0.022036217  0.021722387            7 
 3125000    0.7631425   -7.1589276    825.52693  0.022014052   0.02171612            8 
 3126000   0.74203247   -7.1782435    827.35617  0.022055773  0.021709853            5 
 3127000    0.7545257   -7.1697052    826.85423  0.022035343  0.021703613           12 
 3128000   0.73933434   -7.2019275    825.47437  0.021991538  0.021697347            7 
 3129000   0.73507314   -7.1882993    825.18958  0.021976925  0.021691056            6 
 3130000   0.74948325   -7.1898247    824.56804  0.021953356  0.021684771            8 
 3131000    0.7507063   -7.1850719     826.5702  0.021999633  0.021678487            9 
 3132000   0.75232886   -7.2131274    825.50833  0.021964355  0.021672188            7 
 3133000   0.73476287   -7.2143392    826.88609  0.021993991  0.021665888           12 
 3134000   0.74752446   -7.1951159    825.84852  0.021959384  0.021659599           20 
 3135000   0.75536262   -7.1892167     825.6602  0.021947374  0.021653294           14 
 3136000    0.7604127    -7.158899    827.45631  0.021988103  0.021647022            6 
 3137000   0.75108439   -7.2029503    826.24485  0.021948912  0.021640786            9 
 3138000   0.75302232   -7.1909052    827.39588  0.021972484  0.021634543            5 
 3139000   0.76634192   -7.1688286    827.99098  0.021981283  0.021628296            6 
 3140000   0.77126104   -7.1886685    826.27427  0.021928723  0.021622053            7 
 3141000   0.72705385   -7.1903769    826.36665  0.021924192  0.021615795            5 
 3142000   0.75745027    -7.209907    826.80599  0.021928867  0.021609524            9 
 3143000    0.7532884    -7.192718    825.79992  0.021895215  0.021603248            9 
 3144000   0.75059738   -7.2136423    825.51942  0.021880816  0.021596987           27 
 3145000   0.73987919   -7.1946498    824.95067  0.021858788  0.021590732            7 
 3146000   0.74738415   -7.1922563    826.12929   0.02188306  0.021584505           11 
 3147000    0.7387334   -7.2091475    825.00154  0.021846243  0.021578286            5 
 3148000   0.72716434   -7.2137666    827.14946  0.021896163  0.021572028           18 
 3149000   0.74016221   -7.1976479    829.29677  0.021946035  0.021565799           13 
 3150000    0.7498514   -7.1917796    828.84363   0.02192708   0.02155959            8 
 3151000   0.74027489   -7.2044517    827.23322  0.021877532   0.02155338           15 
 3152000   0.75525199   -7.2211484    827.63316  0.021881164  0.021547147           32 
 3153000    0.7305645   -7.2116155    827.10359  0.021860228  0.021540887           11 
 3154000   0.75126212   -7.2053266     827.8075  0.021871895  0.021534679            4 
 3155000   0.74458718   -7.1958252    829.51447  0.021910049   0.02152851            6 
 3156000   0.75980918   -7.1920226    828.97828  0.021888949  0.021522334            7 
 3157000   0.75849914   -7.1833864    827.12144  0.021833002  0.021516131           10 
 3158000   0.73823661   -7.2114262    827.55035  0.021837406  0.021509947           25 
 3159000   0.75047718   -7.1552556    828.28982      0.02185  0.021503753           10 
 3160000   0.73873744   -7.2080375    826.96398  0.021808122  0.021497561           10 
 3161000    0.7390408   -7.1750199    826.86037  0.021798491  0.021491343           13 
 3162000    0.7572354    -7.201835    829.32427  0.021856533  0.021485108           18 
 3163000   0.75618586   -7.2076536    828.46798  0.021827062  0.021478879           16 
 3164000   0.74552699   -7.2061757    829.25031  0.021840769  0.021472657           43 
 3165000   0.74295797   -7.1860772    828.53077  0.021814923  0.021466461           34 
 3166000   0.76053666   -7.2004254    829.22945  0.021826423  0.021460259           15 
 3167000   0.73793797   -7.1819438    828.55684  0.021801832  0.021454076           12 
 3168000   0.75057483   -7.1921367     828.6349  0.021797004  0.021447901           21 
 3169000   0.74635319   -7.1963373    828.25333  0.021780092   0.02144171           15 
 3170000   0.74591451   -7.2076929    828.41788  0.021777547   0.02143554           10 
 3171000   0.71872259   -7.1937286     829.8053   0.02180714  0.021429365           13 
 3172000   0.76011113   -7.2054658    827.36469  0.021736147  0.021423165           11 
 3173000   0.76264151   -7.2013511    830.06011  0.021800087  0.021416971            6 
 3174000   0.73685258   -7.2052507    829.40681  0.021776066  0.021410767           15 
 3175000    0.7346765     -7.20657    826.45958  0.021691853  0.021404572           42 
 3176000   0.73903528   -7.1914655    828.94949  0.021750354  0.021398369           27 
 3177000   0.73647473    -7.184093    830.10842  0.021773907  0.021392206           20 
 3178000   0.74083828   -7.1945999    829.64511  0.021754906  0.021386016            9 
 3179000   0.74242243   -7.1967965    828.21548  0.021710587  0.021379846           11 
 3180000   0.74587172   -7.2151332    827.70931  0.021690496  0.021373651            9 
 3181000   0.75404112   -7.1913026    829.91331  0.021741415   0.02136746           18 
 3182000   0.74143037   -7.1996064    829.42772  0.021721866  0.021361271            6 
 3183000   0.74186106   -7.2069754    827.85091  0.021673759  0.021355082           18 
 3184000   0.73782692   -7.2109027    827.78383  0.021665197  0.021348897           14 
 3185000   0.75274402   -7.2087282    829.51263  0.021703627  0.021342683           21 
 3186000   0.77970668    -7.233406     827.2939  0.021638782  0.021336495           22 
 3187000   0.73191815   -7.2163764    827.43064  0.021635567  0.021330274           15 
 3188000   0.73489443   -7.2175641    829.45263  0.021681635  0.021324048           22 
 3189000   0.75259849   -7.2194257    827.28021  0.021618068  0.021317831           20 
 3190000   0.74984496   -7.2402273     828.1098  0.021632962  0.021311613           12 
 3191000   0.73700367   -7.2279869    828.42824  0.021634499   0.02130538           10 
 3192000   0.74614577   -7.2064941    828.99334  0.021642474  0.021299149           12 
 3193000   0.72554166   -7.2280998    828.58971  0.021625162  0.021292946           15 
 3194000   0.72519766   -7.2057799    829.50994  0.021642401  0.021286764           14 
 3195000   0.74336268   -7.2298576    829.37137  0.021632013  0.021280576            6 
 3196000   0.72615135   -7.1759767    832.21707  0.021699444  0.021274402            8 
 3197000   0.75266711   -7.2278286    829.46929  0.021621033  0.021268223           14 
 3198000   0.73499839   -7.2090545    830.15773  0.021632211  0.021262026            5 
 3199000   0.73392416   -7.1870393    830.39648  0.021631668  0.021255829            6 
 3200000   0.72216755   -7.1932658    829.46984  0.021600777  0.021249643           11 
 3201000   0.73818247   -7.2260288    829.40761  0.021592409  0.021243441           14 
 3202000   0.71515423   -7.2196413    827.55897  0.021537554  0.021237227            5 
 3203000   0.73648215   -7.2193944    827.35405  0.021525498  0.021231017           11 
 3204000   0.74123413   -7.2236897    827.65319   0.02152656  0.021224802           13 
 3205000   0.73810709   -7.2328993    827.88204  0.021525794  0.021218587           17 
 3206000   0.72420211   -7.2577242    828.23482   0.02152825   0.02121236           18 
 3207000   0.74400931   -7.2046059    829.79769  0.021562148  0.021206151            6 
 3208000    0.7419195    -7.203729    828.58482   0.02152392  0.021199972            9 
 3209000   0.76079921    -7.190383    830.04235  0.021555063  0.021193806            9 
 3210000   0.73597056   -7.2080616    828.71154  0.021513799   0.02118765            7 
 3211000   0.74727479   -7.2199634    829.34058  0.021523424  0.021181453           12 
 3212000   0.73269508   -7.2256064    828.96019  0.021506854  0.021175249            8 
 3213000   0.75467767   -7.1834571     830.4286  0.021538246  0.021169076           14 
 3214000   0.74107146   -7.1921418    830.35081  0.021529527  0.021162913            7 
 3215000   0.72592154   -7.2082847    829.68974  0.021505696  0.021156755           10 
 3216000   0.72717852   -7.1958559    829.18982  0.021486055  0.021150583            8 
 3217000   0.72988018   -7.2091242    830.13102  0.021503757  0.021144411            7 
 3218000   0.73154046   -7.2341146    828.75548  0.021461453   0.02113823            5 
 3219000   0.74536236   -7.2316231    828.51636  0.021448596  0.021132027           13 
 3220000   0.75504794   -7.2182654    830.46412  0.021492343  0.021125831            8 
 3221000   0.72490472   -7.1835306    829.33607  0.021456485  0.021119626            8 
 3222000   0.73411874   -7.2406086    829.32522  0.021449545  0.021113426            9 
 3223000   0.74668674   -7.1879414    830.59457   0.02147571  0.021107219            7 
 3224000   0.74520386   -7.2416451    828.78841  0.021422364  0.021101029            5 
 3225000   0.74749233   -7.2350146    828.01324  0.021395691   0.02109481            9 
 3226000   0.74595515   -7.2348279     830.3849  0.021450323  0.021088598           10 
 3227000   0.72199123   -7.2377276    830.82741  0.021455103  0.021082387            8 
 3228000   0.73789803   -7.2169031    829.04133  0.021402347  0.021076184            6 
 3229000   0.73508168   -7.2333367    830.56614  0.021435071  0.021069979            6 
 3230000   0.74535791   -7.2356804    828.08974  0.021364544  0.021063779            8 
 3231000   0.73994233   -7.2199143    829.59659  0.021396796  0.021057584           10 
 3232000   0.72398262   -7.2347486    827.68165  0.021340802  0.021051359            8 
 3233000   0.73499763   -7.2087656    830.09836  0.021396493  0.021045164            9 
 3234000     0.739852   -7.2112465    830.72122  0.021405927  0.021038978            9 
 3235000   0.74005909   -7.2011728    829.25235  0.021361472  0.021032815            6 
 3236000   0.71751589     -7.21596    828.55519  0.021336918  0.021026634           10 
 3237000   0.73993824   -7.2067235     830.6145  0.021383341  0.021020446            3 
 3238000   0.72720111   -7.2167272    829.14173  0.021338834   0.02101427           18 
 3239000   0.73894351   -7.2069081     830.5873  0.021369437   0.02100811           10 
 3240000   0.71927746   -7.2379221    830.79869  0.021368279  0.021001917           12 
 3241000   0.73391185   -7.2105425     828.7106  0.021307997   0.02099575            7 
 3242000   0.72993651   -7.2479499    830.14459  0.021338284  0.020989606            7 
 3243000   0.72776574   -7.1834133    830.88602  0.021350756  0.020983454            6 
 3244000   0.72546102   -7.2100528    830.96257  0.021346141  0.020977299            4 
 3245000   0.73110912   -7.2245132    830.50067  0.021327701  0.020971137            6 
 3246000    0.7266327   -7.2183323    829.19141  0.021287518  0.020964939            9 
 3247000   0.74024485   -7.2300558    832.33235  0.021361573  0.020958771           29 
 3248000    0.7398755   -7.2338604    831.17688  0.021325351  0.020952598           12 
 3249000    0.7511012     -7.23282     829.9154  0.021286432  0.020946445           10 
 3250000   0.73162269   -7.2632354    830.34675  0.021290942   0.02094029            8 
 3251000    0.7348496   -7.2227584     833.0874  0.021354645  0.020934121           12 
 3252000   0.73558975   -7.2042862    831.62911  0.021310709  0.020928001            5 
 3253000   0.72500004   -7.2453327    830.93122   0.02128628  0.020921873           10 
 3254000   0.70600485   -7.2026092    831.33586  0.021290101  0.020915737           11 
 3255000   0.72097295   -7.2396208    829.62953  0.021239875   0.02090959            5 
 3256000   0.73320898   -7.2261608    830.68202  0.021260289  0.020903414            8 
 3257000   0.72392125   -7.2080435    830.92973    0.0212601  0.020897261           18 
 3258000   0.73004468   -7.2447537    831.24572  0.021261657  0.020891094           15 
 3259000   0.74147129   -7.2356183    828.27762  0.021179237  0.020884928           11 
 3260000   0.73373069   -7.2132703    830.16651  0.021221025  0.020878731           35 
 3261000   0.72607939   -7.2282836    830.07696  0.021212229   0.02087255            7 
 3262000   0.74042187    -7.220632    829.77496  0.021198011  0.020866365           14 
 3263000   0.73326374   -7.2405793    831.07821  0.021224799  0.020860181           15 
 3264000   0.73640529   -7.2362908    828.81812  0.021160593  0.020853995           12 
 3265000   0.72091466   -7.2148743      830.818  0.021205156  0.020847809           38 
 3266000   0.73542625   -7.2439346    829.74309  0.021171236   0.02084165           10 
 3267000   0.71941496   -7.2443905     833.3485  0.021256721  0.020835513           13 
 3268000   0.72598687   -7.2283919     831.6061  0.021205786  0.020829385           10 
 3269000   0.73647553    -7.230026    829.96562   0.02115748  0.020823259           29 
 3270000   0.74777269   -7.2377922    829.66116  0.021143251  0.020817115            9 
 3271000   0.73958602   -7.2388367    831.73772   0.02118969  0.020810974           12 
 3272000   0.72866317   -7.2381209    833.97007  0.021240069  0.020804847           15 
 3273000   0.73227396   -7.2312936    832.35325  0.021192414  0.020798726            7 
 3274000   0.73111367   -7.2360148     832.3821  0.021186675  0.020792603           21 
 3275000   0.73084585   -7.2687847    830.66275  0.021136457  0.020786472            9 
 3276000   0.72721082   -7.2073211    832.54526  0.021177891  0.020780368           16 
 3277000   0.70020722   -7.2470566    830.31843  0.021114801  0.020774253           16 
 3278000   0.71987631   -7.2544101      832.685  0.021168522  0.020768154           19 
 3279000   0.71610962   -7.2465516    832.08086  0.021146713  0.020762062           13 
 3280000   0.72980093   -7.2471655    832.10864  0.021140971  0.020755999           31 
 3281000   0.71933555   -7.2210488    832.10238  0.021134369  0.020749898           16 
 3282000   0.73731917   -7.2309568    832.13549   0.02112877  0.020743806           14 
 3283000   0.72170033   -7.2422014    831.99509  0.021118771  0.020737722           25 
 3284000   0.73049809   -7.1986347    831.04623  0.021088262  0.020731645           31 
 3285000   0.73674341   -7.2521874    834.28454  0.021163991  0.020725567           16 
 3286000   0.72594562   -7.2506011    830.88777  0.021071408  0.020719484           16 
 3287000   0.73272558    -7.205278    833.65937  0.021135264  0.020713397           14 
 3288000   0.71758423   -7.2540364    831.75915  0.021080676   0.02070731           24 
 3289000   0.73954058   -7.2557958     833.1478  0.021109451  0.020701214           18 
 3290000   0.73282165    -7.259578    831.70733  0.021066548  0.020695124           16 
 3291000   0.70776875   -7.2522252    834.13093  0.021121517  0.020689027           13 
 3292000   0.70908012   -7.2453628    833.51022  0.021099388  0.020682947           11 
 3293000   0.72387415   -7.2585732    833.60726  0.021095436  0.020676866           20 
 3294000    0.7069371   -7.2458187    832.37079  0.021057751  0.020670795           16 
 3295000   0.74606099   -7.2472804    832.91592  0.021065147  0.020664716           15 
 3296000   0.74090094   -7.2735703    832.55131  0.021049538  0.020658654           14 
 3297000   0.72211142   -7.2774762    831.49844  0.021016541  0.020652603           17 
 3298000   0.69161833   -7.2729277    831.67384  0.021014601  0.020646523            6 
 3299000   0.70978947   -7.2833528    833.46432  0.021053459  0.020640437           17 
 3300000   0.72337563   -7.2617755    834.15174  0.021064438  0.020634353            6 
 3301000   0.73364826   -7.2740838    833.77553  0.021048559  0.020628257           14 
 3302000   0.72375252   -7.2701394    835.13971  0.021076613  0.020622161           17 
 3303000   0.71490676    -7.267908    830.88336  0.020962846   0.02061608           11 
 3304000   0.72877252   -7.2737336    832.18042  0.020989216  0.020609968           26 
 3305000   0.71782516   -7.2655938     831.2275  0.020958838  0.020603855           23 
 3306000   0.74345473   -7.2716432    833.41383  0.021007608   0.02059776           13 
 3307000   0.73154621   -7.2797984    832.80501  0.020985914  0.020591638           18 
 3308000   0.72429464   -7.2526554    831.62314  0.020949797  0.020585525            6 
 3309000   0.73809482   -7.2681531    832.18973  0.020957735  0.020579436           20 
 3310000   0.70546414   -7.2667779    834.33924   0.02100552  0.020573358           14 
 3311000    0.7153688   -7.2690779    833.68376  0.020982678   0.02056729           14 
 3312000   0.71947163   -7.2704017    832.54883  0.020947787  0.020561241           24 
 3313000   0.72640734   -7.2375055    832.12011   0.02093068  0.020555192           15 
 3314000   0.71574707    -7.257037    833.92024   0.02096963  0.020549172           11 
 3315000   0.72700456   -7.2513546     834.3083  0.020973059  0.020543138           25 
 3316000    0.7149317   -7.2394454    834.37133  0.020968318  0.020537091           18 
 3317000    0.7156367   -7.2690449     833.6872   0.02094481  0.020531068           25 
 3318000   0.72436601   -7.2668979    834.50721  0.020959092   0.02052502           21 
 3319000   0.72632415   -7.2542106    831.92222  0.020887873  0.020518973            8 
 3320000   0.72781835   -7.2502493    835.31775  0.020966811  0.020512925           24 
 3321000   0.73155905   -7.2765688    834.17506  0.020931824  0.020506886            7 
 3322000   0.70538627   -7.2473134    833.17072  0.020900329   0.02050086           15 
 3323000   0.70916338   -7.2326992    834.95773  0.020938854  0.020494833           13 
 3324000   0.72004205   -7.2614031    835.23476    0.0209395  0.020488819           23 
 3325000    0.7102196   -7.2882684    833.39191  0.020887015  0.020482814           16 
 3326000   0.74145316    -7.259998    834.84435  0.020917127  0.020476781           22 
 3327000   0.71485635   -7.2418324    834.89628   0.02091214  0.020470781           12 
 3328000   0.71376193   -7.2255546    834.78546  0.020903081  0.020464775           10 
 3329000   0.70671742   -7.2446757    835.09165  0.020904467   0.02045877           16 
 3330000   0.72348768   -7.2446198    833.99945  0.020870857  0.020452758           20 
 3331000    0.7200007   -7.2498061    834.96972  0.020888865  0.020446725           13 
 3332000   0.73281194   -7.2497695    833.32653    0.0208415  0.020440705           21 
 3333000   0.71940821   -7.2449454    833.40988  0.020837331  0.020434687           26 
 3334000   0.72623378     -7.25492    834.43994  0.020856827   0.02042868           11 
 3335000   0.71686467   -7.2715735    834.01612  0.020839983  0.020422667           11 
 3336000   0.70274684   -7.2595836    834.46129  0.020844856  0.020416671           13 
 3337000   0.70331748   -7.2525651    835.49374  0.020864393  0.020410681           17 
 3338000   0.70607927   -7.2610668    834.48582  0.020832979  0.020404682            5 
 3339000   0.72073848   -7.2600363    833.97794  0.020814065   0.02039869           18 
 3340000    0.7187393    -7.255528    834.74952  0.020827084  0.020392675           11 
 3341000   0.70232194   -7.2697898    834.35085  0.020810906  0.020386672            9 
 3342000    0.7185682   -7.2597851    835.75724  0.020839748  0.020380669           18 
 3343000    0.7134235   -7.2446729    835.84659  0.020835741   0.02037468           20 
 3344000   0.70304078   -7.2462859    834.24868   0.02078969  0.020368684           16 
 3345000   0.72029985   -7.2571223    833.29398  0.020759691  0.020362699           17 
 3346000   0.71422204   -7.2453542    835.41423  0.020806292  0.020356715           10 
 3347000   0.72187934   -7.2461181    834.27886  0.020771807  0.020350738           20 
 3348000    0.7262796   -7.2877233    833.56305  0.020747786  0.020344748           10 
 3349000   0.71564028   -7.2557526    835.60225  0.020792332  0.020338737           10 
 3350000   0.71711724   -7.2770744    834.02155  0.020746805  0.020332742           25 
 3351000   0.70675483   -7.2726857    834.74436  0.020758589  0.020326738           18 
 3352000   0.71540095   -7.2673356    834.38676  0.020743505  0.020320738           11 
 3353000    0.7250704   -7.2825432    835.33939  0.020760995  0.020314747           17 
 3354000   0.72402424   -7.2847245    835.25484  0.020752704  0.020308739           21 
 3355000   0.71365415   -7.2869376    833.61341  0.020705748  0.020302716           19 
 3356000   0.72620984   -7.2641131    834.30708  0.020716803  0.020296701           19 
 3357000    0.7118749   -7.2731511    834.73702  0.020721304  0.020290689            9 
 3358000    0.7246383   -7.2715974    833.74604  0.020690541  0.020284678           25 
 3359000   0.70929156   -7.2724803    834.12853   0.02069387  0.020278653           30 
 3360000   0.71401496   -7.2755743    834.89598  0.020706745  0.020272662           17 
 3361000    0.7248297   -7.2592025    835.39334  0.020712916  0.020266681           14 
 3362000   0.71522305    -7.240935    836.02497  0.020722411  0.020260696           33 
 3363000   0.70843754   -7.2787912    833.00202  0.020641342  0.020254722           36 
 3364000   0.70910016   -7.2390504    834.62529  0.020675418  0.020248752           13 
 3365000    0.7144824   -7.2678868     835.7142  0.020696241  0.020242796           19 
 3366000   0.70775056   -7.2492071     835.8883  0.020694402  0.020236837           26 
 3367000   0.70740969   -7.2589158    834.18368  0.020646067  0.020230881           21 
 3368000   0.71750423   -7.2610423    836.44455  0.020695877  0.020224911           25 
 3369000   0.69358543   -7.2859625    834.10806   0.02063194  0.020218946           29 
 3370000   0.70191228   -7.2831135    835.70292  0.020665255   0.02021298           33 
 3371000   0.70935887    -7.267695    836.67118  0.020683061  0.020207009           13 
 3372000   0.71758867   -7.2705548    835.46966  0.020647234  0.020201083           14 
 3373000   0.71960642   -7.2712631    835.24706  0.020635613  0.020195131           20 
 3374000   0.70065548   -7.2732421    835.97047  0.020647364  0.020189178           22 
 3375000   0.72217329   -7.2782922    837.10198  0.020669185  0.020183233           13 
 3376000   0.73196525   -7.2602627    837.40333  0.020670501  0.020177317           15 
 3377000   0.71286882   -7.2667036    836.27655  0.020636575  0.020171424           15 
 3378000   0.71528151   -7.2648405    838.26629  0.020679551   0.02016549            8 
 3379000   0.72533785   -7.2991611     836.6923  0.020634613  0.020159558           16 
 3380000   0.69886606   -7.2782681    836.52761  0.020624448  0.020153637           28 
 3381000   0.70847529   -7.2936653    838.01956  0.020655121  0.020147723           28 
 3382000   0.70497445   -7.2729072    837.44174  0.020634776  0.020141814           18 
 3383000   0.71570775   -7.2824746    837.13095   0.02062102  0.020135881           13 
 3384000   0.71720337   -7.2447896     836.0248  0.020587687   0.02012998           11 
 3385000   0.72348563   -7.2602817    837.28619  0.020612659  0.020124091            7 
 3386000   0.72305867   -7.2811323    837.28319  0.020606497  0.020118187           21 
 3387000   0.71042023   -7.2768201    838.10098  0.020620534  0.020112283           15 
 3388000   0.70122426   -7.2858923    836.71869  0.020580448  0.020106379           21 
 3389000   0.72503337   -7.2841796    836.13027  0.020559906  0.020100449           20 
 3390000   0.71967757   -7.2960931    836.56126  0.020564436  0.020094536            9 
 3391000   0.71296958   -7.2957301    837.14759  0.020572781  0.020088658           14 
 3392000   0.72092687   -7.2515714    839.53533  0.020625377   0.02008278           15 
 3393000   0.70456024   -7.3087704    838.05015  0.020582821  0.020076903           18 
 3394000   0.69860592   -7.2771887    836.86511   0.02054766  0.020070995           12 
 3395000   0.71703061   -7.2704901    837.20084  0.020549849  0.020065086           11 
 3396000    0.7122906   -7.2601026    837.05417  0.020540199  0.020059177           16 
 3397000   0.70502794   -7.2772478    837.14985  0.020536499  0.020053271           14 
 3398000   0.70931861   -7.2657156    838.51827  0.020564015  0.020047367           10 
 3399000   0.69780309   -7.2706299    837.10265  0.020523258   0.02004148           12 
 3400000   0.69678337   -7.2909677    836.34382  0.020498623  0.020035565            7 
 3401000   0.71196694   -7.2620302     837.5331  0.020521736  0.020029669            8 
 3402000   0.70476072   -7.2839113    836.60902  0.020493068  0.020023761           19 
 3403000   0.70361195   -7.2626951    836.94609    0.0204953  0.020017878           16 
 3404000   0.69900031   -7.2983519    838.50046  0.020527332  0.020011988            9 
 3405000   0.70476805   -7.2818773    837.47624  0.020496237  0.020006108           19 
 3406000   0.70953168   -7.2532082    838.56668  0.020516899  0.020000231           12 
 3407000   0.70112895   -7.2516124    837.97562   0.02049642  0.019994345           12 
 3408000   0.69862841   -7.2823592     837.3428  0.020474932  0.019988442           12 
 3409000   0.70346381   -7.2915268    837.36582  0.020469488  0.019982549           21 
 3410000   0.70704928   -7.2895086    838.46927  0.020490451   0.01997665           16 
 3411000     0.721616   -7.2861852    837.55272  0.020462052  0.019970755           18 
 3412000   0.72322154   -7.3086705    838.78349  0.020486115  0.019964866           25 
 3413000   0.71125449   -7.2871174    839.33495  0.020493577  0.019958965           11 
 3414000   0.72392967   -7.2931977    838.05672  0.020456374  0.019953085           18 
 3415000   0.69718653   -7.2841185    838.67216  0.020465402  0.019947233           15 
 3416000   0.70119477   -7.2849989    839.51305  0.020479924  0.019941394           10 
 3417000    0.6999921   -7.2749539    838.11657  0.020439874  0.019935569           14 
 3418000   0.71586469    -7.263157    837.71395  0.020424077  0.019929739           18 
 3419000   0.71922893   -7.2567377     837.6149  0.020415689  0.019923908           19 
 3420000    0.7070066   -7.3176344    837.93981  0.020417637  0.019918073           12 
 3421000    0.7050149   -7.2881947    840.75416  0.020480224  0.019912245            9 
 3422000   0.71660678   -7.3054876    838.72747  0.020424885  0.019906397           10 
 3423000   0.69600086   -7.3005391    838.61379   0.02041615  0.019900521           19 
 3424000   0.69608964   -7.2738748    837.75378  0.020389257  0.019894655           30 
 3425000   0.69950191   -7.2840198    839.57043  0.020427504   0.01988882           29 
 3426000   0.70787739   -7.2926398    839.57345  0.020421615  0.019882976           29 
 3427000   0.70214025   -7.2909164    839.08585    0.0204038  0.019877157           17 
 3428000   0.71225055   -7.2698262    838.88938  0.020393071  0.019871342           19 
 3429000   0.69346438   -7.2596432    837.14372    0.0203447  0.019865504           19 
 3430000   0.71325065   -7.2793857    838.24512  0.020365528  0.019859679           12 
 3431000   0.69936059   -7.2985482    838.69608  0.020370545  0.019853867           14 
 3432000   0.70927223   -7.2894337     837.5839  0.020337604  0.019848062           11 
 3433000   0.70102203   -7.2693923    840.01762  0.020390757  0.019842246           18 
 3434000   0.70501793   -7.3006257    839.26312  0.020366509  0.019836394           15 
 3435000   0.69817001   -7.2927133    837.37958  0.020314886   0.01983055           12 
 3436000     0.702113   -7.2979965    838.86304  0.020344951  0.019824724           24 
 3437000   0.70111977   -7.2904666    838.22395  0.020323537  0.019818889           12 
 3438000   0.69653345   -7.2853524    836.49727  0.020275772  0.019813056            9 
 3439000   0.70460227   -7.2717272     839.4536  0.020341514  0.019807221            8 
 3440000   0.70629419   -7.2907236    838.16898  0.020304481  0.019801409            9 
 3441000   0.71218683   -7.2887605    839.08122  0.020320673  0.019795581           19 
 3442000    0.7013439   -7.3023653    838.93666  0.020311269  0.019789771           23 
 3443000   0.70121725   -7.2764352    839.53126  0.020319761  0.019783973           13 
 3444000   0.68952728     -7.29052    840.36012  0.020333917  0.019778169            7 
 3445000   0.68596322   -7.3068507    838.36486   0.02027975  0.019772365            6 
 3446000    0.7157456   -7.2688773     837.6956   0.02025768  0.019766561            6 
 3447000   0.70262418   -7.2882219     839.1104  0.020286007  0.019760767            9 
 3448000   0.70238991   -7.2572783    839.32174  0.020285232  0.019754972            5 
 3449000   0.69822896   -7.3013719    838.60316  0.020261988  0.019749165           10 
 3450000   0.70798479   -7.2603607    840.22292   0.02029524  0.019743345           23 
 3451000   0.70834461   -7.3049039    839.46075  0.020270954  0.019737538            7 
 3452000   0.69801143   -7.2708728    840.20388  0.020283022   0.01973173            9 
 3453000    0.7031574   -7.2569098    838.99845  0.020248056  0.019725931           10 
 3454000   0.68405999   -7.2772665    838.81456  0.020237757  0.019720133            8 
 3455000   0.69671777   -7.2938243     838.3279  0.020220162  0.019714316           12 
 3456000   0.68843019     -7.28352    839.31025  0.020237998  0.019708518           10 
 3457000   0.70241812   -7.2937141    838.74634   0.02021855  0.019702706           20 
 3458000   0.68993069   -7.3128714    838.21538  0.020199908  0.019696884            7 
 3459000   0.70709838   -7.3034453    839.99137  0.020236855  0.019691063           12 
 3460000   0.68630354    -7.274204    838.40412  0.020192778  0.019685236           10 
 3461000   0.68068972   -7.3154786    839.50838  0.020213531  0.019679412           10 
 3462000   0.69282464   -7.3136928    840.58717   0.02023366  0.019673595           30 
 3463000   0.68577331   -7.3121702    837.78853  0.020160471  0.019667766           15 
 3464000   0.70283681   -7.2841303    837.44048  0.020146278  0.019661926           15 
 3465000   0.70919227   -7.3126425    838.60674  0.020168512  0.019656088           15 
 3466000   0.69638154    -7.300547    837.64427  0.020139553  0.019650259           17 
 3467000   0.70978233   -7.3300545    838.14362  0.020145746  0.019644411           18 
 3468000    0.6983007   -7.3151437    837.84126  0.020132672  0.019638557           12 
 3469000   0.69578583   -7.3189169    837.57026  0.020120358  0.019632718           15 
 3470000   0.70571259   -7.2785374    838.10981  0.020127517  0.019626885           12 
 3471000   0.70171394   -7.3262179    838.34743  0.020127423  0.019621046           13 
 3472000   0.70824945   -7.3039276    839.21302  0.020142402   0.01961522           14 
 3473000   0.69664252   -7.3279223    837.55973  0.020096932  0.019609373           10 
 3474000   0.70309864   -7.3305153    837.07592  0.020079541  0.019603535            5 
 3475000   0.70549619   -7.3020241    839.06707  0.020121512  0.019597701           11 
 3476000   0.70163722   -7.3163312    838.48532  0.020101777  0.019591883           21 
 3477000   0.69103985    -7.314924    837.22695  0.020065836  0.019586041           20 
 3478000   0.69520593   -7.2883071    838.87383  0.020099526  0.019580205            8 
 3479000    0.7067183   -7.3244716    838.75966  0.020091014   0.01957436           17 
 3480000   0.68039853    -7.298539    840.90593  0.020136636  0.019568519           14 
 3481000   0.68287181   -7.3080652    838.74678  0.020079163  0.019562689           36 
 3482000   0.69657194    -7.318865    839.68372   0.02009582  0.019556869           24 
 3483000   0.71082554    -7.319028    839.50376  0.020085744  0.019551055           10 
 3484000   0.67126052   -7.3286748    837.92667  0.020042257  0.019545231           11 
 3485000   0.69692295   -7.3241709    838.54749  0.020051351  0.019539402           33 
 3486000   0.70591945   -7.3097661      837.639  0.020023881   0.01953358           17 
 3487000    0.6796785   -7.3145306    840.66311   0.02009041  0.019527765           19 
 3488000   0.68635482   -7.2826049    837.73341  0.020014655  0.019521961           20 
 3489000   0.69185184   -7.3053215    839.76559  0.020057456  0.019516152           35 
 3490000   0.68591774   -7.3128115    841.17419  0.020085344  0.019510354           12 
 3491000   0.71037654   -7.3139512    839.47903  0.020039125  0.019504542           13 
 3492000   0.68679036   -7.3318188    839.73889  0.020039588  0.019498723           15 
 3493000   0.68611423   -7.3142483    840.71154  0.020057056  0.019492922            9 
 3494000   0.68628326   -7.3219084     838.7897  0.020005478   0.01948713            8 
 3495000   0.69200259   -7.3130781    839.88554  0.020025883  0.019481323           12 
 3496000   0.69401738   -7.3233425    839.72572  0.020016345  0.019475544           16 
 3497000   0.69603811   -7.2829767    840.71773  0.020034261  0.019469755           12 
 3498000   0.69573815   -7.3165899    840.76474  0.020029654  0.019463966           24 
 3499000   0.69919728   -7.2812987    838.43212  0.019968375  0.019458188           24 
 3500000   0.69686202   -7.2971894    841.25689  0.020029926  0.019452415           17 
 3501000   0.70934574   -7.3104144    839.04653  0.019971592  0.019446632           33 
 3502000   0.68509984   -7.3228187    838.35245  0.019949373   0.01944084           12 
 3503000   0.68334984   -7.3084853    837.98386   0.01993491  0.019435041           17 
 3504000   0.69234786   -7.3212277    839.02958   0.01995409   0.01942925           10 
 3505000   0.68359351   -7.3346238    838.48444  0.019935436  0.019423439           19 
 3506000    0.6800443   -7.3301048    840.40239  0.019975337  0.019417617           15 
 3507000   0.69676862    -7.340083    840.32037  0.019967693  0.019411791           18 
 3508000   0.68947879   -7.3321046    838.70333  0.019923587  0.019405969           19 
 3509000   0.67954924   -7.3345292    838.90774  0.019922764  0.019400139           19 
 3510000   0.70581065   -7.3218466    837.88319  0.019892763  0.019394326           14 
 3511000   0.69254981   -7.3358656    837.27369  0.019872631   0.01938852            9 
 3512000   0.68389486   -7.3431769    839.35324  0.019916317  0.019382711           12 
 3513000   0.67492603   -7.3165394    837.07001  0.019856486  0.019376902           10 
 3514000   0.68363415   -7.3685048    837.34821  0.019857432  0.019371091            9 
 3515000   0.69318132   -7.3200661    840.31022  0.019922006  0.019365294           14 
 3516000   0.69316667   -7.3362341    840.22386  0.019914293  0.019359507           12 
 3517000   0.68768697   -7.3225498    839.02238  0.019880162  0.019353732           10 
 3518000    0.6762859   -7.3046595    839.62268  0.019888731  0.019347939           26 
 3519000   0.69503679   -7.3114193    841.32682  0.019923435  0.019342168            6 
 3520000   0.69559857   -7.2970484    839.68964  0.019879016  0.019336406           10 
 3521000   0.69031083   -7.3126167    839.88312  0.019877949  0.019330628           11 
 3522000   0.68246387    -7.322338    839.73186  0.019868727   0.01932486            9 
 3523000   0.70203539   -7.3115484    840.18274  0.019873752  0.019319109           13 
 3524000   0.68247019   -7.3022106    839.39413  0.019849464  0.019313356           15 
 3525000   0.69206512   -7.3214096    839.47151  0.019845662  0.019307588           22 
 3526000   0.69393899   -7.2962846    839.35631  0.019837311  0.019301834           37 
 3527000    0.6964779   -7.3339289    840.66771  0.019862672  0.019296075           29 
 3528000   0.67004456   -7.3518658    839.52354  0.019830016  0.019290297           25 
 3529000   0.68596084   -7.3180868    839.53376  0.019824638  0.019284509           20 
 3530000   0.69145569   -7.3231196    840.76057  0.019847983  0.019278721           11 
 3531000   0.68962288    -7.316198    840.46983  0.019835501  0.019272932           28 
 3532000   0.69936406   -7.3284482    839.04705  0.019796316  0.019267155           44 
 3533000   0.68897601   -7.3251048     838.3884  0.019775177  0.019261376           27 
 3534000   0.68442758   -7.3247906    839.73437   0.01980132  0.019255618           15 
 3535000    0.6757733   -7.3255942      839.332  0.019786233  0.019249853           29 
 3536000   0.68328065   -7.3280393    842.19889  0.019848202   0.01924408           28 
 3537000   0.68868248   -7.3339528    840.23865  0.019796406  0.019238319           36 
 3538000   0.67668404   -7.3213968    840.96577  0.019807937  0.019232567           36 
 3539000   0.68068719    -7.330093    839.61038  0.019770424  0.019226823           28 
 3540000   0.68769168   -7.3369133    839.33088   0.01975826  0.019221059           30 
 3541000   0.66913452   -7.3140518    840.63108  0.019783279  0.019215318           22 
 3542000   0.68186035   -7.3232583     840.6546  0.019778247  0.019209584           16 
 3543000    0.6712574   -7.3356037    839.83438  0.019753372  0.019203838           20 
 3544000   0.68187807   -7.3474751    839.75386  0.019745905  0.019198081           14 
 3545000   0.68516793   -7.3299502    839.40802  0.019732206  0.019192343           11 
 3546000   0.67885506    -7.337238    840.44553  0.019751023  0.019186579           11 
 3547000   0.68626007   -7.3335003    840.21297  0.019739991  0.019180827           10 
 3548000    0.6799379   -7.3158333    840.42609  0.019739433  0.019175082           11 
 3549000   0.69150869   -7.3189611    840.79584  0.019742553  0.019169332            7 
 3550000   0.66781813   -7.3367022    839.27588  0.019701312  0.019163579           10 
 3551000   0.67195234   -7.3260336    838.35969  0.019674263  0.019157828           11 
 3552000   0.69191331   -7.3312948    839.16082  0.019687519  0.019152074           11 
 3553000   0.68741111    -7.353853    839.24083  0.019683855  0.019146316           14 
 3554000   0.68297164    -7.335179    840.59029  0.019709958  0.019140565            8 
 3555000   0.68332781   -7.3405206    840.37723  0.019699419  0.019134813            9 
 3556000   0.68201552   -7.3088668    841.07253  0.019710174  0.019129049            8 
 3557000   0.69369615   -7.3389361    840.98232  0.019702519  0.019123315            8 
 3558000   0.68657966   -7.3177336    840.30831  0.019681195  0.019117591           10 
 3559000   0.67786743   -7.3268714    839.05622  0.019646348  0.019111862           13 
 3560000     0.689537    -7.332235    837.77522  0.019610843  0.019106126           12 
 3561000   0.68301336   -7.3395791    839.73382   0.01965117    0.0191004           10 
 3562000   0.69946652   -7.3214745    839.58078  0.019642073  0.019094643            7 
 3563000   0.69247975   -7.3204742    841.02715  0.019670389  0.019088923           19 
 3564000   0.68883154   -7.3447783    840.12202  0.019643706  0.019083181           13 
 3565000   0.68410681   -7.3570154    840.66397  0.019650864  0.019077454           25 
 3566000   0.68034682   -7.3383365    837.81728   0.01957883  0.019071715           24 
 3567000   0.69288493   -7.3707863    838.15988  0.019581345  0.019065967           17 
 3568000   0.68535157   -7.3344726    838.93425  0.019593943  0.019060232           11 
 3569000   0.66113878   -7.3463112     841.0849  0.019638669  0.019054508            9 
 3570000   0.67580275    -7.365308    842.15172   0.01965807  0.019048788           18 
 3571000   0.67209722   -7.3548563    839.93595  0.019600858  0.019043061           20 
 3572000   0.67037983   -7.3204615    840.99368  0.019620047  0.019037351           26 
 3573000    0.6837396   -7.3459508     840.8866  0.019612058  0.019031641           15 
 3574000   0.67776869   -7.3326568    840.90219  0.019606934  0.019025949           19 
 3575000   0.67450536   -7.3454656    842.33491  0.019634846  0.019020259           20 
 3576000   0.68787922   -7.3182903    839.66548  0.019567149  0.019014566           11 
 3577000   0.68041841   -7.3496667     840.8985  0.019590404  0.019008873           20 
 3578000     0.694138   -7.3288473    842.14512  0.019613963  0.019003185           20 
 3579000   0.66426896   -7.3455454    841.71915  0.019598564  0.018997492           20 
 3580000   0.69477143   -7.3556785    840.18087  0.019557283  0.018991787           16 
 3581000    0.6928317   -7.3410947    840.02435  0.019548179  0.018986092           12 
 3582000    0.6928231   -7.3493892    841.83591  0.019584867  0.018980395           11 
 3583000   0.68204245    -7.357436    841.04721  0.019561057  0.018974712           16 
 3584000   0.68693644   -7.3354369    840.21666  0.019536288  0.018969032            9 
 3585000   0.69037743   -7.3464166    841.49261  0.019560498  0.018963362           15 
 3586000   0.67073666   -7.3205231    843.33704  0.019597905  0.018957705           16 
 3587000   0.65901782    -7.304048    841.46945  0.019549053  0.018952061            7 
 3588000   0.67793455   -7.3124135    843.05601  0.019580454  0.018946436           13 
 3589000   0.67953978   -7.3476297    840.61696  0.019518365  0.018940782           21 
 3590000    0.6893747   -7.3339944    840.35358  0.019506815  0.018935119           12 
 3591000   0.67170514   -7.3284098    841.71478  0.019532971  0.018929463           22 
 3592000   0.66432996   -7.3306658    841.95042     0.019533  0.018923811           24 
 3593000   0.68254997   -7.3366133    843.05497  0.019553181  0.018918172           20 
 3594000   0.67110756   -7.3336387    842.44235  0.019533536  0.018912529           31 
 3595000    0.6793057   -7.3442959    841.78306   0.01951282  0.018906881           13 
 3596000   0.68361384   -7.3289222    841.07004   0.01949087  0.018901245           13 
 3597000   0.68670389    -7.327026    841.49576  0.019495315  0.018895606           11 
 3598000   0.66288596    -7.336772    841.33265  0.019486119  0.018889958            7 
 3599000   0.67571001   -7.3455939    842.61305  0.019510351  0.018884318            8 
 3600000   0.67521773   -7.3108783    841.76585  0.019485321  0.018878665           30 
 3601000   0.68364942   -7.3149645    842.03899   0.01948623  0.018873038           10 
 3602000   0.66404883   -7.3289155    842.08948  0.019481989  0.018867427            6 
 3603000   0.66187783   -7.3338703    840.69168  0.019444252  0.018861805            9 
 3604000   0.67858642   -7.3362194     843.4314  0.019502206   0.01885619            8 
 3605000   0.67832333   -7.3374804    841.61591  0.019454829  0.018850569           11 
 3606000   0.67931408   -7.3341126    842.36856  0.019466828  0.018844972           16 
 3607000    0.6722073   -7.3141222    842.67337  0.019468473  0.018839375            9 
 3608000   0.67940033   -7.3355934    840.86375   0.01942128  0.018833776           12 
 3609000   0.67784709   -7.3086417    841.97916  0.019441654  0.018828187           11 
 3610000   0.68711284    -7.335453    842.58311   0.01945021  0.018822579            6 
 3611000   0.68914128   -7.3539017    842.78418  0.019449464  0.018816979           15 
 3612000   0.68671436   -7.3500379     843.1062  0.019451509  0.018811357           15 
 3613000   0.68843627   -7.3338685    841.50604  0.019409218  0.018805762           18 
 3614000   0.67525219   -7.3532711    843.65878  0.019453486  0.018800168           19 
 3615000   0.66772892   -7.3267046    842.42277  0.019419612  0.018794585           14 
 3616000   0.66345687   -7.3440041    844.62318  0.019464952  0.018789003            8 
 3617000   0.67449321   -7.3643617    841.93728  0.019397689  0.018783409           29 
 3618000   0.67051243   -7.3389686    843.22126  0.019421901  0.018777821           12 
 3619000   0.67238533   -7.3561885    841.12343  0.019368228  0.018772234           12 
 3620000    0.6658028   -7.3548801      842.419  0.019392703  0.018766637           19 
 3621000   0.66571411   -7.3671146    839.82227  0.019327586   0.01876102           29 
 3622000   0.66809583   -7.3582621    842.48506  0.019383514  0.018755397           11 
 3623000   0.66450096   -7.3630258    843.72836  0.019406761  0.018749766           29 
 3624000   0.67598279   -7.3433057    842.69003   0.01937753  0.018744158           14 
 3625000   0.66110082   -7.3572098    840.91461   0.01933137  0.018738564           31 
 3626000   0.67378216   -7.3519044    843.24095  0.019379503  0.018732976           22 
 3627000   0.67431096   -7.3495554    842.73016  0.019362424  0.018727395           51 
 3628000   0.67709112   -7.3688502    843.00528  0.019363407  0.018721811           29 
 3629000   0.66031264   -7.3650991    843.07834  0.019359749  0.018716238           38 
 3630000   0.65709864   -7.3662934    842.98001  0.019352158  0.018710643           39 
 3631000   0.66247312   -7.3624543    841.14439    0.0193047   0.01870505           20 
 3632000   0.65804813   -7.3664262    841.25331  0.019301884  0.018699454           24 
 3633000   0.66253889   -7.3699539    841.30814  0.019297829  0.018693858           30 
 3634000   0.66290984   -7.3457099    843.63581  0.019345895  0.018688275           16 
 3635000   0.66690339   -7.3874611    841.71614  0.019296564  0.018682698           17 
 3636000    0.6779574   -7.3588274    841.33753   0.01928258   0.01867712           21 
 3637000   0.62870992   -7.4013309      842.413   0.01930192  0.018671539           15 
 3638000   0.65924742   -7.3475406     842.7348  0.019303986  0.018665953           22 
 3639000   0.65291345   -7.3641629    841.96378  0.019281025  0.018660366           32 
 3640000   0.68115049   -7.3714153    842.79493  0.019294756  0.018654797           16 
 3641000   0.67393766   -7.3885775    843.95879  0.019316094  0.018649225           32 
 3642000   0.67528752   -7.3531338    844.41281  0.019321179  0.018643678           24 
 3643000   0.65479971   -7.3712099    843.72995  0.019300255  0.018638129           17 
 3644000   0.68235249   -7.3716946    843.98552  0.019300803  0.018632603           17 
 3645000   0.67655661   -7.3320542    842.29907  0.019256952  0.018627075           13 
 3646000   0.66943752   -7.3559568    843.63438   0.01928219  0.018621527           15 
 3647000   0.66263265    -7.371396    843.08351  0.019264316  0.018615989           20 
 3648000   0.67628143   -7.3683681    842.92041  0.019255309  0.018610441           34 
 3649000   0.66424383    -7.347497    844.48081  0.019285668  0.018604898           13 
 3650000   0.66735025   -7.3758802    844.71684  0.019285773   0.01859935           23 
 3651000   0.67506512   -7.3660594    844.13748  0.019267267   0.01859381           18 
 3652000     0.662239   -7.3546633    844.07002  0.019260451  0.018588276           14 
 3653000   0.65604285   -7.3567622    843.51539  0.019242527  0.018582749           12 
 3654000   0.67515771   -7.3475085    844.48777  0.019259437  0.018577213           10 
 3655000   0.66139771   -7.3715005    842.93495  0.019218763  0.018571692           11 
 3656000   0.68801299   -7.3577156    843.50079  0.019226404  0.018566159            8 
 3657000   0.68259703   -7.3398468     845.2448  0.019260888  0.018560631            9 
 3658000   0.66775869   -7.3720312    843.10433   0.01920686  0.018555089            7 
 3659000   0.66368491   -7.3627361    844.13402  0.019225062  0.018549536            9 
 3660000   0.67974531    -7.363534    843.12087  0.019196741  0.018543984            8 
 3661000   0.65314327   -7.3712526    841.81238  0.019161713  0.018538433           12 
 3662000   0.66928242   -7.3656986    843.07964  0.019185319  0.018532885           13 
 3663000   0.66016448   -7.3757878    842.23099  0.019160774  0.018527313           11 
 3664000   0.66746453   -7.3610499    843.01567  0.019173391  0.018521754           19 
 3665000   0.68513258   -7.3836015    843.09848  0.019170043  0.018516199           29 
 3666000   0.65381195   -7.3891915    843.74118  0.019179423  0.018510655           13 
 3667000   0.65041693   -7.3771242     843.2305  0.019162587  0.018505107           11 
 3668000   0.66112371   -7.3929907    840.76985   0.01910146  0.018499566           17 
 3669000   0.65973887   -7.3755134    842.70576  0.019140224  0.018494025           19 
 3670000   0.68466935    -7.378342     842.8824  0.019139019  0.018488479           17 
 3671000    0.6561454   -7.3603581       843.83  0.019155316  0.018482944           19 
 3672000   0.66058235   -7.3738213    843.81798  0.019149827  0.018477409           16 
 3673000   0.66478426   -7.3653493    844.05502  0.019149991  0.018471874           22 
 3674000   0.65730966   -7.3660656    843.29437  0.019127526  0.018466353           11 
 3675000   0.66405388   -7.3582653    843.18568  0.019119857  0.018460825           13 
 3676000   0.65623854   -7.3884592    843.17799  0.019114481  0.018455312           23 
 3677000   0.65061731   -7.3845713    842.90098  0.019103005  0.018449779           12 
 3678000   0.65704742   -7.3997909    841.74065  0.019071521  0.018444244           35 
 3679000   0.65727133   -7.3550266    842.87049  0.019091929  0.018438706           33 
 3680000   0.64835494    -7.388391    843.04781  0.019090757  0.018433164           13 
 3681000   0.66296937   -7.3737445    843.16475  0.019088218  0.018427636           29 
 3682000    0.6663806   -7.3792545    843.44751  0.019089433  0.018422116           44 
 3683000   0.66554027   -7.3711443     842.5387  0.019063687   0.01841662           15 
 3684000   0.65668734    -7.364097    844.87787  0.019111425  0.018411138           19 
 3685000   0.65923164   -7.3560919     843.5098  0.019075301  0.018405653           50 
 3686000   0.66016613   -7.3757686    843.95939   0.01908029  0.018400164           24 
 3687000   0.66270012   -7.3571285    843.02056  0.019053896  0.018394663           13 
 3688000   0.65751521   -7.3507242    842.68212  0.019041082  0.018389158           19 
 3689000   0.66406379   -7.3559659    844.12942  0.019068614   0.01838366           14 
 3690000   0.65990509   -7.3567757    845.19662  0.019087548  0.018378171           11 
 3691000   0.67161087   -7.3904507    843.56448  0.019045527  0.018372692           15 
 3692000   0.66933695   -7.3606712    842.49684   0.01901627  0.018367202           18 
 3693000   0.66966223   -7.3772313    845.51698  0.019079271  0.018361718           19 
 3694000   0.65433706   -7.3642659    844.12886  0.019042791  0.018356246           24 
 3695000   0.67270939   -7.3991075    845.06245  0.019058693  0.018350769           10 
 3696000   0.65613481   -7.3728627    843.34339  0.019014777  0.018345281           15 
 3697000   0.64900332   -7.3483926    844.18799  0.019028672  0.018339803           14 
 3698000   0.67421348   -7.3512224    844.51923   0.01903099  0.018334336           25 
 3699000   0.66646212   -7.3625717      844.608  0.019027845  0.018328892           21 
 3700000   0.65822945   -7.3486164    845.16853  0.019035327  0.018323448           37 
 3701000   0.66114798   -7.3660107    843.86355  0.019000801  0.018318004           14 
 3702000   0.65022565   -7.3536184    844.05079  0.018999883  0.018312547           22 
 3703000   0.66851781   -7.3567877    844.53984  0.019005758  0.018307096           36 
 3704000   0.65622808   -7.3687907    843.92339  0.018986757  0.018301656           28 
 3705000   0.65130378   -7.3853649    843.96651  0.018982603  0.018296196           49 
 3706000   0.65324329   -7.3748468    845.03545  0.019001517  0.018290749           19 
 3707000   0.67563858   -7.3808483    845.45116  0.019005736  0.018285297           23 
 3708000   0.65506927   -7.3592285     845.4269  0.019000065  0.018279844           37 
 3709000   0.67158932   -7.3942247    843.78419  0.018958034  0.018274396           25 
 3710000    0.6520893   -7.4008973      844.924  0.018978527  0.018268936           16 
 3711000    0.6538203    -7.403505    845.46089  0.018985469  0.018263471           32 
 3712000   0.66530621   -7.3701312    845.49255  0.018981065  0.018258019           26 
 3713000   0.66275115   -7.3921779    845.96395  0.018986533  0.018252559           58 
 3714000    0.6703973   -7.3944574    843.06716  0.018916423  0.018247084           50 
 3715000   0.64967718     -7.37223    843.41266  0.018919082  0.018241614           68 
 3716000   0.66493878   -7.4123649    843.62075  0.018918657  0.018236134           54 
 3717000   0.66889723   -7.4092676    845.21486  0.018949306  0.018230643           62 
 3718000   0.65264217   -7.4003021    844.72642  0.018933262  0.018225178           49 
 3719000   0.64034461   -7.3790714    842.97601  0.018888949  0.018219703           39 
 3720000   0.65497936    -7.391591    844.54014   0.01891891  0.018214231           52 
 3721000   0.67248739   -7.3657342    846.17443  0.018950426  0.018208764           24 
 3722000    0.6629557   -7.3859451    844.67012  0.018911654  0.018203307           28 
 3723000   0.64874958   -7.4190267     843.2104  0.018873901  0.018197855           34 
 3724000    0.6570734   -7.3916998    846.55875   0.01894376  0.018192406           40 
 3725000    0.6482213   -7.3812356    844.70703  0.018897249  0.018186965           41 
 3726000   0.67439242   -7.3675292    845.87268  0.018918247   0.01818153           26 
 3727000   0.66224848   -7.3720332    844.36989   0.01887957  0.018176104           35 
 3728000     0.648624   -7.3783621    844.90127  0.018886384  0.018170689           34 
 3729000   0.64868095    -7.396192    845.39587  0.018892372  0.018165268           74 
 3730000   0.65565484   -7.3939229    843.02774    0.0188344  0.018159825           33 
 3731000   0.66420369   -7.3849202    843.47707  0.018839388   0.01815438           24 
 3732000    0.6445706   -7.3931281    845.44679  0.018878322  0.018148949           45 
 3733000   0.65785412   -7.3980745    845.51608  0.018874812  0.018143532           40 
 3734000   0.65498946   -7.3835641    846.01716   0.01888094   0.01813812           24 
 3735000   0.66393086   -7.3826867    846.78908  0.018893107  0.018132708           23 
 3736000   0.66470815   -7.3939223    845.39308  0.018856912  0.018127299           15 
 3737000   0.66547164   -7.3653896    844.75239  0.018837579  0.018121882           13 
 3738000   0.66960535   -7.3692317    843.87034  0.018812875  0.018116462           31 
 3739000   0.65095623   -7.3829748    844.10449  0.018813063  0.018111051           33 
 3740000   0.65785615   -7.3698609    844.05271  0.018806878  0.018105643            8 
 3741000   0.62483871   -7.4072368    842.47405  0.018766685  0.018100227           12 
 3742000   0.66416778   -7.3733767    845.16698  0.018821641  0.018094805           23 
 3743000   0.65871132   -7.4205565    843.07484  0.018770034   0.01808938           14 
 3744000   0.64266355   -7.3889673    845.52704  0.018819601  0.018083963            9 
 3745000   0.66092232   -7.3917906    844.96596  0.018802091   0.01807855           14 
 3746000   0.64492426   -7.4099009     844.7543  0.018792363  0.018073133           30 
 3747000   0.65294933   -7.3832585    844.85625  0.018789615  0.018067718           44 
 3748000   0.65976824   -7.3968021    846.94116  0.018830958  0.018062313           20 
 3749000   0.65646314   -7.3796713    843.12121  0.018741025  0.018056887           44 
 3750000   0.64334275   -7.4030595    844.58767  0.018768615  0.018051476           29 
 3751000   0.64997268   -7.3961552     843.3862  0.018736919  0.018046049           19 
 3752000   0.64306978   -7.3973465    845.88555  0.018787437  0.018040639           23 
 3753000   0.63928764    -7.419274    843.97652  0.018740042  0.018035224           28 
 3754000   0.64550658   -7.3995784     844.9588  0.018756855  0.018029811           35 
 3755000   0.65004256   -7.4206712    845.84602   0.01877155  0.018024395           47 
 3756000   0.66010405   -7.4075052    845.29351  0.018754293  0.018018992           36 
 3757000   0.66263243   -7.4048856    845.47745  0.018753382   0.01801357           32 
 3758000   0.64998488   -7.4002025    845.46176  0.018748043  0.018008168           27 
 3759000   0.65435477    -7.396979    846.06451  0.018756418  0.018002759           59 
 3760000   0.65027515   -7.4176227    843.31628   0.01869052  0.017997345           42 
 3761000   0.66069478   -7.4210119    843.66489  0.018693275  0.017991917           57 
 3762000   0.64356876   -7.4158552    843.73128  0.018689777  0.017986487           49 
 3763000   0.63948116   -7.4108854    845.62628  0.018726776  0.017981074           49 
 3764000   0.65695018   -7.4215702    845.18213  0.018711967  0.017975663           40 
 3765000   0.65979385    -7.405571    844.72056  0.018696781  0.017970254           56 
 3766000   0.65258214   -7.4041455    843.80781  0.018671619  0.017964854           17 
 3767000   0.64210458   -7.3874344    844.72737  0.018687005  0.017959457           17 
 3768000   0.63444799   -7.4010164    844.10432  0.018668266  0.017954058           32 
 3769000   0.65434441   -7.4367694    843.98358  0.018660643  0.017948661           18 
 3770000   0.65154525   -7.4112019    843.79674  0.018651564  0.017943262           13 
 3771000   0.64316494   -7.3884396    845.73616  0.018689476  0.017937887           36 
 3772000   0.64724095   -7.4014078    846.86618  0.018709486  0.017932509           50 
 3773000   0.65364409   -7.4172072    845.93519  0.018683965   0.01792714           44 
 3774000   0.63357243   -7.4125316    844.96268   0.01865754  0.017921743           26 
 3775000   0.65407425   -7.4251179    846.07241  0.018677095  0.017916343           37 
 3776000   0.64473102   -7.4143774    844.61357  0.018639953  0.017910941           16 
 3777000   0.64231277   -7.4118721    846.18529  0.018669696  0.017905541           22 
 3778000   0.64968972   -7.4228302    844.56508  0.018629016  0.017900129           35 
 3779000   0.64428565   -7.4212064    847.35143   0.01868553  0.017894726           24 
 3780000   0.65549262   -7.4284076    843.21048  0.018589296  0.017889323           28 
 3781000    0.6508759   -7.3977421    845.56533  0.018636281  0.017883926           37 
 3782000   0.64859461   -7.4318332    845.94969  0.018639822  0.017878542           26 
 3783000   0.65037963   -7.4074688     844.8593  0.018610875  0.017873159           35 
 3784000   0.65613689   -7.4188633    843.44231  0.018574751  0.017867779           33 
 3785000   0.63567434   -7.4260442    844.05868  0.018583414  0.017862383           36 
 3786000       0.6227   -7.4228985     842.4881  0.018543936   0.01785699           34 
 3787000   0.63423261   -7.4105276    844.47075  0.018582668  0.017851594           44 
 3788000   0.65579609   -7.4504529    844.86971  0.018586539  0.017846195           32 
 3789000   0.66836638   -7.4129686    843.12764  0.018543319  0.017840796           25 
 3790000    0.6437417     -7.42114    843.61971  0.018549246  0.017835404           45 
 3791000   0.62236541   -7.4224577    844.52753  0.018564309  0.017830009           30 
 3792000   0.64293402   -7.4266734    843.87099  0.018544985  0.017824611           19 
 3793000    0.6484493   -7.4244397    842.63567  0.018512955   0.01781922           47 
 3794000   0.64014137    -7.427843    843.99117  0.018537849  0.017813828           37 
 3795000   0.64462786   -7.4342032    843.36092  0.018519124  0.017808423           21 
 3796000   0.64602794   -7.4288329    841.94813  0.018483231  0.017803024           52 
 3797000   0.62983906   -7.4302082    844.20943  0.018527992  0.017797629           22 
 3798000   0.63515096   -7.4429019    843.59799  0.018509698  0.017792238           28 
 3799000    0.6427071   -7.4104831    843.56675   0.01850414  0.017786848           16 
 3800000   0.63794344   -7.4281016    844.43753  0.018518367  0.017781467           14 
 3801000   0.64198548   -7.4068026    843.37853  0.018490277  0.017776082           28 
 3802000   0.63554197   -7.4415538      843.475  0.018487529  0.017770707           19 
 3803000   0.64133017    -7.418381    846.08916   0.01853995   0.01776533           35 
 3804000    0.6581772   -7.4253968    843.38981  0.018475942  0.017759948           39 
 3805000   0.63414828   -7.3952569    845.07822  0.018508064  0.017754579           25 
 3806000   0.64048085   -7.4099202    844.06527  0.018481023  0.017749216           33 
 3807000   0.64598143   -7.4216571    844.28734  0.018481029  0.017743845           23 
 3808000   0.64575376   -7.4230405    843.26984  0.018453909  0.017738481           25 
 3809000   0.64315427   -7.4237937    843.47861  0.018453632  0.017733087           29 
 3810000   0.64234105   -7.4327964    842.48801  0.018427122  0.017727705           12 
 3811000   0.63520458   -7.4398792    844.34626   0.01846292  0.017722324           22 
 3812000   0.62923411   -7.4088081    844.08691  0.018452407  0.017716959           14 
 3813000   0.65121325   -7.4147811    844.15144  0.018448978  0.017711591           16 
 3814000   0.62478504   -7.4315233    844.28859  0.018447137  0.017706218           23 
 3815000   0.63872505   -7.4217241    845.75712   0.01847438  0.017700842           14 
 3816000    0.6366832   -7.4459424    843.42389  0.018418586  0.017695461           16 
 3817000    0.6246915   -7.4488697    845.26034  0.018453854  0.017690079           18 
 3818000   0.63649612   -7.4103297    843.14021  0.018402746  0.017684703           23 
 3819000   0.65685693   -7.4206393    844.15882  0.018420154  0.017679339           26 
 3820000   0.63179179   -7.4255253    843.35727  0.018397846  0.017673973           21 
 3821000   0.62358879   -7.4361855    844.67601  0.018421792  0.017668602           12 
 3822000    0.6373076   -7.4463354    845.29361  0.018430438  0.017663233           29 
 3823000   0.64467467   -7.4212375    843.90696  0.018395391  0.017657861           18 
 3824000   0.63044832   -7.4236725    844.15977   0.01839609  0.017652509           18 
 3825000   0.63142685    -7.428929    845.08746  0.018411491   0.01764716           19 
 3826000    0.6511824   -7.4285871    844.21792   0.01838774  0.017641801           18 
 3827000   0.63361045   -7.3957928    844.86417  0.018397008  0.017636451           25 
 3828000   0.64038097   -7.4330371    843.87725  0.018370717  0.017631101           31 
 3829000   0.63513219   -7.4521514    844.20783  0.018373114   0.01762575           11 
 3830000   0.63882311   -7.4188131    843.84356  0.018360391  0.017620382           18 
 3831000   0.64380055   -7.4271994    844.27426  0.018364967  0.017615021           20 
 3832000   0.63436704   -7.4319976    844.52063  0.018365532  0.017609661           39 
 3833000   0.63979801   -7.4313933    844.09354  0.018351455  0.017604299           27 
 3834000   0.64001769   -7.4068734    842.62608  0.018314773   0.01759895           24 
 3835000   0.64683385    -7.414888    844.54691  0.018351736  0.017593618           15 
 3836000   0.61904389   -7.4321363    844.01313  0.018335356  0.017588273           16 
 3837000    0.6394816   -7.4354753    845.25432  0.018357534  0.017582934           30 
 3838000   0.64560831   -7.4158895    842.70368   0.01829737  0.017577579           18 
 3839000   0.64232943   -7.4322738    844.73749  0.018336752  0.017572229           25 
 3840000   0.63922007   -7.4469401    844.44185  0.018325561  0.017566872           36 
 3841000   0.64176529   -7.4461969    844.28353  0.018317355  0.017561507           69 
 3842000   0.63918362   -7.4281582    844.45337  0.018316271  0.017556149           32 
 3843000   0.63370266   -7.4429725    843.85315   0.01829849  0.017550785           24 
 3844000   0.62746324   -7.4413983    844.27527  0.018302881   0.01754542           23 
 3845000   0.65053951    -7.424368    843.91935  0.018290406  0.017540051           48 
 3846000   0.63520985   -7.4423063    844.50241  0.018298284  0.017534692           72 
 3847000   0.64275915   -7.4373444    843.91025    0.0182807  0.017529342           61 
 3848000   0.64150919   -7.4474926    843.28074  0.018262317  0.017523986           53 
 3849000   0.62103776   -7.4583752    842.08127  0.018231603  0.017518609           73 
 3850000   0.64347552   -7.4522273    843.28774  0.018252981  0.017513236           30 
 3851000   0.63109001   -7.4595894    839.60488  0.018168547  0.017507867           40 
 3852000   0.63788617   -7.4698617    842.13087  0.018218477  0.017502503           60 
 3853000   0.64047827    -7.433456    842.87821  0.018229912  0.017497148           78 
 3854000   0.62256035   -7.4393781    842.20795  0.018210689  0.017491795           36 
 3855000   0.63702926   -7.4453183    842.50144   0.01821231  0.017486442           64 
 3856000   0.63523036   -7.4337366    844.15551  0.018243333  0.017481088           65 
 3857000   0.64781398   -7.4405194    843.63934  0.018227451  0.017475733           45 
 3858000   0.63773501   -7.4454638     842.3581  0.018195051  0.017470376           70 
 3859000   0.63421617    -7.463092    843.02683  0.018204777  0.017465017           75 
 3860000   0.62371427   -7.4664793    842.78489  0.018194838  0.017459661           44 
 3861000   0.60790479   -7.4423418    842.72818  0.018188901  0.017454304           73 
 3862000   0.64610292      -7.4521     841.9549  0.018167506  0.017448947           83 
 3863000    0.6522331   -7.4430486    844.28926   0.01821316  0.017443606           85 
 3864000   0.63468566   -7.4651165    842.76617  0.018175599  0.017438267           93 
 3865000   0.63971223   -7.4667135    843.26452  0.018181641   0.01743292           66 
 3866000   0.62017544   -7.4836182    843.28532  0.018177387  0.017427565           60 
 3867000   0.63943506   -7.4476848    843.59917  0.018179449  0.017422222           64 
 3868000   0.64916278   -7.4611923    842.25022  0.018145687  0.017416878           77 
 3869000   0.64653702   -7.4491552    843.72749  0.018172816  0.017411538           82 
 3870000   0.63641231   -7.4549558    843.86297  0.018171037  0.017406201           70 
 3871000    0.6356992   -7.4536937    843.02731  0.018148353  0.017400877           56 
 3872000   0.61611463   -7.4683356    843.39835  0.018151652   0.01739555           47 
 3873000   0.63690876   -7.4433745    842.29415  0.018123207  0.017390228           85 
 3874000   0.63749722   -7.4520544    842.70396  0.018127344  0.017384909           80 
 3875000   0.63059557   -7.4604287     842.3517   0.01811509  0.017379582          107 
 3876000   0.64187868   -7.4545589    843.07277   0.01812592  0.017374248           55 
 3877000   0.62537297   -7.4918624    842.94739  0.018118549  0.017368921           67 
 3878000   0.63842274   -7.4661389    842.56672  0.018105697  0.017363593           64 
 3879000   0.62012196   -7.4733453    842.18488  0.018092826  0.017358261           44 
 3880000   0.63443631   -7.4615276    843.53264   0.01811711  0.017352934           47 
 3881000    0.6329035   -7.4694032    840.77156  0.018053156  0.017347605           64 
 3882000   0.63923923   -7.4655545    843.30231  0.018102832  0.017342272           89 
 3883000   0.62850462    -7.463518    842.86258  0.018088732  0.017336934           41 
 3884000   0.62383816   -7.4437703       842.45  0.018075223  0.017331614           54 
 3885000    0.6258536   -7.4671085    843.40751  0.018091109  0.017326293           55 
 3886000   0.62625584   -7.4901857    842.83789  0.018074239  0.017320964           69 
 3887000   0.62969455   -7.4762986    843.44456  0.018082595  0.017315635          108 
 3888000   0.62385468   -7.4670274    842.76265  0.018063328  0.017310308          101 
 3889000   0.64251509    -7.449446    843.87479  0.018082514  0.017304996           68 
 3890000   0.63247941   -7.4761437    841.98986  0.018037486  0.017299685           59 
 3891000   0.62762719   -7.4708112     842.0707  0.018034582  0.017294371           61 
 3892000    0.6146157    -7.446446    842.54423  0.018040087  0.017289063           51 
 3893000   0.62585827    -7.463341    843.65616  0.018059255  0.017283764           63 
 3894000   0.63198615   -7.4639809    843.60568  0.018053537  0.017278478           70 
 3895000   0.62746706   -7.4320563    843.55819  0.018047886  0.017273188           71 
 3896000   0.62178521   -7.4398935    844.75157  0.018068779  0.017267895           49 
 3897000   0.63077749   -7.4654033     842.4586   0.01801511  0.017262618           83 
 3898000   0.62780792   -7.4343135    845.51231  0.018075772  0.017257336           59 
 3899000   0.62892184   -7.4574538    844.15299  0.018042083  0.017252056           81 
 3900000   0.61541543   -7.4542056    844.71033  0.018049366  0.017246778           67 
 3901000   0.62977375   -7.4383824    845.06075  0.018052225  0.017241509          117 
 3902000    0.6157535   -7.4747969    842.44069  0.017991643  0.017236236           94 
 3903000   0.61471468   -7.4674737    842.78557  0.017994397  0.017230966           39 
 3904000   0.61734272    -7.427141    844.00848  0.018015891  0.017225708           33 
 3905000   0.63191546   -7.4674422    842.23761  0.017973487   0.01722045           49 
 3906000   0.63675994   -7.4427908    844.92913  0.018026308  0.017215192           75 
 3907000   0.62899571   -7.4547425    844.69366  0.018016672  0.017209935           72 
 3908000   0.62241069   -7.4432798    843.43203  0.017985159  0.017204679           58 
 3909000   0.62765669   -7.4547462    842.84894  0.017968128  0.017199432           97 
 3910000   0.62612592   -7.4424199    844.66539  0.018002246  0.017194182           71 
 3911000    0.6316102   -7.4494214     843.8288  0.017979818  0.017188939          103 
 3912000   0.62860104   -7.4350788     843.7975  0.017974555  0.017183689           65 
 3913000   0.62890644   -7.4661548    844.16141  0.017977711  0.017178451           76 
 3914000   0.63853795    -7.480862    842.95422  0.017947416  0.017173219           75 
 3915000   0.63476024   -7.4617804    844.34662   0.01797247  0.017167981           78 
 3916000   0.63740011   -7.4866493    844.18335  0.017964406  0.017162736           62 
 3917000    0.6422309    -7.453371    842.21425  0.017917927  0.017157489           72 
 3918000   0.63215826   -7.4646177    844.34993  0.017958778  0.017152261           76 
 3919000    0.6305145   -7.4338063    844.17537  0.017950484  0.017147033           75 
 3920000    0.6260295    -7.450686    842.47172  0.017909688  0.017141805           78 
 3921000   0.62609871   -7.4661674    843.89291  0.017935325  0.017136583           82 
 3922000   0.61879564     -7.43087    846.94618  0.017995627  0.017131366           53 
 3923000   0.62281901   -7.4424716    843.77386  0.017923652  0.017126146           89 
 3924000   0.61850786      -7.4644    842.04762  0.017882425   0.01712091           82 
 3925000   0.61248694   -7.4688406    844.08775  0.017921184  0.017115686           46 
 3926000   0.61713611   -7.4681507     845.1754  0.017939705  0.017110443           63 
 3927000   0.61270109   -7.4692709    842.82656  0.017885293  0.017105207           39 
 3928000   0.61976045   -7.4601451    843.42986  0.017893539  0.017099982           45 
 3929000   0.63649801   -7.4766507    844.66025  0.017915081  0.017094749           42 
 3930000   0.62655131   -7.4725043    844.49689  0.017907059  0.017089511           56 
 3931000   0.63291002   -7.4647272     843.7931  0.017887584  0.017084284           71 
 3932000    0.6188039   -7.4841983    844.40753  0.017896056  0.017079056           70 
 3933000   0.62244476    -7.472787    843.87755  0.017880277  0.017073828           66 
 3934000   0.63277586   -7.4839026    842.17858  0.017839743  0.017068598           59 
 3935000   0.61206452   -7.4920765    841.90669  0.017829451  0.017063353           38 
 3936000   0.62521875   -7.4754701    843.95642  0.017868319   0.01705812           72 
 3937000   0.63260671   -7.4819626    844.04836  0.017865726  0.017052893           48 
 3938000   0.62824269   -7.4656602    842.83688  0.017835553  0.017047666           49 
 3939000   0.63234547   -7.4673613    845.16224   0.01788022  0.017042453           44 
 3940000   0.62945101   -7.4905029    843.56454   0.01784189  0.017037225           61 
 3941000   0.62303163   -7.4865217    843.27965  0.017831338  0.017031996           58 
 3942000   0.62250141   -7.4736069    842.35657  0.017807301  0.017026765           34 
 3943000   0.63572584   -7.4755989    843.94823  0.017836424  0.017021542           58 
 3944000   0.62520956    -7.487467    842.52721  0.017801877  0.017016314           60 
 3945000   0.61949266   -7.4638095    842.89475  0.017805128  0.017011089           61 
 3946000   0.62615389   -7.4840915    844.64782  0.017837638  0.017005868           39 
 3947000   0.61852552   -7.4602692    844.16184  0.017822858  0.017000642           82 
 3948000   0.61613172   -7.4844201    844.09048  0.017816837  0.016995421           67 
 3949000   0.62226301    -7.484087    842.58539  0.017780564   0.01699019           43 
 3950000   0.62096269   -7.4860119     842.8616   0.01778189  0.016984963           74 
 3951000   0.61824391   -7.4746389    843.24945   0.01778557  0.016979739           76 
 3952000   0.61547467   -7.4775786    842.21804  0.017759321  0.016974525           65 
 3953000   0.62983748   -7.4858448    841.87896   0.01774768   0.01696931           55 
 3954000   0.64085157    -7.467206    844.77815  0.017804294  0.016964103           59 
 3955000   0.61484096   -7.4808658    842.85901  0.017759355  0.016958895           71 
 3956000   0.63172126   -7.4922973    844.81566  0.017796083  0.016953684           78 
 3957000    0.6184837   -7.4768864    841.87695  0.017729697  0.016948481           75 
 3958000   0.61879595   -7.4739953    841.99782  0.017727763  0.016943284           67 
 3959000   0.61412528   -7.4846891    843.21039  0.017748809   0.01693808          107 
 3960000   0.60610191   -7.4884824    843.84543   0.01775769  0.016932887           97 
 3961000   0.62270025   -7.4599564     843.6211  0.017748487  0.016927698          109 
 3962000   0.62265785   -7.4830783    843.39796  0.017739314  0.016922506           85 
 3963000    0.6297296    -7.495752    843.88273  0.017745032  0.016917322           81 
 3964000   0.61955337   -7.4824592    843.09695  0.017724036  0.016912131           92 
 3965000   0.62175125   -7.4663619    844.75135  0.017754337  0.016906944           86 
 3966000   0.60847655   -7.4669053      845.097  0.017757123  0.016901766          148 
 3967000   0.62559432   -7.4755337    842.54039  0.017698941  0.016896587          111 
 3968000   0.60858807   -7.4675271    841.67227  0.017676249  0.016891423           93 
 3969000    0.6119192   -7.4673954    845.66557  0.017755639  0.016886265           93 
 3970000   0.62101423    -7.485152    843.56278  0.017707027  0.016881103           98 
 3971000   0.59970831   -7.4998543    844.69942  0.017726421  0.016875943           98 
 3972000   0.62735448   -7.4735855    844.69836  0.017721936  0.016870771           62 
 3973000   0.62175266    -7.482775     845.6205  0.017736817  0.016865598           99 
 3974000   0.62005378   -7.4929652    842.76064  0.017672384  0.016860426           84 
 3975000   0.60921478   -7.5062093    844.11564  0.017696345  0.016855254           94 
 3976000   0.60641053   -7.4772452    844.18556  0.017693359  0.016850093           57 
 3977000   0.61717707   -7.4863769    844.60412  0.017697681  0.016844933          105 
 3978000   0.62096019   -7.4911436    844.71897  0.017695638  0.016839771           93 
 3979000   0.61621768   -7.4934042    842.71909  0.017649307  0.016834615           91 
 3980000   0.62769468   -7.5077188    844.21813  0.017676259  0.016829459          115 
 3981000   0.61627154   -7.4677076    845.11101  0.017690509  0.016824307           77 
 3982000   0.59853498   -7.4766389    844.40116  0.017671211  0.016819156           52 
 3983000   0.60973502   -7.4889556    844.01415  0.017658678     0.016814           38 
 3984000   0.61186997   -7.4928956    843.40541  0.017641512  0.016808837           51 
 3985000   0.61111837   -7.4701472    845.43126  0.017679449  0.016803681           88 
 3986000   0.59995357   -7.4857867    844.41867  0.017653844  0.016798527           84 
 3987000   0.61936894   -7.4909722    846.55833  0.017694138  0.016793379           37 
 3988000   0.60399961   -7.4937565    843.20537  0.017619637  0.016788228           37 
 3989000   0.59843274   -7.5019248    843.54523   0.01762232  0.016783072           51 
 3990000    0.6072457   -7.4854454    844.67959  0.017641595  0.016777916          135 
 3991000   0.61868501   -7.5074949     844.6077  0.017635674  0.016772764           41 
 3992000   0.63085916   -7.4889322    844.90969   0.01763756  0.016767617           54 
 3993000   0.61963882   -7.4655691    844.72788  0.017629349   0.01676248           77 
 3994000   0.59892429   -7.4901155    844.25107  0.017614986  0.016757346           40 
 3995000   0.61620865   -7.4719779    843.67249  0.017598508  0.016752207           83 
 3996000   0.61532965   -7.4921682    844.98966  0.017621573  0.016747066          117 
 3997000   0.60570365   -7.5028802    842.76944  0.017570875  0.016741936           92 
 3998000   0.60979337    -7.472301      843.101  0.017573391  0.016736806           73 
 3999000   0.60910865   -7.4862097    845.60405  0.017621156  0.016731682          115 
 4000000   0.60826415   -7.4948887    844.36287  0.017590893  0.016726565          174 
 4001000   0.59567829   -7.4928521     844.8326   0.01759628   0.01672144          126 
 4002000   0.60789407   -7.4929775    844.28231  0.017580425  0.016716312          135 
 4003000   0.63119666   -7.4919055     843.5489  0.017560765  0.016711187           74 
 4004000   0.61814827   -7.4972211    844.75383  0.017581457  0.016706057          132 
 4005000   0.61861542   -7.4724576    843.93885  0.017560109   0.01670093           76 
 4006000   0.61372099   -7.5059491    843.48701  0.017546327  0.016695804           66 
 4007000   0.60575391   -7.4949457    843.98007  0.017552202  0.016690686           56 
 4008000   0.61389985   -7.5244485    845.48503  0.017579113  0.016685563          102 
 4009000   0.60479349   -7.4734634    844.08952   0.01754572  0.016680445           39 
 4010000   0.61020377   -7.4905578    844.14758  0.017542552  0.016675329          109 
 4011000   0.59949734   -7.5016201    843.66333  0.017528117   0.01667021          100 
 4012000   0.60147464   -7.5185907    845.01144   0.01755175  0.016665101           90 
 4013000   0.62090196   -7.5049029    843.37643  0.017513424  0.016659984          148 
 4014000   0.61677534   -7.4932413    845.91668  0.017561798  0.016654878           50 
 4015000   0.61636611   -7.5215227    844.44384  0.017526854  0.016649769          159 
 4016000   0.61487755   -7.5165696     844.7221  0.017528264  0.016644657           89 
 4017000   0.61061605   -7.5042687    845.30174  0.017535925  0.016639545          116 
 4018000   0.59908081    -7.506891     843.5343  0.017494904  0.016634437           57 
 4019000   0.60626946   -7.5233261    844.62833  0.017513236  0.016629327           72 
 4020000   0.60550585   -7.5105842    842.64575  0.017467781  0.016624236          114 
 4021000   0.59174159   -7.4970941    843.67787  0.017484827  0.016619135           63 
 4022000   0.61065438   -7.5047277    842.80235  0.017462339  0.016614035          110 
 4023000   0.61355962   -7.4938725    842.36324  0.017448903  0.016608936           93 
 4024000   0.60733582   -7.4982112    843.07034   0.01745921  0.016603837           83 
 4025000   0.59448861   -7.5107298    842.75656  0.017448376  0.016598738          144 
 4026000   0.61939432   -7.4918643    845.39255  0.017498604  0.016593644          102 
 4027000   0.60835348   -7.5116621    844.74276  0.017480812  0.016588553          137 
 4028000   0.60675008   -7.4973027    843.44487  0.017449621  0.016583455          123 
 4029000   0.59747473   -7.5035427    843.34573  0.017443239  0.016578361           94 
 4030000   0.61051363   -7.4904743    844.96557  0.017472406  0.016573275           85 
 4031000   0.59124669   -7.5050821    843.24716  0.017432547  0.016568181           63 
 4032000   0.61548048   -7.5107151    844.03375  0.017444481  0.016563088           71 
 4033000    0.6015493   -7.5286104    844.34611   0.01744661  0.016557991           91 
 4034000    0.6194479   -7.4937018    843.68712  0.017428671    0.0165529          122 
 4035000   0.61844323    -7.494724    844.93918   0.01745021  0.016547809           83 
 4036000   0.60596195   -7.5138197    843.66444  0.017419566  0.016542718           93 
 4037000   0.59294175    -7.505048    843.06235  0.017402823  0.016537615          124 
 4038000   0.59727049   -7.5181145    841.22429  0.017360581  0.016532519           50 
 4039000   0.60420279   -7.5114374    843.62381   0.01740579  0.016527427          107 
 4040000    0.5951613   -7.5209512    842.27197  0.017373597  0.016522331          101 
 4041000   0.61019721   -7.5107926    842.22006  0.017368227  0.016517239          105 
 4042000   0.60215754   -7.4949294    844.23808  0.017405535  0.016512168           75 
 4043000   0.60869677   -7.5028998    844.42501  0.017405083  0.016507094          113 
 4044000   0.60400154   -7.5140241    844.72693  0.017407001  0.016502022           70 
 4045000   0.60822668     -7.51639    844.50982  0.017398225  0.016496944          102 
 4046000   0.59711312   -7.5151272    844.64133  0.017396633  0.016491878           77 
 4047000   0.59776452    -7.497708    845.45419  0.017409072  0.016486816           73 
 4048000    0.6001938   -7.5122775    845.29804  0.017401557  0.016481753           92 
 4049000   0.60859895   -7.5133294    844.47871  0.017380397  0.016476688           89 
 4050000   0.60155632   -7.5222914    843.44117  0.017354757  0.016471625           79 
 4051000   0.60694693   -7.4873794    842.65047  0.017334207  0.016466569           84 
 4052000   0.60618366   -7.5085318    845.13694  0.017381066  0.016461515           76 
 4053000   0.60974063   -7.5153854    844.62625  0.017366277  0.016456465           69 
 4054000   0.61428284   -7.5105191    845.35162  0.017376904  0.016451416           52 
 4055000   0.61525392     -7.51202    845.17802  0.017369051  0.016446364           51 
 4056000   0.59120427   -7.5220685    844.26232  0.017345955  0.016441306           58 
 4057000   0.61600156   -7.5225851    843.92818  0.017334816  0.016436247           85 
 4058000   0.60868232   -7.5096634    843.87392   0.01732943  0.016431189           82 
 4059000   0.60891402   -7.5216649     842.1897  0.017290583  0.016426138           61 
 4060000   0.58804753   -7.4952156    843.00047  0.017302965   0.01642108           65 
 4061000   0.59567969   -7.5029265    843.04734  0.017299666  0.016416028           45 
 4062000   0.59087031   -7.5335134    841.65947  0.017266935  0.016410969           45 
 4063000   0.59078952   -7.4927271    843.84104   0.01730743  0.016405922           68 
 4064000   0.60141736   -7.4841906     844.2489  0.017311534  0.016400876           50 
 4065000   0.60819125   -7.4915322    844.63665  0.017315225  0.016395831           44 
 4066000   0.59572801   -7.5051233    843.59123   0.01728954   0.01639078           39 
 4067000    0.6212077   -7.5103354    844.12645  0.017296255  0.016385738           47 
 4068000   0.58948942   -7.5048566     843.5753  0.017280713   0.01638071           76 
 4069000   0.59905125   -7.5016331    845.01026  0.017305854  0.016375677           38 
 4070000   0.58355198   -7.5158662    844.05705  0.017282085  0.016370649           58 
 4071000   0.61336049   -7.4898424     843.7215  0.017270972  0.016365619           38 
 4072000   0.60759002   -7.5005819    842.81547  0.017248188  0.016360589           51 
 4073000   0.59847314   -7.4976097    842.53339  0.017238182   0.01635555           69 
 4074000   0.61154909    -7.488768    844.63711  0.017276982  0.016350508          103 
 4075000   0.59521373   -7.5063024     842.6674  0.017232462  0.016345465           44 
 4076000   0.58756305   -7.5153127    843.91029  0.017253645  0.016340418           43 
 4077000   0.60644543   -7.5176524     841.6915  0.017204061  0.016335378           46 
 4078000   0.60144339   -7.5183642    842.91427   0.01722483   0.01633034           66 
 4079000   0.62237319   -7.5076772      842.918  0.017220683  0.016325302           82 
 4080000   0.59538544   -7.5096397    843.58044  0.017229993  0.016320263           57 
 4081000   0.60093317   -7.5367157    844.19473  0.017238314  0.016315222           61 
 4082000   0.59036717   -7.5161929    844.56566  0.017241664  0.016310181           56 
 4083000   0.60774988   -7.5269711    843.64978  0.017218748  0.016305141           49 
 4084000   0.60320748    -7.547174    843.36802  0.017208783  0.016300093           48 
 4085000   0.58742344   -7.5229987    843.45526   0.01720635  0.016295057           71 
 4086000   0.59919908   -7.5260078    843.26625  0.017198284  0.016290022           57 
 4087000   0.59439922   -7.5269813    843.23792  0.017193498  0.016284992           56 
 4088000   0.58705211   -7.5037653    843.32506  0.017191069  0.016279966           45 
 4089000   0.59849282   -7.5286572    843.91467   0.01719888   0.01627494           45 
 4090000    0.6025288   -7.5214485    843.88724  0.017194117  0.016269912           42 
 4091000   0.59669068   -7.5198428    843.79902  0.017188117  0.016264883           52 
 4092000   0.60397498   -7.4889864    842.43426  0.017156123  0.016259867           42 
 4093000   0.60007631   -7.5074877    843.10862  0.017165661  0.016254851           40 
 4094000   0.59445378   -7.5311844    843.69611  0.017173427  0.016249834           53 
 4095000   0.60140205   -7.5221566    844.01116  0.017175644  0.016244823           49 
 4096000   0.60127255   -7.5316865    841.98292  0.017130186  0.016239806           38 
 4097000   0.58546337    -7.530333     842.8048  0.017142722  0.016234798           31 
 4098000   0.60940259    -7.533519    842.86357  0.017139734  0.016229794           37 
 4099000   0.59666986   -7.5112678    841.77344   0.01711339  0.016224785           48 
 4100000   0.59115559   -7.5446546    843.61783  0.017146704  0.016219777           50 
 4101000   0.59185707   -7.5100638    843.99382  0.017150163  0.016214765           71 
 4102000   0.58695126   -7.5148625    844.03081  0.017146733   0.01620976           70 
 4103000   0.60506656   -7.5246356    844.38306  0.017149709  0.016204761           70 
 4104000   0.58197358   -7.5279507    842.96216  0.017116678  0.016199751           70 
 4105000   0.58783491   -7.5290325    843.41388  0.017121678  0.016194744           52 
 4106000    0.5931297   -7.5235411    841.28283  0.017074258  0.016189738           40 
 4107000   0.59560779    -7.529797    842.64815  0.017097803  0.016184727           48 
 4108000   0.58794183   -7.5313649    843.16306  0.017104087  0.016179724           76 
 4109000   0.60610984   -7.5083325    842.45872   0.01708564  0.016174724           47 
 4110000   0.59648959   -7.5382256     842.7402   0.01708719  0.016169732           38 
 4111000   0.58695575   -7.5178181    843.25398  0.017093448  0.016164741           59 
 4112000   0.58856582   -7.5271673    842.69839  0.017078032  0.016159757           61 
 4113000   0.59710524   -7.5419679    844.16499  0.017103594  0.016154774           88 
 4114000   0.57600174   -7.5224974    842.22279  0.017060095  0.016149791           59 
 4115000   0.60087911   -7.5212852    844.50189  0.017102104  0.016144813           60 
 4116000   0.58232552   -7.5366849    842.71351  0.017061741  0.016139826           90 
 4117000   0.59470067   -7.5294876    843.89355  0.017081482  0.016134847           79 
 4118000   0.60138725    -7.549587     843.2584  0.017064481  0.016129872           81 
 4119000   0.59857215   -7.5141857    844.16044  0.017078588  0.016124887           96 
 4120000   0.58681416    -7.518752    842.58362  0.017042549  0.016119914           66 
 4121000   0.58713534   -7.5168978    843.37686  0.017054454  0.016114933           82 
 4122000   0.58338082   -7.5217025     842.9789  0.017042271   0.01610996           32 
 4123000   0.58590626   -7.5087092    845.20139  0.017083058  0.016104978           95 
 4124000   0.58322006   -7.5366673    843.47093  0.017043949  0.016099997           72 
 4125000   0.58476302   -7.5417066    842.37054  0.017017587  0.016095018           92 
 4126000    0.5817199   -7.5366384    843.76356  0.017041597  0.016090044           75 
 4127000   0.58397759    -7.545816    843.08944  0.017023856  0.016085071           98 
 4128000   0.59302562    -7.523171    843.11211   0.01702019   0.01608011          106 
 4129000    0.5841727   -7.5489328    844.50679  0.017044216  0.016075143          117 
 4130000   0.59564284   -7.5240937    842.28559   0.01699527  0.016070184          105 
 4131000    0.6036792   -7.5395159    843.55646  0.017016793  0.016065224          109 
 4132000   0.58562636   -7.5359401    842.24695  0.016986265  0.016060256           85 
 4133000   0.59888076    -7.544514    844.36428  0.017024846  0.016055295           93 
 4134000   0.58505167   -7.5346859    842.32708  0.016979662  0.016050338           93 
 4135000   0.58843712   -7.5331988    843.56891  0.017000583  0.016045384          103 
 4136000   0.57043086   -7.5482418    844.12399  0.017007656  0.016040431          120 
 4137000   0.58631049   -7.5363681     842.4033  0.016968884  0.016035481           83 
 4138000   0.58522904   -7.5461966    842.08671  0.016958408  0.016030531          108 
 4139000   0.58112362   -7.5345521     843.6787  0.016986364  0.016025582          111 
 4140000   0.57289935   -7.5493947    842.44895  0.016957507  0.016020637          113 
 4141000    0.5868019   -7.5364999    843.68879  0.016978363  0.016015695          127 
 4142000   0.57022475   -7.5486567      842.748  0.016955336  0.016010748           88 
 4143000   0.58504631   -7.5275291    842.76599  0.016951605  0.016005805          120 
 4144000    0.6029022   -7.5548751    843.71922  0.016966683  0.016000862           88 
 4145000   0.59490753   -7.5311662     842.3421  0.016934903  0.015995919          110 
 4146000   0.59581666   -7.5526557    843.14193  0.016946895  0.015990983          126 
 4147000   0.59386464    -7.546858    844.68016  0.016973719  0.015986036          104 
 4148000   0.58768667   -7.5420805    841.90396  0.016913853  0.015981092          166 
 4149000   0.58103809   -7.5344892    843.72974  0.016946448   0.01597615          148 
 4150000   0.59200142   -7.5609203    843.94737  0.016946734  0.015971202          168 
 4151000   0.58916166    -7.534131    842.79725  0.016919563  0.015966267          153 
 4152000   0.58754693   -7.5270918    842.19814  0.016903463   0.01596133          139 
 4153000   0.58830264   -7.5370442    843.51533  0.016925823  0.015956391          189 
 4154000   0.59977266   -7.5533898    842.83129  0.016908026  0.015951449          156 
 4155000   0.58007323   -7.5464786    842.94134  0.016906164  0.015946507          144 
 4156000   0.59355032   -7.5549687    842.26882  0.016888611  0.015941573          134 
 4157000   0.58846894   -7.5282334    841.60497  0.016871241  0.015936648          158 
 4158000   0.58851784   -7.5488918    842.49074  0.016884935  0.015931706          207 
 4159000   0.58807718   -7.5284725    843.04982  0.016892078  0.015926761          210 
 4160000   0.59893375    -7.566883    843.24295  0.016891886  0.015921832          173 
 4161000   0.58881435   -7.5261116    841.73758  0.016857678  0.015916908          180 
 4162000   0.60614032   -7.5451137    843.61194  0.016891157  0.015911989          182 
 4163000   0.57780192   -7.5485071    842.59536   0.01686675  0.015907061          170 
 4164000   0.58350686   -7.5519746    841.78546  0.016846491  0.015902138          176 
 4165000   0.57915704   -7.5514087    843.97188  0.016886192   0.01589722          143 
 4166000   0.60462328   -7.5571414      842.734  0.016857377  0.015892288          124 
 4167000   0.58322162   -7.5223453     841.0981  0.016820616   0.01588737          224 
 4168000   0.58118115   -7.5409099    842.55883  0.016845786  0.015882453          129 
 4169000   0.57565683   -7.5583206    842.47141  0.016839998  0.015877536           92 
 4170000   0.58128566   -7.5378901    842.97701  0.016846063  0.015872626          152 
 4171000   0.58154471   -7.5794198    843.75876  0.016857643  0.015867716          101 
 4172000   0.58663971   -7.5457364    843.37833  0.016846004  0.015862807          164 
 4173000    0.5939527    -7.534793    844.22954  0.016858965  0.015857905           93 
 4174000    0.5753471   -7.5319036    841.78708  0.016806163  0.015853002          129 
 4175000   0.58417605   -7.5487572     842.6414   0.01681919  0.015848099          123 
 4176000   0.59130502   -7.5511512    842.18615  0.016806077   0.01584319          105 
 4177000   0.58825036   -7.5541919    842.37596  0.016805841  0.015838292          139 
 4178000   0.57894217    -7.552621    843.09492  0.016816158  0.015833391          206 
 4179000   0.56762957   -7.5548479     842.4855  0.016799982  0.015828487          151 
 4180000   0.59259272   -7.5417723    843.32755   0.01681275  0.015823579          132 
 4181000   0.56972058   -7.5474608    843.21442  0.016806474   0.01581867          154 
 4182000   0.58416855   -7.5288198    842.61286  0.016790468  0.015813768          155 
 4183000   0.59504677   -7.5424226    841.87778   0.01677181  0.015808864          131 
 4184000   0.57937844   -7.5563369    842.28004  0.016775813  0.015803969          115 
 4185000   0.59059012    -7.554999    841.68646  0.016759985  0.015799071          114 
 4186000   0.58469729   -7.5653271    842.44614  0.016771105   0.01579418          150 
 4187000    0.5816368   -7.5753677    842.06396  0.016759493  0.015789286          188 
 4188000   0.57861052   -7.5560853    842.40754  0.016762328  0.015784396          100 
 4189000    0.5811911   -7.5579153     841.4014  0.016738311  0.015779505          124 
 4190000   0.57874643   -7.5521717    842.89141   0.01676395  0.015774615           99 
 4191000   0.58801241    -7.561934    842.96692  0.016761452  0.015769733          159 
 4192000   0.58501756   -7.5718423    842.24994    0.0167432  0.015764847           90 
 4193000   0.58032676   -7.5639352    843.84015  0.016770812  0.015759966          185 
 4194000   0.56942693    -7.564797    840.87041  0.016707805  0.015755087          146 
 4195000   0.57781489   -7.5577643    842.93419  0.016744819  0.015750212          189 
 4196000   0.56729317   -7.5796083    841.34009  0.016709169  0.015745338          189 
 4197000   0.58698789   -7.5607576    841.71409  0.016712614  0.015740467          118 
 4198000   0.57674355   -7.5825711    842.39087  0.016722067  0.015735595          104 
 4199000    0.5952655   -7.5635825    842.86931   0.01672758  0.015730723          112 
 4200000   0.57953841   -7.5692505    841.90926  0.016704549  0.015725862          179 
 4201000    0.5818037   -7.5529657    843.09875  0.016724168  0.015720999          102 
 4202000   0.57708015   -7.5655715    842.79158  0.016714096  0.015716138          125 
 4203000   0.57422963   -7.5469208    842.44334  0.016703215  0.015711281          109 
 4204000    0.5590942   -7.5767086    843.92245  0.016728561  0.015706416          173 
 4205000   0.58227414   -7.5552009    842.95948  0.016705499  0.015701563           94 
 4206000   0.58004772   -7.5633734    843.61139  0.016714443  0.015696712          103 
 4207000   0.58106494   -7.5627941    843.18524  0.016702029   0.01569185          123 
 4208000   0.57273245   -7.5627498    842.43388   0.01668318  0.015686989           80 
 4209000   0.56602793   -7.5615034    842.77163  0.016685904  0.015682132          105 
 4210000   0.58214392   -7.5617169    842.21817  0.016670985  0.015677277          120 
 4211000   0.57682988   -7.5650001     842.6532  0.016675635  0.015672426           84 
 4212000   0.58112784   -7.5442357    843.23246  0.016683137  0.015667579           89 
 4213000   0.57920261   -7.5655679    842.06642  0.016656112  0.015662731          109 
 4214000   0.57373907   -7.5570573    841.42626  0.016639501  0.015657885          129 
 4215000   0.57635098   -7.5821935      842.873  0.016664156  0.015653041           89 
 4216000   0.57779522    -7.578376    843.21044  0.016666873  0.015648198           73 
 4217000   0.57548321   -7.5788392    841.82564  0.016635555   0.01564335          108 
 4218000   0.57019143   -7.5554548    843.05897  0.016655978  0.015638512           94 
 4219000   0.58026887   -7.5747405    842.48456  0.016640684  0.015633678          132 
 4220000   0.57839164   -7.5419041    842.02225  0.016627612  0.015628849           96 
 4221000   0.57698246   -7.5791397     842.0575  0.016624368  0.015624015           99 
 4222000   0.57435216    -7.544226    843.10876   0.01664118   0.01561919          118 
 4223000   0.58067187   -7.5516357    843.02464   0.01663558  0.015614368          119 
 4224000   0.58072714   -7.5487379    842.18698  0.016615116  0.015609547          116 
 4225000    0.5795706    -7.560146    843.06337  0.016628469   0.01560473          120 
 4226000   0.58099188   -7.5419483    842.31699  0.016609816   0.01559991           98 
 4227000   0.56266687   -7.5793164    844.02874  0.016639633  0.015595088           98 
 4228000   0.59003581   -7.5864725    841.18195  0.016579587  0.015590272          133 
 4229000   0.58111249   -7.5716831    841.84342  0.016588701  0.015585447          114 
 4230000   0.56838413   -7.5491034    842.34649   0.01659469  0.015580626          134 
 4231000   0.55960573   -7.5860609    843.36795  0.016610887  0.015575799          106 
 4232000   0.58135686   -7.5579518    844.42935  0.016627862   0.01557098          116 
 4233000   0.56908623   -7.5584615    842.00421  0.016576191  0.015566161          101 
 4234000   0.58281871   -7.5632435    841.75049  0.016567283   0.01556134          142 
 4235000   0.57421867   -7.5632725    842.23184  0.016572842  0.015556524          109 
 4236000   0.57819629   -7.5701478    841.98855  0.016564144  0.015551708           90 
 4237000   0.57921939   -7.5543853    843.80882  0.016596035  0.015546895          104 
 4238000   0.57345007   -7.5426787    844.10867  0.016598015  0.015542093          100 
 4239000   0.57802037   -7.5631417    841.93929  0.016551453   0.01553729           85 
 4240000   0.56442769   -7.5612215    843.32529  0.016574789  0.015532486          111 
 4241000   0.56611028   -7.5764609    842.78666  0.016560297  0.015527676          115 
 4242000   0.57035418   -7.5674117    843.04701  0.016561508  0.015522869          121 
 4243000   0.57112137    -7.580791    842.62674  0.016549351  0.015518061          129 
 4244000   0.56633965   -7.5657771    841.02518  0.016514004  0.015513255          103 
 4245000   0.56561034   -7.5737389    845.43423  0.016596667  0.015508463          116 
 4246000   0.57392887   -7.5500406    841.40857   0.01651375  0.015503669          136 
 4247000   0.58304886   -7.5514421    841.59276  0.016513475  0.015498874          125 
 4248000   0.57204277    -7.556067    843.17286  0.016540585  0.015494074          114 
 4249000   0.58421849   -7.5520344    842.84329  0.016530228  0.015489288          149 
 4250000   0.58983603    -7.584332    843.80977   0.01654529    0.0154845          148 
 4251000   0.56784845   -7.5739196    842.63886  0.016518444  0.015479703          124 
 4252000   0.57379851   -7.5631374    841.75313    0.0164972  0.015474918          100 
 4253000   0.57411317    -7.568918    842.32262   0.01650448  0.015470131          121 
 4254000   0.56876401   -7.5786407    843.29175  0.016519585  0.015465344          142 
 4255000   0.57111445   -7.5558596    843.31822  0.016516221  0.015460559          123 
 4256000   0.56529245   -7.5710251     841.3943  0.016474669  0.015455774          152 
 4257000   0.56674421   -7.5727604    841.74139  0.016477594  0.015450992          127 
 4258000   0.57957693    -7.567291    842.58179  0.016490171  0.015446216          147 
 4259000   0.57468153   -7.5743498     842.2654  0.016480109   0.01544143          142 
 4260000   0.56845052   -7.5885173    842.34835  0.016477863  0.015436655          115 
 4261000   0.56181902    -7.554093    844.34557  0.016513056  0.015431879          154 
 4262000   0.57375617   -7.5671183    841.95045  0.016462351  0.015427106          112 
 4263000   0.57275066   -7.5801774    841.54987  0.016450658  0.015422327          107 
 4264000   0.57491673   -7.5823338    842.14356  0.016458403  0.015417556          182 
 4265000   0.57975787      -7.5861    841.35081  0.016439054   0.01541278          139 
 4266000   0.57728572    -7.583244     841.3362  0.016434916  0.015408003          112 
 4267000   0.55172068   -7.5799409    842.03765  0.016444763  0.015403223          121 
 4268000   0.56669501   -7.5740845    842.24565  0.016444971  0.015398446          127 
 4269000   0.56859109   -7.5689234    842.92278  0.016454337   0.01539367          126 
 4270000   0.56620173   -7.5791511    843.25278  0.016456924  0.015388904          139 
 4271000    0.5608224   -7.5707583    842.72793   0.01644283  0.015384134          117 
 4272000   0.56667098    -7.564493    841.83708  0.016421603  0.015379363          127 
 4273000    0.5606914   -7.5798503    842.66615  0.016433929  0.015374595          156 
 4274000   0.56229764   -7.5483432    841.84397  0.016414053  0.015369827          167 
 4275000   0.55375422   -7.5706664    843.05429  0.016433807  0.015365058          131 
 4276000   0.56568253   -7.5717996    841.00447  0.016390015  0.015360292          134 
 4277000   0.56268755    -7.579801    840.84796  0.016383134  0.015355524          109 
 4278000   0.56692548   -7.5706604     840.7749  0.016377881  0.015350749          138 
 4279000   0.58265805   -7.5826943    840.61027  0.016370847   0.01534598          130 
 4280000   0.55145128    -7.579699    840.84679  0.016371627   0.01534121          176 
 4281000   0.56418737   -7.5777522    840.96231  0.016370052   0.01533644          122 
 4282000   0.56136387   -7.5798656    841.79022  0.016382341  0.015331662          119 
 4283000   0.56370346   -7.5911679    841.44929  0.016371883  0.015326898          136 
 4284000   0.56391968   -7.5986962    841.44862  0.016368048  0.015322129          109 
 4285000   0.57162191   -7.5802396    841.14946   0.01635841  0.015317359          113 
 4286000   0.56967007   -7.5715853    840.87927   0.01634934  0.015312586          160 
 4287000   0.55737992   -7.5767239    843.21738  0.016390976  0.015307821          138 
 4288000   0.57914459   -7.5807186    840.77532  0.016339694  0.015303057          137 
 4289000   0.56483319    -7.574726    841.39831  0.016347989  0.015298292          140 
 4290000   0.55907437   -7.5665189    840.46634  0.016326075   0.01529353          126 
 4291000   0.56951543    -7.594314    840.27931  0.016318638  0.015288769          104 
 4292000   0.55928663    -7.584897     842.0175  0.016348584  0.015284009          157 
 4293000   0.56521806   -7.5730966    842.39593  0.016352122   0.01527926          144 
 4294000   0.55707292   -7.6043322    842.29393  0.016346335  0.015274503          137 
 4295000   0.57325592   -7.5717235    842.15391  0.016339812  0.015269747          132 
 4296000   0.56816723   -7.5591115     841.2506  0.016318486     0.015265          148 
 4297000   0.56397723   -7.6113664    841.80271  0.016325396  0.015260252          145 
 4298000   0.55690365   -7.5756318    843.58563  0.016356166  0.015255511          149 
 4299000   0.57442704   -7.5855779    841.06526  0.016303506  0.015250769          174 
 4300000   0.56190808   -7.5849452    840.72535  0.016293127  0.015246022          154 
 4301000    0.5659945   -7.6152333     840.0798  0.016276831   0.01524127          161 
 4302000   0.55826987   -7.5902294    841.49533  0.016300467  0.015236529          146 
 4303000   0.57924095    -7.577375    842.48334  0.016315813   0.01523179          106 
 4304000   0.56392956   -7.6091198    839.10033  0.016246521  0.015227054           96 
 4305000    0.5598694   -7.5863242    840.69625   0.01627364  0.015222316          120 
 4306000   0.55776963   -7.5970614    840.39828  0.016264094  0.015217587          119 
 4307000   0.55787631   -7.6054645    841.83352  0.016288088   0.01521285          137 
 4308000   0.55002996   -7.6054036     842.6586  0.016300267  0.015208116          155 
 4309000   0.54899693   -7.6024671    841.22985  0.016268853  0.015203378          135 
 4310000   0.56042375   -7.5980782    841.55652  0.016271394  0.015198645          115 
 4311000   0.54571889   -7.5834173    841.11784   0.01625914  0.015193917          121 
 4312000     0.557017   -7.5865596    842.68499  0.016285656   0.01518919          141 
 4313000   0.55192021   -7.5772886    840.58838  0.016241371  0.015184474          142 
 4314000   0.55932315   -7.6042792    842.67336  0.016277881  0.015179746          199 
 4315000   0.55634125   -7.5860897    840.31895  0.016228639  0.015175028          204 
 4316000   0.56254466   -7.5764872    842.26956  0.016262542  0.015170307          182 
 4317000   0.55928714   -7.5891075    840.89395  0.016232221   0.01516559          178 
 4318000   0.56351733    -7.609963    840.30252  0.016217047  0.015160872          125 
 4319000   0.55839048   -7.5863064    840.96036  0.016225985  0.015156152          165 
 4320000   0.55901067   -7.5775252    841.72059  0.016236894  0.015151437          164 
 4321000   0.55703373   -7.6049117    842.07237  0.016239921  0.015146731          167 
 4322000   0.55308343   -7.5916917    842.36136  0.016241735  0.015142027          163 
 4323000   0.56935745   -7.5911991    841.03984  0.016212504  0.015137326          180 
 4324000   0.56873828   -7.5942901    842.45129  0.016235956  0.015132621          147 
 4325000   0.56131892   -7.5911396    842.13526  0.016226113   0.01512792          196 
 4326000   0.56647186   -7.6118663    841.90439  0.016217915  0.015123219          145 
 4327000   0.56101251    -7.571419    842.58745  0.016227322  0.015118522          155 
 4328000   0.55160911   -7.6028789    840.70343  0.016187296  0.015113829          125 
 4329000   0.55969314   -7.5872446    841.44054  0.016197747  0.015109136          163 
 4330000   0.55991158   -7.5837843    841.61502  0.016197364  0.015104442          138 
 4331000   0.56255774   -7.5906066    840.29212   0.01616817  0.015099744          137 
 4332000   0.56001076   -7.5924544    840.79675  0.016174145   0.01509505          217 
 4333000   0.53752752   -7.6126343    840.65889  0.016167761  0.015090353          149 
 4334000   0.56240096   -7.6131269    841.48636  0.016179941  0.015085649          124 
 4335000   0.56062795   -7.6056041    842.03362  0.016186729  0.015080946          140 
 4336000     0.561635   -7.6142036    840.64224  0.016156255  0.015076243          151 
 4337000    0.5505736   -7.6085734    839.39092  0.016128486  0.015071545          156 
 4338000   0.56116124   -7.5965894    840.51392  0.016146341  0.015066847          136 
 4339000   0.55505551   -7.6111893    840.02939  0.016133314  0.015062144          136 
 4340000   0.55457422   -7.5897707    841.51017  0.016158029  0.015057451          103 
 4341000   0.55065944   -7.6142823    840.44296   0.01613382  0.015052754          138 
 4342000   0.55395449   -7.6086012    840.70716  0.016135175  0.015048062          131 
 4343000   0.55853817   -7.6085732    840.96705  0.016136446  0.015043364          169 
 4344000   0.55245541   -7.6066697    840.40784  0.016122004  0.015038676          151 
 4345000   0.54979818   -7.5877397    841.38506  0.016137036  0.015033984          143 
 4346000   0.54542892   -7.6314137    840.04361  0.016107601  0.015029295          152 
 4347000   0.54746137   -7.5917036    839.68176  0.016096959  0.015024608          137 
 4348000   0.56121632   -7.6073482    839.98539  0.016099076  0.015019924          164 
 4349000   0.55381796   -7.5965323    841.24499   0.01611951  0.015015236          134 
 4350000   0.54834814   -7.6031015     839.3798  0.016080073  0.015010548          164 
 4351000    0.5615551   -7.6077772      840.956  0.016106566  0.015005864          186 
 4352000    0.5514717   -7.6089422    841.34869  0.016110384  0.015001181          162 
 4353000   0.56124058   -7.6345137    841.83805  0.016116051  0.014996494          182 
 4354000   0.56935116    -7.641463    840.91566  0.016094696   0.01499181          192 
 4355000    0.5507843   -7.6151784    839.23983  0.016058933  0.014987126          200 
 4356000   0.55125052   -7.6239213    840.67865  0.016082772  0.014982444          159 
 4357000   0.55252998   -7.6228254    840.28894  0.016071627  0.014977764          132 
 4358000   0.54775104   -7.6142895    840.14509  0.016065188  0.014973085          194 
 4359000   0.56913527   -7.6263472    840.13394   0.01606129  0.014968409          173 
 4360000   0.55800249   -7.6177542      838.674  0.016029702  0.014963725          203 
 4361000   0.55793456   -7.6192108    840.14423   0.01605412  0.014959044          164 
 4362000   0.55497079    -7.633452     839.1319    0.0160311  0.014954358          211 
 4363000   0.55424258   -7.6362222    840.65107  0.016056442  0.014949679          172 
 4364000   0.55907908   -7.6205086    841.67962  0.016072403  0.014945006          211 
 4365000   0.55787496   -7.6255448    838.75453  0.016012878  0.014940325          178 
 4366000   0.55030987   -7.6347845    841.62623  0.016064022   0.01493565          166 
 4367000   0.56106703   -7.6078386    838.40955  0.015998961  0.014930969          234 
 4368000   0.56359193   -7.6235325    839.35783   0.01601339  0.014926293          213 
 4369000   0.55566385   -7.6132259    838.77023  0.015998517  0.014921622          186 
 4370000    0.5615135   -7.6309829    839.80971  0.016014678  0.014916954          181 
 4371000   0.55696871   -7.6255709    840.59913  0.016026064  0.014912287          212 
 4372000   0.55834581   -7.6095203     838.5372  0.015983097  0.014907619          207 
 4373000   0.56392306   -7.6401182    839.23148  0.015992672  0.014902953          215 
 4374000   0.56443295   -7.6166693    840.52429  0.016013647  0.014898284          175 
 4375000   0.55172377   -7.6189166    840.41427  0.016007891  0.014893617          177 
 4376000   0.55119899   -7.6130009    839.82705   0.01599305  0.014888948          246 
 4377000   0.54088911   -7.6110738    839.03111  0.015974242  0.014884285          229 
 4378000   0.54417748   -7.6108443    839.16903  0.015973219  0.014879624          185 
 4379000   0.55543462   -7.6387429    840.09786  0.015987247  0.014874966          241 
 4380000   0.55513756   -7.6124287    838.33697  0.015950094  0.014870306          251 
 4381000   0.55263506   -7.6271568    840.45029  0.015986652  0.014865656          223 
 4382000   0.54363323   -7.6291176    840.47615  0.015983496  0.014861007          272 
 4383000   0.54880436   -7.6271794    840.16237  0.015973883   0.01485636          236 
 4384000   0.56103833   -7.6339218    839.10797  0.015950197  0.014851708          243 
 4385000   0.54263543   -7.6365389    839.81094  0.015959919  0.014847055          219 
 4386000   0.54491491   -7.6260134    839.27666  0.015946129  0.014842405          172 
 4387000   0.54041453   -7.6249451     839.2796   0.01594255  0.014837754          188 
 4388000   0.55422253   -7.6307041    838.82365  0.015930258  0.014833106          297 
 4389000   0.55835427   -7.6219543    840.47017   0.01595789  0.014828461          183 
 4390000   0.54444694   -7.6212473    839.88385  0.015943126  0.014823822          195 
 4391000   0.55255342   -7.6339536    839.47789   0.01593179   0.01481918          253 
 4392000    0.5441926   -7.6339534    839.38145  0.015926333  0.014814542          243 
 4393000   0.54403197   -7.6118605    839.11495  0.015917652  0.014809899          213 
 4394000   0.56081636   -7.6235491    838.75596  0.015907221  0.014805259          308 
 4395000    0.5477406    -7.610754    840.54584   0.01593754  0.014800622          232 
 4396000   0.55497516   -7.6168459    840.82792  0.015939261  0.014795993          278 
 4397000   0.55067256   -7.6380535    839.30101  0.015906698  0.014791365          266 
 4398000   0.53891662   -7.6258937    838.21192  0.015882445  0.014786734          235 
 4399000   0.54400218   -7.6259734    839.22841  0.015898091   0.01478211          284 
 4400000   0.54299393   -7.6043225     840.4727  0.015918043  0.014777483          253 
 4401000   0.55010767   -7.6270656    841.02396  0.015924865  0.014772858          218 
 4402000   0.54480263   -7.6199236     839.4836  0.015892087  0.014768226          171 
 4403000   0.55790957   -7.6087957      838.548   0.01587077  0.014763607          212 
 4404000   0.54690454   -7.6136418    839.19061  0.015879326  0.014758983          290 
 4405000   0.53419419   -7.6303261    839.64073  0.015884236  0.014754369          246 
 4406000    0.5407158   -7.6228626    840.38382  0.015894686  0.014749756          233 
 4407000   0.55137378    -7.632954    837.99826   0.01584597  0.014745143          289 
 4408000   0.55532872   -7.6254871    839.51499  0.015871049   0.01474053          249 
 4409000   0.55599665   -7.6335738    839.78419  0.015872537   0.01473592          308 
 4410000   0.53762748   -7.6269369    839.94241  0.015871928  0.014731311          255 
 4411000   0.54221144   -7.6242047    839.93616  0.015868211  0.014726705          223 
 4412000   0.55086368   -7.6431202    839.59605  0.015858191   0.01472209          274 
 4413000    0.5391192   -7.6287332    838.78123  0.015839211  0.014717478          272 
 4414000   0.55155832   -7.6225763    837.41014  0.015809737  0.014712864          299 
 4415000   0.54745458   -7.6367134    838.45763  0.015825927  0.014708256          308 
 4416000    0.5473305   -7.6505844    839.56038  0.015843153  0.014703651          247 
 4417000   0.54023496   -7.6286995    840.04807  0.015848767  0.014699046          144 
 4418000   0.54799317   -7.6510315    839.39154  0.015832797  0.014694442          288 
 4419000   0.54673569   -7.6383535     841.9332  0.015877144  0.014689837          236 
 4420000    0.5447262   -7.6301769    839.86092  0.015834482  0.014685234          296 
 4421000   0.54485819   -7.6237312    840.83971   0.01584935  0.014680635          236 
 4422000   0.54516063   -7.6145322    838.53494  0.015802332  0.014676041          300 
 4423000   0.52766237   -7.6255037    837.49866  0.015779235  0.014671443          293 
 4424000   0.53414726   -7.6478029    838.98713  0.015803706  0.014666847          240 
 4425000   0.53902217   -7.6362005    838.46662  0.015790332  0.014662257          222 
 4426000   0.53917002   -7.6379809    839.24528  0.015801425  0.014657667          164 
 4427000   0.52951302   -7.6386827    839.00436  0.015793321  0.014653085          224 
 4428000   0.54073569   -7.6347059    839.23836  0.015794158    0.0146485          269 
 4429000   0.54744253   -7.6547878    839.97873  0.015804522  0.014643917          219 
 4430000   0.53722644   -7.6425727    838.88088  0.015780303  0.014639332          202 
 4431000   0.54999386   -7.6275063    838.87796  0.015776686  0.014634752          281 
 4432000   0.54945394   -7.6437448    838.15706  0.015759572  0.014630172          245 
 4433000   0.54032596   -7.6325385    839.10738  0.015773881   0.01462559          214 
 4434000   0.55006111   -7.6296365    838.85403  0.015765562  0.014621012          236 
 4435000   0.53717034   -7.6375442    839.16558  0.015767861  0.014616425          289 
 4436000   0.54765218   -7.6380494    838.51074  0.015752005  0.014611843          298 
 4437000   0.55368367     -7.63693    838.54846  0.015749163  0.014607267          225 
 4438000   0.54196004   -7.6441225    839.28646  0.015759472  0.014602692          251 
 4439000   0.53181775   -7.6445582    840.61154  0.015780798  0.014598127          269 
 4440000   0.53995051   -7.6244607    840.03404  0.015766405  0.014593566          274 
 4441000    0.5582526   -7.6385654    839.79577  0.015758383  0.014589005          260 
 4442000   0.54163709   -7.6314903    839.11301  0.015742027  0.014584442          291 
 4443000   0.54450348   -7.6288517    840.07989  0.015756619  0.014579879          255 
 4444000   0.52778248   -7.6140973    837.62712  0.015707079  0.014575316          251 
 4445000   0.54879036   -7.6408282    838.23677  0.015714975  0.014570761          238 
 4446000   0.53897341   -7.6329312    838.66242  0.015719419  0.014566208          276 
 4447000   0.53955616   -7.6489315      839.401  0.015729724  0.014561653          248 
 4448000   0.54176523   -7.6460781    837.95007  0.015699005  0.014557094          247 
 4449000   0.54196611   -7.6266893    839.66337  0.015727567  0.014552543          240 
 4450000   0.53708285   -7.6530189    839.99311  0.015730208  0.014547989          224 
 4451000   0.54933179   -7.6471121    838.43604  0.015697522  0.014543433          245 
 4452000   0.52560587   -7.6394695    839.20351  0.015708362  0.014538881          283 
 4453000   0.54062471   -7.6411675    839.18496  0.015704487  0.014534332          258 
 4454000   0.53720712   -7.6280992    839.52078  0.015707244  0.014529777          264 
 4455000   0.53681384   -7.6341243    838.93701  0.015692799  0.014525228          296 
 4456000   0.54843398   -7.6379614    839.77194  0.015704891  0.014520678          265 
 4457000   0.55157926   -7.6418217    837.46647  0.015658262  0.014516124          255 
 4458000    0.5439172   -7.6539399    839.14737   0.01568617  0.014511575          259 
 4459000   0.53210072   -7.6561399    837.83258  0.015658081  0.014507026          297 
 4460000   0.54570197   -7.6343459    838.42421  0.015665624  0.014502484          260 
 4461000    0.5526391   -7.6339258    838.05244  0.015655168  0.014497939          198 
 4462000   0.52620236   -7.6421395    839.24534  0.015673938    0.0144934          261 
 4463000   0.53932454   -7.6541597    839.23527  0.015670238  0.014488859          296 
 4464000   0.53625278   -7.6451631    839.33957  0.015668675  0.014484322          281 
 4465000   0.53838137   -7.6452259    840.12319  0.015679791  0.014479784          262 
 4466000   0.53881354   -7.6509096    838.39095  0.015643957  0.014475248          257 
 4467000   0.54624922   -7.6470078    837.59964  0.015625693  0.014470715          251 
 4468000   0.52542313   -7.6356937    837.71057  0.015624265   0.01446618          263 
 4469000   0.53339631   -7.6395971    837.91008  0.015624489  0.014461649          167 
 4470000   0.54516862   -7.6313762     838.0181  0.015623007  0.014457125          257 
 4471000   0.54108862   -7.6603761    838.33726  0.015625461  0.014452592          296 
 4472000   0.53021756   -7.6580023    837.28143  0.015602293  0.014448064          283 
 4473000   0.53183981   -7.6389495    837.68264  0.015606279  0.014443538          271 
 4474000   0.52808059   -7.6458457    839.56106  0.015637779   0.01443902          284 
 4475000   0.53488209    -7.647252    838.65452  0.015617403    0.0144345          286 
 4476000   0.54242548   -7.6593571    839.13639  0.015622885  0.014429977          275 
 4477000   0.53317191   -7.6512924     839.8404    0.0156325   0.01442546          301 
 4478000   0.54472285    -7.640675    838.12098  0.015597011  0.014420951          279 
 4479000   0.53373169    -7.648226    836.80894  0.015569118  0.014416444          323 
 4480000   0.53668322   -7.6507347     838.3545  0.015594392  0.014411934          280 
 4481000   0.53349728   -7.6714922    838.22775  0.015588555  0.014407425          291 
 4482000   0.53945892   -7.6330765    839.00008  0.015599436  0.014402917          290 
 4483000   0.54012295   -7.6523974     839.1092  0.015597985  0.014398403          300 
 4484000   0.53615141   -7.6488378    838.17549  0.015577154  0.014393891          278 
 4485000   0.52866579   -7.6662991    838.50448  0.015579793   0.01438938          316 
 4486000   0.54032936   -7.6368034    838.19702  0.015570609  0.014384873          319 
 4487000   0.52641235   -7.6471557    837.72968  0.015558459  0.014380368          273 
 4488000   0.54017485   -7.6444322    839.42795  0.015586526  0.014375859          184 
 4489000   0.53674277   -7.6516631    838.44866  0.015564875  0.014371355          258 
 4490000   0.53030381   -7.6528923    838.79546  0.015567844  0.014366853          307 
 4491000   0.52514156   -7.6585419     839.7679  0.015582422  0.014362349          275 
 4492000   0.53019195    -7.639048    838.80469  0.015561084  0.014357855          320 
 4493000   0.54431769    -7.653966    837.16327  0.015527177   0.01435336          306 
 4494000   0.54788128   -7.6656391    837.99695  0.015539181  0.014348861          297 
 4495000   0.55368359   -7.6706738    838.72216  0.015549169  0.014344366          305 
 4496000   0.53352011   -7.6503005    838.89826  0.015548974  0.014339873          327 
 4497000   0.53507178   -7.6566864    837.85685  0.015526218   0.01433538          299 
 4498000   0.53746374   -7.6728012     838.4855  0.015534413  0.014330885          301 
 4499000    0.5402742   -7.6526703    837.83856  0.015518978  0.014326392          365 
 4500000    0.5365255   -7.6625896    838.28116  0.015523725  0.014321896          307 
 4501000   0.53148245   -7.6532537    837.95063  0.015514157  0.014317404          337 
 4502000   0.52873449   -7.6560827    837.74964   0.01550699  0.014312918          337 
 4503000   0.52039512    -7.647669    839.29076  0.015532067  0.014308432          300 
 4504000   0.52556109    -7.645675    838.04477  0.015505565   0.01430395          322 
 4505000   0.53748863   -7.6419427    837.71605  0.015496042   0.01429947          321 
 4506000   0.53686505   -7.6621885    837.72517  0.015492772  0.014294985          288 
 4507000   0.53432835   -7.6659623    836.77254  0.015471721  0.014290499          330 
 4508000   0.53303504   -7.6724605     838.1643  0.015494016  0.014286022          357 
 4509000   0.53889379   -7.6300976    838.05246  0.015488513  0.014281547          354 
 4510000   0.52866717   -7.6486898    837.93409  0.015482892  0.014277073          316 
 4511000   0.51972897   -7.6470199    839.19642  0.015502779  0.014272598          302 
 4512000   0.52334303   -7.6535709    836.47487  0.015449078  0.014268125          319 
 4513000   0.54103216   -7.6512419    837.56913   0.01546586  0.014263656          300 
 4514000   0.53498049   -7.6527637    836.81419  0.015448497  0.014259183          301 
 4515000   0.51189477   -7.6715399    837.41806  0.015456221  0.014254716          292 
 4516000   0.53891773   -7.6456448    836.59844  0.015437674  0.014250247          383 
 4517000   0.52487266   -7.6634624    838.07615  0.015461519  0.014245781          330 
 4518000   0.53607909   -7.6724447    838.34675  0.015463087  0.014241317          327 
 4519000    0.5327122    -7.644471    838.39784  0.015460608  0.014236852          339 
 4520000   0.52742233   -7.6704801    837.87653  0.015447576  0.014232389          351 
 4521000     0.535429   -7.6557271    837.28319  0.015433223   0.01422793          324 
 4522000   0.53258404   -7.6584978    838.21665  0.015447012  0.014223474          344 
 4523000   0.53369978    -7.668156     838.5869  0.015450418  0.014219021          318 
 4524000   0.52453615   -7.6730763    837.85738  0.015433565  0.014214558          268 
 4525000   0.52903542   -7.6724842    837.95776  0.015432003  0.014210105          303 
 4526000   0.52490993   -7.6580428    837.97392  0.015428891  0.014205657          268 
 4527000   0.52352624   -7.6485291    837.38777  0.015414693  0.014201209          302 
 4528000   0.50992397   -7.6742139      837.444  0.015412323  0.014196759          315 
 4529000   0.52912553   -7.6559624    838.00167  0.015419181  0.014192312          336 
 4530000   0.52442124   -7.6673136    837.28764  0.015402642  0.014187863          336 
 4531000   0.52948143   -7.6566595    837.91145  0.015410716  0.014183414          256 
 4532000   0.52182052   -7.6778353    836.19097   0.01537568  0.014178966          331 
 4533000   0.52488651   -7.6622724    835.97347  0.015368289  0.014174517          285 
 4534000   0.53090439   -7.6639294    837.01633  0.015384067   0.01417007          310 
 4535000   0.52579026   -7.6569533    837.47652  0.015389131  0.014165623          302 
 4536000   0.53315337   -7.6749843    837.26894  0.015381925  0.014161183          368 
 4537000   0.51336954   -7.6879382    837.51511  0.015383056  0.014156736          317 
 4538000   0.52458406   -7.6729956    837.75433  0.015384059  0.014152299          351 
 4539000   0.53530931     -7.65531    836.76586  0.015362522  0.014147862          369 
 4540000   0.52066519   -7.6702899    837.19775  0.015367066  0.014143427          332 
 4541000   0.52687001   -7.6791412    836.26783  0.015346617  0.014138996          308 
 4542000   0.51967589   -7.6595185    837.06665  0.015357894  0.014134562          343 
 4543000   0.52811202   -7.6722252    837.05262  0.015354256  0.014130135          321 
 4544000   0.52391709   -7.6703831    838.14619  0.015370932  0.014125705          341 
 4545000   0.52224138   -7.6676456    836.93205  0.015345289  0.014121277          384 
 4546000   0.53285191   -7.6577993    838.14415  0.015364132  0.014116851          377 
 4547000   0.53354444   -7.6747149    837.09618  0.015341547   0.01411243          280 
 4548000   0.51825396   -7.6700336    838.07201  0.015356054  0.014108015          340 
 4549000   0.52766818   -7.6914305    836.96197  0.015332344  0.014103599          346 
 4550000   0.52724634   -7.6727413    837.51166  0.015339041  0.014099182          318 
 4551000    0.5243705   -7.6610694    837.74522  0.015339948  0.014094771          317 
 4552000   0.52095241   -7.6650066    837.97201   0.01534073  0.014090355          330 
 4553000   0.52762132    -7.647849    837.28449  0.015324777  0.014085942          378 
 4554000   0.52839286   -7.6598418    837.85934  0.015331931  0.014081535          303 
 4555000   0.52406942   -7.6689732    837.38277  0.015319846  0.014077122          333 
 4556000   0.53031192   -7.6723733    837.15857  0.015312382  0.014072713          373 
 4557000   0.50979543     -7.68389    836.00295  0.015287889  0.014068303          342 
 4558000   0.50900529   -7.6664237    837.76735  0.015316794  0.014063896          331 
 4559000   0.52578254   -7.6736645    836.53205  0.015290854   0.01405949          343 
 4560000   0.52180778   -7.6877419    836.73533  0.015291216  0.014055082          373 
 4561000   0.51912785   -7.6658354     837.2174  0.015296671  0.014050685          349 
 4562000   0.51683909   -7.6500458    836.77335  0.015285207  0.014046286          389 
 4563000   0.52695362   -7.6812345    837.52577  0.015295598  0.014041894          329 
 4564000   0.50936879    -7.676468    838.05592  0.015301927  0.014037502          328 
 4565000   0.51830072   -7.6826404    836.24177  0.015265458  0.014033108          343 
 4566000   0.52780166   -7.6605947    836.84802  0.015273179   0.01402871          324 
 4567000   0.52019719   -7.6766535    836.42614  0.015262137  0.014024318          325 
 4568000   0.52007848   -7.6839139    836.80202  0.015265653  0.014019931          345 
 4569000   0.52937556   -7.6611323    836.35114  0.015254088  0.014015542          325 
 4570000   0.52194658    -7.671269    837.32112  0.015268438  0.014011149          377 
 4571000    0.5329533   -7.6883856    836.31865  0.015246821  0.014006753          337 
 4572000   0.50507446   -7.6785712    837.75049  0.015269585  0.014002368          352 
 4573000   0.51751851   -7.6720617    837.10165  0.015254422  0.013997976          346 
 4574000   0.52863021   -7.6924683    835.85923  0.015228451  0.013993589          309 
 4575000   0.52296936   -7.6738979    836.81832  0.015242592    0.0139892          326 
 4576000    0.5299076   -7.6773901    835.19124  0.015209631  0.013984811          433 
 4577000   0.50994944   -7.6799141    835.67638  0.015215141  0.013980428          373 
 4578000   0.51229126   -7.6888434    835.76565  0.015213442  0.013976041          346 
 4579000   0.51406148   -7.6826264    837.30893  0.015238206  0.013971655          388 
 4580000    0.5249823   -7.6964365    837.58986   0.01523999  0.013967279          370 
 4581000   0.52839977   -7.6767527    837.51407  0.015235285  0.013962901          364 
 4582000   0.51909876   -7.6926033     838.2446  0.015245246  0.013958528          346 
 4583000   0.51630517   -7.6962284    836.48852  0.015209988  0.013954154          381 
 4584000     0.512735   -7.6752739    835.98084  0.015197441  0.013949778          335 
 4585000   0.52014197   -7.6786091    836.25509  0.015199111  0.013945405          330 
 4586000   0.51856279   -7.6884662    836.57418  0.015201595  0.013941035          363 
 4587000   0.51240374   -7.6757533    836.59348  0.015198632  0.013936669          386 
 4588000   0.52058265   -7.6750531     836.7976  0.015199027    0.0139323          370 
 4589000   0.53175047   -7.6835342    837.64637  0.015211127  0.013927935          353 
 4590000   0.51468907   -7.6761123     835.2679  0.015164632  0.013923569          410 
 4591000   0.50700642   -7.6900287    835.93531  0.015173443  0.013919202          358 
 4592000   0.50677836   -7.6934009    837.14589  0.015192107  0.013914836          361 
 4593000   0.52491748   -7.6634656     837.1429  0.015188746  0.013910471          369 
 4594000   0.51406391   -7.6797748    838.35298   0.01520739  0.013906113          320 
 4595000   0.51695118   -7.6926193    835.82582  0.015158248  0.013901753          336 
 4596000   0.51554295   -7.6937514    836.63224  0.015169572  0.013897395          379 
 4597000   0.51524633   -7.6769696    836.52954   0.01516441  0.013893039          363 
 4598000   0.51988758   -7.6830815    837.59584  0.015180438  0.013888683          356 
 4599000     0.522049    -7.688125    835.88503  0.015146137  0.013884332          382 
 4600000   0.51222025   -7.6872913     834.9142  0.015125257  0.013879977          394 
 4601000   0.51447854   -7.6804206    837.56091  0.015169907  0.013875625          378 
 4602000   0.51175725   -7.6750692    835.70851  0.015133067  0.013871274          368 
 4603000   0.52412392   -7.6849294    836.03083  0.015135615  0.013866922          340 
 4604000   0.51321117   -7.6887137    835.47438  0.015122256  0.013862577          406 
 4605000   0.52363597   -7.6657592    835.61541  0.015121524  0.013858228          350 
 4606000   0.50815066   -7.7037415     834.2963  0.015094375  0.013853881          331 
 4607000   0.52593271   -7.6889153    835.21046  0.015107634  0.013849534          346 
 4608000   0.49577689   -7.6666188    835.17739  0.015103758   0.01384519          336 
 4609000   0.50150027   -7.6729186    836.37786  0.015122186   0.01384085          337 
 4610000   0.51364896    -7.686414    836.96525  0.015129524  0.013836506          368 
 4611000   0.51886367   -7.6952281    835.76845  0.015104613   0.01383217          400 
 4612000   0.51259916   -7.6901996    835.68813  0.015099887  0.013827831          370 
 4613000   0.51057101   -7.6916367    836.49253  0.015111145  0.013823498          412 
 4614000   0.50478712    -7.704002    835.46472  0.015089307  0.013819164          356 
 4615000   0.51276942    -7.683219    836.10722  0.015097638  0.013814831          347 
 4616000   0.52111174   -7.7005097    837.58056  0.015120966  0.013810498          347 
 4617000   0.51362231   -7.6924805    835.33257  0.015077117  0.013806162          356 
 4618000   0.52351023   -7.7065275    836.02298  0.015086311  0.013801831          370 
 4619000   0.51328927   -7.6909975    836.11445  0.015084695  0.013797499          357 
 4620000   0.50776143   -7.6962828    835.58635  0.015071904  0.013793171          410 
 4621000   0.52323708   -7.6835524    834.78357  0.015054165  0.013788845          328 
 4622000   0.51192062   -7.7089058    835.61818  0.015065956  0.013784523          374 
 4623000   0.52360123   -7.7035062    836.55094  0.015079511    0.0137802          328 
 4624000   0.51074313   -7.7036816    835.78067  0.015062368  0.013775882          387 
 4625000   0.51354488   -7.6897684    836.04148   0.01506381  0.013771565          402 
 4626000   0.51286728   -7.7134582    835.43206  0.015049576  0.013767251          328 
 4627000   0.51721782    -7.706813    836.14428  0.015059151  0.013762937          355 
 4628000   0.51243958    -7.700535    836.21608   0.01505719  0.013758624          380 
 4629000   0.51646479   -7.7055677    836.64142  0.015061594  0.013754315          369 
 4630000   0.51847819   -7.7082706    836.39351  0.015053879  0.013750003          366 
 4631000   0.50472915   -7.6982543    836.55491  0.015053532  0.013745696          374 
 4632000   0.52020605   -7.6950082    835.86431  0.015037858  0.013741392          357 
 4633000   0.50749934   -7.7059022    836.47097  0.015045524  0.013737084          326 
 4634000   0.51684525   -7.7003745    835.43435  0.015023636   0.01373278          312 
 4635000   0.51189453   -7.6914319    838.62966  0.015077844  0.013728477          331 
 4636000   0.50631151   -7.7002308    836.28838  0.015032506  0.013724174          372 
 4637000   0.51839532   -7.7086187    836.90518  0.015040349  0.013719876          341 
 4638000    0.5034556   -7.7031313    836.22196   0.01502483  0.013715575          353 
 4639000   0.50457683   -7.7072856    836.21609  0.015021486  0.013711276          347 
 4640000   0.51277908   -7.7071795    837.13022  0.015034666  0.013706981          386 
 4641000   0.50122449   -7.7001973    836.51439  0.015020369  0.013702691          387 
 4642000    0.4981962   -7.6966202    836.10034    0.0150097  0.013698401          396 
 4643000    0.5095694   -7.7126864    836.29525  0.015009966  0.013694115          371 
 4644000   0.52007781   -7.6846729    835.50574  0.014992566  0.013689826          397 
 4645000   0.50003579   -7.7021985    836.17911  0.015001419  0.013685546          399 
 4646000   0.50840251   -7.7127904    835.62808  0.014988307  0.013681263          383 
 4647000   0.50943633    -7.706806    835.11049    0.0149758  0.013676983          366 
 4648000   0.49874618   -7.7066995    838.36454  0.015030919  0.013672704          401 
 4649000   0.51217036   -7.6983281    836.24582  0.014989708  0.013668428          307 
 4650000   0.52043792   -7.7010567    836.05146  0.014983001  0.013664151          416 
 4651000   0.50712168   -7.7098963     835.8187  0.014975609  0.013659873          353 
 4652000   0.50873086    -7.690312    835.30059  0.014963109  0.013655599          360 
 4653000     0.504369   -7.6810958    835.45778  0.014962708  0.013651326          355 
 4654000    0.5089126   -7.6981168    836.25934  0.014973846  0.013647059          391 
 4655000   0.50272985   -7.6971753    836.42657  0.014973623  0.013642788          416 
 4656000   0.49415979   -7.7099108    835.20301  0.014948507  0.013638516          413 
 4657000   0.50612375   -7.7077432    835.31354  0.014947276  0.013634244          319 
 4658000   0.50454439    -7.704003    835.91265  0.014954785  0.013629976          380 
 4659000   0.50497462   -7.6943719    835.68093   0.01494743   0.01362571          452 
 4660000   0.49539946   -7.7158775    835.29881  0.014937389  0.013621444          450 
 4661000   0.50013868   -7.7341823     834.9965   0.01492878  0.013617182          406 
 4662000   0.49870554   -7.7126464    836.08942  0.014945113  0.013612922          379 
 4663000   0.50187475   -7.7089457     835.3504  0.014928701  0.013608666          402 
 4664000   0.51148049    -7.700095    836.47404  0.014945577  0.013604411          374 
 4665000   0.50100715    -7.707352    835.33946  0.014922105  0.013600155          370 
 4666000   0.49917771   -7.7022126    835.05594  0.014913844    0.0135959          404 
 4667000   0.50508562   -7.7032484    836.46128  0.014935742  0.013591649          379 
 4668000   0.51258689    -7.710751    835.10113  0.014908261  0.013587396          448 
 4669000   0.50556453   -7.6934707    835.06843  0.014904484  0.013583153          376 
 4670000   0.50307366   -7.7091175    836.26073  0.014922568   0.01357891          420 
 4671000   0.50628141   -7.6871407    836.06431  0.014915869  0.013574666          410 
 4672000   0.50059556   -7.7187987    835.85871   0.01490901   0.01357042          433 
 4673000   0.51147198    -7.701737    835.28938  0.014895666  0.013566172          453 
 4674000   0.50052449   -7.6856721    834.72764  0.014882464  0.013561925          399 
 4675000   0.49579722    -7.724541    834.89177  0.014882206  0.013557683          368 
 4676000   0.51474222   -7.7068881    836.10504  0.014900646  0.013553442          362 
 4677000   0.49858792    -7.716059    835.07926  0.014879183  0.013549201          373 
 4678000   0.50358525   -7.7162407    834.52439  0.014866118  0.013544963          415 
 4679000   0.50257397   -7.6831118    835.66834  0.014883315  0.013540729          356 
 4680000   0.52166504   -7.7089466    837.05868  0.014904891  0.013536497          427 
 4681000   0.49371783   -7.6978064    834.78403  0.014861213  0.013532263          420 
 4682000   0.49810108   -7.7149788    835.55017  0.014871675  0.013528036          418 
 4683000   0.51470062   -7.7085435    834.95866  0.014857973  0.013523806          377 
 4684000   0.49452266   -7.7116802    835.52923  0.014864952  0.013519578          357 
 4685000   0.50046762   -7.6954317     835.4599  0.014860546  0.013515351          360 
 4686000   0.49604342   -7.7096425    836.45948  0.014875151  0.013511123          411 
 4687000   0.50159916   -7.7112298    835.66053  0.014857772    0.0135069          396 
 4688000   0.50130057   -7.7186607    835.54036  0.014852467  0.013502676          391 
 4689000   0.51138105   -7.6925477    834.40008  0.014829034  0.013498452          404 
 4690000   0.49333038   -7.7118443    836.57876  0.014864584  0.013494232          382 
 4691000   0.50067696   -7.7189206    836.15365  0.014853863  0.013490014          391 
 4692000   0.49850423   -7.7252255    835.96588  0.014847362  0.013485797          375 
 4693000   0.49749735   -7.7080347    834.09248  0.014810933  0.013481578          444 
 4694000   0.50270887   -7.7105965    836.78978  0.014855663   0.01347736          376 
 4695000   0.49486243   -7.7208314     835.4184  0.014828158  0.013473148          373 
 4696000   0.49232591   -7.7060609    835.03291  0.014818159   0.01346894          356 
 4697000   0.49196518   -7.7161793    835.52829  0.014823793  0.013464728          390 
 4698000   0.49102479   -7.7042489     834.1196  0.014795651  0.013460517          372 
 4699000   0.49835311   -7.7289678    835.77799  0.014821912  0.013456308          396 
 4700000   0.49584904   -7.7274955    835.55211  0.014814754  0.013452094          428 
 4701000   0.50232333    -7.717102    835.95551  0.014818753  0.013447887          358 
 4702000   0.48065298   -7.7087165    836.07912  0.014817792  0.013443681          409 
 4703000   0.49834325   -7.7242442    834.97266  0.014795036   0.01343948          403 
 4704000   0.50002876   -7.7154342    835.26568  0.014797082  0.013435279          489 
 4705000   0.50558223   -7.7159562    836.52772   0.01481629  0.013431081          424 
 4706000    0.5072043   -7.7293954    833.99297  0.014768256  0.013426883          400 
 4707000   0.50106125   -7.7232291    834.19669  0.014768725  0.013422681          410 
 4708000   0.49478334   -7.7140952    835.03636  0.014780451  0.013418481          417 
 4709000   0.49788388   -7.7056737    834.91716  0.014775203  0.013414283          457 
 4710000   0.49775588   -7.7148725    834.48399  0.014764402   0.01341009          383 
 4711000   0.50399105   -7.7103849    835.67024  0.014782251  0.013405898          417 
 4712000   0.50497824    -7.730663     834.8243  0.014764154  0.013401705          355 
 4713000   0.49559162   -7.7156383    834.87111  0.014761849  0.013397512          449 
 4714000   0.49718975   -7.7188252    835.26539  0.014765687  0.013393325          442 
 4715000   0.49219905   -7.7173714    834.46953  0.014748489  0.013389134          452 
 4716000    0.5014456   -7.7431535    833.97855  0.014736686  0.013384947          387 
 4717000    0.5022347   -7.7276152    834.75568  0.014747291  0.013380759          540 
 4718000    0.5025332   -7.7134891    835.48684   0.01475708  0.013376575          457 
 4719000   0.49610305   -7.7083814    835.01319  0.014745589  0.013372389          473 
 4720000   0.50053703   -7.7291454    834.36198  0.014730967  0.013368209          449 
 4721000   0.49698402   -7.7223599    834.74682   0.01473464  0.013364029          372 
 4722000   0.50154857   -7.7226507    833.13797  0.014703127  0.013359851          461 
 4723000   0.48839417    -7.711011    833.74671  0.014710754  0.013355673          489 
 4724000    0.4978331   -7.7309577    834.85078  0.014727116   0.01335149          333 
 4725000   0.49507262   -7.7050581    835.13805  0.014729066  0.013347313          404 
 4726000   0.50247492   -7.7036635    834.92284  0.014722155  0.013343139          430 
 4727000   0.49714563   -7.7325253    834.30869  0.014708213  0.013338963          383 
 4728000   0.48911115   -7.7296283    833.91267  0.014698122   0.01333479          368 
 4729000   0.49439528   -7.7212837    834.32027  0.014702197  0.013330615          342 
 4730000   0.48998738   -7.7102959    835.59522  0.014721551  0.013326448          341 
 4731000   0.49360516   -7.7343754     835.4558  0.014715983  0.013322281          423 
 4732000   0.50818319   -7.7162219    834.64711  0.014698632  0.013318113          381 
 4733000   0.48692747   -7.7338601    834.43664  0.014691821  0.013313949          401 
 4734000   0.49978118   -7.7219334    835.49196  0.014707294  0.013309787          370 
 4735000   0.48690541   -7.7141542    834.92315  0.014694177  0.013305627          370 
 4736000   0.48500593   -7.7106037    834.12702  0.014677066  0.013301473          369 
 4737000    0.4973287   -7.7310872    833.43762   0.01466184  0.013297315          404 
 4738000   0.50207746   -7.7066413    835.11337  0.014688219  0.013293162          429 
 4739000   0.50032887   -7.7192851     834.0068  0.014665661  0.013289006          443 
 4740000   0.49958751   -7.7026243     834.0978  0.014664167  0.013284858          407 
 4741000   0.49383033   -7.7213823    833.63419  0.014652925  0.013280709          427 
 4742000   0.50317075   -7.7297898    836.00182  0.014691442  0.013276562          409 
 4743000   0.49762199   -7.7335193    834.65489  0.014664679  0.013272413          375 
 4744000   0.49213091   -7.7216598    836.13729  0.014687628  0.013268264          423 
 4745000   0.49016026   -7.7283056    834.77093  0.014660536  0.013264119          352 
 4746000   0.49911341   -7.7339157    834.70906  0.014656361  0.013259975          353 
 4747000   0.49909628   -7.7246997    835.35115  0.014664545  0.013255837          435 
 4748000   0.48227866   -7.7246733     835.1095  0.014657215  0.013251698          407 
 4749000   0.49539847   -7.7266623    835.69938   0.01466448  0.013247562          443 
 4750000   0.48890099   -7.7227833    834.13035  0.014633866  0.013243427          385 
 4751000   0.48763218   -7.7161151    835.58957  0.014656381  0.013239293          383 
 4752000    0.4939301   -7.7232535    834.12482   0.01462761  0.013235165          439 
 4753000   0.50312871   -7.7345601    836.52353  0.014666588  0.013231038          417 
 4754000   0.48517363   -7.7258573    835.60938  0.014647479  0.013226911          443 
 4755000   0.49977148   -7.7221561    834.91267  0.014632188  0.013222784          433 
 4756000   0.49458259   -7.7196696     834.1527  0.014615796  0.013218657          422 
 4757000   0.49515511   -7.7357595    834.98186  0.014627249  0.013214528          378 
 4758000    0.4983159   -7.7249585      834.503  0.014615787  0.013210407          382 
 4759000   0.48486001   -7.7232554    835.29038  0.014626504  0.013206282          320 
 4760000   0.47986909   -7.7234624    834.42058  0.014608203  0.013202158          380 
 4761000   0.49230905   -7.7209995    833.68559   0.01459227  0.013198034          413 
 4762000    0.4781082   -7.7260447    835.37306  0.014618736  0.013193914          400 
 4763000   0.49323541   -7.7336514    835.85235  0.014624053  0.013189796          362 
 4764000   0.49275042   -7.7345191    834.69551  0.014600747  0.013185679          443 
 4765000   0.50060861   -7.7338844    833.92876  0.014584274  0.013181563          370 
 4766000   0.48524678   -7.7316142    833.90829  0.014580855  0.013177446          381 
 4767000   0.49035286   -7.7325134    834.39546  0.014586313  0.013173329          389 
 4768000   0.48681408   -7.7327563    835.37734  0.014600415  0.013169212          433 
 4769000   0.48609706   -7.7330614     833.2419  0.014560039    0.0131651          420 
 4770000   0.48255344   -7.7380341    835.62299  0.014598585  0.013160994          412 
 4771000   0.49797411   -7.7243321    834.25007  0.014571545  0.013156889          334 
 4772000   0.48673926   -7.7445773    834.08502  0.014565609  0.013152783          411 
 4773000   0.49536035   -7.7383306    835.03084   0.01457907  0.013148681          353 
 4774000   0.48333639    -7.752768    834.34482  0.014564042  0.013144572          401 
 4775000   0.47878341   -7.7421391    834.60131  0.014565468   0.01314047          412 
 4776000   0.49111554   -7.7384042    834.76389  0.014565255  0.013136371          372 
 4777000   0.48649093    -7.746107    834.55593  0.014558578  0.013132271          445 
 4778000   0.47316189    -7.719598    833.80032  0.014542352  0.013128173          418 
 4779000   0.48604429   -7.7468016    834.15636  0.014545518  0.013124078          355 
 4780000   0.48189911   -7.7365255     835.0716  0.014558431  0.013119979          390 
 4781000   0.48675125   -7.7441692     833.1849  0.014522501   0.01311589          368 
 4782000   0.48311236   -7.7338095    834.49998  0.014542381  0.013111802          360 
 4783000   0.48614251    -7.729637    835.41141   0.01455522  0.013107713          391 
 4784000   0.48207279   -7.7365625    834.12062  0.014529693  0.013103624          360 
 4785000   0.48305845   -7.7564118    834.59511   0.01453492  0.013099537          416 
 4786000   0.50428944   -7.7311274    833.29342  0.014509218  0.013095452          407 
 4787000   0.48574291   -7.7247929    834.72818  0.014531164  0.013091365          413 
 4788000   0.49145132   -7.7267522    833.88687  0.014513486  0.013087288          391 
 4789000   0.49493344   -7.7429097    834.64472  0.014523643   0.01308321          443 
 4790000   0.47849155    -7.732148    833.69491  0.014504087  0.013079131          459 
 4791000   0.49050266   -7.7504778    834.73166  0.014519092  0.013075058          449 
 4792000   0.49009041   -7.7271608    834.35525  0.014509517  0.013070983          368 
 4793000   0.48243695   -7.7191476    835.71772  0.014530178  0.013066908          422 
 4794000   0.46905192   -7.7388084    835.11462  0.014516664  0.013062833          440 
 4795000   0.48269016   -7.7394354    834.09425  0.014495903  0.013058762          466 
 4796000    0.4776241   -7.7380481     834.4948   0.01449984  0.013054693          382 
 4797000   0.48204206   -7.7550357    834.66852  0.014499835  0.013050624          369 
 4798000   0.47614574   -7.7302473    834.36088   0.01449147  0.013046558          388 
 4799000   0.48933704   -7.7483958    834.40162  0.014489158  0.013042491          402 
 4800000   0.48523082   -7.7432749    835.06805  0.014497709  0.013038429          394 
 4801000   0.48866539   -7.7323604    833.40377  0.014465802  0.013034369          430 
 4802000   0.48443524   -7.7199452    834.06721  0.014474303  0.013030307          417 
 4803000   0.48746633   -7.7391766    834.38738  0.014476844  0.013026246          402 
 4804000   0.47999433   -7.7487414    833.35207  0.014455871  0.013022189          414 
 4805000   0.48174518   -7.7487273    833.97631  0.014463689  0.013018135          397 
 4806000   0.47408824   -7.7421451    834.70545  0.014473322  0.013014078          410 
 4807000   0.47781323   -7.7474247     834.0287   0.01445858  0.013010024          431 
 4808000   0.48759247   -7.7467525    834.68332  0.014466918  0.013005971          393 
 4809000   0.47897018   -7.7411475    832.18183  0.014420563  0.013001917          403 
 4810000   0.47817896    -7.739535    834.60107  0.014459478  0.012997867          377 
 4811000   0.48142727   -7.7465408    833.84358  0.014443352  0.012993819          447 
 4812000   0.47982889   -7.7419185    834.07408  0.014444342   0.01298977          419 
 4813000   0.49243196   -7.7474383    833.98363  0.014439775  0.012985723          454 
 4814000   0.47543198   -7.7325214    833.13815  0.014422139  0.012981674          396 
 4815000    0.4839586   -7.7501539    832.82984  0.014413808  0.012977631          431 
 4816000   0.48469642     -7.74105    834.24057  0.014435226  0.012973591          420 
 4817000   0.49220695   -7.7398744    835.22296  0.014449224  0.012969552          353 
 4818000   0.48061807   -7.7458846    834.31431  0.014430509  0.012965514          396 
 4819000   0.48116007   -7.7477478     834.0784  0.014423435  0.012961479          353 
 4820000   0.47845144   -7.7489454    833.17666  0.014404852  0.012957445          378 
 4821000   0.47811736   -7.7434266    834.17883  0.014419187  0.012953412          383 
 4822000   0.48681678   -7.7513152    834.51153  0.014421947  0.012949378          372 
 4823000   0.48064338   -7.7597478    833.28444  0.014397754  0.012945348          447 
 4824000   0.48033311   -7.7406285    835.10413  0.014426205  0.012941318          401 
 4825000   0.47049497   -7.7526561    832.03468  0.014370202   0.01293729          339 
 4826000   0.47951948   -7.7541111    834.58391  0.014411243  0.012933261          361 
 4827000   0.48345965    -7.761715    833.79868  0.014394701  0.012929237          386 
 4828000   0.46260928   -7.7333685    833.61386   0.01438853  0.012925214          376 
 4829000   0.48114576   -7.7573318    834.61018  0.014402743   0.01292119          400 
 4830000   0.47183432   -7.7508602    834.99842   0.01440646  0.012917171          436 
 4831000   0.47218089   -7.7449157    834.67117  0.014397833  0.012913152          418 
 4832000   0.47375535   -7.7611455     833.9561  0.014382521  0.012909138          375 
 4833000   0.47814302   -7.7387641    834.81272  0.014394315  0.012905125          415 
 4834000    0.4730658    -7.748593    833.37646  0.014366578  0.012901115          369 
 4835000   0.48137829   -7.7602931    834.34943  0.014380376  0.012897106          443 
 4836000   0.47828916   -7.7517906    833.25356  0.014358519  0.012893095          363 
 4837000    0.4870756   -7.7578382    833.98058  0.014368076  0.012889086          429 
 4838000   0.48636108   -7.7488464    833.19639  0.014351598  0.012885077          359 
 4839000    0.4812731   -7.7355683    834.09328  0.014364078   0.01288107          427 
 4840000    0.4727545   -7.7605252      833.532  0.014351446  0.012877064          442 
 4841000    0.4782084   -7.7400986    833.27416  0.014344043  0.012873062          420 
 4842000   0.47561218   -7.7565992      834.099  0.014355277  0.012869064          396 
 4843000   0.47703947   -7.7487231    832.74501  0.014329015  0.012865064          409 
 4844000   0.47335388   -7.7642051    834.78105  0.014361083  0.012861067          420 
 4845000   0.47272207   -7.7339707    833.39579  0.014334293  0.012857073          414 
 4846000   0.46969389   -7.7580065    833.99595  0.014341656  0.012853077          386 
 4847000   0.46921567   -7.7512448    834.76418  0.014351905  0.012849082          392 
 4848000   0.47905877   -7.7542423    833.07355  0.014319884   0.01284509          383 
 4849000   0.48746819   -7.7597965    834.67639  0.014344476  0.012841101          455 
 4850000   0.46700278   -7.7479314    833.35752  0.014318858   0.01283711          439 
 4851000   0.48064644   -7.7525061    833.97062  0.014326438  0.012833118          318 
 4852000   0.47187833   -7.7466441     834.1021  0.014325744  0.012829132          402 
 4853000    0.4747828   -7.7608584     833.9712  0.014320544  0.012825146          425 
 4854000   0.46860802   -7.7631601    834.03313  0.014318657  0.012821162          446 
 4855000   0.47132253   -7.7725793    832.72962  0.014293334  0.012817179          391 
 4856000   0.49186268   -7.7491098     831.9559  0.014277112  0.012813196          353 
 4857000   0.47337001    -7.754935    834.21418  0.014312919  0.012809213          339 
 4858000   0.47932062   -7.7307898    834.26976  0.014310926  0.012805234          395 
 4859000   0.48075538   -7.7570628    833.29676  0.014291294  0.012801257          395 
 4860000   0.48298778   -7.7643188    833.16804  0.014286146  0.012797278          368 
 4861000   0.47319933   -7.7599059    834.18911  0.014300712  0.012793303          397 
 4862000   0.47454767   -7.7596737     833.2014  0.014280841   0.01278933          403 
 4863000   0.47045062    -7.769223    834.37333  0.014297987  0.012785359          363 
 4864000   0.48334098   -7.7493516    834.54756  0.014298032  0.012781394          376 
 4865000   0.47101514   -7.7706054    833.65002  0.014279719  0.012777424          389 
 4866000   0.46418257   -7.7447969    833.35573  0.014271745  0.012773453          375 
 4867000   0.47031184   -7.7630782    833.41862  0.014269889  0.012769486          383 
 4868000   0.47751394   -7.7628335    832.79387  0.014256263  0.012765515          367 
 4869000   0.46497813   -7.7532499    834.52217  0.014282915  0.012761551          344 
 4870000   0.48233063    -7.736343    833.43293  0.014261344   0.01275759          366 
 4871000   0.47050248   -7.7543201    833.91609  0.014266682  0.012753631          354 
 4872000   0.46902988   -7.7540023    835.06164  0.014283348  0.012749669          430 
 4873000   0.46091764    -7.761851    833.32101   0.01425065   0.01274571          396 
 4874000   0.47109662   -7.7510915    833.20999  0.014245828  0.012741753          422 
 4875000   0.47572074    -7.736126    833.68441  0.014251016  0.012737794          421 
 4876000   0.47074514   -7.7713869     833.1304  0.014238625  0.012733836          449 
 4877000   0.46993274    -7.757879    833.09727  0.014235139  0.012729883          420 
 4878000   0.47442094    -7.748352      833.875  0.014245507   0.01272593          385 
 4879000   0.47471409   -7.7411026    834.08964  0.014246253  0.012721979          417 
 4880000   0.47911143   -7.7581011    834.68324  0.014253471  0.012718033          379 
 4881000   0.47532813   -7.7676155    832.62442    0.0142154  0.012714085          373 
 4882000    0.4640319   -7.7511202    832.36058  0.014207985  0.012710136          416 
 4883000   0.46944675   -7.7695065    833.18776  0.014219192  0.012706191          415 
 4884000   0.47059703   -7.7747105    834.73992  0.014242764  0.012702248          378 
 4885000   0.47240852   -7.7563236    832.71495  0.014205305  0.012698303          370 
 4886000   0.47480491   -7.7582087    833.11631  0.014209243  0.012694364          400 
 4887000   0.46808862   -7.7444304    832.10764  0.014189135  0.012690424          427 
 4888000   0.47460087    -7.756889    833.61378   0.01421191   0.01268649          386 
 4889000   0.46664588   -7.7617483    833.09726  0.014200199  0.012682554          380 
 4890000   0.47083565   -7.7593128    834.26297   0.01421716  0.012678617          361 
 4891000   0.47160483   -7.7596602    833.24976   0.01419699  0.012674684          398 
 4892000   0.46388057   -7.7512911     832.1357  0.014175111  0.012670747          394 
 4893000   0.47166232   -7.7468831    833.00461  0.014187012  0.012666813          377 
 4894000   0.46745975   -7.7493411    833.36873  0.014190313  0.012662884          415 
 4895000   0.47482941   -7.7549476     832.9357  0.014180043  0.012658955          381 
 4896000   0.46911764   -7.7678362    831.53339  0.014153278  0.012655028          362 
 4897000   0.47139895   -7.7658736    833.17405  0.014178307  0.012651099          366 
 4898000   0.46631173   -7.7629702    833.01545  0.014172714  0.012647175          365 
 4899000   0.46094403   -7.7671038     832.8081  0.014166294  0.012643252          399 
 4900000   0.46104305   -7.7794441    833.11898   0.01416869   0.01263933          376 
 4901000   0.46765374   -7.7458892    832.87774  0.014161697  0.012635409          378 
 4902000   0.45249597   -7.7673562    833.24303  0.014165018  0.012631489          408 
 4903000   0.47272425   -7.7517722    832.07526  0.014142281   0.01262757          448 
 4904000   0.46479772   -7.7865917    832.42778  0.014145388  0.012623656          448 
 4905000   0.46382246    -7.752254    832.34058  0.014141022  0.012619738          392 
 4906000   0.45950037   -7.7715449    832.61241  0.014142757  0.012615827          441 
 4907000   0.46240005   -7.7594372    833.00272  0.014146504  0.012611917          384 
 4908000   0.47126635   -7.7589277    832.98149  0.014143261   0.01260801          351 
 4909000   0.47357333   -7.7518238    833.24202  0.014144802  0.012604106          429 
 4910000   0.46535082   -7.7846594    833.25636  0.014142165  0.012600202          356 
 4911000   0.46913127   -7.7536062    832.53144  0.014126984  0.012596295          462 
 4912000   0.46677744   -7.7651087    832.94864  0.014131186  0.012592394          361 
 4913000    0.4635001   -7.7694997    832.45303  0.014119903   0.01258849          476 
 4914000   0.46009723   -7.7659649    833.01368  0.014126538  0.012584588          391 
 4915000   0.46342171   -7.7580338    831.67813   0.01410102   0.01258069          400 
 4916000   0.46701551   -7.7653956    831.96625  0.014103035  0.012576792          442 
 4917000   0.46469776    -7.776364    834.25198  0.014138906  0.012572894          363 
 4918000   0.45916068   -7.7582449     832.9525  0.014114011  0.012568997          437 
 4919000   0.45353551   -7.7590932    832.22796  0.014098868  0.012565102          466 
 4920000   0.46338809   -7.7615242    832.46635   0.01410004  0.012561209          396 
 4921000   0.46963449   -7.7593888    832.95931  0.014105522   0.01255732          396 
 4922000   0.45938117   -7.7765737    833.03495  0.014103937  0.012553428          363 
 4923000   0.46383661   -7.7804972    833.85124   0.01411489  0.012549541          400 
 4924000   0.46797848   -7.7717188    832.73098  0.014093064  0.012545657          421 
 4925000   0.46361208   -7.7690515    832.09395  0.014079424  0.012541774          479 
 4926000    0.4570058   -7.7714438    832.79893  0.014088492   0.01253789          392 
 4927000   0.46550342   -7.7704114    831.65163  0.014066227   0.01253401          487 
 4928000    0.4665684   -7.7876316    833.88661  0.014101167   0.01253013          409 
 4929000   0.46511962   -7.7612461    833.21713  0.014086987  0.012526253          398 
 4930000   0.47191734   -7.7675998    832.73003  0.014075896  0.012522375          388 
 4931000   0.45389215   -7.7721913    833.62754   0.01408821  0.012518501          406 
 4932000   0.45597885   -7.7736786    832.31714  0.014063212  0.012514626          394 
 4933000   0.46079088   -7.7654648    831.80975   0.01405179  0.012510752          408 
 4934000   0.46829359   -7.7731623    833.18658  0.014072196  0.012506878          387 
 4935000   0.46685853   -7.7676349    833.32664   0.01407171  0.012503008          459 
 4936000   0.46196269   -7.7666932    832.63207  0.014057132  0.012499137          428 
 4937000   0.46045432   -7.7737816    833.35655  0.014066514  0.012495266          402 
 4938000   0.45666553   -7.7819362    833.30236  0.014062751  0.012491401          381 
 4939000   0.45756049   -7.7865644    832.37863  0.014044318  0.012487535          426 
 4940000   0.46144952   -7.7857385     833.4358  0.014059308  0.012483667          459 
 4941000   0.46009678   -7.7877117     831.9144  0.014030803  0.012479803          422 
 4942000   0.46069416   -7.7852528    831.75384  0.014025257  0.012475938          411 
 4943000   0.46014183   -7.7845667    832.90336  0.014041799  0.012472076          412 
 4944000   0.46804865   -7.7880817    833.25464   0.01404488  0.012468217          440 
 4945000   0.45422896   -7.7687555    831.72226  0.014016216  0.012464358          447 
 4946000   0.45550479   -7.7714035    831.53542  0.014010234  0.012460502          405 
 4947000   0.45294862   -7.7708405    832.51187  0.014023851  0.012456646          378 
 4948000   0.45893487     -7.77882    833.61442  0.014039585  0.012452789          383 
 4949000   0.46309814   -7.7764389    832.80843  0.014023177  0.012448934          365 
 4950000   0.46835533   -7.7669386    831.34292  0.013995672  0.012445082          446 
 4951000   0.45846637   -7.7693022     832.3135  0.014009182  0.012441231          402 
 4952000   0.45607145   -7.7579198     832.0605  0.014002095  0.012437381          414 
 4953000   0.45919362   -7.7760279    832.97325  0.014014625  0.012433533          424 
 4954000   0.46986543   -7.7823005    831.62545  0.013989124  0.012429686          432 
 4955000    0.4673821   -7.7763586    832.07771  0.013993907  0.012425841          436 
 4956000   0.46366042   -7.7679528    831.45615  0.013980632  0.012421998          542 
 4957000   0.46867799   -7.7730425     832.8971  0.014002036  0.012418156          404 
 4958000   0.46119773   -7.7965826    832.08772  0.013985608  0.012414314          408 
 4959000   0.45569818   -7.7741593    830.57398   0.01395735  0.012410473          431 
 4960000    0.4698512   -7.7662853     832.2897  0.013983362  0.012406635          468 
 4961000   0.46458542     -7.77262    831.15579  0.013961496  0.012402795          421 
 4962000   0.45241638   -7.7648141    833.03192  0.013990191  0.012398958          515 
 4963000   0.44922981   -7.7766455      831.896  0.013968299  0.012395123          431 
 4964000   0.46314424   -7.7781147    831.92403  0.013965955   0.01239129          471 
 4965000   0.45261881   -7.7983988    831.55345  0.013956923  0.012387458          461 
 4966000   0.45436107   -7.7671799    831.64219  0.013955601  0.012383625          457 
 4967000   0.45274248   -7.8017087    831.18083  0.013945051  0.012379797          495 
 4968000   0.44891767   -7.7779715    833.21138  0.013976305  0.012375972          393 
 4969000   0.45536713   -7.7859543    832.04772  0.013953977  0.012372145          470 
 4970000    0.4614703   -7.7951945    831.56298  0.013943041  0.012368322          442 
 4971000   0.44886797   -7.7901295    831.44074  0.013938187  0.012364496          395 
 4972000     0.460866   -7.7828282    831.10523  0.013929761  0.012360673          397 
 4973000   0.44237194   -7.7844494    832.94006  0.013957706  0.012356855          431 
 4974000   0.45114282   -7.7885432    831.34484  0.013928174  0.012353038          393 
 4975000   0.45710668   -7.7876778    831.93155  0.013935202  0.012349218          412 
 4976000   0.46312915   -7.7929189     831.7939  0.013930096  0.012345401          502 
 4977000   0.46478984    -7.787908    832.36102  0.013936793  0.012341586          425 
 4978000   0.45311176   -7.7706091    830.86823  0.013909003  0.012337772          426 
 4979000    0.4531986   -7.7910832    832.48443   0.01393326  0.012333963          410 
 4980000   0.45824529   -7.7957077    831.55358  0.013914886  0.012330155          452 
 4981000   0.45242711   -7.7810316    831.52793  0.013911663  0.012326345          438 
 4982000   0.45642649   -7.7896804    832.67957  0.013928134  0.012322533          482 
 4983000   0.45033901   -7.7841871    832.01622  0.013914245  0.012318725          452 
 4984000   0.45261362   -7.7802557    831.73842  0.013906809  0.012314919          424 
 4985000   0.44903779   -7.7899377    832.72501  0.013920512  0.012311113          425 
 4986000   0.45908751   -7.7839782    832.39281  0.013912168  0.012307307          452 
 4987000   0.44569535    -7.789036    832.06339  0.013903873  0.012303506          421 
 4988000    0.4540945   -7.7842302    831.68282  0.013894728  0.012299707          394 
 4989000   0.45835792   -7.7785139    830.76761  0.013876656  0.012295908          423 
 4990000   0.46205489   -7.8060657    832.07248  0.013895666  0.012292114          421 
 4991000   0.45971722   -7.7932044    833.83462  0.013922304   0.01228832          398 
 4992000   0.45283074   -7.7752971    831.02526  0.013872617  0.012284525          406 
 4993000   0.45806474   -7.7829604    831.85389  0.013883669  0.012280729          417 
 4994000   0.45786221   -7.7883413     831.6445  0.013877394  0.012276935          427 
 4995000    0.4618804   -7.7912834    832.28767  0.013885346  0.012273145          391 
 4996000   0.44950567   -7.7887187    830.96312  0.013860474  0.012269356          384 
 4997000   0.45378735   -7.7828376    831.72741  0.013870446  0.012265569          417 
 4998000   0.45153966   -7.7965367    831.47699  0.013863495  0.012261782          437 
 4999000   0.45752891   -7.7972406    831.51718  0.013861392  0.012257994          448 
 5000000   0.44753009   -7.7944056    832.75249  0.013879208  0.012254212          434 
 5001000   0.45251674    -7.794283    832.70102  0.013875575  0.012250429          475 
 5002000   0.45835208   -7.7932611      831.049  0.013845278  0.012246647          438 
 5003000   0.45701405   -7.8003568    831.97904  0.013858002  0.012242867          416 
 5004000   0.45366124    -7.788091     831.5949  0.013848836  0.012239087          463 
 5005000   0.45338579   -7.7867986    833.02571  0.013869892   0.01223531          410 
 5006000   0.43443215   -7.7893525      832.834   0.01386393  0.012231534          446 
 5007000   0.44517613     -7.79688    831.98188  0.013846979  0.012227757          476 
 5008000   0.45008639   -7.7856695    831.17357  0.013830764  0.012223986          455 
 5009000   0.45505514   -7.7811415    831.39128  0.013831624  0.012220212          435 
 5010000   0.45073843   -7.7850939    831.67058  0.013833509  0.012216443          407 
 5011000   0.45568205   -7.7934694    832.77711   0.01384915  0.012212675          387 
 5012000   0.45862943   -7.7916927    831.11685  0.013818782   0.01220891          462 
Loop time of 10862.7 on 48 procs for 5000000 steps with 4000 atoms

Performance: 79537.938 tau/day, 460.289 timesteps/s
99.4% CPU use with 48 MPI tasks x no OpenMP threads

MPI task timing breakdown:
Section |  min time  |  avg time  |  max time  |%varavg| %total
---------------------------------------------------------------
Pair    | 738.45     | 766.34     | 798.82     |  43.5 |  7.05
Neigh   | 68.454     | 70.05      | 72.331     |   9.0 |  0.64
Comm    | 602.93     | 641.47     | 668.07     |  56.6 |  5.91
Output  | 13.825     | 13.83      | 13.928     |   0.4 |  0.13
Modify  | 9221.9     | 9250.6     | 9288.2     |  17.6 | 85.16
Other   |            | 120.4      |            |       |  1.11

Nlocal:        83.3333 ave          93 max          76 min
Histogram: 1 7 10 3 8 11 3 3 0 2
Nghost:        1818.83 ave        1842 max        1785 min
Histogram: 2 1 1 5 7 7 10 5 6 4
Neighs:        11176.7 ave       13182 max        9734 min
Histogram: 1 6 8 7 8 13 3 1 0 1
FullNghs:      22353.2 ave       25070 max       20263 min
Histogram: 2 5 9 7 5 9 7 2 0 2

Total # of neighbors = 1072954
Ave neighs/atom = 268.23850
Neighbor list builds = 269425
Dangerous builds = 0

#clear
#
#next RN
#
#jump SELF
Total wall time: 3:01:05
