
units lj                  # Use reduced LJ style units
atom_style atomic         # Uncharged point particles
atom_modify map hash      # Needed for indexing of clusters etc
                          # Used to be able to find where atoms are in relation to each other.

lattice fcc 1.0 spacing 1 1 1
Lattice spacing in x,y,z = 1.5874011 1.5874011 1.5874011
region box block 0 10 0 10 0 10 units lattice
create_box 2 box
Created orthogonal box = (0.0000000 0.0000000 0.0000000) to (15.874011 15.874011 15.874011)
  3 by 4 by 4 MPI processor grid
create_atoms 1 box
Created 4000 atoms
  using lattice units in orthogonal box = (0.0000000 0.0000000 0.0000000) to (15.874011 15.874011 15.874011)
  create_atoms CPU = 0.002 seconds
set type 1 type/fraction 2 0.97 78393
Setting atom values ...
  3879 settings made for type/fraction
mass 1 1.0
mass 2 1.0
pair_style lj/cut  3.5
pair_modify tail  yes
pair_coeff 1  1  1.0  1.0   # Intearaction between 1 and 1 set with epsilon = 1 and sigma = 1
pair_coeff 1  2  1.5  0.8
pair_coeff 2  2  0.5  0.88

write_data data.0
System init for write_data ...
Neighbor list info ...
  update every 1 steps, delay 10 steps, check yes
  max neighbors/atom: 2000, page size: 100000
  master list distance cutoff = 3.8
  ghost atom cutoff = 3.8
  binsize = 1.9, bins = 9 9 9
  1 neighbor lists, perpetual/occasional/extra = 1 0 0
  (1) pair lj/cut, perpetual
      attributes: half, newton on
      pair build: half/bin/atomonly/newton
      stencil: half/bin/3d
      bin: standard
WARNING: Not all mixed pair coeffs generated from mixing. Use write_data with 'pair ij' option to store all pair coeffs. (../write_data.cpp:312)


#############################
#   M E L T   S Y S T E M   #
#############################

velocity all create 2.4 2750902 mom yes dist gaussian # Assign velocities
                                                    # Temperature 2.4, random number seed, zero linear momentum
                                                                                # Gaussian distribution

timestep 0.002   # simulation timestep
thermo 1000       # output thermodynamic data every 1000 steps bf 100

# Define a fix  in this case with index 1 applied to all
# particles in the simulation. This fix is for simulations
# in the anisotropic NPT ensemble. Note that we use the MTK
# correction.
fix 1 all npt temp 2.4 2.4 0.1 iso 5.68 5.68 0.5 mtk yes tchain 5 pchain 5 # Use NPT ensemble
                                                                         # Set temperature and pressure and damping
                                                                         # Numbers of thermostats in chain and in barostat
run 10000          # run for 10000 steps
Per MPI rank memory allocation (min/avg/max) = 3.642 | 3.644 | 3.648 Mbytes
Step Temp E_pair E_mol TotEng Press Volume 
       0          2.4   -2.8451072            0   0.75399283    -1.976462         4000 
    1000    2.4701263   -1.6697594            0    2.0345038    5.8253551    4163.5612 
    2000    2.3953409   -1.6256579            0    1.9664552    6.0766469    4132.2728 
    3000    2.3674207   -1.7080366            0    1.8422066    5.4155966    4193.7604 
    4000    2.3420203   -1.6537318            0    1.8584204    5.4286143    4232.8402 
    5000    2.3854785   -1.6741932            0    1.9031299    5.6602537    4183.2112 
    6000    2.3620923   -1.6650305            0    1.8772223    5.6768711    4173.6847 
    7000    2.3938102   -1.6463353            0    1.9434823    5.9216404    4156.8899 
    8000    2.3920337    -1.693398            0    1.8937555    5.6706249    4156.8628 
    9000    2.3846751   -1.6292259            0    1.9468925    5.9302775    4158.4037 
   10000    2.4446785   -1.6696918            0    1.9964092    5.5825601     4216.578 
Loop time of 2.42155 on 48 procs for 10000 steps with 4000 atoms

Performance: 713591.198 tau/day, 4129.579 timesteps/s
99.7% CPU use with 48 MPI tasks x no OpenMP threads

MPI task timing breakdown:
Section |  min time  |  avg time  |  max time  |%varavg| %total
---------------------------------------------------------------
Pair    | 1.0552     | 1.1071     | 1.3001     |   4.4 | 45.72
Neigh   | 0.20268    | 0.21032    | 0.23701    |   1.5 |  8.69
Comm    | 0.64084    | 0.84443    | 0.93623    |   6.7 | 34.87
Output  | 0.0002441  | 0.00024803 | 0.00031034 |   0.0 |  0.01
Modify  | 0.19825    | 0.24446    | 0.29567    |   5.4 | 10.10
Other   |            | 0.01499    |            |       |  0.62

Nlocal:        83.3333 ave          96 max          74 min
Histogram: 4 7 4 5 3 17 3 3 1 1
Nghost:        1588.94 ave        1631 max        1564 min
Histogram: 4 11 6 9 4 3 4 4 2 1
Neighs:        9060.08 ave       10489 max        7618 min
Histogram: 2 3 5 5 7 8 9 4 4 1

Total # of neighbors = 434884
Ave neighs/atom = 108.72100
Neighbor list builds = 903
Dangerous builds = 198

# Equilibrate just above the melting temperature to avoid step fn in T

fix 1 all npt temp 1.25 1.25 0.1 iso 5.68 5.68 0.5 mtk yes tchain 5 pchain 5
run 2000
Per MPI rank memory allocation (min/avg/max) = 3.643 | 3.645 | 3.649 Mbytes
Step Temp E_pair E_mol TotEng Press Volume 
   10000    2.4446785   -1.6696918            0    1.9964092    5.5825601     4216.578 
   11000    1.2460381   -2.5349628            0  -0.66637296    5.8289177    3256.1069 
   12000    1.2482468   -2.5469388            0  -0.67503665    5.5268049    3274.1874 
Loop time of 0.585476 on 48 procs for 2000 steps with 4000 atoms

Performance: 590288.830 tau/day, 3416.023 timesteps/s
99.7% CPU use with 48 MPI tasks x no OpenMP threads

MPI task timing breakdown:
Section |  min time  |  avg time  |  max time  |%varavg| %total
---------------------------------------------------------------
Pair    | 0.24897    | 0.27677    | 0.32464    |   2.9 | 47.27
Neigh   | 0.037707   | 0.04077    | 0.046855   |   0.9 |  6.96
Comm    | 0.16876    | 0.22146    | 0.25242    |   3.7 | 37.83
Output  | 5.0263e-05 | 5.1766e-05 | 6.7068e-05 |   0.0 |  0.01
Modify  | 0.038726   | 0.041909   | 0.046336   |   1.0 |  7.16
Other   |            | 0.004512   |            |       |  0.77

Nlocal:        83.3333 ave          90 max          74 min
Histogram: 1 0 2 5 4 12 11 5 6 2
Nghost:        1880.77 ave        1904 max        1863 min
Histogram: 2 3 10 8 6 9 6 2 1 1
Neighs:        11664.4 ave       13015 max        9765 min
Histogram: 1 0 1 5 10 11 8 4 5 3

Total # of neighbors = 559892
Ave neighs/atom = 139.97300
Neighbor list builds = 145
Dangerous builds = 19

#############################
# L I N E A R  Q U E N C H  #
#############################

# Define solid atoms. This closely follows ten Wolde  Ruiz-Montero and Frenkel  Faraday Discuss  1996  104  93-110
# Compute components of the per-atom q6 vector
compute q6 all orientorder/atom degrees 1 6 components 6 nnn NULL cutoff 1.3 # compute the Q6 parameter.
                                                                             # Use all neighbours within 1.3 unit cell.

# get number of connections
compute coord_number all coord/atom orientorder q6 0.5

# An atom is solid if it has 8 or more connections (of a possible 14)
variable is_solid atom c_coord_number>=8
group solid dynamic all var is_solid    # Must be dynamic to update
dynamic group solid defined

# do clustering
compute cluster solid cluster/atom 1.3 # Create a cluster where all atoms within are solid and max 1.3 units from another member

# define chunks one chunk per cluster
compute clus_chunks solid chunk/atom c_cluster nchunk every compress yes  # Says which atoms are in which chunk

# count the size of each chunk
compute size_chunks solid property/chunk clus_chunks count


# Find the maximum entry in the vector of chunk sizes
variable max_n equal max(c_size_chunks)


# Thermo style which includes this variable
# thermo_style custom step temp pe vol v_max_n

thermo ${N}  # Print the thermo information every 100 steps
thermo 1000  

# Reset the npt fix at a lower temperature (below freezing)
fix 1  all npt temp  ${temp} ${temp}  0.1  iso  5.68  5.68  0.5  mtk yes tchain  5  pchain  5
fix 1  all npt temp  0.45 ${temp}  0.1  iso  5.68  5.68  0.5  mtk yes tchain  5  pchain  5
fix 1  all npt temp  0.45 0.45  0.1  iso  5.68  5.68  0.5  mtk yes tchain  5  pchain  5

dump dmp2 all dcd ${N} traj.dcd
dump dmp2 all dcd 1000 traj.dcd


compute msd all msd com yes
variable twopoint equal c_msd[4]/6/(step*dt+1.0e-6)
fix 9 all vector 10 c_msd[4]
variable fit equal slope(f_9)/6/(10*dt)
thermo_style custom step temp pe c_msd[4] v_twopoint v_fit v_max_n

fix 1 all npt temp 1.25 ${temp} 0.1 iso 5.68 5.68 0.5 mtk yes tchain 5 pchain 5
fix 1 all npt temp 1.25 0.45 0.1 iso 5.68 5.68 0.5 mtk yes tchain 5 pchain 5
run 5000000 # 5000000  # Run for this many steps
Neighbor list info ...
  update every 1 steps, delay 10 steps, check yes
  max neighbors/atom: 2000, page size: 100000
  master list distance cutoff = 3.8
  ghost atom cutoff = 3.8
  binsize = 1.9, bins = 8 8 8
  4 neighbor lists, perpetual/occasional/extra = 1 3 0
  (1) pair lj/cut, perpetual
      attributes: half, newton on
      pair build: half/bin/atomonly/newton
      stencil: half/bin/3d
      bin: standard
  (2) compute orientorder/atom, occasional
      attributes: full, newton on
      pair build: full/bin/atomonly
      stencil: full/bin/3d
      bin: standard
  (3) compute coord/atom, occasional
      attributes: full, newton on
      pair build: full/bin/atomonly
      stencil: full/bin/3d
      bin: standard
  (4) compute cluster/atom, occasional
      attributes: full, newton on
      pair build: full/bin/atomonly
      stencil: full/bin/3d
      bin: standard
Per MPI rank memory allocation (min/avg/max) = 9.814 | 9.819 | 9.822 Mbytes
Step Temp PotEng c_msd[4] v_twopoint v_fit v_max_n 
   12000    1.2482468   -2.5469388 2.3028822e-30 1.5992237e-32 8.3333333e+20            1 
   13000    1.2507869   -2.5418319    1.1509441 0.0073778463  0.098015146            1 
   14000    1.2176059   -2.5298782    2.3876124  0.014211978   0.10131268            1 
   15000    1.2573375   -2.5646173    3.6228634  0.020127018   0.10282486            1 
   16000    1.2627219   -2.5525241    4.9421915   0.02574058   0.10399773            2 
   17000    1.2525739    -2.567193    6.2740175  0.030754987   0.10555097            1 
   18000    1.2517048   -2.5320505    7.4635657  0.034553544   0.10548587            2 
   19000    1.2505593   -2.5613781    8.7842518  0.038527419   0.10555349            1 
   20000    1.2398362    -2.536004    10.232766  0.042636524   0.10669685            3 
   21000     1.245366   -2.5382532    11.570349  0.045914083   0.10752796            1 
   22000    1.2607145   -2.5576358    12.871899  0.048757193   0.10815643            2 
   23000     1.270181   -2.5453327    14.230788  0.051560826   0.10874451            1 
   24000     1.246285   -2.5293086    15.436722  0.053599729   0.10863575            2 
   25000     1.237449   -2.5653789    16.601926  0.055339753   0.10847605            1 
   26000    1.2435936   -2.5657454    17.785772   0.05700568   0.10806607            1 
   27000     1.230201    -2.546543    19.275108  0.059491072   0.10786383            1 
   28000    1.2408707    -2.522713    20.699989  0.061607109   0.10796473            2 
   29000    1.2416726   -2.5571431    22.268452  0.063989803   0.10854886            1 
   30000    1.2534214   -2.5333758    23.723225  0.065897847    0.1092545            3 
   31000    1.2283845   -2.5757501    24.894897  0.066921766   0.10965831            3 
   32000    1.2413011   -2.5634639    26.084463  0.067928288   0.10993928            1 
   33000    1.2610871   -2.5505273    27.468141  0.069363992   0.11007454            1 
   34000    1.2687746   -2.5711181    28.634624  0.070182902   0.11006538            2 
   35000    1.2504702   -2.5570439     29.71208  0.070743048   0.10982773            1 
   36000    1.2547216   -2.5611807    30.976464  0.071704777   0.10956403            1 
   37000    1.2768523   -2.5326961    32.159897  0.072432199   0.10929122            3 
   38000     1.247304    -2.553737    33.562804  0.073602639   0.10907978            1 
   39000    1.2607985   -2.5473579    34.852513   0.07447118   0.10887783            4 
   40000    1.2221323   -2.5516421    35.996487  0.074992679   0.10863968            2 
   41000    1.2756724    -2.554231    37.051837  0.075308612   0.10843447            1 
   42000    1.2472191   -2.5578448    38.736066  0.076857272   0.10829085            2 
   43000    1.2639087   -2.5505577    40.060039  0.077635734   0.10819138            1 
   44000     1.245872    -2.527543    41.343939  0.078302914   0.10816281            2 
   45000    1.2359777   -2.5982073    42.451887  0.078614605   0.10812809            1 
   46000    1.2632416   -2.5482889    43.927085  0.079578052   0.10806282            2 
   47000    1.2296488   -2.5592954     45.15093   0.08005484    0.1080226            1 
   48000    1.2637824   -2.5658773    46.122681  0.080074097   0.10792172            1 
   49000    1.2331964   -2.5460285    47.881682  0.081431431   0.10788113            1 
   50000    1.2557494    -2.516793    48.998385  0.081663974   0.10782032            2 
   51000    1.2335543    -2.560101    50.076204  0.081823862   0.10774907            2 
   52000    1.2433023   -2.5307368    51.270681  0.082164552    0.1076162            1 
   53000     1.250528   -2.5234798    52.393608  0.082379886   0.10747143            1 
   54000    1.2441706   -2.5702048    53.844448  0.083093283   0.10734578            1 
   55000    1.2354003   -2.5648522    55.196373  0.083630867   0.10726092            1 
   56000    1.2388347   -2.5694228    56.744037  0.084440531   0.10724373            1 
   57000    1.2453188   -2.5194038    58.029923  0.084839068   0.10725359            1 
   58000    1.2446301   -2.5402325    59.176314  0.085023439   0.10724687            1 
   59000    1.2487472   -2.5274513    60.516859  0.085475788   0.10724356            1 
   60000     1.239149   -2.5652171    62.114005  0.086269451   0.10725762            2 
   61000    1.2614375   -2.5664664    63.278531   0.08644608   0.10729717            1 
   62000    1.2268102   -2.5218134    64.938465  0.087282883   0.10737106            1 
   63000    1.2246487   -2.5672056    65.829935  0.087076633   0.10743261            3 
   64000    1.2127005   -2.5186685    67.617195  0.088043222   0.10750699            1 
   65000    1.2006615   -2.5579021    68.935385  0.088378698   0.10760746            3 
   66000    1.2394385   -2.5377633    71.079624     0.089747   0.10776252            1 
   67000    1.2513359    -2.556735    72.250951  0.089864366   0.10799396            1 
   68000    1.2099517   -2.5723732    73.795684  0.090435887   0.10822338            4 
   69000    1.2404328   -2.5430737    75.735948  0.091468535    0.1084835            1 
   70000     1.263552   -2.5568905    77.498685  0.092260338   0.10875356            3 
   71000    1.2409294   -2.5590015    78.546918  0.092191218   0.10904442            2 
   72000    1.2248599   -2.5671055    80.139534  0.092754089   0.10930015            3 
   73000    1.2444327   -2.5543691    81.173329  0.092663617    0.1095011            2 
   74000    1.2625785   -2.5521019    82.067649  0.092418523   0.10967469            1 
   75000    1.2776911   -2.5236479    83.318537  0.092576151   0.10977653            3 
   76000    1.2382938   -2.5575863    83.963159  0.092064867   0.10980151            1 
   77000    1.2463471   -2.5521308    84.397945  0.091339766     0.109783            2 
   78000    1.2421282   -2.5623451    85.699501  0.091559295   0.10972979            1 
   79000    1.2379858   -2.5904418    86.698005  0.091453592   0.10964358            2 
   80000    1.2520726   -2.5533015     88.50183  0.092189405   0.10956101            1 
   81000    1.2415891   -2.5813408    89.586757  0.092167445   0.10948998            1 
   82000    1.2551299   -2.5833238    90.750856  0.092226479    0.1094311            1 
   83000    1.2305691   -2.5538938    92.225674  0.092596058   0.10937649            1 
   84000     1.235997   -2.5651479    92.883964  0.092146789   0.10929672            3 
   85000    1.2492755   -2.5477358    94.573606  0.092719221   0.10921177            2 
   86000    1.2616157   -2.5422685    96.037148  0.093059251   0.10913259            3 
   87000    1.2176244   -2.5393386    97.400034  0.093295051   0.10911268            2 
   88000    1.2305633   -2.5247565    99.036133  0.093784216   0.10909834            3 
   89000    1.2337942   -2.5642897    100.28396  0.093898835   0.10908998            2 
   90000    1.2441472   -2.5665023    100.90374  0.093429387   0.10903695            1 
   91000    1.2379842   -2.5637426    102.15156   0.09354538   0.10895392            1 
   92000    1.2576116   -2.5581143    103.14037  0.093424249   0.10885251            1 
   93000    1.2140073    -2.557684    104.13968  0.093315122   0.10877268            1 
   94000     1.254945   -2.5571775     106.1195  0.094077571   0.10872449            1 
   95000    1.2520416   -2.5757399    107.66882  0.094446337   0.10869919            1 
   96000    1.2322776   -2.5870986    109.07846  0.094686165   0.10868495            1 
   97000    1.2271953   -2.5504543    110.92545  0.095296776   0.10869775            2 
   98000    1.2207696   -2.5686433    112.21938  0.095424644   0.10870951            2 
   99000    1.2451465   -2.5685995    112.70874  0.094872677   0.10870691            2 
  100000    1.2285321   -2.5656287    114.36188  0.095301564   0.10869644            1 
  101000    1.2329315   -2.5827629    115.32325    0.0951512   0.10866468            1 
  102000      1.22443   -2.5506845    116.87263  0.095484177   0.10865097            1 
  103000    1.2266195   -2.5890001     117.8987  0.095387299   0.10862812            2 
  104000    1.2520184   -2.5399603    118.76589  0.095164974   0.10859916            2 
  105000    1.2447848   -2.5780701     120.2472  0.095434287   0.10855868            2 
  106000    1.2393527   -2.5690078    121.51714  0.095532341   0.10850778            2 
  107000     1.257768   -2.5636433    122.98917  0.095785955   0.10846359            2 
  108000    1.2286935   -2.5707238    123.43694  0.095244554   0.10842284            1 
  109000    1.2466576   -2.5652325    125.08759  0.095632717   0.10838829            2 
  110000    1.2328167   -2.5857213    127.51087   0.09659914   0.10837638            1 
  111000    1.2375425   -2.5597595    127.88879  0.096012607   0.10836049            2 
  112000    1.2420625   -2.5369404    129.51785  0.096367444   0.10834789            1 
  113000    1.2295693   -2.5626732    130.90317  0.096536257   0.10833364            1 
  114000    1.2440286   -2.5662175    132.29588  0.096707511   0.10831301            2 
  115000    1.2545375   -2.5480615    133.79231  0.096950949   0.10830284            1 
  116000    1.2379614   -2.5500534    134.92318  0.096927569    0.1082963            4 
  117000    1.2424948   -2.5770653    135.63994  0.096609646   0.10830024            1 
  118000    1.2379786   -2.6068047    136.64214  0.096498684   0.10829287            3 
  119000     1.226383   -2.5777542    138.83524  0.097223556   0.10829144            1 
  120000    1.2243487   -2.5871828    140.18789  0.097352698    0.1082967            1 
  121000     1.248353   -2.5514074    141.36822  0.097361036   0.10830453            2 
  122000    1.2415196   -2.5402742    142.95507  0.097646908   0.10829699            1 
  123000    1.2591407   -2.5743504    144.47301  0.097881444   0.10829235            1 
  124000     1.194824   -2.5751273    145.19949    0.0975803   0.10829308            3 
  125000    1.2354244   -2.5722353    146.52119  0.097680794   0.10830199            1 
  126000    1.2283981   -2.5828357    147.74283  0.097713514   0.10830407            2 
  127000    1.2126387   -2.5551743    148.79826  0.097636652   0.10829687            1 
  128000    1.2252345   -2.5605071    150.09691  0.097719342   0.10827777            3 
  129000    1.2550862   -2.5604137    150.69637  0.097349077   0.10824641            1 
  130000    1.2095413   -2.5803435     152.3558  0.097663972   0.10821342            2 
  131000     1.222296   -2.5879395    153.16017  0.097430131   0.10818692            1 
  132000    1.2349352   -2.5510283    154.76765  0.097706852   0.10816003            1 
  133000    1.2289632   -2.5582867     155.8566  0.097654511   0.10813383            2 
  134000    1.2279232   -2.5746853    157.08679  0.097690792   0.10808791            1 
  135000    1.1982949   -2.5627016    159.72052  0.098592916   0.10806075            2 
  136000    1.2174011   -2.5562593    160.03863  0.098062884   0.10804861            2 
  137000    1.2027782   -2.5410371    162.21154  0.098668822   0.10805635            1 
  138000    1.2094564   -2.5616386    163.75832  0.098887874   0.10805916            3 
  139000    1.2350851   -2.5349132     162.8995  0.097661569   0.10804849            1 
  140000    1.2375199   -2.5640629    165.55694  0.098545797    0.1080203            1 
  141000    1.2346924   -2.5334883    166.06211  0.098145457   0.10799229            1 
  142000    1.2666626   -2.5461804    166.50967  0.097716945   0.10795105            2 
  143000    1.2284524   -2.5559871    168.90623  0.098430206   0.10790537            1 
  144000    1.2378507    -2.583613    168.80366  0.097687301   0.10785905            2 
  145000    1.2200942   -2.5890602    170.09895  0.097758018   0.10780888            2 
  146000    1.2163533   -2.5796814    171.59808  0.097944108    0.1077663            1 
  147000    1.2239625   -2.5716082    173.18626  0.098178154   0.10772596            1 
  148000    1.2351857   -2.5694482    174.35761  0.098174327   0.10768365            1 
  149000    1.2402231   -2.5753801    175.03371  0.097893575   0.10764102            2 
  150000    1.2014059   -2.5566591    177.61289  0.098673829   0.10760306            1 
  151000    1.2285897   -2.5525267    178.46269  0.098489341    0.1075745            1 
  152000    1.2364955   -2.5925592    179.40422  0.098357577   0.10754581            1 
  153000    1.2313932   -2.5519658    181.00066   0.09858424   0.10751173            2 
  154000    1.2154528   -2.5805912    182.70583  0.098866792   0.10747402            3 
  155000    1.2051895   -2.5642999     184.0729  0.098963924   0.10744982            1 
  156000    1.2170951   -2.5595858    183.95201  0.098264964   0.10740805            1 
  157000    1.2546377    -2.584661    185.03521   0.09821402   0.10736318            2 
  158000    1.2507642   -2.5766553    186.51374  0.098372226   0.10732054            1 
  159000    1.2134502   -2.5606198    188.59224  0.098842893   0.10728093            1 
  160000    1.2113161   -2.5751396    189.60691  0.098753598   0.10725148            2 
  161000    1.2236465   -2.5658706    190.60517  0.098656918   0.10721899            1 
  162000    1.2254664   -2.5810532     191.7954  0.098660184   0.10718757            2 
  163000    1.2303099   -2.5491345    193.88082  0.099121071   0.10715603            2 
  164000    1.2120316   -2.5666533    194.54323  0.098853268   0.10712709            1 
  165000    1.2177396   -2.5687826    196.18328  0.099082465   0.10711401            2 
  166000    1.2259243   -2.5731977    197.54002  0.099166676   0.10710547            1 
  167000     1.221227    -2.552142    199.83208  0.099716604   0.10709631            1 
  168000    1.2022309   -2.5588914    201.05408  0.099729208    0.1070865            2 
  169000    1.2400355   -2.5863956    200.86343  0.099045084    0.1070743            1 
  170000    1.2111852   -2.6046537    202.19091  0.099113193   0.10705543            1 
  171000    1.2312079    -2.588071    202.78724   0.09882419    0.1070306            2 
  172000    1.2190414   -2.5483448    204.63393  0.099144344   0.10700446            1 
  173000    1.2260709    -2.582952    205.66947  0.099070073   0.10697016            2 
  174000    1.2143371   -2.5561849    207.13116  0.099200746   0.10694605            1 
  175000    1.2292285   -2.5485528    208.61339  0.099339707   0.10692599            2 
  176000    1.2242394   -2.5767212    210.59797  0.099714949   0.10689646            1 
  177000    1.2079532   -2.5651628    212.28802  0.099947277    0.1068673            2 
  178000    1.2292923   -2.5522587    212.40635  0.099441173   0.10684745            1 
  179000    1.2253334   -2.5525761     214.6288  0.099920296   0.10683253            4 
  180000     1.220943   -2.5741915    214.54633  0.099327005   0.10681434            2 
  181000    1.2298256   -2.5876395    214.62756  0.098815636   0.10678383            2 
  182000    1.2190187   -2.5875145    216.34069  0.099057094   0.10675105            1 
  183000    1.2388498   -2.5803465    218.28807  0.099402584   0.10671306            1 
  184000    1.2315671   -2.6425628    218.07589  0.098766256   0.10667192            1 
  185000    1.2291907    -2.545132    220.21378  0.099195398   0.10663248            2 
  186000    1.2229476   -2.5621312    221.39486  0.099191244   0.10659791            1 
  187000     1.205495   -2.5553534    224.02155  0.099831352   0.10656271            3 
  188000    1.2297722   -2.5562011     223.8869  0.099240646   0.10652912            1 
  189000    1.2029803   -2.6074796    223.72065  0.098642263   0.10648884            1 
  190000    1.2817595   -2.5499482    225.61257  0.098952881   0.10645755            3 
  191000    1.2203823   -2.5765131    226.71298  0.098914911   0.10642252            1 
  192000    1.2028641   -2.5503406    229.40567  0.099568431   0.10639078            1 
  193000    1.2060157   -2.5609907    230.90353  0.099699277   0.10636378            1 
  194000    1.2364424   -2.5982183     231.0442   0.09924579   0.10633638            2 
  195000    1.2138304   -2.5731091    233.63171   0.09984261    0.1063163            1 
  196000    1.2053647    -2.581238    235.36071   0.10006833   0.10629964            2 
  197000    1.2356673   -2.5359196    235.98748    0.0998255   0.10627631            1 
  198000    1.2089843   -2.5674058    237.02307  0.099757184   0.10625258            2 
  199000    1.2196316   -2.5644862    237.24482  0.099348752   0.10622423            1 
  200000    1.2366541    -2.596235    237.93271  0.099138631   0.10619745            1 
  201000    1.2481767   -2.5633778    241.07703  0.099949019   0.10616621            1 
  202000    1.2198969   -2.5544626    240.84479   0.09935841   0.10613818            2 
  203000    1.2189268   -2.5714868    242.23553  0.099439873   0.10610829            3 
  204000    1.2046618   -2.5473055    242.90595  0.099226287   0.10607215            3 
  205000    1.2342549   -2.5979965    244.52573  0.099400702   0.10602751            2 
  206000    1.2164791   -2.5899604    245.39738  0.099270786    0.1059888            1 
  207000    1.2266757   -2.5718306    245.63179  0.098885585   0.10594362            1 
  208000    1.1971859   -2.5839261    246.11891  0.098605333   0.10589883            3 
  209000    1.1875371   -2.5608932    246.38716  0.098240495   0.10584335            2 
  210000    1.2493317   -2.5696606    248.33142  0.098544213   0.10578112            1 
  211000    1.2241074   -2.5890284    249.44395  0.098516568   0.10572159            2 
  212000    1.2404845    -2.547282    251.22467  0.098751837   0.10566656            1 
  213000    1.2256689   -2.5862686    250.15756  0.097870718   0.10561153            1 
  214000    1.2288641   -2.5680725    252.73872  0.098418503   0.10554995            4 
  215000    1.1944452   -2.5832135    254.47567  0.098633981    0.1054972            2 
  216000    1.2261669   -2.5981989    255.01134  0.098384003   0.10544074            1 
  217000    1.1844464   -2.5767591    256.53433  0.098515488   0.10539034            3 
  218000    1.2147602   -2.5856961    258.52582  0.098824856   0.10534831            1 
  219000    1.1983723   -2.5874866    260.12303  0.098981364   0.10530658            2 
  220000    1.2346599   -2.5744099    261.70263  0.099129783    0.1052613            1 
  221000    1.2054914   -2.5588127      262.976  0.099161386   0.10521586            3 
  222000    1.2223969   -2.5677173    263.21736  0.098805316    0.1051732            2 
  223000    1.2337261     -2.57858    264.56355  0.098865303   0.10513599            2 
  224000    1.2098104   -2.6200908    263.78054  0.098132643   0.10509662            2 
  225000    1.2287522   -2.5780485    268.15143  0.099315344   0.10505327            2 
  226000    1.2358632   -2.5732408    267.74294  0.098725273   0.10501587       -1e+20 
  227000    1.2167578   -2.5677671    269.23022  0.098836351    0.1049797            1 
  228000    1.2107553   -2.6093072    269.63505  0.098550822   0.10494201            2 
  229000    1.2338986   -2.5768163    272.66785  0.099224109   0.10490604            1 
  230000    1.2120089   -2.5466158    272.84858  0.098858179   0.10487232            4 
  231000    1.1997004   -2.5838287    275.12298  0.099250715   0.10483709            1 
  232000    1.2092044   -2.6150705    273.79347  0.098345357   0.10480118            2 
  233000    1.2249675   -2.6115202    276.17504  0.098775051   0.10476593            1 
  234000    1.1965191    -2.581744    279.53491  0.099549468   0.10473576            1 
  235000    1.2150243   -2.5811437    278.32188  0.098695702   0.10470904            2 
  236000    1.2002359    -2.621028    281.71921  0.099477122   0.10468498            2 
  237000     1.228007   -2.5816928    281.06715  0.098828113   0.10465753       -1e+20 
  238000     1.230947     -2.57679    283.27096   0.09918451   0.10462697            2 
  239000    1.1887376   -2.6157034    282.20124  0.098396526   0.10459315            2 
  240000     1.212712   -2.5795828     285.5083  0.099134825   0.10456068            2 
  241000    1.2222331   -2.5763252    286.43944  0.099045448   0.10453135            1 
  242000    1.2048225    -2.582919    288.98331  0.099512157   0.10449868            4 
  243000    1.2433323   -2.5988639    289.12601  0.099151582   0.10446682            1 
  244000     1.203243   -2.5565086    290.04921  0.099060523    0.1044405            3 
  245000    1.2113615   -2.6123303    289.98157  0.098633187   0.10440924            2 
  246000    1.2070711   -2.6081383    292.69064  0.099149945    0.1043743            4 
  247000    1.2358891   -2.5723541    293.75165  0.099106496   0.10434328            1 
  248000    1.1993342   -2.5715274    297.54382  0.099981123    0.1043161            1 
  249000    1.2041579   -2.5955597    296.96204  0.099384885   0.10429288            2 
  250000     1.236402   -2.6013778    296.34505  0.098781684   0.10426918            1 
  251000    1.2051405   -2.6127649    297.55261  0.098789048   0.10424654            1 
  252000    1.2185516   -2.6080587    298.19511  0.098609495   0.10421863            4 
  253000    1.1984153   -2.5937261    302.08561   0.09950119   0.10419379            1 
  254000    1.2006483    -2.601122    301.51368  0.098921812   0.10416582            1 
  255000    1.2282241   -2.5863608    304.25551  0.099429906    0.1041371            1 
  256000    1.2247603   -2.5862779    305.41344  0.099418438   0.10410752            1 
  257000     1.206339    -2.602366    306.44232  0.099365215   0.10407858            3 
  258000    1.2225163   -2.5765592    306.20984  0.098904987    0.1040512            1 
  259000    1.2256613   -2.5800688    308.88406  0.099383546   0.10402794            1 
  260000    1.1912847   -2.5890248    309.18688  0.099098359   0.10400412            1 
  261000    1.2067746   -2.5568788    310.33284  0.099084558   0.10397909            2 
  262000    1.1926459   -2.5915704    311.59384  0.099107455   0.10395278            1 
  263000     1.187915   -2.5879929    312.75698  0.099099169   0.10392709            1 
  264000    1.2040028   -2.5697542    314.01815  0.099121891   0.10390226            1 
  265000    1.1952813   -2.5998831    314.74463  0.098976299   0.10387681            2 
  266000    1.2006366   -2.5899717    315.83536  0.098945914   0.10385198            4 
  267000    1.2138351   -2.6023579    317.89922  0.099219481   0.10382489            2 
  268000    1.2132627   -2.5824831    317.82767  0.098827012   0.10379852            1 
  269000     1.205428   -2.5985655    320.95446   0.09942827   0.10377513            1 
  270000     1.207192   -2.6141702    319.87522   0.09872692   0.10374966            2 
  271000    1.2277434   -2.5976139    320.81369  0.098651196   0.10371873            2 
  272000    1.2024261   -2.5838587    322.73645  0.098877589    0.1036866            1 
  273000    1.2242703   -2.5950581    323.93271  0.098880557   0.10365266            1 
  274000    1.1857813   -2.5735855    325.23987  0.098917236   0.10362099            1 
  275000    1.2166493   -2.5602004    325.97275  0.098779621   0.10358604            2 
  276000    1.2191022   -2.5762951    328.39984  0.099154542   0.10355221            1 
  277000    1.2287932   -2.5870133    328.40719  0.098798793   0.10351809            1 
  278000    1.2229974   -2.5747339    329.07101  0.098642388   0.10348622            1 
  279000    1.1968886   -2.5910542    332.84136  0.099414981   0.10345921            2 
  280000    1.2162227   -2.6024368    330.54324  0.098375965   0.10342821            2 
  281000    1.2126156   -2.5978611    335.44104  0.099478361   0.10340004            1 
  282000    1.2057651   -2.5854959    335.74753  0.099216173   0.10337383            1 
  283000     1.203253   -2.5895595    335.60341  0.098823147   0.10335069            2 
  284000    1.2012489   -2.6121132    336.09994  0.098620875   0.10332317            1 
  285000    1.2118585   -2.5792293     337.6645   0.09873231   0.10329695            3 
  286000    1.2142656   -2.5717138    339.01875  0.098781687   0.10326867            1 
  287000    1.1645112   -2.5939539    340.08411  0.098746839   0.10324397            1 
  288000    1.2025419   -2.5890468    340.40142  0.098495782   0.10321694            2 
  289000    1.2001185   -2.6041823    342.02609   0.09862344   0.10318892            2 
  290000    1.2013343   -2.5629177      343.639  0.098746838   0.10316231            2 
  291000    1.1987619   -2.5834532    346.38444  0.099193712   0.10313396            1 
  292000    1.2141542    -2.598637    348.45961  0.099446236   0.10311257            1 
  293000    1.1997551     -2.56611    347.71368  0.098894677   0.10308922            3 
  294000    1.2083518   -2.6082541    347.29382   0.09843929    0.1030645            1 
  295000     1.193943   -2.6145986    349.55461  0.098744241   0.10303945            2 
  296000    1.2106885   -2.6157469    349.71099  0.098454671   0.10301314            2 
  297000    1.1954209   -2.5721656    351.56152  0.098642403   0.10298371            2 
  298000    1.2111603   -2.6313878    352.70269  0.098630507   0.10295688            1 
  299000    1.2129733   -2.5802956    354.52182  0.098807641   0.10293046            1 
  300000    1.2177021   -2.5990874    355.22309  0.098673079   0.10290394            1 
  301000    1.2055259   -2.5716699      356.401  0.098671372   0.10287803            1 
  302000    1.2185459   -2.6117654    357.83074  0.098739168   0.10285463            1 
  303000    1.1781313   -2.5630834    359.92109  0.098988198   0.10283156            1 
  304000    1.2179498   -2.5725175    362.46027  0.099358627    0.1028094            1 
  305000    1.2038921   -2.6090644    361.69095  0.098822663   0.10279095            1 
  306000    1.1765122   -2.5970573    362.36007  0.098681937   0.10276767            2 
  307000    1.2030235   -2.5954748    362.80045  0.098480035   0.10274448            1 
  308000    1.1894965   -2.5774002    366.29304  0.099105259   0.10272603            2 
  309000    1.2006888   -2.5974881    366.69964  0.098894185   0.10270533            3 
  310000    1.1868739   -2.5893501    367.11351  0.098686427   0.10268174            2 
  311000    1.1828994   -2.6132977    369.85261  0.099103056   0.10265859            4 
  312000    1.1856955   -2.6121879    368.63561  0.098460365   0.10263537            1 
  313000     1.189988   -2.5964397    371.34062  0.098865981   0.10261247            1 
  314000    1.2183036   -2.5838815    371.43862  0.098577128   0.10259014            1 
  315000    1.1754858   -2.5963823    373.15453   0.09871813   0.10256837            1 
  316000     1.198783   -2.5777905     375.4582  0.099013238   0.10254713            2 
  317000    1.2026745   -2.5983147    375.90862    0.0988193   0.10252722            3 
  318000    1.1789138   -2.5900497    377.84738  0.099016608   0.10250763            2 
  319000    1.2410724   -2.6056307    377.83631   0.09870332   0.10248292            1 
  320000    1.2197723   -2.5969736    380.60226  0.099115173   0.10246048            2 
  321000    1.1968526   -2.5686599     380.9673  0.098901167   0.10244284            3 
  322000    1.1932141   -2.5916004    383.14097  0.099156566     0.102422            1 
  323000    1.2029325   -2.6109237    382.24429  0.098618238   0.10240356            1 
  324000    1.1851209   -2.6201945     386.1958  0.099330195   0.10238359            2 
  325000    1.2092909   -2.6125583    386.01277  0.098977634   0.10236256            1 
  326000    1.2122564   -2.6111378    385.77242  0.098612582   0.10234094            2 
  327000    1.1992281   -2.5922232    385.71692  0.098296871   0.10231876            3 
  328000     1.203995   -2.6007321    387.46253  0.098440684   0.10229899            2 
  329000    1.1992487   -2.5970597    390.96994  0.099029874   0.10227636            1 
  330000    1.2118683    -2.583733    389.78058   0.09842944   0.10225588            2 
  331000    1.2053024   -2.6150012    392.46095  0.098806886   0.10223556            1 
  332000    1.2109916    -2.590546    392.26893  0.098461077   0.10221521            2 
  333000    1.1689219   -2.6093012     393.5681  0.098490515   0.10219524            1 
  334000    1.2223688   -2.6043997    395.44573  0.098664103   0.10217129            2 
  335000    1.1749349   -2.6010474    397.26939  0.098823232    0.1021489            1 
  336000    1.1892329   -2.6288074    396.81944   0.09841752   0.10212595            3 
  337000     1.208378   -2.5901257    397.67468  0.098336962   0.10210117            1 
  338000    1.1952574   -2.5857674    401.03743  0.098875106   0.10207737            2 
  339000    1.1745873   -2.5938876    399.66508  0.098246087   0.10205541            1 
  340000    1.1945662   -2.6023741    402.52547  0.098658204    0.1020334            1 
  341000    1.2178086   -2.6117818    404.42752  0.098833704     0.102012            1 
  342000    1.1951696   -2.5914656    404.46677   0.09855428   0.10198883            1 
  343000    1.1876506   -2.6239771    404.14191  0.098188025   0.10196389            1 
  344000    1.2097599   -2.5989574    405.60283  0.098256501   0.10193721            1 
  345000    1.1833971    -2.604394    405.82032  0.098024231    0.1019125            2 
  346000    1.1950652   -2.5897739    409.94161  0.098733528   0.10188795            2 
  347000    1.2105906   -2.5729722    409.92197  0.098444277   0.10186561            1 
  348000    1.1934146   -2.6053937    410.10714  0.098205734   0.10184113            2 
  349000    1.1718377   -2.5970827    414.60756   0.09899894   0.10182023            1 
  350000    1.1882693   -2.5717104     414.2359  0.098627595   0.10180197            4 
  351000    1.2003057   -2.6088066    416.42696  0.098866799   0.10178766            1 
  352000    1.1763309   -2.5859123    417.41719  0.098820358    0.1017704            1 
  353000    1.2140822   -2.5826883    419.23035  0.098968448   0.10175193            2 
  354000    1.1909765   -2.6239302    417.69473  0.098327385   0.10173527            2 
  355000    1.1820085   -2.6110565    419.67206  0.098514568   0.10171809            2 
  356000    1.1962828   -2.5862586    420.94974  0.098536924   0.10169883            2 
  357000    1.1951007   -2.6104364    421.54079  0.098398878   0.10168049            2 
  358000    1.1810931   -2.6157401    423.45637  0.098569918   0.10166133            1 
  359000    1.2071061   -2.6194637    424.17443   0.09846203   0.10164375            1 
  360000    1.1723012   -2.5908789    427.86858  0.099043652   0.10162461            2 
  361000    1.1936535   -2.6273235    425.42649  0.098205561   0.10160475            2 
  362000    1.1693107   -2.6076748    428.63391  0.098672631   0.10158698            1 
  363000    1.1862011   -2.6137338    428.11095   0.09828075   0.10157129            3 
  364000    1.1843069   -2.6076841    432.45534  0.099005343   0.10155467            1 
  365000     1.203623   -2.5975392    432.89913  0.098835418   0.10153685            2 
  366000    1.2097797   -2.6057936    432.85663  0.098555698   0.10151725            1 
  367000    1.2078885   -2.6418186    432.00029   0.09809271   0.10149613            1 
  368000    1.1838332   -2.6083117    433.25976  0.098111359   0.10147358            2 
  369000    1.1969828   -2.6103645    435.68355  0.098392851   0.10144928            1 
  370000    1.2003614   -2.5857446    436.16859  0.098236168   0.10142513            1 
  371000    1.2058292    -2.603296    437.27552  0.098220019    0.1014021            2 
  372000    1.1799551   -2.6141379    438.29246  0.098183795   0.10137773            1 
  373000    1.1956715    -2.608332    440.72283  0.098463545   0.10135552            2 
  374000    1.1851618   -2.5901938    442.18463  0.098525988   0.10133261            2 
  375000    1.2005923   -2.6134808    441.94615  0.098210255   0.10131159            2 
  376000    1.2282158   -2.5953045    441.00701  0.097740914   0.10128956            2 
  377000    1.2036709   -2.6125452    442.04653  0.097711434   0.10126892            1 
  378000    1.2131739   -2.6172349    444.83669  0.098068054   0.10124517            1 
  379000    1.1928301   -2.6338716    445.53648  0.097963166   0.10122417            1 
  380000    1.1926321   -2.5915215     448.2389  0.098298004    0.1012019            2 
  381000    1.1854325    -2.602445    447.99702  0.097987099   0.10118097            2 
  382000    1.2035147   -2.6357295    451.97937  0.098599339   0.10116317            1 
  383000    1.1962586   -2.5733087    450.96072   0.09812026   0.10114338            1 
  384000    1.1617731    -2.583575    452.24068  0.098142508   0.10112606            1 
  385000    1.2235551   -2.6415045     453.4032  0.098139221   0.10110889            1 
  386000    1.1749796   -2.6425993    455.18995  0.098270714   0.10109182            1 
  387000    1.2087481   -2.6342335    456.52399  0.098304046   0.10107426            1 
  388000    1.1991962   -2.6304495    457.55574  0.098272281   0.10105306            2 
  389000    1.2104897    -2.612027    459.19736  0.098371327   0.10103605            3 
  390000    1.2089731   -2.6273498    460.33069  0.098361257   0.10102111            1 
  391000    1.2220212   -2.6523994      460.339  0.098111466   0.10100732            1 
  392000    1.1920907   -2.6091902    463.39347  0.098510516   0.10099074            5 
  393000    1.2026552   -2.6290774    463.04693  0.098186372   0.10097695            1 
  394000    1.2013435   -2.5869648    463.14791  0.097958525   0.10096258            2 
  395000    1.1742699   -2.6003155    466.50301  0.098418355   0.10094578            1 
  396000    1.1950342    -2.626875     465.7876  0.098019277   0.10092894            1 
  397000    1.1693718   -2.6019253    471.03939  0.098874766   0.10091572            3 
  398000    1.1822387   -2.5906911    469.43625  0.098290672   0.10090191            1 
  399000    1.1924139   -2.6104018    471.47444  0.098470017   0.10088695            1 
  400000    1.1930746   -2.6352187    470.45628  0.098011725   0.10087027            2 
  401000    1.1565089   -2.5906619    473.47204  0.098394023   0.10085645            1 
  402000    1.1900608   -2.6237753     474.8706   0.09843918   0.10083968            1 
  403000    1.1827942   -2.5996759    475.19267  0.098261512   0.10082226            3 
  404000    1.1878042   -2.5947311    475.78913  0.098141321   0.10080465            2 
  405000    1.2010472   -2.6100134    478.77014  0.098512375   0.10078735            2 
  406000    1.1858003   -2.5845768    477.98925  0.098109453   0.10077021            1 
  407000    1.2020525   -2.6191825    480.48929  0.098380281   0.10075322            1 
  408000    1.1850052   -2.5909576     479.5157  0.097940297   0.10073429            2 
  409000    1.2200906   -2.6134946    481.06106    0.0980157   0.10071367            1 
  410000    1.1925452   -2.6050787    481.17894  0.097800598   0.10069101            1 
  411000    1.1965041   -2.6338623    479.52894   0.09722809   0.10066885            2 
  412000    1.1900903   -2.6167745    484.34456  0.097966132   0.10064655            3 
  413000    1.1996205   -2.6005812     483.8181  0.097622699   0.10062463            2 
  414000    1.1850378   -2.5841947     487.3261  0.098093015   0.10060316            1 
  415000    1.1742427   -2.5974242    487.01088   0.09779335   0.10058228            2 
  416000    1.2046916   -2.6417034    486.52757  0.097461452   0.10055878            2 
  417000    1.1996755   -2.6090067    489.33428  0.097788625   0.10053603            2 
  418000    1.1876975   -2.5879408    488.69413  0.097427059   0.10051551            5 
  419000    1.1955595    -2.627285    488.83645  0.097222842   0.10049393            2 
  420000    1.1979676   -2.6229302    490.94482  0.097409686   0.10046911            1 
  421000    1.1894256   -2.6305624    493.95046  0.097773249   0.10044518            1 
  422000    1.1915017   -2.6189218    495.28294  0.097804687   0.10042364            2 
  423000    1.1976225   -2.6221454    493.84837  0.097290852   0.10040216            1 
  424000    1.1884677   -2.6217181    497.98571  0.097874549   0.10038171            1 
  425000    1.1651651   -2.6086853    498.50975   0.09774701   0.10036165            2 
  426000    1.1599784   -2.5979919    500.68529  0.097943132   0.10034137            4 
  427000    1.1995465   -2.6207326    499.01065  0.097386935   0.10032098            1 
  428000    1.1620414   -2.6243224    501.88097  0.097718256   0.10030114            3 
  429000    1.1929228   -2.5915345    501.08737  0.097336319   0.10028273            1 
  430000    1.1732248   -2.6252386    504.38214  0.097748476   0.10026386            1 
  431000    1.1872224   -2.6156149    504.50841  0.097546095   0.10024526            1 
  432000    1.2008678   -2.6022433    508.37632  0.098066419   0.10022661            2 
  433000    1.1929225   -2.5885163    508.38011  0.097840668   0.10020739            2 
  434000     1.190381   -2.6649566    506.45484  0.097245553   0.10018798            3 
  435000    1.1576285   -2.6290785    507.79567  0.097278864   0.10016421            2 
  436000    1.1537142   -2.6403882    507.46696   0.09699292   0.10013955            3 
  437000    1.1786603   -2.5856694    510.95499  0.097436116   0.10011745            2 
  438000    1.1921449   -2.6097027    514.36892  0.097863188   0.10009587            1 
  439000     1.166097   -2.6290657    512.95122  0.097371151   0.10007489            3 
  440000    1.1765693   -2.5933006    515.14687  0.097565695   0.10005339            3 
  441000    1.1826386   -2.6213443    515.70143   0.09744925   0.10003239            1 
  442000    1.1887494   -2.6504792    516.83609  0.097442701    0.1000138            2 
  443000    1.1995624   -2.6530323    517.95598  0.097433405  0.099993432            2 
  444000    1.2047687   -2.5945782     519.6333  0.097528773  0.099975315            2 
  445000    1.1708854   -2.6057755    520.92205  0.097550945  0.099956835            1 
  446000    1.1726885    -2.589976    522.71418  0.097667074  0.099937295            1 
  447000    1.1779733   -2.6374215    523.10129  0.097520747  0.099919687            1 
  448000    1.1813809   -2.6011503    525.49733   0.09774876  0.099903023            2 
  449000    1.1759995   -2.6324677     523.8072  0.097217373  0.099889084            1 
  450000    1.2061185   -2.6382085    527.98274  0.097774582  0.099873114            1 
  451000    1.1667827   -2.6413741    524.46263   0.09690736  0.099857425            1 
  452000    1.1810133   -2.5714835    530.24608  0.097759233   0.09984055            1 
  453000    1.2071333   -2.6170397    530.06048  0.097509285  0.099826251            2 
  454000    1.1777131   -2.6441269    534.83556  0.098170991  0.099811762            1 
  455000    1.2002271   -2.6056231     533.8563  0.097775878  0.099797845            1 
  456000    1.1822931   -2.6033327    534.97551  0.097765993  0.099783926            3 
  457000    1.1519116   -2.6298453    535.56094  0.097658814  0.099768676            1 
  458000    1.1611616   -2.6046189    537.34811  0.097770762  0.099753288            1 
  459000    1.1922962   -2.6076365     535.0475  0.097140068  0.099735802            2 
  460000    1.1636674   -2.6080999    538.12395  0.097486223  0.099717786            2 
  461000    1.1842492   -2.6583513    539.27748  0.097483276  0.099701724            2 
  462000    1.1875153   -2.6267129    538.54384  0.097139941  0.099684476            2 
  463000    1.2039769   -2.6183399    541.16354  0.097401645  0.099665613            3 
  464000    1.1641248   -2.5970184    543.59857  0.097629053  0.099646867            2 
  465000    1.1964839   -2.6152614    541.44813  0.097033716  0.099625903            1 
  466000    1.1595106   -2.6317203    544.01564  0.097284629  0.099604577            1 
  467000    1.1794873   -2.6330099    544.93406  0.097240197  0.099584426            1 
  468000    1.1582736    -2.578654    546.36573  0.097287344  0.099565538            2 
  469000     1.199506   -2.6283546    545.67492  0.096957164  0.099547369            1 
  470000    1.1985745   -2.6159626    548.66665  0.097281321   0.09952873            2 
  471000    1.1844131   -2.6394473    550.86991  0.097464599  0.099511744            1 
  472000    1.1667471   -2.6166624    550.23502  0.097146013    0.0994931            1 
  473000    1.1785787   -2.6360582    552.11921  0.097272587  0.099474798            1 
  474000    1.1698791   -2.6457298    549.15963  0.096547051  0.099454412            2 
  475000    1.1856867   -2.6299847    554.12187  0.097214363  0.099433775            4 
  476000     1.160427   -2.6427462    553.55216  0.096910392  0.099414102            1 
  477000    1.1747631   -2.6105376    555.91694  0.097120359  0.099394672            2 
  478000    1.1893718   -2.6140353    556.03373  0.096937539   0.09937542            2 
  479000    1.1769593   -2.6301878     558.7789  0.097212752   0.09935612            2 
  480000    1.1764088    -2.620034     557.9559  0.096867344  0.099335579            2 
  481000    1.1494358   -2.6306172    561.27052  0.097240215   0.09931685            1 
  482000    1.1982486   -2.6204186    563.02867  0.097342439  0.099298056            1 
  483000    1.1656949   -2.6179919    561.51126    0.0968791  0.099279553            2 
  484000    1.1973289    -2.587207    563.67412   0.09705133    0.0992601            1 
  485000    1.1526284   -2.6239819    567.15163  0.097448734  0.099242054            5 
  486000    1.1620444   -2.6168257    565.35189  0.096939625  0.099224252            3 
  487000    1.1856363    -2.615485    569.84913  0.097510119  0.099207814            3 
  488000    1.1675088   -2.6488956    567.94666  0.096985427  0.099190958            2 
  489000    1.1738711   -2.6135755    569.19981   0.09700065  0.099173333            2 
  490000     1.219956   -2.6148727    568.84026  0.096741541  0.099154416            2 
  491000    1.1683911   -2.6456147    571.14224  0.096935206  0.099135667            1 
  492000    1.1797388   -2.6119125    573.58561  0.097152035  0.099116484            2 
  493000    1.1873085   -2.6671494     572.1244  0.096707978  0.099099266            1 
  494000      1.15868   -2.6117459     572.8112  0.096628071  0.099081818            2 
  495000    1.1875162   -2.6119905     577.5803  0.097235741  0.099064421            1 
  496000    1.1405878   -2.6164196    578.85921  0.097254572  0.099047704            1 
  497000    1.1618829   -2.6339296    580.80167  0.097384585  0.099031274            1 
  498000     1.169786   -2.6330519    580.76255  0.097182489  0.099016346            2 
  499000    1.1807374   -2.6444383    579.67104   0.09680545  0.098996769            2 
  500000    1.1510269   -2.6357795    580.85406   0.09680901  0.098978143            1 
  501000    1.1580609   -2.6180146    585.66281  0.097415636  0.098959391            1 
  502000    1.1663191   -2.6301212     583.1685  0.096807519   0.09894331            1 
  503000    1.1633048   -2.6234705    586.30968  0.097135468  0.098924035            4 
  504000    1.1699002     -2.63262      582.765  0.096356646  0.098906446            2 
  505000    1.1547861   -2.6501628    585.27457  0.096579962    0.0988858            3 
  506000    1.2209549   -2.6092632    587.30418  0.096723349  0.098866894            1 
  507000    1.1714574   -2.6473602    588.46678  0.096723665  0.098847194            2 
  508000    1.1632688   -2.6316397    590.11872  0.096804253  0.098828314            3 
  509000    1.1617455   -2.6279243    589.29936  0.096479922  0.098810269            1 
  510000    1.1718422   -2.6485701    591.62595  0.096670907  0.098795527            2 
  511000    1.1906448   -2.6496273    597.88642  0.097502677  0.098781139            2 
  512000    1.1347931   -2.6047999    596.17349  0.097033445  0.098766502            1 
  513000     1.157615   -2.6552705    597.67347  0.097087958  0.098750606            2 
  514000     1.158859   -2.6466025    597.75869  0.096912888  0.098736445            1 
  515000    1.1863248   -2.5946821    599.21959  0.096961099  0.098722082            2 
  516000    1.1700888   -2.6454217    600.19495  0.096930709  0.098707132            2 
  517000    1.1646741   -2.6401757    602.76024  0.097156712  0.098691192            1 
  518000    1.1705805   -2.6667949    597.70559  0.096155983  0.098675181            1 
  519000    1.1722435   -2.6306362    600.55107  0.096427597  0.098658744            4 
  520000    1.1588152   -2.6602857    603.22143    0.0966701  0.098645004            2 
  521000    1.1851687   -2.6676738    606.00842  0.096930329  0.098630311            2 
  522000    1.1560776    -2.594448    608.82036  0.097193544  0.098617714            1 
  523000    1.1493966   -2.6379573    606.76838  0.096680749  0.098606053            1 
  524000    1.1792031   -2.6390012     613.9765  0.097642573  0.098594007            2 
  525000    1.1448309   -2.6129205    610.78606  0.096950169  0.098580976            1 
  526000    1.2030269   -2.6594805    612.99044  0.097115088  0.098567902            2 
  527000    1.1836183   -2.6384416    613.95903  0.097083971  0.098553587            3 
  528000     1.178513   -2.6425207    611.86104  0.096568978  0.098539384            2 
  529000    1.1700928   -2.6346634    615.68415  0.096988682  0.098525337            2 
  530000    1.1825242   -2.6144718    617.39982  0.097075443  0.098512569            1 
  531000    1.1704175   -2.6536969    614.99813  0.096515715   0.09849917            4 
  532000    1.1620114   -2.6324397    620.07403  0.097129391  0.098484479            2 
  533000    1.1613584    -2.638609    621.97658  0.097244619  0.098472731            2 
  534000    1.1754736   -2.6711127    625.71227  0.097645485  0.098461332            3 
  535000    1.1465719   -2.6137121    624.00725  0.097197391  0.098450523            2 
  536000    1.1524751   -2.6057727    628.10367  0.097652934  0.098440399            1 
  537000     1.163806    -2.614868    627.82033  0.097427116  0.098429859            2 
  538000    1.1801853   -2.6402441    624.71062  0.096764347   0.09841738            3 
  539000    1.1823825   -2.6271105    628.74267  0.097208204  0.098403853            2 
  540000    1.1662016   -2.6511268    627.54815  0.096843851  0.098391101            2 
  541000     1.176703   -2.6376634    626.17269  0.096452971   0.09837689            2 
  542000    1.1658356   -2.6287602    628.56137  0.096642277  0.098362608            1 
  543000    1.1696213    -2.637587    628.08689   0.09639148  0.098347858            1 
  544000    1.1881245   -2.6243411    632.87675  0.096948031  0.098333231            2 
  545000    1.1917831   -2.6268735    633.43493  0.096855494   0.09831847            2 
  546000    1.1432865   -2.6482051    632.72554  0.096569832  0.098304231            3 
  547000    1.1798627    -2.629454     633.8719  0.096567931  0.098288117            2 
  548000    1.1793338   -2.6500137    631.55513  0.096039405  0.098272001            1 
  549000    1.1840531   -2.6300411    638.53603  0.096924109  0.098255638            2 
  550000    1.1596512   -2.6608678    637.66533  0.096615959  0.098239633            1 
  551000    1.1716434   -2.6386278    638.99455  0.096641644  0.098224666            3 
  552000    1.1422005   -2.6508154    637.45835  0.096234654  0.098208943            1 
  553000    1.1805909   -2.6238187    640.80648  0.096565172  0.098191516            1 
  554000    1.1735962   -2.6037682    640.97987  0.096416948  0.098175717            2 
  555000     1.165423   -2.6555267    644.37754  0.096753384  0.098159371            1 
  556000    1.1513761   -2.6458056     644.9024  0.096658034  0.098145546            2 
  557000    1.1574101   -2.6616141    646.13098   0.09666831  0.098131009            4 
  558000    1.1784457   -2.6517714    647.55975  0.096708445  0.098116205            3 
  559000    1.1528039   -2.6320765    648.29605  0.096645208  0.098100974            2 
  560000    1.1754569   -2.6556793    646.78551  0.096247844  0.098086507            1 
  561000    1.1704611   -2.6323077    648.88096  0.096387546  0.098071178            1 
  562000    1.1547128   -2.6604737    651.55539  0.096612602   0.09805499            1 
  563000    1.1415182   -2.6164874    650.74464  0.096320994  0.098038809            1 
  564000    1.1231069   -2.6288784    648.42785  0.095807897  0.098023509            1 
  565000    1.1608099   -2.6192872    653.46856  0.096381793  0.098009297            2 
  566000     1.151807   -2.6314231     658.6948  0.096980978  0.097995577            2 
  567000    1.1714141   -2.6273017    658.21699   0.09673971  0.097981996            1 
  568000    1.1844965   -2.6469037    655.69768  0.096199776   0.09796902            2 
  569000    1.1504582   -2.6148546    659.89605  0.096645584  0.097955666            1 
  570000    1.1403657   -2.6259682     659.4949  0.096417382  0.097942197            2 
  571000    1.1641834   -2.6290463    660.15435  0.096344768   0.09792975            2 
  572000    1.1478207   -2.6384082    661.30632   0.09634416  0.097915329            3 
  573000    1.1766083   -2.6478866    661.98067  0.096274094  0.097902375            1 
  574000    1.1393114   -2.6338393    663.95961  0.096393672  0.097888179            1 
  575000    1.1503062   -2.6653232    663.22988  0.096120272  0.097873141            2 
  576000    1.1848309   -2.6503342    666.00358  0.096354684  0.097858968            3 
  577000    1.1528327   -2.6288305    669.18492  0.096647157  0.097843571            2 
  578000    1.1719153   -2.6740574    665.53605  0.095953871  0.097827168            1 
  579000    1.1447773   -2.6200473    667.93836  0.096133904  0.097811728            1 
  580000    1.1352145   -2.6683323    669.55165   0.09619995  0.097794727            1 
  581000    1.1658198   -2.6552521    671.74497  0.096348963  0.097777878            3 
  582000    1.1607844   -2.6451751    670.45134  0.095998187  0.097760606            2 
  583000     1.160364   -2.6620163    671.03837  0.095917435  0.097744235            2 
  584000    1.2008036    -2.626746    674.70985  0.096277091  0.097727136            1 
  585000    1.1803115   -2.6427823    673.01785  0.095871488  0.097710155            3 
  586000    1.1533273   -2.6369123    677.89889  0.096402003  0.097692377            2 
  587000    1.1653535   -2.6373453    674.78104   0.09579515  0.097676014            4 
  588000    1.1757535   -2.6300053    677.31529  0.095991396  0.097657469            1 
  589000     1.180989   -2.6474715    678.10112  0.095939604  0.097639942            2 
  590000    1.1564571   -2.6529893    679.59012  0.095987305  0.097621498            2 
  591000    1.1671011   -2.6596317    678.62333  0.095688568   0.09760354            1 
  592000    1.1324544   -2.6539057    679.80353  0.095693065  0.097585486            3 
  593000    1.1878552   -2.6692115    677.99175  0.095277086  0.097566376            2 
  594000    1.1525612    -2.660039    682.58198   0.09576066  0.097547599            4 
  595000    1.1708859   -2.6551065    683.87571  0.095780912  0.097526997            2 
  596000    1.1401442   -2.6543442    682.60017  0.095441858  0.097507087            1 
  597000    1.1590308   -2.6244607    684.05299  0.095484784  0.097487906            2 
  598000    1.1607304   -2.6232257     686.5974  0.095679682  0.097468521            2 
  599000    1.1649714   -2.6251377    683.89007  0.095143304  0.097450337            1 
  600000    1.1497218   -2.6160583    689.35672  0.095743989  0.097431337            2 
  601000    1.1610685   -2.6499136    687.73072  0.095359224  0.097411996            1 
  602000    1.1543628   -2.6649104    689.87974  0.095498302  0.097391988            1 
  603000    1.1448101    -2.662475    692.20655  0.095661491  0.097374023            1 
  604000    1.1587423   -2.6553275    694.28513  0.095789891  0.097354248            1 
  605000    1.1470187   -2.6212512    695.03851  0.095735332  0.097336403            2 
  606000     1.135605    -2.646406    693.45964  0.095360236   0.09731713            2 
  607000    1.1348444   -2.6296876    699.30499  0.096005628  0.097299694            2 
  608000    1.1473084   -2.6494167    699.98404  0.095940795  0.097282577            3 
  609000    1.1841618    -2.641326    698.36514  0.095561732  0.097265947            2 
  610000    1.1819289   -2.6545311    694.33729  0.094854821  0.097246081            1 
  611000    1.1608107   -2.6387635    701.21937  0.095638211   0.09722642            3 
  612000    1.1786054   -2.6751325    700.67833  0.095408269  0.097208492            2 
  613000    1.1320837   -2.6301066    701.07848  0.095307026  0.097190134            1 
  614000     1.181423   -2.6627138    701.53852   0.09521424  0.097171497            2 
  615000    1.1456227   -2.6461579    703.83714  0.095370886  0.097151773            1 
  616000    1.1551162    -2.659513    706.65868  0.095597765  0.097135266            2 
  617000    1.1606979   -2.6935173    708.01485  0.095625993  0.097116763            1 
  618000    1.1647912   -2.6608138    709.16855  0.095626827  0.097098534            1 
  619000    1.1538219   -2.6798316    704.07701  0.094786888  0.097080981            2 
  620000     1.131827    -2.611352    711.87408     0.095682   0.09706336            1 
  621000     1.139325   -2.6406123    712.03921  0.095550081  0.097046112            1 
  622000    1.1538444    -2.668303    711.60755  0.095338632  0.097029328            2 
  623000    1.1376597   -2.6233263      713.432  0.095429642  0.097012349            3 
  624000    1.1417612   -2.6573428    714.27076  0.095388723  0.096994873            1 
  625000    1.1448938   -2.6445485    716.11245   0.09548166  0.096979173            1 
  626000    1.1514139   -2.6656724     717.2122  0.095475533  0.096962838            1 
  627000    1.1429162   -2.6550477    718.01454  0.095429896  0.096946413            2 
  628000    1.1670118    -2.643724     718.7027  0.095369254  0.096927423            2 
  629000    1.1457776   -2.6564231    718.67636  0.095214144  0.096909867            1 
  630000    1.1723047   -2.6504978    721.14893  0.095390071  0.096892529            6 
  631000    1.1541052   -2.6304687    721.45602  0.095279453  0.096876144            1 
  632000     1.127318   -2.6548737    718.82482  0.094781753  0.096859924            4 
  633000    1.1550731   -2.6422187    723.05723  0.095189209  0.096842776            2 
  634000    1.1361487   -2.6529899    725.36524  0.095342434  0.096825123            3 
  635000    1.1467961    -2.662335    724.75066  0.095111635   0.09680923            2 
  636000    1.1382419    -2.648894    726.56198  0.095199421  0.096793891            1 
  637000    1.1387789   -2.6709694    727.80877  0.095213078  0.096777923            2 
  638000    1.1529078   -2.6147224    729.95574  0.095344271  0.096760993            1 
  639000    1.1507877   -2.6373107    727.54316  0.094880433  0.096745099            2 
  640000    1.1524126   -2.6463056    729.30177  0.094961168  0.096727583            1 
  641000    1.1374734   -2.6470151    734.31932   0.09546533  0.096709419            3 
  642000    1.1715863   -2.6053624    733.15655    0.0951657  0.096693426            3 
  643000    1.1632593   -2.6239852    737.35313  0.095561577  0.096676423            1 
  644000      1.13878   -2.6668295     734.1928  0.095004245  0.096659544            1 
  645000    1.1505408   -2.6387743    737.97816  0.095346016  0.096642188            2 
  646000    1.1659257     -2.65561     736.1681  0.094964925  0.096624724            1 
  647000    1.1609048   -2.6666024     739.4999  0.095247282  0.096607776            2 
  648000    1.1479268   -2.6374095    740.45741  0.095223433  0.096590407            2 
  649000    1.1541704   -2.6532265    742.66777  0.095360525   0.09657282            1 
  650000    1.1402646   -2.6545221    741.68005  0.095087186  0.096556983            2 
  651000    1.1505993   -2.6591838    743.34672  0.095154469  0.096538409            1 
  652000    1.1276969   -2.6567019    740.36261  0.094627123  0.096520161            2 
  653000    1.1463575   -2.6626695    742.99512  0.094818162  0.096500082            2 
  654000    1.1790133   -2.6528528    740.95545  0.094413283   0.09648155            1 
  655000    1.1694943   -2.6678419    744.76829  0.094754235  0.096462876            2 
  656000     1.160447   -2.6780833    746.76253  0.094863126  0.096445629            1 
  657000    1.1455152   -2.6399611    746.57359  0.094694773  0.096427031            3 
  658000    1.1478849   -2.6296484    746.86098  0.094587257  0.096407576            1 
  659000    1.1463616    -2.644676    748.45855  0.094645745  0.096390535            4 
  660000    1.1215164   -2.6874568    748.03406  0.094448745  0.096370816            1 
  661000    1.1523469   -2.6730717     751.0394  0.094684746  0.096351708            2 
  662000    1.1697591   -2.6347064    755.73188  0.095132411  0.096333839            1 
  663000    1.1460019   -2.6500282    751.78565  0.094492918  0.096314895            1 
  664000    1.1133215   -2.6582363    756.33202  0.094921188  0.096295244            1 
  665000    1.1397438   -2.6870638    755.73292  0.094703374  0.096277512            2 
  666000    1.1537044   -2.6553923    758.19391  0.094869108  0.096259576            2 
  667000    1.1600786   -2.6739665      757.883  0.094688031  0.096241827            1 
  668000    1.1252962   -2.6579719    758.98579  0.094683857  0.096224124            2 
  669000    1.1533527   -2.6264481     761.9009  0.094905444  0.096206379            1 
  670000    1.1392387   -2.6379334    760.30564  0.094565378  0.096188829            2 
  671000     1.145786   -2.6563845    762.62457  0.094712441  0.096170777            4 
  672000    1.1177934   -2.6344044    766.13866  0.095007275  0.096154507            1 
  673000    1.1419773   -2.6473363    763.71664  0.094566201   0.09613726            1 
  674000    1.1189483   -2.6661714    764.90471  0.094572788  0.096117863            2 
  675000     1.137166   -2.6581019    766.36693  0.094613201  0.096099237            4 
  676000    1.1461809   -2.6575781    763.54578  0.094125466  0.096078786            1 
  677000    1.1188548   -2.6707919    766.08671  0.094299201   0.09605863            3 
  678000    1.1480825   -2.6483551    768.16738  0.094415853   0.09603865            1 
  679000    1.1483404   -2.6504464     768.9731  0.094375687  0.096018477            3 
  680000    1.1502029   -2.6635942    770.72803  0.094451964  0.095997979            1 
  681000    1.1431188   -2.6888675    769.34603  0.094144155  0.095977931            3 
  682000     1.132623    -2.662846    773.34421  0.094494649  0.095959232            3 
  683000    1.1353118   -2.6538889    772.98555  0.094312536  0.095941549            2 
  684000    1.1425715   -2.6709506    776.30139  0.094578629  0.095925301            1 
  685000    1.1406153   -2.6554523    775.49164  0.094342048   0.09590775            2 
  686000    1.1439136   -2.6762013    780.92608  0.094864684  0.095891308            4 
  687000    1.1478238   -2.6559682    778.55841    0.0944394  0.095872585            2 
  688000    1.1456599   -2.6731975    781.43083  0.094650052  0.095855262            1 
  689000    1.1369877   -2.6697926    780.71494  0.094426093  0.095837789            2 
  690000    1.1410064   -2.6644515    780.17663   0.09422423  0.095820164            1 
  691000    1.1479531    -2.687598    782.32905  0.094347449  0.095803269            2 
  692000    1.1156434   -2.6424501    784.21042  0.094437671  0.095786459            2 
  693000    1.1696753   -2.6556694    784.05386  0.094282571  0.095768918            2 
  694000     1.168373   -2.6380487    789.83526  0.094840929  0.095752099            1 
  695000    1.1548712   -2.6740991    788.33951  0.094525121  0.095736105            2 
  696000    1.1346626   -2.6596706     783.3582  0.093792888  0.095718979            1 
  697000    1.1452776   -2.6936862    789.10928   0.09434592  0.095701581            2 
  698000     1.152019   -2.6401184    791.70553  0.094520718  0.095684914            1 
  699000    1.1380932   -2.6773809    790.01365  0.094183792   0.09566766            1 
  700000     1.105047   -2.6331983    792.28932  0.094320158  0.095649638            2 
  701000    1.1258205   -2.6449017    790.10669  0.093926141  0.095629931            2 
  702000    1.1046827   -2.6540301    791.44006  0.093950625  0.095610993            1 
  703000    1.1371735   -2.7045621    787.43918   0.09334272  0.095590661            2 
  704000    1.1448435   -2.6741903    789.84633  0.093495067  0.095569513            4 
  705000    1.1309935   -2.6648056    794.44536  0.093906071  0.095549157            5 
  706000    1.1420395   -2.6535331    792.73072   0.09357067  0.095529396            1 
  707000    1.1418213   -2.6508602    796.10659  0.093836232  0.095510306            2 
  708000    1.1411721   -2.6892274    793.37231  0.093381863  0.095489628            4 
  709000    1.1195864   -2.6863651    798.99006  0.093910444  0.095469825            2 
  710000    1.1170439   -2.6617252      800.221  0.093922653   0.09545076            2 
  711000    1.1268735   -2.6559275    800.74961  0.093852509  0.095432555            2 
  712000    1.1592937   -2.6800245    802.37678   0.09391114  0.095413283            2 
  713000    1.1623916   -2.6388908    804.65666  0.094045892  0.095394468            2 
  714000    1.1265262   -2.6637829    803.64576   0.09379619  0.095377134            1 
  715000    1.1370594   -2.6543443    804.23104  0.093733222  0.095359183            1 
  716000     1.133784   -2.6469125     807.1865  0.093946288  0.095341489            2 
  717000    1.1040424   -2.6758534    806.68018  0.093756413  0.095323239            2 
  718000    1.1476043   -2.6348557    813.70463  0.094441113  0.095304607            3 
  719000    1.1446159   -2.6821903    807.88277  0.093634998  0.095285481            1 
  720000    1.1420752    -2.670621    806.24207  0.093315055  0.095264211            1 
  721000    1.1092882   -2.6807191     808.3003  0.093423521  0.095242799            1 
  722000    1.1357672   -2.6762574    809.21063  0.093399195  0.095221666            3 
  723000    1.1491961   -2.6627886    811.66307  0.093552682  0.095200966            1 
  724000    1.1302226   -2.6757752    809.21558  0.093141757  0.095180876            1 
  725000     1.123318   -2.6497286    815.33766  0.093716973   0.09515962            2 
  726000    1.1646424   -2.6603823    814.75051   0.09352049  0.095139736            2 
  727000    1.1288169   -2.6877469    816.55485  0.093598677  0.095119492            2 
  728000    1.1460522   -2.6851541     816.7056  0.093487362  0.095098875            2 
  729000     1.148315   -2.6620423    816.05276  0.093284494  0.095078961            1 
  730000    1.1137053   -2.6691787    813.16762  0.092827354  0.095058777            3 
  731000    1.1286444   -2.6765628    822.39613  0.093752408  0.095039252            1 
  732000    1.1438111   -2.6463666    824.57743  0.093872658  0.095019948            1 
  733000    1.0999918   -2.6446054    821.95432  0.093446375  0.095001323            2 
  734000    1.1472568   -2.6947615    822.23819  0.093351294  0.094982421            1 
  735000    1.1169816   -2.6680043     826.0373  0.093655022  0.094962841            2 
  736000    1.1508504   -2.6666432    823.82423    0.0932772  0.094943378            1 
  737000    1.1241081   -2.6565517    829.73288  0.093818733  0.094925811            1 
  738000    1.1295963   -2.6925015    826.15743  0.093287876  0.094906764            3 
  739000    1.1110259   -2.6305525    831.63828  0.093779688  0.094888301            2 
  740000    1.1315017   -2.6838833    829.91491  0.093458886  0.094869912            1 
  741000     1.140375   -2.6851542     826.7092  0.092972244   0.09484971            1 
  742000     1.128779   -2.6750024    831.39834  0.093373578  0.094829733            2 
  743000    1.1230033   -2.6705418     833.0957   0.09343828  0.094810257            3 
  744000    1.1401796   -2.6916233    833.37027  0.093343445  0.094790144            1 
  745000    1.1220114   -2.6627215    835.35217  0.093439839  0.094769807            2 
  746000     1.102353   -2.6795707     829.8459  0.092699497  0.094747912            1 
  747000    1.1142509   -2.6567961    829.57816  0.092545533   0.09472501            4 
  748000    1.1224027   -2.6867832    836.14286  0.093153171  0.094702727            2 
  749000    1.1178226   -2.6603241    835.83213  0.092994229  0.094681567            1 
  750000     1.149169   -2.6810379    833.54882  0.092616535  0.094660264            4 
  751000     1.104724   -2.6640372     837.6052   0.09294332  0.094639963            3 
  752000    1.1286919   -2.6471832     838.5169  0.092920756  0.094619826            5 
  753000    1.1308872   -2.6903784    839.81484  0.092940996  0.094598471            4 
  754000    1.1415812   -2.6187617    839.32748  0.092763868  0.094577682            2 
  755000    1.1275706   -2.6672525    838.27303  0.092524617  0.094557015            3 
  756000     1.086093   -2.6805026    842.58897  0.092877972  0.094536316            1 
  757000    1.1014199   -2.6746878    841.83415  0.092672188  0.094516034            2 
  758000    1.1231711   -2.6488665    843.86578  0.092773282  0.094495052            1 
  759000    1.1506058   -2.6823066    844.21919  0.092689854  0.094474975            3 
  760000    1.1291919   -2.6519437    849.68199  0.093166885  0.094455198            1 
  761000    1.1451974   -2.6690548    850.23266  0.093104759  0.094436343            2 
  762000    1.1406756   -2.6839011    846.73007  0.092599526  0.094417637            2 
  763000    1.0925611   -2.6768471    848.93386  0.092718858  0.094398385            2 
  764000    1.1202702   -2.6784165    851.99895  0.092931822  0.094380685            2 
  765000    1.1374376   -2.6812514    853.13893  0.092934524   0.09436254            2 
  766000    1.1154833   -2.6309241     854.7033  0.092983387  0.094345454            2 
  767000    1.1567947   -2.7023443    855.51377  0.092950214  0.094327932            2 
  768000    1.1367066   -2.6907656    858.92051   0.09319884  0.094310186            2 
  769000    1.1430941   -2.6683951    858.83059  0.093067901  0.094292416            2 
  770000    1.1310209    -2.703071    856.08365  0.092649746  0.094273588            2 
  771000    1.1364853   -2.6880524    860.59114  0.093016769  0.094254674            1 
  772000    1.1349712   -2.7099021    861.56886   0.09300182  0.094237078            1 
  773000    1.1206765   -2.6715476    861.97486  0.092925276  0.094220663            3 
  774000    1.1279903   -2.6735067    864.76607  0.093105736  0.094204046            1 
  775000    1.1283464    -2.680295    865.30804  0.093043876  0.094186865            1 
  776000    1.1327777   -2.6741801    867.27541  0.093135246  0.094170895            2 
  777000    1.1003226    -2.664644    866.25518  0.092905961  0.094154326            1 
  778000    1.1543735   -2.6719775    867.33181  0.092901865  0.094137516            1 
  779000    1.0980796   -2.6469712    871.30772  0.093207928  0.094121425            2 
  780000    1.1461702   -2.6840071    871.26379  0.093083738  0.094104654            2 
  781000    1.1044371    -2.670003    868.52154  0.092671952  0.094087659            1 
  782000    1.1192311   -2.6654452    874.48053  0.093188462  0.094070223            4 
  783000    1.1106086   -2.6757761    873.12888  0.092925594  0.094053515            4 
  784000    1.1256652   -2.7114899    870.16945  0.092492501  0.094036357            1 
  785000    1.1330704   -2.6952562    870.46545  0.092406099  0.094019192            2 
  786000    1.1370745   -2.6749844    874.24571  0.092689324   0.09400147            2 
  787000    1.1245035   -2.6457929     877.2013  0.092884508  0.093983736       -1e+20 
  788000    1.1193633   -2.6922134    875.33208   0.09256896  0.093966562            3 
  789000    1.1135706   -2.6824175    877.02568  0.092630511  0.093948703            2 
  790000    1.0901834   -2.6665151    880.96412  0.092928705  0.093930643            2 
  791000    1.1369945   -2.6738268    879.84791  0.092693627  0.093913568            2 
  792000    1.1175068    -2.657788    879.72222  0.092563365   0.09389678            1 
  793000    1.1199183   -2.6875957    880.22353   0.09249932  0.093878997            1 
  794000    1.1551325   -2.6878914    880.57221  0.092419418  0.093859827            3 
  795000    1.1372365   -2.6709839    879.66244  0.092207803  0.093840787            2 
  796000    1.1196299   -2.6560569    883.05199  0.092446816  0.093821565            1 
  797000    1.1214273   -2.6692547    882.34812  0.092257227  0.093800341            2 
  798000    1.1367585   -2.6709302    883.07343  0.092217359   0.09378113            4 
  799000    1.1177372   -2.6685596    887.75535  0.092590253  0.093763798            2 
  800000    1.1322285   -2.6615537    887.67576  0.092466225  0.093745079            2 
  801000    1.1375306   -2.6678899    886.63854  0.092242878  0.093726562            2 
  802000    1.1498334   -2.6980615    887.84186  0.092252895  0.093707815            2 
  803000     1.124166   -2.6783255     889.3793  0.092297562  0.093689812            2 
  804000    1.1210214    -2.675473    888.82076  0.092124871  0.093671089            1 
  805000    1.1483708    -2.690676    894.15086  0.092562201  0.093653154            3 
  806000    1.1102205   -2.6774634    894.70609  0.092504765    0.0936354            3 
  807000     1.130316   -2.6871272     898.6025  0.092792493  0.093617727            1 
  808000    1.1351823     -2.67857    898.26011  0.092642338  0.093599627            1 
  809000    1.1173883   -2.6769438    897.78131  0.092478503  0.093581702            1 
  810000    1.1123267   -2.6700458    895.42004  0.092121403  0.093564816            2 
  811000    1.1360118   -2.7138074    896.68479  0.092137771  0.093546849            6 
  812000     1.106474   -2.6770666    899.01819  0.092263771  0.093530742            1 
  813000    1.1121546   -2.6819947    900.37999  0.092289872  0.093513699            3 
  814000    1.1340341   -2.6942401    904.27721  0.092575472   0.09349636       -1e+20 
  815000    1.1478827   -2.6753203    903.05415  0.092336825  0.093478552            2 
  816000    1.1143262    -2.667889    906.94764  0.092621287  0.093461128            2 
  817000    1.1000153   -2.6860323    903.90717  0.092197794  0.093443629            1 
  818000    1.1019798   -2.7034585    906.67656  0.092367212  0.093426064            3 
  819000      1.10935   -2.6672267    907.07245  0.092294714  0.093408776            1 
  820000     1.103437   -2.6952891     907.0246  0.092177296  0.093391821            2 
  821000    1.1089457   -2.6851286    908.05588  0.092169699  0.093374369            1 
  822000    1.1323062   -2.6667069    911.55646  0.092412456  0.093357203            4 
  823000    1.1241378   -2.7014718    908.80212  0.092021276  0.093340278            2 
  824000    1.1174495   -2.7140509    910.12032  0.092042912    0.0933229            1 
  825000    1.1282137    -2.688199     915.8803  0.092513162  0.093306314            3 
  826000    1.1251764   -2.6581099    917.58521  0.092573165  0.093289506            2 
  827000    1.1095473   -2.7056516    914.67838  0.092168317  0.093274032            3 
  828000     1.138153    -2.667428    915.71947  0.092161782  0.093257558            1 
  829000    1.1191767   -2.6811807    918.37315  0.092317365  0.093240596            1 
  830000    1.1279799   -2.6828232    916.81673  0.092049873  0.093223476            2 
  831000    1.1289169   -2.7036998    917.44896  0.092002503  0.093206268            4 
  832000    1.1508136    -2.698619    919.80399  0.092127804  0.093188695            4 
  833000    1.1127784   -2.6813201    923.41899   0.09237885   0.09317195            1 
  834000    1.1282267    -2.695989    921.89381  0.092115689  0.093154531            2 
  835000    1.1234142   -2.6554603    921.61736  0.091977781   0.09313822            3 
  836000    1.1158798   -2.6742187    925.32457  0.092237298  0.093121647            1 
  837000    1.1236643   -2.6652323    924.74808  0.092069702  0.093104548            1 
  838000    1.1108069   -2.6814024    928.32786  0.092315817  0.093087738            1 
  839000    1.1267677   -2.6880821    924.46034  0.091821647  0.093070402            2 
  840000    1.1071213   -2.6803174    933.44688  0.092603857  0.093052432            2 
  841000    1.0952994   -2.6715785     930.8469  0.092236117  0.093035078            2 
  842000    1.1248836   -2.6856115    925.58251  0.091605553   0.09301646            3 
  843000    1.0910943   -2.7069979    929.27208  0.091861613  0.092998072            1 
  844000    1.1046858    -2.676742     931.3295  0.091955914  0.092980715            3 
  845000    1.1239501   -2.6822455    927.56819  0.091476153  0.092962397            3 
  846000     1.081793   -2.6945041    932.07418  0.091811878  0.092945463            1 
  847000    1.1314342   -2.6853106    933.94477  0.091887522  0.092926927            1 
  848000     1.103214   -2.7034283    930.08221  0.091399588  0.092909443            1 
  849000      1.13893   -2.6926865    937.05023  0.091975876  0.092892074            2 
  850000    1.1213616   -2.6888725    939.58537  0.092116213  0.092875678            2 
  851000    1.0870072   -2.6763607    936.78353  0.091733601  0.092859231            1 
  852000    1.1153053   -2.6769525    941.94888  0.092131151  0.092843619            2 
  853000    1.0974413   -2.6809746    945.23187  0.092343872  0.092828431            4 
  854000    1.0905083   -2.6986235    941.18814  0.091841153   0.09281274            1 
  855000    1.1175772   -2.6917961    944.26467  0.092033593  0.092796621            2 
  856000    1.1194686   -2.6890772    943.41267  0.091843133  0.092780313            1 
  857000    1.1322343    -2.695588    939.61736  0.091366915  0.092763787            1 
  858000    1.1193406   -2.6879968    946.87299  0.091965131  0.092747803            3 
  859000    1.1513353   -2.6799849    947.38602   0.09190784  0.092732008            4 
  860000    1.1293633   -2.6859723    949.73905  0.092028978  0.092715981            3 
  861000    1.1307135   -2.7001255    948.58179  0.091810084  0.092699051            1 
  862000    1.1065886   -2.6856357    950.65042   0.09190356   0.09268327            1 
  863000    1.1264454   -2.6748424    953.69138  0.092090709  0.092667081            1 
  864000    1.0936889    -2.697599    959.53279   0.09254753  0.092652441            1 
  865000    1.1014015   -2.6875578    947.65578  0.091296317   0.09263662            2 
  866000    1.0949223    -2.687363    956.32115  0.092024745  0.092620274            2 
  867000      1.12171   -2.6997573    957.11239  0.091994654   0.09260571            1 
  868000    1.1136225    -2.695571    957.64165  0.091939483   0.09259035            2 
  869000    1.1151072    -2.695709    955.94503  0.091670985  0.092574743            1 
  870000    1.1119154    -2.701869    950.81212  0.091073957  0.092558855            2 
  871000    1.1146889   -2.6899963    957.24878  0.091585226  0.092541553            2 
  872000    1.1054696   -2.6946251    959.40947  0.091686684  0.092524633            1 
  873000    1.1147976   -2.7078274    960.59004  0.091694353  0.092507792            2 
  874000    1.1111219   -2.7149016    961.84101  0.091708715   0.09249144            2 
  875000    1.1213605   -2.6820142    961.32298  0.091554569  0.092475093            1 
  876000    1.1131996   -2.7095933    963.26164  0.091634479  0.092459652            1 
  877000    1.1154398   -2.7007152    960.08931  0.091228555  0.092443653            2 
  878000    1.1162064   -2.7371091     964.1163  0.091506862  0.092427017            2 
  879000    1.1355113   -2.7260131    962.38379  0.091238509   0.09241056            2 
  880000    1.0787539   -2.6834066    968.15187  0.091681049  0.092393771            2 
  881000    1.1076254    -2.699334     961.8617  0.090981999  0.092376517            4 
  882000     1.111792   -2.6864144    962.50558   0.09093968  0.092359237            1 
  883000    1.1095226   -2.7012772    967.74831  0.091331475  0.092340585            1 
  884000    1.1005665   -2.6901914    969.73146  0.091415107  0.092322917            2 
  885000     1.118533   -2.6733402    971.10202  0.091440868  0.092305236            1 
  886000    1.0976461   -2.6787082    969.26989  0.091165339  0.092287309            3 
  887000    1.1116668   -2.6970027    965.41466  0.090700362  0.092270081            2 
  888000    1.0916727    -2.697004    971.77185  0.091194806  0.092251428            3 
  889000    1.1061871   -2.6801501    970.98259  0.091018241  0.092232607            3 
  890000    1.1100623   -2.6901485    972.48254  0.091056417  0.092214099            3 
  891000    1.1053951   -2.6967496    973.61625  0.091060255  0.092194897            6 
  892000    1.1190283   -2.6861304    974.54978  0.091045383  0.092176074            4 
  893000    1.1307917   -2.6995724    973.26385  0.090823428  0.092157467            1 
  894000    1.1039439    -2.714738    973.29322  0.090724573  0.092138312            1 
  895000    1.1006392   -2.6952437    977.13805  0.090981197  0.092118878            2 
  896000    1.0956928   -2.7094546    976.38771  0.090809869  0.092100486            4 
  897000    1.0864958   -2.6729854    980.52319  0.091092827  0.092083089            1 
  898000    1.1174055   -2.6800764    980.63881  0.091002116    0.0920661            2 
  899000    1.1209014   -2.6947492     980.6664  0.090903448  0.092047779            1 
  900000     1.116616   -2.7019088    985.69543  0.091268095  0.092029863            2 
  901000    1.0841393    -2.701372    984.86372  0.091089874  0.092012248            1 
  902000    1.1168312    -2.703662    987.15483  0.091200557  0.091994978            2 
  903000    1.1019252   -2.6791172    979.85184  0.090425604  0.091976571            2 
  904000    1.0859328   -2.7094479    985.94742  0.090887484  0.091957013            1 
  905000    1.1265123   -2.6928701    987.41861  0.090922524  0.091937568            1 
  906000    1.1185308   -2.7177682    985.70365  0.090664427  0.091919365            3 
  907000    1.1157127   -2.7100095    985.31032  0.090528328   0.09189977            3 
  908000    1.1017904   -2.6924135    983.65782  0.090276965  0.091880782            2 
  909000    1.1240959    -2.705654    990.36014  0.090792092  0.091861228            2 
  910000    1.1227336   -2.6968758    986.68167  0.090355464  0.091841734            5 
  911000     1.107239   -2.6891904    995.16801  0.091032566  0.091822763            3 
  912000    1.1069379   -2.6808804    992.68909   0.09070624   0.09180528            2 
  913000    1.0950401   -2.7031937     995.2259  0.090838436  0.091786531            2 
  914000    1.0957507   -2.6744628    995.43534  0.090758145  0.091768763            1 
  915000    1.0944098   -2.7155248    994.23749  0.090549863  0.091750776            2 
  916000    1.1054245   -2.7231995     997.8699  0.090781468  0.091732536            2 
  917000    1.0769973   -2.7125596    993.63831   0.09029792  0.091713675            1 
  918000     1.076675   -2.7086333    996.83401  0.090489652  0.091694691            2 
  919000    1.1016399   -2.7351613    998.75078  0.090564996  0.091676068            2 
  920000    1.0996552   -2.7088828    997.27095  0.090332514  0.091657511            1 
  921000     1.102859    -2.752906    997.11398   0.09022023  0.091638928            5 
  922000    1.0954412   -2.7423587    999.29018  0.090319069  0.091620626            2 
  923000    1.1083257   -2.6886387    1002.4021   0.09050218  0.091601841            3 
  924000    1.1201295   -2.6850421    999.90469  0.090178995  0.091583213            1 
  925000     1.095934   -2.7127789    1006.7428  0.090697552  0.091563562            1 
  926000    1.0960445    -2.724842    1006.6917  0.090595008  0.091545185            2 
  927000    1.1043116   -2.6952411     1005.916  0.090427547  0.091526434            1 
  928000    1.1249824    -2.690512     1007.335  0.090457528   0.09150803            1 
  929000    1.0974534   -2.7072101    1008.2438  0.090441676  0.091488684            1 
  930000    1.0942136   -2.7298851    1004.5215  0.090010891   0.09146933            2 
  931000    1.0958306   -2.7057777    1005.2194  0.089976669  0.091448773            3 
  932000    1.0976649   -2.7143497     1009.727  0.090283173  0.091429339            2 
  933000    1.0695913   -2.6885243     1009.198  0.090139155  0.091409578            1 
  934000    1.0791788   -2.6951287     1009.579  0.090076646  0.091389511            1 
  935000    1.0741088   -2.6932283    1008.3087  0.089867085  0.091369041            1 
  936000    1.1160488   -2.6913547    1013.7207  0.090252909  0.091349577            1 
  937000    1.0901952   -2.6997526     1009.444  0.089776239  0.091330797            4 
  938000    1.1031939    -2.710301     1016.702  0.090325341  0.091311875            2 
  939000    1.0966918   -2.7235641    1014.6857  0.090050203  0.091292951            4 
  940000    1.0919949   -2.6983601    1017.7854  0.090229204  0.091273592            3 
  941000    1.0917434    -2.684351    1015.2039    0.0899047  0.091253982            2 
  942000    1.1120116   -2.6969212    1016.7932  0.089949855  0.091234941            3 
  943000    1.1162006   -2.6808792    1019.7147  0.090112647  0.091216484            3 
  944000    1.0965558   -2.7211405    1016.9712  0.089775001   0.09119693            1 
  945000    1.1110655    -2.708697    1022.5545  0.090172357  0.091177343            2 
  946000    1.1133938   -2.7182256    1020.4232  0.089889287  0.091157852            1 
  947000    1.1026642   -2.7034292    1017.7569  0.089559744  0.091138211            2 
  948000     1.089508   -2.7026388    1016.5694   0.08936088  0.091118068            1 
  949000     1.110032    -2.709972    1026.1627   0.09010912  0.091098169            1 
  950000    1.1047963   -2.7387048    1020.1144  0.089483721  0.091079416            2 
  951000    1.0928764    -2.696773    1025.5461  0.089865587  0.091060604            3 
  952000    1.0937914   -2.7272595    1025.2689  0.089746931  0.091042725            2 
  953000    1.1023142   -2.7077463    1029.1618  0.089993164  0.091024486            2 
  954000    1.0847963   -2.7275716    1025.8637  0.089610732  0.091006816            2 
  955000    1.1067237   -2.7156543    1026.8301  0.089601229  0.090989291            1 
  956000    1.1034858   -2.6920574    1032.9574  0.090041613  0.090971802            1 
  957000    1.0837239   -2.7191112    1033.5513  0.089999239  0.090954847            2 
  958000    1.0911191   -2.7238806    1039.0901  0.090387103  0.090938517            5 
  959000    1.0939097   -2.7148835    1041.0895  0.090466586  0.090923022            3 
  960000    1.0889346   -2.7136306    1038.7704  0.090171038  0.090907388            2 
  961000    1.1302528   -2.6932413    1037.7831  0.089991595  0.090891142            2 
  962000     1.098572   -2.6843754     1042.893  0.090340694  0.090875414            1 
  963000    1.0916733   -2.7106272    1046.3453  0.090545633  0.090859249            1 
  964000    1.1212142   -2.6994863    1042.8395  0.090148642  0.090843583            1 
  965000    1.1067252   -2.7014165    1042.4348   0.09002028  0.090828139            1 
  966000    1.0958708   -2.7045116    1041.8208  0.089874118  0.090812642            2 
  967000     1.071395   -2.7216863    1045.5648  0.090103823  0.090796231            1 
  968000    1.0676467   -2.7323147    1051.0834  0.090485827   0.09078118            2 
  969000    1.0812677   -2.7067962     1046.992  0.090040591  0.090766827            2 
  970000    1.0859123   -2.7186353    1045.2615  0.089799094   0.09075205            2 
  971000    1.1103622   -2.7307269    1047.3956  0.089889774  0.090736555            4 
  972000    1.0865575   -2.6983978    1051.4252  0.090142765  0.090720828            3 
  973000    1.0781497     -2.70539    1052.4035  0.090133908  0.090705348            3 
  974000    1.0951882   -2.7247565    1049.7523  0.089814535  0.090690614            1 
  975000    1.0820356   -2.7093652    1053.6389  0.090054609  0.090675941            2 
  976000    1.0936373   -2.7360312    1055.3281  0.090106563  0.090661395            2 
  977000    1.1022736   -2.7126772    1057.6847   0.09021534  0.090645946            2 
  978000    1.1200975   -2.7108038    1056.4446  0.090017438  0.090630665            2 
  979000    1.1200868   -2.7241876    1058.5326  0.090103221  0.090616227            2 
  980000    1.1180015   -2.7088004    1061.2575  0.090242988  0.090601974            2 
  981000    1.1153554   -2.7202177    1064.1052  0.090392901  0.090588313            1 
  982000    1.0947391    -2.715916    1066.1446  0.090473913  0.090574424            1 
  983000    1.1048731   -2.6873779    1067.4275  0.090490629  0.090560796            1 
  984000    1.0998847   -2.6885351    1069.4887  0.090573226  0.090547007            3 
  985000    1.1032481   -2.7479218    1063.1516   0.08994514  0.090533526            2 
  986000    1.0815618   -2.7085661    1068.4297  0.090300011  0.090520238            1 
  987000    1.0927369   -2.7104859    1069.1109  0.090266032   0.09050687            1 
  988000    1.1172899   -2.7449579    1068.1879  0.090096821  0.090493602            3 
  989000    1.1111818   -2.7092084    1071.4186  0.090277939  0.090480538            1 
  990000    1.1131797   -2.7344588    1068.3137  0.089925399  0.090467578            1 
  991000    1.1040912   -2.7284988     1070.944  0.090055832  0.090454577            1 
  992000     1.096298   -2.7268621    1073.4646  0.090176794  0.090441633            2 
  993000    1.0864683   -2.7216066    1078.2324  0.090486099   0.09042814            1 
  994000    1.0800992   -2.7049097    1077.1964  0.090308215  0.090415039            2 
  995000    1.0931393   -2.6983502    1078.1405  0.090296526  0.090401541            1 
  996000    1.0834026   -2.7453921     1078.183  0.090209421  0.090388231            1 
  997000    1.1032785   -2.7234375    1077.0982  0.090028271  0.090375403            1 
  998000    1.0684349   -2.6974603    1081.4421  0.090300774  0.090362106            3 
  999000    1.0766137   -2.6969266    1083.1129  0.090349756  0.090349219            1 
 1000000    1.0914773   -2.7026337    1083.0482  0.090254019  0.090336914            2 
 1001000    1.1459844   -2.7234104    1079.9001  0.089901769   0.09032454            3 
 1002000     1.085351   -2.7502981    1085.2513  0.090257096  0.090312883            3 
 1003000    1.0888203   -2.7219714    1086.1248  0.090239681  0.090301474            2 
 1004000    1.1112242   -2.7372484    1085.8891  0.090130239  0.090288947            1 
 1005000    1.0838596   -2.7060006    1090.4972  0.090422649  0.090275799            2 
 1006000    1.0869001   -2.7144115    1087.4709  0.090082079  0.090263166            3 
 1007000    1.0810296   -2.7083432    1090.5985  0.090251447    0.0902502            1 
 1008000    1.0825521   -2.7108994    1091.4774  0.090234576   0.09023723            2 
 1009000    1.0733051   -2.7295212    1091.8797  0.090178368  0.090224479            2 
 1010000    1.1179856    -2.722587    1091.9487  0.090094775  0.090211622            2 
 1011000    1.1058912   -2.7253144    1089.5414  0.089807239  0.090198347            1 
 1012000    1.1081167    -2.712617    1096.9941  0.090332189  0.090185538            2 
 1013000    1.0996666   -2.7352807    1095.2227   0.09009729  0.090172484            1 
 1014000    1.0961732   -2.7177971    1090.2503  0.089599792  0.090159481            2 
 1015000     1.063895   -2.7222018    1099.9686  0.090309411  0.090147348            3 
 1016000    1.0895013    -2.709815    1098.5356  0.090102982  0.090135831            4 
 1017000    1.0819089    -2.711511    1096.1242  0.089816799  0.090124312            2 
 1018000    1.0958217   -2.7107828    1100.5248  0.090088803  0.090111592            3 
 1019000    1.0804444   -2.7177335    1100.3005  0.089982046  0.090098513            2 
 1020000    1.0796383   -2.7182871    1099.5232  0.089830329   0.09008441            2 
 1021000    1.0746939   -2.7072257    1102.5866  0.089992373  0.090070904            1 
 1022000    1.0884671   -2.7268822    1101.6128  0.089824916  0.090056823            2 
 1023000     1.103011   -2.7138013    1101.5008  0.089727994  0.090043413            2 
 1024000    1.0787711   -2.7416765    1100.4795  0.089557251    0.0900301            1 
 1025000    1.1115447     -2.73288    1100.6128  0.089480717  0.090015824            2 
 1026000    1.1296671   -2.7210871    1104.8479  0.089737485  0.090002362            2 
 1027000    1.1135625   -2.7628889    1101.2002  0.089354122  0.089988203            2 
 1028000    1.0981368   -2.7051404    1108.3855  0.089849666  0.089974178            2 
 1029000    1.0899413    -2.737188    1107.0637  0.089655302  0.089960903            1 
 1030000    1.0780449   -2.7122579    1110.8687   0.08987611   0.08994698            1 
 1031000     1.086284   -2.7067712    1109.8924  0.089710021  0.089933431            2 
 1032000    1.0946548   -2.7497077    1108.9413  0.089546294  0.089919363            2 
 1033000    1.0838328   -2.7361338    1113.4382   0.08982238   0.08990576            1 
 1034000    1.0983944   -2.7160127     1111.528  0.089581557  0.089892775            3 
 1035000    1.0786245   -2.7303242    1116.3987  0.089887178  0.089880581            2 
 1036000    1.0965642   -2.7034174    1115.6406  0.089739434  0.089867097            2 
 1037000    1.0874121   -2.7221381    1116.7688  0.089743552  0.089853453            1 
 1038000    1.1169592   -2.7395341      1110.02  0.089115282  0.089840174            1 
 1039000    1.1041863   -2.7431657    1111.0794  0.089114481  0.089826188            4 
 1040000    1.0810035   -2.7247984     1121.794  0.089887337  0.089812892            2 
 1041000    1.0837379   -2.7176586    1120.9792  0.089735765  0.089800252            2 
 1042000    1.0823108   -2.7258522    1118.0856  0.089418234  0.089787252            1 
 1043000    1.1062806   -2.7198231    1122.5284  0.089687475  0.089774673            2 
 1044000    1.0897991    -2.727953    1124.8151  0.089784093  0.089762348            2 
 1045000    1.0663683   -2.7077469    1127.0633  0.089877455  0.089750315            2 
 1046000    1.0631007   -2.7172133     1124.563  0.089592338  0.089739358            2 
 1047000    1.0577728   -2.7468767    1126.0823  0.089627694  0.089727847            1 
 1048000    1.0722497   -2.7177602    1128.8142  0.089759402  0.089715704            4 
 1049000    1.0770294   -2.7473313    1127.1545  0.089541985  0.089704488            1 
 1050000    1.1038689   -2.7273879    1128.1776  0.089537904  0.089692573            1 
 1051000    1.0958171   -2.7163094    1132.7822  0.089817811   0.08968197            3 
 1052000    1.0872163   -2.7317224    1131.9714  0.089668204  0.089669794            2 
 1053000     1.079997   -2.7329578    1130.8696  0.089495855  0.089657261            3 
 1054000    1.0933881   -2.7537172    1134.5381  0.089700987  0.089644741            1 
 1055000    1.0612329   -2.7129255    1133.3434  0.089521594  0.089632738            3 
 1056000    1.0842095   -2.7321977    1133.6237  0.089458938   0.08962081            2 
 1057000    1.0839411   -2.7556201    1136.8931  0.089632067  0.089609403            1 
 1058000    1.0949727   -2.6820582    1142.8265  0.090014687  0.089597281            5 
 1059000     1.079674   -2.7138532    1139.3033  0.089652445  0.089585601            1 
 1060000    1.0576967   -2.7548069    1137.8382  0.089452689  0.089572965            3 
 1061000    1.1100491   -2.7517453    1136.2855  0.089246425  0.089560037            1 
 1062000    1.0610847   -2.7269093    1142.2757  0.089632432  0.089547762            1 
 1063000    1.0884126   -2.7148144    1140.6177  0.089418136  0.089535659            1 
 1064000    1.1026025   -2.7266403     1136.178  0.088986376  0.089523519            3 
 1065000    1.0819845   -2.7307373    1138.7205  0.089101757  0.089511247            2 
 1066000    1.0910718   -2.7363912    1147.4123  0.089697648  0.089498405            3 
 1067000    1.1053434   -2.7376762    1140.3765  0.089064082  0.089484884            3 
 1068000    1.0824109   -2.7145387    1147.7361  0.089554942   0.08947172            2 
 1069000    1.0993522   -2.7264378    1148.8571  0.089558552  0.089459847            2 
 1070000    1.0791898   -2.7740883    1138.7136  0.088684863   0.08944639            4 
 1071000    1.0763636   -2.7187034     1150.095  0.089487628  0.089433284            1 
 1072000    1.0653901   -2.7312686    1150.4258  0.089429863  0.089420057            2 
 1073000    1.0727915   -2.7385172    1147.5703  0.089124751  0.089406626            2 
 1074000    1.0695867   -2.7533683    1151.6552  0.089358721  0.089393684            1 
 1075000    1.0761172   -2.7458133    1145.7722  0.088819548  0.089379623            2 
 1076000    1.0713455   -2.7390169    1152.6445  0.089269244  0.089365524            3 
 1077000    1.0762127   -2.7504075    1151.3305   0.08908469  0.089352007            1 
 1078000    1.0792789   -2.7086238    1153.1254  0.089140799  0.089338595            1 
 1079000    1.0523456   -2.7490015    1149.7832  0.088800061  0.089324434            2 
 1080000    1.0818643   -2.7518248    1151.0547  0.088815952  0.089310674            2 
 1081000    1.0684138   -2.7103861    1151.8442  0.088794649  0.089296513            2 
 1082000    1.1075786   -2.7157652    1151.0168  0.088648858   0.08928241            2 
 1083000    1.0936025   -2.7413053     1157.475  0.089063944  0.089268331            3 
 1084000    1.0631175   -2.7328014    1158.3358  0.089047955  0.089254509            2 
 1085000    1.0583066   -2.7402849    1156.2647  0.088806809  0.089240028            1 
 1086000    1.0687736   -2.7420267    1156.4668  0.088740544  0.089225862            2 
 1087000    1.0670378   -2.7115207    1154.5011   0.08850821   0.08921146            2 
 1088000     1.077311   -2.7542367    1157.3933   0.08864838  0.089197103            2 
 1089000    1.0570886   -2.7445733    1157.7379  0.088593347  0.089182169            4 
 1090000    1.0554968   -2.7462754    1156.6575  0.088429472  0.089167424            2 
 1091000    1.0862351   -2.7549414    1157.6257  0.088422373  0.089152592            2 
 1092000    1.0672784   -2.7302208    1162.6923  0.088728043  0.089137609            1 
 1093000    1.0781565   -2.7192916    1160.8587  0.088507067  0.089122789            4 
 1094000    1.0560972   -2.7337559     1167.996  0.088969835   0.08910808            3 
 1095000    1.0779537   -2.7453059    1159.9221  0.088274135  0.089093825            2 
 1096000    1.0612207   -2.7203109    1172.4023  0.089142509  0.089079394            3 
 1097000    1.0368428   -2.7444448    1164.7031  0.088476385  0.089065162            5 
 1098000    1.0648941   -2.7130461    1173.9137  0.089094847  0.089051162            2 
 1099000    1.0873874   -2.7468322    1171.0869  0.088799429  0.089036676            1 
 1100000    1.0979158   -2.7425426    1172.9664  0.088861094  0.089022784            1 
 1101000    1.0589882   -2.7257928     1171.651  0.088680822  0.089008957            2 
 1102000    1.0798222   -2.7340866    1170.2592  0.088495099  0.088994921            2 
 1103000    1.0744455    -2.769735    1172.8075  0.088607396  0.088979199            1 
 1104000     1.081631   -2.7503689    1171.7053   0.08844394  0.088963743            1 
 1105000    1.0643509   -2.7396348    1175.5397  0.088653066  0.088948858            3 
 1106000    1.0865645   -2.7200749    1174.6767  0.088507887  0.088934093            2 
 1107000    1.0794739    -2.734591    1180.1563  0.088840429  0.088920509            1 
 1108000     1.079291   -2.7261857    1178.0541  0.088602146  0.088906715            1 
 1109000    1.0695394   -2.7158793    1180.6586  0.088717963  0.088893008            1 
 1110000    1.0460038   -2.7362008    1185.2815  0.088985094  0.088878883            2 
 1111000     1.083172   -2.6801969    1179.6046  0.088479196  0.088864844            1 
 1112000    1.0455609   -2.7173377    1181.5216  0.088543288  0.088850855            3 
 1113000    1.0798839    -2.742225    1181.7283  0.088479207  0.088837084            3 
 1114000    1.0865064   -2.7612207     1180.056  0.088274686   0.08882326            2 
 1115000    1.0537227   -2.7655615    1184.2817  0.088511338  0.088808974            2 
 1116000    1.0812932   -2.7588129    1183.2051  0.088351632   0.08879463            2 
 1117000    1.0534591   -2.7211297    1188.9872  0.088703911  0.088780321            1 
 1118000     1.094785   -2.7239036    1183.7457  0.088233879  0.088766287            3 
 1119000    1.0807485    -2.742039    1186.8635  0.088387213  0.088752356            1 
 1120000    1.0638454   -2.7289432    1184.2071  0.088110644  0.088737776            1 
 1121000    1.0603056   -2.7208076    1190.2388  0.088480436  0.088723717            2 
 1122000    1.0702439   -2.7666357       1184.1  0.087945636  0.088709561            2 
 1123000     1.045686   -2.7403387    1191.1285  0.088388877  0.088695308            2 
 1124000    1.0771703   -2.7414086    1188.0288  0.088080426  0.088681715            2 
 1125000    1.0848405   -2.7345485    1193.2232  0.088386905  0.088667348            4 
 1126000     1.078291   -2.7690069    1189.1503  0.088006977  0.088653234            2 
 1127000    1.0547832   -2.7398911     1192.587  0.088183009  0.088639224            2 
 1128000     1.080133   -2.7319425    1192.1524  0.088072722   0.08862572            3 
 1129000    1.0638133   -2.7512176    1196.7214   0.08833196  0.088612151            2 
 1130000    1.0867082   -2.7350577    1202.7695  0.088699817  0.088598768            1 
 1131000    1.0786445   -2.7537521    1202.1981  0.088579285  0.088585203            1 
 1132000    1.0802521   -2.7385111    1203.7999  0.088618959   0.08857201            2 
 1133000    1.0863236   -2.7362492    1200.5237  0.088299771  0.088559071            2 
 1134000    1.0488166   -2.7238764    1201.9854  0.088329322  0.088545117            2 
 1135000    1.0606883   -2.7161508    1201.3957  0.088208201  0.088531626            2 
 1136000     1.088299   -2.7753371    1204.4714  0.088356177  0.088517685            3 
 1137000    1.0570914   -2.7844622    1201.4053  0.088053746  0.088503875            2 
 1138000    1.0759636   -2.7514972    1207.8653   0.08844942  0.088489969            3 
 1139000    1.0625168   -2.7245527    1206.3812  0.088263183   0.08847628            2 
 1140000    1.0709987   -2.7318132    1205.1095  0.088092797  0.088462545            2 
 1141000    1.0562245   -2.7533855    1208.7603  0.088282232  0.088448524            2 
 1142000    1.0614986   -2.7188168     1207.436  0.088108288  0.088434146            2 
 1143000    1.0722365   -2.7513023     1206.952  0.087995917  0.088419378            1 
 1144000     1.072557   -2.7434197    1214.8833  0.088496746  0.088404842            2 
 1145000    1.0769248   -2.7356909    1209.3271  0.088015074  0.088389992            1 
 1146000    1.0685891    -2.741306    1213.0946  0.088212231  0.088375983            2 
 1147000    1.0870429   -2.7487579    1207.9482   0.08776142  0.088361687            2 
 1148000    1.0625384   -2.7682236    1213.6247  0.088097032  0.088347094            2 
 1149000    1.0702104   -2.7517898    1214.7328  0.088100725  0.088332915            2 
 1150000    1.0481208   -2.7496033    1208.7017   0.08758708  0.088319395            4 
 1151000    1.0632394   -2.7371759    1213.1605    0.0878338  0.088305156            1 
 1152000    1.0722408   -2.7641288    1211.9327  0.087668746   0.08829065            3 
 1153000    1.0620356   -2.7523622     1215.012  0.087815267  0.088276866            1 
 1154000    1.0646413    -2.767691    1216.4357  0.087841975   0.08826333            1 
 1155000     1.053983   -2.7276256    1216.8893  0.087798649  0.088249359            1 
 1156000    1.0795689   -2.7279009    1225.9895  0.088378712  0.088235625            3 
 1157000    1.0599178   -2.7225286    1222.0393  0.088017814  0.088222258            2 
 1158000    1.0704495   -2.7724865    1220.3612  0.087821042   0.08820909            1 
 1159000    1.0419012   -2.7451632     1222.439  0.087894663  0.088195619            2 
 1160000    1.1027562   -2.7443879    1228.8548    0.0882798  0.088182449            4 
 1161000    1.0522441   -2.7467092    1231.5679  0.088398499  0.088169723            2 
 1162000    1.0525411   -2.7462017    1226.1454  0.087933546  0.088156288            3 
 1163000    1.0501282   -2.7563504    1223.9351  0.087699562  0.088143032            2 
 1164000    1.0737282   -2.7314053    1226.8246  0.087831083  0.088129528            2 
 1165000    1.0740772   -2.7588573    1231.5172  0.088091363  0.088115754            1 
 1166000    1.0829268   -2.7124237     1226.662   0.08766881  0.088101689            1 
 1167000    1.0622815    -2.732709    1230.0332  0.087834421  0.088087953            6 
 1168000    1.0759705   -2.7638002    1233.4103  0.088000167  0.088073995            2 
 1169000    1.0708653   -2.7643369    1226.9329  0.087463141  0.088059972            2 
 1170000    1.0692858   -2.7437055     1230.101  0.087614028  0.088046399            2 
 1171000    1.0612761   -2.7561524    1232.4476  0.087706208  0.088032678            3 
 1172000    1.0754979   -2.7520006    1236.8076  0.087941384  0.088018829            2 
 1173000    1.0801439   -2.7655259    1234.4064  0.087695819  0.088004358            3 
 1174000    1.0539996   -2.7558512    1235.1236  0.087672034  0.087989872            2 
 1175000    1.0684562   -2.7350542    1237.6089  0.087773678  0.087975494            2 
 1176000    1.0464337   -2.7475899    1236.6457  0.087630786  0.087960305            3 
 1177000    1.0503877   -2.7361325    1234.8322  0.087427939  0.087945804            3 
 1178000    1.0596807    -2.753353    1236.2691  0.087455368  0.087930848            3 
 1179000    1.0493039   -2.7444637    1241.3097  0.087737468  0.087915411            3 
 1180000    1.0805057   -2.7655418    1235.4269  0.087247665  0.087899289            3 
 1181000    1.0500962   -2.7616058    1237.9076  0.087348831  0.087883387            2 
 1182000    1.0849364   -2.7570787    1236.6321  0.087185002  0.087867881            1 
 1183000    1.0516217   -2.7563934    1242.1949  0.087503164  0.087851583            2 
 1184000    1.0436643   -2.7633557    1234.2119  0.086867394  0.087835379            3 
 1185000    1.0688067    -2.761845    1238.2256  0.087076342  0.087819553            2 
 1186000    1.0669809   -2.7397795    1238.7437  0.087039327   0.08780366            3 
 1187000     1.055912   -2.7588051    1238.2321  0.086930083  0.087787115            1 
 1188000     1.052138    -2.767684    1237.5083  0.086806137  0.087769804            2 
 1189000    1.0595112   -2.7450196    1237.4137    0.0867265   0.08775312            1 
 1190000    1.0613826    -2.758082     1239.049  0.086768138  0.087736369            3 
 1191000    1.0747256   -2.7507069     1241.538  0.086869435  0.087719509            1 
 1192000     1.065041   -2.7463716    1239.8625  0.086679427  0.087702523            2 
 1193000    1.0533525   -2.7306463    1242.9165    0.0868201  0.087685802            2 
 1194000    1.0549097   -2.7786305     1239.724  0.086524564  0.087668753            2 
 1195000    1.0584523   -2.7398226    1246.0966  0.086896554  0.087651073            2 
 1196000    1.0668131    -2.754918    1241.0541  0.086472552  0.087633591            2 
 1197000    1.0589915   -2.7740153    1238.0445  0.086190793   0.08761534            1 
 1198000    1.0445535   -2.7438386    1241.7061  0.086373545   0.08759718            2 
 1199000    1.0501366   -2.7639996    1245.0045  0.086530755  0.087578304            1 
 1200000    1.0603837    -2.720503    1245.7079   0.08650749  0.087560247            2 
 1201000    1.0579488   -2.7651856     1246.487  0.086489521   0.08754204            5 
 1202000    1.0487491   -2.7534001    1246.3331  0.086406896  0.087523708            3 
 1203000    1.0555355   -2.7525302    1244.2104  0.086188031  0.087505549            1 
 1204000    1.0405756   -2.7608135    1243.7304  0.086083225  0.087486678            4 
 1205000    1.0919353   -2.7487898    1242.9149  0.085955387   0.08746776            3 
 1206000    1.0591944   -2.7487774    1245.3123  0.086049774  0.087449551            2 
 1207000    1.0674214   -2.7820258    1249.2753  0.086252094   0.08743111            4 
 1208000    1.0233877    -2.759459    1251.8875  0.086360893  0.087413185            2 
 1209000    1.0499518   -2.7674093    1247.5841  0.085992839  0.087394502            3 
 1210000    1.0450366   -2.7683131    1249.9586  0.086085302  0.087376639            2 
 1211000    1.0502634   -2.7734105    1255.7182  0.086410557  0.087358394            4 
 1212000     1.035932   -2.7375883    1253.5637  0.086191125  0.087340901            2 
 1213000    1.0428064   -2.7574726    1254.1631  0.086161245   0.08732248            1 
 1214000    1.0655435   -2.7505355    1256.5828  0.086256373  0.087304495            3 
 1215000     1.038387   -2.7570151    1258.9381  0.086346918  0.087286638            2 
 1216000    1.0648033   -2.7415703    1258.4856  0.086244898  0.087268215            1 
 1217000    1.0623989   -2.7509787    1263.2441   0.08649987  0.087251164            2 
 1218000    1.0637475   -2.7582151    1258.4812  0.086102985  0.087233093            1 
 1219000    1.0771969   -2.7522087    1260.3863  0.086162586   0.08721581            2 
 1220000    1.0466954   -2.7486586    1267.8892  0.086604456  0.087198534            2 
 1221000    1.0688609   -2.7584158    1268.7834  0.086594557  0.087180743            2 
 1222000    1.0642026   -2.7787484    1263.6627  0.086174486  0.087163825            1 
 1223000    1.0532753    -2.752903    1266.8497  0.086321185  0.087145936            1 
 1224000    1.0582093    -2.766305     1263.036  0.085991015  0.087128194            2 
 1225000    1.0553435   -2.7726152    1258.5342  0.085614573  0.087110262            1 
 1226000     1.054455   -2.7468048      1267.18   0.08613241  0.087092609            2 
 1227000    1.0715866   -2.7388455    1270.2847  0.086273072  0.087074907            1 
 1228000       1.0579   -2.7577896     1268.938  0.086111429  0.087057547            2 
 1229000    1.0650564   -2.7222963    1272.4313  0.086278225  0.087040282            1 
 1230000    1.0390839   -2.7835136    1260.5861  0.085405563  0.087022626            1 
 1231000    1.0424807   -2.7835597    1268.2517   0.08585511  0.087004902            3 
 1232000    1.0442941   -2.7563758    1273.9536  0.086171105   0.08698743            2 
 1233000     1.041821   -2.7663187    1271.4109  0.085929364  0.086969442            1 
 1234000    1.0372881    -2.753944    1273.9477  0.086031047  0.086951116            2 
 1235000    1.0563119   -2.7738091    1268.0466  0.085563196  0.086932877            2 
 1236000    1.0587115   -2.7622668    1278.4757  0.086197118  0.086915502            1 
 1237000    1.0453968   -2.7622318    1275.7845  0.085946143  0.086897908            4 
 1238000    1.0461017   -2.7605659    1280.7737  0.086212553  0.086880347            3 
 1239000    1.0642738   -2.7471058    1277.0813  0.085894629  0.086863539            6 
 1240000    1.0549172   -2.7501877    1284.9341  0.086353096  0.086846641            2 
 1241000    1.0435553   -2.7670065    1278.6893  0.085864174   0.08682858            1 
 1242000    1.0634325   -2.7506966    1276.0303  0.085616636  0.086810354            2 
 1243000    1.0668781   -2.7549726    1286.1282  0.086224738  0.086792699            3 
 1244000    1.0636316   -2.7706237    1285.6849  0.086125728   0.08677527            1 
 1245000    1.0527861    -2.781941    1282.5349  0.085845709  0.086757365            3 
 1246000    1.0407467   -2.7555111    1286.0617   0.08601269  0.086739092            2 
 1247000     1.053031   -2.7799915    1280.0126  0.085539466  0.086720946            2 
 1248000    1.0482427   -2.7756556    1288.8752  0.086062712  0.086702955            1 
 1249000    1.0712656   -2.7608858    1285.7214  0.085783388  0.086685962            2 
 1250000    1.0557932    -2.782566    1289.1731  0.085944875   0.08666838            1 
 1251000     1.038914   -2.7754591    1289.1132   0.08587218  0.086651481            1 
 1252000    1.0537056   -2.7638091    1282.0571  0.085333938  0.086633606            2 
 1253000    1.0247712   -2.7647747    1288.8245  0.085715915  0.086616304            2 
 1254000    1.0598622   -2.7570978    1294.7627  0.086042181  0.086598921            2 
 1255000    1.0527357   -2.7494131    1294.3247  0.085944536  0.086581905            2 
 1256000    1.0430753   -2.7694444    1291.9794  0.085720503  0.086564377            1 
 1257000    1.0739621   -2.7528642    1299.1219  0.086125822  0.086547598            2 
 1258000    1.0344289   -2.7635199    1292.6465  0.085628411  0.086530409            2 
 1259000    1.0437165   -2.7604098    1294.9722  0.085714339  0.086513387            2 
 1260000    1.0418184   -2.7511629    1292.6465  0.085492494  0.086496292            1 
 1261000     1.059741   -2.7533621    1294.8388  0.085569578  0.086479086            2 
 1262000    1.0261349    -2.756789    1297.5922  0.085683585  0.086462048            7 
 1263000    1.0379972   -2.7826006    1294.9119  0.085438897   0.08644493            4 
 1264000    1.0657692   -2.7614668    1302.2952  0.085858069  0.086428341            2 
 1265000    1.0428413    -2.757868    1301.7469  0.085754079  0.086411985            3 
 1266000    1.0207616   -2.7600187    1305.1212  0.085908455  0.086395251            2 
 1267000    1.0251662   -2.7617303    1299.5179  0.085472107   0.08637905            3 
 1268000    1.0558055    -2.788785     1295.517   0.08514176  0.086362476            2 
 1269000    1.0430061   -2.7818843     1306.133  0.085771802  0.086345465            3 
 1270000    1.0645238   -2.7844063    1305.7253  0.085677512  0.086328826            3 
 1271000    1.0599573   -2.7595711    1307.1527  0.085703689   0.08631202            2 
 1272000    1.0461586   -2.7863694    1308.1106   0.08569907   0.08629519            1 
 1273000    1.0445353    -2.746324    1307.1982   0.08557202  0.086279091            3 
 1274000    1.0340649   -2.7487161     1305.641  0.085402998  0.086262872            2 
 1275000    1.0479602   -2.7520699     1312.572  0.085789021  0.086246097            1 
 1276000    1.0307575   -2.7776474     1311.248  0.085635316  0.086229727            2 
 1277000    1.0513911   -2.7616294    1312.6019  0.085656612  0.086213323            2 
 1278000    1.0398865   -2.7808868    1312.7299   0.08559793  0.086197179            4 
 1279000    1.0107748   -2.7479697    1320.7832   0.08605572  0.086181554            2 
 1280000    1.0476034   -2.7870452    1311.7113  0.085397872  0.086165517            3 
 1281000    1.0489815   -2.7618232     1319.328  0.085826696  0.086150044            1 
 1282000    1.0667998   -2.7577608    1319.5381  0.085773406  0.086134632            3 
 1283000     1.055839    -2.761373    1318.3039  0.085626391  0.086119214            1 
 1284000    1.0463652   -2.7921736    1314.9068  0.085339226  0.086103466            2 
 1285000    1.0369918    -2.740138    1323.0401  0.085800266  0.086087706            2 
 1286000     1.062346   -2.7928038    1317.3096  0.085362209  0.086071716            3 
 1287000    1.0842051   -2.7594106    1322.2048  0.085612848  0.086055933            1 
 1288000     1.072346   -2.7752165    1320.5339  0.085438268  0.086040425            1 
 1289000    1.0254973   -2.7757071    1328.2268  0.085869332  0.086024362            2 
 1290000    1.0448713   -2.7751675    1326.1024  0.085665527  0.086008351            3 
 1291000    1.0415711   -2.7656638    1325.7792  0.085578313  0.085992687            3 
 1292000    1.0118096   -2.7906137    1323.8234  0.085385928  0.085976677            1 
 1293000    1.0502442   -2.7854105    1322.9469  0.085263399  0.085960447            2 
 1294000    1.0209612   -2.7672935    1326.1408  0.085403191  0.085944116            2 
 1295000    1.0471125   -2.7895517    1319.1588  0.084887954  0.085927411            1 
 1296000    1.0440286   -2.7958204    1327.7091  0.085372239  0.085910237            1 
 1297000     1.042387   -2.7778917    1323.9273  0.085063437  0.085893447            2 
 1298000    1.0333366   -2.7624767    1329.9966  0.085387555  0.085877329            1 
 1299000     1.037576    -2.766195    1327.0327  0.085131688  0.085860667            3 
 1300000    1.0385063   -2.7848767    1331.8478  0.085374858  0.085844315            3 
 1301000    1.0108152   -2.7952973    1323.2352  0.084757571  0.085827605            3 
 1302000    1.0342256   -2.7711908    1329.1181  0.085069004  0.085811289            2 
 1303000     1.058021   -2.7647265     1329.399  0.085021683  0.085794753            1 
 1304000    1.0444271   -2.7826004    1334.2426  0.085266013  0.085778548            1 
 1305000    1.0320808   -2.7868799    1328.7306  0.084848699  0.085762378            6 
 1306000    1.0411976   -2.7685006    1332.0751  0.084997137  0.085746404            2 
 1307000    1.0377416   -2.7954616    1340.6732  0.085480312  0.085730206            3 
 1308000    1.0522492   -2.7626762    1336.3206  0.085137654  0.085714128            4 
 1309000    1.0363114   -2.7880406    1337.8199  0.085168062  0.085698341            3 
 1310000    1.0198735   -2.7787166    1337.2021  0.085063744   0.08568269            4 
 1311000    1.0259812   -2.7770121    1340.9769  0.085238807  0.085666743            3 
 1312000    1.0538885   -2.7477801    1346.4379  0.085520698  0.085651348            4 
 1313000    1.0231563   -2.8025289    1341.4943  0.085141803  0.085635647            1 
 1314000    1.0402378   -2.7673103    1342.0058  0.085109452  0.085619957            2 
 1315000    1.0321472   -2.7747765    1343.2562  0.085123965   0.08560417            1 
 1316000     1.066462   -2.7703701     1347.373  0.085319969  0.085588578            2 
 1317000    1.0385583   -2.7608721    1349.2127  0.085371597  0.085573161            3 
 1318000    1.0462139   -2.8110193     1348.171  0.085240956  0.085557566            2 
 1319000    1.0366023   -2.7781914    1343.0999  0.084855945  0.085542105            2 
 1320000    1.0683883   -2.7948527     1347.064   0.08504192  0.085526679            3 
 1321000    1.0351095   -2.7603626    1352.0775  0.085293812  0.085511443            1 
 1322000    1.0417467   -2.8123652    1351.3544  0.085183714  0.085496011            3 
 1323000    1.0497405   -2.7710343    1354.9175  0.085343758  0.085480834            2 
 1324000    1.0681473   -2.7988065     1354.723  0.085267057  0.085465295            3 
 1325000    1.0556744   -2.7544194    1346.9783  0.084715619  0.085449986            2 
 1326000    1.0445248   -2.7873822    1348.9839  0.084777769  0.085435036            1 
 1327000    1.0157202   -2.7522716     1356.589  0.085191474  0.085419033            2 
 1328000    1.0383148   -2.7732523    1351.7838  0.084825793  0.085402918            2 
 1329000    1.0414453     -2.76747    1357.3293  0.085109686  0.085387129            4 
 1330000    1.0373987   -2.7772973    1355.6281  0.084939104  0.085371191            3 
 1331000    1.0362175   -2.7817326    1351.0588  0.084589207   0.08535517            2 
 1332000    1.0425212   -2.7937421    1353.6944  0.084690594  0.085338069            3 
 1333000     1.016531   -2.7932163    1347.6859  0.084251429  0.085320911            1 
 1334000    1.0227203   -2.7689485    1358.3746  0.084855984  0.085304273            3 
 1335000     1.035401   -2.7527074    1352.1481  0.084403754  0.085287649            5 
 1336000    1.0372975   -2.7621464    1355.1884  0.084530216  0.085270705            1 
 1337000    1.0371521    -2.771588    1357.0226  0.084581311  0.085254232            3 
 1338000     1.047189    -2.770144       1358.7  0.084622571  0.085237507            2 
 1339000    1.0499358   -2.7864888    1350.1439  0.084026878   0.08522051            3 
 1340000    1.0530176   -2.8106495     1355.998  0.084328233  0.085203812            3 
 1341000    1.0298855   -2.7734237    1359.7451  0.084498204  0.085186763            1 
 1342000    1.0323532   -2.7898043    1353.0703  0.084020761   0.08516993            2 
 1343000    1.0423327   -2.7907193    1367.1903  0.084834344  0.085152567            3 
 1344000    1.0294602   -2.7630641    1363.5812  0.084547445  0.085135837            3 
 1345000    1.0342541   -2.7581511    1362.3681  0.084409425  0.085119504            1 
 1346000    1.0272928   -2.7754613    1364.6217  0.084486239  0.085102841            2 
 1347000    1.0115696   -2.7886107    1359.0049  0.084076027   0.08508632            4 
 1348000    1.0456177   -2.7752626    1365.4962  0.084414945  0.085069803            1 
 1349000    1.0243042   -2.7502949    1370.1355  0.084638961  0.085053577            3 
 1350000     1.000285   -2.7768107    1371.6032  0.084666863  0.085037442            1 
 1351000    1.0471794   -2.7979787    1371.4075  0.084592123  0.085021694            2 
 1352000    1.0233582   -2.7935395    1369.0003  0.084381182  0.085005494            4 
 1353000    1.0300156   -2.8069695    1369.1119  0.084325688  0.084989065            5 
 1354000     1.042292    -2.763602    1380.1202  0.084940929  0.084973024            6 
 1355000     1.054445   -2.7878691    1372.4602  0.084407149  0.084957571            2 
 1356000    1.0321867   -2.7784544    1376.7047  0.084605744  0.084942154            2 
 1357000    1.0280485   -2.7903146    1377.4909  0.084591678  0.084927055            3 
 1358000    1.0362146   -2.7765058    1373.6629  0.084294486  0.084910992            4 
 1359000      1.05209   -2.7950111    1375.8503  0.084366589  0.084894354            2 
 1360000    1.0574742   -2.7794478    1374.3871  0.084214895  0.084878205            5 
 1361000    1.0362429   -2.7681263    1383.2116   0.08469334  0.084861992            3 
 1362000    1.0194451   -2.7806684    1375.6383  0.084167785  0.084845889            3 
 1363000    1.0325251    -2.801815    1380.5037  0.084403502  0.084829591            1 
 1364000    1.0249756   -2.7974986    1384.4177  0.084580748  0.084813462            2 
 1365000    1.0364788   -2.7870536    1385.4306  0.084580622  0.084797359            3 
 1366000    1.0390938   -2.7725097    1380.1151  0.084194427  0.084781029            3 
 1367000    1.0120364    -2.763852    1377.4041  0.083967575  0.084764983            1 
 1368000    1.0442039   -2.8074306    1382.3832  0.084209504  0.084748513            3 
 1369000    1.0311438   -2.7906712    1382.7799  0.084172137  0.084731505            1 
 1370000    1.0287557    -2.793868    1382.3734  0.084085973  0.084714664            2 
 1371000    1.0537994   -2.8040396    1381.9633  0.083999713  0.084697775            3 
 1372000    1.0534463   -2.7882306     1388.874  0.084358235  0.084681414            1 
 1373000    1.0314057   -2.7615257    1386.7061  0.084165213  0.084664966            1 
 1374000    1.0099812    -2.791754    1388.5694  0.084216969  0.084648723            1 
 1375000    1.0408807   -2.7792923    1384.6799  0.083919994  0.084632477            4 
 1376000    1.0249459   -2.7878065    1391.4857  0.084271177  0.084616034            1 
 1377000    1.0248135    -2.792528    1390.5121  0.084151059  0.084599611            2 
 1378000     1.035995    -2.792379    1382.7373  0.083619817  0.084582965            1 
 1379000    1.0159788   -2.7924155    1393.6369  0.084217847  0.084566711            3 
 1380000    1.0320979   -2.8115851     1386.915  0.083750905  0.084550125            1 
 1381000    1.0348674   -2.7940035    1388.5576  0.083789382  0.084533977            4 
 1382000    1.0386961    -2.819798    1387.5044  0.083665242  0.084517222            1 
 1383000     1.041501   -2.8109254    1392.6586  0.083915315  0.084500427            4 
 1384000    1.0325619     -2.77903    1392.8397  0.083865591  0.084484228            5 
 1385000    1.0324393   -2.7601326    1394.3436  0.083895521  0.084467249            4 
 1386000    1.0326788   -2.7994704    1388.3282  0.083473318  0.084450399            2 
 1387000    1.0171943   -2.8020061    1389.9407  0.083510017  0.084433555            3 
 1388000    1.0544827   -2.7998313    1394.1874  0.083704818  0.084416534            3 
 1389000    1.0090162    -2.816671    1395.1397  0.083701688  0.084400081            4 
 1390000    1.0173616   -2.8052848    1400.7972  0.083980645  0.084383256            1 
 1391000    1.0225347   -2.7903642    1398.9465  0.083809401  0.084366043            2 
 1392000    1.0367186   -2.7955036    1400.5112  0.083842866  0.084349475            1 
 1393000    1.0276072   -2.8120571    1393.1355  0.083341437  0.084332418            2 
 1394000    1.0625634   -2.7786858     1393.649  0.083312351  0.084315942            1 
 1395000    1.0446764   -2.7914006    1404.4561  0.083898213  0.084299262            1 
 1396000    1.0217923   -2.8054807    1399.7871  0.083559404  0.084283101            2 
 1397000    1.0394644    -2.801688    1403.2822  0.083708077  0.084266522            2 
 1398000    1.0468546   -2.8102525    1397.4291    0.0832993  0.084250709            1 
 1399000    1.0296359   -2.7841183    1405.8119  0.083739096  0.084233945            4 
 1400000    1.0092134   -2.7749457    1405.6308  0.083668498  0.084217865            2 
 1401000     1.022281   -2.8186416    1401.0208   0.08333457  0.084201849            2 
 1402000    1.0316754   -2.7784423    1411.8484  0.083918714  0.084185932            4 
 1403000     1.053499   -2.8084696    1405.3486  0.083472833  0.084170249            1 
 1404000     1.017596   -2.7558733    1409.4846  0.083658868  0.084154647            2 
 1405000    1.0179161   -2.8166408    1411.3938  0.083712563   0.08413845            2 
 1406000    1.0325948   -2.7938354    1411.3224  0.083648791  0.084122372            4 
 1407000     1.045041   -2.8170292    1411.0338  0.083572247  0.084106105            2 
 1408000    1.0006664   -2.7940501    1409.3298   0.08341204  0.084089933            2 
 1409000    1.0248891   -2.8138295    1410.5238  0.083423457  0.084073435            1 
 1410000    1.0095373   -2.7892082    1412.1355  0.083459547  0.084057115            2 
 1411000    1.0464389   -2.8151384    1410.4352  0.083299977  0.084040584            3 
 1412000    1.0128611   -2.8014031    1411.5695  0.083307923  0.084023988            1 
 1413000    1.0140733   -2.7914474    1416.4689  0.083537918  0.084007636            2 
 1414000     1.025621   -2.8180654    1415.1794  0.083402839  0.083991854            2 
 1415000    1.0187602   -2.7947493     1418.147   0.08351867  0.083975689            3 
 1416000    1.0252734   -2.8231991    1418.4244  0.083476012  0.083959292            5 
 1417000     1.025588   -2.7667761     1420.809  0.083557341  0.083942949            2 
 1418000    1.0334942    -2.800587    1416.8415  0.083265251  0.083927024            2 
 1419000    1.0258556   -2.7701388    1421.5016  0.083480246  0.083910687            1 
 1420000    1.0317373    -2.798355    1420.8481  0.083383103  0.083894801            1 
 1421000    1.0095124   -2.7803265     1427.104  0.083691299  0.083878187            1 
 1422000    1.0229157   -2.8142198    1415.7963  0.082969781  0.083861597            1 
 1423000    1.0340952   -2.7922054    1424.8862  0.083443795  0.083845192            6 
 1424000    1.0400289    -2.811741    1426.2345  0.083464095  0.083828776            2 
 1425000    1.0253316   -2.7983482    1425.0338  0.083335308  0.083812021            2 
 1426000    1.0284723   -2.8050587    1418.4034  0.082889398  0.083795044            2 
 1427000    1.0255988   -2.7900825    1423.1022   0.08310571  0.083778662            2 
 1428000    1.0207383   -2.7894178    1422.9797  0.083040364  0.083761779            2 
 1429000    1.0137482   -2.8185734     1422.071  0.082929262  0.083744497            1 
 1430000    1.0222734   -2.8065499    1425.3343  0.083061439  0.083727005            1 
 1431000    1.0444862   -2.8009409    1425.0108  0.082984558  0.083709842            2 
 1432000    1.0405354   -2.7938619    1422.9646  0.082807531  0.083692667            1 
 1433000    1.0233904   -2.7934119    1419.6522  0.082557118  0.083675592            1 
 1434000    1.0326974   -2.8084397    1421.7686  0.082622537  0.083658566            2 
 1435000    1.0397444   -2.7759683    1434.8104  0.083322323  0.083641419            1 
 1436000     1.028254   -2.8226221    1421.7505  0.082506413   0.08362423            2 
 1437000    1.0064717   -2.7840901    1422.7855  0.082509017  0.083606754            1 
 1438000    1.0065163    -2.774592    1433.4028  0.083066922  0.083589323            2 
 1439000    1.0283117   -2.7894585    1429.6837  0.082793823  0.083571894            3 
 1440000    1.0199535   -2.7936352    1423.6555  0.082387471  0.083554138            1 
 1441000    1.0481335   -2.8254488    1431.9087   0.08280758  0.083536629            2 
 1442000    1.0149712   -2.7653547    1429.8468  0.082630996  0.083519147            2 
 1443000    1.0167205   -2.8291651    1436.1544  0.082937999  0.083501982            2 
 1444000     1.011466   -2.8090741    1432.8169  0.082687958  0.083485147            2 
 1445000    1.0224872   -2.7743508    1432.1807  0.082594041  0.083467922            1 
 1446000    1.0252853   -2.8254811    1432.7778  0.082571335  0.083450606            5 
 1447000    1.0278594   -2.8209841    1424.1955  0.082020012  0.083433125            3 
 1448000    1.0270902   -2.8295361    1434.7865  0.082572885   0.08341532            3 
 1449000    1.0349599   -2.7820267     1431.657  0.082335919  0.083397825            2 
 1450000    1.0001661   -2.7865575    1436.1863  0.082539444  0.083380303            3 
 1451000    1.0124215   -2.7883986     1431.423  0.082208992  0.083362665            2 
 1452000    1.0318385   -2.7939212    1435.9488  0.082412123  0.083344979            3 
 1453000    1.0152879   -2.7997205    1431.0788  0.082076098  0.083326888            4 
 1454000    1.0301717   -2.8071372    1435.6934  0.082284124  0.083309024            3 
 1455000    1.0055382    -2.802352    1433.4834  0.082100997  0.083290846            2 
 1456000    1.0280412   -2.8328636    1437.1369  0.082253716  0.083272821            2 
 1457000    1.0371948   -2.8047792    1433.4823  0.081988232   0.08325453            2 
 1458000    1.0220494    -2.800537    1437.0647  0.082136757  0.083236822            5 
 1459000   0.98940455   -2.7934089    1439.2662  0.082206205  0.083218324            4 
 1460000    1.0234249   -2.8144216    1434.5672  0.081881687  0.083199993            2 
 1461000    1.0007876   -2.8002633    1445.4751  0.082447814  0.083182041            2 
 1462000    1.0019533   -2.8038135    1441.1576  0.082145325   0.08316407            3 
 1463000    1.0466882   -2.8061686    1445.9315  0.082361101  0.083146192            2 
 1464000    1.0172436   -2.7998057    1446.5819  0.082341869  0.083127847            4 
 1465000    1.0275305   -2.7905289    1445.3841  0.082217523  0.083109734            2 
 1466000    1.0122974   -2.7929009    1450.2431  0.082437647  0.083091903            2 
 1467000    1.0297631   -2.8040951     1450.495  0.082395764  0.083074024            1 
 1468000    1.0092658   -2.7666715    1449.4719  0.082281558  0.083056521            2 
 1469000   0.99925378   -2.8309136    1441.1765  0.081754963  0.083038647            3 
 1470000    1.0091628   -2.7973964    1446.4785  0.081999916  0.083020557            2 
 1471000    1.0187801    -2.804927    1444.2316   0.08181688  0.083002475            1 
 1472000    1.0408979   -2.7844295    1446.6764  0.081899704  0.082984317            3 
 1473000    1.0011447   -2.7781462    1448.1299  0.081926334  0.082966451            2 
 1474000    1.0253359   -2.8314857    1447.0441  0.081809369  0.082948379            2 
 1475000    1.0012599   -2.8288204    1449.5563  0.081895839  0.082930439            2 
 1476000    1.0193881   -2.7909787    1452.1871  0.081988883  0.082912509            7 
 1477000    1.0266493    -2.789529    1450.2318  0.081823054  0.082894575            3 
 1478000    1.0060482   -2.8067628    1451.8904  0.081861211  0.082876279            1 
 1479000    1.0120154   -2.8049747    1457.6461  0.082130163  0.082858028            2 
 1480000    1.0415254   -2.8149573    1454.6965  0.081908586  0.082840562            2 
 1481000    1.0048468   -2.8024402    1459.4166   0.08211887  0.082823069            1 
 1482000    1.0128999   -2.8070171     1458.107  0.081989823  0.082805825            3 
 1483000   0.99992799    -2.811664    1464.9293  0.082317899  0.082788718            2 
 1484000    1.0127296   -2.8182986    1458.6359  0.081909026  0.082771354            2 
 1485000   0.99674878   -2.8084962    1459.3403  0.081893393  0.082753938            2 
 1486000    1.0044123   -2.8127002    1464.9477  0.082152744  0.082736381            7 
 1487000    1.0141442   -2.8152248    1458.6664  0.081745481  0.082718701            1 
 1488000    1.0026032   -2.8117457    1460.2732  0.081780531   0.08270083            3 
 1489000    1.0234516   -2.8208322    1461.5024  0.081794402  0.082682943            2 
 1490000    1.0060738   -2.8189079    1461.1697  0.081720898  0.082664932            3 
 1491000    1.0064546   -2.8281026    1461.7618  0.081699185  0.082647352            1 
 1492000    1.0137947    -2.829944    1467.8245   0.08198305  0.082630327            2 
 1493000    1.0424602   -2.8168677    1472.6328   0.08219652  0.082613188            2 
 1494000    1.0125794   -2.8287797    1463.2925  0.081620512  0.082595774            3 
 1495000    1.0181138   -2.8349938    1462.1747  0.081503605  0.082578527            5 
 1496000     1.008185   -2.8280643     1468.236  0.081786765  0.082561311            2 
 1497000    1.0255293   -2.8016243    1468.6862  0.081757191  0.082544298            3 
 1498000    1.0080764   -2.8160777     1469.594  0.081753116  0.082526826            2 
 1499000    1.0148504   -2.8108125    1472.1562  0.081841014    0.0825098            2 
 1500000    1.0072503   -2.7944037    1469.0066  0.081611478  0.082492986            3 
 1501000    1.0163499   -2.8176431    1471.3062  0.081684776  0.082475912            3 
 1502000    1.0271979   -2.8081571     1473.013  0.081725086  0.082458559            2 
 1503000   0.98405065   -2.8114035    1474.3882  0.081746964  0.082441466            2 
 1504000    1.0359304   -2.8107641    1473.6733  0.081652996  0.082424532            2 
 1505000   0.99417011    -2.835167    1475.0493  0.081674932  0.082407477            1 
 1506000    1.0026687   -2.8200887    1479.6744  0.081876627  0.082390601            3 
 1507000    1.0238254   -2.8058932     1476.282  0.081634707  0.082373895            2 
 1508000    1.0207999   -2.8224195    1485.1267  0.082069336  0.082357669            2 
 1509000    1.0039267   -2.8193339    1478.6971  0.081659882  0.082341004            1 
 1510000    1.0002666   -2.7906962    1477.3689  0.081532502  0.082324335            3 
 1511000    0.9994469   -2.8149318    1473.7313  0.081277924  0.082307659            2 
 1512000    1.0081012   -2.8101017    1480.9478  0.081621904  0.082290949            2 
 1513000    1.0206016   -2.8246762    1479.0077    0.0814611  0.082274384            4 
 1514000    1.0017717   -2.8229266    1487.1369  0.081854738  0.082257521            3 
 1515000    1.0026335   -2.8082251    1481.2743  0.081478232  0.082241012            1 
 1516000    1.0177274   -2.8115289    1482.0712  0.081468293  0.082224255            2 
 1517000    1.0082291   -2.8303254    1486.0424  0.081632741  0.082207177            2 
 1518000    1.0039108   -2.8075583    1489.2999   0.08175779  0.082190279            1 
 1519000    1.0210095   -2.8431832    1486.4017  0.081544967  0.082173476            5 
 1520000    1.0121408   -2.8308539    1486.5706  0.081500584  0.082156701            3 
 1521000    1.0261365    -2.825541     1485.454  0.081385821  0.082139683            2 
 1522000    1.0278315   -2.8297285    1488.3521  0.081491024  0.082122821            3 
 1523000   0.99657441   -2.8440791    1488.0844  0.081422872  0.082105879            2 
 1524000   0.99721308   -2.8193519    1490.8705  0.081521791  0.082089493            2 
 1525000   0.98744568   -2.8233816    1496.5395  0.081778113  0.082072642            2 
 1526000   0.98930863   -2.8163688    1487.6925  0.081241397  0.082055971            3 
 1527000   0.99634637   -2.8133048     1494.703   0.08157078  0.082039289            1 
 1528000    1.0070535   -2.7631894    1496.7425  0.081628628  0.082022336            1 
 1529000    1.0035357   -2.8292159    1492.8511   0.08136315  0.082005534            1 
 1530000    1.0122566   -2.8250476     1496.144  0.081489323  0.081989033            1 
 1531000    1.0161119   -2.8061799    1491.0162  0.081156989  0.081972458            1 
 1532000   0.98820418   -2.8026013    1498.6493  0.081519219  0.081955914            2 
 1533000    1.0208536   -2.8208001    1495.0079  0.081268098  0.081939562            3 
 1534000     1.019838   -2.8371997    1498.2936  0.081393611  0.081923246            3 
 1535000   0.99195483   -2.8296674    1494.5997  0.081140048  0.081906805            3 
 1536000   0.99742128    -2.811405    1495.8321  0.081154084  0.081890051            2 
 1537000    1.0050351   -2.8097918    1499.8504  0.081319151   0.08187325            1 
 1538000    1.0180005   -2.8119151     1501.529  0.081357228   0.08185677            4 
 1539000    1.0031477   -2.8074888     1497.563  0.081089617  0.081839601            2 
 1540000    1.0069871    -2.838229    1502.2045  0.081288125  0.081822889            3 
 1541000   0.98538139   -2.8160149    1502.4654  0.081249481  0.081805914            5 
 1542000    1.0149338   -2.8318262    1505.1256  0.081340553  0.081789676            2 
 1543000   0.99269523   -2.7962207    1508.4002  0.081464692  0.081772847            2 
 1544000   0.99801289   -2.7955516    1506.4457   0.08130644  0.081756621            2 
 1545000    1.0146865   -2.8163767     1507.743  0.081323788  0.081740322            2 
 1546000    1.0118855   -2.8399903    1505.8193   0.08116749    0.0817241            3 
 1547000    1.0009799   -2.8283812    1502.5627  0.080939598  0.081707379            1 
 1548000    1.0137374   -2.8141869    1509.6653  0.081269667  0.081690776            3 
 1549000    1.0154637   -2.8194264    1513.0581  0.081399723  0.081674266            3 
 1550000    1.0089231   -2.8196328    1514.9673  0.081449853  0.081658124            1 
 1551000    1.0199198   -2.8198424    1507.8788  0.081016482  0.081641807            3 
 1552000    1.0184669   -2.8109001    1515.5545  0.081376423  0.081626175            2 
 1553000    1.0108507   -2.8222889    1511.4123  0.081101754  0.081610441            2 
 1554000   0.98451887   -2.8084813    1519.1165  0.081462706  0.081594722            3 
 1555000    1.0025677   -2.8099438    1516.7604  0.081284051  0.081578766            3 
 1556000    1.0034234   -2.8242615    1510.2424  0.080882732  0.081562731            1 
 1557000    1.0072532   -2.8319233    1519.8335  0.081344118  0.081547133            3 
 1558000    1.0018945   -2.8362397    1510.0712  0.080769747   0.08153131            1 
 1559000    0.9913428   -2.8337084    1528.5065  0.081703362   0.08151527            1 
 1560000    1.0051044    -2.795233    1522.0446  0.081305802  0.081499585            3 
 1561000    1.0088479   -2.8166963    1526.2582  0.081478657  0.081484014            2 
 1562000   0.98955651   -2.8416488    1519.5917  0.081070834  0.081468623            2 
 1563000   0.98908331   -2.8652389    1518.9631  0.080985449  0.081453439            5 
 1564000   0.98262064   -2.7988796    1532.0366  0.081630251  0.081438602            1 
 1565000    1.0359509   -2.8062566    1524.5862  0.081181376  0.081423621            3 
 1566000    1.0284615   -2.8397285    1532.7092  0.081561791  0.081408809            1 
 1567000    1.0223105   -2.8317097     1527.869  0.081252342  0.081393954            2 
 1568000   0.98804073   -2.7992152    1532.7432  0.081459568  0.081379018            2 
 1569000    1.0034752   -2.8213602    1533.1137  0.081427325  0.081364237            4 
 1570000    1.0018621   -2.8288399    1534.8158  0.081465805  0.081349611            2 
 1571000   0.98952441   -2.8088952     1535.346  0.081442075  0.081334681            3 
 1572000    1.0152676    -2.816647    1537.0608  0.081481169  0.081320007            3 
 1573000    1.0038101   -2.8212734     1536.873  0.081419421  0.081305073            3 
 1574000   0.96765062   -2.8249685    1530.0237  0.081005068  0.081289662            3 
 1575000      0.97275   -2.8261534    1534.3541  0.081182756   0.08127433            3 
 1576000    1.0190443   -2.8433675    1531.7167  0.080991787  0.081259231            2 
 1577000   0.99921496   -2.8066144    1536.5723  0.081197016  0.081244445            2 
 1578000    1.0016942   -2.8397445     1542.292  0.081447613  0.081229053            2 
 1579000   0.98612095   -2.8090384    1534.9724  0.081009731  0.081213784            2 
 1580000    1.0077392   -2.7919367    1534.8478  0.080951886  0.081198521            3 
 1581000    1.0026533   -2.8479544    1535.2073  0.080919636  0.081182851            4 
 1582000    0.9998914   -2.8553225    1539.1262  0.081074915  0.081167651            3 
 1583000     1.017683   -2.7991336    1536.3297  0.080876486  0.081152415            1 
 1584000    1.0212272   -2.8362506    1540.7886  0.081060005  0.081137316            5 
 1585000   0.97894829   -2.8423379    1542.5891  0.081103526  0.081122156            1 
 1586000    1.0097325   -2.8163569    1541.6497  0.081003034  0.081106934            1 
 1587000   0.99082547   -2.8137057    1544.4058  0.081096711  0.081091735            1 
 1588000     1.000687   -2.8323294    1539.4495  0.080785553  0.081076769            3 
 1589000   0.99974084   -2.8624192    1537.2155  0.080617555  0.081061354            1 
 1590000    1.0332861   -2.8448258    1537.6261  0.080588369  0.081045799            2 
 1591000   0.97779451   -2.8477915    1548.4401  0.081104131  0.081030682            2 
 1592000    1.0024457   -2.8051878    1543.7668  0.080808566  0.081015703            6 
 1593000   0.99861903    -2.839575    1547.0215  0.080928099  0.081000448            3 
 1594000    1.0242534   -2.8366609    1547.5966  0.080907393   0.08098545            5 
 1595000    0.9715685   -2.8176781    1548.4779  0.080902709  0.080970017            2 
 1596000    1.0001738   -2.8297521    1548.1756  0.080836237  0.080954885            2 
 1597000    1.0234952   -2.8268377    1544.3807  0.080587596   0.08093995            4 
 1598000    1.0020854   -2.8252281    1547.0824  0.080678055  0.080924663            3 
 1599000    0.9817122   -2.8410143    1547.0077  0.080623707  0.080909345            2 
 1600000   0.99858654   -2.8355135    1544.4904  0.080442207  0.080893619            3 
 1601000   0.98689098   -2.8073436    1553.8539  0.080879341  0.080878102            3 
 1602000    1.0034188   -2.8133443     1548.155  0.080532406  0.080862363            1 
 1603000   0.98252324   -2.8242329    1552.4888  0.080707466   0.08084709            3 
 1604000   0.99755518   -2.8309897     1553.002  0.080683813  0.080831568            1 
 1605000   0.98692791   -2.8462326    1545.2676  0.080231963  0.080815945            3 
 1606000   0.99787731   -2.8511521    1549.0547   0.08037851   0.08080014            4 
 1607000   0.98511165   -2.8271636    1550.6984  0.080413732  0.080784578            3 
 1608000   0.98443214   -2.8179884    1550.2472  0.080340342  0.080768944            3 
 1609000   0.97632422   -2.8427397    1552.3888  0.080401324  0.080753152            1 
 1610000   0.99805778   -2.8385096    1549.2605  0.080189465  0.080737679            2 
 1611000    1.0043193   -2.8571173    1553.7093  0.080369818  0.080721935            2 
 1612000    0.9921239   -2.8213524    1556.5791  0.080468316  0.080706203            3 
 1613000   0.98861123   -2.8429548    1554.2866  0.080299991  0.080690555            2 
 1614000    0.9648573   -2.8676227    1554.6894  0.080271034  0.080675096            2 
 1615000   0.99786671   -2.8333911    1558.5601  0.080421059  0.080659146            3 
 1616000   0.99537258   -2.8389904    1553.9093  0.080131462  0.080643457            3 
 1617000   0.99259604   -2.8128961    1561.9851    0.0804981  0.080627835            4 
 1618000   0.98628807   -2.8381093    1560.3024  0.080361681  0.080612662            2 
 1619000   0.98652099     -2.87245    1557.8138  0.080183949  0.080597103            1 
 1620000   0.99887736   -2.8898734    1557.9063  0.080139214  0.080581107            4 
 1621000    1.0064649   -2.8492707    1557.5115  0.080069478  0.080565193            2 
 1622000   0.99266253   -2.8359433    1559.7456  0.080134896  0.080549804            1 
 1623000   0.99110613   -2.8442065    1554.9668  0.079840154  0.080534191            2 
 1624000   0.97694993   -2.8559654    1566.6321  0.080389579   0.08051853            2 
 1625000    1.0035027   -2.8286798    1560.7821  0.080040109  0.080502648            4 
 1626000   0.96625997   -2.8217212      1565.33  0.080223967  0.080486815            2 
 1627000    1.0052692   -2.8497071    1567.6478  0.080293373  0.080471237            1 
 1628000   0.99055251   -2.8391507    1564.4688  0.080081328  0.080455532            7 
 1629000    1.0113065   -2.8405431    1570.1183  0.080321176  0.080440288            2 
 1630000   0.98712511   -2.8251051    1579.5692  0.080755072  0.080425197            2 
 1631000   0.99115715   -2.8481316    1565.0443  0.079963434  0.080410144            5 
 1632000   0.98740016   -2.8450915    1574.1274  0.080378235  0.080395019            5 
 1633000   0.98287458   -2.8564443    1576.3188  0.080440847  0.080379819            3 
 1634000   0.98181607   -2.8357116     1575.724   0.08036128  0.080365068            2 
 1635000   0.97631598   -2.8582966    1576.0875   0.08033066  0.080350031            2 
 1636000   0.98950034   -2.8484733    1573.8448  0.080167319  0.080335165            2 
 1637000    1.0018678   -2.8837903    1572.3057  0.080039998  0.080320485            2 
 1638000    1.0055906   -2.8297896    1577.9193  0.080276725  0.080305663            2 
 1639000    1.0243342   -2.8470519      1580.72  0.080370146  0.080291039            4 
 1640000   0.97271749   -2.8415188    1577.8592  0.080175771  0.080276117            3 
 1641000   0.99741873   -2.8176778    1577.3415  0.080100623  0.080261657            2 
 1642000   0.99176403   -2.8440396     1586.771  0.080530397  0.080247025            3 
 1643000    0.9848764   -2.8467424    1582.6682  0.080273288  0.080232294            7 
 1644000   0.97872924   -2.8445479    1583.8793   0.08028585  0.080217966            2 
 1645000    1.0051356    -2.817858    1581.2385   0.08010327  0.080203057            1 
 1646000    1.0002695   -2.8286724    1585.8532  0.080288233  0.080188131            1 
 1647000    1.0043644   -2.8312596    1582.6418  0.080076998  0.080173353            1 
 1648000    1.0002955   -2.8590652    1590.8948  0.080445732  0.080158483            2 
 1649000   0.98195822    -2.805332    1583.0398  0.079999989  0.080143876            4 
 1650000    1.0129345   -2.8301761    1589.3609  0.080270754  0.080129176            3 
 1651000    1.0219732   -2.8452438     1583.577  0.079930196  0.080114244            3 
 1652000   0.97949851   -2.8645777    1591.3233  0.080272566   0.08009918            4 
 1653000   0.99859232   -2.8460023    1590.7297  0.080194075  0.080084085            1 
 1654000   0.99284788   -2.8648293    1583.5144  0.079782065  0.080069266            5 
 1655000   0.97819042   -2.8334608    1590.7703  0.080099209    0.0800544            2 
 1656000   0.96883264   -2.8522142    1589.8182  0.080002928  0.080039863            1 
 1657000   0.97745437   -2.8431156    1589.6265  0.079945005  0.080025035           10 
 1658000    1.0057096   -2.8526135    1589.7213  0.079901555  0.080010463            2 
 1659000   0.97642944   -2.8350612    1598.2968   0.08028415  0.079996219            4 
 1660000   0.99565441   -2.8631995     1593.875  0.080013805  0.079981696            1 
 1661000    0.9836267   -2.8580074    1593.4949  0.079946564   0.07996714            1 
 1662000   0.99944232   -2.8480994    1596.6665  0.080057486  0.079952633            1 
 1663000   0.97473513   -2.8419189    1594.7162  0.079911617  0.079937805            3 
 1664000   0.98439067   -2.8289414    1594.1989  0.079837683  0.079922759            3 
 1665000   0.98580896   -2.8613021    1599.9848   0.08007932  0.079907982            1 
 1666000   0.97739494   -2.8361075    1596.3517  0.079849525   0.07989315            1 
 1667000    1.0128726     -2.86555    1600.3858  0.080003289  0.079878375            2 
 1668000   0.97790098    -2.829952    1602.6085   0.08006637  0.079864108            2 
 1669000   0.98542348    -2.840502    1598.0199  0.079789292   0.07984968            2 
 1670000   0.99405569    -2.838613    1598.0423   0.07974263  0.079835418            3 
 1671000   0.97523474   -2.8590375    1603.3716  0.079960681   0.07982094            3 
 1672000     0.999043   -2.8438567    1593.4742  0.079419566  0.079806252            7 
 1673000   0.98833654   -2.8414543     1605.255  0.079958905    0.0797917            2 
 1674000    1.0052669   -2.8371958    1602.1068   0.07975442  0.079777428            1 
 1675000   0.96016158   -2.8584975    1599.8532  0.079594686  0.079762213            5 
 1676000   0.98393689   -2.8461226     1598.929  0.079501245  0.079747252            2 
 1677000    1.0027079    -2.848718    1605.6324  0.079786939  0.079732638            2 
 1678000   0.99289072   -2.8522397    1606.2921  0.079772155  0.079718361            4 
 1679000   0.99223853   -2.8886699    1597.6595  0.079296185  0.079703399            1 
 1680000    1.0077668   -2.8159296    1603.2757  0.079527565   0.07968846            4 
 1681000   0.98225671   -2.8563481    1606.7304  0.079651517  0.079673925            3 
 1682000   0.98505981    -2.860047    1605.9573  0.079565857  0.079659271            3 
 1683000   0.99496595   -2.8486032    1612.0664  0.079821075  0.079644759            1 
 1684000    0.9874847   -2.8631286    1609.3598  0.079639738  0.079629978            3 
 1685000    1.0078848   -2.8604833    1614.2605  0.079834842  0.079615143            2 
 1686000   0.97246443   -2.8518633    1611.1862  0.079635536  0.079600513            2 
 1687000   0.97844151   -2.8317725    1614.7153   0.07976266  0.079585687            1 
 1688000    1.0011154   -2.8488757    1611.2946  0.079546536  0.079571147            4 
 1689000    1.0027288    -2.851903    1603.6544  0.079122477  0.079556283            1 
 1690000   0.97971497   -2.8362437     1620.238  0.079893394  0.079541916            2 
 1691000   0.96537274   -2.8664645    1607.7896  0.079232683   0.07952724            3 
 1692000   0.97372035   -2.8626218    1609.9223  0.079290894  0.079512409            2 
 1693000     0.970916   -2.8473697    1621.6546   0.07982155  0.079497777            2 
 1694000   0.99388034   -2.8526971     1617.808  0.079585201  0.079483332            1 
 1695000   0.99524398   -2.8533446    1616.8663  0.079491949  0.079468938            4 
 1696000   0.99860828   -2.8798154    1609.2093  0.079068854  0.079454168            2 
 1697000   0.95626188   -2.8478117    1621.5742  0.079629455  0.079439521            1 
 1698000    1.0001332   -2.8599313    1619.7964  0.079495309  0.079425378            2 
 1699000    0.9739284   -2.8488419    1626.8186  0.079792946  0.079411188            4 
 1700000   0.97739259   -2.8449851     1618.088  0.079318037  0.079396513            1 
 1701000    1.0006888   -2.8471048    1616.1615  0.079177029  0.079382065            2 
 1702000   0.99657568   -2.8637534     1623.403  0.079485066   0.07936761            2 
 1703000   0.97635812   -2.8514659     1620.669  0.079304607  0.079352874            3 
 1704000   0.99041503   -2.8412268    1624.8601  0.079463034  0.079338438            3 
 1705000    0.9754727   -2.8478399    1630.6595  0.079699878  0.079324157            2 
 1706000   0.97855847   -2.8582776    1620.6562  0.079164526  0.079310084           11 
 1707000   0.98048895    -2.853576    1628.2188  0.079487348  0.079295099            2 
 1708000   0.95837486    -2.867842     1623.463   0.07920877  0.079280499            3 
 1709000   0.98044421    -2.872454    1624.5914  0.079217445  0.079265833            1 
 1710000   0.97300206   -2.8599384    1623.0883  0.079097871  0.079251733            4 
 1711000   0.98253979   -2.8608524    1624.7262  0.079131414   0.07923711            2 
 1712000   0.97234179   -2.8442354    1634.8401  0.079577497  0.079223379            2 
 1713000   0.98504428   -2.8774233    1633.1269  0.079447698  0.079209417            2 
 1714000   0.98918694   -2.8406587    1637.0772  0.079593406  0.079195207            2 
 1715000    0.9811104   -2.8493528    1628.8991  0.079149616  0.079180946            3 
 1716000     0.977712   -2.8588632    1630.2219  0.079167729  0.079166702            4 
 1717000   0.96439135   -2.8623736    1632.1763  0.079216475  0.079152434            2 
 1718000   0.96513105   -2.8631791    1633.3666  0.079228106  0.079138464            2 
 1719000   0.97268844   -2.8633671    1630.7851  0.079056867  0.079124221            6 
 1720000   0.98957386   -2.8405349    1631.8587   0.07906292  0.079110021            6 
 1721000   0.97883098   -2.8762764    1636.3002  0.079232046  0.079095908            3 
 1722000   0.99131111   -2.8454553    1639.7172  0.079351393  0.079081797            3 
 1723000    1.0101372   -2.8659982    1632.9192  0.078976553  0.079067627            4 
 1724000   0.97799605   -2.8674427    1641.5873  0.079349736  0.079053438            2 
 1725000   0.98192362   -2.8714995    1640.5396  0.079253119  0.079039822            2 
 1726000   0.98086617   -2.8569801    1639.5761  0.079160683  0.079025888            2 
 1727000   0.98514476    -2.848933    1639.2292   0.07909811  0.079011404            4 
 1728000   0.95927667   -2.8674341    1639.4987  0.079065333  0.078997131            1 
 1729000    0.9545423   -2.8897118    1643.5632    0.0792155  0.078982915            3 
 1730000   0.98631374   -2.8647935    1636.9509  0.078851197  0.078968766            2 
 1731000   0.95775568   -2.8549977    1642.7254  0.079083644  0.078954749            2 
 1732000   0.98701357   -2.8740556    1648.9625  0.079338074  0.078940574            1 
 1733000    0.9650405   -2.8494823    1646.7137  0.079184157  0.078926985            1 
 1734000   0.97969077   -2.8430293    1651.8285  0.079384298  0.078913274            3 
 1735000   0.97185088   -2.8408728    1648.5563  0.079181377  0.078899212            2 
 1736000   0.96200516   -2.8756661    1650.9987  0.079253008  0.078885261            3 
 1737000    1.0048255   -2.8580647    1646.4689  0.078990066  0.078871158            2 
 1738000   0.98890976    -2.859261    1648.4101  0.079037694  0.078857252            1 
 1739000   0.97644564   -2.8397209    1651.1209  0.079122142  0.078843203            2 
 1740000   0.99627482   -2.8700117    1649.2065  0.078984983  0.078828719            2 
 1741000    0.9888602    -2.865563      1649.42  0.078949838  0.078814912            3 
 1742000   0.94549769   -2.8624452    1651.7048  0.079013816  0.078800874            2 
 1743000   0.99635112   -2.8549903    1652.7876  0.079020255  0.078787209            2 
 1744000   0.98383282   -2.8647854    1661.3154  0.079382425  0.078773802            2 
 1745000   0.98272217   -2.8644147    1644.0399  0.078511933  0.078759973            3 
 1746000   0.96506853   -2.8765102    1653.6791  0.078927029  0.078746808            4 
 1747000   0.97331046   -2.8657077    1663.0171  0.079327282  0.078733373            2 
 1748000   0.99106967   -2.8276588    1665.2712  0.079389361   0.07872031            1 
 1749000   0.96595096   -2.8159245    1666.6215  0.079408307  0.078706799            4 
 1750000   0.98566897   -2.8730118    1649.3628  0.078541085  0.078693278            3 
 1751000   0.98016003   -2.8664214    1664.3218  0.079208156  0.078679754            1 
 1752000   0.96901033   -2.8601485    1661.4431  0.079026022  0.078666262            1 
 1753000    0.9718655   -2.8540629      1663.61   0.07908395  0.078652855            2 
 1754000   0.98170557     -2.88093    1658.0834  0.078776291  0.078639712            1 
 1755000   0.96771917   -2.8794917    1664.0282  0.079013684  0.078626137            5 
 1756000   0.98570184   -2.8558356    1662.5094  0.078896613  0.078612641            4 
 1757000   0.97288252   -2.8694768    1663.8822  0.078916818  0.078599283            2 
 1758000   0.98264172   -2.8404254    1664.4909   0.07890078  0.078585933            2 
 1759000    0.9859885   -2.8580345    1668.2913   0.07903597  0.078572341            3 
 1760000   0.96651065   -2.8654798    1668.5747  0.079004485  0.078559307            2 
 1761000   0.97795738   -2.8774653    1667.1986  0.078894501   0.07854575            1 
 1762000   0.97832555   -2.8857202    1661.2516  0.078568463  0.078532009            3 
 1763000   0.96540767   -2.8784252    1671.6624  0.079015995  0.078518484            3 
 1764000   0.96022848   -2.8728705    1670.5868  0.078920391  0.078504432            2 
 1765000   0.96926545   -2.8771479    1667.1006  0.078711074  0.078490597            4 
 1766000   0.94492196   -2.8644429    1676.1936  0.079095583  0.078477202            2 
 1767000    0.9570108   -2.8532921    1666.2746  0.078583033  0.078463688            3 
 1768000   0.96275116   -2.8594267    1681.0781  0.079236337  0.078449934            3 
 1769000   0.95450733   -2.8642301    1678.3989  0.079065333  0.078436561            3 
 1770000   0.95434072   -2.8771243    1671.9269  0.078715957  0.078423042            2 
 1771000   0.97626451   -2.8817235     1668.734  0.078521268  0.078409781            4 
 1772000   0.96185452   -2.8415852    1670.4894  0.078559508  0.078396386            1 
 1773000   0.97098523    -2.877149    1673.5681  0.078659903  0.078382974            6 
 1774000   0.97462752   -2.8514485    1676.0615  0.078732691  0.078369457            2 
 1775000    0.9661081   -2.8571528    1670.8312  0.078442778  0.078356024            2 
 1776000   0.96139365    -2.859168    1679.2523  0.078793745  0.078342265            4 
 1777000   0.98652062   -2.8802681    1674.3151   0.07851787   0.07832898            8 
 1778000   0.97370412   -2.8684467    1670.5116  0.078295445   0.07831517            4 
 1779000    0.9728116   -2.8820201    1685.0045   0.07893032  0.078301474            2 
 1780000   0.96834865   -2.8544513    1679.2933  0.078618602  0.078288066            2 
 1781000   0.99819694   -2.8515538    1678.0076  0.078514301  0.078274859            4 
 1782000   0.96116984   -2.8732948    1680.5944  0.078591209  0.078261371            2 
 1783000    0.9753185   -2.8634156    1679.4109  0.078491817  0.078247682            2 
 1784000   0.98444607   -2.8466202    1681.3574  0.078538744  0.078234294            3 
 1785000   0.96479802   -2.8747305    1680.9795  0.078477099  0.078220605            3 
 1786000   0.96258171   -2.8718763    1676.6138  0.078229459  0.078207095            2 
 1787000   0.95324232   -2.8408489    1681.1668  0.078398003  0.078193233            2 
 1788000   0.96756497   -2.8940834    1674.7134  0.078053384  0.078179155            2 
 1789000   0.97633655   -2.8710566    1678.7299  0.078196845  0.078164812            2 
 1790000   0.95748577   -2.8772963    1686.5306  0.078516322  0.078150842            3 
 1791000   0.97557119   -2.8508148    1683.7348  0.078342395  0.078136811            1 
 1792000   0.95818366   -2.8584402     1681.232  0.078182292  0.078123312            4 
 1793000   0.94650349   -2.8603844    1689.9397  0.078543394  0.078109434            3 
 1794000   0.94693335   -2.8920254       1679.5  0.078014677  0.078095554            5 
 1795000    0.9642787   -2.8927137    1687.4911  0.078342205  0.078081418            3 
 1796000    0.9759626   -2.8662311    1681.9365  0.078040853  0.078067354            3 
 1797000   0.94319872   -2.8293899     1685.703   0.07817209  0.078053458            1 
 1798000   0.96995141   -2.8726665    1690.4035  0.078346471  0.078039923            4 
 1799000     0.986042   -2.8943145    1694.1074  0.078474497  0.078026249            5 
 1800000   0.96365495   -2.8769463    1698.3639  0.078627958  0.078012664            2 
 1801000   0.94902468   -2.8875878    1696.2428  0.078486156    0.0779994            2 
 1802000   0.97160111   -2.8974145    1690.7581   0.07818896  0.077986068            2 
 1803000   0.95845706   -2.8807459    1691.1209  0.078162364  0.077972379            3 
 1804000   0.98224797   -2.8539727    1698.3729  0.078454035  0.077959279            4 
 1805000     0.962055   -2.8756623    1700.5682  0.078511918  0.077945782            1 
 1806000   0.95121607   -2.8788248    1692.6481  0.078102996  0.077932415            3 
 1807000   0.98231074   -2.8571398     1698.355  0.078322955  0.077918834            2 
 1808000   0.96078664   -2.8788611    1694.2781  0.078091726  0.077905454            4 
 1809000   0.96681809   -2.8862743    1697.6867  0.078205577  0.077891823            3 
 1810000    0.9580227   -2.8439864    1702.5456  0.078386077  0.077878143            3 
 1811000   0.94891938   -2.8722916    1694.7101  0.077982245   0.07786443            5 
 1812000   0.95261835   -2.8755828    1702.9847  0.078319755  0.077850967            2 
 1813000   0.95577943   -2.8602466     1696.027   0.07795675  0.077837168            2 
 1814000   0.97011641   -2.9016137      1696.02   0.07791345  0.077823275            3 
 1815000   0.95904076   -2.8834832    1708.5998  0.078448107  0.077809612            2 
 1816000   0.96336668   -2.8733805    1705.2183  0.078249737  0.077795665            2 
 1817000   0.97430615   -2.8850942     1702.034  0.078060632   0.07778201            5 
 1818000   0.97583986   -2.8712716    1700.4893  0.077946887  0.077768233            2 
 1819000   0.94845893   -2.8896999    1702.3289  0.077988312  0.077754716            3 
 1820000   0.97085891   -2.8729677     1711.152   0.07834945  0.077741157            2 
 1821000   0.98510725   -2.8761649    1706.6073   0.07809845  0.077727327            2 
 1822000   0.93870261   -2.8966058    1702.9173  0.077886812  0.077713444            2 
 1823000   0.95594384   -2.8967427    1700.6706  0.077741387  0.077699401            4 
 1824000   0.96075528   -2.8790507    1703.2485  0.077816544  0.077685495            1 
 1825000   0.93704541    -2.848587     1709.359  0.078052924   0.07767199            2 
 1826000   0.96595143    -2.864908    1704.3557  0.077781842  0.077657999            6 
 1827000   0.98247069   -2.8665843    1702.9692  0.077676024  0.077643986            2 
 1828000   0.93778479   -2.8586711    1708.5652  0.077888639  0.077630036            2 
 1829000   0.95288776   -2.8764981    1703.0179  0.077593308  0.077615833            4 
 1830000   0.96800541   -2.8719175    1707.0261  0.077733428  0.077601969            2 
 1831000   0.96044184    -2.872417    1708.8891  0.077775764  0.077588032            4 
 1832000   0.94949189   -2.9141572    1702.1161  0.077425224  0.077573803            2 
 1833000   0.98269812   -2.8563675    1716.5189  0.078037773  0.077559903            1 
 1834000    0.9466746   -2.8740179    1715.0565  0.077928774  0.077546315            5 
 1835000   0.95246724    -2.895161    1702.5052  0.077316312  0.077532355            3 
 1836000   0.94581058   -2.8578968    1708.9218  0.077565443  0.077518309            2 
 1837000   0.96710024   -2.8606383     1713.206  0.077717564  0.077504466            2 
 1838000   0.96682169   -2.8935358    1712.8061  0.077657149  0.077490729            4 
 1839000   0.96189186   -2.8729127    1715.3169    0.0777287  0.077476804            2 
 1840000   0.95472896   -2.8951561    1719.5872  0.077879856  0.077463469            2 
 1841000   0.94184575   -2.8551732     1722.949  0.077989723  0.077450006            2 
 1842000   0.96089871   -2.8842728    1723.3196  0.077964153  0.077436805            4 
 1843000   0.95994982   -2.8752237    1718.5627  0.077706759  0.077423277            4 
 1844000   0.95964991    -2.884775    1723.4449  0.077885254  0.077409771            4 
 1845000   0.94279574    -2.896836    1718.9547  0.077640232  0.077396682            3 
 1846000   0.96379834   -2.8980955    1720.2961  0.077658728  0.077383456            2 
 1847000   0.95061823   -2.8933727    1725.0242  0.077830003  0.077369837            4 
 1848000   0.96994609   -2.8728218    1728.3811  0.077939262  0.077356631            2 
 1849000    0.9248807    -2.890669    1720.5055  0.077542162   0.07734322            3 
 1850000    0.9534648   -2.8793666    1727.0507  0.077795076  0.077329847            3 
 1851000   0.95258372   -2.8952192    1725.3659  0.077677196  0.077316724            2 
 1852000   0.96531887   -2.8886399    1723.9068  0.077569601  0.077303331            2 
 1853000   0.95087989   -2.8846755    1731.1362  0.077852861  0.077290094            1 
 1854000   0.97152374   -2.8739064      1728.48  0.077691477  0.077276904            3 
 1855000   0.97672136   -2.8870987    1725.1057  0.077498012  0.077263687            2 
 1856000   0.96106934   -2.8991004    1734.3372  0.077870743  0.077250019            2 
 1857000   0.94675526   -2.9032716    1721.0881  0.077234253  0.077236508            4 
 1858000   0.95847929   -2.9097554    1728.4908  0.077524705   0.07722322            3 
 1859000   0.94242711   -2.8694706    1724.4395  0.077301392  0.077209676            2 
 1860000   0.94401365   -2.8963166    1732.9276  0.077640124  0.077196403            4 
 1861000   0.96556732   -2.8900486    1730.4793  0.077488774  0.077183197            2 
 1862000    0.9720726   -2.8798486    1730.9172  0.077466756  0.077170053            2 
 1863000    0.9618843   -2.8902336    1727.8915  0.077289832  0.077156772            2 
 1864000   0.96366853    -2.888235     1727.773  0.077243069  0.077143035            3 
 1865000   0.95836997   -2.8907483    1730.8402  0.077338703  0.077129475            2 
 1866000   0.95323703   -2.9032843    1737.1755  0.077580183  0.077115751            4 
 1867000   0.95526067   -2.9341599    1729.9737  0.077217178  0.077102136            5 
 1868000   0.95186329   -2.8646161    1735.5932  0.077426533  0.077088593            4 
 1869000   0.96638522   -2.8829771    1730.4636  0.077156393  0.077075175            2 
 1870000   0.95495772   -2.9087483    1730.9353  0.077136154  0.077062092            4 
 1871000   0.94312525   -2.8811314    1745.0431  0.077723283  0.077048902            3 
 1872000    0.9603983   -2.8787699     1739.608  0.077439813  0.077035822            2 
 1873000   0.94244414   -2.8682922    1749.6804  0.077846611  0.077022639            4 
 1874000   0.95735857   -2.8703245     1740.691  0.077405327  0.077009488            4 
 1875000    0.9368346   -2.8794643    1742.6745  0.077452199  0.076996139            2 
 1876000   0.95897624   -2.8917225    1740.6696  0.077321855  0.076982612            4 
 1877000   0.95779094   -2.8667271    1742.9283  0.077380939  0.076969358            2 
 1878000   0.96524635    -2.865849     1747.126  0.077526002  0.076956183            1 
 1879000    0.9536706    -2.889911    1741.1805  0.077221061  0.076943091            3 
 1880000   0.95571207   -2.8890589    1739.2514  0.077094476  0.076929626            4 
 1881000   0.97129032   -2.8717821     1749.952  0.077527555  0.076916102            1 
 1882000   0.94317029   -2.8972735    1738.9617  0.076999723  0.076902543            5 
 1883000   0.93762943   -2.9096955    1750.2083  0.077456554  0.076889308            2 
 1884000   0.93954982   -2.8902085    1750.3797  0.077423021  0.076876181            3 
 1885000   0.96319818   -2.8971482    1747.0555  0.077234991  0.076863113            3 
 1886000   0.95110141   -2.8831195    1747.4144  0.077209897  0.076849912            2 
 1887000   0.94900522   -2.8974892    1752.5434  0.077395484  0.076836319            2 
 1888000   0.96040192   -2.8922003    1748.8104  0.077189724  0.076823126            3 
 1889000   0.94240894   -2.8792843    1751.2016  0.077254352  0.076809771            2 
 1890000   0.94938579    -2.907171     1751.056  0.077207053  0.076796317            4 
 1891000   0.96593219   -2.8738013    1750.2541   0.07713089   0.07678307            6 
 1892000   0.93772543   -2.8762701    1758.7551  0.077464547  0.076769966            2 
 1893000   0.95113668   -2.8911697    1758.0055  0.077390629   0.07675674            3 
 1894000   0.94088582   -2.9276263    1756.4005  0.077279147  0.076743718            5 
 1895000   0.97116962   -2.8849502    1762.1747  0.077492291   0.07673066            4 
 1896000   0.93749267   -2.8809156    1756.0653  0.077182899  0.076717634            4 
 1897000   0.93104826   -2.8884908    1754.2241  0.077061329   0.07670429            2 
 1898000   0.96208582   -2.9117027    1758.1598  0.077193529   0.07669095            4 
 1899000   0.96640637   -2.8934961    1749.5829  0.076776499  0.076677877            4 
 1900000   0.94187306   -2.8929996    1762.6188  0.077307842  0.076664616            2 
 1901000   0.94325895   -2.8904678    1755.4152  0.076951396  0.076651539            2 
 1902000   0.93275499   -2.8790969    1754.7603  0.076882244   0.07663839            2 
 1903000   0.94993833   -2.9168184    1758.5029  0.077005734  0.076624907            1 
 1904000   0.94873732   -2.8861576    1763.0068  0.077162413  0.076611527            2 
 1905000   0.94484196   -2.8919677     1755.366  0.076787665   0.07659813            3 
 1906000   0.97699072   -2.8826423    1767.0054  0.077256269  0.076585187            2 
 1907000   0.96301932    -2.901776    1757.1476  0.076784985  0.076571942            4 
 1908000   0.94513907    -2.900487    1762.3333   0.07697123  0.076558588            3 
 1909000     0.955445   -2.8945923     1763.923  0.077000307  0.076545396            2 
 1910000   0.93795353   -2.8777876    1760.7021  0.076819464  0.076531917            8 
 1911000   0.94414686   -2.9079777    1758.7935  0.076696034   0.07651852            4 
 1912000   0.93800403   -2.9034938    1759.5586  0.076689268  0.076505206           14 
 1913000   0.94651308   -2.9234343    1759.0762  0.076628167  0.076491638            5 
 1914000   0.93379536   -2.8936777    1764.4915  0.076823908  0.076477921            8 
 1915000   0.95355005   -2.9088299    1757.5959  0.076483722  0.076464228            2 
 1916000   0.93399649   -2.9089461    1763.2636  0.076690309  0.076450379            1 
 1917000   0.94625879   -2.9130707    1763.2572  0.076650028  0.076436919            3 
 1918000   0.94983489   -2.8807402    1761.8154  0.076547418  0.076423454            1 
 1919000   0.93572114   -2.8995959     1765.058  0.076648342  0.076410086            4 
 1920000    0.9557673   -2.8757446    1766.1275  0.076654841  0.076396298            3 
 1921000   0.93708948   -2.8956152     1770.514  0.076805222  0.076382862            3 
 1922000    0.9613186   -2.9063821    1769.2904  0.076712208  0.076369526            4 
 1923000   0.95535463   -2.9081106    1770.8249  0.076738816  0.076355836            2 
 1924000   0.95935783   -2.9158563     1767.159  0.076540151  0.076342472            3 
 1925000   0.93919343   -2.9117866    1775.0318  0.076841205  0.076328954            3 
 1926000   0.94988726   -2.8963124    1776.2841   0.07685549  0.076315446            1 
 1927000   0.95208041   -2.8903426    1771.4105  0.076604849  0.076302311            2 
 1928000   0.94322534   -2.9119876    1774.2951  0.076689795  0.076288985            4 
 1929000   0.92655971   -2.8842713    1778.1786  0.076817805  0.076275782            5 
 1930000   0.94889659   -2.8998606    1774.7099  0.076628235  0.076262539            2 
 1931000   0.96149162   -2.9005187    1772.6852  0.076501175  0.076249316            8 
 1932000   0.96301634   -2.8977992    1774.3171  0.076531965  0.076236185            2 
 1933000   0.95299673   -2.9072333    1777.2695  0.076619653  0.076223014            2 
 1934000   0.94702251   -2.8881733    1779.3544  0.076669872  0.076209671            3 
 1935000    0.8982667   -2.8756955    1771.7961  0.076304743  0.076196201            2 
 1936000   0.92986554   -2.9006019    1774.3135  0.076373685  0.076183018            2 
 1937000   0.94531976   -2.9308607    1777.1058  0.076454388  0.076169563            3 
 1938000   0.95174297   -2.9094067    1778.4405  0.076472329  0.076156131            6 
 1939000   0.95748455   -2.8754976     1777.402   0.07638826  0.076142762            2 
 1940000   0.94398061   -2.9404379    1777.3762  0.076347773  0.076129521            3 
 1941000   0.94010676   -2.8938564    1779.7606  0.076410811    0.0761165            2 
 1942000   0.93770221   -2.8727138    1789.5859  0.076793079  0.076103329            5 
 1943000   0.93078611   -2.9144727    1785.7574  0.076589354  0.076090348            2 
 1944000   0.92641966   -2.9063299     1790.108  0.076736454  0.076077388            1 
 1945000   0.92526391   -2.8964623    1784.0923  0.076439261  0.076064786            4 
 1946000   0.93610094    -2.881532    1793.8208   0.07681658  0.076051836            2 
 1947000   0.92500572   -2.9211481    1783.0653   0.07631678  0.076038786            3 
 1948000    0.9178812   -2.8814712    1792.5864  0.076684908  0.076025838            5 
 1949000   0.94620139   -2.8881608    1788.3695   0.07646526  0.076013197            2 
 1950000   0.93811713   -2.9235702    1796.2701  0.076763681  0.076000374            2 
 1951000   0.93109945   -2.9100435    1794.7592  0.076659797  0.075987735            3 
 1952000   0.92879069   -2.9084279    1789.7907  0.076408414  0.075975329            1 
 1953000   0.91777072   -2.8865655     1795.877  0.076628991  0.075962955            2 
 1954000   0.94165145   -2.8928453     1790.985  0.076381141  0.075950754            2 
 1955000   0.94193511   -2.9057264     1799.803  0.076717945  0.075938229            9 
 1956000   0.93962138   -2.9076508    1805.8306  0.076935522  0.075925929            6 
 1957000   0.93770602   -2.8698593     1804.133  0.076823924  0.075913901            3 
 1958000   0.95011715   -2.9019651     1798.018  0.076524431  0.075902038            4 
 1959000   0.92187715   -2.9158574    1800.6283  0.076596404  0.075889909            3 
 1960000   0.93054545   -2.9233443     1801.063  0.076575806  0.075877642            3 
 1961000   0.93526579   -2.8922303    1807.2723  0.076800626  0.075865341            7 
 1962000   0.93090408   -2.9168715    1803.7703  0.076612738   0.07585325            3 
 1963000   0.94366214   -2.9036233    1797.7471  0.076318014  0.075841201            3 
 1964000   0.94314869   -2.8892164    1809.1078  0.076761192  0.075829062            2 
 1965000   0.94776218   -2.9360393    1806.4912  0.076611161  0.075817179            2 
 1966000   0.93783208   -2.9027757    1809.9729  0.076719774  0.075805644            1 
 1967000    0.9292955   -2.9160885    1804.7627  0.076460035  0.075793633            4 
 1968000   0.93645105   -2.8886819    1806.5338  0.076496181  0.075781951            4 
 1969000   0.93631851   -2.9103905    1805.5017  0.076413647  0.075770224            5 
 1970000   0.93098614    -2.902847    1810.8778  0.076602275  0.075758506            3 
 1971000   0.94809523   -2.9197013    1803.1551  0.076236899  0.075746766            3 
 1972000   0.92542767    -2.904485    1819.6863  0.076896817  0.075734891            5 
 1973000    0.9253317   -2.8921999    1803.4498  0.076172066  0.075722856            2 
 1974000   0.95987423   -2.9322796     1809.575  0.076392056   0.07571086            3 
 1975000   0.92437948   -2.9133045     1815.994  0.076624221  0.075698475            3 
 1976000   0.95104096   -2.8966169    1814.4228  0.076519178  0.075686344            2 
 1977000   0.91411182   -2.9051116    1820.3227  0.076729164   0.07567443            2 
 1978000   0.94854964   -2.9056253    1813.4456  0.076400639  0.075662344            3 
 1979000   0.94958696    -2.915917    1817.8365  0.076546931  0.075650412            2 
 1980000   0.95301037   -2.9264531    1808.2576  0.076105117  0.075638119            3 
 1981000   0.93760987   -2.8972033    1809.3815  0.076113979  0.075625836            3 
 1982000   0.95461854   -2.9283018    1814.1217  0.076274879  0.075613628            1 
 1983000    0.9159485   -2.8936388    1821.3866  0.076541713  0.075601594            4 
 1984000   0.93031046   -2.9132077    1816.9906   0.07631849  0.075589226            3 
 1985000    0.9301023   -2.9144966    1821.6793  0.076476879  0.075577012            3 
 1986000   0.92509331   -2.9163201     1817.386  0.076258225  0.075564984            3 
 1987000   0.94459239   -2.9249474    1822.8323   0.07644826  0.075552991            3 
 1988000   0.92137648    -2.920126     1823.172  0.076424045  0.075541092            2 
 1989000   0.95307732   -2.9191617    1821.3799  0.076310539  0.075529562            8 
 1990000   0.92421687    -2.901142    1826.3292  0.076479449  0.075518061            2 
 1991000   0.92912907   -2.9046527     1832.228   0.07668793  0.075506513            4 
 1992000   0.92227158   -2.9057141    1829.9287  0.076553241  0.075494922            5 
 1993000   0.93866849   -2.9101803    1825.9715  0.076349367  0.075483591            3 
 1994000   0.93296501   -2.9082145     1832.036  0.076564528  0.075472358            6 
 1995000   0.93079016   -2.9186104    1830.2519  0.076451623  0.075461273            3 
 1996000   0.93306803   -2.9163808    1831.1758  0.076451896  0.075450069            5 
 1997000   0.93492782   -2.8969573    1828.5728  0.076304989  0.075438849            1 
 1998000   0.92928049   -2.8982113    1833.7696  0.076483552  0.075427638            6 
 1999000   0.93226689   -2.8976156    1835.2695  0.076507818   0.07541638            3 
 2000000   0.93466188   -2.8829004    1836.7629  0.076531787  0.075405144            4 
 2001000   0.93368476   -2.9046755     1828.953  0.076168292  0.075393932            2 
 2002000   0.93541903   -2.9064407    1830.9597  0.076213774  0.075382603            5 
 2003000   0.93556915   -2.9195127    1829.8325  0.076128827  0.075371211            2 
 2004000   0.91753698   -2.9010954    1833.7137  0.076252234  0.075359939            4 
 2005000   0.92674229   -2.9129946    1837.2086  0.076359459  0.075348571            3 
 2006000   0.91895764   -2.9242933    1835.6719  0.076257557  0.075337353            3 
 2007000    0.9284158   -2.9075832    1838.1962  0.076324372  0.075326195            3 
 2008000   0.93474436   -2.9172827    1844.3036  0.076539826  0.075315055            2 
 2009000   0.93066729   -2.9080495     1837.576  0.076222666  0.075303904            2 
 2010000   0.93606962   -2.9281709     1843.129  0.076414966  0.075292684            5 
 2011000   0.93549194   -2.9003131    1850.3528  0.076676313  0.075281855            4 
 2012000   0.93598906   -2.8958105    1844.0335  0.076376471  0.075270852            5 
 2013000   0.94406785   -2.8954882    1844.9338  0.076375799  0.075259955            3 
 2014000   0.91865871   -2.9155298    1844.3989  0.076315743  0.075249053            2 
 2015000   0.93029715    -2.924433    1846.5238  0.076365748  0.075237912            2 
 2016000     0.915371   -2.9313573     1846.646  0.076332921  0.075226876            1 
 2017000   0.90462163   -2.9309641    1845.9608  0.076266766  0.075215632            4 
 2018000   0.94607729   -2.9067172     1852.767  0.076510033  0.075204705            2 
 2019000   0.92366139   -2.9246017    1857.2745  0.076658187  0.075193873            5 
 2020000   0.92949932   -2.8877708    1855.7381  0.076556853  0.075182962            3 
 2021000   0.93968151   -2.9089916    1853.6266  0.076431905  0.075172436            2 
 2022000   0.93511914   -2.9128533    1855.4787  0.076470439  0.075161711            2 
 2023000   0.93348403   -2.9306476    1852.3121  0.076302196  0.075150779            3 
 2024000   0.92408328   -2.9147156    1854.5328  0.076355927  0.075139972            3 
 2025000   0.91895589   -2.9367368    1854.9443  0.076335158   0.07512877            4 
 2026000   0.90170609   -2.9096109    1853.1881  0.076225243  0.075117733            5 
 2027000   0.93879129   -2.9650172    1846.6346  0.075918212  0.075106525            7 
 2028000   0.90797032   -2.9158884    1851.6712  0.076087739  0.075095159            3 
 2029000   0.95210013   -2.9075182    1852.9106  0.076101141  0.075084227            2 
 2030000   0.92111916   -2.9092534    1859.5915  0.076337909   0.07507344            2 
 2031000   0.91074276    -2.918322    1857.2336  0.076203579  0.075062261            7 
 2032000   0.92324514   -2.9151653    1865.9247  0.076522503  0.075051556            1 
 2033000   0.93709544   -2.9134165    1853.7229  0.075984706  0.075040733            1 
 2034000   0.92722968   -2.9386088    1857.3263  0.076094981  0.075029853            5 
 2035000   0.92948572   -2.9359155    1862.0772  0.076252138    0.0750189            3 
 2036000   0.94380658    -2.921257    1856.9279  0.076003924  0.075007694            3 
 2037000   0.92591043   -2.9263439    1860.3048  0.076104764  0.074996536            2 
 2038000   0.94985493   -2.9496331    1857.2209  0.075941317  0.074985444            5 
 2039000   0.93006688   -2.9343707    1858.6441   0.07596224  0.074974362            4 
 2040000   0.91903229   -2.9397051    1858.7244  0.075928285  0.074963219            4 
 2041000   0.91549473   -2.9396417    1865.1589    0.0761538  0.074951987            5 
 2042000   0.91981093   -2.9208217    1859.7004   0.07589375  0.074940841            3 
 2043000   0.92396938    -2.907023    1855.3142   0.07567769  0.074929554            3 
 2044000    0.9316623   -2.8999557    1862.8216  0.075946738  0.074918479            4 
 2045000   0.92163693   -2.9230229     1869.368  0.076176363  0.074907226            3 
 2046000    0.9456979   -2.8958592     1861.211    0.0758069  0.074896071            4 
 2047000   0.92060761   -2.9108394    1864.8962  0.075919889  0.074884981            3 
 2048000   0.91357555   -2.9430821    1866.0591  0.075930141  0.074873828            2 
 2049000   0.91999216   -2.9051187     1862.666  0.075755086  0.074862592            3 
 2050000   0.92437754   -2.9023244    1865.8631  0.075848095  0.074851425            2 
 2051000    0.9233402   -2.9441224    1870.6842  0.076006999  0.074840474            4 
 2052000   0.93240236   -2.9103334    1861.9176  0.075613937  0.074829455            3 
 2053000   0.93303985   -2.9109143    1871.9723  0.075985236  0.074818228            3 
 2054000    0.9154941    -2.910009    1865.1173  0.075670129  0.074807008            3 
 2055000   0.93663691   -2.9341601    1869.3185  0.075803671  0.074796106            2 
 2056000    0.9188239   -2.9465774     1867.702  0.075701281  0.074784807            3 
 2057000   0.92284411    -2.902997    1870.7375  0.075787452  0.074773558            2 
 2058000   0.92258459    -2.913588    1875.0661  0.075925901   0.07476255            4 
 2059000   0.90876828   -2.9159606    1872.5019  0.075785247  0.074751265            2 
 2060000   0.88405867   -2.9013205    1878.2798  0.075982192  0.074739956            4 
 2061000   0.91032888    -2.918999      1865.41  0.075424957  0.074728604            2 
 2062000   0.93027037    -2.920029    1870.8774  0.075609337  0.074717308            2 
 2063000    0.9250938   -2.9197478    1871.2677  0.075588452  0.074705882            1 
 2064000   0.92664638   -2.9298229    1873.0885  0.075625342  0.074694154            4 
 2065000   0.92207775    -2.932169    1864.8773  0.075257358  0.074682724            3 
 2066000   0.91288566   -2.9484456    1872.2665  0.075518978  0.074671061            6 
 2067000   0.93056054   -2.9202086    1875.6568  0.075619128  0.074659738            2 
 2068000   0.93086842   -2.9294765    1865.9826  0.075192723  0.074648366            3 
 2069000   0.93274704   -2.9205674    1874.3899  0.075495003   0.07463664            1 
 2070000   0.90637091   -2.9392635    1873.9397  0.075440405  0.074624941            2 
 2071000    0.8967096   -2.9463048    1874.0518  0.075408492  0.074613111            3 
 2072000   0.91753779   -2.9165453    1880.2077  0.075619679  0.074601347            2 
 2073000   0.93628161   -2.9390835    1875.4706  0.075392771   0.07458956            3 
 2074000   0.93260626   -2.9120607    1873.8874  0.075292809  0.074577846            1 
 2075000    0.9168763    -2.909702    1876.8879  0.075377026  0.074566173            3 
 2076000   0.92100406   -2.9374639    1874.4317  0.075242118  0.074554402            5 
 2077000   0.92675852   -2.9440305    1878.5463   0.07537098  0.074542775            2 
 2078000   0.93049515   -2.9179727    1885.1902  0.075601148  0.074530873            2 
 2079000   0.92155938   -2.9171518    1882.1468  0.075442792  0.074518819            3 
 2080000   0.90246179   -2.9245688    1876.6383  0.075185828  0.074507061            3 
 2081000   0.91994534   -2.9329996    1879.7301  0.075273511  0.074495452            2 
 2082000   0.91448289   -2.9374158    1879.7281  0.075237274  0.074483796            2 
 2083000   0.92501608   -2.9411779     1885.089  0.075415625  0.074472329            2 
 2084000   0.93653861   -2.9336685    1876.6668  0.075042659  0.074460536            4 
 2085000   0.90766906   -2.9182975    1880.8848  0.075175251  0.074448585            2 
 2086000    0.9107349   -2.9112619    1881.2214  0.075152661   0.07443674            3 
 2087000   0.92593785   -2.9201525    1880.1185  0.075072611  0.074424937            3 
 2088000    0.9052162   -2.9267987    1884.2826  0.075202849  0.074412991            2 
 2089000   0.92097856   -2.9269274     1884.401  0.075171573  0.074401139            2 
 2090000    0.9083331   -2.9509161    1878.8897  0.074915856  0.074389113            4 
 2091000   0.90253526   -2.9328621    1881.1653  0.074970719  0.074376815            1 
 2092000   0.92763784   -2.9315121    1885.6094  0.075111908  0.074364685            1 
 2093000    0.9273587   -2.9538532    1882.0325  0.074933608  0.074352299            8 
 2094000   0.91551341   -2.9269164    1882.7992  0.074928333  0.074340073            2 
 2095000    0.9211873   -2.9305969    1878.6104  0.074725949  0.074327573            3 
 2096000     0.916911   -2.9359196    1883.5292  0.074885864  0.074315329            2 
 2097000    0.9206511   -2.9053372     1883.947  0.074866752  0.074303143            4 
 2098000    0.9138174   -2.9400356    1892.5098  0.075171187  0.074290658            2 
 2099000   0.91701878   -2.8972768    1886.2247  0.074885846  0.074278694            3 
 2100000   0.91208304   -2.9416919    1890.2142  0.075008499  0.074266614            2 
 2101000   0.90556498   -2.9443056    1892.6897  0.075070986  0.074254245            3 
 2102000   0.90528143   -2.9330648    1897.4142  0.075222573  0.074242071            1 
 2103000   0.89896093   -2.9335463    1886.9833   0.07477347  0.074230289            3 
 2104000   0.91210684   -2.9467675    1894.4057  0.075031911  0.074218497            7 
 2105000   0.90735205   -2.9423571    1897.3784   0.07511395   0.07420652            3 
 2106000   0.92773038   -2.9098155    1888.4383  0.074724527    0.0741945            1 
 2107000   0.91254439   -2.9597812    1893.2858  0.074880786  0.074182207            3 
 2108000   0.90879338   -2.9119286    1898.1971  0.075039417  0.074170269            4 
 2109000   0.92334418   -2.9376851    1899.5082  0.075055643  0.074158548            4 
 2110000   0.94304406   -2.9102139    1889.5532  0.074626905  0.074146437            2 
 2111000   0.90337211   -2.9418422    1892.5476  0.074709759  0.074134468            1 
 2112000   0.93463522   -2.9395994    1897.7219  0.074878548  0.074122307            1 
 2113000    0.9184157   -2.9336325    1898.5738  0.074876707  0.074110428            3 
 2114000   0.89525037   -2.9221584    1904.2729  0.075065947  0.074098383            2 
 2115000   0.92309834    -2.948033     1904.805  0.075051418  0.074086274            5 
 2116000   0.91308633   -2.9401639    1899.5149  0.074807611  0.074074535            2 
 2117000   0.89493646   -2.9680923    1902.0201  0.074870889  0.074062563            2 
 2118000   0.90642491   -2.9410573    1904.7196  0.074941755  0.074050686            9 
 2119000    0.9203145   -2.9484731    1905.9371  0.074954268  0.074038707            3 
 2120000   0.90296585   -2.9317959    1892.7604   0.07440096  0.074026619            4 
 2121000   0.89794393   -2.9277921    1899.6942  0.074638306  0.074014395            2 
 2122000     0.905476   -2.9122844    1906.0285  0.074851887   0.07400273            2 
 2123000   0.91002092   -2.9437816    1897.0023  0.074462329  0.073990802            1 
 2124000   0.90995607   -2.9269337    1912.4058  0.075031616  0.073978753            7 
 2125000   0.91707258   -2.9298338    1901.4283  0.074565815   0.07396688            5 
 2126000   0.90923316   -2.9554046    1909.4308  0.074844417  0.073954826            3 
 2127000   0.90041933   -2.9445638    1902.4443  0.074535507  0.073942922            3 
 2128000   0.91479018   -2.9345609    1905.4995  0.074620124  0.073930914            4 
 2129000   0.90847125   -2.9254892    1911.5503  0.074821914  0.073918625            1 
 2130000   0.90991902   -2.9463863    1913.7185  0.074871614   0.07390672            3 
 2131000   0.92289595   -2.9334719    1911.4656   0.07474838  0.073894635            2 
 2132000   0.91822783   -2.9389925    1903.5441  0.074403694  0.073882617            2 
 2133000   0.91758787   -2.9209978    1912.1979  0.074706903   0.07387061            4 
 2134000   0.89070032   -2.9525445    1907.4762   0.07448751  0.073858585            4 
 2135000   0.90547902   -2.9328762    1917.3956  0.074839796  0.073846863            3 
 2136000   0.91590497   -2.9460327    1910.5168  0.074536391  0.073835068            4 
 2137000    0.9126369     -2.93331    1917.4298   0.07477109  0.073823263            4 
 2138000   0.92044469   -2.9386134    1911.2542   0.07449541  0.073811317            3 
 2139000   0.90528393   -2.9347491     1915.075  0.074609436  0.073799305            7 
 2140000   0.89567899   -2.9512399    1908.2879  0.074310276  0.073787333            3 
 2141000    0.9102438   -2.9329863    1920.2641  0.074741714  0.073775353            4 
 2142000   0.91343943   -2.9607167    1910.4739  0.074325937  0.073763526            4 
 2143000   0.90924894   -2.9409043    1913.1303   0.07439455  0.073751438            2 
 2144000   0.91106752    -2.954307    1914.9854  0.074431958  0.073739612            6 
 2145000   0.90095897   -2.9420926    1915.0103  0.074398226  0.073727753            3 
 2146000   0.91293422   -2.9491579    1916.5808  0.074424541  0.073715793            5 
 2147000   0.89965769   -2.9282673    1913.4168  0.074267071  0.073703638            3 
 2148000   0.90731308   -2.9671028    1909.4289  0.074077782   0.07369147            4 
 2149000   0.90685212   -2.9214327    1924.8451  0.074641115  0.073679321            2 
 2150000   0.88797366   -2.9412071    1921.3653  0.074471522  0.073667154            6 
 2151000   0.92736699   -2.9225043    1920.1539  0.074389971  0.073655218            4 
 2152000   0.90490009   -2.9396105     1922.735  0.074455351  0.073643027            2 
 2153000   0.90544523   -2.9352297    1925.7042  0.074535694  0.073631107            5 
 2154000   0.90157251   -2.9341113    1925.1864  0.074481059  0.073619376            3 
 2155000    0.9098093   -2.9543127    1922.1698  0.074329844   0.07360767            4 
 2156000   0.90951994   -2.9143974    1927.6701  0.074507964  0.073595974            2 
 2157000   0.93006735   -2.9233624     1928.461  0.074503978  0.073584455            4 
 2158000    0.9051584   -2.9356242    1930.5877  0.074551579  0.073572747            2 
 2159000   0.90204207   -2.9561127    1935.4436  0.074704479   0.07356135            2 
 2160000   0.91389779   -2.9390031    1927.6517  0.074369279  0.073549744            6 
 2161000   0.91163676   -2.9320167    1930.9333  0.074461409  0.073538033            2 
 2162000   0.90402609   -2.9071115    1936.3484  0.074635693  0.073526544            8 
 2163000   0.89187113   -2.9514069    1932.5886  0.074456332  0.073514945            2 
 2164000   0.90864319   -2.9136523    1934.7241  0.074504162  0.073503466            4 
 2165000   0.90103478   -2.9480898    1927.0074  0.074172726  0.073491769            5 
 2166000   0.89399572   -2.9569855    1934.6266  0.074431619   0.07347981            3 
 2167000   0.91300536    -2.950796    1935.0912  0.074415136  0.073468037            5 
 2168000   0.90416389   -2.9512647    1933.6513  0.074325465  0.073456214            1 
 2169000   0.90674043    -2.951546     1930.981  0.074188604   0.07344447            2 
 2170000   0.89999599   -2.9343875    1932.3881  0.074208453  0.073432564            3 
 2171000    0.8946323   -2.9388802    1938.0733  0.074392495  0.073420522            2 
 2172000   0.89596453   -2.9086296    1935.2298  0.074249149  0.073408663            5 
 2173000   0.89607818   -2.9349271    1933.9826   0.07416715  0.073396789            2 
 2174000   0.91062702   -2.9216905    1942.5935  0.074463104  0.073384963            3 
 2175000   0.89981656   -2.9510742    1936.7917   0.07420658  0.073373278            2 
 2176000    0.9264356   -2.9283377    1935.7449  0.074132388  0.073361599            5 
 2177000   0.89612416   -2.9525478    1928.0971  0.073805586  0.073349739            3 
 2178000   0.90933654   -2.9488227    1934.1156  0.074001976  0.073337561            2 
 2179000   0.89515548    -2.969109    1932.9142  0.073922066  0.073325376            6 
 2180000    0.8797184   -2.9462238    1936.2918   0.07401727  0.073313286            3 
 2181000   0.90387344   -2.9580817    1937.1255  0.074015187  0.073301433            2 
 2182000   0.92185478   -2.9581029    1937.7004  0.074003223  0.073289505            1 
 2183000   0.89669067   -2.9601314    1939.3927  0.074033924  0.073277601            2 
 2184000   0.89099641   -2.9300285    1945.6482  0.074238714  0.073265621            1 
 2185000   0.91221861   -2.9223834     1940.822  0.074020671   0.07325384            1 
 2186000   0.89905276   -2.9429771    1942.3804  0.074046217  0.073241943            3 
 2187000    0.9200174   -2.9662456    1936.5921  0.073791805  0.073230062            3 
 2188000   0.88795588    -2.954463    1938.0603  0.073813995  0.073218093            4 
 2189000   0.88786877   -2.9217213    1945.6115  0.074067744  0.073206412            1 
 2190000   0.89843629   -2.9557879    1943.2078  0.073942458  0.073194507            3 
 2191000   0.89828778   -2.9747865    1944.2932  0.073949991   0.07318237            9 
 2192000   0.89605777   -2.9668995    1938.9799  0.073714259  0.073170171            3 
 2193000   0.90610548   -2.9499939    1939.4915  0.073700087  0.073158132            3 
 2194000   0.90282413   -2.9599413    1943.9545  0.073836009  0.073146111            5 
 2195000   0.91371175   -2.9810217    1944.9459  0.073840011  0.073134022            3 
 2196000   0.91635907   -2.9591488    1941.9616  0.073693139  0.073122047            2 
 2197000     0.887277   -2.9401605    1946.5619  0.073834088  0.073109983            7 
 2198000   0.90710406   -2.9502589    1948.6806  0.073880823  0.073098154            4 
 2199000   0.89787646   -2.9738214    1941.1292  0.073561056  0.073085986            4 
 2200000   0.89769532   -2.9449997    1947.1246   0.07375472  0.073073944            2 
 2201000    0.8792356    -2.947201    1951.6007  0.073890681  0.073062144            2 
 2202000   0.89707142   -2.9540942    1948.7325  0.073748581  0.073050315            3 
 2203000   0.91001545   -2.9677523    1946.1622  0.073617876  0.073038587            5 
 2204000   0.89658661   -2.9735007    1952.5905  0.073827529  0.073026665            8 
 2205000   0.90526393   -2.9375968    1953.2622  0.073819434   0.07301465            4 
 2206000   0.90565279   -2.9462037    1953.7991  0.073806252  0.073002629            2 
 2207000   0.88980157   -2.9365598    1952.7102  0.073731696   0.07299071            3 
 2208000   0.88741283   -2.9586452    1955.5905   0.07380701  0.072978764            7 
 2209000   0.87536225   -2.9580622    1942.5446  0.073281449  0.072966645            7 
 2210000   0.88013581   -2.9663775    1945.8912   0.07337448  0.072954606            4 
 2211000   0.88741256   -2.9705086      1952.84  0.073603196  0.072942436            4 
 2212000   0.88116532   -2.9749636    1958.0918  0.073767774  0.072930387            3 
 2213000   0.90856495   -2.9557969    1957.7317  0.073720879  0.072918367            6 
 2214000   0.87590767   -2.9629361    1947.0657  0.073286124  0.072906232            3 
 2215000    0.9044328   -2.9388398    1959.4746  0.073719886   0.07289406            3 
 2216000    0.9034189   -2.9367537    1953.5637   0.07346434  0.072882258            4 
 2217000   0.88785278   -2.9707253    1958.2628  0.073607833  0.072870378            2 
 2218000   0.88727198   -2.9836722    1947.8188  0.073182252  0.072858079            3 
 2219000    0.8896015   -2.9654491    1956.7443  0.073484463  0.072845986            2 
 2220000   0.87185511    -2.951544     1963.386  0.073700677  0.072834138            5 
 2221000   0.87525208   -2.9716787    1961.7556   0.07360632  0.072822286            1 
 2222000   0.89085837    -2.959942    1963.4095  0.073635219  0.072810134            4 
 2223000   0.91784486   -2.9678222    1955.5282  0.073306651  0.072798197            2 
 2224000   0.90063942   -2.9352483    1956.1908  0.073298517  0.072786202            4 
 2225000   0.90274282    -2.968917    1963.6035  0.073543203  0.072774379            5 
 2226000   0.91284862   -2.9495134    1960.7893  0.073404811  0.072762535            3 
 2227000   0.89967945   -2.9558015    1961.3802  0.073393959  0.072750448            3 
 2228000   0.89206311   -2.9617301    1966.8214  0.073564536  0.072738561            2 
 2229000   0.89840086   -2.9556558    1963.8453  0.073420266  0.072726473            6 
 2230000   0.88975887   -2.9627384    1960.2271  0.073252134  0.072714329            4 
 2231000   0.89047548   -2.9642833    1961.1555  0.073253976  0.072702305            3 
 2232000   0.91086406   -2.9476148    1963.6576  0.073314574  0.072690075            1 
 2233000   0.89015085   -2.9591689     1965.214  0.073339827  0.072678101            2 
 2234000   0.92063578   -2.9739504    1959.7641  0.073103703  0.072665792            4 
 2235000   0.88584701    -2.974022    1966.3771  0.073317566  0.072653718            3 
 2236000     0.877162   -2.9581661     1967.343  0.073320773  0.072641764            2 
 2237000   0.88519892   -2.9715044     1965.525  0.073220271  0.072629546            4 
 2238000   0.88502835   -2.9541129    1969.0953  0.073320498  0.072617316            3 
 2239000   0.88465962   -2.9603741    1972.8703  0.073428254  0.072605369            2 
 2240000   0.89393733    -2.955099    1968.8341  0.073245318   0.07259329            5 
 2241000    0.8894584   -2.9432229    1975.7493   0.07346978  0.072581457            7 
 2242000   0.89640333   -2.9833483    1964.7639  0.073028691  0.072569534            2 
 2243000   0.89983442   -2.9614188    1974.3569  0.073352539  0.072557413            4 
 2244000   0.89304492   -2.9270975    1978.0871  0.073458373  0.072545675            3 
 2245000   0.90235519   -2.9497398    1978.0182  0.073423097   0.07253406            9 
 2246000   0.88299917   -2.9461935    1971.0996  0.073133704  0.072522121            3 
 2247000   0.88846318   -2.9612689    1972.0649  0.073136955  0.072510247            2 
 2248000   0.89491529   -2.9795148    1969.7779  0.073019642  0.072498317            3 
 2249000   0.88224048   -2.9674542    1974.9808   0.07317996  0.072486568            4 
 2250000   0.90405937   -2.9331169    1984.1952  0.073488713  0.072474766            3 
 2251000   0.90468073   -2.9503053    1981.9043  0.073371253  0.072463213            2 
 2252000   0.87893172   -2.9717149    1974.4031  0.073061097  0.072451243            1 
 2253000   0.88652025   -2.9629772    1973.4158  0.072992151  0.072439437            4 
 2254000   0.88790662   -2.9630036    1972.4052  0.072922405  0.072427629            3 
 2255000   0.89204693   -2.9715432     1976.845  0.073054138  0.072415676            4 
 2256000   0.89938852   -2.9538538    1974.9724  0.072952587  0.072404064            4 
 2257000   0.89142735   -2.9631027    1981.7161  0.073169253  0.072392323            2 
 2258000   0.86979391   -2.9810369     1985.078  0.073260925  0.072380618            2 
 2259000   0.89446582    -2.956179    1984.0226  0.073189559  0.072368911            1 
 2260000   0.89811791   -2.9698001    1983.9294  0.073153738  0.072357436            3 
 2261000   0.89486843   -2.9617959    1988.9261  0.073305547  0.072345774            2 
 2262000   0.87519487   -2.9792234    1983.0732  0.073057516  0.072334261            3 
 2263000   0.89769667   -2.9736025    1989.0759  0.073246276  0.072322884            7 
 2264000   0.89425029   -2.9595689    1981.8095  0.072946464  0.072311316            3 
 2265000   0.89570033   -2.9795355    1985.2546  0.073041009  0.072299519            2 
 2266000   0.86804013   -2.9797849    1988.5123  0.073128577  0.072287837            3 
 2267000   0.90072749   -2.9826686    1989.2702  0.073124179  0.072276334            3 
 2268000   0.88665147   -2.9797136    1987.4723  0.073025878  0.072264811            3 
 2269000   0.88218332   -2.9577061    1992.8707   0.07319196   0.07225329            9 
 2270000   0.89209728   -2.9660557    1999.3989  0.073399372  0.072242134            2 
 2271000   0.89195952   -2.9766608    1985.8359  0.072869363  0.072230738            3 
 2272000   0.88436736   -2.9703461    1999.4486  0.073336582  0.072219475            3 
 2273000   0.88871321   -2.9648705     1990.011  0.072958313  0.072208114            3 
 2274000   0.89655966   -2.9901892    1993.6134  0.073058246  0.072196658            4 
 2275000   0.88584681   -2.9731888    2003.5067  0.073388525  0.072185504            2 
 2276000   0.88889227   -2.9794441     1992.982  0.072970929  0.072174297            3 
 2277000   0.87936529   -2.9843866    1999.9047  0.073192238   0.07216311            1 
 2278000   0.90542991   -2.9687674    2000.6226  0.073186371   0.07215191            2 
 2279000    0.9060706   -2.9622035    2002.5672  0.073225361  0.072140866            2 
 2280000   0.87571342   -2.9705523     1998.869  0.073058079  0.072129698            4 
 2281000    0.8815934   -2.9520792    2000.1755   0.07307378  0.072118484            2 
 2282000   0.86930204   -2.9642767    2004.2631  0.073191027  0.072107001            2 
 2283000   0.89465047    -2.962289    2001.2107  0.073047551  0.072095643            3 
 2284000   0.87119946   -2.9566944    2004.8981  0.073150107   0.07208441            2 
 2285000   0.91785391    -2.985421    1997.3534  0.072842939  0.072073021            2 
 2286000   0.89808116   -2.9726286    1996.2601   0.07277122  0.072061729            3 
 2287000   0.87372191   -2.9702535    2013.6965  0.073374746   0.07205035            5 
 2288000   0.88424107   -2.9753456    2007.6047  0.073120801   0.07203915            3 
 2289000   0.88930769   -2.9664556    2007.5425  0.073086592  0.072027668            6 
 2290000   0.87384756   -2.9883992    1997.1646  0.072677023  0.072016439            2 
 2291000   0.89957522   -2.9606672    2006.2848   0.07297704  0.072004902            2 
 2292000   0.89362246   -2.9628717     2005.537  0.072918012  0.071993457            3 
 2293000   0.87054031   -2.9604299    2005.7293  0.072893201  0.071982043            5 
 2294000   0.87950476   -2.9693518    2003.9831  0.072797992  0.071970526            3 
 2295000   0.88234307   -2.9982423    1991.8536  0.072325839  0.071958867            3 
 2296000   0.90120808   -2.9448573    2005.8327  0.072801709  0.071947222            4 
 2297000   0.88471127    -2.984635    2001.6384  0.072617849  0.071935549            2 
 2298000   0.87189888   -2.9747308    2003.6976  0.072660923   0.07192373            4 
 2299000   0.90109899   -2.9392067    2008.3955  0.072799605  0.071912045            2 
 2300000   0.89778701   -2.9756861    2007.1567  0.072723068  0.071900493            6 
 2301000   0.88665096   -2.9547857    2008.3179  0.072733518  0.071888906            2 
 2302000   0.88993352   -2.9807536    2000.8046  0.072429939  0.071877268            3 
 2303000   0.88211715   -2.9877747    2013.9735  0.072875001  0.071865676            2 
 2304000   0.88676642   -2.9921365    2003.3848  0.072460389  0.071854022            3 
 2305000    0.8684023    -2.986375    2001.9408  0.072376745   0.07184254            3 
 2306000   0.89967426   -2.9854759    2007.1382  0.072533183  0.071830852            4 
 2307000   0.87411116   -3.0128653    2004.2358  0.072396901  0.071818891            3 
 2308000   0.87350983   -2.9838433    2012.8153  0.072675307  0.071806908            5 
 2309000   0.88529093   -2.9684173    2010.4628  0.072558929  0.071795079            2 
 2310000   0.88511572   -2.9834213    2012.7299  0.072609303  0.071783186            3 
 2311000   0.89400641   -2.9792203     2009.046  0.072445044  0.071771531            2 
 2312000   0.87213621   -2.9765117     2010.398  0.072462442  0.071759808            6 
 2313000   0.86477842   -2.9783016    2010.4563  0.072433215  0.071747919            3 
 2314000   0.88316999   -2.9869358    2008.2717  0.072323238  0.071736016            1 
 2315000   0.88502086   -2.9903611    2012.4173  0.072441229  0.071724195            3 
 2316000   0.88555582   -2.9897963    2010.1163  0.072327156  0.071712428            4 
 2317000   0.91605654   -2.9702828     2010.593  0.072313084  0.071700413            4 
 2318000   0.89735465   -2.9961411    2009.2498  0.072233599  0.071688491            3 
 2319000   0.87384742   -2.9637281     2008.424  0.072172774  0.071676557            3 
 2320000   0.88182372   -2.9816684    2012.3496  0.072282672  0.071664423            3 
 2321000   0.89649777   -2.9808684    2009.5955  0.072152647  0.071652491            8 
 2322000   0.87412523   -2.9796211    2005.5884  0.071977764  0.071640368            4 
 2323000   0.88657803   -2.9941532    2012.8812  0.072208395  0.071628179            5 
 2324000   0.87301706   -3.0043063    2011.9049  0.072142317  0.071615879            3 
 2325000   0.87678797   -2.9923939    2017.0141  0.072294413  0.071603524            1 
 2326000   0.89545039   -3.0085504    2011.9149  0.072080641  0.071591285            2 
 2327000    0.8490365   -2.9872218    2016.9562  0.072230202  0.071579276            2 
 2328000   0.89391874   -2.9687221    2014.1989  0.072100475  0.071567097            3 
 2329000   0.88341853   -3.0076195    2014.9093  0.072094936  0.071554879            7 
 2330000   0.88065011   -3.0033388    2011.3044  0.071935066   0.07154266            5 
 2331000   0.88992556   -2.9798166    2018.7062   0.07216882  0.071530481            3 
 2332000    0.8674811   -2.9826636      2018.55  0.072132289  0.071518184            3 
 2333000   0.86329112   -2.9905249    2019.3283  0.072129173  0.071505748            3 
 2334000   0.88170646   -2.9887705    2014.6692   0.07193192  0.071493425            5 
 2335000   0.87535078   -2.9908185    2018.3771  0.072033443   0.07148125            3 
 2336000   0.88983629   -2.9752953    2020.1655  0.072066407  0.071469028            4 
 2337000   0.87286252   -2.9751151    2017.2097  0.071930172  0.071456753           10 
 2338000   0.86889797   -2.9930913    2017.8086  0.071920752  0.071444639            5 
 2339000   0.86291961   -2.9629665    2018.0666  0.071899193  0.071432418            3 
 2340000   0.88290373   -3.0070965    2023.1908  0.072050954  0.071420259            3 
 2341000   0.88352983   -2.9944522    2020.1452  0.071911761  0.071407928            4 
 2342000    0.8873779   -2.9817026    2023.7695  0.072010017  0.071395804            2 
 2343000   0.88433896   -2.9760128    2025.3737  0.072036339  0.071383937            2 
 2344000   0.88731744   -2.9781669    2012.9859  0.071565198   0.07137165            3 
 2345000   0.86763403   -2.9780524    2021.1545  0.071824965  0.071359423            4 
 2346000   0.85454134   -2.9798798    2021.4974  0.071806528  0.071347167            3 
 2347000   0.89742535   -2.9799403    2025.1793  0.071906666  0.071334949            3 
 2348000   0.89160606   -2.9871678    2017.9764  0.071620399  0.071322469            1 
 2349000   0.88064067   -3.0004383    2024.8488  0.071833717  0.071310077            2 
 2350000   0.88110057   -2.9687793    2029.4405  0.071965975  0.071297711            4 
 2351000   0.86361683   -3.0038186    2026.9366  0.071846613  0.071285596            3 
 2352000   0.87500778   -2.9889766    2021.7622   0.07163273  0.071273255            4 
 2353000   0.85673438   -2.9826244    2031.7576  0.071956283  0.071260906            6 
 2354000   0.88634161   -2.9886866    2023.2938   0.07162609  0.071248511            4 
 2355000    0.8591262   -2.9844383    2027.0674  0.071729207  0.071236025            5 
 2356000   0.88664157   -2.9649696    2033.7923  0.071936628  0.071223851            3 
 2357000   0.86909216   -2.9784802    2025.6808  0.071619319  0.071211422            4 
 2358000   0.88462802   -2.9775818    2033.0396  0.071849012  0.071198943            2 
 2359000   0.87282867   -3.0041723    2028.5599  0.071660304  0.071186445            3 
 2360000   0.88850851   -2.9899321    2026.2324  0.071547755   0.07117394            4 
 2361000   0.87975172   -3.0007987    2024.1949  0.071445534  0.071161332            4 
 2362000   0.89682818   -3.0307189    2027.3101  0.071525194  0.071148628            7 
 2363000   0.89392645   -2.9780003     2032.006  0.071660531  0.071135989            7 
 2364000   0.86261093   -3.0149225    2024.8285  0.071377205  0.071123487            3 
 2365000   0.88809497     -2.97658    2026.8786  0.071419261  0.071110817            4 
 2366000   0.86500895   -2.9943232    2030.1659  0.071504855  0.071098268            3 
 2367000    0.8944861   -3.0040664    2030.2692  0.071478284  0.071085796            6 
 2368000   0.89552175   -2.9924497    2034.3837  0.071592893  0.071073233            3 
 2369000   0.87335955   -2.9951338    2032.8175  0.071507582  0.071060632            2 
 2370000   0.87768315   -3.0049605    2022.6092  0.071118469  0.071048102            2 
 2371000   0.86916701   -3.0060444     2030.845  0.071377933  0.071035345            4 
 2372000   0.87231992   -2.9768814    2039.9109  0.071666348  0.071022786            4 
 2373000   0.88415827   -2.9964264    2027.2659  0.071192087  0.071010317            3 
 2374000   0.88130971   -2.9728139    2035.9306  0.071466252  0.070997851            3 
 2375000   0.88163381   -2.9636353    2031.2239  0.071271016  0.070985331            3 
 2376000   0.89064959   -3.0121253    2039.3398  0.071525665  0.070972745           10 
 2377000   0.85398035   -2.9923737    2033.7151  0.071298385  0.070960221            3 
 2378000   0.87891921   -2.9913169    2029.7531   0.07112956  0.070947586            4 
 2379000   0.86576212    -3.007248     2040.167  0.071464445  0.070934881            7 
 2380000   0.88154411   -2.9646577    2029.2017  0.071050478  0.070922271            6 
 2381000   0.87268523   -2.9630895    2040.7696  0.071425507  0.070909598            5 
 2382000   0.86942421   -3.0014559    2039.8944  0.071364902  0.070897143            3 
 2383000   0.85887594   -2.9858916    2041.3456  0.071385704  0.070884802            6 
 2384000   0.87866643   -2.9920439     2044.246  0.071457146  0.070872316            4 
 2385000   0.87518357   -2.9853086    2040.4195  0.071293484   0.07085964            2 
 2386000   0.87191475   -2.9997218    2047.0216  0.071494189   0.07084713            2 
 2387000   0.86728601   -3.0197921    2038.7431  0.071175225  0.070834557            3 
 2388000    0.8841132   -3.0018339     2044.238  0.071337173  0.070821935            2 
 2389000   0.88192416   -2.9772439    2047.3309  0.071415199  0.070809285            2 
 2390000   0.87268411   -2.9919992     2041.262  0.071173711  0.070796923            3 
 2391000   0.85850014   -3.0068919    2044.0657  0.071241661  0.070784356            4 
 2392000   0.85559195   -3.0110911    2044.0965  0.071212951  0.070771821            5 
 2393000   0.87822551   -2.9931996    2044.0138  0.071180311  0.070759352            1 
 2394000   0.86337289   -2.9754434     2054.506  0.071515802  0.070746996            6 
 2395000   0.86827122    -2.987739    2053.3122  0.071444404   0.07073481            2 
 2396000   0.85758795   -2.9985676    2047.7758  0.071222029  0.070722419            3 
 2397000    0.8540633   -2.9996728    2050.1789  0.071275863  0.070710194            4 
 2398000   0.88534561   -2.9944989    2051.5123  0.071292476  0.070697742            3 
 2399000   0.86181294   -3.0021281    2046.0568  0.071073254   0.07068537            4 
 2400000   0.85354041   -2.9815138    2043.7427  0.070963288  0.070673074            2 
 2401000   0.86419251   -2.9989577    2046.6677  0.071035254  0.070660501            3 
 2402000   0.86967239   -3.0173976    2047.7373  0.071042786  0.070647867            2 
 2403000   0.84821778   -2.9708132    2056.9979  0.071334371  0.070635442            6 
 2404000   0.85631148   -2.9962827    2048.2083   0.07100001  0.070622709            4 
 2405000   0.85818894   -2.9761829    2048.5324  0.070981719  0.070610166            2 
 2406000   0.86112783   -3.0134707    2054.3184   0.07115262  0.070597528            6 
 2407000   0.85852873   -3.0267181    2040.8916  0.070658206  0.070584762            7 
 2408000    0.8720672   -3.0153761    2043.3903  0.070715334  0.070572051            5 
 2409000   0.82745653   -2.9911764    2052.5142  0.071001599  0.070559442            4 
 2410000   0.86511759   -3.0088706    2047.6221  0.070802976  0.070546659            3 
 2411000   0.86160836   -3.0159591    2050.6956  0.070879841   0.07053414            3 
 2412000   0.87819786   -3.0247331      2055.24  0.071007463  0.070521496            2 
 2413000   0.87643178   -3.0010803    2046.2987  0.070669245   0.07050881            2 
 2414000   0.86983171   -2.9885978    2054.3656  0.070918447   0.07049627            4 
 2415000   0.86056873    -2.973654     2054.185   0.07088285  0.070483837            2 
 2416000   0.87480892   -3.0203845    2051.0649  0.070745893  0.070471424            3 
 2417000   0.86959133   -2.9923638    2051.2054  0.070721465  0.070458794            4 
 2418000   0.87232562    -2.995132    2055.9746  0.070856583  0.070446221            4 
 2419000   0.85501133   -3.0089499    2063.7898  0.071096519  0.070433445            2 
 2420000   0.86706302   -3.0176662    2054.3143  0.070740852  0.070420769            5 
 2421000    0.9011531   -2.9972267    2056.3139  0.070780458  0.070408373           10 
 2422000   0.85137934   -3.0062856    2061.2665  0.070921638  0.070396153            4 
 2423000   0.87645156   -2.9738194    2058.8087  0.070807838  0.070383687            4 
 2424000   0.85511769   -3.0101401    2060.7595  0.070845692  0.070371035            2 
 2425000   0.84999917   -2.9855619    2054.1062  0.070587841  0.070358386            2 
 2426000   0.86934815   -3.0174572      2054.73  0.070580174  0.070345775            4 
 2427000   0.84793298   -3.0073571    2062.5124  0.070818308  0.070333471            3 
 2428000   0.86173254   -2.9973324    2060.5835  0.070722936  0.070321003            2 
 2429000   0.85962934   -3.0188574    2055.4805  0.070518749  0.070308327            5 
 2430000   0.86527996   -2.9755391    2061.2948  0.070689122  0.070295741            4 
 2431000    0.8611173    -3.008909    2061.5811  0.070669858  0.070283084            4 
 2432000   0.84547268   -2.9797913    2069.1874  0.070901431  0.070270289            1 
 2433000   0.86138671   -2.9987951    2062.0779  0.070628783  0.070257642            4 
 2434000   0.86987898   -2.9900462    2056.8121  0.070419477  0.070245039            3 
 2435000    0.8485102   -3.0018155    2071.2936   0.07088616  0.070232375            2 
 2436000   0.85126617   -3.0037942    2053.4097   0.07024527  0.070219677            6 
 2437000   0.86344921   -2.9897911    2064.0578  0.070580558  0.070206965            3 
 2438000   0.87046693   -3.0152882    2060.4339  0.070427737  0.070194451            5 
 2439000   0.85134856   -3.0085374    2068.7245  0.070682129  0.070181764            6 
 2440000   0.87676771   -3.0107128     2054.024  0.070151092  0.070169221            2 
 2441000   0.84584797   -2.9930352     2063.235  0.070436809  0.070156641            3 
 2442000    0.8587579   -2.9934542    2061.9394  0.070363753  0.070144078            3 
 2443000   0.87401112   -3.0141809    2071.1224  0.070648194  0.070131387            2 
 2444000   0.85857759   -3.0043324    2060.7035  0.070264031   0.07011863            6 
 2445000   0.85755666   -3.0447895    2068.9685  0.070516991  0.070105976            3 
 2446000   0.85825297   -2.9952468    2075.0973  0.070696964   0.07009327            8 
 2447000   0.87192976    -2.992321    2067.5892  0.070412384   0.07008071            3 
 2448000   0.86710396   -3.0258713    2071.2984  0.070509886  0.070068177            4 
 2449000   0.85912117     -3.00931    2064.8798  0.070262684  0.070055528            2 
 2450000   0.84829941    -2.987717    2073.3361  0.070521638  0.070042903            3 
 2451000   0.86604859   -2.9910109    2073.0078  0.070481701  0.070030411            3 
 2452000   0.85638004   -3.0040729    2073.5676  0.070471983  0.070017967            4 
 2453000   0.87116913   -3.0286204    2066.2574  0.070194912  0.070005345            5 
 2454000   0.85853748   -3.0258539     2077.749  0.070556541  0.069992942            3 
 2455000   0.87651372   -2.9894381    2080.9057  0.070634953  0.069980456            4 
 2456000   0.86740249   -3.0207703    2075.3569  0.070417919  0.069968037            2 
 2457000     0.880613   -3.0293517    2076.5095  0.070428352   0.06995535            6 
 2458000   0.85079566   -3.0190237     2072.182  0.070252984  0.069942819            5 
 2459000   0.85980333   -3.0275644    2074.6053  0.070306538  0.069930007            2 
 2460000   0.86650222   -3.0054279    2080.2366  0.070468719  0.069917527            1 
 2461000   0.84957833    -2.991374    2078.8544   0.07039328  0.069905121            5 
 2462000   0.85868281   -3.0139061      2076.56  0.070287031  0.069892648            4 
 2463000   0.86647005   -3.0042938    2080.6409  0.070396564  0.069880056            2 
 2464000   0.87022229   -3.0078868    2081.4252  0.070394522  0.069867512            2 
 2465000   0.85754067   -3.0126135    2076.3336  0.070193832  0.069854998            2 
 2466000   0.86687656   -2.9796259    2075.5059    0.0701374  0.069842574            3 
 2467000   0.86289959   -3.0005875    2082.9734  0.070361213  0.069830127            3 
 2468000   0.84930876   -2.9933212    2081.5114  0.070283341  0.069817543            5 
 2469000   0.85034695   -2.9928206     2081.087  0.070240551  0.069804733            4 
 2470000   0.83875841   -3.0335775    2082.3211  0.070253749  0.069792241            2 
 2471000   0.87314291   -3.0359263    2083.1776  0.070254201  0.069779709            3 
 2472000   0.85996317   -2.9769659    2082.8304  0.070214079  0.069767021            4 
 2473000   0.86625709   -3.0069967    2085.4302  0.070273293  0.069754424            3 
 2474000   0.88410746   -3.0260794     2080.554  0.070080638  0.069741755            3 
 2475000     0.848926    -3.004144    2086.7117  0.070259653  0.069729392            4 
 2476000   0.87295521   -3.0269831    2099.4924  0.070661431  0.069716695           10 
 2477000   0.84749341   -3.0243718    2083.2936  0.070087928  0.069704367            5 
 2478000   0.85881474   -3.0040606    2078.4612  0.069897136  0.069691795            3 
 2479000   0.87528048   -3.0360686     2090.249  0.070265194  0.069679484            2 
 2480000   0.83983029   -3.0353266    2078.9014  0.069855559  0.069666953            8 
 2481000   0.84383966   -3.0373145    2092.6079  0.070287785  0.069654639            3 
 2482000   0.86681294   -3.0093902    2089.1986  0.070144997  0.069642398            4 
 2483000   0.84794162   -3.0098566    2088.7638  0.070102156  0.069630123            4 
 2484000   0.85090368   -3.0316904    2081.9116  0.069844055  0.069617857            5 
 2485000   0.87084565    -3.040042    2092.2507  0.070162666  0.069605496            4 
 2486000    0.8568446   -3.0188978    2083.9704  0.069856878  0.069593117            3 
 2487000   0.84331921   -3.0144714    2096.5665  0.070250855  0.069580714            2 
 2488000   0.87180848   -3.0296968    2089.7504   0.06999432  0.069568522            4 
 2489000   0.86081205   -3.0198596    2094.7991  0.070135232  0.069555941            2 
 2490000   0.86295277    -3.032221    2093.7565  0.070072173  0.069543726            4 
 2491000   0.86106708   -3.0210606    2093.3255  0.070029622  0.069531557            2 
 2492000   0.85385986   -3.0126182    2093.2447   0.06999882  0.069519309            3 
 2493000   0.84929809   -3.0134762    2093.2392  0.069970558  0.069507048            5 
 2494000   0.85195406   -3.0285245    2097.3891  0.070081166  0.069494934            3 
 2495000   0.84751054   -3.0076155    2098.9155  0.070104059  0.069482807            2 
 2496000   0.85756692   -3.0057554    2099.5891  0.070098462  0.069470438            3 
 2497000   0.84924374   -3.0318625    2101.5483  0.070135772   0.06945815            2 
 2498000   0.87221895   -3.0107051     2098.475  0.070005172  0.069445742            6 
 2499000   0.84232158   -3.0210809    2089.2857  0.069670724  0.069433261            5 
 2500000   0.85515954   -3.0171581    2103.7762  0.070125873  0.069420893            7 
 2501000   0.84668219   -3.0411598    2093.6051  0.069758933  0.069408525            3 
 2502000   0.86307554   -3.0305211    2101.6254  0.069998181  0.069396194            2 
 2503000   0.84306262    -3.030408    2089.7829  0.069575939  0.069383751            4 
 2504000   0.85309693   -3.0131436    2100.2905  0.069897848  0.069371311            2 
 2505000   0.86126673   -3.0089398    2099.4889  0.069843276  0.069358862            7 
 2506000   0.86163981   -3.0405544    2098.3046  0.069776023  0.069346561            2 
 2507000   0.85026118   -3.0074324    2101.0923  0.069840854  0.069333945            6 
 2508000   0.85906778   -3.0294431    2100.4743  0.069792473  0.069321604            2 
 2509000   0.85103739   -3.0336085    2103.2893  0.069858154  0.069308994            2 
 2510000   0.84785504   -3.0124405    2099.5549  0.069706337   0.06929636            2 
 2511000   0.86464706   -3.0217142    2094.3335  0.069505292  0.069283628            5 
 2512000   0.85452925   -3.0456674     2100.031  0.069666635  0.069270967            7 
 2513000   0.85757372   -3.0288278    2099.4048  0.069618147  0.069258322            2 
 2514000   0.84826946   -2.9937744    2107.4186  0.069856092  0.069245969            4 
 2515000   0.84890351   -3.0360806    2103.9306  0.069712744  0.069233519            5 
 2516000   0.86141836   -3.0446778    2098.4877  0.069504758  0.069221162            7 
 2517000    0.8635564   -3.0234333    2105.0463  0.069694289  0.069208479            2 
 2518000    0.8558677   -3.0166174    2102.4807    0.0695817  0.069196083            5 
 2519000   0.84659405   -3.0319696    2107.2903   0.06971319  0.069183776            5 
 2520000   0.83864628    -3.032659     2111.536  0.069825925  0.069171478            6 
 2521000   0.84866363   -3.0298794    2107.7883  0.069674344  0.069159077            3 
 2522000   0.85351851    -3.010303    2110.9025   0.06974962  0.069146751            5 
 2523000   0.84490603   -3.0209378    2108.0376  0.069627348  0.069134397            5 
 2524000   0.84257234   -3.0129186    2108.7405  0.069622969  0.069122105            2 
 2525000   0.86055627   -3.0433308    2109.8076  0.069630615  0.069109873            3 
 2526000   0.84881701   -3.0177581    2120.4402  0.069953819  0.069097572            3 
 2527000   0.87644521   -3.0365175    2101.6739  0.069307278  0.069085265            4 
 2528000   0.84606282    -3.026681    2108.4479  0.069503161  0.069072768            5 
 2529000   0.83279721   -3.0241343    2102.1791  0.069269114  0.069060157            4 
 2530000   0.83004682   -3.0363962    2115.9323   0.06969474  0.069047712            3 
 2531000   0.84523589   -3.0420805    2111.7171  0.069528419  0.069035192            3 
 2532000   0.85181316   -3.0175093    2115.6156  0.069629265  0.069023037            4 
 2533000   0.84374005   -3.0433183    2119.9253  0.069743562   0.06901086            3 
 2534000   0.85450083   -3.0141733    2114.5794  0.069540232  0.068998542            6 
 2535000   0.84617288   -3.0040918    2110.3336  0.069373228  0.068986323            3 
 2536000   0.83781275    -2.998535    2115.0729  0.069501608  0.068973965            2 
 2537000   0.83897026   -3.0159199    2111.8529  0.069368443  0.068961539            4 
 2538000   0.84394664   -3.0436906    2118.5054  0.069559542  0.068949051            2 
 2539000   0.84930696   -3.0424705    2113.8324   0.06937877  0.068936648            3 
 2540000   0.84924821   -3.0328952    2114.7789  0.069382509  0.068924232            3 
 2541000   0.83513079   -3.0231522    2114.3593  0.069341444  0.068911814            3 
 2542000   0.86691031    -3.027749     2121.455  0.069546779  0.068899676            3 
 2543000   0.83783786     -3.02519    2114.8484  0.069302935  0.068887551            2 
 2544000   0.84516365   -3.0274822    2114.1207  0.069251858  0.068875318            2 
 2545000   0.84642676   -3.0136751    2123.9193  0.069545493  0.068863059            1 
 2546000   0.84152113    -3.032093    2129.0175  0.069685046  0.068851049            7 
 2547000   0.85018069   -3.0372985    2116.1114   0.06923542  0.068838659            4 
 2548000    0.8731505   -3.0066301    2132.8561  0.069755891  0.068826639            4 
 2549000   0.83544678   -3.0498178    2123.7801  0.069431805  0.068814463            4 
 2550000   0.86394886   -3.0457649    2114.4411  0.069099383  0.068802235           11 
 2551000   0.84332736   -3.0195601    2120.4162  0.069267484  0.068789966            2 
 2552000   0.85623828    -3.058979    2122.6839  0.069314389   0.06877769            2 
 2553000   0.85169731    -3.021605     2130.073  0.069528431  0.068765617            2 
 2554000   0.84940402   -3.0336852    2122.5626  0.069256153  0.068753392            6 
 2555000   0.84736035   -3.0372773    2127.2406  0.069381625  0.068741384            5 
 2556000   0.85821372   -3.0534778    2125.7289  0.069305192  0.068729167            5 
 2557000   0.83921159   -3.0400703    2128.6364  0.069372846  0.068716875            2 
 2558000   0.83926677   -3.0067215    2129.5156  0.069374367  0.068704729            3 
 2559000   0.86693319   -2.9967405    2126.0596  0.069234714  0.068692499            4 
 2560000   0.83658232    -3.025864    2120.8122  0.069036857  0.068680365            4 
 2561000   0.85318052   -3.0101152    2123.1586   0.06908625  0.068667975            5 
 2562000   0.82148916   -3.0288236    2131.0233  0.069315096  0.068655747            6 
 2563000   0.81680102   -3.0437563    2125.9632  0.069123528  0.068643406            2 
 2564000   0.85289004   -3.0401792     2125.362  0.069077028  0.068630982            2 
 2565000   0.85326577   -3.0626268    2124.6962  0.069028465  0.068618453            2 
 2566000   0.83064786   -3.0355351     2128.631  0.069129352  0.068606178            3 
 2567000   0.83296549   -3.0185457     2131.894  0.069208348  0.068593777            6 
 2568000   0.86166112   -2.9992856    2126.6584  0.069011499  0.068581583           10 
 2569000   0.85455101   -3.0323269     2126.056  0.068965097  0.068569198            3 
 2570000   0.84220564   -3.0600605    2129.0706  0.069036013  0.068556959            4 
 2571000   0.84595309   -3.0494234    2137.1883  0.069272278   0.06854466            3 
 2572000   0.83573542   -3.0304499    2130.6257  0.069032715  0.068532428            2 
 2573000   0.84332999     -3.01903    2141.2116  0.069348736  0.068520133            4 
 2574000   0.83846429   -3.0528483    2131.9494  0.069021931  0.068507897            4 
 2575000    0.8495942   -3.0253958     2129.781  0.068924952  0.068495764            2 
 2576000   0.83927492   -3.0382333    2136.0547  0.069101148  0.068483546            2 
 2577000   0.85465277   -3.0205989    2136.9583  0.069103554   0.06847145            6 
 2578000   0.85334854   -3.0281477    2144.9904  0.069336385  0.068459527            6 
 2579000   0.85380995   -3.0279917    2139.8252  0.069142602  0.068447546            3 
 2580000   0.85487774   -3.0318572     2140.965  0.069152618  0.068435585            4 
 2581000   0.84241175   -3.0269332    2135.7933  0.068958842  0.068423598            4 
 2582000   0.83612295    -3.045983    2143.1948  0.069171017   0.06841162            7 
 2583000   0.83675897   -3.0018734    2138.9809  0.069008289  0.068399726            3 
 2584000   0.81469413    -3.032983    2133.5328  0.068805881  0.068387458            3 
 2585000   0.84833501   -3.0501427      2134.16  0.068799485  0.068375211            6 
 2586000   0.85210216   -3.0426509    2143.3548  0.069069179    0.0683631            3 
 2587000   0.84549381   -3.0442051    2139.3176  0.068912434   0.06835119            2 
 2588000   0.83933627   -3.0464414    2138.5592  0.068861385  0.068339056            4 
 2589000   0.83718843   -3.0514647    2146.7484  0.069098379  0.068327004            4 
 2590000   0.83752845   -3.0635833     2134.289  0.068670818  0.068314799            7 
 2591000   0.84222733   -3.0325233    2139.6393  0.068816394  0.068302471            4 
 2592000   0.84329641   -3.0432713    2148.8035  0.069084473  0.068290377            8 
 2593000   0.82454696   -3.0450122    2142.5967  0.068858359  0.068278157            6 
 2594000   0.83669631   -3.0501345    2144.0732  0.068879247  0.068265822            4 
 2595000    0.8286257   -3.0267906    2140.4687  0.068736952  0.068253552            2 
 2596000   0.84216384    -3.035711     2141.387  0.068739953  0.068241551            2 
 2597000   0.82778057   -3.0264332    2149.4082   0.06897087   0.06822929            5 
 2598000   0.83717378   -3.0397664    2135.0662  0.068484288  0.068217146            3 
 2599000   0.83707924   -3.0478975    2141.0306   0.06864918  0.068204857            3 
 2600000   0.83785971   -3.0110054    2152.3304  0.068984948  0.068192767            4 
 2601000   0.80685987   -3.0281342     2143.518  0.068676087  0.068180667            6 
 2602000   0.82479634   -3.0546864    2141.2832  0.068578118  0.068168335            5 
 2603000   0.82973966   -3.0228908    2143.8991  0.068635519  0.068155881            3 
 2604000   0.85761996   -3.0555848    2149.0674  0.068774557  0.068143672            4 
 2605000   0.84734482    -3.045737    2151.2071  0.068816606    0.0681313            4 
 2606000    0.8164393   -3.0604999    2142.2325  0.068503214  0.068118914            5 
 2607000   0.83190851   -3.0261885    2142.7654  0.068493973  0.068106302            4 
 2608000   0.83383349   -3.0420771     2149.988   0.06869849  0.068093798            4 
 2609000    0.8553126   -3.0387483    2145.8327  0.068539436  0.068081361            4 
 2610000   0.83273345   -3.0478671    2150.6931  0.068668363  0.068068943            4 
 2611000   0.82278019   -3.0470567    2145.8469  0.068487389  0.068056498            5 
 2612000   0.84945393   -3.0315141    2142.7406  0.068362065  0.068044002            4 
 2613000   0.83510537   -3.0805293    2147.0759  0.068474165  0.068031549            3 
 2614000   0.83082551   -3.0484716    2147.8411  0.068472364  0.068019156            2 
 2615000   0.82489262   -3.0447334     2149.374  0.068495027  0.068006695            3 
 2616000   0.83160757   -3.0475553    2147.8996  0.068421877  0.067994231            4 
 2617000   0.82931732   -3.0585293    2148.7463  0.068422693  0.067981791            3 
 2618000   0.84415166   -3.0527838    2151.3482  0.068479381  0.067969317            4 
 2619000   0.83255957   -3.0500643    2145.1837  0.068257088  0.067956958            3 
 2620000   0.81797301   -3.0582874    2161.0602  0.068736013  0.067944409            3 
 2621000   0.82769988   -3.0552914    2142.3682  0.068115484  0.067931764            4 
 2622000   0.83333117   -3.0392052    2147.3413  0.068247564  0.067919188            4 
 2623000   0.82936156    -3.049939    2147.9685  0.068241469  0.067906394            3 
 2624000   0.81790274   -3.0473207    2155.2645  0.068447171  0.067894011            8 
 2625000   0.83475436   -3.0788315     2151.034  0.068286795   0.06788141            7 
 2626000   0.83292126   -3.0224794    2149.5566  0.068213906  0.067869002            3 
 2627000   0.82482619    -3.055075    2147.6354  0.068126995  0.067856518            3 
 2628000    0.8073023   -3.0523176    2155.4557  0.068349052  0.067843963            7 
 2629000   0.82001971   -3.0422579    2153.1924  0.068251312   0.06783154           10 
 2630000   0.82410619   -3.0488979    2150.5045  0.068140193   0.06781898            1 
 2631000   0.83102299   -3.0558975    2150.3356  0.068108946  0.067806526            3 
 2632000   0.82372655   -3.0516783    2148.8854   0.06803715  0.067794072            6 
 2633000   0.84383427    -3.038272    2159.4708  0.068346336  0.067781878            3 
 2634000   0.84344668   -3.0384656    2164.3231  0.068473903   0.06776945            4 
 2635000   0.83312531   -3.0287087    2162.2064  0.068380975  0.067757093            2 
 2636000   0.84158143   -3.0387847     2156.588  0.068177416  0.067744785            5 
 2637000   0.83673159   -3.0579509    2158.8061  0.068221656  0.067732572            6 
 2638000   0.82343929   -3.0779788     2168.501  0.068502052  0.067720489            4 
 2639000   0.83018935   -3.0709748    2151.1346  0.067927708  0.067708235            4 
 2640000   0.82930706   -3.0456399     2159.322  0.068160418  0.067696081            2 
 2641000   0.81923982   -3.0669394     2163.666  0.068271677  0.067683913            4 
 2642000    0.8350584   -3.0396792    2161.4047   0.06817451  0.067671772            4 
 2643000   0.81731186   -3.0441362    2168.6674  0.068377707  0.067659759            3 
 2644000   0.83973595   -3.0415773    2167.0277  0.068300168  0.067647752            4 
 2645000   0.81058803   -3.0620692     2165.428  0.068223944  0.067635737            4 
 2646000   0.82572183   -3.0561466     2168.707  0.068301428   0.06762378            2 
 2647000   0.82992303   -3.0507759    2169.4995  0.068300575  0.067611833            3 
 2648000   0.82080695   -3.0456432    2173.8884  0.068412903  0.067600029            3 
 2649000   0.83633626   -3.0396584    2168.6676  0.068222838  0.067587918            3 
 2650000   0.81986522   -3.0731302    2170.6501  0.068259436  0.067576082            3 
 2651000   0.82703481   -3.0495157    2170.7239  0.068236008  0.067564096            5 
 2652000   0.82421288   -3.0452474    2178.7199  0.068461536  0.067552065            5 
 2653000   0.82446821    -3.057514    2169.6504  0.068150849  0.067540162            2 
 2654000   0.82269041   -3.0470543    2165.6427   0.06799933  0.067528224            5 
 2655000   0.83795395   -3.0625318    2160.4417  0.067810474  0.067516161            5 
 2656000   0.83021198   -3.0461713    2176.9262  0.068302151  0.067504166            5 
 2657000   0.83346743   -3.0394884    2170.2121  0.068065867  0.067492222            2 
 2658000   0.83593186   -3.0550677    2168.0024   0.06797098  0.067480294            3 
 2659000   0.83348319   -3.0629007    2171.0814  0.068041916  0.067468452            4 
 2660000   0.83154647   -3.0434667     2177.202  0.068208083  0.067456539            2 
 2661000   0.82404292   -3.0439918    2175.9775  0.068144102  0.067444637            7 
 2662000   0.83274088   -3.0591124     2178.082  0.068184386  0.067432699            4 
 2663000   0.84114297   -3.0508092     2173.924  0.068028666  0.067420939            4 
 2664000   0.82797529   -3.0589198    2178.0921  0.068133511  0.067409047            5 
 2665000   0.81959887    -3.059016    2182.1583  0.068235094   0.06739754            5 
 2666000   0.81230014     -3.03483    2183.7616  0.068259615  0.067386007            3 
 2667000   0.83202584   -3.0627604    2176.9936  0.068022547  0.067374264            6 
 2668000   0.82434794   -3.0736077    2181.3052  0.068131721  0.067362595            5 
 2669000   0.81716408   -3.0610397    2174.3667  0.067889555  0.067350851            3 
 2670000   0.84806948   -3.0687118    2184.1553  0.068169642  0.067339135            2 
 2671000   0.83654743   -3.0446944    2182.2897  0.068085913  0.067327324            6 
 2672000   0.84406654   -3.0829051    2173.1977  0.067776873  0.067315678            5 
 2673000   0.83746689   -3.0599034    2189.4432  0.068257987  0.067304027            3 
 2674000   0.83643108   -3.0633917    2192.3294  0.068322408  0.067292349            4 
 2675000    0.8347492   -3.0453769    2185.4358  0.068082113  0.067280627            3 
 2676000   0.82615007   -3.0689125    2182.4269  0.067962972  0.067268801            5 
 2677000   0.81189064   -3.0793756     2183.137  0.067959688   0.06725709            4 
 2678000   0.82521842   -3.0602293    2187.7121  0.068076676  0.067245291            2 
 2679000   0.81931095   -3.0616503     2180.871  0.067838465  0.067233483            4 
 2680000   0.81963315   -3.0543474    2185.8231  0.067967135  0.067221719            2 
 2681000   0.81072343   -3.0625686    2181.8453  0.067818144  0.067210013            4 
 2682000    0.8369959   -3.0497638    2185.6313  0.067910492  0.067198182            4 
 2683000   0.81746564   -3.0535171    2191.7311   0.06807464  0.067186374            4 
 2684000   0.80979978   -3.0633944    2180.0251  0.067685827  0.067174462            4 
 2685000   0.81713656   -3.0646596    2181.4819  0.067705832  0.067162597            2 
 2686000   0.83303046   -3.0855052    2180.8245  0.067660228  0.067150532            3 
 2687000   0.82402457   -3.0617093    2185.7283  0.067787134  0.067138496            7 
 2688000   0.83696046   -3.0854493    2183.2823  0.067686084  0.067126712            4 
 2689000   0.80941891   -3.0619897    2181.5003  0.067605687  0.067114627            6 
 2690000   0.81377911    -3.068643    2188.2811  0.067790618    0.0671026            3 
 2691000   0.82116465    -3.045461    2185.2227  0.067670714  0.067090751            3 
 2692000    0.8203842   -3.0625391    2190.9187  0.067821901  0.067078885           13 
 2693000   0.81639518   -3.0593102    2191.1538  0.067803993  0.067067052           10 
 2694000   0.84497205   -3.0543204    2186.5917  0.067637706  0.067055205            6 
 2695000   0.80979593   -3.0763969    2185.3667  0.067574728  0.067043367            5 
 2696000   0.84109138   -3.0682496    2197.2569   0.06791719  0.067031434            3 
 2697000   0.81056888   -3.0635961    2190.7726  0.067691652  0.067019641            5 
 2698000   0.81110518   -3.0496623    2190.7366   0.06766545  0.067007967            4 
 2699000   0.82193856   -3.0854503    2191.5967  0.067666937  0.066996188            4 
 2700000   0.80492635   -3.0313217     2199.776  0.067894321  0.066984574            3 
 2701000   0.81316016    -3.069761    2194.3544  0.067701914  0.066972927            5 
 2702000   0.81863785   -3.0809047    2192.9468  0.067633445  0.066961158            5 
 2703000   0.82164534   -3.0424204    2190.6384  0.067537254  0.066949296            3 
 2704000   0.82742401   -3.0514151    2202.4099  0.067875057  0.066937529            3 
 2705000   0.81548157   -3.0942569    2192.9055  0.067557162  0.066925731            4 
 2706000   0.82378491   -3.0978496    2188.3119  0.067390733  0.066913849            3 
 2707000    0.8160211   -3.0733852    2195.6496  0.067591725   0.06690195            3 
 2708000   0.82798769   -3.0500024    2200.6219  0.067719779  0.066890236            2 
 2709000   0.81920265   -3.0622159    2193.8792  0.067487364   0.06687838            5 
 2710000   0.81581491    -3.068719     2194.412  0.067478843  0.066866549            3 
 2711000   0.82579143   -3.0331981    2199.1745  0.067600347   0.06685486            3 
 2712000    0.8136429   -3.0993481    2187.7774  0.067225215  0.066842994            7 
 2713000   0.80261005   -3.0414267    2199.2007  0.067551318  0.066831098            4 
 2714000   0.83583921   -3.0617258    2208.2898  0.067805507   0.06681944            7 
 2715000   0.82576954   -3.0630224    2202.4891  0.067602489  0.066807822            3 
 2716000   0.81078443    -3.080738    2197.6219  0.067428263  0.066796179            2 
 2717000   0.80781957   -3.0747325    2194.9698  0.067322103   0.06678448            4 
 2718000   0.83580336   -3.0917007    2200.6146  0.067470403  0.066772784            2 
 2719000   0.81314856   -3.0493434    2199.0377  0.067397257  0.066760968            3 
 2720000   0.81041409   -3.0716367    2202.8944  0.067490636  0.066749074            2 
 2721000   0.81992141   -3.0846875    2195.0983  0.067227071  0.066737021            4 
 2722000   0.82247018   -3.0817329    2199.9858  0.067352004  0.066724951            3 
 2723000   0.82374895   -3.0662873    2206.4084  0.067523823   0.06671305            4 
 2724000   0.81377242   -3.0664707     2207.583  0.067534966  0.066701294            2 
 2725000   0.82139299   -3.0575929    2198.6592  0.067237285  0.066689395            7 
 2726000   0.82265852    -3.059993    2203.1109  0.067348708  0.066677553            3 
 2727000   0.80381732   -3.0517486    2205.4847   0.06739655  0.066665662            2 
 2728000   0.82050039   -3.0637229    2204.8302  0.067351853  0.066653901            4 
 2729000   0.81904038   -3.0630714    2204.0848  0.067304409   0.06664207            4 
 2730000   0.81328222   -3.0694301    2203.0604  0.067248487   0.06663028            3 
 2731000   0.82180998   -3.0622822     2213.946  0.067556024  0.066618464            4 
 2732000   0.81323363   -3.0804682    2202.2012  0.067173047  0.066606646            2 
 2733000   0.81872491   -3.0838737    2210.9136  0.067414125  0.066594727            3 
 2734000   0.82327798   -3.0571419    2203.0178  0.067148798  0.066582732            6 
 2735000   0.81091373   -3.0814926    2201.8868  0.067089787  0.066570805            5 
 2736000   0.82783866   -3.0733424    2207.9467  0.067249838  0.066558834            2 
 2737000   0.82148654   -3.0744342    2211.1614  0.067323145  0.066546996            5 
 2738000    0.8166608   -3.0743864    2208.1703  0.067207522  0.066535127            4 
 2739000   0.81795873   -3.0707616    2205.8431  0.067112178  0.066523223            7 
 2740000    0.7873078   -3.0983728    2201.3337  0.066950538  0.066511178            2 
 2741000   0.81037376   -3.0945726    2202.8502  0.066972219  0.066499101            5 
 2742000   0.81093906   -3.0635759    2210.9194  0.067193029  0.066486943            4 
 2743000   0.82729916   -3.0853785    2203.2834  0.066936547  0.066474882            3 
 2744000   0.79553749   -3.0862749    2213.5132  0.067222826  0.066462962            4 
 2745000   0.81769067   -3.0731868    2208.7245  0.067052961  0.066451023            5 
 2746000   0.79675449   -3.0738058    2208.1419   0.06701086  0.066438984            2 
 2747000   0.81415707   -3.0745271    2206.4111   0.06693396  0.066426946            2 
 2748000   0.81815876   -3.0650301     2205.823  0.066891769  0.066414953            3 
 2749000   0.80713425    -3.043553    2207.7289  0.066925211  0.066402953            2 
 2750000   0.80835843   -3.0569305    2211.8306   0.06702517  0.066391069            7 
 2751000   0.80557039    -3.093371    2203.8066  0.066757742  0.066378921            2 
 2752000   0.79557292   -3.0849304    2203.6732  0.066729444   0.06636657            3 
 2753000   0.80844094   -3.0497585    2222.1879  0.067265647  0.066354459            5 
 2754000   0.80570758   -3.0725098    2212.7954  0.066957013  0.066342572            5 
 2755000   0.78633202    -3.080043    2213.8282   0.06696395  0.066330572            7 
 2756000   0.80220283   -3.0654112    2216.0139  0.067005741  0.066318492            6 
 2757000    0.8110987   -3.0784515    2209.3781  0.066780863  0.066306344            5 
 2758000   0.80258109   -3.0798112     2217.005  0.066987098  0.066294291            2 
 2759000    0.8073202   -3.0582763    2207.0435  0.066661941  0.066282215            3 
 2760000   0.81291204   -3.0666468     2212.914  0.066815036   0.06627003            6 
 2761000   0.80434241   -3.0781554    2213.5163  0.066809015  0.066257923            2 
 2762000   0.81687037   -3.0845968      2207.88  0.066614773  0.066245943            4 
 2763000   0.82633355   -3.0811634    2212.2571  0.066722677  0.066233899            8 
 2764000   0.81565993   -3.0764124    2208.0183  0.066570741  0.066221828            6 
 2765000    0.7983238   -3.0694888    2210.4629  0.066620341  0.066209689            6 
 2766000   0.81217432   -3.0974673    2211.9158  0.066640029  0.066197481            4 
 2767000   0.79334487   -3.0871611    2216.2244  0.066745705  0.066185268            4 
 2768000   0.80651608   -3.0809051    2216.1845   0.06672039  0.066173088            4 
 2769000   0.81419958   -3.1196135    2206.8255  0.066414636  0.066160864            3 
 2770000   0.81966454   -3.0878592    2219.5485  0.066773421  0.066148665            3 
 2771000   0.80857535   -3.0869653    2213.4357  0.066565491  0.066136436            4 
 2772000   0.79423888   -3.0892541    2215.9989  0.066618534  0.066124285            3 
 2773000   0.81033927    -3.084528    2224.4021  0.066847041  0.066112341            3 
 2774000   0.81257769   -3.0749009    2219.1788  0.066666029  0.066100107            3 
 2775000   0.80722318   -3.1169949    2213.4085  0.066468724  0.066088177            9 
 2776000   0.82615684   -3.0824431    2221.7591  0.066695458  0.066076126            6 
 2777000    0.8292428    -3.079422    2222.3795  0.066690058  0.066064103            9 
 2778000   0.79555198   -3.0834756    2220.2321  0.066601636   0.06605228            6 
 2779000   0.81729574   -3.0708323    2219.8453   0.06656607  0.066040185            4 
 2780000   0.79621866    -3.097741    2223.3957  0.066648551  0.066028272            7 
 2781000   0.81879778   -3.0980365    2218.7859  0.066486452  0.066016194            5 
 2782000   0.81798854   -3.0839507     2224.856  0.066644379  0.066004295            5 
 2783000   0.80396444   -3.0936765     2222.757  0.066557583  0.065992349            2 
 2784000   0.80473934   -3.0933198    2222.0966  0.066513907  0.065980486            7 
 2785000   0.80469287   -3.0903665     2226.758  0.066629503  0.065968552            4 
 2786000   0.80498885   -3.0860412    2226.7891  0.066606518  0.065956747            6 
 2787000   0.82534704   -3.0697068    2223.8602  0.066495042  0.065944821            4 
 2788000   0.79310256    -3.091431    2224.7723  0.066498454  0.065933037            2 
 2789000   0.81646445   -3.0824043    2230.6027  0.066648819  0.065921296            5 
 2790000   0.83163197   -3.0750211    2236.1763  0.066791408   0.06590963            2 
 2791000   0.79765074   -3.0873384    2232.4534  0.066656316  0.065897911            3 
 2792000   0.81658443   -3.0639846    2234.4832  0.066693028  0.065886126            3 
 2793000   0.80807566   -3.0951371    2231.0469  0.066566622  0.065874167            3 
 2794000   0.80383154   -3.0919828    2223.7068  0.066323873  0.065862462            5 
 2795000   0.80493138   -3.1116409    2233.3329  0.066587147  0.065850477            6 
 2796000   0.80070388   -3.0835283    2231.3981  0.066505667  0.065838485            4 
 2797000    0.8103936    -3.078584    2233.6653  0.066549436  0.065826664            3 
 2798000   0.79833105   -3.1051862    2237.2224  0.066631594  0.065814829            6 
 2799000   0.80300095   -3.0740639    2232.8643  0.066478038  0.065803001            2 
 2800000   0.79040282   -3.1039624    2225.4862  0.066234707  0.065791391            4 
 2801000   0.78551171   -3.0892329    2236.7123  0.066545053  0.065779555            5 
 2802000    0.8033781   -3.0727303    2231.1664  0.066356365  0.065767703            3 
 2803000   0.79247231   -3.0753104     2237.878  0.066532228  0.065755973            4 
 2804000   0.79677341   -3.0789706     2234.475  0.066407365  0.065744283            4 
 2805000   0.79706943   -3.1003321    2244.4385  0.066679695  0.065732536            3 
 2806000   0.81202693   -3.1175489    2231.9711   0.06628567  0.065720776            4 
 2807000   0.79597907   -3.0791188    2235.0053  0.066352133  0.065709074            7 
 2808000     0.792064   -3.0968361    2238.4044   0.06642938  0.065697369            5 
 2809000   0.83035823   -3.0891627    2234.8488   0.06630025   0.06568551            3 
 2810000   0.79290877   -3.0774468    2243.3281  0.066528118  0.065673907            4 
 2811000   0.78666688   -3.0669796    2242.4863  0.066479494  0.065662354            3 
 2812000   0.79580477   -3.0989306    2242.2533  0.066448947  0.065650879            8 
 2813000    0.8274226   -3.0790555    2244.4369  0.066490014  0.065639231            8 
 2814000   0.79153653   -3.0990728    2234.1396  0.066161443  0.065627666            3 
 2815000   0.79677751   -3.0941008    2236.3528  0.066203456  0.065615912           10 
 2816000   0.79583447   -3.1096427    2240.7587  0.066310331  0.065604279            3 
 2817000   0.81403116   -3.0872946    2247.1422  0.066475629  0.065592711            4 
 2818000   0.82342834   -3.0994143    2248.5823  0.066494628  0.065581194            4 
 2819000   0.79916104   -3.0901415    2239.0002   0.06618778  0.065569634            2 
 2820000   0.78241912   -3.0973432    2243.0078  0.066282737  0.065558104            4 
 2821000   0.81070191   -3.0850924    2244.2513  0.066295973  0.065546578            7 
 2822000   0.79995659   -3.0865444    2253.0669  0.066532805  0.065535278            4 
 2823000   0.82289711   -3.0942496    2246.4522  0.066313974  0.065523907            3 
 2824000   0.79455672   -3.0807488      2243.61  0.066206622  0.065512624            4 
 2825000   0.79574552   -3.0560789     2254.939  0.066517376  0.065501247            2 
 2826000   0.79448181   -3.0844769    2243.3193  0.066151195  0.065489975            2 
 2827000   0.80112886   -3.0746356    2249.5688  0.066312014   0.06547855            2 
 2828000   0.81665265   -3.0846735    2255.3062  0.066457633  0.065467188            6 
 2829000   0.77471945   -3.1054526    2248.2355  0.066225861  0.065455822            6 
 2830000   0.78742502    -3.095211    2254.3263  0.066381812  0.065444374            4 
 2831000   0.80351035   -3.1227318    2249.8721   0.06622725  0.065432853            4 
 2832000   0.79251972   -3.0783025    2255.2302  0.066361529  0.065421342            4 
 2833000   0.80358527   -3.1088834    2251.7062  0.066234445   0.06540994            6 
 2834000   0.78809567   -3.0849749    2258.3589  0.066406695  0.065398465            6 
 2835000   0.79730245   -3.0960219    2249.9694  0.066136667  0.065386992            4 
 2836000   0.80870915   -3.1099993    2253.7147  0.066223398  0.065375318            7 
 2837000   0.81250407   -3.0783939    2257.3533  0.066306934  0.065363711            3 
 2838000   0.79344711    -3.078672    2257.8588  0.066298414  0.065352063            4 
 2839000    0.8020428   -3.0876667    2247.7705  0.065978939  0.065340451            4 
 2840000   0.80598752   -3.0867199    2256.9401  0.066224768  0.065328769            4 
 2841000   0.79081424   -3.1181287    2249.8414  0.065993235  0.065317376            3 
 2842000   0.79627629   -3.0884233    2248.0596  0.065917769  0.065305881            4 
 2843000    0.7921138   -3.0809233    2252.4924  0.066024516  0.065294394            4 
 2844000   0.80688779   -3.0925347    2251.1429   0.06596176  0.065282791            4 
 2845000   0.77488603   -3.1163773    2252.8133  0.065987502  0.065271106            3 
 2846000   0.78729342   -3.1168606    2250.4541  0.065895237  0.065259493            7 
 2847000   0.79694736   -3.0875937    2248.5087  0.065815147  0.065247785           12 
 2848000   0.80786223   -3.0898508    2260.8583  0.066153391  0.065236207            6 
 2849000   0.80237223    -3.096734    2255.2954  0.065967455  0.065224546            4 
 2850000    0.7986872   -3.0855479     2253.801  0.065900615  0.065212756            2 
 2851000   0.79661469    -3.120109    2259.2503  0.066036781  0.065201303            4 
 2852000    0.7971404   -3.0971869    2253.0169  0.065831488  0.065189785            5 
 2853000   0.81031847   -3.1005113    2261.1986  0.066047393  0.065178276            3 
 2854000    0.7870159   -3.1009042    2259.3536   0.06597038  0.065166629            5 
 2855000   0.80744632   -3.0954364    2254.8757  0.065816571  0.065154952            2 
 2856000   0.79308606    -3.095474    2258.6393  0.065903342  0.065143254            4 
 2857000   0.80240426   -3.0918442    2266.0809   0.06609733  0.065131548            4 
 2858000   0.79670862   -3.0777585    2261.3426  0.065936045   0.06512012            4 
 2859000   0.76983447   -3.0990871    2257.0759  0.065788616  0.065108465            6 
 2860000   0.77610119   -3.0808941    2263.9344  0.065965455  0.065096774            8 
 2861000   0.78443522   -3.1046844    2266.2372  0.066009472  0.065085133            6 
 2862000   0.79880729   -3.1163005    2261.9146  0.065860547  0.065073524            8 
 2863000   0.80078693   -3.0810307    2257.2215  0.065700939  0.065061843            5 
 2864000    0.8025078   -3.0871253    2260.4974  0.065773319  0.065050296            3 
 2865000   0.79456187   -3.1221688    2256.2379  0.065626467  0.065038441            6 
 2866000   0.79197789   -3.1017668    2251.2454  0.065458402  0.065026622            8 
 2867000   0.79476303   -3.1094887    2258.8657  0.065657067  0.065014927            4 
 2868000   0.80296398   -3.1086564    2264.7291  0.065804543  0.065003287            3 
 2869000   0.79867056   -3.1122837    2263.8847  0.065757079  0.064991777            3 
 2870000   0.78360192   -3.1051291    2259.6508   0.06561123  0.064980277            4 
 2871000   0.78645069   -3.1254538    2259.3611  0.065579968   0.06496857            2 
 2872000   0.77994439   -3.1080505     2266.908  0.065776116  0.064957056            5 
 2873000   0.78645112   -3.1052929    2266.0909  0.065729518  0.064945642            2 
 2874000   0.79141668   -3.1078126    2265.8458  0.065699542  0.064934155            4 
 2875000   0.80261799   -3.1043099    2272.9323  0.065882096  0.064922626            3 
 2876000   0.80244777    -3.117925    2266.8695  0.065683515  0.064911132            3 
 2877000   0.78730053   -3.0967083    2266.0926  0.065638181  0.064899638            4 
 2878000   0.79337935   -3.0932265    2265.0546  0.065585319  0.064888218            3 
 2879000   0.78378872    -3.128823    2264.4553  0.065545194  0.064876707            5 
 2880000   0.80282046   -3.1136663    2272.4266  0.065753085  0.064865207            3 
 2881000   0.79544942   -3.1222861    2270.6757  0.065679617  0.064853563            3 
 2882000    0.7981645   -3.1122959    2270.5043  0.065651871  0.064842123            5 
 2883000    0.7886711   -3.0889347    2273.3276  0.065710707  0.064830501            3 
 2884000   0.78513808   -3.1021031    2266.7425  0.065497644  0.064819034            3 
 2885000   0.78709752   -3.1118511     2273.094  0.065658405  0.064807474            9 
 2886000   0.77852068   -3.1231656    2268.7397  0.065509923  0.064795937            3 
 2887000   0.79249573   -3.0993932    2274.0034  0.065639169  0.064784569            3 
 2888000   0.77707129   -3.1082353    2272.7964  0.065581613   0.06477319            2 
 2889000   0.77658798   -3.1207114    2276.2528  0.065658614  0.064761823            3 
 2890000   0.79065605   -3.1065671    2278.1861  0.065691641  0.064750374            4 
 2891000   0.79213143   -3.1356851    2268.1888  0.065380745  0.064739062            5 
 2892000   0.80019123   -3.1046634    2269.2989  0.065390126  0.064727604            5 
 2893000   0.77918261   -3.1275884    2272.0245  0.065446035  0.064716137            5 
 2894000   0.77961627   -3.1420705    2266.5797  0.065266636  0.064704642            2 
 2895000   0.78855308   -3.1232431    2274.1226  0.065461216  0.064693206            3 
 2896000   0.79581116    -3.101536    2276.6399  0.065511048  0.064681783            4 
 2897000   0.76988649   -3.0974138    2278.4993  0.065541919  0.064670259            2 
 2898000   0.78193909   -3.0955124    2277.2574  0.065483591  0.064658713            4 
 2899000   0.78216692   -3.1185803     2275.443  0.065408849  0.064647307            4 
 2900000   0.79645032   -3.0979509    2277.9023  0.065456963  0.064635896            3 
 2901000   0.79825732   -3.1188331    2279.7748  0.065488188  0.064624367            2 
 2902000   0.79215451    -3.111642    2279.4597  0.065456572  0.064612863            4 
 2903000   0.79016307   -3.1006029    2273.9116  0.065274763  0.064601321            3 
 2904000   0.78207598   -3.1115208    2276.6291  0.065330266   0.06458981            4 
 2905000   0.79581427   -3.1226907    2273.2191  0.065209957  0.064578189            3 
 2906000   0.79334987   -3.1047195    2276.0847  0.065269691  0.064566705            6 
 2907000   0.79700091   -3.1039588    2285.9701  0.065530619  0.064555116            4 
 2908000   0.78624293   -3.1105249    2282.2376  0.065401124  0.064543558            3 
 2909000   0.79654314   -3.1001581    2278.6022    0.0652745  0.064532082            3 
 2910000   0.77836454   -3.1019675    2277.4571  0.065219276  0.064520473            2 
 2911000   0.78843334   -3.0998391    2276.1582  0.065159687  0.064509107            4 
 2912000   0.78647178   -3.0949104    2284.8026   0.06538469  0.064497566            6 
 2913000   0.78677435   -3.1215251    2283.1838  0.065315934  0.064485909            9 
 2914000    0.7941118   -3.1196059    2277.0252  0.065117398  0.064474319            5 
 2915000   0.78411735   -3.1101421    2283.6572  0.065284654  0.064462594            5 
 2916000   0.79039951   -3.1323942    2281.2865  0.065194516  0.064450777            3 
 2917000   0.79075709   -3.0917471    2290.0338   0.06542206  0.064439103            3 
 2918000   0.78099071   -3.1134114    2282.1534  0.065174588  0.064427452            4 
 2919000   0.79078064   -3.1120028     2280.456  0.065103803  0.064415798            7 
 2920000   0.80169755   -3.0971788    2268.9182  0.064752231  0.064404002            3 
 2921000   0.77312902   -3.0967848    2285.1817  0.065194047  0.064392334            3 
 2922000   0.77915003   -3.0833845     2289.673  0.065299823   0.06438077            4 
 2923000   0.78415807   -3.1349645      2287.78  0.065223514  0.064369183            4 
 2924000   0.78123718   -3.1009077    2283.5741  0.065081342  0.064357418            6 
 2925000     0.783757   -3.1167143    2284.7018   0.06509122  0.064345799            3 
 2926000   0.77125483   -3.1414737    2273.8557  0.064760073  0.064334004            3 
 2927000   0.76817275    -3.085473     2276.648  0.064817446   0.06432213            4 
 2928000   0.76991031    -3.109714    2285.2295  0.065039547  0.064310395            4 
 2929000   0.77651296   -3.1256229    2282.5549  0.064941246  0.064298829            3 
 2930000   0.79523037   -3.0908344    2283.3316  0.064941173  0.064287211            4 
 2931000   0.78175562   -3.1113426    2278.1483  0.064771644  0.064275593            4 
 2932000   0.79873634   -3.1279685    2277.5287  0.064731944  0.064263977           14 
 2933000   0.78094922   -3.1096585     2283.909  0.064891152  0.064252328            5 
 2934000    0.7728089   -3.1145607    2286.8145  0.064951559  0.064240765            3 
 2935000   0.76795664   -3.1115356    2286.9382  0.064932943  0.064229099            7 
 2936000   0.77885054   -3.1270026     2290.066  0.064999601  0.064217416            4 
 2937000   0.79345993   -3.1119756    2293.3494  0.065070634    0.0642059            3 
 2938000   0.78037839   -3.1301233     2286.482  0.064853699  0.064194185            3 
 2939000   0.77155387   -3.1223585    2287.1682  0.064851087  0.064182569            8 
 2940000   0.78630101   -3.1294598    2294.6321  0.065040591    0.0641709            9 
 2941000   0.77417733   -3.1250567    2290.5505  0.064902826  0.064159192            4 
 2942000   0.78898498    -3.126514    2290.3773  0.064875858  0.064147623            3 
 2943000    0.7716643   -3.1245838    2295.8424  0.065008562   0.06413599            7 
 2944000   0.78414162   -3.1193281    2292.5927  0.064894493  0.064124446            6 
 2945000   0.78325853   -3.1121466    2295.9224  0.064966678  0.064112939            2 
 2946000   0.79357293   -3.1206778    2295.2824  0.064926523  0.064101451            3 
 2947000   0.76857015   -3.1436856    2294.8653  0.064892696  0.064089923            3 
 2948000   0.76550994   -3.1085743     2290.434  0.064745419  0.064078404            2 
 2949000   0.75571826   -3.1291489    2284.5959   0.06455849  0.064066681            3 
 2950000   0.78539881   -3.1151444    2302.1477   0.06503242  0.064054914            4 
 2951000   0.77184779   -3.1213173    2292.8007  0.064746434   0.06404306            4 
 2952000   0.76780736   -3.1190806    2289.8162  0.064640249   0.06403146            2 
 2953000   0.78601485   -3.1440028    2300.3984  0.064916989  0.064019757            5 
 2954000   0.77890388   -3.1247354    2292.5533  0.064673701  0.064008015            5 
 2955000   0.78875862   -3.1091467    2301.9976  0.064918151  0.063996222            4 
 2956000   0.77630974   -3.1383335    2292.3324  0.064623716  0.063984601            4 
 2957000   0.77065627   -3.0956414    2298.7563  0.064782897  0.063973054            5 
 2958000   0.76637487    -3.127713    2293.9311  0.064625058  0.063961352            3 
 2959000   0.78681742    -3.131332      2290.28  0.064500394  0.063949674            3 
 2960000   0.77611323   -3.1206688    2292.6007  0.064543939  0.063938102            5 
 2961000   0.76797734   -3.1149035    2292.0163  0.064505694  0.063926351            4 
 2962000   0.78261773   -3.1415032    2296.5008  0.064610083  0.063914499            6 
 2963000   0.78954275   -3.1435262    2295.6519  0.064564403  0.063902718            5 
 2964000   0.77352701   -3.1443758    2294.3424  0.064505803  0.063890979            5 
 2965000    0.7802573   -3.1216002    2291.6083  0.064407204  0.063879247            8 
 2966000   0.78011273   -3.1581901    2306.8377  0.064813377   0.06386769            3 
 2967000   0.77559423    -3.135256    2295.2362  0.064465683  0.063856046            4 
 2968000   0.78420404   -3.1207077    2296.7274  0.064485833  0.063844383            6 
 2969000    0.7834753   -3.1412061    2295.7243  0.064435957  0.063832548            5 
 2970000   0.78527739   -3.1339175    2298.4521  0.064490799  0.063820865            9 
 2971000   0.77702845    -3.138416    2297.9334  0.064454544   0.06380917            4 
 2972000   0.77211255   -3.1454334     2302.381  0.064557566  0.063797507            3 
 2973000   0.78618238   -3.1412111    2298.7753  0.064434782  0.063785882            4 
 2974000    0.7772293    -3.154791    2300.6972  0.064466968  0.063774226            4 
 2975000    0.7765738   -3.1238757    2303.6724  0.064528639  0.063762651            4 
 2976000   0.79169608   -3.1140877    2298.4416  0.064360484  0.063750948            9 
 2977000   0.78244971   -3.1389924    2305.0497   0.06452384    0.0637394            5 
 2978000   0.76970753    -3.121414    2307.3726  0.064567176  0.063727803            2 
 2979000    0.7812331    -3.128432    2303.5173  0.064437655  0.063716242            4 
 2980000   0.77441061   -3.1264236    2314.7617  0.064730472  0.063704731            5 
 2981000   0.77980602   -3.1259359    2307.8608  0.064515845  0.063693216            4 
 2982000    0.7775281   -3.1229694    2308.3475  0.064507811  0.063681536            5 
 2983000   0.78836091   -3.1307919    2306.4894  0.064434276  0.063670034            4 
 2984000   0.77703621   -3.1173409    2308.4743  0.064468116  0.063658511            4 
 2985000   0.77108838   -3.1283605    2307.2755  0.064413051  0.063646918            6 
 2986000   0.79907364   -3.1380845    2314.9492  0.064605638  0.063635366            4 
 2987000   0.77265806   -3.1337335    2309.3513  0.064427835  0.063623961            4 
 2988000   0.76985853   -3.1383912    2303.2712  0.064236702  0.063612488            8 
 2989000   0.77137689    -3.111398    2304.4936  0.064249293  0.063600973            2 
 2990000   0.76535718   -3.1185526    2306.1615  0.064274289  0.063589417            3 
 2991000    0.7606333   -3.1392612    2302.9427   0.06416312   0.06357767            5 
 2992000   0.78056503   -3.1312456    2305.1839  0.064204097  0.063565966            4 
 2993000   0.78595453   -3.1528104    2301.3877  0.064076948  0.063554388            8 
 2994000   0.76775273   -3.1333128    2306.8821  0.064208476  0.063542709            2 
 2995000   0.76652988   -3.1486269    2308.6884  0.064237296  0.063531139            4 
 2996000     0.761929   -3.1349343    2304.2244  0.064091689  0.063519491            8 
 2997000   0.76949983    -3.148902    2310.1793  0.064235882   0.06350771            3 
 2998000   0.76521884   -3.1139176    2313.5121  0.064307097  0.063496052            3 
 2999000   0.79161547   -3.1239098    2305.2338  0.064055624  0.063484355            8 
 3000000   0.76961789    -3.117786     2305.593   0.06404425  0.063472566            8 
 3001000   0.78700343    -3.139263    2304.0187  0.063979193  0.063460907            4 
 3002000   0.77024177   -3.1300305    2310.6192  0.064141105  0.063449213            2 
 3003000   0.77108312   -3.1601414    2306.5854  0.064007809  0.063437552            4 
 3004000   0.76409626     -3.13253    2312.4826  0.064150094  0.063425916            6 
 3005000   0.78302048   -3.1382436    2305.4215   0.06393293  0.063414257            3 
 3006000   0.77976425   -3.1465516    2316.3442  0.064214467  0.063402483            3 
 3007000   0.76637084   -3.1376265    2315.1844  0.064160969  0.063390787            6 
 3008000   0.78234402   -3.1093441    2313.0718   0.06408111  0.063379048            4 
 3009000   0.75869956   -3.1386229    2318.3491  0.064205967  0.063367382            3 
 3010000   0.77096435   -3.1266063    2314.5534  0.064079552   0.06335594            4 
 3011000   0.75032861   -3.1460239    2311.1562  0.063964248  0.063344345            5 
 3012000   0.76662238   -3.1326939    2320.5552  0.064203055  0.063332769           12 
 3013000   0.77460721   -3.1510197    2312.2262  0.063951383  0.063321264            3 
 3014000   0.76962224   -3.1329185    2313.3963  0.063962518   0.06330974            8 
 3015000   0.76531816   -3.1585252    2317.9135  0.064066157  0.063298181            4 
 3016000   0.76700945   -3.1288944    2317.5746   0.06403555  0.063286687            6 
 3017000   0.78116859   -3.1318052     2319.497  0.064067423  0.063275223            2 
 3018000    0.7837456   -3.1554986    2323.0579  0.064144518  0.063263877            4 
 3019000   0.76207031   -3.1292413    2331.7979  0.064364523  0.063252377            7 
 3020000   0.75909736   -3.1421866    2316.4577  0.063919915  0.063241036            6 
 3021000   0.76894927   -3.1083821    2323.7934  0.064101109  0.063229654            2 
 3022000   0.76726646   -3.1437836     2326.446  0.064153043  0.063218325            4 
 3023000   0.77399712   -3.1396558    2330.6331  0.064247247  0.063207041            4 
 3024000   0.78661627   -3.1638187    2322.5168  0.064002338  0.063195651           12 
 3025000   0.76663591   -3.1099892    2323.7487  0.064015114  0.063184519            3 
 3026000   0.73676857   -3.1096824    2328.5688  0.064126703  0.063173274            2 
 3027000     0.763274   -3.1403627    2325.0561  0.064008812  0.063162158            6 
 3028000   0.76485017   -3.1269501    2328.8628  0.064092438  0.063150963            8 
 3029000     0.754912   -3.1277993     2327.654   0.06403802   0.06313979            3 
 3030000   0.76264358   -3.1512786    2327.1458  0.064002909  0.063128603            2 
 3031000   0.76231523   -3.1499917    2329.3897  0.064043486    0.0631175            4 
 3032000   0.77028551   -3.1685642    2326.5018  0.063942991   0.06310642            2 
 3033000   0.77595836    -3.147775    2325.3728  0.063890889  0.063095233            2 
 3034000   0.77036227   -3.1243843    2335.7785  0.064155639  0.063084099            4 
 3035000   0.75838733    -3.134592    2337.1096  0.064171049  0.063073091            4 
 3036000   0.78107579   -3.1463993    2328.2569  0.063906918  0.063061823            5 
 3037000   0.76453108   -3.1497164    2328.5713  0.063894504   0.06305064            3 
 3038000   0.76053259   -3.1420418     2333.756  0.064015691  0.063039596            4 
 3039000   0.77618009   -3.1359961    2339.6019  0.064154929  0.063028603            3 
 3040000   0.76840568   -3.1341629    2335.5512  0.064022784  0.063017715            2 
 3041000   0.78045174   -3.1329556    2334.5361  0.063973913  0.063006555            4 
 3042000   0.77019378   -3.1283173    2330.7446  0.063849019  0.062995376            7 
 3043000   0.75963527   -3.1447297    2332.9438  0.063888264  0.062984183            3 
 3044000   0.76759002   -3.1479519    2328.6558  0.063749885  0.062973029            2 
 3045000   0.76561485   -3.1461957    2329.0121  0.063738701  0.062961944            3 
 3046000   0.76042738   -3.1572355    2335.6642  0.063899765  0.062950704            6 
 3047000   0.75058784   -3.1524257    2343.0966  0.064082065  0.062939559            5 
 3048000   0.76760769   -3.1538518    2331.8271  0.063752929  0.062928292            5 
 3049000   0.77628576   -3.1505463    2336.5123  0.063860072  0.062917162            4 
 3050000   0.75118207   -3.1338177    2337.8355  0.063875287  0.062906048            5 
 3051000   0.78429644   -3.1575352    2336.7666  0.063825157   0.06289484            2 
 3052000   0.78585407    -3.139123    2342.0273  0.063947885  0.062883657            4 
 3053000   0.76587208   -3.1485511    2342.8732  0.063950026  0.062872658            3 
 3054000   0.77535398   -3.1428273    2344.9714  0.063986339  0.062861694            8 
 3055000   0.76990673   -3.1457013    2345.3847  0.063976669  0.062850658            3 
 3056000   0.76577458   -3.1230335    2343.3276  0.063899641  0.062839444            4 
 3057000   0.77794032   -3.1635071    2332.6369  0.063587311  0.062828433            4 
 3058000   0.75554346   -3.1552202    2338.7014   0.06373178  0.062817179            5 
 3059000   0.75768036   -3.1610404    2335.6569  0.063628006  0.062805799            3 
 3060000   0.75285356   -3.1164606    2347.1587  0.063920444  0.062794565            3 
 3061000   0.76703092   -3.1570627    2336.9149  0.063620682  0.062783388            1 
 3062000   0.77213778   -3.1387568    2342.4713  0.063751123  0.062772248            5 
 3063000    0.7589013   -3.1469015    2337.6938  0.063600333  0.062761017            4 
 3064000   0.76891467   -3.1316807    2346.5827  0.063821332  0.062749693            4 
 3065000   0.75510692   -3.1475958    2338.4175  0.063578508  0.062738518            3 
 3066000   0.76306951   -3.1418535    2344.1276   0.06371297  0.062727274            7 
 3067000    0.7638562   -3.1307407    2342.7476  0.063654702  0.062716038            3 
 3068000   0.75018542   -3.1607897    2343.7962  0.063662435  0.062704747            4 
 3069000   0.75991595   -3.1526137    2346.1284  0.063705018  0.062693672            6 
 3070000   0.76721967   -3.1635055    2337.5978  0.063452709  0.062682345            2 
 3071000   0.76797647   -3.1394422    2351.9274   0.06382089  0.062671001            1 
 3072000   0.76230121   -3.1471591    2344.1886  0.063590186  0.062659751            3 
 3073000   0.75665317    -3.140954    2346.3242  0.063627404  0.062648476            5 
 3074000   0.76464499   -3.1382064    2343.9179  0.063541475  0.062637305            6 
 3075000   0.77198436   -3.1555045    2344.0232  0.063523664  0.062626058            6 
 3076000   0.76911487   -3.1547679    2338.8177  0.063361988  0.062614798            3 
 3077000    0.7489628   -3.1466159    2341.4902  0.063413775  0.062603573            3 
 3078000   0.75924547   -3.1356413    2345.3937  0.063498855  0.062592377            3 
 3079000   0.75137477   -3.1637277     2346.711  0.063513885  0.062581171            2 
 3080000   0.78615871   -3.1596304    2344.6227  0.063436762  0.062570013            3 
 3081000   0.76245567    -3.158251    2350.1924  0.063566818  0.062558923            2 
 3082000   0.74988683   -3.1400826    2350.8302  0.063563438  0.062547914            5 
 3083000   0.77172318   -3.1593808    2347.1331  0.063442888  0.062536791            3 
 3084000    0.7657781   -3.1398746    2352.4214  0.063565214  0.062525598            3 
 3085000   0.76925428   -3.1640057      2346.72  0.063390599   0.06251437           10 
 3086000   0.76290703   -3.1617607    2341.3956   0.06322628  0.062503154            7 
 3087000   0.74946827   -3.1446811    2355.3531  0.063582579  0.062492023            2 
 3088000   0.76511764   -3.1491349    2343.2618  0.063235693  0.062480753            5 
 3089000   0.76544885   -3.1560873    2346.1012  0.063291821  0.062469605            4 
 3090000   0.75706988   -3.1520887    2352.5387  0.063444948  0.062458459            4 
 3091000   0.73518235   -3.1865239    2346.8793  0.063271846  0.062447198            7 
 3092000   0.74013008   -3.1517989    2345.6666  0.063218698  0.062435782            4 
 3093000   0.74605402   -3.1351698    2339.1815  0.063023536  0.062424336            7 
 3094000   0.73780681   -3.1462617    2345.4209  0.063171216  0.062412943            7 
 3095000   0.76642724   -3.1586414    2344.5628  0.063127701   0.06240166            3 
 3096000   0.75394199   -3.1533169    2344.2546  0.063099014  0.062390183            3 
 3097000   0.75096063   -3.1783099    2358.2157  0.063454302  0.062378724            9 
 3098000   0.76160115   -3.1597639    2348.6888  0.063177556  0.062367244            7 
 3099000   0.76811185   -3.1735008    2343.1681  0.063008716  0.062355728            3 
 3100000   0.76522632    -3.142185    2347.7049  0.063110348  0.062344352            7 
 3101000   0.76146553   -3.1719088    2341.2219  0.062915778  0.062332938            7 
 3102000   0.76290908   -3.1820761    2351.0729  0.063160137  0.062321404            5 
 3103000   0.76286006   -3.1461887    2347.7223  0.063049798  0.062309912            5 
 3104000   0.74253352   -3.1690164    2349.8032  0.063085352   0.06229838            5 
 3105000   0.74183096   -3.1423368    2352.0791  0.063126116  0.062286992            5 
 3106000   0.74807134    -3.157003    2351.9117    0.0631013  0.062275411            4 
 3107000   0.75021831   -3.1767691    2345.8034  0.062917161  0.062263896            3 
 3108000   0.76507796   -3.1568034    2353.2285  0.063096003  0.062252482            3 
 3109000   0.74562788   -3.1652903    2355.0635  0.063124893  0.062241042            6 
 3110000   0.75850372   -3.1623786    2352.3959  0.063033115  0.062229572            3 
 3111000   0.75366815   -3.1605483    2349.2832  0.062929477  0.062218175            4 
 3112000   0.75201421   -3.1329454    2357.3598  0.063125531   0.06220668            3 
 3113000   0.76491398   -3.1411449    2346.4933  0.062814362   0.06219508            4 
 3114000   0.75585297   -3.1710544    2345.7074  0.062773158  0.062183416            8 
 3115000   0.75445124   -3.1891674    2347.5951  0.062803509  0.062171791            4 
 3116000   0.75614218   -3.1517274    2353.4464  0.062939837  0.062160268            4 
 3117000   0.75276116   -3.1598005    2353.3229  0.062916343  0.062148771            5 
 3118000   0.75075765   -3.1328931    2350.8553  0.062830215  0.062137233            4 
 3119000   0.75988486   -3.1665952     2346.353  0.062689778  0.062125634            9 
 3120000   0.74446221   -3.1684794    2341.8352  0.062549018  0.062113985            4 
 3121000   0.76112962   -3.1848304    2354.9754   0.06287983   0.06210236            3 
 3122000   0.77578247   -3.1508621    2353.8605   0.06282993  0.062090769            5 
 3123000   0.74871751   -3.1455376    2350.9315  0.062731655  0.062079128            4 
 3124000   0.76832553   -3.1764262    2347.0502  0.062608039  0.062067488            4 
 3125000   0.73610481   -3.1661553    2350.4713  0.062679233  0.062055821            7 
 3126000   0.76656113   -3.1514104     2354.074  0.062755224  0.062044131            3 
 3127000   0.77592022   -3.1650949    2354.5719  0.062748424   0.06203253            8 
 3128000   0.76480622    -3.159969    2350.8674  0.062629672  0.062020798            4 
 3129000   0.75583617   -3.1746412    2356.8664  0.062769425  0.062009234            5 
 3130000   0.75309076   -3.1618107    2352.2221  0.062625722   0.06199762            6 
 3131000   0.75715241   -3.1830382    2357.7902  0.062753918  0.061986054            3 
 3132000   0.76575262   -3.1622845    2363.7789  0.062893223  0.061974399            7 
 3133000   0.75695923   -3.1626292    2354.4582  0.062625231  0.061962856            4 
 3134000   0.76634044   -3.1868454    2354.5035  0.062606453  0.061951012            6 
 3135000   0.74939394   -3.1606078     2353.503  0.062559888  0.061939427            6 
 3136000   0.75545766   -3.1667683    2353.5172  0.062540317  0.061927934            3 
 3137000   0.74415625   -3.1776423     2356.567  0.062601396  0.061916377            7 
 3138000   0.74562038   -3.1532328     2355.667  0.062557548  0.061904831            7 
 3139000   0.75554738    -3.159543    2361.6016  0.062695169  0.061893303            3 
 3140000   0.74831879   -3.1746135    2356.5096  0.062540065  0.061881715            4 
 3141000   0.74793739   -3.1670673    2360.0793  0.062614859  0.061869976            6 
 3142000   0.72992657    -3.169521    2356.2181  0.062492524   0.06185831           13 
 3143000   0.75053953   -3.1855337    2349.6629  0.062298836  0.061846569            4 
 3144000   0.76178046   -3.1543027    2350.8282  0.062309908  0.061834857            2 
 3145000    0.7560742   -3.1532842     2355.922  0.062425066  0.061823066            6 
 3146000   0.72708169   -3.1658207    2356.5891  0.062422894  0.061811364            5 
 3147000   0.74590194    -3.171127    2352.6642  0.062299126  0.061799732            4 
 3148000   0.74158465   -3.1654344    2364.5838  0.062594868  0.061788066            6 
 3149000   0.76030605   -3.1808137    2361.1772  0.062484842  0.061776279            7 
 3150000   0.75040546    -3.173594    2359.6855  0.062425543  0.061764656            4 
 3151000   0.77000538   -3.2008228    2359.8112  0.062409055  0.061752943            5 
 3152000   0.74689144    -3.173351    2360.9816  0.062420199  0.061741253            9 
 3153000   0.76066643   -3.1663809    2365.7265  0.062525808  0.061729802            4 
 3154000   0.75257099   -3.1674276    2367.8324  0.062561624  0.061718429            8 
 3155000   0.72456021    -3.169941    2364.2658  0.062447592  0.061706805            6 
 3156000   0.74175185   -3.1597546      2373.37  0.062668198  0.061695242            6 
 3157000   0.73952699   -3.1713991     2364.766  0.062421234  0.061683644            6 
 3158000   0.77050035   -3.1733489     2359.872  0.062272325  0.061672033            6 
 3159000   0.73932601   -3.1551795    2360.5863  0.062271454  0.061660447            7 
 3160000   0.74103793   -3.1807907    2366.0999   0.06239715  0.061648824            3 
 3161000   0.74375845   -3.1823714    2355.9087  0.062108739  0.061637342            5 
 3162000   0.76011833   -3.1720595    2361.3053  0.062231322  0.061625845            6 
 3163000   0.74014087   -3.1604746    2369.1535  0.062418418  0.061614438            8 
 3164000   0.73507242   -3.1878119    2366.6837   0.06233364  0.061602802            2 
 3165000   0.74023363   -3.1907809    2361.1859  0.062169192   0.06159109            6 
 3166000   0.74806251   -3.1960853    2364.9136  0.062247674  0.061579448            9 
 3167000   0.74389326    -3.174885    2367.1106  0.062285829  0.061567903            8 
 3168000    0.7444818    -3.155105    2376.7393  0.062519448  0.061556344            2 
 3169000   0.73385791   -3.1475454    2376.1257  0.062483582  0.061544845            5 
 3170000   0.74160089   -3.1696828    2366.6926  0.062215893  0.061533396            4 
 3171000   0.73510347   -3.1686856     2373.431  0.062373358  0.061521828            7 
 3172000   0.73540134   -3.1535114    2368.4318  0.062222356  0.061510372            2 
 3173000   0.72717946   -3.1698395    2369.2111  0.062223213   0.06149863            7 
 3174000   0.73401223   -3.1803073    2368.3412  0.062180772  0.061487152            8 
 3175000   0.75464763   -3.1388089    2370.6563  0.062221949  0.061475512            4 
 3176000   0.75968107   -3.1782645    2378.2815  0.062402432  0.061464004            7 
 3177000   0.73411072   -3.1853151    2364.5574  0.062022803  0.061452478            3 
 3178000   0.73317802   -3.1912628    2367.9348   0.06209185  0.061440829            6 
 3179000   0.73474827   -3.1782036    2367.8579  0.062070302   0.06142912            5 
 3180000   0.74109679   -3.1668902    2362.2627   0.06190416  0.061417316            7 
 3181000   0.73358678   -3.1731236    2374.9538   0.06221717  0.061405574            2 
 3182000    0.7363907   -3.1774472     2368.103  0.062018201  0.061393896            5 
 3183000   0.74241015   -3.1669211    2367.0746  0.061971793  0.061382063            7 
 3184000   0.74109761   -3.1770465    2367.7539  0.061970108  0.061370408            4 
 3185000   0.71547997   -3.1674656    2362.8685   0.06182283  0.061358679            6 
 3186000   0.74391395    -3.173107    2379.0526  0.062226738  0.061346966            5 
 3187000   0.73904287   -3.1948249    2369.4798  0.061956902  0.061335322            4 
 3188000   0.74560292   -3.1449116    2373.9545  0.062054436  0.061323658            5 
 3189000    0.7379736    -3.181972    2368.6707  0.061896903  0.061311968            4 
 3190000   0.74960565    -3.193162    2369.6877  0.061904066  0.061300255            6 
 3191000   0.74592866   -3.1509192    2375.1403  0.062027064  0.061288623            3 
 3192000   0.73659536   -3.2036155     2363.517  0.061704181  0.061276931            5 
 3193000   0.74583521   -3.1871136    2370.3235  0.061862499  0.061265182            5 
 3194000    0.7375686   -3.1595166    2368.8623  0.061805007  0.061253338            4 
 3195000   0.73386038   -3.1564103    2364.2932  0.061666488  0.061241459            3 
 3196000   0.75179849   -3.1658321    2378.2636  0.062011462  0.061229635            5 
 3197000   0.73439187   -3.1862601    2371.5829  0.061817925   0.06121777            4 
 3198000   0.74826805   -3.1913034    2367.3646  0.061688676  0.061205829            5 
 3199000   0.71357054   -3.1866013    2368.5218  0.061699535  0.061194024            4 
 3200000   0.73070828   -3.1889483    2369.6009  0.061708357  0.061182191            2 
 3201000   0.72835413   -3.1808234    2372.3292  0.061760105  0.061170203            4 
 3202000   0.73157048    -3.169945    2368.5501  0.061642465  0.061158299            6 
 3203000   0.73969042   -3.1741436     2374.343  0.061773935  0.061146458           10 
 3204000    0.7293844   -3.1807271    2374.9833  0.061771308  0.061134485            4 
 3205000   0.74195381   -3.2064322    2366.3399  0.061527298  0.061122446            6 
 3206000    0.7434891   -3.1865886    2365.9042  0.061496781  0.061110569            5 
 3207000     0.733215   -3.1857612    2377.9877  0.061791595  0.061098555            8 
 3208000   0.74078573   -3.1798784    2374.5242  0.061682363  0.061086507            4 
 3209000   0.76514393   -3.1807454    2369.4285  0.061530812  0.061074568            5 
 3210000   0.75053158   -3.1817282    2371.1559  0.061556488  0.061062597            6 
 3211000   0.74262157   -3.1639812    2375.2644  0.061643942  0.061050526            2 
 3212000   0.73075902   -3.1891894    2367.7801  0.061430574  0.061038505            6 
 3213000   0.75170343   -3.1625308    2373.0348  0.061547745  0.061026676           11 
 3214000   0.76399857   -3.1879968    2387.2518  0.061897216  0.061014637            3 
 3215000    0.7436465   -3.1820883    2364.0072  0.061275458  0.061002681            6 
 3216000    0.7350498   -3.1935738    2369.9775  0.061411107  0.060990711            3 
 3217000   0.73226341   -3.1944194    2371.1882  0.061423381   0.06097867            5 
 3218000   0.73500705   -3.1770751    2374.1095  0.061479942  0.060966549            2 
 3219000   0.74043326   -3.1959686    2371.1808  0.061385028  0.060954483            4 
 3220000   0.75130244   -3.1863759    2372.2202  0.061392861  0.060942365           12 
 3221000   0.74039506   -3.1801318    2365.8854  0.061209909  0.060930194            4 
 3222000   0.72921415   -3.1613234    2369.4156  0.061282215  0.060918017            4 
 3223000   0.74696189    -3.171972    2375.0313    0.0614084  0.060905878            7 
 3224000   0.72543169   -3.1847397    2369.3358  0.061242136  0.060893662            6 
 3225000   0.72956645    -3.194778    2378.5343  0.061460835  0.060881452            5 
 3226000   0.71595785   -3.1829518    2371.2506  0.061253633  0.060869347            6 
 3227000   0.71922458    -3.192691    2372.7632   0.06127371  0.060857163            4 
 3228000   0.71861056   -3.2076713    2365.9674   0.06107929  0.060844879            3 
 3229000   0.71731514   -3.1743886    2375.1417  0.061297143  0.060832749            3 
 3230000   0.73777598   -3.1851108    2378.4242  0.061362855  0.060820638            9 
 3231000   0.72990934   -3.1785513    2376.4518  0.061292991  0.060808401            6 
 3232000   0.73534185   -3.1977108    2370.9754  0.061132824  0.060796075            7 
 3233000   0.72182058   -3.1670782     2369.304  0.061070832  0.060783948            6 
 3234000   0.72514095   -3.1939236    2376.3897  0.061234531  0.060771712            3 
 3235000   0.74426907   -3.1606564    2370.5791  0.061065922  0.060759486            3 
 3236000   0.74584982   -3.1639447    2374.3432  0.061143985  0.060747334            5 
 3237000   0.71937997   -3.1733863    2372.8456   0.06108654  0.060735119            3 
 3238000   0.73789347   -3.1784648    2369.1434  0.060972397  0.060722926            4 
 3239000   0.75191861   -3.1799476     2367.142   0.06090208  0.060710609            4 
 3240000   0.73177111   -3.1843397    2374.7288  0.061078415   0.06069828            8 
 3241000   0.71355274   -3.1778367    2371.6801  0.060981181  0.060685919            7 
 3242000   0.71991103   -3.1794139    2375.0908  0.061050042  0.060673685            4 
 3243000   0.74379548   -3.1961062    2369.3029  0.060882488  0.060661481            7 
 3244000   0.72241561   -3.1868645    2375.8924  0.061032993  0.060649223            4 
 3245000   0.72857202   -3.1835781     2374.768   0.06098531  0.060636956            2 
 3246000   0.72423054   -3.1951921    2379.1089  0.061077966  0.060624693            4 
 3247000   0.71594834   -3.1756539    2373.2166  0.060907931  0.060612494            5 
 3248000   0.73973523   -3.2018909    2368.6536  0.060772105  0.060600277            3 
 3249000   0.73535607   -3.1485401    2378.8434  0.061014757  0.060588022            4 
 3250000    0.7294474   -3.1856447    2383.4867  0.061115045  0.060575842            4 
 3251000   0.73300616   -3.2194658    2374.2131  0.060858534  0.060563524            3 
 3252000   0.72451354    -3.198638    2378.2995  0.060944534  0.060551142            5 
 3253000   0.72096301    -3.191597    2375.6329  0.060857489  0.060538903            7 
 3254000    0.7443971    -3.199864    2377.4915  0.060886384  0.060526753           11 
 3255000   0.73260564   -3.2029298    2381.4866  0.060969959  0.060514432            6 
 3256000   0.73385159   -3.1992401    2379.0113  0.060887882  0.060502228            4 
 3257000   0.73637987   -3.1948049     2387.724   0.06109211  0.060490041            8 
 3258000   0.72572507   -3.2004858    2377.6411  0.060815457  0.060477912            5 
 3259000   0.73401164   -3.1948408    2374.3683   0.06071311  0.060465834            5 
 3260000   0.71982533   -3.2251732    2375.5195  0.060723914  0.060453668            2 
 3261000   0.72984715   -3.2021036    2388.2476  0.061030554  0.060441517            4 
 3262000   0.74706664   -3.1934862    2387.6282  0.060996019  0.060429488            3 
 3263000   0.73027538   -3.1789549    2372.7502   0.06059736  0.060417372            2 
 3264000   0.72849878   -3.1858123    2375.2516  0.060642658  0.060405249            6 
 3265000   0.72736032   -3.1943636    2375.7727  0.060637385  0.060393057            5 
 3266000   0.72207712    -3.200885     2388.039  0.060931797  0.060381064            3 
 3267000   0.71898919   -3.1719732    2382.3497  0.060768027  0.060368988            3 
 3268000    0.7314204    -3.199865    2374.6116  0.060552112  0.060356935            6 
 3269000   0.74880112   -3.1894593     2379.427  0.060656343  0.060344809            6 
 3270000   0.73042634   -3.1971465    2381.2805  0.060685029  0.060332724            7 
 3271000    0.7425801   -3.1831424     2382.638  0.060701059  0.060320589            5 
 3272000   0.72823529   -3.1886702    2380.9143  0.060638608  0.060308534            3 
 3273000   0.72778217   -3.1984928    2380.9582  0.060621198  0.060296376            3 
 3274000   0.72444432   -3.1971209    2387.3458  0.060765266  0.060284238            6 
 3275000   0.71949859   -3.1688439    2394.9588  0.060940427  0.060272122            6 
 3276000   0.74543128   -3.1967933    2384.7565  0.060662305  0.060260063            2 
 3277000   0.71669025   -3.2170531    2384.9566  0.060648881   0.06024793            5 
 3278000    0.7310026   -3.2291777    2380.0416  0.060505429  0.060235607            6 
 3279000   0.73174243   -3.2073775    2377.6793  0.060426941  0.060223351            5 
 3280000   0.72280561   -3.1785157    2392.9458  0.060796387  0.060211279            3 
 3281000   0.71656247   -3.1920197    2386.5136  0.060614487  0.060199277            9 
 3282000   0.74003888   -3.1931794    2393.0697  0.060762486  0.060187314            3 
 3283000   0.70585395    -3.211142    2389.5371  0.060654309  0.060175175            7 
 3284000   0.71459079    -3.217247    2380.3783  0.060403429  0.060163056            3 
 3285000   0.72930621   -3.1880645    2393.9849  0.060730209  0.060150918            6 
 3286000   0.72590945    -3.202844    2385.5055   0.06049669  0.060138885            3 
 3287000   0.72316925   -3.1952016    2393.9755  0.060693019  0.060126739            4 
 3288000   0.73338801   -3.1998724    2379.8367  0.060316219  0.060114618            3 
 3289000   0.71914181   -3.2288573    2390.4704  0.060567304  0.060102518            9 
 3290000    0.7191321   -3.2044451    2382.6562  0.060350968  0.060090469            5 
 3291000   0.72910034     -3.21262    2386.1531  0.060421177  0.060078359            6 
 3292000    0.7409697   -3.2081668    2386.7345  0.060417541  0.060066265            8 
 3293000   0.73498574   -3.2162778    2387.5442  0.060419684  0.060054159            9 
 3294000   0.71976395   -3.2052759    2394.1979  0.060569671  0.060042045            2 
 3295000   0.72352727   -3.2012472    2381.7638  0.060236818  0.060029955            7 
 3296000   0.72743147   -3.2002091    2391.6205  0.060467752  0.060017893            2 
 3297000   0.71077182    -3.215041    2394.1953   0.06051449  0.060005869            4 
 3298000   0.72003547   -3.2101231    2389.5947  0.060379894  0.059993818            4 
 3299000    0.7189511   -3.2070125    2386.0788  0.060272779  0.059981778            5 
 3300000    0.7264372   -3.2183374    2393.4922  0.060441723  0.059969739            5 
 3301000   0.71267488   -3.2021051    2392.1463  0.060389435  0.059957858            5 
 3302000   0.71303231   -3.2218066    2394.3372  0.060426439  0.059945895            5 
 3303000   0.72704485   -3.2085283    2393.2352   0.06038034  0.059933867            2 
 3304000   0.71891831   -3.1999418    2392.6762  0.060347967  0.059921845            5 
 3305000   0.73376583   -3.2048031    2391.4658  0.060299188  0.059909786            5 
 3306000   0.72081123    -3.198523     2401.184  0.060525911  0.059897801            3 
 3307000   0.72799669   -3.2016424    2396.1061  0.060379651  0.059885951            6 
 3308000   0.73625404   -3.2032326    2396.1296  0.060361991  0.059874035            9 
 3309000   0.70821011    -3.224294    2394.4784  0.060302165  0.059862005            7 
 3310000   0.71874895   -3.2169926    2397.1331  0.060350783  0.059849942           12 
 3311000   0.73041824   -3.1959826    2392.2157   0.06020879  0.059837923            4 
 3312000   0.70585677    -3.226242    2391.9163   0.06018308  0.059825945            6 
 3313000   0.71911037   -3.1937762    2394.9676  0.060241665  0.059813788           14 
 3314000   0.72590071   -3.2006393    2402.0259  0.060400973  0.059801739            5 
 3315000   0.72807735   -3.2247725    2392.9192  0.060153825  0.059789699            5 
 3316000    0.7476425   -3.2171168    2393.8773  0.060159762  0.059777633            5 
 3317000   0.71813174    -3.223727    2402.7037  0.060363372  0.059765575            5 
 3318000   0.72637973   -3.2108574    2391.6997  0.060068809  0.059753535            6 
 3319000   0.71199695   -3.2289917    2401.9163  0.060307229  0.059741445            3 
 3320000    0.7300273   -3.2198657    2401.5911  0.060280901  0.059729461            7 
 3321000   0.70990029   -3.2110693    2404.2423  0.060329275  0.059717406            4 
 3322000   0.72540358   -3.2060314    2402.0345  0.060255732  0.059705441            5 
 3323000    0.7055757   -3.2028749    2404.7449   0.06030557   0.05969341            5 
 3324000   0.72273598   -3.2007177    2393.8513  0.060014323  0.059681291            8 
 3325000   0.71377816   -3.2121673    2399.8826  0.060147433  0.059669252           23 
 3326000    0.7218678   -3.2048897    2399.4136  0.060117599  0.059657149           12 
 3327000   0.70617391   -3.1954495    2403.5765  0.060203799  0.059645049            6 
 3328000   0.71990485   -3.2166447     2393.453  0.059932217  0.059632943            2 
 3329000   0.72110659   -3.2250953    2402.3062  0.060135832  0.059620895            5 
 3330000   0.72325201   -3.2098169    2403.3317  0.060143436  0.059608894            4 
 3331000    0.7294254   -3.2115158    2395.6866  0.059934119  0.059596812           10 
 3332000   0.71757894   -3.2321377    2395.7164  0.059916876  0.059584677            4 
 3333000   0.72081514   -3.1978298    2396.3857  0.059915635  0.059572518            6 
 3334000   0.74068632   -3.1971174    2402.9329  0.060061311  0.059560484            4 
 3335000   0.70140539   -3.2221849    2397.7622  0.059914097  0.059548478            4 
 3336000    0.7005344   -3.2153721    2392.0704  0.059753957  0.059536427            6 
 3337000   0.73558269   -3.2051202    2395.5225  0.059822258  0.059524373            3 
 3338000   0.71746474   -3.2031411     2404.822  0.060036498  0.059512254            6 
 3339000   0.70219826   -3.1998934    2397.3717  0.059832578  0.059500108            3 
 3340000   0.71154201   -3.2305673    2400.7444  0.059898813  0.059488032            3 
 3341000   0.71675771   -3.1938309    2405.8037  0.060007077  0.059476039            5 
 3342000   0.71818613   -3.2220945    2404.2783  0.059951085  0.059464119            4 
 3343000   0.70926818   -3.2517278    2400.5231  0.059839542  0.059451982            8 
 3344000   0.72050339   -3.2318355    2393.2313  0.059639934  0.059439919            5 
 3345000   0.70760462   -3.2102793    2407.1349  0.059968483  0.059427929            5 
 3346000   0.72463565   -3.2082132    2403.3768  0.059856963  0.059415859            3 
 3347000   0.71966868   -3.2319091    2405.0804  0.059881496  0.059403786            4 
 3348000   0.71188247   -3.2033446    2408.8816  0.059958225  0.059391829            3 
 3349000   0.73479789   -3.2152385    2402.9092  0.059791709  0.059379779            3 
 3350000   0.70378858   -3.2196759    2398.0325   0.05965255  0.059367757            3 
 3351000   0.72217746   -3.1985347     2405.767  0.059827092  0.059355732            4 
 3352000   0.69458729   -3.2025826    2400.1098    0.0596686  0.059343681            5 
 3353000   0.72571781   -3.2229107    2403.6456  0.059738681  0.059331574            8 
 3354000   0.71195955   -3.2240051    2402.2791  0.059686918   0.05931944            6 
 3355000   0.71520408   -3.1960378    2407.2814  0.059793377  0.059307497            6 
 3356000   0.72226079   -3.2009305    2409.1034  0.059820804  0.059295596            8 
 3357000   0.71106434   -3.2238707    2413.1111  0.059902471  0.059283748            4 
 3358000   0.73598799   -3.2225192    2405.4211  0.059693794  0.059271807            4 
 3359000   0.71838628   -3.2213968    2408.2038  0.059745059   0.05925987            3 
 3360000   0.71213491   -3.2282817    2407.1511  0.059701169  0.059247846            4 
 3361000   0.70415943    -3.214269    2406.9226  0.059677739  0.059235966            4 
 3362000   0.70791166   -3.2349842     2411.536  0.059774339   0.05922405            8 
 3363000   0.71856045   -3.2192435    2408.6274  0.059684492   0.05921212            5 
 3364000   0.70667169   -3.2246101    2412.0688     0.059752   0.05920017            4 
 3365000   0.70862126   -3.2274239    2404.9505  0.059557963  0.059188163            5 
 3366000       0.7265   -3.2274601    2411.5141  0.059702765  0.059176084            9 
 3367000   0.71047895    -3.219337     2408.836   0.05961875  0.059164143            2 
 3368000   0.71704406   -3.2280425    2412.4825  0.059691274  0.059152205            5 
 3369000   0.71344665   -3.2096743    2409.7719  0.059606507  0.059140295            5 
 3370000   0.71983842   -3.2427665    2403.3391  0.059429749  0.059128294            2 
 3371000   0.72836571   -3.2194201    2410.0487  0.059577985  0.059116344            6 
 3372000   0.72434583   -3.2179603    2416.5675  0.059721418  0.059104385            6 
 3373000   0.72696054   -3.2293523    2405.7264  0.059435873  0.059092425            8 
 3374000   0.71673394    -3.227691    2412.8101  0.059593214  0.059080298            4 
 3375000   0.71114448    -3.180383    2417.0318  0.059679797  0.059068361            7 
 3376000   0.70231996   -3.2092134    2410.7917  0.059508089  0.059056422            4 
 3377000   0.71407398   -3.2352461    2412.3852  0.059529789  0.059044476            7 
 3378000   0.71012532   -3.2128655    2418.0266  0.059651336  0.059032573            9 
 3379000   0.70167117   -3.2395774    2409.3223  0.059419016  0.059020545            6 
 3380000   0.68667596   -3.2331924     2409.766  0.059412376  0.059008614            7 
 3381000   0.71179528   -3.2331494    2411.3722  0.059434393  0.058996638            6 
 3382000   0.71350659   -3.2286232    2419.0735  0.059606582   0.05898475            8 
 3383000    0.7000946   -3.2088549    2410.3862  0.059374968  0.058972858            6 
 3384000   0.70654711   -3.2221145    2414.4879  0.059458428  0.058960953            5 
 3385000   0.71324353   -3.2480708    2413.1053  0.059406826  0.058948966            6 
 3386000   0.71754707   -3.2348955    2419.8172   0.05955447   0.05893699            5 
 3387000   0.70626822   -3.2279574    2410.3784  0.059304656  0.058925029            5 
 3388000   0.71449178    -3.211889    2412.9862  0.059351294  0.058913046            7 
 3389000   0.71238681   -3.2280795    2412.6285  0.059324985  0.058901191            4 
 3390000   0.71256621   -3.2436172     2413.388  0.059326155  0.058889166            5 
 3391000   0.70388332   -3.2336567     2417.259   0.05940379  0.058877238            5 
 3392000   0.69668812   -3.2056898     2414.945  0.059329427  0.058865324            5 
 3393000   0.69406429    -3.204171    2418.7448  0.059405266   0.05885358           13 
 3394000     0.707005   -3.2196521     2419.546  0.059407434  0.058841792            8 
 3395000   0.70897603   -3.2237087    2418.0133  0.059352315  0.058829973            5 
 3396000    0.7099515   -3.2411196    2421.4754  0.059419794  0.058818159            4 
 3397000   0.71927439   -3.2131293    2424.1088  0.059466902  0.058806192            4 
 3398000   0.70428725   -3.2046735    2408.8869  0.059076096   0.05879428            4 
 3399000   0.70741605   -3.2481569    2417.5939  0.059272186  0.058782385            8 
 3400000   0.70670761    -3.228228    2416.6005  0.059230403  0.058770365            5 
 3401000   0.71012135   -3.2006276    2425.2547  0.059425039  0.058758364            3 
 3402000   0.70671454   -3.2491942    2412.1393  0.059086305  0.058746524           11 
 3403000   0.72480923   -3.2212074    2420.1126  0.059264193  0.058734522            4 
 3404000   0.70434849   -3.2363051    2416.9479  0.059169307   0.05872249            3 
 3405000   0.71461119   -3.2499655    2412.2155  0.059036111  0.058710402           10 
 3406000   0.68712624   -3.2291968    2413.0551   0.05903932  0.058698338            3 
 3407000   0.70595793   -3.2302818    2420.2004  0.059196761  0.058686349            5 
 3408000   0.71671517   -3.2293743    2423.4969  0.059259999  0.058674452            5 
 3409000   0.70074071   -3.2272423    2425.0345  0.059280202  0.058662431            6 
 3410000   0.70968411   -3.2375047    2419.3928  0.059124946  0.058650598            4 
 3411000   0.71256489   -3.2151875    2428.5719  0.059331866   0.05863878            3 
 3412000   0.68715867   -3.2688259    2419.8393  0.059101195  0.058626758           11 
 3413000    0.6882758   -3.2318414    2427.9373  0.059281602  0.058614946            5 
 3414000   0.70146403   -3.2428223    2418.5435  0.059034943  0.058603033            4 
 3415000   0.71040768   -3.2292317    2417.5595  0.058993644  0.058591081            4 
 3416000   0.71818948   -3.2202209    2422.4792  0.059096389  0.058579237            9 
 3417000   0.70637052   -3.2214169    2423.1014  0.059094269   0.05856734            2 
 3418000   0.71419942    -3.243852    2422.0227  0.059050681  0.058555495            6 
 3419000   0.71400653   -3.2503549    2422.4916  0.059044839  0.058543668            4 
 3420000   0.70574101   -3.2235528    2427.0392  0.059138382  0.058531781            4 
 3421000   0.72065173   -3.2198042    2424.4905  0.059059009  0.058519942            5 
 3422000   0.70602174   -3.2332397    2424.4631  0.059041085  0.058508142            4 
 3423000   0.70853784    -3.240234    2430.8703   0.05917982  0.058496276           10 
 3424000   0.70620022   -3.2584555    2424.0922  0.058997572  0.058484409            6 
 3425000   0.71525374   -3.2401696    2423.9968  0.058978024  0.058472456            8 
 3426000   0.70739513   -3.2178207    2426.1154  0.059012343   0.05846062            4 
 3427000   0.69949917   -3.2347924    2427.0856  0.059018714    0.0584488            7 
 3428000   0.70217598   -3.2294498    2424.3114  0.058934057   0.05843704            5 
 3429000   0.69513843   -3.2407355    2420.0169  0.058812504  0.058425162           16 
 3430000   0.70284803   -3.2405151    2421.6616  0.058835316  0.058413306            3 
 3431000   0.70339658   -3.2343907    2417.6359  0.058720391  0.058401412            3 
 3432000   0.70578376   -3.2268465    2431.0312  0.059028536  0.058389473            7 
 3433000   0.71667676   -3.2491976    2425.6593  0.058880943  0.058377566            3 
 3434000   0.70205342    -3.238418    2419.4986  0.058714293  0.058365655            4 
 3435000   0.69531402   -3.2429143    2427.9759  0.058902861  0.058353817            5 
 3436000   0.71579128   -3.2388737    2416.7939  0.058614519   0.05834192            6 
 3437000   0.71450962   -3.2455173    2434.3729  0.059023685  0.058329992            3 
 3438000   0.69578758     -3.23439    2428.0912  0.058854256  0.058318076            4 
 3439000    0.7025223   -3.2238034    2427.0368  0.058811592   0.05830616            3 
 3440000   0.69093182   -3.2392675    2427.7837   0.05881259  0.058294252            6 
 3441000   0.69450193    -3.239902    2430.6613  0.058865186    0.0582824            5 
 3442000    0.7065174    -3.241723    2427.4804  0.058771072  0.058270514            6 
 3443000   0.71410241   -3.2517481    2429.5055  0.058803019  0.058258549            4 
 3444000   0.70822737   -3.2379044    2426.7752   0.05871988   0.05824672           10 
 3445000      0.70199   -3.2403241    2425.4315  0.058670332   0.05823477            3 
 3446000   0.70309913   -3.2372885    2430.8698  0.058784817  0.058222822            3 
 3447000   0.71347595   -3.2353003    2435.9847  0.058891419  0.058210994            7 
 3448000     0.701789   -3.2418126    2426.7618  0.058651436  0.058199099           15 
 3449000   0.71169075    -3.238855    2428.7733  0.058683032  0.058187186            5 
 3450000   0.71526119   -3.2644596    2425.6817  0.058591345  0.058175174            5 
 3451000   0.70502727   -3.2617441     2431.159  0.058706632  0.058163223           27 
 3452000   0.69628505   -3.2647125    2421.7552  0.058462612  0.058151233            6 
 3453000    0.7192527   -3.2276114    2431.7378  0.058686596  0.058139238            6 
 3454000   0.69752275   -3.2526739      2421.16  0.058414399  0.058127278            9 
 3455000   0.69193939   -3.2350838    2427.4627   0.05854951  0.058115321            3 
 3456000   0.70303342   -3.2315736    2427.8914  0.058542907  0.058103402            5 
 3457000    0.6996578   -3.2292428    2432.4611  0.058636126  0.058091483            8 
 3458000   0.70727648   -3.2561726     2435.631   0.05869556  0.058079551            5 
 3459000   0.70073729   -3.2426557    2431.5728  0.058580823  0.058067649            8 
 3460000   0.70842896   -3.2467526    2430.5371  0.058538946  0.058055719            8 
 3461000    0.6987846   -3.2631178    2433.7832  0.058600192  0.058043799            5 
 3462000   0.70136695   -3.2583436    2429.2675   0.05847457  0.058031805            5 
 3463000   0.70740056   -3.2480549    2428.6336  0.058442429  0.058019838            9 
 3464000   0.69326602   -3.2447017    2432.1524  0.058510211  0.058007842            5 
 3465000   0.69551872   -3.2656891    2426.4539  0.058356276  0.057995887            3 
 3466000   0.68742198   -3.2428153     2425.882  0.058325688  0.057983905            3 
 3467000   0.70047286   -3.2486405    2432.4673   0.05846715  0.057971982            5 
 3468000   0.69127977    -3.271835    2440.4202  0.058641392  0.057960053           11 
 3469000   0.71058336   -3.2489282    2432.0519  0.058423461  0.057948145            4 
 3470000   0.69000897   -3.2647357    2434.9719  0.058476751  0.057936212            4 
 3471000   0.69053564   -3.2555264    2432.1023  0.058391009  0.057924294            6 
 3472000    0.7064076   -3.2353532    2432.9991  0.058395716  0.057912448            6 
 3473000   0.69811143    -3.248744    2435.3949  0.058436389  0.057900557            7 
 3474000   0.68907997   -3.2452212    2435.2135  0.058415215   0.05788861            5 
 3475000   0.69597497   -3.2627535    2432.2188  0.058326589  0.057876603            5 
 3476000   0.70368683   -3.2523694    2432.6382  0.058319866  0.057864552            7 
 3477000   0.70225015   -3.2413653    2426.5318   0.05815674  0.057852519            8 
 3478000   0.68257982   -3.2545035    2434.2426   0.05832477  0.057840492            4 
 3479000   0.69163343   -3.2620852    2428.6289  0.058173539   0.05782849            9 
 3480000   0.69933591   -3.2328508    2438.6336  0.058396398  0.057816485            8 
 3481000   0.70097438   -3.2383527    2428.3144  0.058132586  0.057804456            9 
 3482000   0.68337588   -3.2516083    2433.0301  0.058228751  0.057792529            4 
 3483000   0.69340095   -3.2497805    2431.5943   0.05817768  0.057780546           10 
 3484000   0.68569751    -3.264444    2434.8443  0.058238718  0.057768593            5 
 3485000   0.70341054   -3.2691904    2431.5574  0.058143411  0.057756638            4 
 3486000   0.69060591   -3.2402754    2430.6088  0.058104053  0.057744588            8 
 3487000   0.69631727   -3.2545034    2432.3342  0.058128626  0.057732505            5 
 3488000   0.68614011   -3.2626078    2438.6124  0.058261955  0.057720548            7 
 3489000   0.68693679   -3.2450813     2443.042  0.058351056   0.05770848           11 
 3490000   0.71515969   -3.2645272    2436.4324  0.058176514  0.057696468            5 
 3491000   0.68865892   -3.2613449    2436.9074  0.058171188  0.057684349            4 
 3492000   0.69588351   -3.2535651    2426.8154  0.057913692  0.057672233            6 
 3493000    0.7007778   -3.2768103    2434.6707   0.05808452  0.057660163            6 
 3494000    0.7037007   -3.2569559    2433.2617   0.05803429  0.057648039            6 
 3495000   0.68951838    -3.250104    2432.1077  0.057990169  0.057635849           11 
 3496000   0.68953887   -3.2444029    2435.9278   0.05806464  0.057623872            4 
 3497000     0.716689   -3.2538875    2433.1088  0.057980859  0.057611774            7 
 3498000   0.69265223   -3.2554956    2437.4677  0.058068126  0.057599775            2 
 3499000   0.69171644   -3.2347164     2433.314  0.057952606  0.057587663            5 
 3500000   0.69774389   -3.2752026    2432.1404  0.057908105  0.057575561            6 
 3501000   0.68806378   -3.2366455    2432.0245  0.057888805  0.057563527            7 
 3502000    0.6902254   -3.2463586    2436.6382  0.057982062  0.057551483            4 
 3503000   0.69128737   -3.2582794    2432.5394  0.057868005  0.057539522            6 
 3504000   0.69196231   -3.2688742    2441.4037  0.058062303   0.05752742            6 
 3505000   0.67726825   -3.2646717    2432.0747  0.057823936    0.0575154            4 
 3506000    0.7040864   -3.2457833    2436.3959  0.057910152  0.057503492            5 
 3507000   0.68637261   -3.2614534    2428.1423  0.057697518  0.057491492            5 
 3508000   0.70795935   -3.2554859    2436.6074   0.05788216  0.057479447            4 
 3509000    0.6812552   -3.2726588    2438.4088  0.057908445  0.057467425            8 
 3510000   0.69349248   -3.2651389    2438.6354  0.057897328  0.057455272            8 
 3511000   0.70451196   -3.2670979     2436.073  0.057820018  0.057443235            4 
 3512000   0.69042338   -3.2639562      2437.32  0.057833144  0.057431164           13 
 3513000   0.69066953    -3.240716    2433.9828  0.057737518   0.05741902            7 
 3514000   0.69504233   -3.2439337    2440.0723  0.057865498  0.057407044            2 
 3515000   0.68796911   -3.2630667    2441.6387  0.057886171  0.057394982            6 
 3516000   0.68189883   -3.2612627    2442.2022  0.057883062  0.057382861           14 
 3517000   0.69399625   -3.2486943    2438.3233  0.057774696  0.057370864            6 
 3518000   0.69221757   -3.2747724    2438.6188  0.057765274  0.057358842            7 
 3519000   0.69274959   -3.2679045    2431.0547  0.057569734  0.057346777            4 
 3520000   0.67898748   -3.2539066    2443.7375  0.057853634  0.057334754            3 
 3521000    0.6813889   -3.2443749    2439.6412  0.057740253  0.057322739            3 
 3522000   0.69632697   -3.2701854    2436.1487  0.057641224  0.057310771            9 
 3523000   0.69368009   -3.2661368    2431.5126  0.057515199  0.057298803            5 
 3524000    0.6729146    -3.245824    2447.0599  0.057866532    0.0572868            5 
 3525000   0.68180289   -3.2542393     2436.828  0.057608227  0.057274835           12 
 3526000   0.68627756   -3.2403593    2442.9054  0.057735522  0.057262853            5 
 3527000   0.69254869   -3.2747904    2439.7604  0.057644845  0.057250772           13 
 3528000   0.69976232   -3.2300678     2441.463  0.057668722  0.057238724            4 
 3529000   0.70462947   -3.2812798    2437.6604  0.057562585   0.05722668            8 
 3530000   0.67026636   -3.2655934    2445.2534  0.057725529  0.057214554            5 
 3531000   0.69381229   -3.2670707    2442.2558  0.057638436  0.057202526            4 
 3532000   0.69502369   -3.2591025    2435.5771  0.057464541  0.057190403           12 
 3533000   0.68610919   -3.2714775    2442.5045  0.057611674  0.057178307            4 
 3534000   0.68583985   -3.2672075    2441.8313  0.057579496  0.057166244            4 
 3535000   0.68598985   -3.2586504    2440.7633  0.057538031  0.057154192            4 
 3536000   0.68040014   -3.2627721     2440.047  0.057504879  0.057142111            3 
 3537000   0.67973943   -3.2515037    2443.9442   0.05758044  0.057129998            7 
 3538000   0.67812774   -3.2491777    2442.7806  0.057536759  0.057117846            7 
 3539000   0.69566088   -3.2533555    2443.5403  0.057538389  0.057105764            7 
 3540000   0.68398924   -3.2614115    2435.8362  0.057340777  0.057093544            7 
 3541000   0.68731686   -3.2546068    2442.9771  0.057492637  0.057081343            5 
 3542000   0.69128266   -3.2761898    2441.5582  0.057443022   0.05706919            5 
 3543000   0.69236606   -3.2731925    2447.6882   0.05757099  0.057057008            5 
 3544000   0.69809237   -3.2689562    2438.6112  0.057341308  0.057044788            5 
 3545000   0.68670814   -3.2450513    2441.5926  0.057395217  0.057032716            6 
 3546000   0.67670884   -3.2636988    2437.1384  0.057274355  0.057020565            7 
 3547000   0.69816162   -3.2584092    2439.6248  0.057316624  0.057008428            5 
 3548000   0.67752799   -3.2705822     2441.302  0.057339862  0.056996237            4 
 3549000   0.68128696    -3.269409    2437.6767  0.057238582  0.056984097            3 
 3550000   0.67269571    -3.267588    2440.8866  0.057297808  0.056971908            6 
 3551000   0.67086704   -3.2821238    2440.0267  0.057261492  0.056959744            4 
 3552000     0.671276   -3.2913317     2435.356  0.057135793  0.056947597            7 
 3553000   0.67745735    -3.280018     2434.412   0.05709757  0.056935319           12 
 3554000   0.67956872   -3.2610832    2437.7449  0.057159654  0.056923112           18 
 3555000   0.67903579   -3.2520146    2444.0465  0.057291291  0.056910972            6 
 3556000   0.67476474   -3.2852366    2436.5016   0.05709837  0.056898758            5 
 3557000   0.67738388   -3.2643374    2441.2398  0.057193322  0.056886551            4 
 3558000   0.68912953   -3.2682784    2446.4802  0.057299985   0.05687436            3 
 3559000   0.68374477    -3.271764    2448.9897  0.057342646  0.056862322            3 
 3560000   0.67748334   -3.2643838    2447.1781  0.057284131  0.056850261            6 
 3561000   0.68110319   -3.2688305    2446.0136  0.057240794  0.056838166            4 
 3562000     0.673698   -3.2767424    2450.0038  0.057318076  0.056826035            4 
 3563000   0.67833989   -3.2427354    2447.9604  0.057254196  0.056813977            5 
 3564000   0.68041965   -3.2844514     2440.149  0.057055485  0.056801859            5 
 3565000   0.68721406   -3.2767762    2448.6873  0.057239068  0.056789733            4 
 3566000   0.67929606   -3.2605153    2445.6146  0.057151211  0.056777697            4 
 3567000   0.69044121   -3.2728478    2448.6757  0.057206701  0.056765573            7 
 3568000   0.67858306   -3.2563313    2449.7025   0.05721465  0.056753572            3 
 3569000   0.67874225   -3.2491212    2456.2905  0.057352446  0.056741628            4 
 3570000   0.68291965   -3.2715483    2452.6902  0.057252338  0.056729575            3 
 3571000   0.69302898   -3.2756395    2447.0343  0.057104319  0.056717555            5 
 3572000   0.67629285   -3.2692417    2446.9114  0.057085465  0.056705428            4 
 3573000   0.68310704   -3.2660301    2455.6875  0.057274174  0.056693351            9 
 3574000   0.67804135    -3.298617    2449.3573  0.057110552  0.056681376            6 
 3575000   0.66792141   -3.2843412    2448.6356  0.057077754  0.056669324            3 
 3576000   0.67276433   -3.2699501    2444.5552  0.056966705  0.056657268            4 
 3577000   0.68266451   -3.2737093    2447.5938  0.057021569  0.056645267            6 
 3578000   0.67011126     -3.27048    2447.5853  0.057005434  0.056633227            4 
 3579000   0.68075987   -3.3010547    2453.8648  0.057135718  0.056621166            5 
 3580000   0.68658469   -3.2644021    2458.4516  0.057226528  0.056609102            4 
 3581000    0.6773641    -3.289187    2444.2318  0.056879637  0.056597009            6 
 3582000   0.69959866   -3.2620621    2448.3192  0.056958849  0.056584942            5 
 3583000   0.70390873   -3.2525845    2454.0566  0.057076393  0.056572872            8 
 3584000   0.67730294   -3.2641617    2452.4482  0.057023069   0.05656097            5 
 3585000   0.66878586   -3.2701589     2442.861  0.056784309  0.056548982           15 
 3586000   0.66863704   -3.2828041    2446.9062  0.056862479  0.056537057            6 
 3587000   0.68549467   -3.2800068     2452.197  0.056969543  0.056525045            3 
 3588000   0.66260905   -3.3018162    2441.5725  0.056706904  0.056513011            9 
 3589000   0.68870654   -3.2838226    2448.4698  0.056851254  0.056500881            6 
 3590000   0.68296599   -3.2787622    2449.5412  0.056860287  0.056488868           11 
 3591000   0.65819007   -3.2812788    2444.4826  0.056727064  0.056476789           21 
 3592000    0.6754262   -3.2864304    2456.7304  0.056995416  0.056464851            8 
 3593000    0.6750154   -3.2796165    2456.7849  0.056980817  0.056452929            9 
 3594000   0.68045174   -3.2681594    2456.2455  0.056952456  0.056440991            3 
 3595000   0.67253494   -3.2783015    2456.6355  0.056945653  0.056428964            3 
 3596000   0.66875413   -3.2981961    2453.3932  0.056854681  0.056417072            6 
 3597000   0.65465682   -3.2981553    2451.0913  0.056785546  0.056405171            8 
 3598000   0.67126202   -3.2862303    2451.3273   0.05677523  0.056393167            8 
 3599000   0.67769776   -3.2901259    2456.6368  0.056882394  0.056381168            6 
 3600000   0.68305861   -3.2657463    2456.3642  0.056860283  0.056369226            5 
 3601000   0.67119235   -3.2766008    2466.1279  0.057070441  0.056357355            4 
 3602000    0.6795767   -3.2767602    2459.1749  0.056893737  0.056345443            6 
 3603000   0.67650305   -3.2840695     2459.898  0.056894672   0.05633346            4 
 3604000   0.67490763   -3.2551146    2455.0836  0.056767564  0.056321503            5 
 3605000   0.69372677   -3.2820604    2452.1953   0.05668505  0.056309488            3 
 3606000   0.68914269   -3.2849554    2454.5337   0.05672337  0.056297503            7 
 3607000   0.67553465   -3.2862131    2463.1889  0.056907609  0.056285579           14 
 3608000   0.66988339   -3.2516925    2457.7658  0.056766579  0.056273663            6 
 3609000   0.66725927   -3.2863698    2454.4654  0.056674641  0.056261605            8 
 3610000   0.67819666   -3.2868708    2462.4586  0.056843459  0.056249685            7 
 3611000    0.6718307   -3.2798297    2454.7291  0.056649337  0.056237712            6 
 3612000   0.67867376   -3.3091225    2448.5455  0.056490991   0.05622566            5 
 3613000   0.68040368   -3.2814208    2455.9117  0.056645255  0.056213667            6 
 3614000   0.68974388   -3.2656828    2462.5823  0.056783395  0.056201682            7 
 3615000   0.67778712   -3.2814281    2456.7881  0.056634119  0.056189796            5 
 3616000   0.69225378     -3.27252    2457.6607  0.056638567  0.056177847            7 
 3617000   0.66081412   -3.3089274    2450.2534   0.05645225  0.056165819            5 
 3618000    0.6666495   -3.2799882    2456.4704  0.056579841  0.056153792            3 
 3619000   0.67357381   -3.2733909    2455.1198  0.056533108  0.056141724           13 
 3620000   0.68091208   -3.2445694    2456.0615  0.056539169  0.056129659            9 
 3621000   0.66643541   -3.2915992    2456.5535  0.056534879  0.056117648            3 
 3622000   0.67051614     -3.28709    2452.8678   0.05643447  0.056105598            4 
 3623000   0.67202466   -3.2855225    2464.3202  0.056682313  0.056093663            5 
 3624000   0.67116234   -3.2760453     2457.655  0.056513406  0.056081613            9 
 3625000   0.67305242   -3.2928282    2463.6597  0.056635854  0.056069573            4 
 3626000   0.66724587   -3.2854768    2454.6114  0.056412286  0.056057508            9 
 3627000   0.66235193   -3.2901874    2461.9616   0.05656561   0.05604549            7 
 3628000   0.67340542   -3.2624703    2460.2829  0.056511459  0.056033528            4 
 3629000   0.68039951   -3.2694095    2461.3052  0.056519362  0.056021604            4 
 3630000   0.67205056   -3.3015988    2464.1625  0.056569387  0.056009628            7 
 3631000   0.67398688   -3.2840226    2463.7367  0.056544034  0.055997637            6 
 3632000   0.67094718   -3.2759599    2458.1161  0.056399508  0.055985664            7 
 3633000   0.65707352   -3.2987879    2458.1843  0.056385547  0.055973657            3 
 3634000   0.65133114   -3.2596709    2465.9396  0.056547872  0.055961672            5 
 3635000   0.67463964   -3.2944432    2463.0542  0.056466166  0.055949712            6 
 3636000   0.67158665   -3.2846305    2463.8434  0.056468724  0.055937718            5 
 3637000   0.67798819   -3.2967939    2461.7359   0.05640491  0.055925706            9 
 3638000   0.67430857   -3.2662496    2463.3602  0.056426613  0.055913834           10 
 3639000   0.66156027   -3.2784335    2465.6856  0.056464359   0.05590198            8 
 3640000   0.68132009   -3.3001771    2458.1344   0.05627597  0.055890018           11 
 3641000   0.66476378    -3.299531    2455.7335  0.056205563   0.05587801            7 
 3642000   0.67601841   -3.2808744    2456.1569  0.056199818  0.055866066            5 
 3643000   0.67248422   -3.3101342    2460.6602  0.056287404  0.055854164            4 
 3644000   0.68047872   -3.2804817    2468.2746   0.05644609  0.055842189            3 
 3645000   0.66995807   -3.2690463    2468.0143  0.056424653  0.055830279            6 
 3646000    0.6657074   -3.3034546    2466.6594  0.056378209  0.055818298            6 
 3647000   0.67034193   -3.3018619    2461.8011  0.056251738  0.055806378           13 
 3648000   0.66351815   -3.2859233    2460.1364  0.056198291  0.055794509            5 
 3649000   0.66847598   -3.2941557    2468.5575  0.056375205  0.055782568            8 
 3650000   0.67498006   -3.2865546     2464.223    0.0562608   0.05577064            5 
 3651000   0.68054746   -3.2682249    2461.2532  0.056177604  0.055758789            5 
 3652000   0.66692227   -3.2852129    2460.5226  0.056145551  0.055746846            6 
 3653000   0.67085153   -3.2966799    2461.0615  0.056142474  0.055734898            7 
 3654000    0.6813305   -3.2934164    2458.9486  0.056078922  0.055722906            7 
 3655000   0.66399693   -3.3012449    2468.4807  0.056280909  0.055710928            8 
 3656000   0.66633885   -3.2737366    2469.7185  0.056293729  0.055699062            8 
 3657000   0.65868098   -3.2992253    2462.3527  0.056110488  0.055687145            5 
 3658000   0.68090484   -3.2686385    2460.5207  0.056053415  0.055675222            4 
 3659000    0.6698422    -3.294846     2469.544  0.056243599  0.055663262            8 
 3660000   0.66611821    -3.290508     2460.634  0.056025364   0.05565135            4 
 3661000    0.6796448   -3.3242883    2468.1485   0.05618111  0.055639397            7 
 3662000   0.66631103   -3.2846166      2466.68  0.056132351  0.055627547            4 
 3663000   0.66467284   -3.2725437    2472.6003  0.056251713    0.0556156            5 
 3664000   0.67727302    -3.295057    2466.1274  0.056089142  0.055603744            5 
 3665000   0.66990436   -3.2983917    2469.0037  0.056139238  0.055591867            5 
 3666000    0.6617276   -3.2805318    2465.3739  0.056041415  0.055580037            7 
 3667000   0.64864854   -3.3120871    2463.9905  0.055994695  0.055568107            6 
 3668000   0.66707763   -3.3068548    2464.6159  0.055993636  0.055556095            7 
 3669000   0.66836867   -3.2940579    2462.0282  0.055919601  0.055544105           13 
 3670000   0.66414639   -3.2907402    2467.3561  0.056025342   0.05553218            8 
 3671000   0.66273884   -3.2959883    2471.0543  0.056094032  0.055520269            4 
 3672000   0.65508612   -3.2986432     2460.289  0.055834444  0.055508358            3 
 3673000   0.68522849   -3.2971631    2465.1852   0.05593033  0.055496376            6 
 3674000   0.65686534   -3.2906787    2461.7772  0.055837806  0.055484383            4 
 3675000   0.66759017   -3.2932049    2464.3326  0.055880559  0.055472397            4 
 3676000   0.67027151   -3.2986912    2469.3548  0.055979208  0.055460442            7 
 3677000   0.67714898   -3.2782386    2472.3354  0.056031533  0.055448538            4 
 3678000   0.65936448   -3.3090231    2461.2529  0.055765201  0.055436599            4 
 3679000   0.66276867   -3.3126722    2459.7674  0.055716395  0.055424506            7 
 3680000   0.66025683   -3.2895439    2470.0289  0.055933626  0.055412451            5 
 3681000   0.65809026   -3.2850789    2469.9076  0.055915683  0.055400543            4 
 3682000   0.66898219   -3.2927622    2453.8212   0.05553642   0.05538861            7 
 3683000   0.67621651   -3.3118794    2468.7555  0.055859252  0.055376658            6 
 3684000   0.66125169   -3.3119787    2467.3677  0.055812698  0.055364612            9 
 3685000   0.65546965    -3.279608    2469.5692  0.055847337  0.055352549            5 
 3686000   0.66998233    -3.297217    2459.6038  0.055606887  0.055340577           27 
 3687000   0.67428326   -3.3171603    2466.1501  0.055739764  0.055328529            5 
 3688000    0.6610918   -3.2839271    2466.6686  0.055736365  0.055316536            7 
 3689000   0.66241161   -3.2897971    2467.8611  0.055748194  0.055304554            5 
 3690000   0.65296824   -3.2987127     2476.302  0.055923714  0.055292603           10 
 3691000   0.65179404   -3.2984931    2466.4252   0.05568557  0.055280744            7 
 3692000   0.65214864   -3.3121596    2468.6105  0.055719811  0.055268728            5 
 3693000   0.65915238    -3.312668    2469.1057  0.055715897  0.055256663            3 
 3694000   0.65748904    -3.302317    2473.8097  0.055806933  0.055244625            3 
 3695000   0.64881017   -3.3055597    2464.2985  0.055577323  0.055232515            6 
 3696000   0.66285732   -3.2959863    2467.4983  0.055634431  0.055220484            7 
 3697000   0.66579229    -3.291449    2470.1121  0.055678301  0.055208506            5 
 3698000   0.66811843    -3.312839    2466.3767  0.055579067  0.055196493            9 
 3699000   0.65610384   -3.3055005    2472.6201  0.055704696  0.055184543            5 
 3700000   0.64852765   -3.3077543    2467.8065  0.055581227  0.055172533            8 
 3701000   0.64883364   -3.3014284    2465.1337  0.055506028  0.055160563            8 
 3702000   0.66988166   -3.3102237    2466.2203  0.055515493  0.055148612           13 
 3703000   0.66518675    -3.299159    2478.9944  0.055787973  0.055136681            8 
 3704000      0.66526   -3.3137937    2463.4788  0.055423839  0.055124596            9 
 3705000   0.64544738   -3.2957502    2478.5787  0.055748509  0.055112665            9 
 3706000   0.66505599   -3.3048444    2469.6002  0.055531575  0.055100641            6 
 3707000     0.659383   -3.2986671    2476.4059  0.055669587  0.055088554            5 
 3708000   0.68065958     -3.30894      2470.12  0.055513304   0.05507647            3 
 3709000   0.63889062   -3.2880835    2463.7009  0.055354115  0.055064471            3 
 3710000   0.64749549   -3.3061417    2469.0683  0.055459756  0.055052483            8 
 3711000   0.66410112   -3.3012733    2475.3232   0.05558527  0.055040555            6 
 3712000    0.6551723   -3.3240889    2466.4584  0.055371282  0.055028562            7 
 3713000   0.66872184   -3.2943788    2465.8961   0.05534375  0.055016652            5 
 3714000   0.65446212   -3.3164948     2468.048  0.055377132  0.055004705            6 
 3715000   0.67577093   -3.2986028    2469.4947  0.055394678  0.054992752           10 
 3716000   0.65697443   -3.2942755    2467.6623  0.055338676  0.054980747            4 
 3717000   0.66137486   -3.3064509    2471.4816  0.055409417  0.054968709            5 
 3718000   0.65744508   -3.3165106    2471.3496  0.055391556  0.054956712            4 
 3719000   0.66256482   -3.2994769    2474.1893  0.055440291  0.054944758            5 
 3720000   0.66886277   -3.3145709    2467.1057  0.055266705  0.054932749           11 
 3721000    0.6564406    -3.312712    2472.3664  0.055369667  0.054920738            7 
 3722000   0.64851992   -3.3317491    2472.9627  0.055368141  0.054908724            8 
 3723000   0.67367227   -3.3023504    2473.7202  0.055370226  0.054896712            6 
 3724000   0.66257955   -3.3247384    2473.7209  0.055355373  0.054884756           14 
 3725000   0.66119381   -3.3196444    2472.1885  0.055306231  0.054872745            6 
 3726000   0.66078914   -3.3140007    2478.7725   0.05543864  0.054860711            6 
 3727000   0.65651741   -3.3331958    2469.0976  0.055207442  0.054848843            6 
 3728000   0.65626227   -3.3260302    2471.0075  0.055235326  0.054836839            3 
 3729000   0.64574167   -3.3052373    2472.4204  0.055252087  0.054824871            9 
 3730000    0.6556266   -3.2966301     2471.904  0.055225736  0.054812907            6 
 3731000   0.66022214   -3.3072549    2468.3891  0.055132429  0.054800953            3 
 3732000   0.65197613   -3.3096527    2472.8863  0.055218075  0.054788963            7 
 3733000   0.65426119   -3.3072822    2477.0908  0.055297142  0.054776979            5 
 3734000   0.64926174   -3.3216696    2474.6868  0.055228682  0.054764974            5 
 3735000   0.65474238   -3.3061934    2475.8706  0.055240307  0.054753031            4 
 3736000   0.63880838   -3.3243156    2472.8382  0.055157883  0.054741102            5 
 3737000   0.66354523   -3.3265879    2480.2528  0.055308466   0.05472916            3 
 3738000   0.64941509   -3.3098945    2474.9385  0.055175193  0.054717266            7 
 3739000   0.64044668   -3.3288044    2472.6858  0.055110231  0.054705384            7 
 3740000   0.66307136   -3.3163363     2477.265  0.055197526  0.054693429            8 
 3741000   0.67113437   -3.3125444    2475.1804  0.055136337  0.054681473            3 
 3742000   0.64754245   -3.3228764     2472.199  0.055055206  0.054669529            7 
 3743000   0.65058251   -3.3189889    2480.1536  0.055217597  0.054657573            4 
 3744000   0.66311301   -3.3040833    2476.4206   0.05511976  0.054645604            9 
 3745000   0.64082272   -3.3144257    2480.4493  0.055194688  0.054633688           13 
 3746000   0.64538774   -3.2989055    2476.7411  0.055097462  0.054621748           10 
 3747000   0.66008772   -3.3078964    2482.4744  0.055210267  0.054609819            4 
 3748000   0.65577247   -3.3144773    2476.5872   0.05506464  0.054597817           10 
 3749000   0.66149031   -3.3079258    2480.5646   0.05513836  0.054585862            8 
 3750000   0.65815775   -3.3215893    2479.7085  0.055104634  0.054573994            7 
 3751000   0.65283804   -3.2965404    2480.4241  0.055105841  0.054562114            3 
 3752000   0.66189064   -3.3029331    2484.1719  0.055174393  0.054550163            6 
 3753000   0.65308199   -3.2991693    2480.5934  0.055080233  0.054538317           14 
 3754000   0.65834721   -3.3333135    2479.0716   0.05503178  0.054526424            8 
 3755000   0.65855671   -3.3162923    2480.9162  0.055058061  0.054514453            5 
 3756000   0.65448605   -3.3266887    2478.0363  0.054979506  0.054502487            5 
 3757000   0.65177441   -3.3212977     2479.612  0.054999823  0.054490474           14 
 3758000   0.64514861   -3.3164664    2483.3268  0.055067563  0.054478523            5 
 3759000   0.67155607   -3.3016623    2483.6347  0.055059738  0.054466615            6 
 3760000   0.64728248    -3.322084    2473.3749  0.054817706  0.054454722            6 
 3761000   0.65217347   -3.3264479    2473.2276  0.054799868  0.054442782            5 
 3762000   0.65898667   -3.3037951     2480.948  0.054956317  0.054430828            3 
 3763000   0.65878048   -3.3408011    2477.2154  0.054859054  0.054418953            4 
 3764000    0.6412048   -3.3291301    2471.5954  0.054720053   0.05440696            7 
 3765000    0.6538657   -3.3259231     2479.955  0.054890548  0.054395036            3 
 3766000    0.6517163   -3.3238686    2482.2112  0.054925899  0.054383129            8 
 3767000   0.63467476   -3.3438864    2470.9653  0.054662537  0.054371184            7 
 3768000   0.64891792   -3.3261471    2478.8888  0.054823265  0.054359184            8 
 3769000   0.64934824    -3.306583    2473.1495  0.054681823  0.054347307           11 
 3770000   0.66200204   -3.3107099    2481.1747  0.054844712  0.054335428            9 
 3771000     0.648113   -3.3363328    2479.9564  0.054803244  0.054323588           13 
 3772000   0.63693603   -3.3262811    2479.5811  0.054780423  0.054311594            6 
 3773000   0.64261026   -3.3369687    2474.8125  0.054660583   0.05429962            9 
 3774000     0.648099   -3.3183501    2482.8429  0.054823417    0.0542877            6 
 3775000   0.65132902   -3.3303012    2485.2094  0.054861135  0.054275879            6 
 3776000      0.65711   -3.3341204    2482.2687  0.054781707  0.054263998           12 
 3777000   0.62400938    -3.312757    2482.7325  0.054777435  0.054252102            4 
 3778000   0.64774307   -3.3326135     2479.662  0.054695208  0.054240248            3 
 3779000   0.65481972   -3.3260612    2476.8693  0.054619152  0.054228506            4 
 3780000   0.65382627   -3.3412691    2477.5607  0.054619946  0.054216673            3 
 3781000   0.63321952   -3.3281666    2487.5447  0.054825547  0.054204763            7 
 3782000    0.6398223   -3.3422468    2480.2714  0.054650789   0.05419282            7 
 3783000   0.65439912   -3.3375667    2485.0572  0.054741766  0.054180998            5 
 3784000   0.63916676   -3.3383426    2481.6605  0.054652494  0.054169084            5 
 3785000   0.64128792   -3.3069537    2483.4357  0.054677139   0.05415725            5 
 3786000   0.64461447   -3.3053292    2482.2842  0.054637353  0.054145452            3 
 3787000   0.64809606   -3.3417991    2486.0204   0.05470514  0.054133555           11 
 3788000   0.64060013   -3.3454468    2478.1149  0.054516784  0.054121592            8 
 3789000   0.63475164    -3.299887    2481.5806  0.054578618  0.054109674            5 
 3790000   0.64764853   -3.3178001    2484.6116  0.054630862  0.054097798            3 
 3791000   0.64758959   -3.3346864    2484.0042  0.054603099  0.054085888           17 
 3792000   0.65551142    -3.349982    2479.9683  0.054500007  0.054074014            9 
 3793000   0.65282533    -3.313035    2483.2301    0.0545573   0.05406213            7 
 3794000   0.64809877   -3.3191703    2479.7858  0.054467268  0.054050245            7 
 3795000   0.64713748   -3.3326512    2481.7698  0.054496483  0.054038328            3 
 3796000   0.64333858   -3.3326625    2482.8019  0.054504784  0.054026517            5 
 3797000   0.63828133   -3.3381376    2479.8817  0.054426339  0.054014641            7 
 3798000   0.65657666    -3.317742    2482.8523  0.054477187  0.054002715            7 
 3799000    0.6524986      -3.3269    2485.0447  0.054510938  0.053990784            6 
 3800000   0.63280645   -3.3426014    2486.3114  0.054524372  0.053978846            6 
 3801000   0.65342466   -3.3421008    2473.8517   0.05423686  0.053966883           12 
 3802000   0.63145988    -3.350512    2481.1994  0.054383646  0.053954928            2 
 3803000   0.63677245   -3.3619772     2481.226  0.054369927  0.053942963           15 
 3804000   0.64203908   -3.3249227    2477.6283   0.05427682  0.053931036            6 
 3805000   0.64891941   -3.3276692    2483.4219  0.054389442  0.053919049            7 
 3806000   0.64739659   -3.3151983    2482.4118  0.054353034  0.053907046           11 
 3807000   0.64508789   -3.3440765    2480.0525  0.054287113  0.053895139            8 
 3808000   0.63834713   -3.3577324     2476.729  0.054200127   0.05388314            3 
 3809000   0.63239679   -3.3226546    2488.4264  0.054441814  0.053871227            5 
 3810000   0.62695649   -3.3281238    2482.2557  0.054292557  0.053859377            5 
 3811000   0.64762634   -3.3340064    2479.5499  0.054219145  0.053847432           10 
 3812000   0.64780726   -3.3138004    2483.7416  0.054296556  0.053835463            6 
 3813000   0.64310296    -3.340005    2478.0781  0.054158538  0.053823543           12 
 3814000   0.64735954   -3.3334149     2481.205   0.05421266  0.053811662            7 
 3815000   0.63591243   -3.3352078    2486.5821  0.054315905  0.053799747            5 
 3816000    0.6449455   -3.3448518    2482.6498  0.054215798  0.053787813            9 
 3817000   0.64125352   -3.3414761    2481.0251  0.054166124  0.053775947            5 
 3818000   0.63760663   -3.3347311    2488.1852  0.054308216  0.053764087            9 
 3819000     0.626972   -3.3265732    2482.6351  0.054172887  0.053752102           19 
 3820000   0.64680212   -3.3384751    2488.6637   0.05429022  0.053740159           11 
 3821000   0.64518577   -3.3479099    2492.9674  0.054369873  0.053728315            7 
 3822000   0.64314072   -3.3647263    2481.2782   0.05410078  0.053716329           13 
 3823000    0.6440666    -3.341979     2485.407  0.054176628  0.053704363            6 
 3824000   0.64335427   -3.3565546    2488.3958  0.054227594  0.053692396            7 
 3825000   0.64251427   -3.3325749     2495.381  0.054365598  0.053680424            9 
 3826000   0.64065142   -3.3557649    2485.6913  0.054140341   0.05366845            7 
 3827000   0.64294456   -3.3335724    2487.8563  0.054173337  0.053656442            3 
 3828000   0.63702119   -3.3398962    2483.1699  0.054057165  0.053644487            7 
 3829000   0.62755037   -3.3589118     2482.154  0.054020937  0.053632489            6 
 3830000    0.6386793   -3.3303256    2482.1033  0.054005729  0.053620454            8 
 3831000   0.64242646   -3.3218448    2485.4278  0.054063947  0.053608465            9 
 3832000   0.63040581   -3.3332006    2487.5593  0.054096193  0.053596527            7 
 3833000   0.64229958   -3.3348517    2486.3315  0.054055386  0.053584567            6 
 3834000   0.65141696   -3.3447433    2490.8687  0.054139903  0.053572588            5 
 3835000   0.63811166   -3.3486924    2488.0947  0.054065509  0.053560621            6 
 3836000    0.6488393   -3.3406521    2484.7504  0.053978763  0.053548681           12 
 3837000   0.64606846   -3.3175567    2487.3432  0.054021006  0.053536666           11 
 3838000   0.65669882   -3.3254067    2478.5556  0.053816129  0.053524704            4 
 3839000   0.63393119   -3.3561659    2479.3322  0.053818967  0.053512674            9 
 3840000   0.63879511   -3.3189521    2481.9527   0.05386182  0.053500635            5 
 3841000   0.63134435   -3.3354453    2489.0013  0.054000723   0.05348866            8 
 3842000   0.61288967   -3.3356922    2485.9875  0.053921298   0.05347667            9 
 3843000   0.64608248   -3.3500614    2487.2169  0.053933926   0.05346469            6 
 3844000   0.64104815   -3.3467114    2484.0101  0.053850375  0.053452704            9 
 3845000   0.64357054    -3.330706    2491.2648  0.053993602  0.053440784            5 
 3846000    0.6344499   -3.3370874    2485.1924  0.053847989  0.053428936           10 
 3847000   0.63031644   -3.3441035    2492.6731  0.053996039  0.053417054            3 
 3848000   0.63947197   -3.3478182    2490.3411  0.053931503  0.053405126            9 
 3849000   0.65500334   -3.3289651    2486.6882  0.053838404  0.053393268           14 
 3850000   0.64906636   -3.3753876    2480.8087  0.053697157  0.053381307           10 
 3851000   0.64250578   -3.3275212    2493.7807   0.05396392  0.053369381            3 
 3852000    0.6316205   -3.3517987    2484.6783  0.053752992  0.053357541            7 
 3853000   0.64033986   -3.3280039    2481.2774  0.053665487  0.053345603            8 
 3854000   0.63611208   -3.3413459    2484.6589  0.053724677  0.053333692            6 
 3855000   0.61858068   -3.3227465    2487.7724  0.053778046  0.053321752            8 
 3856000   0.63326337   -3.3227528    2489.3205  0.053797556  0.053309855            5 
 3857000   0.64140891   -3.3643996    2488.8188  0.053772768  0.053297903            6 
 3858000   0.63260594    -3.351534     2481.143  0.053593032  0.053285899            4 
 3859000   0.64313496   -3.3455432    2484.9605  0.053661582  0.053273918            6 
 3860000   0.62606846   -3.3401634    2482.4367  0.053593194  0.053261989            7 
 3861000   0.64175831   -3.3383317     2495.981  0.053871644  0.053250007            6 
 3862000   0.65598197    -3.346579    2495.9303  0.053856602  0.053238129            5 
 3863000   0.61046548   -3.3432416    2492.7114   0.05377322  0.053226306            5 
 3864000   0.64640645   -3.3243114    2497.1166  0.053854308   0.05321449            9 
 3865000   0.62810083   -3.3373582    2490.7828  0.053703813   0.05320266            5 
 3866000   0.63078323   -3.3471699    2495.4964  0.053791524  0.053190852            7 
 3867000   0.63249285   -3.3439332     2494.345  0.053752801  0.053178935            6 
 3868000   0.64200214   -3.3518167    2488.9492  0.053622655  0.053167099            3 
 3869000   0.63113726   -3.3693312    2490.4486  0.053641092  0.053155286            5 
 3870000   0.63409303   -3.3516202    2497.8691  0.053787019  0.053143499            6 
 3871000   0.63862887   -3.3379767    2493.0027  0.053668362  0.053131666           18 
 3872000   0.62729485   -3.3477322    2497.2573  0.053746067  0.053119805            5 
 3873000   0.64662574   -3.3416583    2497.9716   0.05374756  0.053107986           10 
 3874000   0.63507102   -3.3348968    2485.9689  0.053475498  0.053096123            4 
 3875000   0.64886699   -3.3692435    2488.1674  0.053508976  0.053084231            8 
 3876000   0.62551245   -3.3466372    2494.6284  0.053634081  0.053072316            7 
 3877000   0.63274119   -3.3460353    2492.4266  0.053572921  0.053060501            6 
 3878000   0.62772475    -3.349588    2498.9895  0.053700136   0.05304863           11 
 3879000   0.63759762   -3.3468351    2486.4515  0.053416936  0.053036749            5 
 3880000   0.62048943   -3.3549052    2489.2238   0.05346271  0.053024879            7 
 3881000   0.63618377   -3.3341779    2487.4087   0.05340996  0.053012976           14 
 3882000   0.63401818   -3.3366366    2492.0751  0.053496375   0.05300108            7 
 3883000   0.63326378   -3.3468085    2492.1822  0.053484896   0.05298922            9 
 3884000   0.63310601   -3.3459912    2492.1712  0.053470888  0.052977147            6 
 3885000   0.62271681   -3.3585464     2488.542   0.05337928  0.052965264            5 
 3886000    0.6279091   -3.3479017    2482.4918  0.053235799   0.05295338           29 
 3887000   0.63029264   -3.3383621     2495.628   0.05350373   0.05294142            6 
 3888000   0.63422713   -3.3413436     2497.922  0.053539138  0.052929592            5 
 3889000   0.62861525   -3.3553988    2491.7498  0.053393114  0.052917769            9 
 3890000    0.6302328   -3.3493552    2494.6699  0.053441944  0.052906007            3 
 3891000   0.61789484   -3.3424975    2503.9838  0.053627683  0.052894265            5 
 3892000   0.63090319   -3.3667203    2494.5581  0.053412087  0.052882497            4 
 3893000   0.63978706   -3.3591751    2501.1482  0.053539435  0.052870665            6 
 3894000    0.6231953   -3.3579466    2498.3271  0.053465313  0.052858905            6 
 3895000   0.61753574   -3.3624679     2501.343   0.05351611   0.05284716            5 
 3896000   0.64143253   -3.3668711    2502.1806  0.053520289  0.052835452            6 
 3897000   0.63944811   -3.3498694    2502.4108  0.053511478  0.052823678            9 
 3898000   0.62573943   -3.3389486     2503.198   0.05351458  0.052811919            7 
 3899000   0.62952748   -3.3666314    2493.2012  0.053287193  0.052800221           10 
 3900000   0.62869449   -3.3548266    2499.7814  0.053414133  0.052788459            6 
 3901000   0.62004741   -3.3555421    2497.8845  0.053359919   0.05277664           11 
 3902000   0.63162426   -3.3366196     2497.937  0.053347364  0.052764987            7 
 3903000   0.62423405   -3.3492518    2499.1686  0.053359992  0.052753275            5 
 3904000   0.64181471   -3.3652085    2501.0521   0.05338653  0.052741555            4 
 3905000   0.62559859   -3.3536104    2498.7867  0.053324514  0.052729794            6 
 3906000   0.62715195   -3.3473751    2496.9515  0.053271707  0.052718072           11 
 3907000    0.6239657   -3.3583648    2494.6291  0.053208539  0.052706361           12 
 3908000   0.61803347   -3.3680212    2501.7174  0.053346072  0.052694671           12 
 3909000    0.6192455   -3.3518243    2502.1356  0.053341341  0.052682954           13 
 3910000   0.60555267   -3.3774196    2500.7726  0.053298649  0.052671233           12 
 3911000   0.61993464   -3.3477938    2503.8838  0.053351313    0.0526595            4 
 3912000   0.62380426   -3.3598739    2498.6658  0.053226521  0.052647848           11 
 3913000   0.64049963   -3.3781865    2500.0258  0.053241882  0.052636165            9 
 3914000   0.62402186   -3.3563759    2494.3527  0.053107492   0.05262448            4 
 3915000   0.61719123   -3.3600444    2504.6658  0.053313449  0.052612819            8 
 3916000   0.62512918   -3.3606463    2495.2218  0.053098864  0.052601127            5 
 3917000   0.63666214   -3.3534932    2497.4744  0.053133231  0.052589526            5 
 3918000   0.61410828   -3.3568362     2495.988  0.053088056  0.052577811            5 
 3919000   0.62545325   -3.3956089    2497.0178  0.053096406  0.052566101            3 
 3920000   0.62767037   -3.3872692    2498.3598   0.05311139  0.052554414            6 
 3921000   0.63051581   -3.3946939     2495.971  0.053047076    0.0525427           11 
 3922000    0.6327147     -3.37904    2503.6036  0.053195726  0.052530919            5 
 3923000    0.6299974   -3.3743269     2500.389  0.053113879  0.052519172            6 
 3924000   0.61704379   -3.3838322    2501.8638  0.053131665   0.05250747           10 
 3925000   0.61598432   -3.3789973    2508.5198  0.053259444  0.052495725            5 
 3926000   0.62570799   -3.3594638    2503.3342  0.053135808   0.05248409            8 
 3927000   0.63606664   -3.3511692    2508.0767  0.053222916   0.05247243            7 
 3928000   0.63495832   -3.3660376    2505.9769  0.053164818  0.052460727            3 
 3929000   0.61267963   -3.3596631    2501.8584  0.053063935  0.052449038            4 
 3930000   0.61801737   -3.3621222    2503.9725  0.053095261  0.052437417            7 
 3931000   0.63375142   -3.3695249    2505.4203  0.053112446  0.052425826            7 
 3932000   0.62422413   -3.3549336    2497.5505  0.052932149  0.052414185            9 
 3933000   0.62803014   -3.3690365    2499.4419  0.052958765  0.052402532            8 
 3934000   0.61857864   -3.3618441    2499.7051  0.052950878  0.052390858            5 
 3935000    0.6155381   -3.3785733    2502.1526  0.052989254   0.05237921            7 
 3936000   0.62690188   -3.3667704    2510.3837  0.053150061  0.052367603           11 
 3937000   0.61404995    -3.371328    2502.5916  0.052971629  0.052355995            9 
 3938000   0.61477082   -3.3755302    2504.2328  0.052992907  0.052344307            9 
 3939000   0.61871776   -3.3783208      2509.73  0.053095752  0.052332683            6 
 3940000   0.63059535   -3.3741057    2499.3947  0.052863678  0.052320971            6 
 3941000   0.61083424   -3.3677992    2497.8174  0.052816912  0.052309223            9 
 3942000   0.62096459   -3.3767122    2504.8279  0.052951714  0.052297476           13 
 3943000   0.62865657   -3.3940424    2499.8324  0.052832708  0.052285692            8 
 3944000   0.60931809   -3.3828579    2501.9664  0.052864402  0.052273964           12 
 3945000   0.63620982   -3.3787846    2501.9226  0.052850075  0.052262321            7 
 3946000   0.62918713   -3.3754222    2508.8729  0.052983462  0.052250711            4 
 3947000   0.62124028   -3.3704944    2503.8108  0.052863161  0.052239049           16 
 3948000   0.60255357   -3.3598408     2509.851  0.052977266  0.052227435           10 
 3949000   0.61291703   -3.3881546    2506.3922  0.052890863  0.052215766            8 
 3950000    0.6260426   -3.3586745    2507.3369  0.052897404  0.052204109            6 
 3951000   0.61133018   -3.3772081    2503.8408  0.052810276  0.052192448            7 
 3952000   0.61210818   -3.3575203    2501.5546  0.052748705  0.052180755           12 
 3953000   0.64096009   -3.3939097    2503.5949  0.052778372  0.052169096            6 
 3954000   0.62523481   -3.3792017    2504.4001  0.052781994  0.052157358            7 
 3955000   0.62189913    -3.369676    2502.4245  0.052727022  0.052145703            4 
 3956000    0.6297471   -3.3565277    2508.1589  0.052834491  0.052133994            8 
 3957000   0.60554615   -3.3694022     2503.298  0.052718769  0.052122293            8 
 3958000   0.63485258   -3.3516005    2508.3874  0.052812603  0.052110629            5 
 3959000   0.61735698   -3.3672257    2495.5442  0.052528926  0.052098986            9 
 3960000    0.6196579   -3.3636306    2501.0121  0.052630725  0.052087273           11 
 3961000   0.62146824   -3.3793716    2500.6629  0.052610093  0.052075627            9 
 3962000   0.60425864   -3.3681658    2500.0594  0.052584119  0.052063856            6 
 3963000   0.60577122   -3.3870669    2500.9103  0.052588744  0.052052093           10 
 3964000   0.64354501   -3.3557765    2504.7845  0.052656922  0.052040379           15 
 3965000   0.62100746   -3.3879048    2499.7757  0.052538371  0.052028618            6 
 3966000   0.60615894   -3.3700817    2501.0381   0.05255165  0.052016872            6 
 3967000   0.62079617   -3.3961656    2500.4721  0.052526512  0.052005086            7 
 3968000   0.63007959   -3.3548119    2507.5239  0.052661373  0.051993395           17 
 3969000   0.62351109    -3.393865    2504.1028  0.052576275  0.051981727            7 
 3970000   0.59940887   -3.3646922       2507.8  0.052640637  0.051970038           15 
 3971000   0.62067035   -3.3750135    2505.5136  0.052579401  0.051958439           14 
 3972000   0.61157148   -3.3857507    2500.7935  0.052467135  0.051946832            5 
 3973000   0.62104348   -3.3617457    2512.4649  0.052698735  0.051935166            8 
 3974000   0.62064829   -3.3789194    2507.7828  0.052587293  0.051923511            8 
 3975000   0.61840899   -3.3684251    2504.8361  0.052512288  0.051911933           10 
 3976000   0.60514182   -3.3688552    2504.5792  0.052493696  0.051900328            9 
 3977000   0.61234015   -3.3965729    2507.5376  0.052542486  0.051888744            7 
 3978000   0.61060525   -3.3649022    2512.3999  0.052631135  0.051877112            5 
 3979000   0.61059626   -3.3847168    2507.3115  0.052511341  0.051865528            5 
 3980000   0.59565294   -3.3754519     2511.662  0.052589237  0.051853889           15 
 3981000   0.62661247   -3.3757259    2508.3672  0.052507059  0.051842234           10 
 3982000    0.6053769   -3.3809869     2506.304  0.052450694  0.051830659            5 
 3983000   0.61316837   -3.3775988    2512.7282  0.052571935  0.051819085            7 
 3984000   0.62124101   -3.3809183     2505.504  0.052407631  0.051807518            8 
 3985000   0.61577361   -3.4015152    2511.5541  0.052520997  0.051795871            4 
 3986000   0.61937255   -3.3676724    2511.6497   0.05250982  0.051784185           14 
 3987000   0.60611258   -3.3734877    2513.6692  0.052538859  0.051772616            7 
 3988000    0.6101878   -3.3743927    2510.0625   0.05245032  0.051761099            3 
 3989000   0.62404345   -3.3614302     2508.071  0.052395568  0.051749564            6 
 3990000    0.6293056   -3.3674131    2507.0056  0.052360184  0.051737964           16 
 3991000   0.61373758   -3.4114071    2514.6219  0.052506095  0.051726372            5 
 3992000   0.60266419   -3.3760412    2509.3088   0.05238203  0.051714734           11 
 3993000   0.62228237   -3.3838688    2497.7677  0.052128051  0.051702974            7 
 3994000   0.61140784   -3.3744395    2509.9085  0.052368314  0.051691298            9 
 3995000   0.62442632   -3.3765655    2510.2283  0.052361875  0.051679664           16 
 3996000   0.61452725   -3.3759983    2509.5578  0.052334789  0.051668059            4 
 3997000   0.61486879   -3.3811304    2512.5989    0.0523851  0.051656346           10 
 3998000   0.60856369   -3.3932684    2505.7033  0.052228266  0.051644634            7 
 3999000   0.61894941   -3.3859955    2505.9711  0.052220786  0.051632976            7 
 4000000   0.61950788    -3.373321     2504.619  0.052179563  0.051621362            3 
 4001000   0.61141969   -3.3817755    2512.2195  0.052324826  0.051609789            7 
 4002000   0.62033563   -3.3838528    2508.8649  0.052241898  0.051598138            7 
 4003000   0.60542823   -3.3831822    2510.2088  0.052256824  0.051586504            7 
 4004000   0.61137343   -3.4062572    2514.1904   0.05232664  0.051574927            7 
 4005000   0.61867719   -3.3803512    2510.9138  0.052245397  0.051563275           10 
 4006000   0.60549658   -3.3733396    2512.9459  0.052274629  0.051551685            9 
 4007000   0.61956126   -3.3701976    2509.3925  0.052187681  0.051540135            5 
 4008000   0.60967066    -3.382433    2507.4147  0.052133538  0.051528562            9 
 4009000   0.60657695   -3.4069661     2503.244   0.05203384  0.051516988            4 
 4010000   0.60708819   -3.3828725    2519.9822  0.052368708  0.051505391            5 
 4011000   0.59456127    -3.387039    2513.1382  0.052213459  0.051493799            6 
 4012000   0.60862561   -3.3737577    2512.3514  0.052184102  0.051482183           11 
 4013000   0.60984343   -3.3798921    2508.4959  0.052091034  0.051470564            5 
 4014000   0.60576319   -3.3747715     2513.095  0.052173538  0.051459007           12 
 4015000   0.60502515   -3.3832158    2506.2056  0.052017551  0.051447412            5 
 4016000   0.61581302   -3.4006993    2512.8871  0.052143243  0.051435794           10 
 4017000   0.61030377   -3.3996302     2509.814   0.05206651  0.051424111            7 
 4018000   0.59812595   -3.3843188    2512.7717  0.052114894  0.051412576            9 
 4019000   0.61972775   -3.3981727    2517.1653  0.052193026     0.051401           12 
 4020000   0.61485201   -3.3943663    2514.8832  0.052132737  0.051389438            9 
 4021000   0.60895085   -3.3959955      2506.84  0.051953079  0.051377831           13 
 4022000   0.60672746   -3.3962278    2500.1154  0.051800834  0.051366211            7 
 4023000   0.61347942   -3.4022996    2510.5205   0.05200349  0.051354622           11 
 4024000   0.59520434   -3.3963158    2515.1448  0.052086333  0.051343038           12 
 4025000   0.61328553   -3.3951554    2507.6408   0.05191803  0.051331481            9 
 4026000   0.59743897   -3.3681828    2514.7802  0.052052911  0.051319851           11 
 4027000    0.6116393   -3.3862538    2514.4752  0.052033673   0.05130835            4 
 4028000   0.60732619   -3.3997247    2512.1103  0.051971828  0.051296782            5 
 4029000   0.61596392   -3.4089179    2515.5717  0.052030522  0.051285167            9 
 4030000   0.61796356   -3.3845544    2512.0594  0.051944983  0.051273673            5 
 4031000   0.60745726   -3.3682009    2515.0356  0.051993624  0.051262063            3 
 4032000   0.61062852   -3.3993127    2507.5537  0.051826093  0.051250396           12 
 4033000   0.60870181   -3.3941178    2518.0026  0.052029146    0.0512388           13 
 4034000   0.61013344   -3.3941004     2511.324  0.051878285  0.051227208            5 
 4035000    0.6071202   -3.3991286    2522.8016  0.052102471  0.051215652            5 
 4036000   0.60959116   -3.3831288    2506.7793   0.05175874  0.051204073           12 
 4037000   0.61085976   -3.3816734    2513.3014   0.05188055  0.051192507            7 
 4038000    0.6215342   -3.3840016    2508.0836   0.05176002  0.051180905            6 
 4039000   0.59050642   -3.3944342    2509.5534  0.051777532  0.051169313            9 
 4040000   0.60011692   -3.4109712      2507.43  0.051720915  0.051157663            9 
 4041000    0.6102326   -3.3614984    2517.9887  0.051925859  0.051146071            5 
 4042000   0.59451252   -3.4066866    2511.3873  0.051776911  0.051134527           10 
 4043000   0.59504366   -3.3907245    2512.6392  0.051789909  0.051122837            3 
 4044000   0.60624687   -3.4062411    2511.6671   0.05175707  0.051111282           13 
 4045000   0.60378189   -3.3872612    2518.7249  0.051889677  0.051099745            8 
 4046000   0.59720941   -3.3771895    2510.0477  0.051698132   0.05108816            7 
 4047000   0.61169209   -3.3830307    2513.7921   0.05176246  0.051076582            6 
 4048000   0.59195469    -3.396913    2504.4836  0.051558046  0.051065012            9 
 4049000   0.60719862   -3.3852202    2516.4416  0.051791421  0.051053464            5 
 4050000   0.60299052   -3.4011031    2518.8538  0.051828267  0.051041871           17 
 4051000   0.60133519   -3.3849732    2512.5173  0.051685125  0.051030317            7 
 4052000   0.58602197   -3.4035339     2506.499  0.051548598  0.051018674            7 
 4053000   0.59623153   -3.3879504    2510.2195  0.051612375  0.051007039            5 
 4054000   0.59564334   -3.3924919    2511.5667  0.051627338  0.050995469            6 
 4055000    0.6021614    -3.410349    2510.5637  0.051593993  0.050983855            8 
 4056000   0.59411802   -3.4115711    2512.7871  0.051626955  0.050972195           12 
 4057000   0.59442059   -3.4024088    2508.6236  0.051528709  0.050960505           12 
 4058000   0.60778715   -3.3906008    2505.7172  0.051456326  0.050948775            5 
 4059000   0.59836644   -3.4009199    2512.9924  0.051593012  0.050937126            5 
 4060000   0.58730584    -3.401282    2509.4069  0.051506709  0.050925433           13 
 4061000   0.60167287   -3.4191771    2512.1329  0.051549966    0.0509138            6 
 4062000   0.60919546   -3.3896758    2522.6879  0.051753814  0.050902216            7 
 4063000   0.59086764   -3.3912519    2509.7785  0.051476301   0.05089058           12 
 4064000   0.59059352   -3.3759377    2505.7391  0.051380805  0.050879041            9 
 4065000   0.61254653   -3.3837591    2512.9422   0.05151583  0.050867462           10 
 4066000   0.59229804   -3.4068731    2518.2005  0.051610929  0.050855959           10 
 4067000   0.59147201   -3.4024552    2520.0625  0.051636392  0.050844428            7 
 4068000   0.58611454   -3.4047466    2515.3145  0.051526437  0.050832819            4 
 4069000   0.60871993   -3.4034855    2519.3886   0.05159721   0.05082129            8 
 4070000   0.59329478   -3.4070791    2515.9032   0.05151317  0.050809721           22 
 4071000   0.58796317   -3.3847626    2513.4017   0.05144931   0.05079818            4 
 4072000   0.60355149   -3.4077322    2508.8803  0.051344145  0.050786651           10 
 4073000   0.61182414    -3.406884    2516.7929  0.051493431  0.050775098           18 
 4074000   0.61802797   -3.4006729     2518.261   0.05151082  0.050763615            7 
 4075000   0.58251216   -3.3981003    2512.3292  0.051376875  0.050752061           10 
 4076000   0.60139219   -3.3962746    2518.5523  0.051491502  0.050740564           10 
 4077000   0.59855042    -3.403346     2519.016   0.05148835  0.050729109            7 
 4078000   0.58704102   -3.3991083    2514.6733   0.05138698  0.050717664           16 
 4079000   0.60444672   -3.4005668    2515.3859   0.05138894   0.05070619           13 
 4080000   0.60692156   -3.4053075    2510.5228  0.051277018  0.050694652            4 
 4081000   0.60807211   -3.3877565    2521.4723   0.05148804  0.050683141           10 
 4082000   0.59194685   -3.4072203     2515.461  0.051352708  0.050671665            7 
 4083000   0.60550737   -3.4018936    2517.6779  0.051385377   0.05066021            4 
 4084000   0.60370238   -3.4081741    2525.8043  0.051538612  0.050648731            9 
 4085000   0.60754726   -3.4100052    2518.2298  0.051371477  0.050637193            8 
 4086000   0.59671382   -3.4109063    2515.2669  0.051298477   0.05062561           10 
 4087000   0.59910632   -3.4008429    2520.5452  0.051393548  0.050614043            6 
 4088000   0.59499155    -3.386208    2520.7981  0.051386132  0.050602534           10 
 4089000   0.59623176   -3.4009722    2518.1957  0.051320529  0.050590972           11 
 4090000   0.59328936   -3.4021112    2520.5773  0.051356505  0.050579478            6 
 4091000   0.60052557   -3.4073821    2518.9714   0.05131124  0.050567964            6 
 4092000   0.58549224   -3.4031749    2515.5408  0.051228836  0.050556473            8 
 4093000   0.58328486   -3.4192854    2515.5074  0.051215641  0.050544909           10 
 4094000   0.59749882   -3.4208918    2519.4318  0.051283012  0.050533392           13 
 4095000   0.60304723   -3.4043517    2520.8421  0.051299188  0.050521904           12 
 4096000   0.59816207   -3.3996637    2524.8363  0.051367927  0.050510444           15 
 4097000   0.60112834   -3.4117545    2511.0683  0.051075345  0.050498952           11 
 4098000    0.5978548   -3.4015574    2518.6007  0.051216055  0.050487463           11 
 4099000   0.59538193   -3.4238941    2515.0864  0.051132114  0.050475965            6 
 4100000   0.59350572   -3.3950216     2517.119  0.051160955  0.050464363           13 
 4101000   0.59374959   -3.4053292    2520.5013  0.051217208   0.05045284            6 
 4102000   0.59900046   -3.4120835    2520.5475  0.051205662  0.050441299            3 
 4103000   0.60686372   -3.4112862    2515.0149  0.051080812  0.050429739            6 
 4104000   0.58415668   -3.4122736    2514.5416  0.051058755  0.050418151            5 
 4105000   0.60188115    -3.399945    2523.9129  0.051236558   0.05040664           16 
 4106000   0.58868356   -3.4089415    2516.9854  0.051083484  0.050395162            7 
 4107000   0.57259461   -3.4103655     2517.666  0.051084854  0.050383636            9 
 4108000   0.59593147   -3.4000187    2514.4412  0.051007002  0.050372096            8 
 4109000   0.58686954   -3.4210588    2518.7897   0.05108278  0.050360586           12 
 4110000   0.59420329   -3.4191956    2520.9408  0.051113966   0.05034906           14 
 4111000   0.59537125   -3.4215601    2515.0378  0.050981874  0.050337568           12 
 4112000   0.58602029   -3.3974399    2518.7593  0.051044896  0.050326081            8 
 4113000   0.58502492   -3.4266161    2513.2936  0.050921744  0.050314573            6 
 4114000   0.59195974   -3.4381275     2527.992  0.051207097  0.050303108           16 
 4115000   0.59912169   -3.4297312    2517.1683  0.050975461  0.050291613            8 
 4116000   0.57329795    -3.424971    2528.6622  0.051195784  0.050280095           15 
 4117000   0.59047133   -3.4171727    2526.5268  0.051140125  0.050268674           10 
 4118000   0.59711347   -3.4239328    2513.1386  0.050856779  0.050257219            8 
 4119000   0.59198912   -3.4191294    2516.7645  0.050917789  0.050245772            9 
 4120000   0.59393676   -3.4081398    2520.5382  0.050981761  0.050234256           14 
 4121000   0.60152579   -3.4235734    2511.2411  0.050781386  0.050222746           14 
 4122000   0.58910603   -3.4115741    2516.3598  0.050872549  0.050211238            6 
 4123000    0.5869576   -3.4138071    2523.3539  0.051001574  0.050199751            4 
 4124000   0.59358932   -3.3988841    2519.1216  0.050903686  0.050188259           12 
 4125000   0.59714425   -3.4062332    2516.7797  0.050844034  0.050176758           15 
 4126000   0.58633225   -3.4175542    2515.8471  0.050812877  0.050165285           13 
 4127000   0.59403115   -3.4196708    2518.7364  0.050858905  0.050153808            6 
 4128000   0.59261064   -3.4003506    2519.8425  0.050868914  0.050142277            5 
 4129000   0.59989721   -3.4196068    2518.4143  0.050827769  0.050130766           10 
 4130000   0.59966572   -3.4380451    2517.3226  0.050793435  0.050119196            9 
 4131000   0.58747189   -3.4166864    2517.1646  0.050777951  0.050107638           14 
 4132000   0.57873946   -3.4198279    2518.1737  0.050786015  0.050096114           13 
 4133000   0.58613345   -3.4200388    2522.3077  0.050857079  0.050084605            5 
 4134000   0.59454942   -3.4260952    2521.9762  0.050838094  0.050073098           18 
 4135000    0.5835941   -3.4268827    2516.1419   0.05070822  0.050061559           15 
 4136000   0.58803752   -3.3940701     2517.263  0.050718549  0.050050051            9 
 4137000   0.58733453   -3.4156329    2516.1284  0.050683434  0.050038512           12 
 4138000    0.5942921   -3.4305608    2517.4791  0.050698386   0.05002697           10 
 4139000   0.58152477   -3.4085042    2518.9487  0.050715726  0.050015406            6 
 4140000   0.58073057   -3.4109034     2516.924  0.050662721  0.050003922            9 
 4141000   0.59500878   -3.4095498    2523.2558  0.050777908  0.049992445           10 
 4142000   0.59485064   -3.4284377    2516.8344  0.050636456   0.04998096           13 
 4143000    0.5863405   -3.4048808     2519.359  0.050675015  0.049969489           13 
 4144000   0.58042112   -3.4218188    2513.3084  0.050541111  0.049958015           12 
 4145000   0.59096541   -3.4277241    2514.0426   0.05054368  0.049946552           12 
 4146000   0.59864077   -3.4090865    2523.8538   0.05072869   0.04993509           13 
 4147000   0.60391001   -3.4265484    2517.6611  0.050592016  0.049923623           10 
 4148000   0.58928897   -3.4158771    2527.6238  0.050779971  0.049912133           10 
 4149000   0.58471658   -3.4204548    2520.5904  0.050626464  0.049900696            5 
 4150000   0.58370569   -3.4274209    2518.4312  0.050570907  0.049889212           10 
 4151000    0.5902232   -3.4331324    2513.9141  0.050468042  0.049877692            6 
 4152000    0.5781141   -3.4286999    2519.5925  0.050569856  0.049866213            9 
 4153000   0.59773833   -3.4263733    2532.2967  0.050812599  0.049854758            9 
 4154000   0.59205143   -3.3941443    2533.5897  0.050826307  0.049843333           16 
 4155000   0.59907419   -3.4291742    2518.6859   0.05051516  0.049831975            6 
 4156000   0.59624875   -3.3994973    2523.2756  0.050595035  0.049820498            5 
 4157000   0.58910806   -3.4100729     2526.108  0.050639645  0.049809073           10 
 4158000   0.59130276   -3.4216014    2529.8765  0.050702992  0.049797651            6 
 4159000    0.5747801   -3.4272998    2525.5462  0.050604035  0.049786239            6 
 4160000   0.58658259    -3.428879    2526.7023   0.05061503  0.049774825            6 
 4161000   0.60011339   -3.4506003    2519.4262  0.050457146  0.049763432            6 
 4162000   0.59182347   -3.4263056    2520.1268  0.050459051  0.049752008            8 
 4163000   0.59097537   -3.4302801    2519.1504  0.050427385   0.04974059           11 
 4164000   0.59393959   -3.4368552    2520.8633  0.050449554  0.049729206            9 
 4165000   0.57847515   -3.4295997    2523.5004  0.050490205  0.049717811           12 
 4166000    0.5811337   -3.3878024    2527.3271  0.050554631  0.049706407            7 
 4167000   0.57976343     -3.41522    2532.3254  0.050642457  0.049695075            6 
 4168000   0.58866009   -3.4225417    2528.4706  0.050553235   0.04968368           16 
 4169000   0.57956593   -3.4215639    2528.3064  0.050537827  0.049672293            6 
 4170000   0.59360532   -3.4462501    2519.6476   0.05035267  0.049660887            5 
 4171000   0.58427345   -3.4153904    2520.0777   0.05034919  0.049649457            8 
 4172000   0.59087863     -3.42986    2527.5693  0.050486763  0.049637994            8 
 4173000   0.58329339    -3.426962    2525.2794  0.050428936   0.04962659            7 
 4174000   0.59142177   -3.4288014    2524.1088  0.050393483   0.04961519           10 
 4175000   0.57750552   -3.4298453    2527.3859  0.050446824  0.049603795           18 
 4176000   0.58392549   -3.4509222     2521.174  0.050310784  0.049592327           13 
 4177000   0.57839435   -3.4246427    2527.1508  0.050417979  0.049580888           10 
 4178000   0.57841847   -3.4377384    2527.0648  0.050404197   0.04956946            7 
 4179000    0.5982673   -3.4192601    2527.6203  0.050403213  0.049558099           14 
 4180000   0.57819947   -3.4142579    2521.7774   0.05027467  0.049546699            7 
 4181000   0.57829577   -3.4288366    2522.4485  0.050276021  0.049535277            7 
 4182000    0.5852422   -3.4292578    2525.6443  0.050327679   0.04952387           15 
 4183000   0.58119524   -3.4462213    2521.5211  0.050233506  0.049512461           10 
 4184000   0.58684652   -3.4365696    2522.2011  0.050235044  0.049501019            8 
 4185000   0.58555062   -3.4541532    2524.3017  0.050264868  0.049489578            5 
 4186000   0.59173597   -3.4361311    2522.2209  0.050211437  0.049478141            6 
 4187000   0.57428505   -3.4259412    2520.1661  0.050158548  0.049466723           10 
 4188000   0.58709253    -3.451105    2516.6855  0.050077315  0.049455269           17 
 4189000   0.58016626   -3.4243093    2526.1682  0.050254002  0.049443785            7 
 4190000   0.58226255   -3.4397219    2526.7326  0.050253233  0.049432418            8 
 4191000   0.57759217   -3.4404877    2521.5594  0.050138379  0.049421065           13 
 4192000   0.58648467   -3.4312998    2527.2687  0.050239916  0.049409607            9 
 4193000   0.60421349   -3.4177693    2518.5114  0.050053888  0.049398244            9 
 4194000    0.5775416   -3.4369994    2525.1801  0.050174457  0.049386854           14 
 4195000   0.59211534   -3.4289452    2521.6734  0.050092837  0.049375415            7 
 4196000   0.57534743   -3.4277008    2519.6491  0.050040696  0.049363986           10 
 4197000   0.57543608   -3.4354827    2520.8922  0.050053454  0.049352573           21 
 4198000   0.56720542   -3.4380429    2527.5675  0.050174041  0.049341169           10 
 4199000   0.59356347   -3.4484988     2518.789  0.049987873  0.049329748            6 
 4200000    0.5801556   -3.4176773    2522.7228  0.050054024  0.049318371           10 
 4201000   0.57990789   -3.4236001    2526.0557  0.050108223  0.049306964           10 
 4202000   0.58002597   -3.4343058    2517.5135   0.04992689  0.049295539            8 
 4203000   0.58304503   -3.4417081    2532.3042  0.050208269  0.049284117            5 
 4204000   0.57454882   -3.4418954    2528.3503   0.05011795   0.04927268            7 
 4205000   0.57874225   -3.4157647    2527.8623  0.050096359  0.049261349            5 
 4206000   0.57635187   -3.4330852    2527.3623  0.050074542  0.049250051            9 
 4207000   0.57703306   -3.4352541    2527.9033  0.050073356  0.049238746            6 
 4208000   0.57014397   -3.4444708    2531.1631  0.050126011   0.04922739           10 
 4209000   0.58018136   -3.4387807    2533.3022  0.050156455   0.04921609            6 
 4210000   0.58071273   -3.4479378    2526.1185  0.050002345  0.049204765            5 
 4211000   0.56583885   -3.4464389    2529.2162  0.050051772  0.049193419           13 
 4212000   0.57775713   -3.4145012    2528.9394  0.050034414  0.049182093            9 
 4213000   0.58220752   -3.4335266    2525.7143  0.049958745  0.049170803            8 
 4214000   0.58144575   -3.4497491    2527.5161  0.049982521  0.049159469            9 
 4215000   0.57634263   -3.4447943    2533.7906  0.050094712  0.049148117            6 
 4216000    0.5739783   -3.4556272    2524.7898  0.049904923  0.049136736           12 
 4217000   0.58246211   -3.4293711     2526.643  0.049929708   0.04912544           18 
 4218000   0.58211696   -3.4451707    2521.8967  0.049824102  0.049114094            6 
 4219000   0.57955143   -3.4403687    2527.8105  0.049929101  0.049102758           11 
 4220000   0.57650915   -3.4399506    2525.2344  0.049866397  0.049091391           11 
 4221000   0.58363584   -3.4109232    2532.9895   0.05000769  0.049080152           17 
 4222000   0.58220061   -3.4538105    2531.2978  0.049962454  0.049068839           16 
 4223000   0.56818265   -3.4375241    2533.7493  0.049998999  0.049057495            7 
 4224000   0.57525707   -3.4349681     2527.532  0.049864505  0.049046161            4 
 4225000   0.56968486   -3.4756638    2518.3094  0.049670797   0.04903479           10 
 4226000   0.57393179   -3.4506276    2529.2332  0.049874452  0.049023429            5 
 4227000   0.58920266   -3.4489835    2530.3225  0.049884127  0.049012072            6 
 4228000   0.57028867    -3.467761    2525.5185  0.049777644   0.04900072           11 
 4229000   0.58000927   -3.4499307    2524.0969   0.04973786  0.048989326           10 
 4230000   0.58600694    -3.434979    2536.0795  0.049962164  0.048977961           12 
 4231000   0.56693803   -3.4440748    2523.0886  0.049694489  0.048966615            3 
 4232000   0.57010904   -3.4634629     2519.315   0.04960844  0.048955227           20 
 4233000   0.57581521   -3.4408152     2530.615  0.049819178  0.048943942            8 
 4234000   0.57331996   -3.4517673    2534.0233  0.049874494  0.048932619            8 
 4235000   0.57250268   -3.4338326    2529.3665  0.049771085  0.048921339            8 
 4236000    0.5716352   -3.4468419    2531.7898  0.049807008  0.048910033            7 
 4237000   0.57563707   -3.4511126     2525.797  0.049677385  0.048898758            9 
 4238000   0.58839106   -3.4555779    2522.3482  0.049597849   0.04888744            9 
 4239000   0.58232326   -3.4418988    2525.1931  0.049642076  0.048876096           16 
 4240000    0.5845336   -3.4455796    2529.5264  0.049715535  0.048864723           10 
 4241000   0.56742748   -3.4372457    2519.1321   0.04949957  0.048853337           14 
 4242000   0.57203452   -3.4383782    2526.2142  0.049627027   0.04884199           13 
 4243000   0.57697248   -3.4567787    2527.4205  0.049639022  0.048830656           12 
 4244000   0.56897592   -3.4600545    2521.8296  0.049517546  0.048819257            6 
 4245000   0.57491281    -3.459397     2527.884  0.049624735  0.048807845           10 
 4246000   0.57144134   -3.4289898    2532.9123  0.049711734  0.048796531            8 
 4247000   0.55866354   -3.4489328    2530.3531  0.049649813  0.048785156            9 
 4248000   0.56571233   -3.4620104    2528.0517  0.049592979  0.048773744           11 
 4249000   0.58057005    -3.444696    2526.3924  0.049548763  0.048762351           14 
 4250000   0.56313336   -3.4430142    2529.9323  0.049606516   0.04875092            9 
 4251000   0.57560228    -3.455855    2528.6437  0.049569586  0.048739506           20 
 4252000   0.58289769   -3.4356208     2527.121  0.049528084  0.048728167            5 
 4253000   0.56580121   -3.4352665    2524.5166  0.049465408  0.048716801            8 
 4254000    0.5722293   -3.4547916    2530.8698  0.049578235  0.048705395           21 
 4255000   0.56583632   -3.4493537    2528.2709  0.049515685  0.048693949           14 
 4256000   0.56122638   -3.4541236    2523.4848  0.049410339   0.04868258           14 
 4257000    0.5680758    -3.454618    2530.2757  0.049531668  0.048671241           10 
 4258000   0.57706716   -3.4299805    2530.7756  0.049529818  0.048659875           11 
 4259000   0.57634395   -3.4393819    2522.9553  0.049365175  0.048648536            7 
 4260000    0.5719877   -3.4689343    2527.0997  0.049434657  0.048637181           16 
 4261000   0.56706835   -3.4379605    2535.7326  0.049591891  0.048625891           11 
 4262000   0.55870962   -3.4544003    2528.6786  0.049442332  0.048614652            8 
 4263000   0.56810356   -3.4464075    2526.2123  0.049382522  0.048603336            5 
 4264000   0.57025609   -3.4510485    2528.2894  0.049411535  0.048592062           13 
 4265000   0.56575623   -3.4626712    2532.0535  0.049473496  0.048580777            5 
 4266000   0.57905688   -3.4559144    2528.3168  0.049388905  0.048569479           10 
 4267000    0.5618487   -3.4513572    2520.0152  0.049215203   0.04855818            7 
 4268000   0.56952831   -3.4424432    2528.3176  0.049365776  0.048546876            7 
 4269000     0.573249   -3.4537787     2533.383  0.049453091  0.048535592           13 
 4270000   0.57417491   -3.4570699    2538.1115  0.049533792  0.048524345            9 
 4271000   0.55768574    -3.466824    2529.7427  0.049358907  0.048513042           13 
 4272000   0.58058815   -3.4545943    2529.9788  0.049351958  0.048501735           11 
 4273000   0.56241063   -3.4708611    2529.5707   0.04933245  0.048490429           10 
 4274000    0.5709407    -3.449447    2525.5017  0.049241572  0.048479121           16 
 4275000   0.56421754   -3.4637044    2525.6752  0.049233435  0.048467783           12 
 4276000   0.57200212   -3.4529307    2527.9121  0.049265515   0.04845649           16 
 4277000   0.57600478   -3.4479183    2532.0127  0.049333892    0.0484452            8 
 4278000   0.56907232   -3.4732351    2531.4381  0.049311168  0.048433931           13 
 4279000   0.55715146   -3.4577016    2529.4583  0.049261088  0.048422671           15 
 4280000   0.56870716   -3.4550403    2535.2431   0.04936221  0.048411454            7 
 4281000   0.56328463   -3.4445818     2534.318  0.049332672  0.048400207           11 
 4282000   0.56934485   -3.4506747    2529.3169  0.049223823  0.048389009           15 
 4283000   0.56824328   -3.4491089    2536.5568  0.049353196  0.048377819           13 
 4284000   0.55841293   -3.4388727    2531.8349  0.049249823   0.04836668           11 
 4285000   0.56096987    -3.451224    2526.4693   0.04913398  0.048355524            9 
 4286000   0.57329091   -3.4534933    2535.3449  0.049295087  0.048344354            5 
 4287000   0.58105606    -3.453753    2534.2244  0.049261807   0.04833319            7 
 4288000   0.56972158   -3.4449945    2534.1294  0.049248473  0.048322036            9 
 4289000   0.56556698   -3.4480155    2533.5304  0.049225352  0.048310924            5 
 4290000   0.56168391   -3.4517049    2539.2967  0.049325888  0.048299799           20 
 4291000   0.55934752   -3.4572939    2535.8008  0.049246501  0.048288603           23 
 4292000   0.55527843   -3.4701015    2527.9285  0.049082179   0.04827743           16 
 4293000    0.5688601   -3.4527265    2527.4667  0.049061781   0.04826622            6 
 4294000   0.57214397   -3.4665505    2537.7747  0.049250402  0.048255047           16 
 4295000   0.56488957   -3.4529068    2536.1067  0.049206571  0.048243937            6 
 4296000   0.56932139   -3.4597317    2532.9571  0.049134022  0.048232847           16 
 4297000   0.57095921   -3.4738844     2532.395  0.049111687  0.048221689            8 
 4298000   0.56576035   -3.4658621    2531.1821  0.049076742  0.048210521            5 
 4299000   0.55631721   -3.4752246    2541.0274  0.049256173  0.048199416           18 
 4300000   0.55860768   -3.4650273    2532.6039   0.04908147  0.048188329           17 
 4301000   0.56209311   -3.4511405    2536.2394  0.049140498  0.048177251            9 
 4302000   0.56526956    -3.449538    2534.7449  0.049100126   0.04816622            6 
 4303000   0.55550194   -3.4497113    2539.6545  0.049183796  0.048155151            6 
 4304000   0.57218847   -3.4856139    2532.3434  0.049030812  0.048144031           10 
 4305000   0.57881758   -3.4769803    2533.9845   0.04905119  0.048132853           13 
 4306000   0.56356863   -3.4545591       2538.4  0.049125251  0.048121721            4 
 4307000   0.55602263   -3.4652751     2538.949  0.049124468  0.048110576            7 
 4308000   0.56930417   -3.4574832    2539.8389   0.04913028  0.048099388           11 
 4309000    0.5605613   -3.4932355    2531.3996  0.048955666  0.048088314           12 
 4310000   0.55813035   -3.4823084    2530.8037  0.048932785  0.048077115           10 
 4311000   0.55761626   -3.4566682    2532.3154  0.048950657  0.048065923            8 
 4312000   0.55921475   -3.4703918    2537.2465  0.049034604  0.048054837           26 
 4313000   0.56586655   -3.4509429    2536.7784  0.049014189  0.048043799           33 
 4314000   0.57031068   -3.4594386    2533.7953  0.048945204  0.048032636            6 
 4315000   0.55551752   -3.4535914    2537.1948  0.048999513  0.048021562           21 
 4316000   0.55824374   -3.4958134     2531.521  0.048878611  0.048010469            8 
 4317000   0.56016537   -3.4540285    2537.0104  0.048973253  0.047999334            5 
 4318000   0.56764909   -3.4583868    2540.9982  0.049038872  0.047988259            4 
 4319000   0.55752152   -3.4883349    2541.4407  0.049036055  0.047977232            6 
 4320000   0.55096211   -3.4689928    2539.1654  0.048980813   0.04796618           13 
 4321000   0.56445789   -3.4795815    2535.2111  0.048893217  0.047955056            8 
 4322000     0.566599     -3.48944    2529.7573  0.048776748   0.04794392           14 
 4323000   0.57269842   -3.4656315    2536.8487  0.048902164  0.047932775           19 
 4324000   0.54553084   -3.4582416    2531.1914  0.048781825  0.047921667            9 
 4325000   0.56545558   -3.4575008    2538.5063  0.048911489  0.047910591           11 
 4326000   0.55969642   -3.4943364    2537.3885  0.048878651  0.047899522            7 
 4327000   0.54253378   -3.4914922    2535.8358  0.048837452  0.047888401            8 
 4328000   0.56853816   -3.4807077    2539.0459  0.048887975  0.047877328           11 
 4329000   0.55413565   -3.4823875    2544.1362  0.048974671  0.047866273           10 
 4330000   0.56601789   -3.4877809    2537.8382  0.048842151  0.047855227           16 
 4331000   0.56513907   -3.4823795    2533.3935  0.048745354  0.047844126           11 
 4332000   0.54463866   -3.4743097    2540.7464  0.048875545  0.047833123           10 
 4333000   0.56132882   -3.4840292    2537.6962  0.048805603  0.047822081            6 
 4334000   0.54830432   -3.4781276    2540.9169  0.048856271   0.04781106           11 
 4335000   0.55773899      -3.4728    2538.2432  0.048793603  0.047800018            9 
 4336000   0.57720853   -3.4820069    2536.1523  0.048742165  0.047788992            9 
 4337000   0.55565485   -3.4594691    2534.7473  0.048703929  0.047777969            9 
 4338000   0.55572717   -3.4804417    2538.1701  0.048758455  0.047766921           11 
 4339000   0.56919533   -3.4741148    2531.7814  0.048624517  0.047755873            4 
 4340000   0.54470294   -3.4804362    2540.6214  0.048783052   0.04774483           12 
 4341000   0.54875458   -3.4775649    2539.3891  0.048748158  0.047733837           11 
 4342000   0.55213179   -3.4791118    2540.9433  0.048766761  0.047722834           10 
 4343000   0.54727447   -3.4687785    2547.0463  0.048872637  0.047711847            8 
 4344000   0.56246206    -3.476119    2538.5863  0.048699093  0.047700865           12 
 4345000   0.56340864    -3.453016    2539.7284   0.04870979  0.047689911            8 
 4346000   0.56555686   -3.4785361    2537.8807  0.048663152  0.047678939           10 
 4347000   0.55620872   -3.4642862    2544.6783  0.048782269  0.047667953           10 
 4348000   0.53730152   -3.4842958    2535.4304  0.048593806  0.047656936           11 
 4349000   0.55808748   -3.4698318    2536.6703   0.04860639   0.04764589            8 
 4350000   0.56489938   -3.4806696    2539.4275  0.048648036  0.047634865           18 
 4351000   0.55597531    -3.478897      2535.03  0.048552632  0.047623827            7 
 4352000   0.55767443   -3.4747994    2544.9773   0.04873195  0.047612778           10 
 4353000   0.56031947   -3.4810862    2538.7618  0.048601765  0.047601774            7 
 4354000   0.54869916    -3.478659    2543.6964  0.048685049  0.047590747           29 
 4355000   0.55880662   -3.4786285    2537.1909  0.048549386  0.047579663           13 
 4356000   0.55206277   -3.4990736    2538.3536  0.048560484  0.047568556           21 
 4357000   0.54875785    -3.481277    2533.2459  0.048451647  0.047557521            7 
 4358000   0.54625159   -3.5025996     2535.329  0.048480362  0.047546426            5 
 4359000   0.55360448   -3.4897921    2535.5949  0.048474323  0.047535311            7 
 4360000   0.55068553   -3.4582664     2532.844  0.048410627   0.04752427           13 
 4361000   0.55967281   -3.4614023    2536.4416  0.048468272  0.047513273            9 
 4362000   0.54300334   -3.4772691    2540.5045  0.048534779  0.047502294            7 
 4363000   0.55196979   -3.4931396    2532.0807  0.048362761  0.047491173            7 
 4364000   0.55342878   -3.4810703     2538.143  0.048467443  0.047480087           10 
 4365000   0.55597931   -3.4690262    2539.2915  0.048478265  0.047468991           11 
 4366000   0.56361592   -3.4813418    2534.2671  0.048371262  0.047457967           17 
 4367000    0.5555525   -3.4657694    2532.3978  0.048324513  0.047446892           17 
 4368000   0.55941511   -3.4669932    2538.9817  0.048439058  0.047435809            8 
 4369000   0.55571581   -3.4790196    2532.3781  0.048302016  0.047424746           18 
 4370000    0.5565222   -3.4833376    2530.1553  0.048248576   0.04741361           11 
 4371000     0.553662   -3.4850846    2539.4887  0.048415479  0.047402523           24 
 4372000   0.55649982   -3.5003056    2538.5235  0.048386007  0.047391393           20 
 4373000   0.54523641   -3.4875927    2533.0662  0.048270946  0.047380269           12 
 4374000   0.55153793   -3.4912559    2540.1094  0.048394097  0.047369187            7 
 4375000   0.54864401   -3.4925633    2538.1744  0.048346179  0.047358115            9 
 4376000   0.56517611   -3.4827582    2537.2184  0.048316925  0.047347044           16 
 4377000   0.55653671   -3.4861181    2547.4981  0.048501602  0.047335996           10 
 4378000   0.55377448   -3.4974888    2538.0778  0.048311212  0.047324949           24 
 4379000   0.55987779   -3.4694431    2533.1343  0.048206104  0.047313884           10 
 4380000   0.54982647   -3.5043966      2531.63  0.048166476  0.047302808            7 
 4381000   0.54338128   -3.4794512    2537.5639  0.048268354  0.047291679           14 
 4382000   0.55084473   -3.5051396    2536.5745  0.048238523  0.047280589            7 
 4383000   0.55012128   -3.4765464    2536.5595  0.048227233  0.047269467            6 
 4384000   0.55240678   -3.4714534    2536.5325  0.048215719  0.047258401            9 
 4385000   0.55105648   -3.4897305    2536.4249  0.048202677  0.047247316            8 
 4386000   0.55531637   -3.4787981    2536.9015  0.048200743  0.047236257            6 
 4387000   0.53895439    -3.483228    2543.3719  0.048312665  0.047225245           14 
 4388000   0.55506346   -3.4776539    2543.3574  0.048301378  0.047214271           11 
 4389000   0.54024597   -3.4976884    2538.8948  0.048205643  0.047203269           10 
 4390000   0.55834628   -3.4934503    2533.2011  0.048086581  0.047192226           11 
 4391000   0.54986779   -3.4787718    2542.4785  0.048251698  0.047181229            7 
 4392000    0.5521195   -3.4811207    2546.1572  0.048310511  0.047170228           10 
 4393000   0.54910647   -3.4818527    2539.5724  0.048174604  0.047159263            5 
 4394000   0.55212327   -3.4901792     2542.287  0.048215124  0.047148226           17 
 4395000   0.53481876   -3.4933672     2534.109   0.04804909  0.047137219            5 
 4396000   0.56394281   -3.4879968     2539.421  0.048138858  0.047126215            9 
 4397000   0.53068421   -3.4780181     2544.865  0.048231085  0.047115228            3 
 4398000   0.56030875     -3.50415    2535.7919  0.048048202  0.047104232            8 
 4399000   0.53809698   -3.4839712     2536.316  0.048047207  0.047093156           15 
 4400000   0.54191856    -3.483922    2536.7727  0.048044937  0.047082124           12 
 4401000   0.55660592   -3.4806465    2539.6813  0.048089094  0.047071122           19 
 4402000   0.54214246   -3.4767502     2539.137  0.048067866  0.047060141            7 
 4403000   0.54128226   -3.4979123    2540.6124  0.048084874  0.047049131           20 
 4404000    0.5545454    -3.499653    2547.7802  0.048209587  0.047038118           16 
 4405000    0.5534968   -3.5016063    2540.6489  0.048063733  0.047027149            6 
 4406000   0.55542278   -3.5114709    2539.1374  0.048024236  0.047016149           13 
 4407000   0.54113126   -3.4873045    2546.0866  0.048144743  0.047005161            9 
 4408000   0.54071013   -3.5051021    2541.4792  0.048046718  0.046994189           17 
 4409000    0.5501345   -3.4959623    2540.4382  0.048016145  0.046983205           10 
 4410000   0.54575151   -3.4934126    2542.6888  0.048047786  0.046972235            8 
 4411000   0.54696338   -3.5007155    2540.5885  0.047997212  0.046961307            4 
 4412000    0.5346994   -3.4825596    2545.1085  0.048071709   0.04695033           10 
 4413000     0.538072   -3.5010021    2544.1533  0.048042776  0.046939407           11 
 4414000   0.54929901   -3.4917163    2539.2714  0.047939725  0.046928493           31 
 4415000    0.5490482   -3.4921984    2542.0024  0.047980415  0.046917596           11 
 4416000   0.54992331   -3.5013388    2543.5352  0.047998475  0.046906696           11 
 4417000   0.55103093   -3.5125262    2540.2211  0.047925083  0.046895772            7 
 4418000   0.54632415   -3.5177394     2540.005  0.047910159  0.046884769           14 
 4419000   0.54982808   -3.4953323    2540.5556  0.047909701    0.0468738           20 
 4420000   0.56185743   -3.4955082    2533.2821  0.047761729   0.04686288           11 
 4421000   0.54293099   -3.4931171    2538.8245  0.047855396  0.046851935           16 
 4422000   0.53244928    -3.490505    2546.9468   0.04799764  0.046840978            6 
 4423000   0.53643628   -3.4904159    2545.2805  0.047955394  0.046830109           15 
 4424000   0.53627487   -3.4854815    2539.4522  0.047834769    0.0468192           16 
 4425000   0.54653302   -3.4861353    2535.2495  0.047744812  0.046808263           20 
 4426000   0.54396909   -3.4832697    2541.8397  0.047858106  0.046797313           11 
 4427000   0.54603686   -3.4797727    2537.2134   0.04776021  0.046786426            6 
 4428000   0.54565209   -3.5069392     2545.973  0.047914277  0.046775526           15 
 4429000   0.54122774   -3.5120098    2540.8233  0.047806564  0.046764644           12 
 4430000   0.54956177   -3.5018342     2546.538  0.047903274   0.04675373           10 
 4431000   0.54536276    -3.493831    2545.3474  0.047870071  0.046742825           11 
 4432000   0.54053557   -3.5033645    2543.4961   0.04782446  0.046731978            9 
 4433000   0.54751794   -3.4787369    2547.2281  0.047883827  0.046721107            8 
 4434000   0.55237394   -3.5061792     2542.137  0.047777346  0.046710249           10 
 4435000   0.53850675   -3.5125907    2539.7566  0.047721845   0.04669934            7 
 4436000   0.53918511   -3.5055995    2546.6277  0.047840165  0.046688475            5 
 4437000   0.54931092    -3.492421     2541.989  0.047742261  0.046677623            7 
 4438000   0.54326896   -3.5158001    2542.9224   0.04774903  0.046666765           16 
 4439000   0.53726338   -3.5057781    2549.9026  0.047869314  0.046655893            8 
 4440000   0.53784656   -3.4928773    2547.5519  0.047814413  0.046645019            6 
 4441000   0.53476002   -3.4881842      2539.89  0.047659874   0.04663415            8 
 4442000     0.551295   -3.4924035    2540.5761  0.047662016  0.046623246           10 
 4443000   0.54876257   -3.4903701    2542.5762  0.047688802  0.046612358            6 
 4444000   0.53846458   -3.4950987    2539.6539  0.047623272  0.046601475            8 
 4445000   0.53659586   -3.4947282    2541.8542   0.04765381  0.046590609           18 
 4446000   0.53355493   -3.5023577    2548.6754  0.047770944  0.046579736            4 
 4447000   0.54284757    -3.493403    2541.2198   0.04762049   0.04656885           10 
 4448000   0.52534673   -3.5033463    2546.4575  0.047707911  0.046557956           12 
 4449000   0.53983495   -3.4959107    2548.6707  0.047738644   0.04654707            9 
 4450000   0.53689337   -3.4753716    2552.3237  0.047796324  0.046536192            9 
 4451000   0.53903155    -3.522234    2537.2902  0.047504124  0.046525278            5 
 4452000   0.54306035   -3.5121023    2540.9739  0.047562405  0.046514339            8 
 4453000   0.53088691   -3.5028171    2545.9982  0.047645747  0.046503374            8 
 4454000   0.53800313   -3.5049503    2546.1285  0.047637488  0.046492484           15 
 4455000   0.54360267   -3.5076442    2541.0371  0.047531558  0.046481566            4 
 4456000   0.53865403   -3.4988133    2543.8363   0.04757324   0.04647068            9 
 4457000   0.53679649   -3.4998439    2544.0236  0.047566069  0.046459794           15 
 4458000   0.53994351    -3.489677    2546.2982  0.047597917  0.046448934           10 
 4459000   0.52685995   -3.4996115    2542.4715  0.047515727  0.046438038           27 
 4460000   0.53539884   -3.5087714    2538.8887  0.047438129  0.046427132           14 
 4461000   0.53877415   -3.5138644    2539.8393  0.047445253  0.046416206           15 
 4462000   0.55177639   -3.5078671    2547.6356  0.047580226   0.04640528           14 
 4463000   0.53630443   -3.5343613    2542.2889   0.04746973  0.046394342           13 
 4464000   0.55422901   -3.5241138    2540.0443  0.047417194  0.046383415            8 
 4465000   0.54370002   -3.4982424    2540.9575  0.047423618  0.046372485            8 
 4466000   0.53273807   -3.5100276    2540.1872  0.047398626  0.046361553            8 
 4467000   0.54090894   -3.5205527    2540.3357  0.047390785  0.046350625           13 
 4468000   0.54710421   -3.5133509    2540.2942  0.047379406  0.046339693           11 
 4469000   0.53184109   -3.5049552     2546.728  0.047488774  0.046328766           13 
 4470000   0.54299493   -3.5152983    2540.2062  0.047356567  0.046317834            9 
 4471000   0.52475841   -3.5034928    2541.4552  0.047369253  0.046306959            9 
 4472000   0.52377214   -3.5006539    2547.8822  0.047478425  0.046296089           10 
 4473000   0.53172619   -3.5038499    2539.7644  0.047316574  0.046285154           16 
 4474000   0.53888474   -3.5195946    2533.6985  0.047193014  0.046274263           22 
 4475000    0.5398998   -3.5067611    2542.2661  0.047342013  0.046263338           13 
 4476000   0.52241648   -3.5078641    2542.4855  0.047335522  0.046252464           12 
 4477000    0.5405436    -3.514133    2541.8909   0.04731388  0.046241606            9 
 4478000   0.53209328   -3.5157783    2543.3187  0.047329885  0.046230778           20 
 4479000   0.53558786   -3.5336766    2544.1454  0.047334698  0.046219863           15 
 4480000   0.51938691   -3.5282896    2542.7782  0.047298701  0.046208972            7 
 4481000   0.53771663   -3.5335808    2547.4087   0.04737426   0.04619806           20 
 4482000   0.53513869   -3.5033073    2546.2912  0.047342912  0.046187159            7 
 4483000   0.52069015   -3.5054706    2540.0392  0.047216136  0.046176288           15 
 4484000   0.53486854   -3.5147482    2544.7034  0.047292287  0.046165425            8 
 4485000    0.5381019   -3.5273253    2538.1842  0.047160613  0.046154569           18 
 4486000   0.52776712   -3.5280474    2542.8382  0.047236554  0.046143696           34 
 4487000   0.53120485   -3.5062149    2546.7805  0.047299244  0.046132814           26 
 4488000   0.51849177   -3.5159009    2546.3326  0.047280389  0.046121853           11 
 4489000   0.52814947   -3.5019444    2543.4221  0.047215825   0.04611097           10 
 4490000   0.52771176   -3.5212461    2540.1926   0.04714537  0.046100066           10 
 4491000   0.52792528   -3.5093095    2546.2245    0.0472468  0.046089204            6 
 4492000   0.53314539   -3.5249004    2544.2652  0.047199933  0.046078297           24 
 4493000   0.51975531   -3.4992241     2540.575  0.047120984  0.046067391           10 
 4494000   0.54572824   -3.5124238    2543.0473  0.047156344  0.046056476           23 
 4495000   0.52054111   -3.5205782    2539.7506  0.047084735  0.046045576           18 
 4496000   0.53215309   -3.5194867    2537.8362   0.04703878  0.046034635           13 
 4497000   0.53619057   -3.5100854    2541.7385  0.047100632  0.046023722           13 
 4498000   0.53098784    -3.515522    2544.0401  0.047132801  0.046012752           13 
 4499000   0.52324943   -3.5402339    2547.8776  0.047193407  0.046001869           11 
 4500000   0.52908193   -3.5042931    2541.3582   0.04706219  0.045991005            4 
 4501000   0.53936021   -3.5100255    2542.1895  0.047067124  0.045980106            8 
 4502000   0.54597467   -3.5133046    2537.8263  0.046975906  0.045969213            8 
 4503000   0.54252979   -3.5011946    2536.2784  0.046936828  0.045958279            8 
 4504000   0.53034086   -3.5120255    2540.5438  0.047005325  0.045947371            6 
 4505000   0.54370068   -3.5240521    2539.7351  0.046979931  0.045936455           16 
 4506000   0.51923833   -3.5160438    2542.2017  0.047015123  0.045925521            7 
 4507000    0.5272937   -3.5132111    2542.1294  0.047003354  0.045914606           14 
 4508000    0.5284225   -3.5239038    2537.8996  0.046914736  0.045903725           14 
 4509000   0.52776015   -3.5037887     2543.736  0.047012197  0.045892875            6 
 4510000   0.52112232   -3.5220845    2547.7621  0.047076167   0.04588203           13 
 4511000    0.5314203   -3.5322476     2536.639   0.04686025  0.045871107           16 
 4512000   0.53995972   -3.5328972    2535.1365  0.046822114  0.045860166           11 
 4513000   0.52531559   -3.5092636    2544.5611  0.046985765  0.045849322           22 
 4514000   0.52545658   -3.5161762     2548.705  0.047051857  0.045838463           14 
 4515000   0.52772777   -3.4992275    2543.5703  0.046946665  0.045827649            9 
 4516000   0.52759048   -3.5007745    2540.4216  0.046878166  0.045816849           21 
 4517000    0.5316499   -3.5166279    2543.1723  0.046918536  0.045806026           15 
 4518000   0.53267881   -3.5367919    2544.4337  0.046931416  0.045795224           10 
 4519000   0.53858689   -3.5203376    2542.5547  0.046886381  0.045784418            9 
 4520000   0.52799828   -3.5357793    2545.6883  0.046933781  0.045773637           16 
 4521000    0.5278823   -3.5225661    2545.4318  0.046918673   0.04576282           19 
 4522000   0.52755987   -3.5263835    2546.6837  0.046931366  0.045751968           11 
 4523000   0.52267701   -3.5032129    2546.5322    0.0469182  0.045741169            7 
 4524000   0.51921892   -3.5426039    2543.6734  0.046855168  0.045730328            8 
 4525000   0.52587065   -3.5255536    2542.9528  0.046831543  0.045719491           12 
 4526000   0.53702072   -3.5161213     2539.672  0.046760789  0.045708661            9 
 4527000   0.51855354   -3.5254044    2538.6168  0.046731037  0.045697903            5 
 4528000   0.53053207    -3.508071     2540.407  0.046753663   0.04568713            7 
 4529000   0.52505193   -3.5573191    2538.9348   0.04671625  0.045676309            6 
 4530000   0.52014384   -3.5211151    2551.8089  0.046942769  0.045665482           12 
 4531000   0.51876087   -3.5181021    2550.8197  0.046914216  0.045654694           26 
 4532000    0.5294708     -3.53759    2546.6717  0.046827591  0.045643861           24 
 4533000   0.53042659   -3.5262366    2544.6535  0.046780158   0.04563302            9 
 4534000   0.53116428   -3.5235802    2544.3508  0.046764277  0.045622231           13 
 4535000   0.52390542   -3.5442475    2545.2289  0.046770102  0.045611411           16 
 4536000   0.50638617   -3.5455675    2548.7097  0.046823738  0.045600586           22 
 4537000   0.52421288   -3.5253511    2544.6014  0.046737958  0.045589769           17 
 4538000    0.5282931    -3.528367    2548.0517  0.046791018  0.045578956           15 
 4539000   0.50966781   -3.5255844    2541.0511  0.046652183  0.045568119            7 
 4540000   0.53099242   -3.5238167    2540.5566  0.046632831   0.04555734           17 
 4541000   0.52722293    -3.530201    2542.6505  0.046660988  0.045546546           20 
 4542000   0.51783122   -3.5348625    2551.2555  0.046808592  0.045535806           15 
 4543000   0.51464533   -3.5299323    2541.3708   0.04661697  0.045525012           14 
 4544000   0.52909403   -3.5384333    2543.5576  0.046646817  0.045514188           10 
 4545000   0.52613272   -3.5214801    2538.9635  0.046552319  0.045503398            9 
 4546000   0.52223551    -3.521087     2545.733  0.046666171  0.045492616            8 
 4547000   0.52129584   -3.5457612    2550.2866  0.046739363  0.045481836           12 
 4548000   0.51421781   -3.5380914    2546.6289  0.046662066  0.045471064            7 
 4549000   0.53072474   -3.5449578    2545.1511  0.046624736  0.045460258           21 
 4550000    0.5215757   -3.5072196    2542.5428  0.046566718  0.045449483           12 
 4551000   0.52790244   -3.5429294    2545.6422  0.046613239  0.045438678           16 
 4552000   0.53450989   -3.5290981    2546.4567   0.04661791  0.045427929           19 
 4553000   0.53169579    -3.510294     2538.663  0.046465023  0.045417168            9 
 4554000   0.52578714   -3.5285667    2543.9434  0.046551446  0.045406372           17 
 4555000   0.52864127   -3.5328455    2537.8439  0.046429637  0.045395594           12 
 4556000   0.52475394   -3.5382977    2545.3121  0.046556045  0.045384892            7 
 4557000   0.51643995    -3.544215    2543.8107  0.046518373  0.045374143           28 
 4558000   0.53820626   -3.5190995    2548.9681   0.04660246  0.045363433           17 
 4559000    0.5212745   -3.5255239    2544.2604  0.046506185  0.045352728            9 
 4560000   0.53268266   -3.5324538    2548.0502  0.046565246  0.045342058           19 
 4561000   0.51710092   -3.5352296    2545.6662  0.046511478  0.045331326           10 
 4562000   0.51562672   -3.5199032    2546.1653    0.0465104  0.045320575           12 
 4563000   0.52608197   -3.5387626    2545.7626  0.046492851  0.045309852           16 
 4564000   0.51302575   -3.5366555    2543.1154   0.04643433  0.045299105           22 
 4565000   0.52205572    -3.546382    2545.9471   0.04647585  0.045288387           16 
 4566000   0.53068485   -3.5368678     2550.081  0.046541119  0.045277678           17 
 4567000   0.51806775   -3.5491808     2542.909  0.046400062  0.045266932           24 
 4568000   0.50994842    -3.524517    2543.3219  0.046397437    0.0452562           12 
 4569000   0.51694637   -3.5369263    2549.0191  0.046491192  0.045245416            9 
 4570000    0.5186913   -3.5362286     2544.808   0.04640423  0.045234684           10 
 4571000   0.52516098   -3.5429802    2542.6815  0.046355311    0.0452239           34 
 4572000   0.52929418   -3.5266815    2539.5307  0.046287743  0.045213121           11 
 4573000   0.53868454   -3.5329833    2547.0988  0.046415533  0.045202321           24 
 4574000   0.51532504    -3.530893    2543.8892  0.046346911  0.045191537           20 
 4575000   0.51988477   -3.5207951     2544.974   0.04635654  0.045180787           16 
 4576000   0.51855104   -3.5376183    2541.0357  0.046274689  0.045170017           18 
 4577000   0.52459224   -3.5328763    2546.1547  0.046357779  0.045159282           32 
 4578000   0.52176499   -3.5391175    2546.1907  0.046348309  0.045148536           13 
 4579000   0.51894983   -3.5301297    2543.7019  0.046292894  0.045137807            9 
 4580000   0.51976588   -3.5126346    2545.5259  0.046315974  0.045127043           13 
 4581000   0.51963557   -3.5246734    2546.1785  0.046317734  0.045116364           19 
 4582000   0.51332896   -3.5440789    2551.8641   0.04641103  0.045105617           14 
 4583000   0.51850765   -3.5472524    2544.2844  0.046263081   0.04509488            8 
 4584000   0.51533183   -3.5424869    2545.4847  0.046274809  0.045084144           13 
 4585000   0.51376532   -3.5479259    2539.8223  0.046161801  0.045073379           19 
 4586000   0.50967294   -3.5408721    2547.8263  0.046297178  0.045062599           19 
 4587000    0.5212095   -3.5620832    2541.1274  0.046165385  0.045051837            6 
 4588000   0.51820888   -3.5608492    2541.0552  0.046154011  0.045041079            9 
 4589000   0.51787698   -3.5225241    2544.7811  0.046211612  0.045030354            7 
 4590000   0.51840097    -3.539889    2542.5974  0.046161899   0.04501962           12 
 4591000   0.52179404   -3.5326592    2543.4273  0.046166909  0.045008875           10 
 4592000    0.5288319   -3.5388203    2539.4121  0.046083989  0.044998143           16 
 4593000     0.519896   -3.5357126    2547.1985  0.046215227  0.044987399           16 
 4594000   0.51080626   -3.5617418    2541.3604  0.046099266  0.044976672            6 
 4595000   0.50460411   -3.5439671    2542.3745  0.046107626  0.044965867            6 
 4596000   0.51023762   -3.5385219    2546.6921  0.046175879  0.044955182           21 
 4597000   0.50415256   -3.5348527    2544.9036  0.046133414  0.044944506           26 
 4598000   0.50965222   -3.5432472    2543.3475  0.046095177  0.044933809           11 
 4599000   0.52065412   -3.5375061    2545.8261  0.046130066  0.044923091           12 
 4600000   0.51177031   -3.5736081    2540.7368  0.046027841  0.044912347           19 
 4601000   0.50302533   -3.5516982    2540.6693  0.046016615  0.044901613           10 
 4602000   0.51235466   -3.5348599    2552.2885  0.046217015  0.044890924            9 
 4603000   0.50497175   -3.5439352    2544.4388  0.046064864  0.044880228           11 
 4604000   0.51613636   -3.5536838    2542.7895  0.046025006   0.04486953           11 
 4605000   0.51336427   -3.5550007    2543.5173  0.046028182   0.04485878           12 
 4606000   0.52989769   -3.5526514     2545.844  0.046060283   0.04484806            7 
 4607000   0.52123691    -3.535475    2546.4559  0.046061354  0.044837392            9 
 4608000   0.51354578   -3.5590448    2547.6833  0.046073554  0.044826688           18 
 4609000   0.50699623   -3.5456195    2542.6401  0.045972374  0.044815977           17 
 4610000   0.52040228   -3.5475136    2544.4629  0.045995352  0.044805309           24 
 4611000   0.49464815   -3.5442591    2538.1085  0.045870537  0.044794602           16 
 4612000   0.51206005   -3.5491827    2544.9101  0.045983487  0.044783892           19 
 4613000   0.51432663   -3.5628585    2544.7089  0.045969884  0.044773189           13 
 4614000   0.50842136   -3.5452285    2548.8335  0.046034414  0.044762486           13 
 4615000   0.50641741   -3.5755503    2547.8562  0.046006793  0.044751799           16 
 4616000   0.51327391   -3.5527844     2540.211  0.045858807  0.044741044           20 
 4617000    0.5072344   -3.5532904     2545.876  0.045951122  0.044730333           13 
 4618000   0.50740186   -3.5445745    2546.2628  0.045948152  0.044719637            9 
 4619000   0.50837312   -3.5577105    2548.5175  0.045978882  0.044708952           14 
 4620000   0.52042099   -3.5551247    2542.5036  0.045860454  0.044698242           21 
 4621000   0.51121791   -3.5526995    2542.5601  0.045851548   0.04468749           19 
 4622000    0.5127765   -3.5659386     2538.798    0.0457738  0.044676743           14 
 4623000   0.50608061   -3.5421931     2544.536   0.04586733  0.044665985           12 
 4624000   0.50147463   -3.5510883     2545.463  0.045874117  0.044655256            8 
 4625000   0.50910425   -3.5645378    2550.6692  0.045958004  0.044644543           13 
 4626000   0.51213263   -3.5405127    2546.5638  0.045874114   0.04463386            8 
 4627000   0.49986141   -3.5468226    2543.3759  0.045806785  0.044623175            8 
 4628000   0.53368634   -3.5669052    2545.2539  0.045830702  0.044612475           10 
 4629000   0.52479027   -3.5545885     2538.091  0.045691852  0.044601765           10 
 4630000   0.50873974   -3.5642687    2545.6874  0.045818707  0.044591057           21 
 4631000   0.49974618     -3.55995    2546.3002   0.04581984  0.044580423           13 
 4632000   0.51125425   -3.5519069    2542.9847    0.0457503  0.044569786           11 
 4633000   0.51104563   -3.5280103    2548.5848  0.045841153  0.044559149           30 
 4634000    0.5112671   -3.5462813    2550.2975   0.04586206  0.044548484           18 
 4635000    0.5074702   -3.5742151    2543.5707  0.045731224  0.044537785           18 
 4636000    0.4989465   -3.5807345    2544.1068  0.045730996  0.044527048           16 
 4637000   0.50982664   -3.5628328     2546.243  0.045759525   0.04451632           14 
 4638000   0.51269027   -3.5698025    2544.2863  0.045714502  0.044505625           35 
 4639000   0.50324741   -3.5584285    2545.2896  0.045722671  0.044494968           11 
 4640000   0.50216679   -3.5465574    2547.2125   0.04574735  0.044484322           13 
 4641000   0.51214281   -3.5572393    2546.1936  0.045719198  0.044473675           38 
 4642000   0.51452784   -3.5311684    2547.2665  0.045728609  0.044462989           14 
 4643000   0.51479308   -3.5518992    2540.8824  0.045604178  0.044452318           12 
 4644000   0.51520641   -3.5579305    2539.8751  0.045576284  0.044441623           10 
 4645000   0.51135279   -3.5529236    2540.0632  0.045569846  0.044430966           15 
 4646000   0.51220617   -3.5573244    2545.2965  0.045653905  0.044420293           10 
 4647000   0.51864119    -3.559848    2551.7206  0.045759282  0.044409623           15 
 4648000   0.50581812   -3.5768213    2544.9227  0.045627558  0.044398932           28 
 4649000   0.50703342    -3.555134    2548.6662  0.045684846  0.044388302           14 
 4650000   0.49417569   -3.5474184    2540.6519  0.045531396  0.044377648           25 
 4651000   0.49945899   -3.5528864    2542.7958  0.045560019   0.04436702            6 
 4652000   0.51554752   -3.5661737    2545.3669  0.045596283   0.04435642           18 
 4653000   0.50843882   -3.5598531    2545.8356  0.045594877  0.044345753            8 
 4654000   0.49958651   -3.5681223    2547.8476  0.045621107  0.044335131           12 
 4655000   0.50586935   -3.5568974      2549.62  0.045643036  0.044324523            7 
 4656000   0.50839006    -3.561404    2539.2552  0.045447723  0.044313861            6 
 4657000   0.52539027   -3.5723287    2538.1779  0.045418687  0.044303131           18 
 4658000   0.50813872   -3.5779231    2547.2056  0.045570445  0.044292401           21 
 4659000   0.49291216   -3.5801112     2542.926  0.045484117  0.044281715           23 
 4660000   0.50411075   -3.5554349     2542.963  0.045475018  0.044271021           14 
 4661000   0.49717262   -3.5585068     2542.957  0.045465153  0.044260357           16 
 4662000   0.50434804   -3.5700476    2543.1637  0.045459097  0.044249673           13 
 4663000   0.50198773   -3.5679344    2548.5413  0.045545452  0.044238947           17 
 4664000   0.50607708   -3.5712022    2539.7852  0.045379239   0.04422826           14 
 4665000   0.51068474   -3.5869061    2541.8841  0.045407005  0.044217566           19 
 4666000    0.5076968   -3.5751222    2536.1895  0.045295569  0.044206896           10 
 4667000   0.50524354   -3.5784346    2535.5776  0.045274938   0.04419623           17 
 4668000   0.50689756   -3.5673357    2541.8566  0.045377331  0.044185515           17 
 4669000   0.50306815   -3.5696015     2546.142  0.045444099  0.044174851           12 
 4670000   0.50204104   -3.5618808    2542.4067  0.045367713  0.044164189           10 
 4671000   0.51335172   -3.5722286    2541.6969  0.045345338  0.044153536           14 
 4672000   0.50426681   -3.5604377     2547.651  0.045441834  0.044142897           21 
 4673000   0.48802756   -3.5621149    2540.1264  0.045297924  0.044132224           20 
 4674000   0.50713027   -3.5668592    2538.8546  0.045265558  0.044121531           16 
 4675000   0.50143919   -3.5677203    2536.9971  0.045222765  0.044110819           15 
 4676000   0.50858546   -3.5811694     2542.474    0.0453107  0.044100084           12 
 4677000    0.5091335   -3.5655797    2549.5364  0.045426848  0.044089422            6 
 4678000   0.50159186   -3.5811882    2540.2253  0.045251271  0.044078778            8 
 4679000   0.49909685   -3.5884989    2534.6448   0.04514221  0.044068069           40 
 4680000   0.51203085   -3.5742174    2542.7349  0.045276618  0.044057384           41 
 4681000   0.50769399   -3.5695832    2534.1853  0.045114741  0.044046691           12 
 4682000   0.49675167   -3.5702351    2531.9516   0.04506535  0.044035996           30 
 4683000   0.50784051   -3.5793197    2537.9293  0.045162098  0.044025316            9 
 4684000    0.4994152    -3.571346    2547.3052  0.045319264  0.044014668           15 
 4685000   0.50332845   -3.5693551    2547.1078   0.04530608  0.044004062           17 
 4686000   0.49915299    -3.566701    2542.6716   0.04521752  0.043993453           12 
 4687000   0.50362815   -3.5563015     2542.056  0.045196927  0.043982834            9 
 4688000   0.50437464   -3.5689107    2541.5462  0.045178225  0.043972218           24 
 4689000   0.49730549   -3.5729698    2548.2844  0.045288341  0.043961628            7 
 4690000   0.50534606    -3.580004    2542.8914  0.045182861   0.04395097           16 
 4691000   0.50079573   -3.5595626    2541.4468  0.045147566  0.043940331           17 
 4692000   0.49556205   -3.5678695    2544.9599  0.045200339  0.043929695            8 
 4693000   0.50980743   -3.5963036     2542.379  0.045144879  0.043919046           14 
 4694000    0.5084454   -3.5709991    2548.6977  0.045247438  0.043908416           19 
 4695000   0.50050797   -3.5553592    2544.7396  0.045167548  0.043897811           18 
 4696000   0.50666785   -3.5722817    2547.0179  0.045198358    0.0438872           17 
 4697000   0.50083823   -3.5859868    2532.8947  0.044938165  0.043876557           17 
 4698000   0.50109936   -3.5598614    2542.4917   0.04509883   0.04386595           18 
 4699000   0.50986665   -3.5610462    2550.0678   0.04522359  0.043855406           14 
 4700000   0.49620518    -3.558691    2549.4654  0.045203286  0.043844834            6 
 4701000   0.50063241   -3.5793314    2539.5123  0.045017236  0.043834248           15 
 4702000   0.50543436   -3.5871202    2545.3862  0.045111764  0.043823656           11 
 4703000   0.49144419   -3.5696993    2548.1441   0.04515104  0.043813074           19 
 4704000   0.50476849   -3.5741109    2544.6934  0.045080311  0.043802509           12 
 4705000   0.48603807    -3.570485    2544.4276  0.045066022  0.043791917           16 
 4706000   0.49998406   -3.5817999     2547.986  0.045119457  0.043781322           16 
 4707000   0.49397286   -3.5651327       2540.8  0.044982649  0.043770721           15 
 4708000   0.50080191   -3.5790948     2536.911  0.044904258  0.043760113           24 
 4709000   0.50211255   -3.5720259    2540.8355  0.044964173  0.043749519           11 
 4710000   0.49768727   -3.5878555    2541.1353  0.044959931  0.043738911           17 
 4711000   0.49887769   -3.5816599    2539.7396  0.044925699  0.043728334           13 
 4712000   0.50625333   -3.5780409    2546.6282  0.045037992  0.043717758           12 
 4713000   0.49780582   -3.5774937    2541.7637  0.044942424  0.043707234           13 
 4714000   0.50610699   -3.5788661    2540.6655  0.044913475  0.043696661           11 
 4715000   0.49716492   -3.5898204    2545.7509   0.04499383  0.043686093           19 
 4716000   0.48890923   -3.5840504    2545.3434  0.044977088   0.04367555           18 
 4717000   0.49215821   -3.5869892    2545.0105  0.044961672     0.043665           10 
 4718000   0.48638891   -3.5709616    2543.1454    0.0449192  0.043654433           21 
 4719000   0.49867458   -3.5839115    2553.0036  0.045083768  0.043643894           24 
 4720000   0.50303584   -3.5720575    2545.0132  0.044933143   0.04363337           16 
 4721000   0.51245618   -3.6009475    2541.7447  0.044865931  0.043622756           11 
 4722000   0.48812062   -3.5982326    2538.1481  0.044792957  0.043612155           37 
 4723000   0.51190962   -3.6013676    2544.6639  0.044898439  0.043601598           31 
 4724000   0.49763467   -3.5915851    2543.7024  0.044871973  0.043591032           33 
 4725000   0.50124542   -3.5723597    2541.4916  0.044823484  0.043580457           24 
 4726000   0.49872496   -3.5910357      2540.79  0.044801629  0.043569919           17 
 4727000   0.48933793   -3.5712835    2545.2271  0.044870374  0.043559362            8 
 4728000   0.49222074   -3.5761454    2543.3019  0.044826951  0.043548834           18 
 4729000   0.49384411   -3.5687653    2544.0863  0.044831295  0.043538301           21 
 4730000   0.49850408   -3.5683046    2541.7446  0.044780559  0.043527779           13 
 4731000   0.49123767   -3.5466387    2544.3125  0.044816327  0.043517208           10 
 4732000    0.4916404   -3.5831931    2544.2643  0.044806007  0.043506648           12 
 4733000   0.50985221   -3.5824352    2541.3514  0.044745253   0.04349605           13 
 4734000   0.49245902    -3.582522    2539.4629  0.044702558  0.043485505           19 
 4735000   0.49673403   -3.5930007    2539.4728  0.044693292  0.043474948            8 
 4736000   0.48794897   -3.5899487    2543.3103  0.044751377  0.043464391           11 
 4737000    0.4974122   -3.5826801     2546.022  0.044789634  0.043453842           19 
 4738000   0.48957184   -3.5979661    2540.7542  0.044687529  0.043443259           18 
 4739000   0.50836575   -3.5872332    2541.5744  0.044692523  0.043432712           11 
 4740000   0.49734883    -3.590384    2547.9555   0.04479528   0.04342218           13 
 4741000   0.49383844   -3.6029913    2543.0849   0.04470022  0.043411628            6 
 4742000   0.47553402   -3.5982741    2543.2424  0.044693561  0.043401082           11 
 4743000   0.48476796   -3.5848273    2541.3991  0.044651752  0.043390536           15 
 4744000   0.49611027   -3.5875387    2545.4059  0.044712723  0.043380019           21 
 4745000   0.48453064   -3.5907557    2544.9106  0.044694601  0.043369513           15 
 4746000   0.49693381   -3.5943124    2545.7552  0.044700014  0.043358987           21 
 4747000   0.48618866   -3.5873064    2541.8056  0.044621262  0.043348467           11 
 4748000   0.49608878   -3.5976034    2545.6186  0.044678787  0.043337961           15 
 4749000   0.49282699   -3.5863685    2546.5023  0.044684886  0.043327471           19 
 4750000   0.49077781   -3.5798909    2551.8275  0.044768903  0.043316972           12 
 4751000   0.49487477   -3.5807623    2547.7794  0.044688477  0.043306418           14 
 4752000   0.49596309    -3.590693    2543.2498  0.044599639   0.04329588            8 
 4753000   0.48822453   -3.5848974    2542.5263  0.044577571  0.043285387            7 
 4754000   0.48487977   -3.5810426    2545.9728  0.044628607  0.043274901           18 
 4755000    0.4804886    -3.598955    2542.6994  0.044561853  0.043264392           17 
 4756000   0.48719045   -3.5968591    2547.9869  0.044645131  0.043253885           16 
 4757000   0.49026035    -3.605265    2543.3689  0.044554847  0.043243424           11 
 4758000   0.47871171   -3.6037792    2544.2055  0.044560136  0.043232928           29 
 4759000   0.48727445   -3.5878411    2542.5828  0.044522358  0.043222417           24 
 4760000   0.49147961   -3.5860174    2549.5452  0.044634896  0.043211931           13 
 4761000   0.48417681   -3.5943962    2540.7397  0.044471394  0.043201476           25 
 4762000    0.4934439    -3.571779    2542.7002  0.044496364  0.043190993           16 
 4763000   0.49130554   -3.5963789    2538.5906   0.04441512  0.043180469           25 
 4764000   0.49730686   -3.6060789    2549.6209  0.044598742  0.043169983           10 
 4765000   0.49574238   -3.5955114    2544.4201  0.044498428  0.043159502           20 
 4766000   0.49778784   -3.6043586    2541.5568  0.044439026  0.043149012           16 
 4767000   0.48293544   -3.6013721    2546.0285  0.044507875  0.043138518           13 
 4768000   0.48098877   -3.5976503     2542.467  0.044436295   0.04312803           22 
 4769000   0.48517334    -3.589961    2541.3289   0.04440709  0.043117517           15 
 4770000   0.48808167   -3.5916465    2544.8785  0.044459792  0.043107023           17 
 4771000   0.49879306   -3.5796738    2548.9965  0.044522401   0.04309658           28 
 4772000   0.49360861   -3.5915188     2547.862  0.044493259  0.043086146           18 
 4773000   0.49664572   -3.5898467     2543.442  0.044406767  0.043075742           11 
 4774000   0.48184111   -3.5721647    2542.4328  0.044379849   0.04306533           26 
 4775000   0.49434359    -3.590953    2546.6196  0.044443624  0.043054892           28 
 4776000   0.48386338   -3.5796961    2546.5141  0.044432477  0.043044459           17 
 4777000   0.48809825   -3.5935502    2551.0418   0.04450216  0.043034061           14 
 4778000   0.49018413   -3.5897737    2546.7037  0.044417185  0.043023672            9 
 4779000   0.48731299   -3.6044879    2544.7974  0.044374649  0.043013279           22 
 4780000   0.47923347   -3.5941922    2548.6787  0.044433031  0.043002849            9 
 4781000   0.48675461   -3.6015834    2541.1172   0.04429194  0.042992419           13 
 4782000   0.48336205   -3.6115525    2540.0254  0.044263652  0.042981992           22 
 4783000   0.47806821   -3.6096947    2545.9109  0.044356939  0.042971492           25 
 4784000   0.48458945   -3.5944301    2546.2296   0.04435322  0.042961027           10 
 4785000   0.49135343   -3.6084483    2539.6447   0.04422927  0.042950586           14 
 4786000   0.48442002   -3.5997331    2552.6434  0.044446362  0.042940142           11 
 4787000   0.47596951   -3.5977296    2546.9786  0.044338462   0.04292972           36 
 4788000    0.4842158   -3.6056894     2542.757  0.044255725  0.042919249           13 
 4789000    0.4811804   -3.5921677    2542.6483  0.044244593  0.042908828            8 
 4790000   0.48216007   -3.6036743    2546.8086  0.044307735  0.042898383           11 
 4791000   0.48123007   -3.5955711    2540.3156  0.044185549   0.04288797            8 
 4792000    0.5007534   -3.6147644    2536.9214  0.044117303  0.042877536           11 
 4793000   0.49235095   -3.6014135    2543.6846  0.044225686  0.042867085           12 
 4794000   0.48084749   -3.5860528    2545.9068   0.04425509  0.042856652           17 
 4795000   0.48783202   -3.5909864    2547.4941  0.044273446  0.042846268           14 
 4796000   0.47949422   -3.5950498    2546.6355  0.044249295  0.042835869           11 
 4797000   0.49771418   -3.6069812    2545.6059  0.044222185  0.042825469           10 
 4798000   0.48321355   -3.6065459    2545.4888  0.044210936  0.042815042           15 
 4799000   0.48538052    -3.610683    2545.3477  0.044199273  0.042804657           25 
 4800000   0.48672281     -3.59378    2545.2974  0.044189192  0.042794297           10 
 4801000   0.49537445   -3.5944103    2545.3556  0.044180997  0.042783956           13 
 4802000    0.4842704   -3.6007831     2546.603  0.044193444  0.042773581            9 
 4803000   0.49421618    -3.602892    2547.9735  0.044208021  0.042763239           19 
 4804000   0.47716464    -3.596665     2548.645  0.044210467  0.042752881           30 
 4805000   0.47507835   -3.6131938    2546.5199   0.04416441   0.04274251           31 
 4806000   0.47886762   -3.5970874    2541.5954  0.044069832  0.042732141           16 
 4807000   0.48944775   -3.6063352    2545.3803  0.044126279  0.042721746            9 
 4808000   0.49067538   -3.5975226    2538.0519  0.043990084  0.042711322           13 
 4809000   0.47830468   -3.6152533    2542.4809  0.044057686  0.042700907           14 
 4810000   0.48629074   -3.5961712     2550.384  0.044185448  0.042690541           23 
 4811000   0.47864166   -3.6037255    2545.1923  0.044086336  0.042680182           15 
 4812000   0.47543143   -3.5976434    2545.2881  0.044078832  0.042669838           17 
 4813000   0.48699014   -3.6077148    2545.1452    0.0440672  0.042659461           25 
 4814000   0.47968156   -3.6047239    2540.7502  0.043981966  0.042649069           27 
 4815000   0.48307922   -3.6081536    2543.1677  0.044014672   0.04263869           33 
 4816000   0.48280557    -3.611276    2545.2896  0.044042249  0.042628293           17 
 4817000   0.47741482    -3.622126    2542.0425  0.043976931  0.042617891            7 
 4818000   0.48497884   -3.6099248    2546.2608  0.044040763  0.042607477           12 
 4819000   0.48700688   -3.5944813      2552.48  0.044139171  0.042597099           20 
 4820000   0.47859395   -3.6170325    2541.5834  0.043941622   0.04258673           26 
 4821000   0.47369787   -3.6154613    2545.9122  0.044007332  0.042576347           13 
 4822000   0.47122779    -3.602236    2545.6419  0.043993535  0.042565975            9 
 4823000   0.48826731   -3.5863954    2544.2145   0.04395975  0.042555678           25 
 4824000   0.48085301   -3.6031267    2545.9703  0.043980968  0.042545376           15 
 4825000   0.48212638   -3.6114005     2546.203  0.043975873  0.042535056           13 
 4826000   0.47114306   -3.6028052    2544.9598  0.043945293  0.042524709           29 
 4827000   0.48634336   -3.6022521    2543.6826  0.043914138  0.042514426           37 
 4828000    0.4768031   -3.6019287     2539.099  0.043825929  0.042504131           28 
 4829000   0.47314488   -3.6050415    2541.0141  0.043849902  0.042493815           17 
 4830000   0.48148047   -3.6169399    2540.6778  0.043835021  0.042483459           24 
 4831000   0.47544551   -3.6171528    2547.8398  0.043949489  0.042473107           10 
 4832000   0.48247945   -3.6119099     2543.084  0.043858375  0.042462749           12 
 4833000   0.47610399   -3.6086842    2544.7949    0.0438788  0.042452398           12 
 4834000   0.47925036   -3.6140533     2542.725   0.04383404  0.042442045           23 
 4835000   0.47268153   -3.6260145    2543.5895  0.043839875   0.04243171            9 
 4836000   0.47691553   -3.6018921    2542.3285   0.04380908  0.042421362           28 
 4837000   0.48164031   -3.6104818    2551.9241  0.043965338  0.042411032           30 
 4838000    0.4742366   -3.6161789    2550.2324  0.043927111  0.042400705           14 
 4839000   0.46324989   -3.6184449    2546.8663  0.043860066  0.042390408            5 
 4840000   0.47255367   -3.6155255    2542.0801  0.043768596  0.042380109           14 
 4841000   0.47538294   -3.5992239     2548.687  0.043873288  0.042369803           12 
 4842000   0.47064548   -3.6143601    2544.0817  0.043784967  0.042359516           11 
 4843000   0.47756899   -3.6047482    2543.2073   0.04376088  0.042349169           10 
 4844000   0.47410815   -3.6128186    2546.6614  0.043811268   0.04233885           16 
 4845000   0.46331469    -3.606818    2546.6686   0.04380235  0.042328591           32 
 4846000    0.4824378   -3.6244472    2538.7034  0.043656339  0.042318245           16 
 4847000   0.48546364    -3.631587    2541.5528  0.043696322    0.0423079           14 
 4848000    0.4807124   -3.6032875    2544.8831  0.043744552  0.042297547           22 
 4849000   0.47684019   -3.6261873    2537.2124  0.043603705  0.042287247           28 
 4850000   0.47570646   -3.6106403    2543.2572  0.043698577  0.042276963           25 
 4851000   0.46821577   -3.6133431    2544.3103   0.04370766  0.042266685           20 
 4852000    0.4688068   -3.6268743    2544.9842  0.043710227  0.042256371           10 
 4853000   0.48095762    -3.628467    2543.3068  0.043672416  0.042246087           11 
 4854000   0.46052152   -3.6152677     2541.821   0.04363791  0.042235771           25 
 4855000   0.47374384   -3.6376394    2546.6783  0.043712294   0.04222547           19 
 4856000     0.474104   -3.6144491    2540.5272  0.043597734  0.042215175           39 
 4857000   0.47176948   -3.6210916    2541.8209  0.043610955   0.04220488           63 
 4858000    0.4784446   -3.6238916    2541.4909  0.043596318  0.042194593           28 
 4859000   0.47464293   -3.6273873    2543.9348  0.043629258  0.042184295           35 
 4860000   0.47076291   -3.6129937    2541.7136  0.043582195  0.042173988           47 
 4861000   0.48164793   -3.6057391    2544.9522  0.043628749  0.042163684           25 
 4862000   0.47301455   -3.6021756    2544.9553  0.043619828  0.042153444           37 
 4863000   0.46812132   -3.6375556    2542.0972  0.043561882  0.042143198           44 
 4864000   0.47229079   -3.6107131     2544.333  0.043591231  0.042132916           24 
 4865000   0.46968188   -3.6294755    2544.4132  0.043583645  0.042122651           26 
 4866000   0.46997439   -3.6190276    2541.7274  0.043528692  0.042112426           17 
 4867000   0.47526427   -3.6124949    2553.4982   0.04372129  0.042102186           20 
 4868000   0.48310038   -3.6232642    2550.5452  0.043661756  0.042091957           40 
 4869000   0.47449691   -3.6228476     2546.082  0.043576401  0.042081701           14 
 4870000   0.47418557   -3.6207787    2544.1935  0.043535139  0.042071492           15 
 4871000   0.47719195   -3.6170256    2546.8574  0.043571775  0.042061269           31 
 4872000   0.47793663   -3.6218441    2551.0995   0.04363539  0.042051029           19 
 4873000   0.47450544   -3.6318402    2544.5497  0.043514429  0.042040791           13 
 4874000   0.47447503   -3.6244197    2542.6623  0.043473231  0.042030574           55 
 4875000   0.48103819   -3.6280938     2540.834  0.043433059  0.042020343           14 
 4876000   0.46921209   -3.6303791    2547.1451  0.043532012  0.042010102            6 
 4877000   0.47163135   -3.6287293    2547.2334  0.043524594  0.041999865           21 
 4878000   0.47220122   -3.6324137    2549.6992  0.043557796  0.041989643            9 
 4879000   0.46351815   -3.6247225     2548.235   0.04352386  0.041979376           18 
 4880000   0.47304489   -3.6269074    2544.2294   0.04344654  0.041969166           15 
 4881000   0.46882672   -3.6236908     2544.146  0.043436216  0.041958948           13 
 4882000   0.47452328    -3.622662     2541.871  0.043388484  0.041948685           26 
 4883000   0.47840139    -3.629604    2549.3963  0.043508027  0.041938407           11 
 4884000   0.46639634     -3.62912    2544.5704  0.043416776  0.041928145           20 
 4885000   0.47379896   -3.6358937    2545.7961  0.043428798   0.04191788           20 
 4886000   0.48036348   -3.6229255    2544.5597  0.043398821  0.041907635           11 
 4887000   0.48852486   -3.6268699     2542.754  0.043359149  0.041897394           26 
 4888000   0.46307824   -3.6250178    2543.7116  0.043366605  0.041887151           12 
 4889000   0.47185651   -3.6251419    2542.7971  0.043342148  0.041876913           13 
 4890000    0.4603688   -3.6158182    2548.6478  0.043432988  0.041866666           36 
 4891000   0.47144013   -3.6348177    2546.9123  0.043394539  0.041856468           24 
 4892000   0.46688575   -3.6419729    2548.6823   0.04341582  0.041846234           25 
 4893000   0.46495118    -3.626677    2547.2147  0.043381953  0.041836023           57 
 4894000     0.470163   -3.6181593    2548.7812  0.043399762  0.041825839           51 
 4895000   0.45898055    -3.642794    2545.7645  0.043339538  0.041815631           25 
 4896000    0.4764274   -3.6289915    2547.3684  0.043357986  0.041805391           23 
 4897000   0.46402285   -3.6362843    2540.6443  0.043234707  0.041795161           31 
 4898000   0.47003556   -3.6478804    2540.4579  0.043222708  0.041784918           18 
 4899000   0.46594342   -3.6358137    2551.5332  0.043402279  0.041774677           15 
 4900000   0.47147545   -3.6298577    2543.0844  0.043249735  0.041764489           23 
 4901000   0.46764752   -3.6429825    2542.8338  0.043236649  0.041754278           30 
 4902000   0.48729739    -3.635094    2544.3163  0.043253031  0.041744052           11 
 4903000   0.46697804   -3.6254759    2547.1795  0.043292874  0.041733807           11 
 4904000   0.45882341   -3.6231113    2541.1677  0.043181887  0.041723577           12 
 4905000   0.47540366   -3.6529706    2544.6643   0.04323249  0.041713355           25 
 4906000   0.45321544   -3.6431399    2544.7962  0.043225918  0.041703121           62 
 4907000   0.45811611   -3.6359759    2548.1304  0.043273732   0.04169286           20 
 4908000   0.46912251   -3.6382361    2540.3234  0.043132358  0.041682613           33 
 4909000   0.46832422   -3.6386143    2536.1671  0.043053017  0.041672379           16 
 4910000    0.4623349   -3.6465789    2539.4841  0.043100545  0.041662111           22 
 4911000   0.46260919   -3.6325682    2538.7929  0.043080039   0.04165186           19 
 4912000   0.45342177   -3.6189139    2541.3056  0.043113898  0.041641628           41 
 4913000   0.47591346   -3.6255985    2545.7945  0.043181262  0.041631432           16 
 4914000   0.46878035   -3.6274134    2541.4363  0.043098567  0.041621242           13 
 4915000   0.46634204   -3.6255707    2545.6998  0.043162085  0.041611023           13 
 4916000   0.47371168   -3.6343811    2538.3297  0.043028371  0.041600827           14 
 4917000   0.46654663   -3.6310838    2545.4107  0.043139629  0.041590618           36 
 4918000   0.45746415   -3.6318725    2551.5479  0.043234849  0.041580426           24 
 4919000    0.4727536   -3.6492526    2546.5023  0.043140582  0.041570229           35 
 4920000   0.46376925   -3.6547001    2535.0061  0.042937095  0.041559982           35 
 4921000    0.4737085   -3.6457359    2543.8852   0.04307873  0.041549738           16 
 4922000    0.4684153   -3.6590026    2544.0241  0.043072329  0.041539506           25 
 4923000   0.46257789   -3.6278186    2539.5229  0.042987388  0.041529267           21 
 4924000   0.46854772   -3.6381632    2538.7258  0.042965167  0.041519073            9 
 4925000   0.46861748   -3.6215787    2542.3879  0.043018408  0.041508864           21 
 4926000   0.46117608   -3.6363282    2544.5306  0.043045923  0.041498608           10 
 4927000   0.46820247   -3.6455436    2540.0454  0.042961326  0.041488363           26 
 4928000   0.46996446   -3.6579296    2540.8709  0.042966568  0.041478119           40 
 4929000   0.45777771   -3.6488788    2541.5724   0.04296971  0.041467883           10 
 4930000   0.46838341   -3.6451778    2539.7126  0.042929558  0.041457664           19 
 4931000   0.47701394   -3.6301645    2538.3008  0.042896993  0.041447452           32 
 4932000   0.45578312   -3.6291939    2539.2335  0.042904054  0.041437222           45 
 4933000   0.46054975    -3.648033    2538.7669  0.042887474  0.041426962           38 
 4934000   0.45600643   -3.6565884    2542.3292  0.042938947  0.041416691           40 
 4935000    0.4599742   -3.6505429    2541.3039  0.042912933  0.041406436           10 
 4936000   0.45724097   -3.6357057    2543.6868  0.042944469  0.041396195            9 
 4937000   0.46614905   -3.6252185    2535.5315  0.042798114   0.04138597           29 
 4938000   0.46202858   -3.6255857    2545.2028  0.042952659  0.041375761           30 
 4939000   0.45673413   -3.6516019    2536.7771    0.0428018   0.04136554           24 
 4940000   0.46339591   -3.6437703    2539.2757  0.042835286  0.041355326           22 
 4941000   0.46673531   -3.6598424    2544.5926  0.042916288  0.041345125           38 
 4942000   0.46039668   -3.6561678    2536.7349  0.042775106   0.04133493           46 
 4943000   0.46246093   -3.6413209    2540.7491  0.042834128  0.041324736           16 
 4944000   0.45895117   -3.6437858    2541.4394  0.042837099  0.041314537           43 
 4945000   0.46117584   -3.6379506    2541.8296  0.042835011  0.041304352           26 
 4946000   0.45557931   -3.6472791    2538.1819  0.042764893  0.041294184           14 
 4947000   0.45922659   -3.6501588    2541.4439  0.042811197  0.041283994           19 
 4948000    0.4640319   -3.6499145    2542.8507  0.042826237  0.041273829           16 
 4949000   0.46184702    -3.642271    2538.5922  0.042745877  0.041263632           30 
 4950000   0.45730592    -3.662281    2538.9765  0.042743713  0.041253426           64 
 4951000   0.45619749   -3.6561401    2540.7397  0.042764757  0.041243253           57 
 4952000   0.45762025   -3.6407646    2538.8607    0.0427245  0.041233061           41 
 4953000   0.45619382   -3.6423454    2542.3776  0.042775046  0.041222901          101 
 4954000   0.45593276   -3.6350022    2539.6944  0.042721276  0.041212735           59 
 4955000   0.46212055   -3.6477774     2541.066  0.042735721  0.041202548           23 
 4956000   0.45757244   -3.6500451    2537.5018  0.042667168   0.04119235           67 
 4957000   0.46257919   -3.6571423    2541.5261  0.042726215  0.041182159           40 
 4958000    0.4469533    -3.662963    2540.7922   0.04270526  0.041171967          107 
 4959000   0.46654663   -3.6532487    2538.7776  0.042662795  0.041161754           20 
 4960000    0.4573435   -3.6468166    2541.6379   0.04270225  0.041151554           50 
 4961000   0.45496598   -3.6544474    2547.4576    0.0427914  0.041141365           71 
 4962000   0.46367156   -3.6723404    2539.1064  0.042642523  0.041131129           23 
 4963000   0.45568886   -3.6767879    2546.0731  0.042750908  0.041120887           39 
 4964000   0.46852917   -3.6731067    2540.1363  0.042642632  0.041110701           53 
 4965000   0.46180157   -3.6356011    2539.5209  0.042623715  0.041100519           65 
 4966000   0.45159904   -3.6663672    2542.1236  0.042658807  0.041090359           41 
 4967000    0.4569138   -3.6483736    2542.1728  0.042651043  0.041080235           17 
 4968000   0.45672558   -3.6690635    2538.5884  0.042582334  0.041070081           59 
 4969000   0.46053644   -3.6484251    2542.1196  0.042632985  0.041059927           47 
 4970000    0.4506829   -3.6499743    2541.6116  0.042615889  0.041049781           58 
 4971000   0.45419451   -3.6583931     2540.608  0.042590492  0.041039623           67 
 4972000   0.45731096   -3.6498391    2544.1518  0.042641321  0.041029468           60 
 4973000   0.45726133   -3.6665691    2542.4473  0.042604185  0.041019352           16 
 4974000   0.45037753   -3.6477056    2546.4121  0.042662045  0.041009225           47 
 4975000   0.45924557   -3.6626396    2544.0028  0.042613112  0.040999089           20 
 4976000   0.45925082   -3.6508486    2540.8893  0.042552406  0.040988981           32 
 4977000   0.45694483   -3.6608643    2540.4746  0.042536913  0.040978863           16 
 4978000   0.44834567   -3.6486485     2543.214  0.042574226  0.040968741           15 
 4979000   0.45917065   -3.6576731    2544.0626  0.042579879  0.040958646           27 
 4980000   0.46063384   -3.6395606    2542.7223  0.042548901  0.040948522           25 
 4981000   0.45790302    -3.659446    2539.2091  0.042481581  0.040938379           29 
 4982000   0.45743624   -3.6448207    2542.4589  0.042527414  0.040928259           20 
 4983000   0.46188333   -3.6638716    2540.4672   0.04248557  0.040918145           24 
 4984000   0.45896262   -3.6582967    2545.8281  0.042566681  0.040908024           24 
 4985000   0.46287261   -3.6589953    2541.7026  0.042489177  0.040897935           25 
 4986000   0.45899945   -3.6452492    2542.6635  0.042496717   0.04088785           21 
 4987000   0.46713536   -3.6502174    2541.5505  0.042469596  0.040877787           10 
 4988000   0.45180406   -3.6524637    2535.2249  0.042355402  0.040867696           43 
 4989000   0.45516521   -3.6754076    2532.9355  0.042308671  0.040857551           21 
 4990000    0.4569063   -3.6579966     2540.437  0.042425468  0.040847409           22 
 4991000   0.46874184   -3.6596626    2541.4426  0.042433757  0.040837306           19 
 4992000   0.46137478   -3.6653877    2530.6403   0.04224493  0.040827183           28 
 4993000   0.46144467   -3.6774444    2534.9625  0.042308606  0.040817047           33 
 4994000    0.4682656     -3.67029    2536.1523   0.04231999    0.0408069           23 
 4995000   0.45387869   -3.6856845    2537.4329  0.042332881  0.040796727           38 
 4996000   0.45475264   -3.6617928    2539.7432  0.042362944  0.040786548           36 
 4997000   0.44843942   -3.6741678    2541.2391  0.042379413   0.04077642           28 
 4998000   0.45314567   -3.6669208     2533.132  0.042235762  0.040766278           40 
 4999000   0.45513692   -3.6664902    2536.8344  0.042289032  0.040756168           43 
 5000000   0.45631481    -3.661519    2533.3668   0.04222278  0.040746027           45 
 5001000   0.44984418   -3.6619825     2536.767  0.042270996  0.040735884           36 
 5002000   0.44973292   -3.6573943    2538.2558  0.042287348  0.040725752           79 
 5003000   0.45204529   -3.6616713    2535.9959  0.042241254  0.040715653           51 
 5004000   0.44192633   -3.6537582    2537.8724  0.042264063  0.040705549           77 
 5005000   0.44923428   -3.6620466     2538.295  0.042262654   0.04069545           45 
 5006000   0.44977984   -3.6577697    2541.7465  0.042311667  0.040685358           23 
 5007000   0.44527265   -3.6599072    2540.9198  0.042289458  0.040675283           20 
 5008000   0.44442739   -3.6621309     2539.641  0.042259735  0.040665201           19 
 5009000   0.45631328   -3.6623523    2542.9978  0.042307144  0.040655101           14 
 5010000   0.46157183   -3.6706485    2537.7729  0.042211791  0.040645021           34 
 5011000   0.45082137    -3.671459    2546.5951  0.042350082  0.040634933           40 
 5012000   0.44204144   -3.6540191    2540.0464  0.042232749  0.040624864           16 
Loop time of 12153.1 on 48 procs for 5000000 steps with 4000 atoms

Performance: 71092.877 tau/day, 411.417 timesteps/s
99.4% CPU use with 48 MPI tasks x no OpenMP threads

MPI task timing breakdown:
Section |  min time  |  avg time  |  max time  |%varavg| %total
---------------------------------------------------------------
Pair    | 794.14     | 845.5      | 895.94     |  86.7 |  6.96
Neigh   | 80.913     | 84.454     | 87.512     |  19.2 |  0.69
Comm    | 792.89     | 838.85     | 894.52     |  90.3 |  6.90
Output  | 13.582     | 13.586     | 13.663     |   0.3 |  0.11
Modify  | 10245      | 10262      | 10275      |   7.6 | 84.44
Other   |            | 108.9      |            |       |  0.90

Nlocal:        83.3333 ave          89 max          76 min
Histogram: 2 0 5 7 5 5 11 5 3 5
Nghost:        2181.71 ave        2200 max        2154 min
Histogram: 1 0 0 3 9 14 9 4 4 4
Neighs:        14502.7 ave       16261 max       12746 min
Histogram: 2 1 6 10 7 6 4 8 1 3
FullNghs:      29004.8 ave       31228 max       26289 min
Histogram: 1 1 6 6 7 6 8 3 8 2

Total # of neighbors = 1392230
Ave neighs/atom = 348.05750
Neighbor list builds = 271216
Dangerous builds = 2

#clear
#
#next RN
#
#jump SELF
Total wall time: 3:22:36
