
units lj                  # Use reduced LJ style units
atom_style atomic         # Uncharged point particles
atom_modify map hash      # Needed for indexing of clusters etc
                          # Used to be able to find where atoms are in relation to each other.

lattice fcc 1.0 spacing 1 1 1
Lattice spacing in x,y,z = 1.5874011 1.5874011 1.5874011
region box block 0 10 0 10 0 10 units lattice
create_box 2 box
Created orthogonal box = (0.0000000 0.0000000 0.0000000) to (15.874011 15.874011 15.874011)
  3 by 4 by 4 MPI processor grid
create_atoms 1 box
Created 4000 atoms
  using lattice units in orthogonal box = (0.0000000 0.0000000 0.0000000) to (15.874011 15.874011 15.874011)
  create_atoms CPU = 0.002 seconds
set type 1 type/fraction 2 0.14 78393
Setting atom values ...
  590 settings made for type/fraction
mass 1 1.0
mass 2 1.0
pair_style lj/cut  3.5
pair_modify tail  yes
pair_coeff 1  1  1.0  1.0   # Intearaction between 1 and 1 set with epsilon = 1 and sigma = 1
pair_coeff 1  2  1.5  0.8
pair_coeff 2  2  0.5  0.88

write_data data.0
System init for write_data ...
Neighbor list info ...
  update every 1 steps, delay 10 steps, check yes
  max neighbors/atom: 2000, page size: 100000
  master list distance cutoff = 3.8
  ghost atom cutoff = 3.8
  binsize = 1.9, bins = 9 9 9
  1 neighbor lists, perpetual/occasional/extra = 1 0 0
  (1) pair lj/cut, perpetual
      attributes: half, newton on
      pair build: half/bin/atomonly/newton
      stencil: half/bin/3d
      bin: standard
WARNING: Not all mixed pair coeffs generated from mixing. Use write_data with 'pair ij' option to store all pair coeffs. (../write_data.cpp:312)


#############################
#   M E L T   S Y S T E M   #
#############################

velocity all create 2.4 9580093 mom yes dist gaussian # Assign velocities
                                                    # Temperature 2.4, random number seed, zero linear momentum
                                                                                # Gaussian distribution

timestep 0.002   # simulation timestep
thermo 1000       # output thermodynamic data every 1000 steps bf 100

# Define a fix  in this case with index 1 applied to all
# particles in the simulation. This fix is for simulations
# in the anisotropic NPT ensemble. Note that we use the MTK
# correction.
fix 1 all npt temp 2.4 2.4 0.1 iso 5.68 5.68 0.5 mtk yes tchain 5 pchain 5 # Use NPT ensemble
                                                                         # Set temperature and pressure and damping
                                                                         # Numbers of thermostats in chain and in barostat
run 10000          # run for 10000 steps
Per MPI rank memory allocation (min/avg/max) = 3.642 | 3.644 | 3.648 Mbytes
Step Temp E_pair E_mol TotEng Press Volume 
       0          2.4   -7.4253508            0   -3.8262508   -3.2887046         4000 
    1000    2.3992483   -4.6556808            0   -1.0577081    5.7840144    4704.2119 
    2000    2.4397152   -4.6504957            0  -0.99183784    5.6194301    4712.8577 
    3000     2.441886   -4.6524104            0  -0.99049709    5.7752211    4713.2207 
    4000    2.4669518   -4.7487183            0   -1.0492158    5.6894771    4666.8324 
    5000    2.3768735   -4.7745762            0   -1.2101573    5.5408973    4661.3519 
    6000    2.4122937    -4.739036            0   -1.1215001    5.8194528    4650.5873 
    7000    2.4329976   -4.7172918            0   -1.0687078    5.9116829    4651.6751 
    8000    2.3940046   -4.6924421            0    -1.102333    5.6149418    4692.4472 
    9000    2.3958583   -4.7428859            0   -1.1499968    5.7984211    4657.1652 
   10000    2.4273134   -4.6946978            0    -1.054638    5.6821726    4698.8187 
Loop time of 2.20037 on 48 procs for 10000 steps with 4000 atoms

Performance: 785322.505 tau/day, 4544.690 timesteps/s
99.3% CPU use with 48 MPI tasks x no OpenMP threads

MPI task timing breakdown:
Section |  min time  |  avg time  |  max time  |%varavg| %total
---------------------------------------------------------------
Pair    | 0.90399    | 0.98402    | 1.0631     |   2.9 | 44.72
Neigh   | 0.19201    | 0.19958    | 0.21193    |   0.9 |  9.07
Comm    | 0.67924    | 0.75108    | 0.86909    |   4.7 | 34.13
Output  | 0.0002374  | 0.00024253 | 0.00030539 |   0.0 |  0.01
Modify  | 0.21907    | 0.25115    | 0.29004    |   4.5 | 11.41
Other   |            | 0.0143     |            |       |  0.65

Nlocal:        83.3333 ave          91 max          76 min
Histogram: 4 2 7 3 7 5 6 8 4 2
Nghost:        1475.65 ave        1496 max        1450 min
Histogram: 2 2 3 5 6 8 8 7 4 3
Neighs:        8114.60 ave        8967 max        7026 min
Histogram: 2 1 4 4 7 9 7 6 6 2

Total # of neighbors = 389501
Ave neighs/atom = 97.375250
Neighbor list builds = 905
Dangerous builds = 221

# Equilibrate just above the melting temperature to avoid step fn in T

fix 1 all npt temp 1.25 1.25 0.1 iso 5.68 5.68 0.5 mtk yes tchain 5 pchain 5
run 2000
Per MPI rank memory allocation (min/avg/max) = 3.642 | 3.644 | 3.648 Mbytes
Step Temp E_pair E_mol TotEng Press Volume 
   10000    2.4273134   -4.6946978            0    -1.054638    5.6821726    4698.8187 
   11000    1.2356647   -6.3278288            0   -4.4747951    5.7403531    3845.0686 
   12000    1.2457295   -6.3413538            0   -4.4732267    5.7347732    3843.4137 
Loop time of 0.467188 on 48 procs for 2000 steps with 4000 atoms

Performance: 739745.055 tau/day, 4280.932 timesteps/s
99.7% CPU use with 48 MPI tasks x no OpenMP threads

MPI task timing breakdown:
Section |  min time  |  avg time  |  max time  |%varavg| %total
---------------------------------------------------------------
Pair    | 0.21573    | 0.22877    | 0.25161    |   1.8 | 48.97
Neigh   | 0.031386   | 0.032968   | 0.035566   |   0.5 |  7.06
Comm    | 0.13838    | 0.15674    | 0.17234    |   2.3 | 33.55
Output  | 5.0466e-05 | 5.1867e-05 | 6.4275e-05 |   0.0 |  0.01
Modify  | 0.038137   | 0.044395   | 0.050326   |   1.5 |  9.50
Other   |            | 0.004259   |            |       |  0.91

Nlocal:        83.3333 ave          90 max          74 min
Histogram: 1 1 1 4 3 11 15 7 4 1
Nghost:        1684.60 ave        1711 max        1662 min
Histogram: 2 4 6 4 14 6 6 3 2 1
Neighs:        9920.52 ave       10854 max        8752 min
Histogram: 2 1 2 7 7 6 10 8 3 2

Total # of neighbors = 476185
Ave neighs/atom = 119.04625
Neighbor list builds = 141
Dangerous builds = 6

#############################
# L I N E A R  Q U E N C H  #
#############################

# Define solid atoms. This closely follows ten Wolde  Ruiz-Montero and Frenkel  Faraday Discuss  1996  104  93-110
# Compute components of the per-atom q6 vector
compute q6 all orientorder/atom degrees 1 6 components 6 nnn NULL cutoff 1.3 # compute the Q6 parameter.
                                                                             # Use all neighbours within 1.3 unit cell.

# get number of connections
compute coord_number all coord/atom orientorder q6 0.5

# An atom is solid if it has 8 or more connections (of a possible 14)
variable is_solid atom c_coord_number>=8
group solid dynamic all var is_solid    # Must be dynamic to update
dynamic group solid defined

# do clustering
compute cluster solid cluster/atom 1.3 # Create a cluster where all atoms within are solid and max 1.3 units from another member

# define chunks one chunk per cluster
compute clus_chunks solid chunk/atom c_cluster nchunk every compress yes  # Says which atoms are in which chunk

# count the size of each chunk
compute size_chunks solid property/chunk clus_chunks count


# Find the maximum entry in the vector of chunk sizes
variable max_n equal max(c_size_chunks)


# Thermo style which includes this variable
# thermo_style custom step temp pe vol v_max_n

thermo ${N}  # Print the thermo information every 100 steps
thermo 1000  

# Reset the npt fix at a lower temperature (below freezing)
fix 1  all npt temp  ${temp} ${temp}  0.1  iso  5.68  5.68  0.5  mtk yes tchain  5  pchain  5
fix 1  all npt temp  0.45 ${temp}  0.1  iso  5.68  5.68  0.5  mtk yes tchain  5  pchain  5
fix 1  all npt temp  0.45 0.45  0.1  iso  5.68  5.68  0.5  mtk yes tchain  5  pchain  5

dump dmp2 all dcd ${N} traj.dcd
dump dmp2 all dcd 1000 traj.dcd


compute msd all msd com yes
variable twopoint equal c_msd[4]/6/(step*dt+1.0e-6)
fix 9 all vector 10 c_msd[4]
variable fit equal slope(f_9)/6/(10*dt)
thermo_style custom step temp pe c_msd[4] v_twopoint v_fit v_max_n

fix 1 all npt temp 1.25 ${temp} 0.1 iso 5.68 5.68 0.5 mtk yes tchain 5 pchain 5
fix 1 all npt temp 1.25 0.45 0.1 iso 5.68 5.68 0.5 mtk yes tchain 5 pchain 5
run 2000000 # 5000000  # Run for this many steps
Neighbor list info ...
  update every 1 steps, delay 10 steps, check yes
  max neighbors/atom: 2000, page size: 100000
  master list distance cutoff = 3.8
  ghost atom cutoff = 3.8
  binsize = 1.9, bins = 9 9 9
  4 neighbor lists, perpetual/occasional/extra = 1 3 0
  (1) pair lj/cut, perpetual
      attributes: half, newton on
      pair build: half/bin/atomonly/newton
      stencil: half/bin/3d
      bin: standard
  (2) compute orientorder/atom, occasional
      attributes: full, newton on
      pair build: full/bin/atomonly
      stencil: full/bin/3d
      bin: standard
  (3) compute coord/atom, occasional
      attributes: full, newton on
      pair build: full/bin/atomonly
      stencil: full/bin/3d
      bin: standard
  (4) compute cluster/atom, occasional
      attributes: full, newton on
      pair build: full/bin/atomonly
      stencil: full/bin/3d
      bin: standard
Per MPI rank memory allocation (min/avg/max) = 9.760 | 9.764 | 9.770 Mbytes
Step Temp PotEng c_msd[4] v_twopoint v_fit v_max_n 
   12000    1.2457295   -6.3413538 1.0261108e-30 7.1257693e-33 8.3333333e+20            4 
   13000     1.259009   -6.3366294   0.54531295 0.0034955957  0.044884376            3 
   14000    1.2369939   -6.3564838    1.0789401 0.0064222623  0.044249156            1 
   15000    1.2238457   -6.3780549    1.6162951 0.0089794169  0.044669494            3 
   16000    1.2552246   -6.3985154    2.1376349  0.011133515  0.044545106            7 
   17000    1.2530778    -6.401105    2.7024458  0.013247283  0.044876102            2 
   18000    1.2717031   -6.3118396    3.2552711  0.015070699  0.044905819            4 
   19000    1.2251394   -6.3509574    3.8007828    0.0166701  0.045079732            4 
   20000    1.2285578   -6.3303034    4.3526118  0.018135882  0.045180655            2 
   21000    1.2229781   -6.3269679     4.933245  0.019576369  0.045450898            4 
   22000    1.2506367   -6.3521602    5.4587161  0.020676955  0.045532441            2 
   23000    1.2473604    -6.375466    5.9766147  0.021654401  0.045523336            2 
   24000    1.2491267   -6.3712719    6.4060174  0.022243116  0.045216173            1 
   25000    1.2600318    -6.369142    7.0544381  0.023514793  0.045117602            1 
   26000    1.2556507   -6.3862202    7.6182343  0.024417417  0.045132124            3 
   27000    1.2422137   -6.3572118    8.2796992  0.025554627  0.045266934            1 
   28000    1.2630898   -6.4051315    8.8019385  0.026196245  0.045476317            3 
   29000    1.2487334   -6.3485853    9.2346337  0.026536303  0.045563456            3 
   30000    1.2409608   -6.3350601    9.6427311  0.026785364  0.045418357            2 
   31000    1.2495258   -6.3668175    10.100552   0.02715202   0.04514892            2 
   32000    1.2594917    -6.314935    10.544799  0.027460414  0.044818778            3 
   33000     1.265181   -6.3647579    11.005781  0.027792377  0.044503407            1 
   34000    1.2517069   -6.4275218     11.46565  0.028102083  0.044222765            4 
   35000    1.2199316   -6.3453311    12.074045  0.028747725  0.044001451            1 
   36000    1.2192926   -6.3653192    12.651233  0.029285261  0.043861364            2 
   37000    1.2327857   -6.3808544    13.318202  0.029995951  0.043834771            2 
   38000    1.2454576   -6.3779727    13.916358  0.030518328  0.043881848            1 
   39000    1.2754672   -6.3720626    14.391506  0.030751081  0.043910601            3 
   40000    1.2194667   -6.4062365     15.01139  0.031273728  0.043963908            1 
   41000    1.2333507   -6.4016349    15.628165  0.031764562  0.044080903            7 
   42000    1.2318723   -6.3535636    16.323314  0.032387528  0.044230892            1 
   43000    1.2358676   -6.3923795    16.944958  0.032839066  0.044419631            3 
   44000    1.2309493   -6.3809066    17.543865  0.033227016  0.044611788            3 
   45000    1.2127137   -6.3806242    18.033723  0.033395783    0.0447844            1 
   46000    1.2661694   -6.4274082    18.486167  0.033489433   0.04490977            1 
   47000    1.2363309   -6.3555298    19.150793  0.033955306  0.044996084            2 
   48000    1.2285178   -6.3496624    19.732059  0.034257047  0.045113232            1 
   49000    1.2460847   -6.3766905     20.02072  0.034048843  0.045183517            3 
   50000    1.2412921   -6.3734293    20.467221  0.034112034  0.045176288            2 
   51000    1.2461582   -6.3958235    20.873498  0.034107022  0.045121578            1 
   52000    1.2244717    -6.324371     21.44353  0.034364631  0.045034498            2 
   53000    1.2093237   -6.3711528     22.07242  0.034705063   0.04497614            3 
   54000    1.2202208   -6.3693361    22.506989  0.034733007   0.04494986            2 
   55000    1.2286897   -6.3681765    22.936696  0.034752569  0.044899729            3 
   56000    1.2149691   -6.3795326    23.448981  0.034894316  0.044834524            3 
   57000    1.2305021    -6.378413    23.990256  0.035073474  0.044785425            2 
   58000    1.2289877    -6.375121    24.562061  0.035290317  0.044743866            3 
   59000     1.209514   -6.3884516    24.960452  0.035254875  0.044682075            3 
   60000    1.2301926   -6.3973453    25.620948   0.03558465  0.044645167            2 
   61000    1.2134904    -6.398353    25.982055  0.035494611  0.044604014            2 
   62000    1.2634504   -6.4003924    26.419791  0.035510471  0.044538193            2 
   63000    1.2577696   -6.3796181    27.083918  0.035825288  0.044484534            2 
   64000    1.2125516    -6.400644    27.550299  0.035872785  0.044435339            1 
   65000     1.212273   -6.3782397    27.787247  0.035624675  0.044354636            3 
   66000    1.2203877   -6.3785563    28.410236   0.03587151  0.044264672            2 
   67000    1.1998518   -6.3802741    28.856958  0.035891739  0.044187297            2 
   68000    1.2159961   -6.4102249    29.192424  0.035775029  0.044110503            2 
   69000    1.2263125   -6.4178671    29.664288  0.035826434  0.044017011            2 
   70000    1.2105313   -6.4132662    30.170174  0.035916874  0.043938823            3 
   71000    1.2436001    -6.402996    30.807911   0.03615952  0.043863464            1 
   72000    1.2241498   -6.4226731    31.129285  0.036029264  0.043782452            4 
   73000    1.2195475   -6.4435741    31.770428  0.036267612  0.043709038            4 
   74000    1.2330957   -6.4002614    32.226536  0.036291144  0.043640415            2 
   75000    1.2117105    -6.397334    32.721588   0.03635732  0.043574434            2 
   76000     1.196589   -6.3938964    33.162645  0.036362549  0.043501236            2 
   77000    1.2303299   -6.3945816    33.640267  0.036407215  0.043435794            4 
   78000    1.2170766   -6.3759435    34.243806  0.036585263  0.043377394            1 
   79000    1.2384194   -6.4079305    34.692785  0.036595764  0.043325675            2 
   80000    1.2343937   -6.3790088    35.317702  0.036789273  0.043283067            1 
   81000    1.2382014   -6.4006991    35.825281  0.036857285  0.043250247            1 
   82000    1.1994495    -6.393561    36.382828  0.036974419  0.043207426            1 
   83000    1.1961909    -6.401688    36.905619  0.037053834  0.043177181            2 
   84000    1.2037888   -6.3631395    37.323251  0.037027034  0.043150153            4 
   85000    1.1979192   -6.3972267     37.59635  0.036859167   0.04310746            2 
   86000     1.230823   -6.4158485    38.042524   0.03686291  0.043049666            4 
   87000    1.2318516   -6.4215053    38.583981  0.036957836   0.04300353            2 
   88000    1.1894679   -6.4238223    39.326335  0.037240847  0.042964385            2 
   89000    1.2199634   -6.3635423    39.655758  0.037130859  0.042931391            2 
   90000    1.1954108   -6.4231814    40.081473  0.037112475  0.042890926            1 
   91000    1.2055791   -6.4318343    40.721413  0.037290671  0.042857765            1 
   92000    1.2265443   -6.3939294    41.244693  0.037359323   0.04283171            3 
   93000    1.2030971   -6.4713092    41.759103  0.037418551  0.042807031            2 
   94000    1.1808438   -6.4450175    42.185579  0.037398563  0.042778888            2 
   95000    1.1923916   -6.3866375    42.563788  0.037336656   0.04274742            1 
   96000    1.2224818   -6.4091806    42.987544  0.037315576  0.042707271            2 
   97000    1.2228565   -6.3907515    43.354055  0.037245751  0.042658085            3 
   98000    1.1928845   -6.3951832    43.695757  0.037156256  0.042606511            2 
   99000    1.2275177   -6.3881848    44.254743  0.037251467  0.042557076            2 
  100000    1.2289078   -6.4307309    44.692248   0.03724354  0.042505556            1 
  101000    1.1753631   -6.3968899    45.397333  0.037456545  0.042461169            1 
  102000    1.2294545   -6.4479756    45.576679  0.037235849  0.042415702            4 
  103000    1.2215521   -6.4369867    45.977377  0.037198525  0.042359191            3 
  104000    1.1673607   -6.4023455     46.51347  0.037270408  0.042299511            2 
  105000    1.2135317   -6.4415169    46.636319  0.037012951  0.042240938            2 
  106000    1.2187709   -6.3994549    47.249728  0.037146012  0.042177205            2 
  107000     1.219218   -6.4202752    47.561048  0.037041315  0.042110528            1 
  108000    1.2273349   -6.4643954    47.884539  0.036947947  0.042040602            1 
  109000    1.1851839   -6.4295735    48.289365  0.036918475  0.041966855            4 
  110000     1.207499   -6.4566828    48.686034  0.036883359  0.041894086            2 
  111000    1.2183987   -6.4584341     49.15608  0.036903964  0.041826392            3 
  112000    1.2339232   -6.4381761    49.636351  0.036931809  0.041755046            1 
  113000    1.1911114   -6.4142053    49.877389  0.036782735  0.041684958            5 
  114000    1.1822116   -6.3912833    50.643912  0.037020404   0.04161754            1 
  115000    1.2015914   -6.3409146    50.910546    0.0368917  0.041549861            2 
  116000    1.2103375    -6.450957    51.504902  0.037000648  0.041487691            3 
  117000    1.2059789   -6.4623616    51.761181  0.036866938  0.041428534            2 
  118000    1.2243927   -6.4280719    52.435303  0.037030581  0.041372408            2 
  119000    1.2099982   -6.4277939    52.760173  0.036946899  0.041320269            4 
  120000    1.2132468   -6.4335546     53.55368  0.037190056  0.041274948            3 
  121000    1.2108736   -6.4588341    54.305728  0.037400639  0.041239107            1 
  122000    1.2069682   -6.4508916    54.592838   0.03729019  0.041209957            1 
  123000     1.216334    -6.444205     55.59303  0.037664654  0.041188599            2 
  124000    1.2029569   -6.4321317    55.783275   0.03748876  0.041161707            4 
  125000     1.205667   -6.4631182    56.138603  0.037425735  0.041134042            1 
  126000    1.1896125   -6.3995432    56.912715  0.037640685  0.041108776            5 
  127000    1.2134859   -6.3921537    57.380494  0.037651242  0.041085995            1 
  128000    1.2277022   -6.4272902    57.573975  0.037483057  0.041058759            5 
  129000    1.2309587   -6.4349693    57.917997  0.037414727   0.04102648            2 
  130000    1.2040901   -6.4405507    58.532148  0.037520608  0.040995728            2 
  131000     1.234033   -6.4770933    58.832036  0.037424959  0.040963185            1 
  132000    1.2029013   -6.4460306    59.344449   0.03746493  0.040933828            2 
  133000    1.2097896   -6.4415298    59.668073   0.03738601  0.040909043            2 
  134000    1.1747268   -6.4916063    59.852648  0.037221796  0.040875945            2 
  135000    1.1995991   -6.4704361    60.491548  0.037340462  0.040842552            3 
  136000    1.2117941   -6.4279109    61.038648  0.037401132  0.040807823            3 
  137000    1.1796334   -6.4648518    61.224233  0.037241018  0.040770471            2 
  138000    1.1982272   -6.4460901    61.896599  0.037377173  0.040736596            3 
  139000    1.2023397   -6.4236989    62.385777  0.037401545  0.040703399            1 
  140000    1.1965037   -6.4345439    62.548782  0.037231418  0.040668797            3 
  141000    1.1958769   -6.4686311    63.263605  0.037389837   0.04063493            2 
  142000    1.1918809   -6.4456784    63.600772  0.037324396  0.040600936            2 
  143000    1.1845372   -6.4769841    64.029053  0.037312968  0.040569549            4 
  144000    1.1878207   -6.4186732    64.648917  0.037412568  0.040539059            1 
  145000    1.2037232   -6.4827815    64.824461  0.037255437  0.040508204            4 
  146000    1.2036218   -6.4625012    65.449763   0.03735717   0.04047905            2 
  147000    1.2123945   -6.4291598    66.450336  0.037670258  0.040454426            2 
  148000    1.1768512   -6.4517919    66.703269  0.037558147    0.0404347            2 
  149000    1.1770859   -6.4492611    67.124319  0.037541565  0.040416704            6 
  150000    1.1848678   -6.4264388    67.907649  0.037726472  0.040399994            2 
  151000    1.2007316   -6.4381967    68.266921  0.037674901  0.040386502            2 
  152000    1.1866392   -6.4963644    68.826801  0.037733992   0.04037236            3 
  153000    1.1982684   -6.4537739    69.385558  0.037791698   0.04036308            2 
  154000    1.2076118   -6.4729927    69.962674   0.03785859  0.040356741            1 
  155000    1.2052301   -6.4763283    70.451609  0.037877209  0.040352867            2 
  156000    1.2027227   -6.4789788     70.97053  0.037911608  0.040349078            2 
  157000    1.1950827   -6.4713459    71.299246   0.03784461  0.040342039            1 
  158000    1.1923246   -6.4194008    72.056159  0.038004303  0.040333033            5 
  159000    1.1543906   -6.4447559    72.100483  0.037788513  0.040324138            2 
  160000    1.2046452   -6.4409125    72.512493  0.037766923  0.040310235            3 
  161000    1.1810232   -6.4952637    73.056888  0.037814124  0.040297315            2 
  162000      1.19199   -6.4872508    73.475591  0.037796086  0.040284139            2 
  163000    1.2049825   -6.4422212    74.089741   0.03787819   0.04027319            4 
  164000    1.2120969   -6.4497745    74.639671  0.037926662  0.040261845            2 
  165000    1.1831886   -6.4994706    75.051981  0.037905041  0.040251876            4 
  166000    1.1965322   -6.4670255    75.609129   0.03795639  0.040242146            1 
  167000    1.1949427   -6.4486175    75.824263  0.037836459  0.040229979            4 
  168000    1.2102153   -6.4105859     76.52048  0.037956587  0.040216462            3 
  169000    1.1698612   -6.4741914    76.992255  0.037964623  0.040207091            6 
  170000    1.1871417   -6.4503285    77.562399  0.038020784  0.040199077            2 
  171000    1.1914452    -6.480142    77.806348  0.037917323  0.040193049            2 
  172000    1.1721646   -6.4628683    78.741484  0.038149944  0.040186826            3 
  173000    1.1850723   -6.5395791    78.940877   0.03802547  0.040184234            3 
  174000    1.1977965   -6.4420367    79.533179  0.038090603  0.040184747            2 
  175000     1.197962   -6.4546807    80.707612  0.038432196  0.040188071            3 
  176000    1.1857817   -6.4821075     81.49828  0.038588201  0.040197314            2 
  177000    1.1792507   -6.5185444    81.785172   0.03850526  0.040208979            2 
  178000    1.1823274   -6.4748287    82.370012   0.03856274   0.04021858            2 
  179000    1.1904184   -6.5024299    82.683339  0.038493174  0.040229012            2 
  180000    1.1740051   -6.4585027    82.971674  0.038412812  0.040236323            7 
  181000    1.1972346   -6.5047581    83.218146  0.038314064  0.040243064            2 
  182000    1.1800723   -6.5189843    83.945926  0.038436779  0.040248241            4 
  183000    1.2022862   -6.4609286    84.444276  0.038453678  0.040254024            2 
  184000    1.1711314   -6.4488644    85.405943  0.038680228  0.040259536            7 
  185000    1.1860717   -6.4691315    85.473413  0.038501537  0.040266786            2 
  186000    1.1915855   -6.4589263    86.191976  0.038616477  0.040271427            3 
  187000    1.1849503   -6.4995203    86.564767  0.038576099  0.040279128            1 
  188000    1.1794587   -6.4794637    86.691875  0.038427249  0.040282284            4 
  189000    1.1857194   -6.5361878    87.299058  0.038491648  0.040285477            2 
  190000    1.1769498   -6.4935746    87.841139  0.038526815  0.040289603            1 
  191000    1.1685277    -6.489119    88.135372  0.038453478  0.040293417            2 
  192000    1.1523003   -6.5008599    88.605047  0.038457051  0.040295476            3 
  193000     1.182881    -6.444792    89.030265  0.038441392  0.040296087            2 
  194000    1.1626005   -6.4840201    89.685085  0.038524521  0.040296576            3 
  195000    1.1882538   -6.4636995    90.048232   0.03848215  0.040298313            3 
  196000    1.1851658    -6.494809    90.681015  0.038554853  0.040301855            1 
  197000    1.1657809   -6.5091097    91.073723  0.038525263  0.040304411            1 
  198000    1.1725701   -6.4529103    91.552823  0.038532333  0.040305151            2 
  199000    1.1617235   -6.5201287    91.859978  0.038467327  0.040304187            3 
  200000    1.1725798   -6.4839004    92.231296  0.038429706  0.040303214            2 
  201000    1.1975732   -6.4932298    92.815333  0.038480652  0.040302164            4 
  202000    1.1584914   -6.5170897    92.603495  0.038202762  0.040294945            2 
  203000    1.1846452   -6.5403297    93.219742  0.038267546   0.04028558            4 
  204000    1.1317504   -6.4927776    93.569071   0.03822266  0.040275285            3 
  205000     1.174659   -6.4930324    94.322425  0.038342449  0.040266305            3 
  206000       1.1632   -6.5256327    94.796544  0.038348117  0.040258632            4 
  207000    1.1741756   -6.5128736    94.676167  0.038114399  0.040249301            2 
  208000    1.1881788   -6.4545054    95.253353  0.038162401  0.040238689            4 
  209000    1.1596683   -6.5282585    95.879144  0.038229324  0.040228314            4 
  210000    1.1896609   -6.5050859    95.983184  0.038088565  0.040216368            1 
  211000    1.1735275     -6.49321    97.068116  0.038336539  0.040205917            4 
  212000    1.1732026   -6.5017117    97.453506  0.038307196  0.040196156            5 
  213000    1.1387031   -6.5224007    97.901443  0.038302599  0.040185936            1 
  214000     1.134018   -6.5018542    97.942965  0.038139784  0.040173181            3 
  215000    1.1928833   -6.4715676    98.453986   0.03816046  0.040162753            2 
  216000     1.153101    -6.488849    99.554201  0.038408256  0.040151813            2 
  217000    1.1573387   -6.4729278    99.626868  0.038259166  0.040143586            4 
  218000    1.1798649   -6.4621562    100.35014  0.038360144   0.04013445            1 
  219000    1.1593442   -6.5294039    100.93485  0.038407477  0.040125736            4 
  220000    1.1869599   -6.5036229    101.08398  0.038289385  0.040117653            3 
  221000    1.1767391   -6.5081624    101.46109  0.038258331  0.040110285            5 
  222000    1.1375836   -6.5347503    101.81229  0.038217825  0.040101301            2 
  223000    1.1589795   -6.5118991    102.42676  0.038276067  0.040093288            2 
  224000    1.1688691   -6.4908974    103.11528  0.038361338  0.040084456            3 
  225000    1.1695983   -6.5078954    103.01356   0.03815317  0.040073103            2 
  226000    1.1684292   -6.5003385    103.58973  0.038196803  0.040061549            2 
  227000    1.1710371   -6.5052859    104.37888  0.038318237   0.04005065            4 
  228000     1.162492   -6.5197027    104.42227  0.038166034  0.040040123            3 
  229000    1.1781161   -6.4727554    104.91249  0.038177763   0.04003075            4 
  230000    1.1705106   -6.5490855    105.16936  0.038104841  0.040019217            2 
  231000    1.1702419   -6.4971164    106.07157  0.038265357  0.040007346            3 
  232000    1.1687115   -6.4900349     106.3175  0.038188757  0.039997104            2 
  233000    1.1512194   -6.5672625    106.89989  0.038233151  0.039986338            3 
  234000    1.1611093   -6.5256581    107.74256  0.038369856  0.039978272            3 
  235000    1.1599735   -6.5464491    107.52586  0.038129738  0.039969851            3 
  236000    1.1774229   -6.5225061    108.01895  0.038142283  0.039957613            1 
  237000    1.1533251   -6.5253012    108.36763  0.038103948  0.039943809            2 
  238000    1.1709049   -6.5428119    109.01413  0.038170212  0.039930342            2 
  239000    1.1628187    -6.526456    110.09909  0.038388804  0.039920249            2 
  240000    1.1631869   -6.5198305     109.8569  0.038144757  0.039911455            3 
  241000    1.1388827   -6.5058895    110.28976  0.038136154   0.03989972            3 
  242000    1.1674561   -6.5312887    110.52065  0.038058076  0.039889144            3 
  243000    1.1540498   -6.5070135    111.76994  0.038329883    0.0398791            1 
  244000    1.1530404   -6.5261461    112.02704  0.038260601  0.039869899            1 
  245000     1.172187   -6.5327541    111.90386  0.038062537  0.039860371            2 
  246000    1.1687567   -6.5458899     112.6706  0.038167548  0.039848748            2 
  247000    1.1577102   -6.5241056    113.32664   0.03823436  0.039835921            3 
  248000    1.1340144   -6.5571497    113.40159  0.038105372   0.03982328            1 
  249000    1.1623374   -6.5186391    113.98079   0.03814618  0.039811343            4 
  250000    1.1461872   -6.5524265    114.30481  0.038101605  0.039800346            2 
  251000    1.1659424   -6.5497389    114.82462  0.038122385  0.039788873            2 
  252000    1.1716301   -6.5477169    115.15085  0.038078985  0.039776194            2 
  253000    1.1396432   -6.5483805    115.15748  0.037930659  0.039763605            1 
  254000    1.1272022   -6.5486292    115.72491  0.037967492  0.039751352            5 
  255000    1.1461749   -6.5297237    116.38997  0.038035939  0.039737843            1 
  256000     1.172597   -6.5007303    116.64409  0.037970082  0.039724177            2 
  257000    1.1367198   -6.5246211    117.00546  0.037939514  0.039709633            2 
  258000    1.1382486   -6.5216389    117.46672  0.037941447  0.039695639            2 
  259000    1.1440723   -6.5005197    117.82812  0.037911235  0.039678991            2 
  260000    1.1306826   -6.5236354    118.47557   0.03797294  0.039661553            2 
  261000    1.1664304   -6.4955291    119.00943  0.037997902   0.03964487            3 
  262000    1.1857842   -6.5584941    118.35012  0.037643168   0.03962683            4 
  263000    1.1543188    -6.504829    118.77562  0.037634861  0.039607344            1 
  264000    1.1404348   -6.5544897    119.43642   0.03770089   0.03958696            3 
  265000    1.1137989   -6.5750141      119.541   0.03759151  0.039565614            5 
  266000    1.1347323   -6.5460767    119.79478  0.037529692  0.039544031            3 
  267000    1.1398213   -6.5456368    120.65956  0.037659037  0.039524937            3 
  268000    1.1577013    -6.547449    120.82977  0.037571447  0.039504686            2 
  269000    1.1579434   -6.5340128    121.66187  0.037689552  0.039486038            2 
  270000    1.1058178   -6.5416214    122.02808  0.037662988  0.039467441            2 
  271000      1.12691   -6.5557448    122.31994  0.037613759  0.039447783            4 
  272000    1.1807592   -6.5753143    122.91787   0.03765866  0.039427871            2 
  273000    1.1633745   -6.5250723    123.09318   0.03757423  0.039407264            1 
  274000    1.1357932    -6.547334    123.60015  0.037591288  0.039386418            2 
  275000    1.1298323   -6.5286968    123.75048  0.037500145   0.03936633            2 
  276000     1.148634   -6.5561181    124.41269  0.037564217   0.03934639            5 
  277000    1.1351043   -6.5727912    124.95935  0.037593065  0.039326009            5 
  278000    1.1245532   -6.5158966    124.78237  0.037404788  0.039305533            3 
  279000    1.1630887   -6.5508968    124.94346  0.037318835  0.039284329            2 
  280000    1.1320586   -6.5718566     125.5805  0.037375148  0.039262513            5 
  281000    1.1309286   -6.5409067    126.54206    0.0375273  0.039240409            1 
  282000     1.148572   -6.5265531    126.26602  0.037312653  0.039218946            2 
  283000    1.1219349   -6.5545547    127.08935  0.037423249  0.039198895            4 
  284000    1.1466528   -6.6233067    127.20714   0.03732604  0.039178869            2 
  285000     1.145253   -6.5448097    127.84927  0.037382827  0.039157491            4 
  286000    1.1458984   -6.5594529    128.01526  0.037300483  0.039135708            2 
  287000    1.1416928   -6.5557257    128.83647  0.037408962  0.039115504            5 
  288000    1.1587474   -6.5193359    129.27601  0.037406254  0.039095512            2 
  289000    1.1446631   -6.5516791    129.49045  0.037338653  0.039074739            7 
  290000    1.1522349   -6.5483147    129.80316  0.037299757  0.039053959            1 
  291000    1.1451371   -6.5818013     129.7325  0.037151345    0.0390319            3 
  292000    1.1488758   -6.5604483    130.27096  0.037177785  0.039009703            2 
  293000    1.1381132   -6.5655322    130.69888  0.037172606  0.038987491            4 
  294000    1.1424922   -6.5545105    131.18444  0.037183799  0.038966055            2 
  295000    1.1328805   -6.5452553    131.81688  0.037236406  0.038945664            3 
  296000    1.1380366   -6.5591922    132.05618  0.037177979   0.03892428            4 
  297000    1.1383832   -6.5319685    132.21124  0.037096309  0.038902675            2 
  298000    1.1228972    -6.554427    132.98921  0.037189375  0.038881516            2 
  299000    1.1358789   -6.5271138    133.62088  0.037241047  0.038861226            1 
  300000    1.1372488   -6.5533105    134.14488  0.037262466  0.038840257            1 
  301000    1.1233365   -6.5723897    134.12033  0.037131873  0.038819272            2 
  302000     1.126638   -6.5904667     134.4886   0.03711054  0.038798773            4 
  303000     1.125733   -6.4971617    135.34632   0.03722396  0.038778848            5 
  304000    1.1526321   -6.5734765    135.36889  0.037107701  0.038759009            5 
  305000    1.1306742   -6.5366552    135.66815    0.0370678  0.038736831            4 
  306000    1.1064284   -6.5713532     136.2177  0.037096322  0.038714504            2 
  307000    1.1481354   -6.5390849    136.39383  0.037023299  0.038693773            2 
  308000    1.1282451   -6.5365395    137.62802  0.037237018  0.038673619            3 
  309000     1.150297   -6.5303074    138.07365  0.037236691  0.038654734            2 
  310000    1.1089507   -6.5451481    138.26002  0.037166672  0.038636236            1 
  311000    1.1419482   -6.5379504    138.54941  0.037124709  0.038618195            2 
  312000    1.1260937   -6.5790937    138.97176  0.037118525  0.038598791            3 
  313000    1.1195055    -6.578069    138.89601  0.036979769  0.038579702            4 
  314000    1.1161476   -6.5461465    139.88299  0.037123935  0.038560007            4 
  315000    1.1241414   -6.5372882    140.23174  0.037098343  0.038540052            3 
  316000    1.1289213   -6.5796035    140.01758  0.036924467  0.038519853            9 
  317000    1.1163528   -6.5556648    140.78338  0.037009302  0.038499757            2 
  318000    1.1216459   -6.5507318    141.04855  0.036962408  0.038478996            3 
  319000    1.1072883    -6.532589    141.28507  0.036908326   0.03845914            4 
  320000    1.1337869   -6.5632355    141.81502  0.036930995  0.038440073            3 
  321000    1.1274385   -6.5768531     141.5551  0.036748469  0.038418899            5 
  322000    1.1466514   -6.6181515    142.62739   0.03691185  0.038398654            2 
  323000    1.1254191   -6.5952575    143.18506  0.036941451  0.038379231            5 
  324000    1.1208693   -6.5641593    143.06684  0.036797026  0.038360536            3 
  325000     1.122307   -6.5675178    144.29563  0.036998879  0.038341305            2 
  326000    1.1370993   -6.5805406    144.28385  0.036882374  0.038323768            2 
  327000    1.1077113   -6.5628899    144.32653   0.03678046  0.038305155            2 
  328000    1.1180097   -6.5716015    145.15337  0.036878397  0.038285737            2 
  329000    1.1035926   -6.6044831      145.335  0.036812309  0.038266146            3 
  330000    1.1429021     -6.61358    145.69472  0.036791596  0.038247208            2 
  331000     1.109751   -6.5619414    145.86756  0.036723957  0.038228867            4 
  332000    1.1088577   -6.6432589     146.3073   0.03672372  0.038209883            3 
  333000    1.1287566   -6.6102936    147.03217  0.036794838  0.038191366            3 
  334000    1.1260437   -6.6321413    147.39308  0.036774721   0.03817224            2 
  335000    1.1327032   -6.6092962    147.67758  0.036735716  0.038152814            3 
  336000    1.1123861   -6.5891479    148.30881  0.036782939  0.038134003            4 
  337000    1.1053313   -6.6010653    148.70703  0.036772263  0.038112998            1 
  338000    1.1107746   -6.5695527    148.97056  0.036728443  0.038092933            2 
  339000    1.1189019   -6.6099168    149.19887   0.03667622  0.038072888            1 
  340000    1.1185589    -6.602326    149.03146   0.03652732  0.038052216            3 
  341000    1.1071572   -6.6175515     149.6202  0.036564077   0.03803077            2 
  342000    1.1229156   -6.6001038    149.69555  0.036475524  0.038009012            2 
  343000    1.1395497   -6.5833804    150.08906  0.036464787  0.037986901            2 
  344000    1.1244555    -6.603685    149.94925  0.036324915  0.037964174            5 
  345000    1.1029339   -6.6336524    150.74673  0.036412252  0.037942038            2 
  346000    1.1234601   -6.5953414    151.68129  0.036532102  0.037920573            1 
  347000    1.1148831    -6.617876    151.58934   0.03640474  0.037899195            3 
  348000    1.1092563   -6.6089917    152.08618  0.036419105  0.037878555            2 
  349000    1.0944906   -6.5632272    152.24928  0.036353697  0.037856832            3 
  350000    1.1232828   -6.6051945    152.68849  0.036354403  0.037834811            3 
  351000    1.0974851   -6.6295976    153.07757  0.036343202  0.037811941            3 
  352000    1.1191582    -6.563535    153.31336  0.036295777  0.037788951            2 
  353000      1.11542   -6.5746683     153.5803  0.036255974  0.037766009            5 
  354000     1.140621   -6.5474602     154.0228  0.036257721  0.037743988            3 
  355000    1.1146838   -6.6129287    154.49054  0.036265384  0.037721434            3 
  356000    1.0955161   -6.5795987    154.93092    0.0362666   0.03769902            4 
  357000    1.1060324    -6.595141    155.26346  0.036242638  0.037677495            3 
  358000    1.0943642   -6.6441863    155.32153  0.036154918  0.037655582            7 
  359000    1.1187194   -6.6458482    155.35555  0.036062105  0.037632676            4 
  360000    1.0925087   -6.5979647    155.68082  0.036037228  0.037609296            4 
  361000    1.1223902   -6.6334944    155.64009  0.035927999  0.037584591            2 
  362000    1.0857276   -6.6413172      156.471  0.036020028  0.037560097            4 
  363000    1.1325988   -6.6154895    157.12757  0.036071527  0.037536066            2 
  364000    1.1193241    -6.614911    157.70887  0.036105509  0.037513437            2 
  365000    1.1250905   -6.6240179    157.98621  0.036069912  0.037491715            4 
  366000    1.1214657   -6.6375309      158.587  0.036108151  0.037469653            2 
  367000    1.1061232   -6.5863626     158.9083   0.03608272  0.037448422            5 
  368000    1.1424271   -6.6110014    158.75434  0.035949805   0.03742682            2 
  369000    1.0974487   -6.6347583    159.55521  0.036033245  0.037404654            3 
  370000    1.1101663   -6.6437665    159.87076  0.036006929  0.037382373            2 
  371000    1.1117166   -6.6187088    160.18469  0.035980389  0.037360521            2 
  372000    1.1060198   -6.6018281    160.31507  0.035912874  0.037338347            2 
  373000    1.0836799   -6.6043208    161.04068  0.035978704  0.037315538           10 
  374000    1.0918951   -6.6401814    161.70753   0.03603109  0.037293378            5 
  375000    1.0861109   -6.6150147    162.33243  0.036073873  0.037271666            3 
  376000    1.1259769   -6.6382091    162.18397  0.035945029  0.037249966            2 
  377000    1.1239678   -6.5950258       162.23  0.035859858  0.037228649            5 
  378000    1.0966588   -6.6187573    162.85303  0.035902343  0.037206408            1 
  379000    1.0893438   -6.6412023    163.10127  0.035862197  0.037184338            3 
  380000    1.1016465   -6.5945668    163.94122  0.035952023  0.037162547            3 
  381000    1.1058856   -6.6013369    164.16923   0.03590753  0.037142231            3 
  382000    1.1062397    -6.611724    164.78044  0.035946866   0.03712232            3 
  383000    1.0992031   -6.6673705    164.34661  0.035758618   0.03710136            2 
  384000    1.1018572   -6.6113601    164.93998  0.035794266  0.037080078            4 
  385000    1.0820164    -6.623841    165.78509  0.035884219  0.037058876            4 
  386000    1.0948724   -6.6340165    165.87975  0.035811691   0.03703842            5 
  387000     1.094586   -6.6057071    166.12205  0.035771328  0.037018908            2 
  388000    1.0888696   -6.6195342    167.14511  0.035898864  0.036999284            5 
  389000    1.1121889   -6.6395174    167.62035  0.035908386  0.036979842            5 
  390000    1.0942657   -6.6162899    167.78991  0.035852545  0.036961013            3 
  391000    1.1105666   -6.6435032    168.06452  0.035819378  0.036941412            3 
  392000    1.1189414   -6.6241899    168.39492  0.035798241  0.036921628            2 
  393000    1.0802574    -6.604186    169.10364   0.03585743  0.036902417            4 
  394000    1.1105466    -6.648806    169.48332  0.035846726   0.03688373            2 
  395000    1.0930019   -6.6251835    169.50587  0.035760732  0.036865547            3 
  396000    1.0887081   -6.6380109    169.69311   0.03570983  0.036846946            2 
  397000    1.0768228   -6.6591272    170.07708  0.035700479  0.036828503            3 
  398000    1.1012905   -6.6159611    171.22963    0.0358521  0.036810783            2 
  399000    1.0620867   -6.6239656    171.44952  0.035808171  0.036793424            5 
  400000    1.0668257   -6.6620455    171.90634  0.035813822  0.036776032            4 
  401000    1.0840999   -6.6401877      172.145  0.035774107   0.03675883            2 
  402000    1.0772349   -6.6403066    172.43362  0.035744945   0.03674126            6 
  403000    1.0655374   -6.6665704    172.38818  0.035646852  0.036722471            3 
  404000     1.074092   -6.6532748    172.54701  0.035591379  0.036703308            1 
  405000    1.0937709    -6.648434    173.44321  0.035687904  0.036685112            2 
  406000    1.0910797   -6.6424969    173.79182  0.035671556  0.036666971            5 
  407000    1.1021873   -6.6515186    174.11275  0.035649621   0.03664876            4 
  408000    1.0845463   -6.6229603    174.27481  0.035595345  0.036630234            3 
  409000    1.0852457   -6.6534949     174.5882  0.035572168  0.036612019            3 
  410000    1.1004024   -6.6871233    174.79746  0.035527938  0.036593275            4 
  411000    1.1020165   -6.6542543    175.17006  0.035517043  0.036574566            2 
  412000    1.0835074   -6.6242992    175.82028  0.035562355  0.036555985            4 
  413000    1.0695732    -6.650485    175.71533   0.03545507  0.036537117            3 
  414000    1.0717827   -6.6687369    176.08099  0.035443033  0.036517584            1 
  415000    1.0836324   -6.6467517    176.45697  0.035433126  0.036497768            3 
  416000    1.0820326   -6.6542493     176.4749  0.035351542  0.036478216            3 
  417000    1.0747942   -6.6175622    177.94354   0.03556026   0.03645891            3 
  418000    1.0831156   -6.6506738    177.75201  0.035437003  0.036439973            5 
  419000    1.0836038    -6.660405     177.2994   0.03526241  0.036420046            3 
  420000    1.0956757    -6.655532    178.00653  0.035318757  0.036400621            4 
  421000    1.1015497   -6.7034792    178.05285  0.035244033  0.036380355            3 
  422000    1.0873381   -6.6542465    178.72409  0.035293066  0.036359806            2 
  423000    1.0885333   -6.6380271    178.99057  0.035262129  0.036339838            2 
  424000    1.0847609   -6.6883126    179.14614  0.035209541  0.036319885            2 
  425000    1.0839519    -6.661487    180.11281  0.035316237  0.036300145            3 
  426000    1.0871691   -6.6846092    179.94666  0.035200833  0.036280584            3 
  427000    1.0844995   -6.6948044    180.29451  0.035186283  0.036261253            1 
  428000    1.0943957   -6.6741725    181.25898  0.035291857  0.036242627            3 
  429000     1.070685   -6.6404002     181.3298  0.035223349  0.036223891            3 
  430000    1.0650682    -6.644505    182.24854  0.035319484  0.036206206            4 
  431000    1.0930653   -6.6733365    181.49077  0.035091023  0.036187376            5 
  432000    1.1209406   -6.6760771    182.09147   0.03512567  0.036168234            4 
  433000    1.0776834   -6.6135244    183.08887  0.035236503  0.036148733            2 
  434000    1.0899832   -6.6621915    182.17143  0.034979154  0.036128796            3 
  435000    1.0659996   -6.7136929    182.34681   0.03493234  0.036107562            3 
  436000    1.0827175   -6.6749956    183.46985  0.035066867  0.036086364            3 
  437000    1.1081364   -6.6710043    183.43948  0.034980831     0.036066            2 
  438000     1.068032   -6.6673144    183.60106  0.034931709  0.036045442            5 
  439000    1.0855491   -6.6610357    184.04014  0.034935486  0.036025332            4 
  440000    1.0559551   -6.6832159    183.77424  0.034805728   0.03600486            3 
  441000    1.0890678    -6.655042    184.50339  0.034864587  0.035984052            3 
  442000    1.0665943   -6.6564719     185.2057  0.034918118  0.035963766            4 
  443000    1.0842241   -6.6888658    184.93737   0.03478882  0.035943168            4 
  444000    1.0554715   -6.6419514    186.17749  0.034943223  0.035922823            2 
  445000    1.0563751   -6.6962763    186.36319  0.034899474  0.035902851            3 
  446000    1.0591253   -6.6235955     187.5727  0.035047216  0.035883892            3 
  447000    1.0808707   -6.6712708    187.64533  0.034982351  0.035865589            2 
  448000      1.07773   -6.6940582    187.64304  0.034903838  0.035847275            4 
  449000    1.0483695   -6.7037415    188.33557  0.034954635  0.035829087            2 
  450000    1.0771622   -6.7106967    188.66512  0.034937985  0.035810934            2 
  451000    1.0841408   -6.6869294    188.92066  0.034907734  0.035792246            3 
  452000    1.0782555   -6.6901309    188.72472   0.03479438  0.035773856            2 
  453000    1.0491923    -6.673534     189.9509  0.034943139  0.035755473            5 
  454000    1.0696424   -6.6978371    189.83518   0.03484493  0.035736727            2 
  455000    1.0704945   -6.6463095    189.62783  0.034730372  0.035717709            3 
  456000    1.0567058   -6.6748089    189.46156  0.034623823  0.035697443            2 
  457000    1.0759764   -6.6812218    190.47871  0.034733535  0.035677154            3 
  458000    1.0722914   -6.6649243    190.80174  0.034716474    0.0356572            5 
  459000    1.0859651    -6.688623    191.17634   0.03470885  0.035637137            2 
  460000    1.0630578   -6.7081082    190.94326   0.03459117  0.035616506            2 
  461000    1.0779617   -6.6966705    190.87209  0.034503269  0.035595535            2 
  462000    1.0552094   -6.7423331    190.09272  0.034288008  0.035573807            3 
  463000    1.0742127   -6.6716113    191.36009  0.034442061  0.035552435            4 
  464000    1.1028886   -6.7351435    192.25044  0.034527737  0.035531071            5 
  465000    1.0678291   -6.7037023     191.6972  0.034354336  0.035510695            4 
  466000    1.0645349   -6.7069819    192.53548  0.034430521  0.035489721            2 
  467000    1.0770728   -6.6986403     192.8035  0.034404621   0.03546797            4 
  468000    1.0675866   -6.6980159    192.88765  0.034346092  0.035445842            3 
  469000    1.0816005   -6.6669056    192.96737  0.034287023  0.035423779            3 
  470000    1.0829363   -6.6955183    193.86754  0.034373677  0.035402384            3 
  471000    1.0710225   -6.7088972    193.76684   0.03428288  0.035380395            3 
  472000    1.0639263   -6.6497749    194.71587  0.034377802  0.035359415            3 
  473000    1.0759653    -6.667508    194.44621  0.034257613  0.035338517            3 
  474000    1.0633371    -6.722644    195.78865  0.034421352  0.035317465            2 
  475000    1.0441073   -6.7485224    194.91912  0.034196337  0.035296203            2 
  476000    1.0833434   -6.6773413    195.40144  0.034208936   0.03527462            2 
  477000    1.0548168   -6.6942335    195.50029  0.034154487  0.035252086            3 
  478000    1.0795534   -6.6913757     195.5941   0.03409939  0.035229928            1 
  479000    1.0435616   -6.7015659    197.19749  0.034307148  0.035207612            2 
  480000    1.0572511   -6.7195304    196.46035    0.0341077  0.035185836            6 
  481000    1.0643607   -6.7178346    196.53461  0.034049655  0.035163878            1 
  482000    1.0554532   -6.6930755    197.26055  0.034104521  0.035142145            3 
  483000     1.068991   -6.6622419    198.11738  0.034181743  0.035120404            1 
  484000    1.0544662   -6.6558416    197.79478  0.034055575  0.035098672            4 
  485000    1.0606887   -6.7348391    197.66422  0.033962924  0.035076705            2 
  486000    1.0484414   -6.7018749    198.53219  0.034041871   0.03505506            5 
  487000    1.0683749    -6.697113    199.04218  0.034059237  0.035033683            8 
  488000    1.0527264   -6.6975418    199.24151  0.034023482  0.035012635            3 
  489000    1.0574103   -6.7102009    199.31483    0.0339664  0.034991811            2 
  490000    1.0527639   -6.6965188    199.63699  0.033951869  0.034970681            2 
  491000     1.079652   -6.7049507    199.75628  0.033902967  0.034948959            3 
  492000    1.0673282   -6.7224794    199.98468  0.033872743  0.034927365            2 
  493000    1.0587161   -6.7349414     200.7787  0.033938253  0.034905786            5 
  494000    1.0728901   -6.7261272    201.30035  0.033957548  0.034884783            8 
  495000    1.0480793   -6.7278619    201.75229  0.033965032  0.034863818            3 
  496000    1.0634137   -6.6923865     201.6297  0.033875958  0.034843187            4 
  497000    1.0481585   -6.7072264    201.70651  0.033820675  0.034821802            4 
  498000    1.0670934   -6.7178536    202.41218  0.033870847  0.034800664            5 
  499000    1.0593874   -6.7325681    202.47129   0.03381284  0.034779752            4 
  500000    1.0639939   -6.7460767    202.59045  0.033765075  0.034759026            4 
  501000    1.0681132   -6.7006053    203.13245  0.033787832  0.034738075            7 
  502000     1.067325   -6.7642641    203.10111  0.033715324  0.034717266            4 
  503000     1.053917   -6.7531039    203.70004  0.033747521  0.034695829            2 
  504000    1.0504188   -6.7629086    203.40393  0.033631601  0.034673871            3 
  505000    1.0434386   -6.7192991    204.19061   0.03369482  0.034652028            6 
  506000    1.0653553   -6.7326979    204.60387   0.03369629  0.034630664            4 
  507000    1.0420722   -6.7022827    205.09059  0.033709828  0.034609054            2 
  508000    1.0739732   -6.7282696    204.95158  0.033620666  0.034587446            3 
  509000    1.0570878   -6.7381996    204.86066  0.033539729  0.034565481            2 
  510000    1.0620857   -6.7006473    205.35273  0.033554367  0.034543305            2 
  511000    1.0647097   -6.7158137    205.26674   0.03347468  0.034521784            3 
  512000    1.0359312   -6.7155709    206.20364   0.03356179  0.034499782            3 
  513000    1.0603215   -6.7540476    205.81613  0.033433419  0.034477581            3 
  514000    1.0446066   -6.7286168    206.42116  0.033466465  0.034455949            3 
  515000    1.0692985   -6.7108491    206.75866  0.033456094  0.034434403            4 
  516000    1.0371634   -6.7352783    207.14059  0.033452938  0.034412113            3 
  517000    1.0523772   -6.7241268    207.19214  0.033396541  0.034389538            2 
  518000    1.0449432   -6.7399218    206.56417  0.033231045  0.034366388            3 
  519000    1.0526282   -6.7535763    207.01567   0.03323951  0.034343307            2 
  520000    1.0303681   -6.7088068    207.77686  0.033297574  0.034320328            3 
  521000    1.0116939   -6.7161456    207.94249  0.033260155  0.034297713            4 
  522000    1.0413987   -6.7365423    208.80419  0.033334003  0.034275267            2 
  523000    1.0572491   -6.7134656    208.19729  0.033173565   0.03425302            2 
  524000    1.0505738   -6.7412285    208.88441  0.033219531  0.034230464            2 
  525000    1.0407615   -6.7499973    209.24089  0.033212839  0.034208043            2 
  526000    1.0754406   -6.7810104    209.62284  0.033210209  0.034186097            4 
  527000    1.0564184   -6.7151052    209.49754  0.033127378  0.034163302            3 
  528000    1.0562744   -6.7728856    209.83165  0.033117369  0.034141347            2 
  529000    1.0447101   -6.7395059    210.68899  0.033189822  0.034119527            6 
  530000    1.0271706   -6.7316934    211.29794  0.033222946  0.034098301            3 
  531000    1.0505339   -6.7326445      211.879  0.033251569  0.034076903            5 
  532000    1.0462362   -6.7409976    212.15511  0.033232317  0.034055983            3 
  533000    1.0597935   -6.7822979    212.46937    0.0332191  0.034035522            2 
  534000    1.0358132   -6.7190346    212.90844  0.033225412  0.034015349            2 
  535000    1.0248262   -6.7638619    213.07629  0.033189452  0.033994709            2 
  536000    1.0499114   -6.7569263    213.81838  0.033242908   0.03397449            2 
  537000    1.0501556   -6.7463178    213.97267  0.033204946  0.033954424            4 
  538000    1.0498045   -6.7431516    214.62671  0.033244534  0.033933892            4 
  539000    1.0448808   -6.7309747    214.27314  0.033128192  0.033913848            4 
  540000    1.0388379   -6.7359911    214.22598  0.033059564  0.033893088            6 
  541000    1.0637127   -6.7426876    214.59727  0.033055649  0.033872624            3 
  542000    1.0220311    -6.759409    215.19029  0.033085839  0.033852049            5 
  543000    1.0196803   -6.7070225    215.35841  0.033050708   0.03383176            2 
  544000    1.0280655   -6.7976379    214.85396  0.032912678  0.033811025            4 
  545000     1.030137   -6.7535869    215.71337  0.032983695  0.033789964            6 
  546000     1.037938   -6.7215695    216.30048  0.033012893  0.033769648            6 
  547000    1.0447671   -6.7613398    216.71748  0.033016069  0.033749507            6 
  548000    1.0414824   -6.7687679    217.27929  0.033041255  0.033729772            3 
  549000     1.054998   -6.7513212    217.35325  0.032992297  0.033709598            3 
  550000    1.0323512   -6.7547176    217.46083  0.032948611  0.033689483            3 
  551000    1.0299905   -6.7668982      217.664   0.03291954  0.033669472            4 
  552000    1.0410721   -6.7691731     217.9221  0.032898867  0.033649216            2 
  553000    1.0489244   -6.7540203    218.91481   0.03298897   0.03362932            5 
  554000    1.0334899   -6.7375765    219.67241  0.033043383  0.033610259            2 
  555000    1.0281503    -6.765024    218.99062  0.032881475  0.033591218            3 
  556000    1.0542659   -6.7836087    218.70221  0.032779108  0.033571523            4 
  557000    1.0425818   -6.7658012    219.48166  0.032836872   0.03355211            2 
  558000    1.0266082   -6.7312734    219.87964  0.032837461  0.033532721            3 
  559000    1.0315753   -6.7446328    219.49707  0.032721686   0.03351293            3 
  560000    1.0269539   -6.7768905    220.71218  0.032844074  0.033493052            3 
  561000    1.0260648   -6.7572181    220.42366  0.032742671  0.033472919            4 
  562000    1.0522632   -6.7824117    220.32126  0.032669226  0.033452893            4 
  563000    1.0199604   -6.7932222    220.59392  0.032651557  0.033432674            4 
  564000     1.027365   -6.7799295    221.43809  0.032718394  0.033412734            2 
  565000    1.0125116    -6.786895    221.13547  0.032615851  0.033392536            5 
  566000    1.0272353   -6.7530031    221.54155  0.032618014  0.033372303            4 
  567000    1.0266064   -6.7510621     222.8283  0.032749603  0.033352478            3 
  568000     1.032948    -6.796141    222.14182  0.032591229  0.033332525            3 
  569000    1.0529244   -6.7744233    222.80178  0.032630607  0.033312902            3 
  570000    1.0542071   -6.7723952    223.13418  0.032621956  0.033293082            2 
  571000    1.0204305   -6.7898272     223.3292  0.032593287    0.0332735            2 
  572000    1.0323224   -6.8094372    224.21515  0.032665377  0.033254101            7 
  573000    1.0246345   -6.7765535    224.13674  0.032596966  0.033234758            3 
  574000    1.0210209   -6.7987425    224.38397   0.03257607  0.033215315            3 
  575000    1.0108944   -6.7951882    224.52643  0.032540062  0.033195859            2 
  576000    1.0216388    -6.768742    225.33291  0.032600247   0.03317672            3 
  577000    1.0105487   -6.7827699    225.45294  0.032561083  0.033157705            2 
  578000    1.0261303   -6.7693624    225.00628  0.032440351  0.033138416            5 
  579000    1.0237346   -6.7644112     226.0013  0.032527533  0.033119251            3 
  580000    1.0194126   -6.7691241    226.24343   0.03250624  0.033100396            2 
  581000    1.0355425   -6.7552852    226.82665  0.032533942  0.033081804            5 
  582000    1.0139691   -6.7640689    226.83904  0.032479817  0.033062966            4 
  583000    1.0274695   -6.7929136    226.53763  0.032381022  0.033044479            4 
  584000    1.0135217   -6.7588621    226.91618  0.032379591  0.033026102            4 
  585000    1.0032859   -6.7941612    227.60941  0.032422993  0.033007367            3 
  586000    1.0319837   -6.8130112    227.91535   0.03241117  0.032988783            3 
  587000    1.0493824   -6.7720785    227.82262  0.032342791  0.032969962            3 
  588000     1.030686   -6.7861968    228.13079  0.032331461   0.03295128            5 
  589000    1.0273667   -6.7786994    228.21545  0.032288546  0.032932303            7 
  590000    1.0074106   -6.7454242    229.40352  0.032401628  0.032912987            6 
  591000    1.0297966   -6.7910341      228.746   0.03225409  0.032893819            2 
  592000     1.010573   -6.7924043    229.35552  0.032285405  0.032874287            4 
  593000    1.0218124   -6.7752603     229.7363  0.032284472  0.032855024            2 
  594000    1.0192249   -6.7877029      230.157  0.032289141  0.032835932            2 
  595000    1.0099178   -6.7965596    230.45922  0.032277201  0.032816787            5 
  596000    1.0294796   -6.8081366    230.18139  0.032184199  0.032797837            4 
  597000    1.0280457   -6.8003936    230.67655  0.032199407  0.032778852            7 
  598000     1.007666   -6.8157028    231.01319  0.032192473  0.032760178            5 
  599000    1.0021371   -6.7951519    231.51972  0.032209199  0.032741419            2 
  600000    1.0084621   -6.7893619     231.8557  0.032202181  0.032722929            2 
  601000    1.0074651   -6.7957391    232.06178  0.032177174  0.032704313            4 
  602000    1.0016434   -6.7969505    232.86407  0.032234783  0.032685392            6 
  603000    1.0108347   -6.8277187    232.13939  0.032081177  0.032666414            2 
  604000     1.005974    -6.808019    233.08285   0.03215823  0.032647532           12 
  605000    1.0107951   -6.8172217    231.67474  0.031911122  0.032628508            2 
  606000    1.0323377   -6.7563734     233.8483  0.032157357  0.032609162            2 
  607000   0.98180775   -6.8140015    233.28476  0.032027013  0.032590279            4 
  608000    1.0047113   -6.8082813    233.99416  0.032071568  0.032571149            5 
  609000    1.0061856   -6.8234823     232.9733  0.031879214  0.032552174            4 
  610000    1.0122534   -6.7690467     234.9778  0.032100793  0.032532981            1 
  611000    1.0329258   -6.8448657    233.66216  0.031868816  0.032514313            3 
  612000    1.0017594   -6.8241551    233.91405  0.031851041  0.032494975            2 
  613000     1.017615   -6.8017077    234.94487  0.031939216  0.032475557            2 
  614000    0.9934127   -6.7989192    234.34081  0.031805212  0.032456113            3 
  615000    1.0060727   -6.8404855    234.76296  0.031810699  0.032436527            3 
  616000    0.9844362   -6.8058481    235.29487  0.031831017  0.032416604            4 
  617000    1.0288581   -6.7979144    235.49203  0.031806054  0.032397172            4 
  618000    1.0277702    -6.830699    235.65145  0.031776086  0.032377805            3 
  619000    1.0102859   -6.8244716    236.63106  0.031856631  0.032358721            3 
  620000    1.0090597   -6.8103451    236.32403  0.031763983  0.032339775            5 
  621000    1.0237659   -6.7693174    237.79389  0.031910076  0.032320836            5 
  622000    1.0091944   -6.7854363     237.1111  0.031767296  0.032302266            5 
  623000    1.0087473   -6.8029085    237.94381   0.03182769  0.032283614            5 
  624000   0.99439239     -6.82322     238.0191  0.031786738  0.032265144            5 
  625000   0.99886429   -6.8286105    237.50277  0.031667036  0.032246022            4 
  626000    1.0038543   -6.8128904     238.3507  0.031729327  0.032226782            3 
  627000    0.9987313   -6.8097136    238.46217  0.031693536  0.032207941            4 
  628000    1.0186732   -6.7964342    238.91198  0.031702758  0.032189343            5 
  629000    1.0011492   -6.8004535    239.31235  0.031705399  0.032170854            6 
  630000    1.0219343   -6.8200896    239.89133  0.031731657  0.032152431            2 
  631000    1.0105102   -6.8485094    239.12847  0.031580622  0.032133985           10 
  632000   0.99814048   -6.8450206    239.74247  0.031611613  0.032115094            2 
  633000   0.99723258   -6.8004974    239.63316  0.031547282  0.032096393            5 
  634000   0.96462324   -6.8161958     240.3396  0.031590378  0.032077786            8 
  635000    1.0055881   -6.8337602    240.38534  0.031546633  0.032058927            3 
  636000    1.0025377   -6.8041095    240.64812  0.031531462  0.032040142            2 
  637000   0.98766601   -6.8291484    240.30062  0.031436501  0.032021569            5 
  638000    1.0115216   -6.8109649    241.15225  0.031498466  0.032002704            7 
  639000   0.98858221   -6.8165112    241.32181  0.031471285  0.031983907            7 
  640000    1.0123948    -6.835701    242.17552   0.03153327  0.031965174            2 
  641000   0.98286119   -6.7667809    242.50207   0.03152653  0.031946567            3 
  642000    1.0182539   -6.8241484    241.93584  0.031403926  0.031927877            8 
  643000    1.0208728   -6.8241183    242.45329  0.031422147  0.031908999            3 
  644000    1.0067927   -6.8539515    242.22094   0.03134329  0.031889935            3 
  645000   0.99230679   -6.8608876    243.15615  0.031415523  0.031870823            3 
  646000   0.99283965   -6.8553129    242.06371  0.031225969   0.03185182            5 
  647000   0.99520455   -6.8381707    242.43768  0.031225873  0.031832368            2 
  648000   0.96324966   -6.8408053    243.08948  0.031261507  0.031812673            4 
  649000    0.9717443    -6.836716    243.84405  0.031310227  0.031793088            4 
  650000    1.0064917   -6.8475195    243.78687  0.031254726  0.031774038            1 
  651000   0.97351719   -6.8113211    243.77762  0.031205533  0.031754887            4 
  652000    1.0090653   -6.8551484    243.35801   0.03110404  0.031735367            3 
  653000   0.96181769   -6.8302384    245.29772  0.031303946  0.031715721            3 
  654000   0.99396812   -6.8339466    244.84588  0.031198506  0.031696264            3 
  655000   0.98510419   -6.8539824    244.43989  0.031099223  0.031677073            2 
  656000    1.0083287   -6.8056665     245.4192  0.031176219  0.031657804            3 
  657000   0.99584283   -6.8452065    244.68771  0.031035986  0.031638601            1 
  658000   0.99002495   -6.8758881    245.48298  0.031089536  0.031619361            4 
  659000    1.0039101   -6.8967552    245.39308  0.031030992   0.03159984            3 
  660000   0.98886478   -6.8655317    245.97081   0.03105692  0.031580683            4 
  661000     1.003057   -6.8681277    245.88443  0.030999045   0.03156151            3 
  662000   0.98958724   -6.8701163    246.83891   0.03107237  0.031542289            3 
  663000    1.0081785   -6.8281884    246.84205  0.031025899   0.03152312            3 
  664000   0.98143371   -6.8300028    245.94023  0.030865992  0.031503923            3 
  665000   0.99870934   -6.8484859    247.16546  0.030973115  0.031484474            3 
  666000   0.98878908   -6.8771051    247.42917  0.030959606  0.031465503            3 
  667000    1.0141151    -6.842278      248.455  0.031041355  0.031446642            4 
  668000    1.0080757   -6.8630672    247.82424  0.030916198  0.031427441            2 
  669000   0.96935223   -6.8370682    247.84696  0.030872816  0.031408314            3 
  670000   0.99306241   -6.8447747    249.25955  0.031002431  0.031389239            3 
  671000   0.97761661   -6.8543732    248.95221  0.030918058  0.031370365            6 
  672000   0.99517442    -6.863066    248.62844  0.030831899  0.031351316            4 
  673000     0.986709    -6.879752     248.9058  0.030820431   0.03133207            2 
  674000   0.96656823    -6.884226    249.53652  0.030852685  0.031312861            4 
  675000    0.9830929   -6.8769294    248.86071  0.030723544  0.031293807            2 
  676000   0.97962447    -6.846122    249.94897   0.03081225  0.031274794            3 
  677000   0.99985777   -6.8386573     249.6534  0.030730355  0.031255964            6 
  678000   0.96434668   -6.8386598    249.80325  0.030703448  0.031237018            3 
  679000   0.96543358   -6.8318656     250.0809  0.030692305  0.031218123            6 
  680000   0.96983147    -6.882221    250.09155  0.030648475   0.03119859            5 
  681000   0.99544309   -6.8909779    250.24224  0.030621909  0.031179279            6 
  682000   0.98786094   -6.8858206    251.32748  0.030709614  0.031160051            2 
  683000   0.98171187   -6.8825643    250.75843  0.030595221  0.031140834            4 
  684000   0.98102182   -6.8788593    251.41403  0.030630364  0.031121474            3 
  685000    0.9939907   -6.8524059    251.52671  0.030599357  0.031101932            3 
  686000   0.98528394   -6.8705852    251.53278  0.030555489  0.031082602            6 
  687000   0.97457373   -6.8805785    251.17199  0.030467248  0.031063424            6 
  688000   0.99352577   -6.9061439    251.39224  0.030449642  0.031043891            3 
  689000   0.97298532   -6.8446072    252.64896  0.030557445  0.031024284            2 
  690000   0.97330064   -6.8551139    253.04179  0.030560603  0.031005256            3 
  691000   0.99110857   -6.8869046     253.2767  0.030544706  0.030986261            4 
  692000   0.97371802   -6.8749918    253.19461   0.03049068  0.030967379            3 
  693000   0.97498941   -6.8306133    253.12752  0.030438615  0.030948151            2 
  694000   0.97802731   -6.8609626     253.7682  0.030471686  0.030929215            3 
  695000   0.96204657   -6.8741213    254.23308  0.030483582  0.030910122            3 
  696000   0.95888056   -6.8513666    253.81478  0.030389701  0.030890832            2 
  697000   0.98033307   -6.8798825    253.77112  0.030340879  0.030871634            4 
  698000   0.95114481   -6.8257568    254.77588  0.030417369  0.030852347            3 
  699000   0.97543371   -6.8738419    253.88018  0.030267069  0.030832759            1 
  700000   0.96834541    -6.897702    254.34984  0.030279743  0.030812851            3 
  701000   0.97289305   -6.8994812    254.89325  0.030301147  0.030792839            3 
  702000    0.9779708   -6.8722526     254.4059  0.030200131  0.030772909            6 
  703000   0.96724309   -6.8946714     254.2965  0.030144203  0.030753093            4 
  704000   0.98989859   -6.8829766    255.89671  0.030290804  0.030733632            8 
  705000   0.97705779   -6.9033362    255.00495  0.030142429  0.030714406            4 
  706000   0.97931494    -6.895956    255.45799  0.030153209  0.030694832           10 
  707000   0.97028102   -6.8780356    255.19878  0.030080007  0.030674955            2 
  708000    0.9482388   -6.8608005    255.69555  0.030095992  0.030654792            2 
  709000    0.9657727   -6.8875533     256.1811  0.030110614  0.030634764            5 
  710000   0.96821734   -6.8688279    255.70731  0.030012595  0.030614605            5 
  711000   0.97662153   -6.8659063    255.61996  0.029960146    0.0305948            3 
  712000    0.9802665   -6.8637053    257.47641  0.030135347   0.03057491            4 
  713000   0.96714162   -6.8647396    257.35835  0.030079284  0.030555352            4 
  714000   0.97164805   -6.8654042     257.3098  0.030031489  0.030535389            6 
  715000   0.97260037   -6.8822843    256.51032  0.029896308  0.030515482            5 
  716000   0.96684198   -6.8812632    258.19143  0.030050212   0.03049543            4 
  717000   0.96749671   -6.9074317    257.62884  0.029942915  0.030475581            5 
  718000   0.97835327   -6.8968616    258.59653  0.030013525  0.030455952            7 
  719000   0.95390934   -6.8676662    258.42205  0.029951559  0.030436115           12 
  720000   0.94599157   -6.8826006    258.67159  0.029938842  0.030416682            4 
  721000   0.97528645   -6.8874642    258.58294  0.029887071  0.030397233            3 
  722000   0.97078739   -6.8962694    258.93371  0.029886162  0.030377822            3 
  723000   0.95399677   -6.8852833    259.63121   0.02992522  0.030358706            2 
  724000   0.95492488   -6.9250718    258.94919  0.029805385   0.03033927            4 
  725000   0.96728807   -6.9332216     259.8489   0.02986769  0.030319782            2 
  726000   0.98297434   -6.9098953    260.20107  0.029866973  0.030300256            3 
  727000   0.97278198   -6.9231245    259.34072  0.029727272  0.030280332            4 
  728000   0.97211328   -6.8925943    260.72416  0.029844798  0.030260712            3 
  729000   0.95110247   -6.8900841    260.18363   0.02974207  0.030240938            3 
  730000   0.97076621   -6.9208166    260.29331  0.029713849  0.030221537            7 
  731000   0.94832664   -6.8839104    260.71554  0.029721334  0.030202111            6 
  732000   0.96376541   -6.8840392    261.10902  0.029725526  0.030182714            3 
  733000   0.96878125   -6.9142302    261.41881  0.029720193   0.03016336            2 
  734000   0.97590176   -6.9220871     261.1034  0.029643891  0.030143871            1 
  735000   0.96055784   -6.9223102    262.33804  0.029743542  0.030124425            5 
  736000   0.97341466   -6.8720187    261.94486  0.029658611  0.030105229            2 
  737000   0.95843741   -6.9133002    262.97279  0.029734599  0.030085919            7 
  738000   0.93816529   -6.9186771    261.66135  0.029546223  0.030066481            5 
  739000   0.97021806    -6.876592    262.48371  0.029598975  0.030047043            5 
  740000   0.96092221   -6.9119825    262.85597  0.029600897  0.030027467            9 
  741000   0.96398333   -6.9239104    262.07437  0.029473052  0.030007954            4 
  742000   0.94329198   -6.9575796    262.91978  0.029528277  0.029988459            5 
  743000   0.95542069   -6.8947587    264.01575  0.029611457   0.02996926            4 
  744000     0.957416   -6.9242972    264.39757  0.029614423  0.029950348            2 
  745000   0.96559127   -6.9159822     263.8161  0.029509631  0.029931536            7 
  746000   0.94848779   -6.9279783     264.8219  0.029582428  0.029913063            4 
  747000   0.98765792   -6.9115386    264.09006  0.029461185  0.029894604            7 
  748000   0.94630344    -6.937234    265.25173  0.029551218  0.029876157            3 
  749000   0.97310524    -6.912726    265.16402  0.029502005  0.029857923            6 
  750000   0.97032157   -6.9265627    266.27827  0.029586474  0.029839603            9 
  751000   0.95504601   -6.9451559    265.90572  0.029505739  0.029821403            5 
  752000   0.95849094   -6.9541733     265.7208   0.02944601  0.029803159            5 
  753000   0.93912028   -6.9605438    266.56003  0.029499782  0.029785011            5 
  754000   0.93965326   -6.9297292    266.45814  0.029449397  0.029767046            5 
  755000   0.98456086   -6.9317565    266.95789  0.029465551  0.029748947            2 
  756000   0.94780508   -6.9228817    267.38251   0.02947338  0.029730912            5 
  757000   0.94202835   -6.9086607     267.8633  0.029487373  0.029712843            3 
  758000   0.94754585   -6.9014195    267.49694  0.029408194  0.029694805            3 
  759000   0.95523119   -6.9452059    266.83739  0.029297034   0.02967673            4 
  760000   0.96254741   -6.9623512     267.2049  0.029298783  0.029658378            7 
  761000   0.95447804   -6.9092087    267.67483  0.029311742  0.029639854            2 
  762000    0.9661814   -6.9465179     267.7711  0.029283804   0.02962134            5 
  763000   0.94851019    -6.931357    267.45199  0.029210571  0.029602619            5 
  764000   0.96289244   -6.9399789    268.02093  0.029234394  0.029583987            3 
  765000   0.94786992   -6.9220441    267.67463  0.029158457  0.029565127            4 
  766000   0.95422652   -6.9128329    268.81757  0.029244731  0.029546452            3 
  767000   0.95892798   -6.9324232    268.14985  0.029134056  0.029527589            3 
  768000   0.95444866   -6.9317512    268.35328  0.029118195  0.029508711            4 
  769000   0.93225833   -6.9202862    268.36588  0.029081695  0.029489678            3 
  770000   0.95206787   -6.9567764     269.6492  0.029182814  0.029470861            4 
  771000   0.96525502   -6.9464268     268.9491  0.029069293  0.029451674            2 
  772000   0.95831504   -6.9198601    269.96601  0.029141408  0.029432633            5 
  773000   0.94944133   -6.9218001    269.38378  0.029040942  0.029413583            4 
  774000   0.95275199   -6.9450445    268.77639  0.028938027  0.029394689           10 
  775000   0.93901053    -6.967551    269.36157   0.02896361  0.029375816            3 
  776000    0.9330398   -6.9476288    269.78127  0.028971357   0.02935682            6 
  777000   0.93976344   -6.9419159    270.40337  0.029000791  0.029338319            5 
  778000   0.95382025   -6.8907199     271.2717  0.029056523  0.029319746            3 
  779000   0.95653231   -6.9716245    270.11532  0.028895519  0.029300926            7 
  780000   0.92451407   -6.9559874    271.02633  0.028955805  0.029281991            3 
  781000   0.95013537   -6.9323613    270.69147  0.028882999  0.029263231            9 
  782000   0.93491684   -6.9413872    270.93721  0.028872252  0.029244336            4 
  783000    0.9238441   -6.9436512    270.70916  0.028811107  0.029225119            6 
  784000   0.93234758   -6.9893408    270.58983  0.028761674   0.02920586            6 
  785000   0.93813367    -6.958514    270.16239   0.02867966  0.029186484            4 
  786000   0.93333965   -6.9485144    270.56335  0.028685681     0.029167            3 
  787000   0.94170014   -6.9683164    271.36746  0.028734377   0.02914752           10 
  788000   0.95183358    -6.939593    270.98082  0.028657024  0.029128236            4 
  789000   0.92139215   -6.9430884    271.67432   0.02869395  0.029108757            3 
  790000   0.92951012    -6.954474    271.47774  0.028636892  0.029089212            4 
  791000   0.92192835   -6.9090346    271.49314  0.028602312  0.029069786            4 
  792000   0.93272502   -6.9226597    272.70625   0.02869384  0.029050262            5 
  793000   0.93936746    -6.958136    272.52653   0.02863877  0.029030895            6 
  794000   0.92873819   -6.9568425    272.78108  0.028629416  0.029011708            6 
  795000    0.9313837   -7.0075395    272.32724  0.028545832  0.028992265            8 
  796000   0.93990193   -6.9893487    272.33597  0.028510885  0.028972875            2 
  797000   0.93906238   -6.9277787    273.19943  0.028565394  0.028953676            5 
  798000   0.93177882   -6.9523622    272.71452  0.028478959  0.028934299            4 
  799000   0.93463031   -6.9596808    273.40393   0.02851522    0.0289149            3 
  800000   0.95002059   -6.9755647    273.64353  0.028504534  0.028895842            3 
  801000   0.92686706   -6.9307339    273.98125  0.028504084  0.028876568            3 
  802000   0.92495021   -6.9514293    273.10966  0.028377978  0.028857319            5 
  803000   0.94361157   -6.9574681    274.34906   0.02847126  0.028838009            3 
  804000   0.91119898   -6.9448231    274.28285  0.028428985  0.028818783            6 
  805000   0.93619352   -6.9804285    274.21023  0.028386152   0.02879961            2 
  806000   0.93264625   -6.9725196    274.40873  0.028371457  0.028780359            4 
  807000   0.94304226   -6.9649734    274.86294  0.028383203  0.028760961            5 
  808000   0.93019305   -6.9382777    274.64418  0.028325514  0.028741655            5 
  809000   0.91990827   -6.9987226    274.75509  0.028301925  0.028722328            8 
  810000    0.9135846    -6.981458    274.85687  0.028277456  0.028702704            7 
  811000   0.92431539    -6.973582     274.8242  0.028239231  0.028683028            4 
  812000   0.94001851   -6.9522485    275.07902  0.028230606  0.028663562            5 
  813000   0.93948044    -6.942404    275.68183   0.02825767  0.028644156            5 
  814000   0.94649858   -6.9960389    275.11658  0.028165088  0.028624691            3 
  815000   0.93768038   -6.9824354    276.71852  0.028294327  0.028605246            4 
  816000   0.92893568    -6.966641    275.97722  0.028183948  0.028586198            5 
  817000   0.93442591   -6.9507265    275.95827  0.028147518  0.028567024            3 
  818000   0.92932385   -6.9514504    276.69562  0.028188225   0.02854796            3 
  819000   0.93152382   -6.9809758    276.42981  0.028126761  0.028528705            3 
  820000   0.92689377   -6.9686257    277.06758  0.028157275  0.028509313            7 
  821000   0.92725101   -6.9686508    276.38062   0.02805325  0.028489879            7 
  822000   0.91901901    -6.991922    276.25632   0.02800652  0.028470411            5 
  823000   0.92374849   -6.9782986    277.94769  0.028143752  0.028451174            3 
  824000    0.9330052   -6.9799911    277.18625   0.02803259    0.0284321            6 
  825000   0.91716529   -6.9665583    278.18204  0.028099196  0.028413048            2 
  826000   0.92002809   -7.0011032    277.31435  0.027977639  0.028393786            2 
  827000   0.90846739   -6.9797819     277.8475  0.027997532  0.028374459            5 
  828000   0.92621737   -6.9679439    278.83598  0.028063203  0.028355109            4 
  829000   0.92975376   -6.9806228    278.23885  0.027969326  0.028335792            5 
  830000   0.90189551   -6.9789409    278.47002  0.027958837  0.028316523            5 
  831000   0.91825838   -6.9937347    278.39727  0.027917897  0.028297394            5 
  832000   0.92809915   -6.9612349    280.13578  0.028058472  0.028278407            3 
  833000   0.91217177    -7.008301    278.95614  0.027906777  0.028259669            2 
  834000   0.91066162   -6.9763137    278.93473  0.027871176  0.028240609            8 
  835000   0.88574974   -6.9644429    279.10804  0.027855093  0.028221614            4 
  836000   0.91117891   -6.9823041    280.25085   0.02793569  0.028202633            4 
  837000   0.91218174   -7.0141928    279.76748  0.027854189  0.028183778            3 
  838000   0.91427019   -6.9777306    279.98875  0.027842954  0.028165012            4 
  839000   0.92572938    -6.992572    279.86951  0.027797925  0.028146253            4 
  840000   0.93458007   -6.9929852    280.67837  0.027845076  0.028127534            4 
  841000   0.92303598   -6.9894441    280.17357  0.027761947  0.028108864            4 
  842000   0.91631736   -7.0028996    280.18336  0.027729945  0.028090169            4 
  843000   0.90954164   -7.0230567    280.34876  0.027713401  0.028071157            3 
  844000   0.93261982   -7.0055527    281.07852  0.027752618  0.028052351            8 
  845000   0.89493474   -6.9817574    281.58602  0.027769824  0.028033736            4 
  846000   0.90684428   -6.9853558     282.1863  0.027796129   0.02801502            2 
  847000   0.90035946   -7.0346196    281.62208    0.0277078  0.027996189            7 
  848000   0.92750962   -6.9827201    282.49915  0.027761316  0.027977544            8 
  849000   0.93073342   -6.9807751    282.57065  0.027735635  0.027958953            4 
  850000    0.9019037   -7.0045383    282.29226  0.027675712  0.027940399            6 
  851000   0.92641415    -7.008761    282.55614  0.027669031  0.027921981            5 
  852000   0.90985642   -7.0200374    282.72081  0.027652662  0.027903352            5 
  853000   0.91201231   -6.9921361    282.69459  0.027617682  0.027884746            2 
  854000   0.91329886   -7.0289959    283.49877  0.027663815  0.027866368            5 
  855000   0.91690331    -7.022318    282.58916  0.027542803  0.027847645            4 
  856000   0.89178424   -7.0339941    282.38034  0.027490298  0.027828899            4 
  857000   0.91017397   -6.9882318    283.92934  0.027608843  0.027810492            7 
  858000   0.92244686   -7.0097209    283.45917     0.027531  0.027792026            4 
  859000   0.93625273     -7.02518    282.86924  0.027441719   0.02777343            5 
  860000   0.93245731   -6.9943907    283.45579  0.027466646  0.027754746            4 
  861000   0.91875064   -7.0116474    283.88986  0.027476758  0.027735996            2 
  862000   0.92250414   -7.0380703    282.98468  0.027357374  0.027717106            6 
  863000   0.89450946   -6.9923307    283.96742   0.02742057  0.027698183            4 
  864000   0.91379978   -7.0548434    283.98703  0.027390724  0.027679262            6 
  865000   0.90189808   -7.0191716    284.21455  0.027380978  0.027660394            3 
  866000   0.91168392   -6.9762666    285.08852   0.02743346  0.027641467            6 
  867000   0.90896374   -6.9939254    285.10861   0.02740375  0.027622614            7 
  868000   0.91782519   -7.0059476    284.29299  0.027293874  0.027603596            8 
  869000   0.89221684   -7.0252094    284.11736  0.027245623  0.027584699            5 
  870000   0.92553505   -7.0200767    285.45291  0.027342233  0.027565778            7 
  871000   0.89508508   -7.0161313    285.02488  0.027269889  0.027546845            4 
  872000   0.92282953    -7.055795    284.40253  0.027179141  0.027527936            5 
  873000   0.89895352   -7.0166162    284.85633  0.027191326   0.02750905            5 
  874000   0.91243034   -7.0258647    285.22434  0.027195303  0.027490361            2 
  875000   0.91027236    -7.007118     285.2662   0.02716821   0.02747152            4 
  876000   0.92538815   -7.0381877    285.55173  0.027164358  0.027452763            7 
  877000    0.8767613   -7.0013124    285.99409  0.027175417  0.027433929            2 
  878000   0.88725789   -7.0335628     286.1332  0.027157669  0.027415227            3 
  879000    0.8958663   -7.0387586    285.73444  0.027088968  0.027396544            4 
  880000   0.90683262   -7.0434143    286.04007  0.027087128  0.027377799            4 
  881000   0.92292239   -6.9944175    286.13238  0.027065114  0.027359096            3 
  882000   0.90627825    -7.022846    287.09033  0.027124937  0.027340626            9 
  883000   0.90621735   -7.0419701    286.55301  0.027043508  0.027321945            3 
  884000   0.89826688   -7.0120481    286.66564  0.027023533  0.027303259            4 
  885000   0.89254455     -7.01934    287.24375  0.027047434  0.027284614            9 
  886000    0.8891608   -7.0073959    287.29145  0.027021393  0.027265998            6 
  887000   0.92033684   -7.0438664    287.51064  0.027011522  0.027247692            4 
  888000   0.89636687   -7.0142942    288.00755  0.027027736  0.027229406            4 
  889000   0.89996826   -7.0168977    288.01957   0.02699846  0.027211054            8 
  890000   0.93348379   -7.0204464    288.41743  0.027005378    0.0271927            5 
  891000   0.88441067   -7.0397539    287.05957  0.026848071  0.027174037            3 
  892000    0.9113302   -7.0363173    287.68449  0.026876354  0.027155467           12 
  893000    0.9125979    -7.054226    288.82749   0.02695292   0.02713704            4 
  894000   0.89084437   -7.0212705    288.72547  0.026913262  0.027118831            3 
  895000   0.88952565   -7.0623972     288.0729   0.02682243  0.027100348            9 
  896000   0.90682098   -7.0485015     287.9428  0.026780394  0.027081766            6 
  897000   0.87904437   -7.0286804       289.64  0.026908213  0.027063295            3 
  898000   0.91438056   -7.0273547    289.16641    0.0268343  0.027044867            2 
  899000   0.89724815     -7.03062    289.06177  0.026794751  0.027026296            5 
  900000   0.89474374    -7.035126    289.26433  0.026783734  0.027007844            3 
  901000   0.88970681   -7.0547301    289.59291  0.026784398  0.026989305            4 
  902000   0.89622576    -7.058178    289.56925  0.026752518  0.026970928            3 
  903000   0.90655369   -7.0681877    289.93509  0.026756653  0.026952677            8 
  904000   0.89707305    -7.018561    290.08191  0.026740589  0.026934535            6 
  905000   0.89658427   -7.0517822    289.50645  0.026658052  0.026916335            4 
  906000   0.89040145   -7.0902288    290.13263  0.026686224  0.026898063            4 
  907000   0.89033025   -7.0325382    291.19264  0.026754193  0.026879797            6 
  908000   0.88800298   -7.0511839    290.41228  0.026653109  0.026861547            8 
  909000   0.89021949   -7.0612467    289.86583  0.026573692  0.026843294            4 
  910000   0.88740025   -7.1074353    290.70529  0.026621364   0.02682502            5 
  911000   0.88840258   -7.0744366    290.35817  0.026560389  0.026806603            8 
  912000   0.88587636   -7.0689601     290.7949  0.026571171  0.026788042            3 
  913000   0.90385514   -7.0477239    290.72546   0.02653573  0.026769315            3 
  914000   0.87031242   -7.0784896    291.38814  0.026567117  0.026750676            9 
  915000   0.89083656   -7.0632242    291.51978  0.026550071  0.026732255            2 
  916000   0.88293637   -7.0427297    292.13695  0.026577234  0.026714034            5 
  917000   0.87600091   -7.0251232    292.15163  0.026549584  0.026695716            2 
  918000   0.87734187   -7.0461827    291.02617  0.026418498  0.026677519            3 
  919000   0.88412771   -7.0440913    291.21808  0.026407153  0.026659016            3 
  920000   0.89168855   -7.0460908    291.82724  0.026433627  0.026640731            6 
  921000   0.87897127   -7.0280203     292.4057  0.026457266  0.026622366            7 
  922000   0.88504111   -7.0587045     292.0097  0.026392778  0.026604115            3 
  923000     0.888946   -7.0511363    292.97842  0.026451645  0.026585744            2 
  924000   0.88291759   -7.0480965    292.55041  0.026384417  0.026567399            6 
  925000    0.8935116   -7.0749537    292.56262  0.026356993  0.026549174            3 
  926000   0.88367919   -7.0568387    293.79671  0.026439588  0.026531046            3 
  927000   0.88751265   -7.0951219     293.7178  0.026403973  0.026512972            9 
  928000   0.87095834   -7.0807905    293.26458  0.026334823  0.026494951            5 
  929000   0.87866862   -7.0554627    293.68612  0.026344288  0.026477187            6 
  930000   0.86654168    -7.068723    293.74654  0.026321375  0.026459347           16 
  931000   0.88325485   -7.0571386    294.12651  0.026327113  0.026441442            6 
  932000   0.87174691   -7.1044542    294.20109  0.026305534  0.026423614            4 
  933000   0.90313221   -7.0533275    294.54371  0.026307941  0.026405911            3 
  934000   0.88256227   -7.0616034    294.76948  0.026299917  0.026387975            7 
  935000   0.89511126   -7.0681286    295.11307  0.026302413  0.026370097            6 
  936000   0.90566118   -7.0449738    295.46312  0.026305477  0.026352378            3 
  937000   0.88771677   -7.0634984    294.85776  0.026223565  0.026334817            6 
  938000    0.8721543   -7.0742227    295.60051  0.026261595  0.026317226            3 
  939000    0.8756081   -7.0680791    295.17371   0.02619575  0.026299454            6 
  940000   0.89137483   -7.1120325    294.74146  0.026129562   0.02628163            3 
  941000   0.87917488   -7.0730629     295.1464  0.026137655  0.026263657            8 
  942000   0.87592853   -7.0622568     295.5513  0.026145727  0.026245727            7 
  943000   0.86663808   -7.0716072    295.23589  0.026090128  0.026227975            3 
  944000   0.87469283    -7.053063    295.83132  0.026115053  0.026210256            6 
  945000   0.89275571   -7.0535066    296.38586  0.026136319  0.026192493            8 
  946000   0.85381403   -7.0772108    295.50844  0.026031399  0.026174808            3 
  947000   0.89098305   -7.0805038    296.13077  0.026058674  0.026156853            4 
  948000   0.89215976   -7.0583647    296.57753  0.026070458  0.026139012            3 
  949000   0.86716838   -7.0632319    296.36058  0.026023936    0.0261213           11 
  950000    0.8664382   -7.0866937    296.80916  0.026035891  0.026103632            4 
  951000   0.88257065   -7.0523911    296.76062   0.02600426  0.026086093            3 
  952000   0.87101491   -7.0921921    296.80972  0.025981243  0.026068491            3 
  953000   0.87457897   -7.0729318     296.2418   0.02590432  0.026050951            2 
  954000   0.88400491   -7.0956716    297.17721  0.025958876  0.026033213            3 
  955000   0.86390377   -7.0946516    297.74079  0.025980872  0.026015555            3 
  956000   0.88262376   -7.0766272    297.67831  0.025948249  0.025998062            3 
  957000   0.85770616   -7.0743073    298.07827  0.025955963  0.025980557            4 
  958000   0.86030285   -7.1038469    297.60734  0.025887904  0.025962742            6 
  959000   0.87691504    -7.079449    297.96462  0.025891955   0.02594492            5 
  960000   0.87557095   -7.0850195    297.76535  0.025847687  0.025927202           10 
  961000   0.85758054   -7.0848651    297.67433  0.025812897  0.025909472            7 
  962000   0.87356347   -7.0883103    297.29335  0.025753062  0.025891601            4 
  963000   0.86161107   -7.1105374    297.59294  0.025752245  0.025873516            3 
  964000   0.87955598   -7.0734137    298.36849  0.025792573  0.025855705            4 
  965000    0.8573177   -7.0415383    298.93776  0.025815005   0.02583797            5 
  966000   0.89040638   -7.0907365    298.61039  0.025760041  0.025820303            7 
  967000   0.86467578   -7.0887404      298.462  0.025720613  0.025802623            6 
  968000   0.84685902   -7.1073768    299.03875  0.025743694  0.025785019            4 
  969000   0.88120687   -7.1141192    299.12932  0.025724916  0.025767546            4 
  970000   0.87005287   -7.0815004    300.36406  0.025804472  0.025750297            7 
  971000   0.88063509    -7.114925    300.08958  0.025754341  0.025733037            3 
  972000   0.87888614   -7.0702502    299.73265  0.025697244  0.025715928            5 
  973000   0.86483602    -7.120527    300.58424  0.025743768  0.025698886           10 
  974000    0.8709028   -7.1186613    300.19555  0.025684082   0.02568168            5 
  975000   0.86666641   -7.1175626    299.31819  0.025582751   0.02566435            8 
  976000   0.87164856   -7.1073673     300.6665  0.025671662  0.025647009            5 
  977000   0.85603778   -7.1036762    299.82152  0.025573313  0.025629737            5 
  978000   0.84295497   -7.1048341    299.73571  0.025539853  0.025612383            5 
  979000   0.86320013   -7.1093268    300.31747  0.025563285  0.025595171            7 
  980000   0.88221421    -7.067993    300.00614  0.025510726  0.025577885            5 
  981000   0.86585766   -7.1125742    300.99524  0.025568743  0.025560592            4 
  982000   0.84867258   -7.0976189    301.52756  0.025587879  0.025543481            3 
  983000   0.85769805   -7.1050456    301.56968  0.025565419  0.025526375            4 
  984000   0.86256659    -7.120426     301.0006  0.025491244  0.025509146            7 
  985000    0.8579867   -7.0856144    300.68061  0.025438292  0.025491905            9 
  986000   0.85840237    -7.114428    301.09545  0.025447554  0.025474611            7 
  987000   0.85797649   -7.1388117    300.93468  0.025408197  0.025457159            5 
  988000   0.87569317   -7.1290242    301.41083  0.025422641   0.02543988            5 
  989000   0.84438861   -7.1086093    301.81719  0.025431176  0.025422696            8 
  990000   0.85719653   -7.1180959    302.17827  0.025435881  0.025405614            9 
  991000   0.84355748    -7.126178    301.43032  0.025347319  0.025388365           10 
  992000   0.86605538   -7.1201753    301.05781  0.025290475  0.025370964            3 
  993000   0.84736912   -7.1135626    301.64599  0.025314366  0.025353636            8 
  994000   0.85458381   -7.1331133    302.46373  0.025357456  0.025336361           11 
  995000   0.84045725   -7.1657079    302.03661  0.025296198  0.025319207            4 
  996000   0.84808107   -7.1227061    301.91939  0.025260993  0.025301908            6 
  997000   0.86626627   -7.1340068    302.87354  0.025315408  0.025284503            3 
  998000   0.86130838   -7.1202562    302.63183  0.025269859  0.025267252            5 
  999000   0.84769461   -7.1470869    302.30725  0.025217488  0.025249939            5 
 1000000   0.85881503   -7.1105121    302.78959  0.025232466  0.025232682            8 
 1001000   0.85978882   -7.1352534    302.83943  0.025211408   0.02521531            5 
 1002000   0.86653044   -7.1289751    302.32067  0.025143103  0.025197857            5 
 1003000   0.86577094   -7.1181853    303.23018  0.025193601  0.025180561            5 
 1004000   0.85939138   -7.1171384    302.41132  0.025100541  0.025163251            4 
 1005000   0.86070494   -7.1245792    303.07492   0.02513059  0.025146001            7 
 1006000   0.85370064   -7.1377712    302.72544   0.02507666  0.025128686            8 
 1007000    0.8438934   -7.1690219    303.56933  0.025121593  0.025111427            6 
 1008000   0.84196509   -7.1392757    303.08926  0.025056983  0.025094178            4 
 1009000   0.85398028   -7.1511541    303.08364  0.025031685  0.025076984            4 
 1010000   0.86077697    -7.162904    303.60269  0.025049727  0.025059739            7 
 1011000   0.83891955   -7.1497739    303.05147  0.024979514  0.025042391           15 
 1012000   0.84890771   -7.1209227    303.52683  0.024993975  0.025024996            5 
 1013000   0.87405986   -7.1154888    303.33821  0.024953785  0.025007556            2 
 1014000   0.84626562   -7.1551416     303.9386  0.024978518  0.024990166            6 
 1015000   0.84007706   -7.1309495    304.64481  0.025011889  0.024972837            5 
 1016000   0.83962285   -7.1335443     304.1726   0.02494854  0.024955603            3 
 1017000   0.86646954   -7.1185152    304.83506   0.02497829  0.024938495            7 
 1018000   0.83810172   -7.1241039    304.39785  0.024917964  0.024921327            4 
 1019000     0.855436   -7.1553992    304.47338  0.024899688  0.024904044            4 
 1020000   0.84423883   -7.1217049    305.00896  0.024919033  0.024886843            4 
 1021000   0.84372772     -7.15733     304.3579  0.024841487  0.024869722            3 
 1022000   0.85222152   -7.1362242    304.49346  0.024828234  0.024852508            5 
 1023000   0.85128908   -7.1160986    305.28738  0.024868636  0.024835375            5 
 1024000   0.84919364   -7.1456936     305.3603  0.024850285   0.02481826            5 
 1025000   0.84787711   -7.1526202    304.80841  0.024781172  0.024801107            6 
 1026000   0.83890587   -7.1334691    304.44547  0.024727539  0.024783804            7 
 1027000   0.85481281   -7.1539547    305.00395  0.024748779  0.024766436            3 
 1028000   0.86469584   -7.1491065    304.80164  0.024708304  0.024749016            6 
 1029000   0.81596218   -7.1551602    305.70156  0.024757172  0.024731535            4 
 1030000   0.82169755   -7.1244206    305.17213  0.024690302  0.024714195            6 
 1031000   0.86380178   -7.1619937    305.76894  0.024714593  0.024696844            6 
 1032000   0.85281216   -7.1550975    306.17495   0.02472343  0.024679416            6 
 1033000   0.84927566   -7.1577464    304.74576  0.024584201  0.024661949            4 
 1034000   0.81620385   -7.1647232    305.66299  0.024634348  0.024644563            4 
 1035000   0.84225147   -7.1633018    306.61357  0.024687083  0.024627141            4 
 1036000   0.83626741   -7.1656951    305.69595  0.024589443  0.024609712            4 
 1037000   0.84466725   -7.1234442    306.77186   0.02465219  0.024592324            3 
 1038000   0.83336598   -7.1373133    306.58869  0.024613736  0.024574985            3 
 1039000   0.85296382   -7.1679032    306.05809  0.024547489  0.024557654            7 
 1040000   0.85856558   -7.1655456    306.47651  0.024557413  0.024540333            6 
 1041000   0.82488622    -7.180309     306.1628   0.02450871  0.024523009            2 
 1042000   0.82708274   -7.1561447    306.74396  0.024531666  0.024505847            6 
 1043000    0.8442425   -7.1720446    305.67152  0.024422461  0.024488662            6 
 1044000   0.83010937   -7.1517796    307.13518  0.024515899  0.024471492            9 
 1045000   0.83887297   -7.1599211    306.80244  0.024465905  0.024454244           11 
 1046000   0.82761725   -7.1640988    307.33489  0.024484934  0.024437167            7 
 1047000   0.84111451    -7.163379    307.54646  0.024478387  0.024420141            5 
 1048000   0.85053002   -7.1467107    307.00398  0.024411894   0.02440304            9 
 1049000   0.83920919   -7.1745499    307.53174  0.024430548  0.024385932            6 
 1050000   0.82050656   -7.1657785    307.36147  0.024393767  0.024368868            6 
 1051000   0.81949279   -7.1668579    307.49463  0.024381115  0.024351867            6 
 1052000   0.82900517   -7.1733994    307.64813  0.024370099  0.024334861            4 
 1053000   0.82896275   -7.1705958    307.53468  0.024337977  0.024317607            5 
 1054000   0.84327627   -7.1792156    307.55994  0.024316883  0.024300278            8 
 1055000   0.84519826   -7.1763606     307.0644  0.024254692  0.024282985            5 
 1056000   0.83160005   -7.1656568    307.28622  0.024249229  0.024265627            2 
 1057000   0.84019138   -7.1824903     307.0645  0.024208807  0.024248265            5 
 1058000   0.83833296   -7.1785171    307.39876  0.024212253  0.024230936            5 
 1059000   0.81886132   -7.1683979    307.79598  0.024220647  0.024213631           12 
 1060000   0.82361268   -7.1794496    308.44819  0.024249071  0.024196506            8 
 1061000   0.82295093   -7.1897852    307.83594  0.024178129  0.024179417            3 
 1062000   0.84412007   -7.1614785    307.73084  0.024147116  0.024162269            3 
 1063000   0.81788337   -7.2214166    307.91134  0.024138549  0.024145133            4 
 1064000   0.82674023   -7.1934825     308.2104  0.024139286  0.024128058            6 
 1065000   0.82867726   -7.1743304    308.61083  0.024147952  0.024111012            4 
 1066000   0.83666171   -7.1609176    308.04048  0.024080713   0.02409392            4 
 1067000   0.82511562   -7.2114339    308.45192  0.024090278  0.024076876           15 
 1068000   0.83439394   -7.1674512    309.61926  0.024158806  0.024059866            5 
 1069000   0.80155478    -7.171215    309.27546  0.024109406  0.024042882            7 
 1070000   0.82484469   -7.2051721    308.71515  0.024043236  0.024025836            5 
 1071000   0.83669069    -7.195049    308.61802  0.024013229  0.024008673            9 
 1072000   0.82358966   -7.1903943    309.13142  0.024030739  0.023991535            4 
 1073000   0.82134916   -7.1886254    308.90642  0.023990869  0.023974399            9 
 1074000   0.81605925   -7.2095767     309.4237  0.024008667  0.023957317            5 
 1075000   0.83009711    -7.177377    310.05434   0.02403522  0.023940327            3 
 1076000   0.82093825   -7.1858511    309.78991  0.023992403  0.023923386            9 
 1077000   0.81990898   -7.2131346    309.72827  0.023965357  0.023906388            7 
 1078000   0.81634098     -7.19968    309.37123  0.023915525  0.023889387            6 
 1079000   0.82573798    -7.150802    309.58522  0.023909887   0.02387233            2 
 1080000   0.83330714    -7.192252    309.26431  0.023862987  0.023855327            4 
 1081000   0.81697147   -7.2168398     308.4751  0.023780072  0.023838121            6 
 1082000   0.81581268   -7.2065304    309.89815  0.023867695  0.023820863            7 
 1083000   0.82987488   -7.2046892    309.21852  0.023793361  0.023803584            4 
 1084000   0.81807834   -7.1961288    309.86399  0.023821032  0.023786331            5 
 1085000   0.82343942   -7.1879804    309.70126  0.023786579  0.023769047            5 
 1086000    0.8155741   -7.1841896    309.96355  0.023784803  0.023751869            5 
 1087000   0.81964048   -7.1988746    309.64221  0.023738287   0.02373466            6 
 1088000   0.80584363    -7.186976    309.70862  0.023721555  0.023717458            5 
 1089000   0.81261329    -7.189605    310.07106  0.023727507   0.02370041            6 
 1090000   0.81285278   -7.1956085    310.03475  0.023702963  0.023683399            7 
 1091000   0.81074186   -7.1716254    309.67735  0.023653937  0.023666294            5 
 1092000   0.82514325   -7.2170027    310.13654  0.023667318  0.023649151            4 
 1093000   0.80301989   -7.2248206    309.79504  0.023619628  0.023631924            4 
 1094000   0.80754058   -7.1915896    310.32507  0.023638412  0.023614809            8 
 1095000    0.8105296    -7.227228    310.10196  0.023599845  0.023597626            6 
 1096000   0.82269571   -7.2252221    310.27441  0.023591424  0.023580398            7 
 1097000   0.81970398   -7.2310665    309.86686  0.023538959  0.023563163            8 
 1098000   0.81995409   -7.2142629    310.88141  0.023594521  0.023545865            7 
 1099000   0.82043159   -7.2299515    310.30857  0.023529615  0.023528646            5 
 1100000   0.81827371   -7.2183524    310.56904  0.023527958  0.023511577            3 
 1101000   0.81255608   -7.2138913    311.47926  0.023575481  0.023494503            4 
 1102000   0.82741918   -7.2302576    310.80187  0.023502864  0.023477387            5 
 1103000   0.83514311   -7.2159601    311.29261  0.023518632  0.023460286           10 
 1104000   0.80260976   -7.2148259    311.13799  0.023485657  0.023443237            9 
 1105000   0.78313619   -7.2339075     311.3378  0.023479472  0.023426132            6 
 1106000   0.81099109   -7.2010301    312.00217  0.023508301  0.023408975            5 
 1107000    0.8135138   -7.2176468    311.04176  0.023414766  0.023391736           15 
 1108000    0.7991856   -7.1922732    311.11289  0.023398984  0.023374606            3 
 1109000    0.8154632   -7.2236178    311.59039  0.023413766  0.023357454            3 
 1110000   0.80465526     -7.22637    310.13204  0.023283186  0.023340201            9 
 1111000   0.79880561   -7.2154306    311.06877  0.023332491  0.023323046            8 
 1112000   0.80892474   -7.2501232    312.19712  0.023396067  0.023305916            3 
 1113000   0.79141431   -7.2379208    311.89791  0.023352643  0.023288875            6 
 1114000    0.8055215     -7.21515    312.28195  0.023360409   0.02327196            5 
 1115000   0.81325051   -7.2180149    312.38861   0.02334743  0.023255058            3 
 1116000   0.81607235   -7.2469092    312.16452  0.023309776  0.023238214            3 
 1117000   0.81434772   -7.2150189    312.81711  0.023337594  0.023221295            6 
 1118000   0.81279647   -7.2054029    313.03097   0.02333266  0.023204518            7 
 1119000   0.81779581   -7.2233727    312.67612  0.023285383  0.023187686            9 
 1120000   0.78997862   -7.2340532    312.92567   0.02328316  0.023170884            7 
 1121000   0.81353082   -7.2030181    313.05786  0.023272217   0.02315402            6 
 1122000   0.80913923    -7.223435     313.0933  0.023254107   0.02313732            5 
 1123000   0.81406183   -7.2214204    313.55782   0.02326787  0.023120604            6 
 1124000   0.81278831   -7.2173318    313.06525  0.023210651  0.023103925           11 
 1125000   0.82249815   -7.2340181    313.60423  0.023229943  0.023087317            8 
 1126000   0.80046764   -7.2289804    313.30509  0.023187174  0.023070707            5 
 1127000   0.81235561   -7.2339334    313.62305   0.02319011  0.023054031            3 
 1128000   0.79368502   -7.2350079    313.35665   0.02314987  0.023037453            9 
 1129000   0.79817569   -7.2171067    313.38884  0.023131742  0.023020933            4 
 1130000   0.79086373    -7.221816    314.35628  0.023182616  0.023004411            4 
 1131000   0.79731602   -7.2124376    314.27119  0.023155849   0.02298793            9 
 1132000   0.80175056   -7.2335529    314.22622  0.023132083  0.022971464           11 
 1133000   0.79728017   -7.2129314    314.62708   0.02314115   0.02295502            8 
 1134000   0.79644555   -7.2300417    314.12398  0.023083773  0.022938446            3 
 1135000   0.78743153   -7.2556499    314.24477  0.023072303  0.022921881            7 
 1136000   0.79718825   -7.2376504    314.54877  0.023074294  0.022905379           13 
 1137000   0.80338922   -7.2309819    313.88003  0.023004986  0.022888868           11 
 1138000   0.78639923   -7.2306358    314.10337  0.023001126  0.022872349            8 
 1139000   0.79328885    -7.240831    313.99525  0.022973021  0.022855831            7 
 1140000   0.80574075   -7.2678151     313.4427  0.022912478   0.02283924            7 
 1141000   0.78702377   -7.2149764    314.65142  0.022980677  0.022822632            4 
 1142000   0.81314786   -7.2575687    314.20532     0.022928   0.02280608            3 
 1143000   0.78905947   -7.2594834    314.35148  0.022918597  0.022789519            6 
 1144000   0.79803913   -7.2754913    314.39154  0.022901482  0.022772981            6 
 1145000   0.81359978    -7.263574    314.71798  0.022905239  0.022756607           10 
 1146000   0.79350997     -7.22503    315.33644  0.022930224  0.022740207            5 
 1147000   0.80505558   -7.2394944    316.00621  0.022958893  0.022723824            3 
 1148000   0.82074332   -7.2702659    314.30791  0.022815615  0.022707381            6 
 1149000   0.79569477   -7.2511385    314.78755  0.022830545  0.022690937            6 
 1150000   0.79648402   -7.2656307    315.65586  0.022873613  0.022674351           21 
 1151000   0.78724356   -7.2520514    315.17031  0.022818586  0.022657967           11 
 1152000     0.790601   -7.2783006    314.93717  0.022781913  0.022641559            9 
 1153000   0.80428531   -7.2275184    315.59664  0.022809818  0.022625255            4 
 1154000   0.80235315   -7.2343359    315.75685  0.022801621  0.022609028            3 
 1155000   0.80299476   -7.2432782    315.88442  0.022791084  0.022592712            9 
 1156000   0.78024212   -7.2206977    316.31461   0.02280238  0.022576455           13 
 1157000   0.79909902   -7.2389276    316.02149  0.022761559  0.022560279           11 
 1158000   0.79136184   -7.2683611    316.84735  0.022801335  0.022544041            4 
 1159000   0.81449671   -7.2330789     316.1724  0.022733132  0.022527859           10 
 1160000   0.77844325   -7.2637778    316.39385  0.022729443  0.022511723            2 
 1161000   0.79466735   -7.2737844    317.22115  0.022769247  0.022495564            6 
 1162000   0.77863956   -7.2322715    317.09463  0.022740578  0.022479478            4 
 1163000   0.77624699    -7.251224    317.09835  0.022721292   0.02246348            7 
 1164000   0.78212222     -7.27634    316.25376  0.022641306  0.022447325           14 
 1165000    0.7876259   -7.2664093    316.00862  0.022604336  0.022431223            3 
 1166000   0.78631181   -7.2499856    316.98523  0.022654747  0.022415037            4 
 1167000    0.7778582   -7.2607323    316.18162  0.022577951   0.02239887            6 
 1168000   0.80523758    -7.237385    317.04606  0.022620296  0.022382779            4 
 1169000   0.78505965   -7.2831148    317.30382   0.02261932  0.022366713            6 
 1170000   0.77854081   -7.2348466        317.5   0.02261396  0.022350635            5 
 1171000   0.78283665   -7.2464186    317.79365  0.022615546  0.022334687            5 
 1172000   0.81355099   -7.2781436    317.79626  0.022596435   0.02231872            8 
 1173000   0.79021001   -7.2824667    317.99994  0.022591641  0.022302807            7 
 1174000   0.78838539   -7.2798567    317.14867  0.022511973   0.02228686           12 
 1175000   0.77978052   -7.2686632    317.89437    0.0225457  0.022270926            9 
 1176000   0.78818284   -7.2680127    318.15374  0.022544908  0.022255085            6 
 1177000   0.77047574   -7.2848309    318.20324  0.022529258  0.022239264            4 
 1178000   0.78643117   -7.2964529    318.47087  0.022529065  0.022223346            6 
 1179000   0.77365684   -7.3142878    317.77451  0.022460737  0.022207373            7 
 1180000   0.78394713   -7.2952395    318.27091  0.022476759  0.022191452            5 
 1181000    0.8102966   -7.2965139    318.67681  0.022486368  0.022175567            5 
 1182000   0.77936547   -7.3002741    317.70192  0.022398612  0.022159713            3 
 1183000   0.79404825   -7.3032872    318.53904  0.022438648  0.022143826            3 
 1184000   0.78582698   -7.2750088    318.52832  0.022418942  0.022128012           13 
 1185000   0.77655487   -7.3016333    318.83391  0.022421512  0.022112131            6 
 1186000   0.78022307   -7.2896254    317.79251  0.022329434   0.02209621            8 
 1187000   0.80458007   -7.2636381    318.36294   0.02235067   0.02208028            6 
 1188000   0.76864213   -7.2656553    318.52252   0.02234305  0.022064445            4 
 1189000   0.79410204   -7.2897927    318.32453  0.022310382   0.02204863            3 
 1190000   0.77707169   -7.2897146    318.81256  0.022325809  0.022032817            5 
 1191000   0.76441384   -7.3100966    318.45296  0.022281903  0.022016976            5 
 1192000    0.7792004    -7.288912    318.61575  0.022274591  0.022001183            5 
 1193000   0.76781338   -7.3214719    318.74538  0.022264975   0.02198538            7 
 1194000   0.78846826   -7.3258747    318.84912  0.022253568  0.021969503            9 
 1195000    0.7781864    -7.305412    318.24687  0.022192948  0.021953672           12 
 1196000   0.78526352   -7.3098563    319.10124  0.022233921  0.021937878            9 
 1197000    0.7654394   -7.3055914    319.64787  0.022253402  0.021922179            9 
 1198000   0.79042365   -7.2834705    319.37831  0.022216076  0.021906486            5 
 1199000   0.75681968   -7.2964866    319.46474  0.022203554  0.021890695            4 
 1200000   0.78043145   -7.2769737    318.62632  0.022126827  0.021874981            3 
 1201000   0.78987255   -7.2976406    319.39138  0.022161489  0.021859281            5 
 1202000   0.76872873   -7.2882847    320.05003  0.022188715  0.021843675            5 
 1203000   0.76518789   -7.3238331    318.70524  0.022077115    0.0218279            3 
 1204000   0.75463667   -7.2790725    319.29061  0.022099295  0.021812252            6 
 1205000    0.7796654   -7.3100582    320.16556  0.022141463  0.021796656            7 
 1206000   0.78245829   -7.2949694    319.87113  0.022102759  0.021781099            9 
 1207000   0.77231472   -7.2957031    320.03137   0.02209551  0.021765517            8 
 1208000   0.75211632   -7.2965576    319.73181  0.022056554  0.021749844            7 
 1209000    0.7636478   -7.2777389    319.78173  0.022041752  0.021734241            7 
 1210000   0.75472569   -7.3123356    320.09611  0.022045187  0.021718705            9 
 1211000   0.77450071   -7.3042637    319.89065  0.022012844  0.021703087            8 
 1212000   0.77309918    -7.312324    320.28276  0.022021642   0.02168753            5 
 1213000   0.76418102    -7.317414    319.82412  0.021971978  0.021671974            3 
 1214000   0.78390025   -7.3315838    319.95469  0.021962843  0.021656358           10 
 1215000   0.79633537   -7.2860012     320.8325  0.022004972  0.021640856            5 
 1216000   0.76778609   -7.2962967    319.52068  0.021896977  0.021625399            6 
 1217000    0.7695022   -7.2975819    320.34981  0.021935758  0.021609839            3 
 1218000   0.75950412   -7.3164907    320.49529  0.021927702   0.02159426            3 
 1219000   0.76847669   -7.3032791    319.93007  0.021871074  0.021578691            5 
 1220000   0.77690118   -7.3205034    320.00888   0.02185853  0.021563148            4 
 1221000   0.76509917   -7.2961645    320.79003  0.021893942  0.021547661            7 
 1222000   0.77319706   -7.2885943    320.81287  0.021877583  0.021532213            3 
 1223000    0.7567245   -7.3040636    320.67323   0.02185018  0.021516863            8 
 1224000   0.75735305   -7.3302194    321.16816  0.021866024  0.021501438           11 
 1225000   0.75776531   -7.3139684    321.09574  0.021843247  0.021486094            7 
 1226000   0.76017307   -7.3049163    322.11403  0.021894646  0.021470731            6 
 1227000   0.76046462   -7.3434714    320.83758   0.02179011   0.02145531            4 
 1228000   0.74050146   -7.3267527     321.3975  0.021810362  0.021439927            8 
 1229000   0.78052413   -7.3008893    322.17197  0.021845129  0.021424516            3 
 1230000   0.74798485   -7.3613029    320.68251  0.021726458  0.021409004            6 
 1231000   0.76445523   -7.3160462    321.41658  0.021758501  0.021393492            4 
 1232000   0.75942516   -7.3328959    321.06906  0.021717334  0.021377935            5 
 1233000   0.76708388     -7.33644     321.4904  0.021728197  0.021362458            4 
 1234000   0.76107504   -7.3129564    321.57926   0.02171659  0.021346986            8 
 1235000   0.78180759   -7.3397163    321.40242  0.021687073  0.021331599            5 
 1236000   0.74513859   -7.3289533    322.25381  0.021726929   0.02131626            7 
 1237000   0.75122851   -7.3605434    321.55401  0.021662221  0.021300876           14 
 1238000   0.75907805   -7.3398924    321.89821  0.021667892  0.021285509           15 
 1239000   0.77204223   -7.3294932    322.03882  0.021659862  0.021270198            7 
 1240000   0.75754245   -7.3283732    322.19363  0.021652797  0.021254974            7 
 1241000   0.75606378   -7.2982992    322.54634  0.021659034  0.021239795            5 
 1242000   0.75701281    -7.341007    321.69759  0.021584648  0.021224524            5 
 1243000   0.77607138   -7.3339769    322.42601  0.021616118  0.021209195            8 
 1244000    0.7626239    -7.316073    321.84375  0.021559737  0.021193846            9 
 1245000   0.73864206   -7.3460878    321.91598  0.021547254  0.021178488            5 
 1246000   0.75434287   -7.3669852    321.98392  0.021534505  0.021163109            5 
 1247000    0.7543068   -7.3319976    321.76868  0.021502852  0.021147698            5 
 1248000   0.75199558   -7.3589202    320.94993  0.021430952   0.02113219           14 
 1249000     0.744721   -7.3529748    321.62028  0.021458519  0.021116745           13 
 1250000   0.74909744   -7.3299143    321.55687  0.021437125   0.02110133            9 
 1251000   0.74631112   -7.3330033    321.87639  0.021441273  0.021085962            7 
 1252000   0.75479313   -7.3291198    322.26697  0.021450145   0.02107056            5 
 1253000   0.77254658    -7.356357    321.77272  0.021400154  0.021055236           11 
 1254000   0.73444286   -7.3654998     321.8573   0.02138871  0.021039846            6 
 1255000   0.74596325   -7.3400311    322.33428  0.021403339  0.021024508            7 
 1256000   0.75600867   -7.3363695    322.43216  0.021392792  0.021009197            4 
 1257000   0.78025471   -7.3439914    322.11217  0.021354559  0.020993908            6 
 1258000   0.77105173   -7.3348693    322.20114  0.021343478  0.020978623            5 
 1259000   0.75878849   -7.3454111    321.97932  0.021311843  0.020963376           10 
 1260000   0.76471802   -7.3682657    322.46453  0.021327019  0.020948113            8 
 1261000   0.75844177   -7.3598884    322.90493  0.021339211  0.020932855            6 
 1262000   0.75319615   -7.3312337     322.3094  0.021282977  0.020917507            8 
 1263000   0.75545116   -7.3453403    322.88453  0.021304073  0.020902311            4 
 1264000   0.75213554   -7.3615418    323.05473  0.021298439  0.020887076            7 
 1265000   0.74586746     -7.34814    322.17202  0.021223453    0.0208718            4 
 1266000   0.75560306   -7.3528153    322.60125  0.021234943  0.020856506           12 
 1267000   0.73470997   -7.3836445    322.67677   0.02122315  0.020841212            9 
 1268000   0.74059261   -7.3670587    322.47049  0.021192855  0.020826001            4 
 1269000    0.7524349   -7.3267903    323.15995  0.021221431  0.020810776           11 
 1270000   0.73151045   -7.3437659    322.87417  0.021185969  0.020795543            6 
 1271000   0.72848646   -7.3375441    324.11002  0.021250329  0.020780309            6 
 1272000   0.75046884   -7.3772535    323.16051  0.021171417  0.020765039            4 
 1273000   0.76185302   -7.3646461    322.84563  0.021134173  0.020749767            4 
 1274000   0.74824395    -7.343646    323.19141  0.021140202  0.020734544            3 
 1275000   0.73486047   -7.3585997    323.25028  0.021127469  0.020719405            6 
 1276000   0.73801858    -7.353887    323.69117  0.021139705  0.020704285            4 
 1277000   0.74290882   -7.3421905    324.21397  0.021157268  0.020689241            5 
 1278000   0.76469004   -7.3647835    323.69321  0.021106756  0.020674187            4 
 1279000   0.73593004   -7.3746399    323.39565  0.021070866  0.020659125            6 
 1280000   0.72782589   -7.3484229    323.64978  0.021070949  0.020644022            9 
 1281000   0.74810158   -7.3683563    323.53016  0.021046719  0.020628919            8 
 1282000   0.74265957   -7.3721614     323.7279  0.021043155  0.020613887            5 
 1283000   0.75055653   -7.3866415    324.11067  0.021051615  0.020598824            6 
 1284000   0.75359015   -7.3718576    324.04407  0.021030898  0.020583776            8 
 1285000   0.73770972   -7.4013966    323.79751  0.020998541  0.020568752            5 
 1286000   0.73693599   -7.3868679    324.38537  0.021020307  0.020553732           10 
 1287000     0.745357   -7.3902151    323.71654  0.020960667  0.020538665            4 
 1288000   0.73718267   -7.3832628    323.90005  0.020956266  0.020523665            5 
 1289000   0.73314183   -7.4007582    324.32278  0.020967338  0.020508696           10 
 1290000   0.73777984   -7.3670416     324.7591   0.02097927  0.020493821            7 
 1291000   0.75362899   -7.3719529    324.65688  0.020956421   0.02047891            4 
 1292000    0.7333087   -7.3925531    324.21043  0.020911405  0.020463994            5 
 1293000   0.73470443   -7.3604316    324.37446  0.020905804  0.020449091            8 
 1294000   0.74742248   -7.3764709    324.18857  0.020877677  0.020434202           13 
 1295000   0.74000069   -7.3894128    324.35802  0.020872459  0.020419341            7 
 1296000    0.7394463   -7.3438497    324.78996  0.020884128  0.020404536            4 
 1297000   0.73821305   -7.3484903    324.68761   0.02086145   0.02038976            4 
 1298000   0.73187737   -7.3797055    323.89974  0.020794796  0.020374958            9 
 1299000   0.71727606    -7.382856    324.90106  0.020843024  0.020360168            6 
 1300000   0.73777032   -7.3878134    323.74876  0.020753126  0.020345349           18 
 1301000   0.73524944   -7.4071316    323.78396  0.020739429  0.020330429            9 
 1302000   0.73098102   -7.3702773    324.46288  0.020766954  0.020315502           15 
 1303000   0.71867136   -7.3842894    324.46007  0.020750836  0.020300556            6 
 1304000   0.73786146    -7.394229    324.70717  0.020750714  0.020285629            8 
 1305000   0.73964661   -7.3872325    324.11251  0.020696839  0.020270772            8 
 1306000   0.74748996   -7.3911821    324.43075  0.020701299  0.020255924           14 
 1307000   0.74577302    -7.408755    324.60209  0.020696384   0.02024108            9 
 1308000   0.70788774   -7.3954684    325.10716   0.02071274  0.020226249            6 
 1309000   0.72462221   -7.4197199    324.55907  0.020662024  0.020211421            4 
 1310000   0.73472088   -7.3969593    324.92781  0.020669708  0.020196653            5 
 1311000   0.73263907   -7.4173115    324.15525  0.020604834  0.020181841            7 
 1312000   0.73517001   -7.4102444    323.78091  0.020565352  0.020167021            8 
 1313000   0.71950378   -7.3965508    324.63494  0.020603893  0.020152197           24 
 1314000   0.72339486   -7.4097739    324.13856  0.020556733  0.020137336            6 
 1315000   0.72151595   -7.3690077    325.20195  0.020608488  0.020122566           11 
 1316000   0.72499484    -7.406452    325.36601  0.020603217  0.020107794            4 
 1317000   0.72565691   -7.4338514    325.10937  0.020571334     0.020093            6 
 1318000    0.7301146   -7.4082174    325.07871  0.020553788  0.020078255            6 
 1319000   0.71864404   -7.4071583    325.23666  0.020548184  0.020063548            4 
 1320000   0.72199471   -7.4245986    325.39925  0.020542882  0.020048844           10 
 1321000   0.72246292   -7.4068149    325.44503  0.020530219  0.020034097           15 
 1322000   0.72919507   -7.4103546    325.05071  0.020489833  0.020019402            6 
 1323000   0.72083915   -7.3794759    326.18688  0.020545911  0.020004703           10 
 1324000    0.7185834   -7.3849328    325.44742  0.020483851  0.019990052            4 
 1325000   0.72823822   -7.4260035    325.01716  0.020441331  0.019975356            6 
 1326000   0.72318359   -7.3872822    325.73869   0.02047126  0.019960681            3 
 1327000   0.72772387   -7.4093228    326.19525  0.020484505  0.019946095            8 
 1328000   0.71872563   -7.3721408    325.75333  0.020441349  0.019931518            7 
 1329000   0.73780795   -7.3738925    326.13346  0.020449803   0.01991696            6 
 1330000   0.72687314   -7.3865954    326.19854  0.020438505  0.019902448            5 
 1331000   0.71235741   -7.4292503    325.73132  0.020393897  0.019887808            9 
 1332000   0.71608466    -7.397105    325.69264  0.020376166  0.019873206            6 
 1333000   0.72738284   -7.4323628    326.11097  0.020387033  0.019858658           11 
 1334000   0.70630964   -7.4020741    326.48771  0.020395284  0.019844147           18 
 1335000   0.70538302   -7.3912967    326.29382  0.020367904  0.019829608            9 
 1336000   0.72900311   -7.4103867    326.23541  0.020349015  0.019815082           10 
 1337000   0.72350851   -7.3881179    326.24356  0.020334303  0.019800548            5 
 1338000    0.7230559   -7.3941939    326.57468  0.020339728  0.019786087           10 
 1339000   0.72484118   -7.4387963    325.59069  0.020263299  0.019771539            5 
 1340000   0.72173786   -7.3952429    325.83155  0.020263156   0.01975697            9 
 1341000   0.71983906   -7.4287314    325.60264  0.020233821  0.019742375            8 
 1342000   0.72220977   -7.4064147    326.57435  0.020279083  0.019727788           10 
 1343000    0.7208205   -7.4277998    326.23301  0.020242803  0.019713238            7 
 1344000   0.72286461   -7.4288483    326.33698  0.020234188  0.019698699            5 
 1345000   0.71694579   -7.4129834    326.24971  0.020213737  0.019684193            8 
 1346000    0.7164397   -7.4445379    326.22059  0.020196916  0.019669671            6 
 1347000   0.71748966   -7.4051184     325.8384  0.020158278  0.019655182            5 
 1348000   0.72467974    -7.434839    325.60806  0.020129084  0.019640691            7 
 1349000   0.71174324   -7.4184956    326.21084  0.020151398  0.019626187            5 
 1350000   0.70199872   -7.4330505    326.13284  0.020131657  0.019611731           16 
 1351000   0.71650157   -7.4246776    326.13799  0.020117073  0.019597266            7 
 1352000   0.72607859    -7.406334    326.50769  0.020124981   0.01958275            7 
 1353000   0.71748629   -7.4052283    326.53524  0.020111803  0.019568297            9 
 1354000   0.70519342   -7.4266657    325.79044   0.02005111  0.019553837            9 
 1355000    0.7141179   -7.4055042    325.56908  0.020022698  0.019539358            4 
 1356000   0.70666469   -7.4306409    326.30103  0.020052915  0.019524867           17 
 1357000   0.72008328   -7.4360429    326.38546  0.020043323  0.019510354           17 
 1358000   0.70198617     -7.40931    325.43059  0.019969968  0.019495866            9 
 1359000   0.71885439   -7.4071118     326.5249  0.020022376    0.0194814            6 
 1360000   0.70512192   -7.4416265    325.90194  0.019969481  0.019466953           11 
 1361000   0.72133968   -7.4432729    326.53502  0.019993572  0.019452491            9 
 1362000   0.69801745   -7.4370658     326.4923  0.019976279  0.019438024           11 
 1363000   0.72500244   -7.4612359    326.39158  0.019955465  0.019423566           11 
 1364000   0.69167611   -7.4407318    326.22049  0.019930382  0.019409114            8 
 1365000   0.70366987     -7.46159    326.74946  0.019948074  0.019394722           15 
 1366000   0.72005644   -7.4330192    326.86126  0.019940291  0.019380314           17 
 1367000   0.71073517   -7.4134891     327.0394  0.019936564  0.019365984            8 
 1368000    0.7014724   -7.4511856    327.20149  0.019931865  0.019351716            6 
 1369000   0.69238568    -7.462872    326.90511  0.019899264  0.019337458           13 
 1370000   0.69959521    -7.456261    327.10962  0.019897179  0.019323136           12 
 1371000   0.70285886   -7.4432325    327.29791  0.019894111  0.019308808            5 
 1372000   0.69564656   -7.4731877    326.78554   0.01984849  0.019294515            5 
 1373000   0.70437103   -7.4324463    327.41555  0.019872272  0.019280232            6 
 1374000   0.71504814    -7.418485    327.19136  0.019844212  0.019265961            5 
 1375000   0.70394238   -7.4490275    326.92875  0.019813864  0.019251697            7 
 1376000   0.70826796    -7.469287     326.5636   0.01977735  0.019237397            6 
 1377000   0.70780235   -7.4472546    326.90189   0.01978346  0.019223092            9 
 1378000   0.71438936   -7.4370342    326.62009  0.019752062  0.019208742           17 
 1379000   0.70822916   -7.4524412    326.34588  0.019721168  0.019194352            6 
 1380000   0.69426138   -7.4481885    326.42348  0.019711563  0.019179924           12 
 1381000   0.69222884   -7.4691097    326.41808  0.019696964  0.019165501            6 
 1382000   0.70219131   -7.4655529    326.27321  0.019673976  0.019151095            9 
 1383000   0.70109972   -7.4664667    326.67217  0.019683789  0.019136697           14 
 1384000   0.69701927    -7.472699    326.81871  0.019678391  0.019122309           19 
 1385000   0.70740284   -7.4702925    326.83557  0.019665197  0.019107917            8 
 1386000   0.69188737   -7.4626532    326.99795  0.019660771   0.01909357           13 
 1387000   0.70730353   -7.4519576    327.32234  0.019666086  0.019079239            5 
 1388000   0.70470356   -7.4568957    326.69725  0.019614388  0.019064893           13 
 1389000   0.70108114   -7.4894124    326.85533  0.019609751  0.019050622            9 
 1390000   0.69843889   -7.4704698    326.64901  0.019583274  0.019036321           10 
 1391000   0.69983368   -7.4834061    326.74389   0.01957488  0.019022012            8 
 1392000   0.71281155   -7.4500216     326.7416   0.01956068  0.019007716            5 
 1393000   0.70159328    -7.454147    326.86424  0.019553975  0.018993424            4 
 1394000   0.69723515   -7.4764448    326.93543  0.019544203  0.018979133            4 
 1395000   0.70405122    -7.490072     326.9404   0.01953049  0.018964878            8 
 1396000   0.69672536   -7.4728021    326.32982  0.019480052  0.018950645            6 
 1397000   0.70733495   -7.4800681    327.02887  0.019507806  0.018936378            6 
 1398000   0.69616476   -7.4728528    327.93721  0.019547997  0.018922223           15 
 1399000   0.70280453   -7.4910156    326.39755  0.019442313   0.01890807           23 
 1400000   0.69135687    -7.480637    326.92337  0.019459725  0.018893922           18 
 1401000   0.70266881   -7.4723754     327.2436  0.019464882  0.018879798            4 
 1402000   0.68571585   -7.4682151    326.37734  0.019399509  0.018865669           11 
 1403000   0.69165824   -7.4762504    327.14621   0.01943135  0.018851474           10 
 1404000   0.69807607   -7.4812234    327.28659  0.019425842  0.018837338           17 
 1405000   0.68509293   -7.4937571     326.7404   0.01937962  0.018823187           20 
 1406000   0.69806269   -7.4774179    327.40835  0.019405426  0.018809059           23 
 1407000   0.70735733   -7.4784272    327.09984  0.019373362  0.018794912           10 
 1408000    0.7087572   -7.4970034    326.83825   0.01934412  0.018780756            8 
 1409000   0.69435814   -7.4954486    327.18193  0.019350718  0.018766647            9 
 1410000   0.68971072   -7.4688555    327.54766  0.019358609  0.018752553           16 
 1411000   0.69401122   -7.4818867    327.73156   0.01935575  0.018738482           20 
 1412000   0.69765876   -7.5165334    327.01344   0.01929966   0.01872433           10 
 1413000   0.68926143   -7.4836461    327.78343  0.019331412  0.018710205            6 
 1414000   0.68824319   -7.4767793    327.41532  0.019296047  0.018696142            6 
 1415000   0.67811646   -7.4785237    327.58729  0.019292538  0.018682058            6 
 1416000   0.67385775   -7.4784291     327.6273  0.019281268  0.018667993           10 
 1417000   0.68614668   -7.4683576    327.12125    0.0192379  0.018653972            6 
 1418000   0.68684404   -7.4849766    327.38995  0.019240124  0.018639898           15 
 1419000   0.70374576   -7.4956381    328.02801  0.019264037  0.018625834           13 
 1420000   0.68531687   -7.5209846    327.57276  0.019223753  0.018611802           10 
 1421000   0.69384491   -7.4845342    328.29404  0.019252524  0.018597822            9 
 1422000    0.7082095    -7.496651    327.82478  0.019211485  0.018583871           10 
 1423000   0.68755334   -7.5040642     327.5352  0.019181026  0.018569916           13 
 1424000   0.68176323   -7.5012917    328.19063  0.019205912  0.018555969           15 
 1425000   0.68268381    -7.493287    327.69744  0.019163593   0.01854195           12 
 1426000   0.70143789   -7.4853592    328.04595   0.01917052  0.018527967           13 
 1427000   0.68322939   -7.5218583    327.94434  0.019151153  0.018513957           15 
 1428000   0.66896525   -7.4854804    327.43859  0.019108228  0.018499914           22 
 1429000   0.67241136   -7.5123357    327.91614  0.019122704  0.018485933            9 
 1430000   0.68844297   -7.5126129    327.71947  0.019097871  0.018471942           13 
 1431000   0.68621607   -7.5187482    328.04683  0.019103589  0.018457998           13 
 1432000   0.67620065   -7.4921526    327.51766  0.019059454  0.018444126           14 
 1433000   0.68272886   -7.5052581    327.79942  0.019062539  0.018430261            9 
 1434000   0.68742918    -7.508692    328.22256  0.019073835  0.018416419            9 
 1435000   0.69836928   -7.4866473    327.61695  0.019025375  0.018402536            8 
 1436000   0.68453617   -7.5211057    327.80733  0.019023174  0.018388646            7 
 1437000   0.68012996   -7.5241453    327.51427  0.018992941  0.018374772           14 
 1438000   0.68271607   -7.5019462    327.91728  0.019003088  0.018360947            7 
 1439000   0.68981322   -7.5021642    328.16296  0.019004109  0.018347117            6 
 1440000     0.678407    -7.525001    327.87574  0.018974291  0.018333289            7 
 1441000   0.68649301   -7.5215059    328.14752   0.01897684  0.018319427           17 
 1442000   0.68370072   -7.5043618      328.152  0.018963939   0.01830562            5 
 1443000   0.67249873   -7.4998871    327.91223   0.01893695  0.018291787            5 
 1444000   0.67777725   -7.5211007    327.91523  0.018924009  0.018277982           24 
 1445000    0.6869695   -7.5302509    327.48234  0.018885948  0.018264144            6 
 1446000   0.66317578   -7.4979812     327.7973  0.018891038  0.018250324           16 
 1447000   0.67243569   -7.5021343    328.96444    0.0189452  0.018236496           11 
 1448000   0.67997926   -7.5217476    328.12375  0.018883733  0.018222722           20 
 1449000   0.69538269   -7.5155337    328.27187   0.01887922  0.018208923           10 
 1450000   0.67176417    -7.536098    327.37515  0.018814664  0.018195126           18 
 1451000   0.67517973   -7.5264432     328.3915  0.018860068   0.01818132            7 
 1452000   0.67084505    -7.528812    327.69959  0.018807369  0.018167546            9 
 1453000   0.65159269   -7.5269469    328.06927  0.018815627  0.018153756           15 
 1454000   0.65894715   -7.5149462    328.76317  0.018842456  0.018140024           16 
 1455000   0.65873215   -7.5266554    327.92599  0.018781557  0.018126257            4 
 1456000   0.67368864   -7.5025664    328.58622  0.018806446  0.018112567           11 
 1457000   0.66967286   -7.5304766    328.00812  0.018760474  0.018098884           14 
 1458000   0.68719409   -7.5373555    327.48802   0.01871788  0.018085223           16 
 1459000   0.68787634   -7.5310487    328.37418  0.018755665  0.018071563            9 
 1460000   0.68125895   -7.5396323    328.47579  0.018748618  0.018057908            5 
 1461000   0.68518296   -7.5178327    328.40462  0.018731726  0.018044242            7 
 1462000   0.66504161   -7.5242016    327.83463  0.018686424  0.018030631           13 
 1463000   0.67279035   -7.4864958    328.25514  0.018697604  0.018017048           11 
 1464000   0.65738359   -7.5366588     328.4851  0.018697922  0.018003494            6 
 1465000   0.67538891   -7.5119072    328.24692  0.018671611  0.017989897           12 
 1466000   0.66319244   -7.5337837    328.89083  0.018695477  0.017976308            6 
 1467000   0.66177912   -7.5298257     328.3703  0.018653164  0.017962712            4 
 1468000   0.66055014   -7.5370677    328.22354  0.018632126  0.017949142            8 
 1469000   0.65384822   -7.5361607    328.17004  0.018616408  0.017935573            7 
 1470000   0.66669191   -7.5384172    328.85917   0.01864281  0.017922005            8 
 1471000   0.65978054   -7.5158174    328.67492  0.018619699  0.017908494            6 
 1472000   0.66367065   -7.5090311     328.6458  0.018605401  0.017895006            9 
 1473000   0.66606312   -7.5129639    329.09935  0.018618429  0.017881537            8 
 1474000   0.66616275   -7.5120151    328.99092  0.018599668  0.017868095            9 
 1475000   0.66135685   -7.5405088     328.4819    0.0185583  0.017854612            5 
 1476000   0.65750208   -7.5222454    328.28005   0.01853433  0.017841109            7 
 1477000   0.67364293   -7.5214579    328.88071  0.018555671  0.017827603            5 
 1478000    0.6726457   -7.5283498    328.19608  0.018504515   0.01781408            7 
 1479000   0.65343376   -7.5276156    328.38803  0.018502819  0.017800561           20 
 1480000   0.66493345   -7.5566344    328.65114  0.018505131  0.017787058           14 
 1481000   0.66962703   -7.5701943    328.44484  0.018481028  0.017773567           13 
 1482000   0.66946273   -7.5441044     328.3053  0.018460712  0.017760115           11 
 1483000   0.65518471   -7.5538856    328.83671  0.018478125  0.017746671           14 
 1484000   0.65390153   -7.5224918    329.17629  0.018484742  0.017733282           10 
 1485000   0.67494905   -7.5599574    328.92235  0.018458045  0.017719876           10 
 1486000   0.65463965   -7.5426578    329.01566  0.018450856  0.017706444           20 
 1487000   0.66198731   -7.5735417     328.5293  0.018411191  0.017693045           13 
 1488000   0.66384234   -7.5512439    328.93145   0.01842134  0.017679675           20 
 1489000   0.66555485   -7.5256602    329.41744  0.018436167  0.017666294            5 
 1490000     0.668096   -7.5720045    328.73763  0.018385773  0.017652938            9 
 1491000   0.65361832   -7.5382515    328.61598  0.018366643  0.017639578           12 
 1492000   0.65944333   -7.5664307    328.90834  0.018370662   0.01762623           16 
 1493000   0.67343059   -7.5598216    328.44136  0.018332293  0.017612829           13 
 1494000   0.63512033   -7.5630145    328.30308  0.018312309  0.017599409            8 
 1495000   0.65070287   -7.5648834    328.71197  0.018322853  0.017585963           11 
 1496000    0.6483539   -7.5444703    328.66287  0.018307869  0.017572533           10 
 1497000   0.65496944   -7.5732524    327.78881  0.018246984  0.017559088           17 
 1498000   0.65303699   -7.5639029    328.77038  0.018289407  0.017545651            9 
 1499000   0.65939668   -7.5698966    328.77006  0.018277188  0.017532233           26 
 1500000    0.6506862   -7.5586399    328.21833  0.018234351  0.017518794           18 
 1501000   0.65871524   -7.5643999    328.15592  0.018218739  0.017505354           33 
 1502000    0.6703035   -7.5497154    327.96515  0.018196025  0.017491912           23 
 1503000   0.65923893   -7.5542953    328.79588  0.018229978  0.017478501           33 
 1504000   0.64264328   -7.5631138     328.8349  0.018220019  0.017465126           40 
 1505000    0.6588573   -7.5782793    328.10376  0.018167429  0.017451697           32 
 1506000   0.65258848   -7.5669136    328.43339  0.018173605  0.017438296           36 
 1507000   0.65007105   -7.5503496    328.40057   0.01815973  0.017424932           31 
 1508000   0.64353599   -7.5925564    328.77821  0.018168557  0.017411588           14 
 1509000   0.65160529   -7.5859969    328.19615  0.018124373  0.017398223           31 
 1510000   0.64545409   -7.5871152    328.42156   0.01812481  0.017384837           34 
 1511000   0.63601186   -7.5573848    328.72877  0.018129758  0.017371499           10 
 1512000   0.64763134   -7.5418068     328.5006  0.018105192  0.017358163           41 
 1513000   0.64366771   -7.5777077    328.37925  0.018086542  0.017344875           28 
 1514000   0.63418625   -7.5744301    328.03459  0.018055625  0.017331565           17 
 1515000   0.63779889   -7.5759226    328.20127  0.018052875  0.017318217           25 
 1516000   0.66489408   -7.5636395    328.86419  0.018077407  0.017304918           20 
 1517000   0.65258589   -7.5692699    328.25294  0.018031913  0.017291636           15 
 1518000    0.6480275   -7.5648331    328.43534  0.018030047   0.01727836           22 
 1519000   0.65598267   -7.5755771    328.86402  0.018041695  0.017265108           14 
 1520000   0.65229123   -7.5506882    328.38708  0.018003678  0.017251838           27 
 1521000   0.65089395   -7.5823009    328.38586  0.017991774  0.017238556           22 
 1522000   0.65025133   -7.5842811    328.15768   0.01796746  0.017225312           19 
 1523000   0.63096918    -7.571822     328.1688   0.01795627  0.017212063           26 
 1524000   0.64316358   -7.5800849    328.48144  0.017961583  0.017198825           27 
 1525000   0.65095804   -7.5503757    328.37774  0.017944139   0.01718565           14 
 1526000   0.64357426   -7.5864478     329.1113  0.017972439  0.017172476           30 
 1527000   0.65250237   -7.5796408     328.7469  0.017940782  0.017159311           13 
 1528000   0.64783869   -7.5799793    328.74823  0.017929114   0.01714617           13 
 1529000   0.64449866   -7.5793789    329.16165   0.01793992  0.017133027           12 
 1530000   0.63893153   -7.5803284    328.94377  0.017916327  0.017119909           13 
 1531000   0.63466463   -7.6002461    328.92947  0.017903846  0.017106766           12 
 1532000   0.63524014    -7.577882    328.38691  0.017862648   0.01709364           15 
 1533000   0.64660825   -7.5947893    328.47874  0.017855987  0.017080536           12 
 1534000   0.64254833   -7.5966862    328.43132  0.017841771  0.017067427           17 
 1535000    0.6256008   -7.5972692    328.65858  0.017842485  0.017054309           19 
 1536000   0.64967856   -7.5949653     328.7532  0.017836003  0.017041195           25 
 1537000   0.64687185   -7.5886478    329.02646  0.017839214   0.01702807           21 
 1538000       0.6315   -7.6006179    328.61817  0.017805493  0.017014957           12 
 1539000   0.63521228    -7.579292     329.1643  0.017823495  0.017001844            8 
 1540000   0.64989468   -7.5824598    328.56425  0.017779451   0.01698875           23 
 1541000   0.63870225   -7.5928459     328.8119  0.017781305  0.016975689            9 
 1542000   0.64075198   -7.5763926    328.80808  0.017769568  0.016962594           14 
 1543000   0.63166095   -7.5793372    328.06468  0.017717902  0.016949532            6 
 1544000   0.64066511   -7.5917064    328.28219  0.017718167  0.016936467            6 
 1545000   0.63693433   -7.5876975    328.44484  0.017715471  0.016923389            8 
 1546000   0.62753926   -7.6040697     328.2613  0.017694119   0.01691028            7 
 1547000   0.64342431   -7.6097576    328.41374  0.017690893  0.016897175           13 
 1548000   0.63151867   -7.5995281    327.62695   0.01763711  0.016884093            6 
 1549000   0.63484599   -7.6096091    328.72326  0.017684703  0.016871021           15 
 1550000   0.63102883   -7.6172894    328.37577  0.017654611  0.016857935           14 
 1551000   0.62803758   -7.5940997    327.91291   0.01761836   0.01684488           22 
 1552000   0.62649467   -7.6275361    328.65651  0.017646934  0.016831853           18 
 1553000   0.64057455   -7.5929365    328.28427  0.017615597  0.016818847            6 
 1554000   0.62306705   -7.5951177    328.25523  0.017602704  0.016805833            7 
 1555000   0.63116711   -7.6237373    328.19042  0.017587911  0.016792803            8 
 1556000   0.63738101   -7.6082853    328.36766    0.0175861  0.016779812            8 
 1557000   0.62241052   -7.5889202    328.81529  0.017598763  0.016766823           15 
 1558000   0.63087419    -7.599636    328.85969  0.017589842  0.016753848            6 
 1559000   0.63895318   -7.6130945     328.9575  0.017583788  0.016740899           13 
 1560000   0.64422028   -7.5949729     328.7767  0.017562858  0.016727953           21 
 1561000   0.62437484   -7.6231747    328.28981  0.017525614  0.016715029           14 
 1562000   0.63702617   -7.5958632    328.67624  0.017535011  0.016702121           22 
 1563000   0.61899398   -7.6028218    328.05541  0.017490692  0.016689206           11 
 1564000   0.62829517    -7.610212    328.34343  0.017494854  0.016676334            8 
 1565000   0.62671006   -7.6127947    328.28087  0.017480345  0.016663446           14 
 1566000   0.62743687   -7.6182151    328.44485  0.017477908  0.016650582           15 
 1567000   0.63746361   -7.6353644    328.56497  0.017473143  0.016637679           23 
 1568000    0.6298069   -7.6340828    328.52634  0.017459946  0.016624809           12 
 1569000   0.63595729   -7.6277588    328.49165  0.017446975  0.016611939            9 
 1570000   0.62916655    -7.626609     328.8175  0.017453158  0.016599047           13 
 1571000   0.63342967   -7.6085026    328.70368  0.017436011   0.01658621           13 
 1572000    0.6097496   -7.6188845    328.54979  0.017416762  0.016573324           11 
 1573000   0.63621359   -7.6208794    328.81138  0.017419548  0.016560445            7 
 1574000   0.62999895   -7.6264492    328.57197  0.017395805    0.0165476           18 
 1575000   0.62985522   -7.6216535    327.66558  0.017336803  0.016534753            9 
 1576000   0.62519001   -7.6162982    327.82935  0.017334462  0.016521894           10 
 1577000   0.62408352   -7.6238897     329.2408  0.017398055  0.016509055            9 
 1578000   0.64045396   -7.6269756      328.292  0.017336925  0.016496242            9 
 1579000   0.61272225   -7.6487649    328.11204  0.017316447   0.01648344            8 
 1580000   0.61998046   -7.6313685    328.39946  0.017320647   0.01647068           10 
 1581000   0.63517628   -7.6307177    329.40084  0.017362473  0.016457942            6 
 1582000   0.62682117   -7.6305567    328.56077  0.017307247  0.016445254            5 
 1583000   0.63277664    -7.607032    328.53669  0.017295046  0.016432547            6 
 1584000   0.61053269   -7.6296373    328.98879  0.017307912   0.01641986           10 
 1585000   0.61457504   -7.6357413    328.39031  0.017265526  0.016407153           16 
 1586000    0.6193791    -7.612783    328.35122  0.017252586  0.016394435           10 
 1587000   0.62645984   -7.6472305    328.21552  0.017234589  0.016381741            9 
 1588000   0.61005398   -7.6360696    327.88056  0.017206159  0.016369061           30 
 1589000   0.62076033   -7.6170522    328.54046  0.017229938   0.01635637           29 
 1590000   0.62160632   -7.6325663    328.65262   0.01722498  0.016343682           41 
 1591000   0.61813091   -7.6304361     328.1503  0.017187843  0.016331017           34 
 1592000   0.61978052   -7.6143986    327.71633   0.01715433  0.016318353           19 
 1593000   0.61547246   -7.6364601    328.54435  0.017186877    0.0163057           15 
 1594000   0.62261703   -7.6170349    329.23542  0.017212224  0.016293051            8 
 1595000   0.61067304   -7.6434829     329.0725  0.017192921  0.016280414           18 
 1596000   0.61783849   -7.6392469    328.55913  0.017155343  0.016267795           11 
 1597000   0.61429286   -7.6345395    329.07295  0.017171412  0.016255187           21 
 1598000   0.61394533   -7.6265077    328.81032  0.017146971  0.016242589           12 
 1599000   0.61940085   -7.6445226    328.26827  0.017107998   0.01622999           19 
 1600000   0.60770385   -7.6144159    328.60038  0.017114603  0.016217412           15 
 1601000   0.61101141   -7.6413615     329.0883   0.01712931   0.01620482           15 
 1602000   0.61104127   -7.6417676    328.04086  0.017064131  0.016192248           19 
 1603000    0.6124962   -7.6283767    328.87927  0.017097072  0.016179661           10 
 1604000    0.6179365   -7.6581565    329.43393  0.017115229  0.016167107            9 
 1605000   0.61001355   -7.6510787    328.69944   0.01706643  0.016154565           10 
 1606000    0.6250551   -7.6291611    328.65334  0.017053411  0.016142023            7 
 1607000   0.61795393   -7.6598811    328.83966  0.017052461  0.016129483           20 
 1608000    0.6052406   -7.6537803    328.35346  0.017016659  0.016116928           12 
 1609000   0.60110724   -7.6595633     328.4425  0.017010695    0.0161044            9 
 1610000   0.62031154   -7.6679527      328.554    0.0170059  0.016091889           17 
 1611000   0.58371375   -7.6444778    328.37992   0.01698634  0.016079394           13 
 1612000    0.6007812   -7.6645887    328.76979  0.016995957  0.016066881           17 
 1613000   0.59375788   -7.6815438    328.37506  0.016965027  0.016054344            8 
 1614000   0.61856304   -7.6882082    327.57804  0.016913364  0.016041796           11 
 1615000   0.59150851   -7.6685317    328.43167  0.016946939  0.016029266           17 
 1616000    0.6074544   -7.6674844    328.59096  0.016944666  0.016016744           25 
 1617000   0.61049459   -7.6753948    328.12449  0.016910147  0.016004241            9 
 1618000   0.60186121   -7.6903649    327.74344   0.01688007  0.015991707            7 
 1619000   0.60427672   -7.6814074    327.68799   0.01686679  0.015979191           10 
 1620000   0.60260527   -7.6692697    327.77772  0.016860994  0.015966685           12 
 1621000   0.60810594   -7.6823536    328.36557  0.016880813  0.015954174            7 
 1622000   0.60610532   -7.6640251    327.54383  0.016828187   0.01594168           14 
 1623000   0.61627341   -7.6726885    328.13675  0.016848262   0.01592918           13 
 1624000   0.60636035   -7.6830774    328.25403  0.016843906  0.015916693            9 
 1625000   0.59937249   -7.6833625    328.49625  0.016845962  0.015904191            7 
 1626000   0.60196653   -7.6616147    327.79624  0.016799725  0.015891704           10 
 1627000   0.61904588   -7.6788881    328.06685   0.01680326  0.015879262           16 
 1628000    0.5960864   -7.6828388    327.80826  0.016779702  0.015866818            8 
 1629000    0.5949027   -7.6623026    327.79805  0.016768879  0.015854376           12 
 1630000   0.59550228   -7.6567322    327.93075  0.016765376  0.015841956           15 
 1631000   0.61193195   -7.6775974    328.12433  0.016764987  0.015829552           12 
 1632000   0.60780897   -7.6768316     327.8194  0.016739144  0.015817156            7 
 1633000   0.60381479   -7.6698782     328.1237  0.016744422  0.015804763           13 
 1634000    0.5996581   -7.6728051    328.39976  0.016748254  0.015792382            7 
 1635000   0.59677194   -7.6637577    328.01093  0.016718192   0.01578002            9 
 1636000   0.60999785   -7.6768864    328.06208  0.016710579  0.015767641           15 
 1637000   0.60912547   -7.6768374    327.81105  0.016687592  0.015755285           14 
 1638000    0.5907987   -7.6884008    327.74998  0.016674297  0.015742923            6 
 1639000   0.60067044   -7.6861209    328.01315  0.016677504  0.015730586            8 
 1640000    0.5953551   -7.6619908    327.74297  0.016653606  0.015718269            7 
 1641000   0.59942598   -7.6860611    328.01057  0.016657047  0.015705927            9 
 1642000   0.59735457   -7.6802391    328.28124   0.01666064  0.015693618           10 
 1643000   0.58744289   -7.6791574    327.67824  0.016619915  0.015681313           14 
 1644000   0.59729426    -7.675094    327.90102  0.016621098  0.015669027            8 
 1645000   0.59785065   -7.6890932    327.64669   0.01659811  0.015656717            9 
 1646000   0.59840413   -7.6843192     328.5134  0.016631905  0.015644407           16 
 1647000   0.60578786   -7.6593777    328.29843   0.01661093  0.015632139           16 
 1648000   0.60486982   -7.6924736    327.91013  0.016581216  0.015619857           31 
 1649000   0.58791069   -7.6921158    328.29078  0.016590397  0.015607594           17 
 1650000   0.59683109   -7.7045341    328.07145  0.016569265   0.01559534           11 
 1651000   0.58789949   -7.6709192    327.45574  0.016528152  0.015583114           11 
 1652000    0.5907773   -7.6959885    327.33306  0.016511958  0.015570874           10 
 1653000   0.58795219   -7.6895764    327.97962  0.016534564  0.015558629           11 
 1654000   0.59718262    -7.683006    327.90679  0.016520898  0.015546412           16 
 1655000    0.5973919   -7.6994302    327.64839  0.016497905  0.015534204           13 
 1656000   0.59638779   -7.7042976    327.92307  0.016501765  0.015521993           15 
 1657000   0.59763654   -7.6887907    327.90423  0.016490858  0.015509763           19 
 1658000   0.59698507   -7.6804784    327.58327   0.01646478  0.015497556           17 
 1659000   0.58116816   -7.6992524    327.65734  0.016458577  0.015485361           18 
 1660000   0.59486099   -7.7054759    327.16758  0.016424075  0.015473157           16 
 1661000   0.58771157   -7.6949946    327.32882  0.016422277  0.015460977           18 
 1662000   0.58450666   -7.7236732    327.76299  0.016434165   0.01544879           18 
 1663000   0.59901479   -7.6880795    328.04533  0.016438431  0.015436641           15 
 1664000   0.58230773   -7.7022623    327.60557  0.016406529  0.015424486           12 
 1665000   0.59097721    -7.704525    327.81843  0.016407329  0.015412324           13 
 1666000   0.58471323   -7.7319455    327.27998  0.016370547   0.01540018           17 
 1667000   0.58049011   -7.6990305    327.39082  0.016366268  0.015388054           15 
 1668000   0.58583306   -7.7007415    327.45201  0.016359513  0.015375949           16 
 1669000   0.56925254   -7.7022686    326.98081  0.016326184  0.015363832            8 
 1670000   0.58333426   -7.6975456    327.21858  0.016328272  0.015351734           21 
 1671000   0.57813368   -7.7046202     327.4635  0.016330715  0.015339642           15 
 1672000   0.57934378   -7.7051112    327.45668  0.016320608  0.015327558            9 
 1673000   0.57783269   -7.7128891    327.85339  0.016330613  0.015315497           22 
 1674000   0.57076026    -7.720635    328.26087  0.016341142  0.015303428           15 
 1675000   0.57513189   -7.7023718    326.83207  0.016260302  0.015291373           27 
 1676000   0.58887815   -7.7149756    328.07734  0.016312517  0.015279338           16 
 1677000   0.58554582   -7.6942154    327.61114  0.016279623  0.015267312           17 
 1678000   0.58603642   -7.7019515    327.33526  0.016256221   0.01525531           38 
 1679000    0.5832938   -7.7252845    327.64949  0.016262135  0.015243289           43 
 1680000   0.57147264   -7.7253786    327.40892  0.016240522  0.015231278           39 
 1681000   0.58550723   -7.7247975    327.51858  0.016236297  0.015219264           20 
 1682000    0.5749265   -7.7096176    327.52774  0.016227097  0.015207255           15 
 1683000   0.58040095   -7.7286672    327.53743  0.016217936  0.015195241           33 
 1684000   0.57749526   -7.7192246    326.91758  0.016177632  0.015183248           17 
 1685000   0.56520367   -7.7360083    327.72199  0.016207814  0.015171247           29 
 1686000    0.5762428   -7.7144066    327.51151  0.016187797  0.015159274           34 
 1687000   0.57242518   -7.7228351    327.18406  0.016162026  0.015147303           40 
 1688000   0.58631777   -7.7347157    327.17913  0.016152208  0.015135352           17 
 1689000   0.58009032   -7.7296702    327.69538  0.016168116  0.015123427           37 
 1690000   0.57090568   -7.7282898    327.48825  0.016148336   0.01511151           26 
 1691000   0.58164433   -7.7347883     327.1693  0.016123068  0.015099614           23 
 1692000   0.58147168    -7.716495    326.94076  0.016102283  0.015087721           21 
 1693000   0.58757625   -7.7389811    327.14066  0.016102612  0.015075828           20 
 1694000   0.57363235   -7.7128704     327.4088  0.016106297  0.015063939           22 
 1695000   0.57531019   -7.7300127    327.87439  0.016119685  0.015052069           19 
 1696000   0.57564661   -7.7050307    327.41072  0.016087398  0.015040199           18 
 1697000   0.58529765   -7.7404121    327.73927  0.016094052  0.015028343           19 
 1698000   0.57898749    -7.731486    327.09003  0.016052711  0.015016471           19 
 1699000   0.58185051   -7.7332082    327.39366  0.016058155   0.01500462           22 
 1700000   0.56502674   -7.7287711    327.07109  0.016032896  0.014992803           17 
 1701000   0.57938929    -7.728497    326.31125  0.015986246  0.014980971           13 
 1702000   0.55756531   -7.7254402    326.94884  0.016008071  0.014969134           19 
 1703000   0.57849869   -7.7573622    327.72958  0.016036875  0.014957321           25 
 1704000   0.57307666   -7.7427863    327.05132  0.015994294  0.014945511           18 
 1705000   0.59056547   -7.7316788    327.13566  0.015989035  0.014933719           31 
 1706000   0.55960351   -7.7406727     327.5655   0.01600066  0.014921935           25 
 1707000   0.56687919   -7.7450534    327.80039  0.016002753  0.014910148           21 
 1708000   0.57215617   -7.7578257    327.09543  0.015958989  0.014898362           32 
 1709000   0.56913482   -7.7506375    327.35478  0.015962297  0.014886569           26 
 1710000   0.56746347   -7.7473313    326.73726  0.015922868   0.01487478           43 
 1711000   0.56480634     -7.75293    326.94828   0.01592384  0.014863006           28 
 1712000   0.56136337   -7.7605718    327.11531  0.015922669  0.014851247           29 
 1713000   0.56334858   -7.7585247    326.72247  0.015894263   0.01483948           36 
 1714000   0.57621747   -7.7397558    327.17666  0.015907072  0.014827726           37 
 1715000   0.56831958   -7.7534214    326.19765  0.015850226  0.014815966           61 
 1716000   0.57623629   -7.7448409    327.55954  0.015907126  0.014804223           10 
 1717000   0.55403083   -7.7584788    327.27397  0.015884001  0.014792486           29 
 1718000   0.56015788   -7.7437677    326.40121  0.015832422  0.014780764           32 
 1719000   0.56414131   -7.7597118    327.34739   0.01586908  0.014769056           38 
 1720000   0.57246726    -7.742154    327.01146  0.015843578  0.014757358           32 
 1721000   0.56094429   -7.7721277     326.7997  0.015824119  0.014745657           36 
 1722000   0.56172412   -7.7648746    327.40617  0.015844278  0.014733975           48 
 1723000   0.55928917   -7.7495307       327.74  0.015851229  0.014722332           39 
 1724000   0.55630959   -7.7652291    326.45759  0.015780046  0.014710677           33 
 1725000   0.56654399   -7.7545177    326.41203  0.015768697  0.014699012           22 
 1726000   0.56884473    -7.745016    326.91613    0.0157839  0.014687367           57 
 1727000    0.5684236   -7.7584013    326.95053   0.01577642  0.014675744           24 
 1728000   0.54394792   -7.7568665    326.70918  0.015755651  0.014664129           52 
 1729000     0.565869   -7.7420203     327.0302  0.015762011  0.014652503           23 
 1730000   0.54879311   -7.7693071    327.29898  0.015765847  0.014640907           25 
 1731000   0.57174713   -7.7651957    326.55745   0.01572104   0.01462931           39 
 1732000   0.55813529   -7.7594432    327.18935  0.015742367  0.014617733           36 
 1733000   0.55544632     -7.77936    327.20719  0.015734141  0.014606179           25 
 1734000   0.56730965   -7.7527923    327.37853  0.015733301   0.01459463           39 
 1735000   0.55026975   -7.7397376    326.71536   0.01569238  0.014583076           15 
 1736000   0.56879114   -7.7711524    326.83975  0.015689312  0.014571532           30 
 1737000   0.55901431    -7.761432     326.8392  0.015680253  0.014560025           30 
 1738000   0.57027777   -7.7670957    326.10707  0.015636127  0.014548505           16 
 1739000   0.56536087   -7.7811794    326.91668  0.015665933   0.01453698           41 
 1740000   0.55445671   -7.7777641    327.31908  0.015676201  0.014525483           50 
 1741000   0.55697629   -7.7831147    327.19257  0.015661141  0.014513969           34 
 1742000   0.55602605   -7.7582657    326.57091  0.015622413  0.014502467           38 
 1743000   0.56185306   -7.7742915    326.65493  0.015617466  0.014490964           27 
 1744000    0.5587933   -7.7709751    326.98125  0.015624104  0.014479477           21 
 1745000   0.55123645   -7.7775303    326.91112  0.015611801  0.014468001           32 
 1746000   0.55593887   -7.7804325     326.7634  0.015595809  0.014456535           25 
 1747000   0.56115871   -7.7770761    326.87252  0.015592087  0.014445085           25 
 1748000   0.55081973   -7.7774004     326.9961  0.015589059  0.014433665           49 
 1749000   0.55602703    -7.784958    326.58255  0.015560442   0.01442224           30 
 1750000   0.54882101    -7.790883    326.44098  0.015544809  0.014410827           28 
 1751000   0.55060624   -7.7920891    326.25742  0.015527195   0.01439941           22 
 1752000   0.55492719   -7.7751717    326.49148  0.015529465  0.014388017           13 
 1753000   0.54832544   -7.7962054    326.41158  0.015516808  0.014376617           38 
 1754000   0.56242558   -7.7851737    327.26871  0.015548685  0.014365229           36 
 1755000   0.54977542   -7.7723977     326.6715  0.015511467  0.014353854           24 
 1756000   0.56758997   -7.7681957    326.76525  0.015507083  0.014342501           17 
 1757000   0.54778879   -7.7829086    326.08986  0.015466224  0.014331149           17 
 1758000   0.56553385   -7.7633116    326.56573  0.015479983  0.014319806           19 
 1759000   0.55163885   -7.7829873    326.83461  0.015483921  0.014308478           20 
 1760000   0.55172775   -7.7741039    326.97474  0.015481759  0.014297149           16 
 1761000   0.56807811   -7.7603802    326.22765  0.015437614  0.014285842           18 
 1762000   0.55743064   -7.7822213    326.12287  0.015423897  0.014274554           38 
 1763000   0.55394566    -7.781983    326.77808  0.015446118  0.014263275           29 
 1764000   0.55307117   -7.7841504    326.48166  0.015423359  0.014252013           21 
 1765000   0.53425746   -7.7874393    326.05578  0.015394513  0.014240732           27 
 1766000   0.54982545   -7.8043856    326.43686  0.015403778  0.014229463           25 
 1767000   0.55089044   -7.7703021    326.53673   0.01539977  0.014218199           26 
 1768000   0.55341269   -7.7881048    326.76205   0.01540168  0.014206961           36 
 1769000   0.54379584   -7.7788967    326.64738  0.015387572  0.014195721           21 
 1770000   0.54007803   -7.7813697    326.28687  0.015361905  0.014184507           15 
 1771000   0.54251213    -7.787497    326.41517  0.015359268    0.0141733           28 
 1772000   0.54864812   -7.8030892    326.46582  0.015352982  0.014162096           37 
 1773000    0.5382592   -7.8008596    326.63357  0.015352207  0.014150908           40 
 1774000   0.54057225   -7.7916364      326.351   0.01533028  0.014139718           39 
 1775000   0.55354451   -7.7949354    326.95812  0.015350146  0.014128538           39 
 1776000   0.55493385   -7.7759906    326.13144  0.015302714  0.014117358           24 
 1777000   0.54260419   -7.7985571    326.94844  0.015332416  0.014106212           19 
 1778000   0.54996535   -7.7990027    326.66942  0.015310715   0.01409505           51 
 1779000   0.53485211   -7.7821683    326.40667  0.015289801  0.014083906           30 
 1780000   0.54927398   -7.8007653    326.46308  0.015283852  0.014072762           55 
 1781000   0.54467809   -7.7821842    326.62208   0.01528271  0.014061626           19 
 1782000   0.53583859    -7.795372    326.19447  0.015254137  0.014050527           38 
 1783000   0.54066155   -7.7924597    326.36328  0.015253472  0.014039429           34 
 1784000    0.5325456   -7.8047508    326.89829  0.015269912  0.014028328           19 
 1785000   0.54165008   -7.7898841     326.1222  0.015225126  0.014017233           46 
 1786000   0.54561912   -7.8064021    326.37303  0.015228305  0.014006114           41 
 1787000   0.55303761   -7.8075871    326.25133  0.015214108  0.013995009           53 
 1788000   0.52888297   -7.8215174    325.93871  0.015191029   0.01398391           51 
 1789000   0.54620819    -7.803364    326.55137  0.015211076  0.013972826           39 
 1790000   0.53604644    -7.798476    325.91442  0.015172924  0.013961759           52 
 1791000   0.54208732   -7.8115595    326.30589  0.015182668  0.013950726           38 
 1792000   0.53686487   -7.7752572    326.36399  0.015176897  0.013939687           31 
 1793000   0.53907966   -7.8079221    326.26555  0.015163857   0.01392865           62 
 1794000   0.53031103     -7.81586    326.05078  0.015145428  0.013917614           45 
 1795000   0.53619978   -7.8216178     325.9161  0.015130738   0.01390659           34 
 1796000   0.52063535   -7.8004653    326.41605  0.015145511  0.013895576           37 
 1797000   0.53885965   -7.8063631    326.49189    0.0151406  0.013884584           58 
 1798000   0.54781429   -7.8079561    325.95538  0.015107313  0.013873586           48 
 1799000   0.53807752   -7.8211256    326.44974  0.015121815  0.013862596           43 
 1800000   0.53056856   -7.8008167    325.66542  0.015077103  0.013851621           39 
 1801000   0.53885848   -7.8102068    325.35871   0.01505454  0.013840623           64 
 1802000   0.54400975   -7.8217846    326.27898  0.015088743  0.013829649           38 
 1803000   0.53468648   -7.8126195    325.98813  0.015066931  0.013818665           25 
 1804000   0.53097915   -7.8206198    325.83205  0.015051369  0.013807701           36 
 1805000   0.53522643   -7.8028819    325.66295  0.015035224  0.013796747           32 
 1806000    0.5369188   -7.7984482    325.76815  0.015031753  0.013785806           40 
 1807000   0.52773783   -7.8125163    325.89366  0.015029223  0.013774861           44 
 1808000   0.54827855   -7.8290779    325.30126  0.014993605  0.013763927           35 
 1809000   0.52446935   -7.8262738    325.64548  0.015001174  0.013753011           42 
 1810000   0.53239447    -7.824979    326.00845  0.015009597   0.01374211           29 
 1811000    0.5347615   -7.8348349    326.12216  0.015006541  0.013731229           22 
 1812000   0.52218979   -7.8088739    325.63252  0.014975741  0.013720357           27 
 1813000   0.52503665   -7.8221766    326.12376  0.014990061  0.013709493           37 
 1814000   0.51980321   -7.8353193     325.3719  0.014947257  0.013698645           43 
 1815000   0.52589375   -7.8228204     325.4066  0.014940615  0.013687785           27 
 1816000   0.53053831   -7.8023495    325.64062  0.014943127  0.013676955           32 
 1817000    0.5230372   -7.8274009    325.49803  0.014928363  0.013666125           33 
 1818000   0.52337541   -7.8181334    326.04954  0.014945432  0.013655312           29 
 1819000   0.52725297    -7.837404    326.01423  0.014935598  0.013644494           24 
 1820000   0.52951853   -7.8469768    325.50443  0.014904049  0.013633677           32 
 1821000   0.53106419   -7.8208258    325.92891   0.01491529  0.013622883           22 
 1822000    0.5264828   -7.8307153     325.7515  0.014898989  0.013612099           23 
 1823000   0.52701522   -7.8387571    325.79841  0.014892961  0.013601327           47 
 1824000   0.51712296   -7.8361515    325.79502  0.014884641  0.013590578           34 
 1825000   0.52484872   -7.8253446    326.23813  0.014896718  0.013579834           24 
 1826000   0.52710407   -7.8339237    326.01854  0.014878539  0.013569097           35 
 1827000   0.51742656   -7.8292074    326.28952  0.014882755   0.01355837           27 
 1828000   0.53027642   -7.8149912    325.46573  0.014837059  0.013547643           36 
 1829000   0.52799293   -7.8480332    325.87866  0.014847761  0.013536918           63 
 1830000   0.51995227   -7.8182171    325.46404  0.014820767  0.013526209           50 
 1831000   0.52211316   -7.8491734    325.39001  0.014809303  0.013515511           36 
 1832000     0.516939    -7.825964    325.97258  0.014827719  0.013504824           40 
 1833000   0.51944131   -7.8373684    325.74571  0.014809316  0.013494144           40 
 1834000   0.52995897    -7.841137    325.17234  0.014775188  0.013483468           54 
 1835000   0.52197921    -7.832905    325.65753   0.01478917  0.013472793           36 
 1836000   0.51144474   -7.8372521    325.47372  0.014772772  0.013462142           35 
 1837000    0.5263241   -7.8402899    325.91566  0.014784779    0.0134515           41 
 1838000   0.52691154   -7.8256647    325.52583   0.01475906   0.01344087           42 
 1839000   0.52196928   -7.8271477     325.8775   0.01476697  0.013430257           28 
 1840000   0.53090735   -7.8403104     325.7266   0.01475211  0.013419657           29 
 1841000   0.52786387   -7.8435059    324.74435  0.014699635  0.013409049           28 
 1842000   0.51061491   -7.8448185    325.67899  0.014733939  0.013398469           27 
 1843000   0.51774778   -7.8518183    325.47495  0.014716719  0.013387898           34 
 1844000   0.52456841   -7.8326093     325.7165  0.014719654  0.013377351           33 
 1845000     0.523605   -7.8373143    325.70719  0.014711255  0.013366804           40 
 1846000   0.52506545   -7.8339218    325.72401  0.014704045  0.013356268           28 
 1847000   0.51435266   -7.8265525    325.43078  0.014682854  0.013345735           38 
 1848000   0.52024729   -7.8456524    325.23824  0.014666227  0.013335203           43 
 1849000   0.50944172   -7.8399032    325.33384  0.014662603   0.01332467           43 
 1850000   0.50976786   -7.8431683    325.81586   0.01467639  0.013314152           45 
 1851000   0.51519349   -7.8515513    325.48721  0.014653665  0.013303652           32 
 1852000   0.50920657    -7.842875     325.6865   0.01465472  0.013293167           48 
 1853000   0.50870239   -7.8461661    325.77725  0.014650892  0.013282677           37 
 1854000   0.49569552   -7.8471936    326.58241  0.014679181  0.013272209           33 
 1855000   0.49895112    -7.833062     325.6297  0.014628468  0.013261752           41 
 1856000   0.50842885   -7.8632428    325.62956   0.01462058  0.013251296           22 
 1857000   0.51122965   -7.8476339    325.55255  0.014609251  0.013240836           42 
 1858000   0.50874574   -7.8527759    325.47201  0.014597776  0.013230381           29 
 1859000   0.52002725   -7.8551427    325.55115  0.014593471  0.013219935           45 
 1860000   0.51066916   -7.8691829    325.53051    0.0145847   0.01320951           34 
 1861000   0.50781436   -7.8687057    324.88122  0.014547789  0.013199089           33 
 1862000   0.51454174   -7.8553485     325.1511  0.014552054  0.013188676           25 
 1863000   0.51020598   -7.8378895    325.41528   0.01455606  0.013178286           24 
 1864000   0.50670944   -7.8587143    325.52225  0.014553033  0.013167898           24 
 1865000   0.50466181   -7.8536477    325.22983  0.014532164  0.013157516           37 
 1866000   0.51644648   -7.8501186    325.42144  0.014532933  0.013147147           22 
 1867000   0.50129625   -7.8788112     325.2124  0.014515819  0.013136768           37 
 1868000   0.49453148   -7.8449698    325.00856  0.014498954  0.013126414           31 
 1869000   0.51754811   -7.8700404    325.81079  0.014526966  0.013116074           35 
 1870000   0.51255726   -7.8566567    325.46688  0.014503872  0.013105729           32 
 1871000   0.51093612   -7.8577708    325.06082  0.014478034  0.013095402           31 
 1872000   0.50642062   -7.8556717    325.19686  0.014476356  0.013085097           40 
 1873000   0.50634498   -7.8601147    325.63695  0.014488207  0.013074794           28 
 1874000   0.50965783   -7.8579218    325.53185  0.014475803  0.013064498           33 
 1875000   0.50092582   -7.8642882    325.03795  0.014446131  0.013054206           26 
 1876000   0.50546089   -7.8508244    325.67073  0.014466539  0.013043931           25 
 1877000   0.50443802   -7.8512872    325.16083  0.014436194  0.013033667           34 
 1878000    0.5034281   -7.8509108    325.31251  0.014435237  0.013023414           29 
 1879000   0.50935273   -7.8619504    325.16379  0.014420959  0.013013172           32 
 1880000   0.50768777   -7.8616002    325.73844  0.014438761  0.013002931           35 
 1881000   0.49821563   -7.8609752    325.45198  0.014418394  0.012992723           41 
 1882000   0.50793956   -7.8624652    325.40505  0.014408654  0.012982523           32 
 1883000   0.51554021   -7.8615287    325.34686  0.014398427  0.012972314           44 
 1884000   0.49913869   -7.8745756     325.0927  0.014379543  0.012962119           30 
 1885000   0.51415243   -7.8730907    325.50977  0.014390352  0.012951942           30 
 1886000   0.48795407   -7.8738734    325.52454  0.014383375  0.012941763           27 
 1887000   0.50166963   -7.8557528    325.15233  0.014359315   0.01293161           24 
 1888000   0.50725956   -7.8735649    325.49113  0.014366663  0.012921455           22 
 1889000   0.50368507   -7.8655355    325.40605  0.014355305  0.012911323           58 
 1890000   0.51190583   -7.8739391    325.21284  0.014339191  0.012901196           34 
 1891000   0.49949161   -7.8726704    325.18435  0.014330352  0.012891072           32 
 1892000   0.48802799   -7.8710108     325.3683   0.01433088  0.012880962           34 
 1893000   0.50884886   -7.8687679    325.12229   0.01431248  0.012870854           32 
 1894000   0.50391038   -7.8613562    325.28836   0.01431223   0.01286075           28 
 1895000   0.50612589   -7.8751739    324.83997  0.014284959  0.012850651           39 
 1896000   0.49519337   -7.8729218    325.03739  0.014286102  0.012840555           26 
 1897000   0.48419184   -7.8791868    325.77483  0.014310966  0.012830477           30 
 1898000    0.4869313   -7.8770432    325.01004  0.014269847  0.012820405           53 
 1899000   0.50069723   -7.8828673    325.90813  0.014301744  0.012810332           24 
 1900000   0.49754729   -7.8845454    325.12331  0.014259794  0.012800279           27 
 1901000   0.49249222   -7.8552792    325.11756  0.014252041  0.012790226           31 
 1902000   0.49116058   -7.8922467    324.93897  0.014236723  0.012780183           29 
 1903000   0.48830504   -7.8905259    325.39444  0.014249187  0.012770145           27 
 1904000   0.51062483   -7.9032213    324.62901  0.014208202  0.012760131           31 
 1905000   0.50053057    -7.879502     325.1989  0.014225674   0.01275013           25 
 1906000    0.4937071   -7.8991656    325.06484  0.014212349  0.012740136           30 
 1907000   0.49638359    -7.881455    325.33951  0.014216899  0.012730137           18 
 1908000   0.49207739   -7.8733276    325.08596  0.014198374   0.01272015           38 
 1909000   0.48646138   -7.8665415     325.1452  0.014193522   0.01271017           20 
 1910000   0.49370976   -7.8896729    324.82731  0.014172221  0.012700193           22 
 1911000   0.49435142   -7.8763743    325.52955  0.014195428  0.012690239           25 
 1912000   0.49728304   -7.8825587    325.15209  0.014171552  0.012680292           23 
 1913000   0.48751924   -7.9048519    324.94284  0.014155029  0.012670342           20 
 1914000    0.4911038   -7.8873156    325.12432  0.014155535  0.012660399           25 
 1915000    0.4874504   -7.8760688     325.3239  0.014156828  0.012650468           23 
 1916000   0.48991583   -7.8901707    324.66351  0.014120716  0.012640548           21 
 1917000   0.49077564   -7.9028054    324.86526   0.01412212  0.012630643           27 
 1918000   0.47091946   -7.8830403    324.71549   0.01410825  0.012620734           29 
 1919000   0.48397683   -7.8740561    325.46284  0.014133352  0.012610844           21 
 1920000   0.48964102   -7.8812371    324.24678  0.014073211  0.012600968           25 
 1921000   0.48144646   -7.9083082    324.97179  0.014097336  0.012591084           32 
 1922000   0.48700574   -7.8855432    324.74776  0.014080288  0.012581204           22 
 1923000   0.47766545    -7.884817    324.19843  0.014049161  0.012571338           20 
 1924000   0.48187381    -7.896631    325.39805  0.014093817  0.012561491           29 
 1925000   0.48155274   -7.9012478    325.05015  0.014071435  0.012551652           21 
 1926000   0.49162702    -7.907786    324.38123  0.014035186  0.012541834           20 
 1927000   0.48010872   -7.8995428    325.04923  0.014056791  0.012532011           26 
 1928000   0.47543667    -7.900815    324.97213  0.014046167  0.012522214           31 
 1929000   0.48455133   -7.9063927    324.60881  0.014023191  0.012512429           43 
 1930000   0.48962075   -7.8907904    325.07107  0.014035884  0.012502637           19 
 1931000   0.47593528    -7.871493    324.79075  0.014016518  0.012492855           27 
 1932000   0.47455842    -7.899046    324.87912  0.014013074  0.012483086           28 
 1933000   0.47950529   -7.9037244    325.01974  0.014011887  0.012473334           28 
 1934000    0.4827609   -7.8984273     324.6566  0.013988995  0.012463585           20 
 1935000   0.47727855   -7.9163237    324.75821  0.013986141  0.012453847           26 
 1936000   0.48045082   -7.9038819    324.99354  0.013989047  0.012444114           23 
 1937000   0.48759157   -7.8996224    324.73452  0.013970682  0.012434402           42 
 1938000   0.47421472   -7.8962456    324.49075  0.013952991  0.012424669           29 
 1939000   0.46284099   -7.9130292    324.67528  0.013953725  0.012414962           26 
 1940000   0.47780823   -7.8991904    324.90961  0.013956598  0.012405262           44 
 1941000   0.48636606   -7.8992538    324.95851  0.013951507  0.012395586           40 
 1942000   0.48565985   -7.8844827     324.3953  0.013920155  0.012385893           48 
 1943000   0.47381844   -7.9011391    324.83154  0.013931701  0.012376213           27 
 1944000   0.48392587   -7.9136241    324.61418  0.013915217  0.012366553           34 
 1945000   0.47236722    -7.916551    324.62452  0.013908506  0.012356891           42 
 1946000   0.47863333   -7.9049597    324.28344  0.013886752  0.012347236           24 
 1947000   0.47720034   -7.9013442    324.54168  0.013890673  0.012337594           20 
 1948000   0.48029994   -7.9134746    324.32108  0.013874105  0.012327958           22 
 1949000   0.47037675   -7.9039202     324.6547  0.013881251   0.01231832           30 
 1950000   0.47732479   -7.9043511    324.58448  0.013871132  0.012308692           19 
 1951000   0.48979902    -7.914298    324.71471  0.013869585  0.012299077           24 
 1952000     0.470303   -7.9009661    324.15343  0.013838517  0.012289469           30 
 1953000   0.46277919    -7.915965    324.62906  0.013851726  0.012279867           20 
 1954000    0.4751313   -7.9184829    324.24532  0.013828272  0.012270278           30 
 1955000   0.47041624   -7.9205929    324.59342  0.013836037    0.0122607           17 
 1956000    0.4769488   -7.9143769    323.76932  0.013793853  0.012251129           34 
 1957000    0.4755072   -7.9321058    324.48604  0.013817324  0.012241574           25 
 1958000   0.46783313   -7.9119326    324.47379  0.013809746  0.012232018           38 
 1959000   0.46140072   -7.9209738     324.2639  0.013793768  0.012222471           25 
 1960000   0.47541957   -7.9237496    324.22094  0.013784904  0.012212935           33 
 1961000   0.46243259    -7.922347    324.26386  0.013779698  0.012203411           22 
 1962000   0.46529278   -7.9416282    324.32024   0.01377507  0.012193894           47 
 1963000    0.4662441   -7.9161263    324.25813  0.013765415  0.012184387           25 
 1964000   0.46828431   -7.9213585    324.40665  0.013764708  0.012174894           22 
 1965000   0.47685071   -7.8950948    323.99489  0.013740241  0.012165412           43 
 1966000   0.46886688    -7.909858    324.67919  0.013762258  0.012155927           23 
 1967000   0.47160461   -7.9221127    324.57351  0.013750784  0.012146454           27 
 1968000   0.46657105    -7.944451    324.57922  0.013744039  0.012136992           23 
 1969000   0.47232417   -7.9142205    324.13781  0.013718377  0.012127543           25 
 1970000   0.46426337   -7.9228734    324.15047  0.013711949  0.012118096           23 
 1971000   0.46128095   -7.9327555    324.60414  0.013724173  0.012108668           29 
 1972000   0.45340417   -7.9365341    323.87902  0.013686571  0.012099234           21 
 1973000   0.46381734   -7.9339206    324.43697    0.0137032  0.012089809           43 
 1974000   0.47351858   -7.9471722    324.13363  0.013683453  0.012080402           34 
 1975000   0.45388577   -7.9285009    324.33856  0.013685171  0.012071002           30 
 1976000   0.45528311    -7.924383    323.78967  0.013655097  0.012061601           28 
 1977000   0.47378029   -7.9300371    324.41389  0.013674502  0.012052217           31 
 1978000   0.46167317    -7.917475    324.13916  0.013656015  0.012042836           34 
 1979000   0.46185571   -7.9342391    323.48802  0.013621695  0.012033466           34 
 1980000   0.46997768   -7.9205066    324.22098  0.013645664  0.012024105           36 
 1981000   0.47317033   -7.9090689     324.1494  0.013635765  0.012014754           33 
 1982000   0.46467857    -7.929906    324.26816  0.013633878  0.012005415           27 
 1983000   0.46708104   -7.9312779     324.0405  0.013617436  0.011996081           43 
 1984000   0.46067353     -7.92575    324.26374  0.013619949  0.011986747           24 
 1985000   0.47903045   -7.9275186    323.95215  0.013600006  0.011977422           33 
 1986000    0.4624683   -7.9302126    324.40736  0.013612259  0.011968108           35 
 1987000   0.46853926    -7.935522    324.09063  0.013592125  0.011958815           32 
 1988000   0.46006972   -7.9445749    324.41315  0.013598808  0.011949523           35 
 1989000    0.4568591   -7.9224736    324.05104  0.013576799  0.011940238           44 
 1990000   0.45605639   -7.9336221    324.09055  0.013571631   0.01193096           46 
 1991000   0.45562465   -7.9428321    324.04589  0.013562945   0.01192169           41 
 1992000   0.45469826   -7.9248438    324.48467  0.013574492   0.01191243           39 
 1993000   0.45583579   -7.9182376    324.29997  0.013559959   0.01190318           39 
 1994000   0.45130839   -7.9415516    323.75521  0.013530392  0.011893944           33 
 1995000   0.46412696   -7.9374556    324.00231  0.013533931  0.011884715           30 
 1996000   0.45505335   -7.9351207     323.9803  0.013526232  0.011875502           39 
 1997000    0.4522204   -7.9266892    324.37514  0.013535935  0.011866292           39 
 1998000   0.44857445    -7.944092    324.20355  0.013522003  0.011857078           42 
 1999000    0.4538451   -7.9470203    323.79112  0.013498046  0.011847885           34 
 2000000   0.44212119   -7.9460236    323.97579  0.013498991  0.011838698           20 
 2001000   0.44933226   -7.9381836    323.72821  0.013481935  0.011829515           42 
 2002000   0.46499123   -7.9557879    324.36786  0.013501826  0.011820343           52 
 2003000   0.46068278   -7.9256416    324.27718  0.013491312  0.011811187           18 
 2004000   0.44150562   -7.9374143    324.34881  0.013487559  0.011802043           31 
 2005000   0.44415219   -7.9413542    324.50285  0.013487234  0.011792898           22 
 2006000   0.44549638    -7.942347    323.79358  0.013451046  0.011783764           26 
 2007000   0.45717212   -7.9568015    324.23008  0.013462468  0.011774631           18 
 2008000   0.45075839   -7.9401877    324.36926   0.01346154  0.011765517           36 
 2009000   0.45453449   -7.9336202    323.76599  0.013429815  0.011756406           34 
 2010000   0.45139768   -7.9360659    323.83441   0.01342597    0.0117473           43 
 2011000   0.45119024   -7.9455196    324.02044  0.013427003  0.011738201           36 
 2012000   0.44322699   -7.9400663     324.4671   0.01343883  0.011729111           21 
Loop time of 4434.16 on 48 procs for 2000000 steps with 4000 atoms

Performance: 77940.437 tau/day, 451.044 timesteps/s
99.4% CPU use with 48 MPI tasks x no OpenMP threads

MPI task timing breakdown:
Section |  min time  |  avg time  |  max time  |%varavg| %total
---------------------------------------------------------------
Pair    | 281        | 295.51     | 307.93     |  32.2 |  6.66
Neigh   | 28.191     | 28.875     | 30.077     |   7.3 |  0.65
Comm    | 254.78     | 272.99     | 286.61     |  37.1 |  6.16
Output  | 3.9045     | 3.9064     | 3.937      |   0.2 |  0.09
Modify  | 3773.9     | 3787.1     | 3798.1     |   9.8 | 85.41
Other   |            | 45.75      |            |       |  1.03

Nlocal:        83.3333 ave          93 max          74 min
Histogram: 1 2 4 7 11 11 6 4 1 1
Nghost:        1855.35 ave        1882 max        1831 min
Histogram: 2 2 5 9 8 7 8 3 2 2
Neighs:        11524.7 ave       13368 max        9998 min
Histogram: 3 3 3 10 13 6 3 4 2 1
FullNghs:      23048.6 ave       25787 max       20293 min
Histogram: 2 2 4 7 6 12 7 3 4 1

Total # of neighbors = 1106331
Ave neighs/atom = 276.58275
Neighbor list builds = 107624
Dangerous builds = 0

#clear
#
#next RN
#
#jump SELF
Total wall time: 1:13:57
