
units lj                  # Use reduced LJ style units
atom_style atomic         # Uncharged point particles
atom_modify map hash      # Needed for indexing of clusters etc
                          # Used to be able to find where atoms are in relation to each other.

lattice fcc 1.0 spacing 1 1 1
Lattice spacing in x,y,z = 1.5874011 1.5874011 1.5874011
region box block 0 10 0 10 0 10 units lattice
create_box 2 box
Created orthogonal box = (0.0000000 0.0000000 0.0000000) to (15.874011 15.874011 15.874011)
  3 by 4 by 4 MPI processor grid
create_atoms 1 box
Created 4000 atoms
  using lattice units in orthogonal box = (0.0000000 0.0000000 0.0000000) to (15.874011 15.874011 15.874011)
  create_atoms CPU = 0.010 seconds
set type 1 type/fraction 2 0.34 78393
Setting atom values ...
  1376 settings made for type/fraction
mass 1 1.0
mass 2 1.0
pair_style lj/cut  3.5
pair_modify tail  yes
pair_coeff 1  1  1.0  1.0   # Intearaction between 1 and 1 set with epsilon = 1 and sigma = 1
pair_coeff 1  2  1.5  0.8
pair_coeff 2  2  0.5  0.88

write_data data.0
System init for write_data ...
Neighbor list info ...
  update every 1 steps, delay 10 steps, check yes
  max neighbors/atom: 2000, page size: 100000
  master list distance cutoff = 3.8
  ghost atom cutoff = 3.8
  binsize = 1.9, bins = 9 9 9
  1 neighbor lists, perpetual/occasional/extra = 1 0 0
  (1) pair lj/cut, perpetual
      attributes: half, newton on
      pair build: half/bin/atomonly/newton
      stencil: half/bin/3d
      bin: standard
WARNING: Not all mixed pair coeffs generated from mixing. Use write_data with 'pair ij' option to store all pair coeffs. (../write_data.cpp:312)


#############################
#   M E L T   S Y S T E M   #
#############################

velocity all create 2.4 2750902 mom yes dist gaussian # Assign velocities
                                                    # Temperature 2.4, random number seed, zero linear momentum
                                                                                # Gaussian distribution

timestep 0.002   # simulation timestep
thermo 1000       # output thermodynamic data every 1000 steps bf 100

# Define a fix  in this case with index 1 applied to all
# particles in the simulation. This fix is for simulations
# in the anisotropic NPT ensemble. Note that we use the MTK
# correction.
fix 1 all npt temp 2.4 2.4 0.1 iso 5.68 5.68 0.5 mtk yes tchain 5 pchain 5 # Use NPT ensemble
                                                                         # Set temperature and pressure and damping
                                                                         # Numbers of thermostats in chain and in barostat
run 10000          # run for 10000 steps
Per MPI rank memory allocation (min/avg/max) = 3.642 | 3.644 | 3.648 Mbytes
Step Temp E_pair E_mol TotEng Press Volume 
       0          2.4   -6.2108987            0   -2.6117987   -4.0679274         4000 
    1000    2.4367341   -5.0296568            0   -1.3754695    5.9277486    4027.7945 
    2000    2.3930192   -5.0373654            0    -1.448734    6.0681947    4002.0931 
    3000    2.4327553   -5.0348703            0   -1.3866497    5.7316257    4033.3123 
    4000    2.3943268    -4.990099            0   -1.3995066    5.9049805    4041.1872 
    5000    2.3484555   -4.9742084            0   -1.4524059    5.6656967    4065.7295 
    6000    2.4354631    -4.977759            0   -1.3254777     5.994182    4033.9755 
    7000    2.4272699     -5.03741            0   -1.3974153    5.9622368    4018.5992 
    8000    2.3785973   -4.9877382            0   -1.4207342    5.9254284    4037.6689 
    9000    2.4066283   -5.0752274            0   -1.4661875    5.3805833     4040.725 
   10000    2.4301414   -5.0386359            0   -1.3943351    5.7018718    4031.6951 
Loop time of 2.45438 on 48 procs for 10000 steps with 4000 atoms

Performance: 704046.327 tau/day, 4074.342 timesteps/s
99.6% CPU use with 48 MPI tasks x no OpenMP threads

MPI task timing breakdown:
Section |  min time  |  avg time  |  max time  |%varavg| %total
---------------------------------------------------------------
Pair    | 1.0612     | 1.1324     | 1.2051     |   3.1 | 46.14
Neigh   | 0.20465    | 0.21197    | 0.22522    |   1.0 |  8.64
Comm    | 0.76127    | 0.84625    | 0.91157    |   4.2 | 34.48
Output  | 0.00024299 | 0.00024656 | 0.00031121 |   0.0 |  0.01
Modify  | 0.2115     | 0.24825    | 0.31936    |   5.7 | 10.11
Other   |            | 0.01522    |            |       |  0.62

Nlocal:        83.3333 ave          92 max          72 min
Histogram: 1 2 2 2 6 12 4 14 3 2
Nghost:        1631.19 ave        1665 max        1603 min
Histogram: 3 7 4 5 8 4 9 5 2 1
Neighs:        9464.15 ave       10679 max        8126 min
Histogram: 3 2 4 4 7 9 9 5 3 2

Total # of neighbors = 454279
Ave neighs/atom = 113.56975
Neighbor list builds = 901
Dangerous builds = 183

# Equilibrate just above the melting temperature to avoid step fn in T

fix 1 all npt temp 1.25 1.25 0.1 iso 5.68 5.68 0.5 mtk yes tchain 5 pchain 5
run 2000
Per MPI rank memory allocation (min/avg/max) = 3.643 | 3.645 | 3.649 Mbytes
Step Temp E_pair E_mol TotEng Press Volume 
   10000    2.4301414   -5.0386359            0   -1.3943351    5.7018718    4031.6951 
   11000     1.264619   -6.9602481            0   -5.0637938    5.6703708    3233.9652 
   12000    1.2275843   -6.9901109            0   -5.1491949    5.4002242    3236.3856 
Loop time of 0.577262 on 48 procs for 2000 steps with 4000 atoms

Performance: 598687.995 tau/day, 3464.630 timesteps/s
99.6% CPU use with 48 MPI tasks x no OpenMP threads

MPI task timing breakdown:
Section |  min time  |  avg time  |  max time  |%varavg| %total
---------------------------------------------------------------
Pair    | 0.25707    | 0.2786     | 0.29742    |   1.8 | 48.26
Neigh   | 0.037828   | 0.040115   | 0.042065   |   0.5 |  6.95
Comm    | 0.18921    | 0.20918    | 0.23396    |   2.4 | 36.24
Output  | 4.9594e-05 | 5.1195e-05 | 6.4756e-05 |   0.0 |  0.01
Modify  | 0.040699   | 0.044604   | 0.049171   |   1.0 |  7.73
Other   |            | 0.00471    |            |       |  0.82

Nlocal:        83.3333 ave          91 max          71 min
Histogram: 1 0 2 3 6 8 8 8 7 5
Nghost:        1900.96 ave        1930 max        1870 min
Histogram: 2 1 7 4 7 9 5 8 2 3
Neighs:        11838.6 ave       13160 max       10179 min
Histogram: 3 1 4 2 11 4 9 6 4 4

Total # of neighbors = 568252
Ave neighs/atom = 142.06300
Neighbor list builds = 142
Dangerous builds = 12

#############################
# L I N E A R  Q U E N C H  #
#############################

# Define solid atoms. This closely follows ten Wolde  Ruiz-Montero and Frenkel  Faraday Discuss  1996  104  93-110
# Compute components of the per-atom q6 vector
compute q6 all orientorder/atom degrees 1 6 components 6 nnn NULL cutoff 1.3 # compute the Q6 parameter.
                                                                             # Use all neighbours within 1.3 unit cell.

# get number of connections
compute coord_number all coord/atom orientorder q6 0.5

# An atom is solid if it has 8 or more connections (of a possible 14)
variable is_solid atom c_coord_number>=8
group solid dynamic all var is_solid    # Must be dynamic to update
dynamic group solid defined

# do clustering
compute cluster solid cluster/atom 1.3 # Create a cluster where all atoms within are solid and max 1.3 units from another member

# define chunks one chunk per cluster
compute clus_chunks solid chunk/atom c_cluster nchunk every compress yes  # Says which atoms are in which chunk

# count the size of each chunk
compute size_chunks solid property/chunk clus_chunks count


# Find the maximum entry in the vector of chunk sizes
variable max_n equal max(c_size_chunks)


# Thermo style which includes this variable
# thermo_style custom step temp pe vol v_max_n

thermo ${N}  # Print the thermo information every 100 steps
thermo 1000  

# Reset the npt fix at a lower temperature (below freezing)
fix 1  all npt temp  ${temp} ${temp}  0.1  iso  5.68  5.68  0.5  mtk yes tchain  5  pchain  5
fix 1  all npt temp  0.45 ${temp}  0.1  iso  5.68  5.68  0.5  mtk yes tchain  5  pchain  5
fix 1  all npt temp  0.45 0.45  0.1  iso  5.68  5.68  0.5  mtk yes tchain  5  pchain  5

dump dmp2 all dcd ${N} traj.dcd
dump dmp2 all dcd 1000 traj.dcd


compute msd all msd com yes
variable twopoint equal c_msd[4]/6/(step*dt+1.0e-6)
fix 9 all vector 10 c_msd[4]
variable fit equal slope(f_9)/6/(10*dt)
thermo_style custom step temp pe c_msd[4] v_twopoint v_fit v_max_n

fix 1 all npt temp 1.25 ${temp} 0.1 iso 5.68 5.68 0.5 mtk yes tchain 5 pchain 5
fix 1 all npt temp 1.25 0.45 0.1 iso 5.68 5.68 0.5 mtk yes tchain 5 pchain 5
run 2000000 # 5000000  # Run for this many steps
Neighbor list info ...
  update every 1 steps, delay 10 steps, check yes
  max neighbors/atom: 2000, page size: 100000
  master list distance cutoff = 3.8
  ghost atom cutoff = 3.8
  binsize = 1.9, bins = 8 8 8
  4 neighbor lists, perpetual/occasional/extra = 1 3 0
  (1) pair lj/cut, perpetual
      attributes: half, newton on
      pair build: half/bin/atomonly/newton
      stencil: half/bin/3d
      bin: standard
  (2) compute orientorder/atom, occasional
      attributes: full, newton on
      pair build: full/bin/atomonly
      stencil: full/bin/3d
      bin: standard
  (3) compute coord/atom, occasional
      attributes: full, newton on
      pair build: full/bin/atomonly
      stencil: full/bin/3d
      bin: standard
  (4) compute cluster/atom, occasional
      attributes: full, newton on
      pair build: full/bin/atomonly
      stencil: full/bin/3d
      bin: standard
Per MPI rank memory allocation (min/avg/max) = 9.815 | 9.821 | 9.828 Mbytes
Step Temp PotEng c_msd[4] v_twopoint v_fit v_max_n 
   12000    1.2275843   -6.9901109 1.0679205e-30 7.4161139e-33 8.3333333e+20            3 
   13000    1.2413456   -7.0354408   0.51437523  0.003297277   0.04213933            1 
   14000    1.2601074   -6.9585093   0.95049924 0.0056577334  0.039661191            1 
   15000    1.2337713   -6.9958563    1.4503422 0.0080574564  0.039437766            2 
   16000    1.2548386   -6.9920059    1.9835498  0.010330988  0.040528738            2 
   17000    1.2420397   -7.0082623    2.4096236   0.01181188  0.040284462            1 
   18000    1.2286964   -7.0376124    2.9009883  0.013430501  0.039978884            1 
   19000    1.2272309   -6.9856089     3.447259  0.015119557  0.040299123            2 
   20000    1.2416064   -7.0199634    3.9719472   0.01654978  0.040865448            2 
   21000    1.2335747   -6.9953754    4.3596903  0.017300358  0.040861908            1 
   22000    1.2595265    -6.966688    4.7302542  0.017917629  0.040306184            1 
   23000    1.2606866   -6.9867743    5.2202123  0.018913812  0.039814655            2 
   24000    1.2379526   -6.9874941    5.6672791  0.019678052  0.039540027            1 
   25000    1.2793841   -6.9992723    6.0947186  0.020315728  0.039326985            1 
   26000    1.2401583   -7.0134063    6.5467884  0.020983296  0.039071234            2 
   27000    1.2420084   -6.9824576    6.9891494  0.021571448  0.038846815            1 
   28000    1.2771304   -6.9824305    7.3179883  0.021779727  0.038591438            1 
   29000    1.2262887   -6.9943613    7.7163107  0.022173306   0.03823004            4 
   30000     1.253118   -6.9501405    8.1880011  0.022744447  0.037967756            1 
   31000     1.277039   -7.0401821    8.5633559  0.023019774  0.037705313            2 
   32000    1.2267958   -7.0346289    8.9991112  0.023435185  0.037434859            3 
   33000    1.2441598   -6.9716685    9.4064678  0.023753706  0.037205643            3 
   34000    1.2002245   -7.0063461    9.8471268  0.024135114  0.037026262            2 
   35000    1.2275146   -7.0148814    10.296266  0.024514918  0.036891545            1 
   36000     1.238009   -6.9608824    10.757545  0.024901724  0.036770579            1 
   37000    1.2318106   -7.0308927    11.211213   0.02525048  0.036695553            1 
   38000    1.2296956   -7.0089124     11.61341  0.025468005  0.036651581            3 
   39000    1.2462312   -6.9924721    12.031979  0.025709356  0.036604493            2 
   40000    1.2557668   -7.0013821    12.321947  0.025670723  0.036504165            1 
   41000    1.2782755   -7.0347475    12.741847  0.025898063  0.036377238            3 
   42000    1.2466957   -7.0099295    13.252529    0.0262947  0.036293463            1 
   43000    1.2558564   -7.0240815    13.632142  0.026418879  0.036237323            1 
   44000    1.2335965   -7.0314768    14.092728  0.026690772  0.036187178            1 
   45000    1.2039405   -7.0117517    14.543163  0.026931784    0.0361381            1 
   46000    1.2357236    -7.012354    14.967049  0.027114219   0.03610208            1 
   47000    1.2528859   -7.0300579    15.358616  0.027231588  0.036050575            1 
   48000     1.238201   -6.9959761    15.872883  0.027557088  0.036038592            4 
   49000    1.2335578   -6.9711523    16.419706   0.02792467  0.036045034            2 
   50000     1.237359   -7.0118683    16.762351  0.027937252  0.036062659            2 
   51000    1.2727466   -6.9877231    17.269831  0.028218677  0.036068938            2 
   52000    1.2313367   -7.0120288    17.639534  0.028268484  0.036075826            1 
   53000    1.2397206   -7.0012836    18.111339  0.028476948  0.036075601            2 
   54000     1.255221    -7.002028    18.413913  0.028416532   0.03606732            3 
   55000    1.2150644   -6.9939139    18.942086   0.02870013  0.036053602            1 
   56000    1.2128871   -7.0460663    19.428363  0.028911254  0.036075634            1 
   57000    1.2591595   -7.0246559    20.000217  0.029240083  0.036111171            2 
   58000     1.216424   -7.0560084    20.295606  0.029160353   0.03614558            1 
   59000      1.21952   -7.0079521    20.724708  0.029272186  0.036152581            1 
   60000    1.2102888   -7.0500401    21.208964  0.029456894   0.03616127            1 
   61000    1.2465593   -7.0279605    21.546387  0.029434955  0.036176574            1 
   62000    1.2218986    -6.994907    22.206034   0.02984682  0.036193401            1 
   63000    1.2504029   -7.0180494    22.495097  0.029755419  0.036212568            2 
   64000    1.1991003   -6.9949149    22.999178  0.029946846  0.036213787            2 
   65000     1.214875   -7.0245299    23.407068  0.030009061  0.036222721            1 
   66000    1.2064379   -7.0270577    23.871724  0.030141066  0.036230722            1 
   67000     1.230397   -7.0484872    24.450603  0.030411198  0.036247785            1 
   68000    1.2266131   -7.0448449    24.770359  0.030355832  0.036278338            1 
   69000    1.1988588   -7.0560163    25.272911  0.030522839  0.036295902            2 
   70000    1.2229993   -7.0266095    25.619175  0.030499017  0.036308662            1 
   71000    1.2365254   -7.0295128    26.098133  0.030631612  0.036317555            2 
   72000    1.2292192   -7.0362742    26.478178  0.030646039  0.036325439            1 
   73000    1.2297517   -7.0287119    26.820377  0.030616869  0.036329395            1 
   74000    1.2397013   -7.0031329    27.243566  0.030679691  0.036324903            3 
   75000    1.2104841   -7.0459746    27.696797  0.030774219  0.036321054            3 
   76000    1.2215698   -7.0185895    28.153672  0.030870255  0.036311929            1 
   77000    1.2302204   -7.0506588    28.450241  0.030790304   0.03629815            1 
   78000    1.2357437   -7.0588491    28.862823  0.030836349  0.036283326            1 
   79000    1.2159543   -7.0534701    29.288504  0.030895047  0.036266098            2 
   80000    1.2113659   -7.0477138    29.682801  0.030919584  0.036244139            1 
   81000    1.2446138   -7.0154546    30.225088  0.031095769  0.036223215            2 
   82000    1.2263628   -7.0442996    30.331576  0.030824772  0.036205135            2 
   83000    1.2346984   -7.0099015    30.771823  0.030895405  0.036176086            1 
   84000    1.2252919   -7.0336985    31.150683  0.030903455  0.036143317            1 
   85000    1.2389086   -7.0842924    31.590276  0.030970858  0.036109106            3 
   86000    1.2109188   -7.0013319    32.014596  0.031021895  0.036080489            1 
   87000    1.2176088   -7.0124147    32.353506  0.030989948  0.036042283            1 
   88000    1.2343642   -6.9981822    32.824219  0.031083541  0.036004737            1 
   89000    1.2177123   -7.0322647    33.196076  0.031082468  0.035968559            1 
   90000    1.2108478   -7.0665385    33.496748  0.031015508   0.03593353            2 
   91000    1.2294526   -7.0425105    33.896351  0.031040614  0.035893008            2 
   92000     1.251735   -7.0415868    34.439105  0.031194841  0.035851547            1 
   93000    1.2193056   -7.0145265     34.89632  0.031269104  0.035822933            2 
   94000    1.2196083   -7.0241271    35.293948  0.031288961  0.035789574            1 
   95000    1.2088155   -7.0607229    35.531135  0.031167662  0.035758487            2 
   96000    1.2346318   -7.0520236    35.913776  0.031175152  0.035724416            2 
   97000     1.206441   -7.0673366    36.356388   0.03123401  0.035688905            1 
   98000    1.2330117    -7.041252    36.919359  0.031394013   0.03566324            1 
   99000    1.2121969    -7.057763    37.553215   0.03161045   0.03564247       -1e+20 
  100000    1.1862263   -7.0531138    37.843888  0.031536573  0.035623295            1 
  101000    1.1934522   -7.0593895    38.307537  0.031606878  0.035602685            1 
  102000     1.229896   -7.0567551    38.691967  0.031611084  0.035585422            1 
  103000    1.2071767   -7.0331979    38.949087  0.031512206  0.035565549            3 
  104000    1.2069896   -7.1048231    39.237239  0.031440095  0.035537026            2 
  105000    1.2344926   -7.0556267    39.701629  0.031509229  0.035505841            3 
  106000    1.2027593   -7.0936169    39.967798  0.031421224  0.035474409            2 
  107000    1.2193738   -7.0412691    40.261535  0.031356336  0.035439581            2 
  108000    1.2239838   -7.0309011    40.811467  0.031490329  0.035404645            1 
  109000    1.2181957   -7.0709161    41.042758  0.031378255  0.035371805            1 
  110000    1.2095871   -7.0454294     41.57585  0.031496856  0.035338205            2 
  111000    1.2027038   -7.0900875    41.920973  0.031472202  0.035303817            2 
  112000    1.2255127   -7.0475922    42.098454  0.031323254  0.035266746            2 
  113000    1.2117351     -7.02282    42.889644  0.031629531  0.035236124            1 
  114000     1.217565   -7.0557671    43.186465  0.031569053  0.035206621            3 
  115000    1.2063866   -7.0481905    43.610005  0.031601453  0.035178799            1 
  116000    1.2006818   -7.0778288    43.964591  0.031583758  0.035153707            1 
  117000    1.2179574    -7.079711    44.307839   0.03155829  0.035127355            3 
  118000    1.2244141   -7.0493332    44.790028  0.031631376  0.035099119            1 
  119000    1.2188392    -7.058501     45.13968   0.03161042  0.035074107            2 
  120000    1.2127876   -7.0695313    45.224876  0.031406164  0.035041813            2 
  121000    1.1961408   -7.0541454     45.82552  0.031560275  0.035008972            1 
  122000     1.198384   -7.0570917    46.204185  0.031560236  0.034981633       -1e+20 
  123000      1.19704   -7.0549392    46.531487  0.031525398  0.034949588            2 
  124000    1.2047927   -7.0627027    47.006601  0.031590457   0.03492097            1 
  125000    1.2193971   -7.0911935    47.261841  0.031507894  0.034893342            5 
  126000    1.1911197   -7.0628388    47.945518  0.031709998  0.034866579            1 
  127000    1.2004396   -7.0288011    48.458966  0.031797222   0.03484554            5 
  128000    1.1919602   -7.0907533    48.992552  0.031896193  0.034829943            1 
  129000    1.2042692   -7.1363131    48.896055  0.031586598   0.03481306            1 
  130000    1.1924375   -7.0470015    49.565159  0.031772538  0.034788891            1 
  131000     1.197168   -7.0948186    49.957233   0.03177941  0.034767741            1 
  132000    1.1921488   -7.0833176    50.397933  0.031816877  0.034750046            1 
  133000    1.2046107   -7.1024188    50.781686  0.031818099    0.0347323            3 
  134000    1.1961948   -7.1371689    51.000251  0.031716574  0.034712985            2 
  135000    1.1842138   -7.0458154    51.607783  0.031856656  0.034691688            1 
  136000    1.1839754   -7.0972603    51.773431  0.031723916  0.034670841            2 
  137000    1.1975251   -7.0563712    52.267599  0.031792944  0.034649028            2 
  138000    1.2080329   -7.0548258    52.817206  0.031894448  0.034630251            2 
  139000     1.183755   -7.1233452    53.106635   0.03183851  0.034613984            1 
  140000     1.196456   -7.0974592    53.699545  0.031964015  0.034599373            1 
  141000      1.19994   -7.0748689    54.153497  0.032005613  0.034588744            3 
  142000    1.1867638   -7.0964793     54.48385   0.03197409  0.034579769            4 
  143000    1.1989657    -7.089163    54.706106  0.031880015   0.03456814            1 
  144000    1.1856117   -7.1202932    55.312095  0.032009314  0.034557947            1 
  145000    1.2001373   -7.1051451    55.620192  0.031965628  0.034543474            1 
  146000     1.185688   -7.0864791    56.100556  0.032020865  0.034532294            1 
  147000    1.1729883   -7.0570548    56.706063  0.032146294  0.034522061            1 
  148000    1.1859524   -7.0836279    56.981341  0.032084088  0.034514953            2 
  149000    1.2035232   -7.0859374    57.482943  0.032149297  0.034508921            4 
  150000    1.2176327   -7.1339317    57.671556  0.032039753  0.034502486            3 
  151000    1.2268833   -7.0480964    58.141285  0.032086802  0.034494392            1 
  152000    1.1715024    -7.111144    58.427893  0.032032836  0.034483811            1 
  153000    1.1791972   -7.0997575     58.66066   0.03195025  0.034468893            1 
  154000    1.1869255    -7.077089     59.19512  0.032031991    0.0344552            3 
  155000    1.1885712   -7.1147181    59.761738  0.032129967  0.034447362            1 
  156000    1.1790772   -7.0918185    60.207254  0.032161994   0.03444005            1 
  157000    1.1730437   -7.1117623     60.58512  0.032157707  0.034432646            2 
  158000    1.2169151    -7.138073    60.662372  0.031994922  0.034422976            1 
  159000    1.1894249   -7.1436155    61.347531  0.032152794  0.034412844            1 
  160000     1.218167   -7.1136033    61.593387  0.032079889  0.034401182            2 
  161000    1.2156032   -7.0840138    62.138705  0.032162891  0.034390849            1 
  162000    1.1836048   -7.1086409    62.596906  0.032200054  0.034380418            2 
  163000    1.2098696   -7.0882903    62.534801  0.031970757  0.034366209            1 
  164000    1.1747963   -7.0831989    62.990671  0.032007455  0.034350578            1 
  165000    1.1764935    -7.088101    63.401957   0.03202119   0.03433491            1 
  166000    1.1884698   -7.0319727    64.135185  0.032196378  0.034321464            1 
  167000    1.1688508   -7.1244215    63.985605  0.031928945  0.034306014            1 
  168000    1.1882181   -7.0930695    64.554122  0.032020894  0.034288973            2 
  169000    1.1903202   -7.1192028    64.877776  0.031991014  0.034270779            3 
  170000     1.206604   -7.1127917    65.260504  0.031990443  0.034253592            2 
  171000    1.1902152   -7.1254469    65.429807  0.031885871  0.034238407            1 
  172000    1.1836871   -7.1658575    65.681271  0.031822321  0.034219668            2 
  173000     1.201339   -7.0681082    66.902043  0.032226418  0.034205794            1 
  174000    1.1862625   -7.1725198    66.952855  0.032065543  0.034196484       -1e+20 
  175000    1.2170816   -7.1072115    67.443558   0.03211598  0.034184698            4 
  176000    1.1848735   -7.1491518    67.744173   0.03207584  0.034174415            1 
  177000    1.1640563   -7.1032883    68.212712  0.032115213  0.034165746            1 
  178000    1.1907921   -7.1183819    68.712815  0.032168921  0.034158224            2 
  179000    1.1865435   -7.1465071    68.894076  0.032073592  0.034148341            2 
  180000    1.1775601   -7.1368738    69.334837  0.032099461   0.03413479            1 
  181000    1.2122788   -7.1400927    69.721256  0.032100026  0.034122966            2 
  182000    1.1832995   -7.1527843     70.04109  0.032070096  0.034112069            4 
  183000    1.1825759    -7.163834    70.401356  0.032058905  0.034098869            1 
  184000    1.1734426   -7.1143498    70.984932  0.032148973  0.034086879            1 
  185000    1.1746942   -7.1258271    71.512045  0.032212633  0.034075882            2 
  186000    1.1800401   -7.1217268    71.882027  0.032205209  0.034066196            3 
  187000    1.1661069   -7.1564103    72.321742   0.03222894  0.034056801            1 
  188000    1.1615461   -7.1268722    72.881617  0.032305681  0.034048592            1 
  189000    1.1958118   -7.1424584    73.055146  0.032211264  0.034042082            2 
  190000    1.1982755   -7.1114917    73.471771  0.032224461  0.034035459            3 
  191000    1.1712887   -7.0979359    73.894401   0.03224014   0.03402883            3 
  192000    1.1919164   -7.1515124    74.187647  0.032199499   0.03402074            3 
  193000    1.1882651   -7.1283805     74.56309  0.032194771  0.034011907            1 
  194000    1.1672685   -7.1551711    74.763472  0.032114893  0.034001916            3 
  195000    1.1781869   -7.1045971    75.113579   0.03209982  0.033988587            1 
  196000    1.1874561    -7.114501    75.633095  0.032156928  0.033977402            2 
  197000    1.1933418   -7.1150613     76.28766  0.032270584  0.033968434            2 
  198000    1.1607548   -7.1059388    76.379863  0.032146407  0.033959257            1 
  199000    1.1551504   -7.1219851    76.731075  0.032131941  0.033947194            4 
  200000    1.1580514    -7.191326    77.051771  0.032104905  0.033936166            2 
  201000    1.1636543    -7.145523    77.281122  0.032040266  0.033923895            2 
  202000    1.1757943   -7.1374184    77.851125  0.032116801  0.033913372            1 
  203000    1.1807011   -7.1655854    78.142879  0.032078358  0.033902194            1 
  204000    1.1784391   -7.1089697    78.755276  0.032171273      0.03389            1 
  205000    1.1628919   -7.1654653    78.983861  0.032107261  0.033878735            1 
  206000    1.1438583   -7.1520307    79.165606  0.032024921  0.033867864            1 
  207000    1.1274839   -7.1232984    79.813493  0.032131036   0.03385532            1 
  208000    1.1649983   -7.1516037    80.060218  0.032075408  0.033841408            1 
  209000     1.175573   -7.1340856    80.238146  0.031992881  0.033826974            1 
  210000    1.1786108   -7.1521274    80.406582  0.031907374  0.033810379            1 
  211000    1.1627918    -7.186647    80.575161  0.031822733  0.033791698            1 
  212000    1.1458327   -7.1443844    80.870935  0.031788889  0.033773124            2 
  213000    1.1774126   -7.1616938    81.536486  0.031900034  0.033756351            1 
  214000    1.1476675   -7.1539171    81.831167  0.031865719  0.033739593            1 
  215000    1.1538406   -7.1390183     82.33183  0.031911562  0.033723849            2 
  216000    1.1732116   -7.1923651    82.109694  0.031678123  0.033703006            1 
  217000    1.1674358    -7.171755    82.652499  0.031740591  0.033681886            2 
  218000    1.1849536   -7.1099737    83.232949  0.031816877  0.033663216            3 
  219000    1.1691414   -7.1632596    83.739746  0.031864439  0.033645931            2 
  220000    1.1795339   -7.1799919    83.714026  0.031709858    0.0336254            1 
  221000    1.1328448   -7.2231523    84.148267  0.031730116  0.033605142            2 
  222000    1.1870717   -7.1529675    84.490949  0.031715822  0.033586605            2 
  223000    1.1720364   -7.1217439    85.347741  0.031893775   0.03356858            1 
  224000    1.1509399   -7.1215292    85.520474  0.031815652  0.033552932            1 
  225000    1.1773723   -7.1195263    85.716284  0.031746772  0.033534827            2 
  226000    1.1689966   -7.1614621    86.124849   0.03175695  0.033514937            1 
  227000    1.1811101   -7.1519873    86.408114   0.03172104  0.033496799            1 
  228000    1.1671991     -7.14626    86.685861  0.031683429  0.033478424            1 
  229000    1.1471517   -7.2024423    87.085754  0.031690595  0.033460144            3 
  230000    1.1583268   -7.2005403    87.265514   0.03161794  0.033440937            2 
  231000    1.1560549   -7.2048724    87.626312  0.031611224  0.033422328            1 
  232000      1.18453   -7.1950197    88.236525  0.031694154  0.033404963            1 
  233000    1.1561297    -7.113923    88.771144  0.031749336  0.033388118            1 
  234000    1.1573435   -7.1609402    88.780233  0.031616892  0.033370975            3 
  235000    1.1570115   -7.1706992    89.395083  0.031700384  0.033351721            1 
  236000      1.16151    -7.200358    89.426695  0.031577223  0.033333997            1 
  237000    1.1543425   -7.2083396    89.968327  0.031634433  0.033316226            1 
  238000    1.1536739   -7.1431222    90.524275  0.031696175  0.033298472            1 
  239000    1.1481449   -7.1750282    90.663562  0.031612121  0.033281515            2 
  240000    1.1602503   -7.1743699     90.80587  0.031529816  0.033263245            2 
  241000    1.1428348   -7.1555348    91.679779  0.031701168  0.033245934            1 
  242000    1.1567191   -7.2154451    91.748094  0.031593696  0.033227186            1 
  243000    1.1510862   -7.1874111    92.197807  0.031617903  0.033208764            3 
  244000    1.1372745   -7.1531379     92.49778  0.031590772  0.033189562            1 
  245000    1.1745549   -7.1163993    92.871573   0.03158897  0.033172974            3 
  246000    1.1615031   -7.1618686    93.279514  0.031598751  0.033157786            1 
  247000     1.169923     -7.12589    93.940246   0.03169374  0.033141617            2 
  248000    1.1540547   -7.1966933    93.552548  0.031435668  0.033123789            2 
  249000    1.1241644   -7.1902463    93.903663  0.031426929  0.033104476            1 
  250000    1.1464694   -7.1452299    94.450261   0.03148342   0.03308521            2 
  251000    1.1837029   -7.2051083     94.33338  0.031319183  0.033065413            1 
  252000    1.1376554   -7.1684498    94.655747  0.031301504  0.033045242            2 
  253000    1.1434658   -7.1966931    94.950014  0.031274708  0.033022508            2 
  254000    1.1659907   -7.1838815    95.101954  0.031201428  0.032997534            1 
  255000     1.156809   -7.2242798    95.161511  0.031098533  0.032972633            4 
  256000    1.1575169   -7.2214696    95.896892  0.031216436  0.032949744            2 
  257000    1.1259757   -7.1572115    96.622791  0.031330347  0.032927965            2 
  258000    1.1685396   -7.1884264    96.863592   0.03128669   0.03290718            1 
  259000    1.1747189   -7.1852847    96.858674  0.031164309  0.032884978            2 
  260000    1.1345541   -7.1881243    97.542583  0.031263648  0.032862371            2 
  261000    1.1297343   -7.1805616    97.800967  0.031226362  0.032840409            1 
  262000    1.1721609   -7.1864916    98.388208  0.031293959  0.032819265            3 
  263000    1.1384418   -7.1875512    98.758351  0.031292253  0.032799558            1 
  264000    1.1483987   -7.1791666     99.04898  0.031265461  0.032778936            1 
  265000    1.1505475   -7.1958178     99.15893  0.031182053  0.032758715            2 
  266000    1.1613299   -7.2176559    99.701747  0.031234883  0.032739514            1 
  267000    1.1753726   -7.1832352    100.19419  0.031271596  0.032720053            1 
  268000    1.1343904   -7.1606625    100.53826  0.031261895  0.032701924            1 
  269000    1.1256648   -7.2036409    100.76095  0.031214669  0.032682773            1 
  270000    1.1404864   -7.1785238    100.93842  0.031153834  0.032663027            1 
  271000    1.1365897   -7.1998075    100.92606  0.031035073  0.032643093            2 
  272000    1.1262232   -7.2245869    101.37991  0.031060021  0.032621955            1 
  273000    1.1713517   -7.1970629    102.24241  0.031209527  0.032603003            1 
  274000    1.1648407   -7.1979847    102.75565  0.031251719  0.032585512            3 
  275000    1.1357232   -7.2076046    102.40773  0.031032646  0.032566399            2 
  276000    1.1636672   -7.2268224    103.00793  0.031101427  0.032546434            1 
  277000    1.1443351   -7.2246058    103.27629  0.031069883  0.032527212            1 
  278000    1.1481022    -7.239067    103.34046  0.030977357  0.032507202            1 
  279000    1.1462903   -7.2252148    104.08054  0.031087378  0.032487286            1 
  280000    1.1399011   -7.2073725    104.52493  0.031108611  0.032467783            1 
  281000    1.1231983   -7.2014816    104.97804  0.031132278  0.032449629            1 
  282000     1.121947   -7.1747552    105.21559  0.031092078   0.03243254            1 
  283000    1.1365378   -7.2327602    105.77257  0.031146221  0.032415614            1 
  284000    1.1062718   -7.2208076    106.50044  0.031250129   0.03240044            2 
  285000     1.158508   -7.2239713    106.66927  0.031189844  0.032385264            1 
  286000    1.1324681   -7.2143179    106.78974  0.031115891  0.032368924            3 
  287000    1.1461184   -7.2100088    107.26724  0.031146121  0.032353436            1 
  288000    1.1300468   -7.1690897     108.2755  0.031329715  0.032339766            1 
  289000    1.1674581   -7.1826313    108.72325  0.031350418  0.032327489            1 
  290000    1.1421478   -7.2062512     108.8345  0.031274282  0.032315487            1 
  291000     1.149832   -7.2136361    109.06163  0.031231851  0.032303704            2 
  292000    1.1257082   -7.2257135    109.76405  0.031325355  0.032291838            2 
  293000    1.1507531   -7.2793563     109.6342  0.031181514  0.032280475            1 
  294000    1.1105414   -7.2174301    110.24144  0.031247575  0.032267431            1 
  295000    1.1444059   -7.2415753     110.5186  0.031219943  0.032255232            1 
  296000    1.1439007   -7.2342972    111.08836  0.031274877  0.032242436            2 
  297000    1.1554597   -7.2467474    111.10837  0.031175187  0.032231614            2 
  298000    1.1619364   -7.2373349    111.82614  0.031271292  0.032220065            2 
  299000    1.1120582   -7.2309013    111.66985  0.031123147  0.032207632            2 
  300000     1.105578   -7.2383688    112.00244  0.031111788  0.032194374            1 
  301000    1.1268289   -7.2302949    112.44133  0.031129935  0.032180257            2 
  302000    1.1505253   -7.2237736    112.40651  0.031017248  0.032166095            2 
  303000    1.1345564   -7.1835494    112.59622  0.030967058  0.032150788            1 
  304000    1.1513147   -7.2715415    112.96479  0.030966227  0.032134768            3 
  305000    1.1383779   -7.2358557    113.22506  0.030935808  0.032119508            1 
  306000    1.1316807   -7.2244473     113.5612  0.030926252  0.032103591            1 
  307000     1.114274   -7.2168241    114.31303  0.031029595  0.032088788            3 
  308000    1.1470672   -7.2071633    114.37732  0.030946245  0.032074309            1 
  309000    1.1307184   -7.2418217    114.53824  0.030889492  0.032058414            2 
  310000    1.1049292   -7.2478036    114.90055  0.030887243   0.03204189            2 
  311000    1.1422505   -7.2835667    114.94864  0.030800815  0.032024798            2 
  312000    1.1473699   -7.2376262    115.17253  0.030761893  0.032008128            2 
  313000    1.1305108    -7.226319    116.22833   0.03094471  0.031991576            4 
  314000    1.1048181   -7.2360615    116.44556   0.03090381  0.031975895            2 
  315000    1.1136674   -7.2472206    116.48799  0.030816929  0.031960207            5 
  316000    1.1484089   -7.2618476    116.86323  0.030818361  0.031945131            1 
  317000    1.1174604    -7.255631    117.28129  0.030831043  0.031928216            2 
  318000    1.1336097   -7.2480048    117.57738  0.030811684  0.031912316            1 
  319000    1.1405582    -7.246799    118.34628  0.030915955  0.031897315            1 
  320000    1.1103515   -7.2650807    118.52447  0.030865748  0.031882369            3 
  321000     1.112871     -7.24851    118.50177    0.0307637  0.031867609            1 
  322000    1.1064028   -7.2137616    119.67544  0.030971905  0.031852612            1 
  323000    1.1174613   -7.2528465    119.69456  0.030880949  0.031839388            2 
  324000    1.1302046   -7.2695799    119.86808  0.030830267  0.031826859            1 
  325000     1.122243   -7.2392059    120.38011  0.030866694  0.031814388            1 
  326000    1.1301098   -7.2409569    120.80578  0.030880822  0.031801536            2 
  327000    1.1376903    -7.282788    120.58755  0.030730771  0.031787963            2 
  328000    1.1238845   -7.2886814    120.97265  0.030734922  0.031773249            2 
  329000    1.1120557   -7.2293211    121.13521  0.030682678  0.031757197            4 
  330000    1.1043252   -7.2403663    121.06243   0.03057132  0.031741096            1 
  331000    1.1333783   -7.2403619    121.68927  0.030636774  0.031724818            3 
  332000    1.1660064   -7.2529456    122.04261  0.030633186  0.031709043            2 
  333000    1.1164242   -7.3130524    122.03115  0.030538325  0.031692455            2 
  334000    1.1197576   -7.2376427      122.988  0.030685627  0.031675417            2 
  335000    1.1174176   -7.2597201    122.60727  0.030499322   0.03165737            1 
  336000    1.1049817   -7.2849936    122.96638  0.030497613  0.031638415            2 
  337000    1.1414303   -7.2540886    122.80944  0.030368308  0.031620019            1 
  338000    1.1219023   -7.2418674    122.90605   0.03030228  0.031601693            1 
  339000    1.1301907   -7.2608372    123.66198  0.030398716  0.031581986            2 
  340000     1.099683   -7.2430903    123.78459  0.030339361  0.031562135            1 
  341000    1.1209383   -7.2457544    124.14017  0.030337284  0.031543011            2 
  342000    1.1227552   -7.3213113    124.41866  0.030316437  0.031523332            3 
  343000    1.1062321   -7.2911284     124.3613  0.030214116  0.031502453            2 
  344000    1.0860913   -7.3011478    124.45742  0.030149568  0.031481641            2 
  345000    1.1370172   -7.2632774    124.97005  0.030186004  0.031460838            1 
  346000     1.109388   -7.3049064    124.79708  0.030057101  0.031439169            1 
  347000    1.1189527    -7.273666    125.54694  0.030150563  0.031417352            2 
  348000    1.1613158   -7.3110994    125.51377  0.030055979  0.031395987            1 
  349000    1.0916177   -7.2680045    126.20321  0.030134481  0.031374931            1 
  350000    1.1311228   -7.3090376    126.32424  0.030077201  0.031353487            2 
  351000    1.1148907   -7.2605972    126.64389    0.0300674   0.03133135            1 
  352000    1.1204549   -7.3041305    126.93285  0.030050391  0.031309441            1 
  353000    1.1053823   -7.2822112     127.1296  0.030011709  0.031288565            2 
  354000    1.0941688   -7.2707032    127.97858  0.030126785  0.031267511            3 
  355000    1.1105386   -7.2988914    127.68933  0.029974021  0.031246641            2 
  356000    1.1367955   -7.2990681    127.89267  0.029937424  0.031225463            2 
  357000    1.1173816    -7.271322    128.73741  0.030050748  0.031204015            2 
  358000    1.1281223   -7.2624779    128.49561  0.029910523   0.03118294            4 
  359000    1.1131077   -7.2945125    128.66144  0.029865702  0.031161344            2 
  360000    1.1302707   -7.2439629    129.24451  0.029917711  0.031139645            3 
  361000    1.1350024   -7.2760622    129.15159  0.029813386  0.031117161            1 
  362000    1.1075899   -7.3257642    129.37256  0.029781898  0.031094817            1 
  363000    1.0932757   -7.3337303    130.07867  0.029861954  0.031073236            3 
  364000    1.1284343   -7.2871657    130.92458  0.029973575  0.031052463            1 
  365000    1.0954839   -7.3008125     131.2509   0.02996596  0.031032757            1 
  366000    1.1177557    -7.267279    131.41273  0.029920931  0.031012265            2 
  367000    1.1068327   -7.2710476    131.96747  0.029965365  0.030992474            1 
  368000    1.1099769   -7.2732684    132.08627   0.02991084  0.030972863            1 
  369000    1.0913153   -7.3245289    131.91654  0.029791451  0.030952755            2 
  370000    1.1065759   -7.3115905    132.52953  0.029848993  0.030933246            1 
  371000    1.0948468   -7.2855682    132.89267  0.029850105  0.030914123            1 
  372000    1.0932051   -7.3036992    133.13867  0.029824971  0.030894617            2 
  373000    1.1152724    -7.301686    132.88225  0.029687723  0.030874904            2 
  374000    1.0789608   -7.3077373    133.24806  0.029689853  0.030854482            1 
  375000    1.1123029   -7.3006732    134.28682  0.029841516  0.030835313            2 
  376000    1.1082001   -7.2737596    134.10007   0.02972076  0.030815344            2 
  377000    1.1256179   -7.2921655    134.09405  0.029640595  0.030794867            2 
  378000    1.0853672   -7.3396263    134.25552  0.029597777  0.030774138            1 
  379000    1.0998534   -7.2964692    135.13411  0.029712864  0.030753538            2 
  380000    1.1093382    -7.305817     135.1864  0.029646141  0.030732705            2 
  381000    1.0937291   -7.2966459    135.27988  0.029588775  0.030710906            3 
  382000    1.0958704   -7.2754075    135.85784    0.0296374  0.030689845            2 
  383000    1.0990699   -7.3205119    135.41198  0.029463006  0.030669508            2 
  384000    1.0960091   -7.2641348    136.37065  0.029594324  0.030648128            1 
  385000    1.0838571   -7.3264799    136.14452   0.02946851   0.03062638            2 
  386000    1.0978902    -7.308205    136.18494  0.029400895  0.030604566            3 
  387000    1.1182891   -7.3167578    136.32289  0.029354627  0.030582655            1 
  388000    1.0904805     -7.32489    136.31499  0.029277275  0.030560106            1 
  389000    1.1011329   -7.3234822    137.26107  0.029404685  0.030537802            1 
  390000    1.1250792   -7.3450276     137.1285  0.029300961  0.030515585            2 
  391000    1.1063694   -7.2959974    138.52363  0.029523365  0.030494461            2 
  392000    1.0833892   -7.3208366    138.42285  0.029426627   0.03047332            2 
  393000    1.0705332   -7.2988378    138.89812  0.029452527  0.030452172            2 
  394000     1.091877   -7.3118372    139.53368  0.029512199  0.030432626            2 
  395000    1.1166377   -7.2952682    139.75533  0.029484248  0.030413412            1 
  396000    1.1224721   -7.3403134    139.70188  0.029398544  0.030394315            1 
  397000    1.0756441   -7.3326087    140.36752  0.029464214  0.030376218            6 
  398000    1.1027563   -7.3178588    140.80256  0.029481272  0.030357937            2 
  399000    1.0960726   -7.2867033    141.33089  0.029517729  0.030339714            1 
  400000    1.0745526   -7.3547757    141.47103  0.029473131  0.030322447            1 
  401000    1.0896097   -7.3218166    142.12672  0.029535894  0.030305669            2 
  402000    1.0919415   -7.3220552     141.9053  0.029416523  0.030289983            1 
  403000    1.1195577   -7.3431567    142.49892  0.029466278  0.030273257            2 
  404000    1.0909014   -7.3503962    143.12782  0.029523064  0.030255592            2 
  405000    1.0858989   -7.3178843    142.72916  0.029368139   0.03023898            2 
  406000    1.1062722   -7.3067795    143.16956  0.029386199  0.030222395            2 
  407000    1.0907223   -7.3180065    143.95553  0.029474923  0.030205894            7 
  408000    1.0700304   -7.3073944    144.32156  0.029477443  0.030189464            2 
  409000    1.0938806   -7.3045669    144.67624  0.029477637  0.030172782            2 
  410000    1.0997296   -7.3106454    144.90212  0.029451651  0.030157129            1 
  411000    1.0848947   -7.3335364    145.02373  0.029404648  0.030140542            2 
  412000    1.0535829   -7.2835781    145.40357  0.029410108   0.03012462            2 
  413000    1.0808534   -7.3491353    145.50801   0.02935997  0.030109009            2 
  414000    1.1102617   -7.3199447    145.55779  0.029299072  0.030092434            1 
  415000    1.0909997   -7.3496828    145.78968  0.029275037  0.030075712            2 
  416000    1.0926673   -7.3196625    146.32371   0.02931164  0.030059074            2 
  417000    1.0872046   -7.3559044    146.61297  0.029299154  0.030042953            4 
  418000    1.0888887   -7.3256778    146.52707  0.029211935  0.030026358            1 
  419000    1.0704548   -7.3399502    147.33164  0.029302236  0.030009638            1 
  420000    1.0843018   -7.3991362    146.60291  0.029087878    0.0299924            1 
  421000    1.0784432     -7.36702    147.13962  0.029125023   0.02997452            2 
  422000    1.0774141   -7.3335215    147.83516  0.029193357  0.029956207            1 
  423000    1.1004468   -7.3114746    147.66866  0.029091541  0.029937728            1 
  424000    1.0888727   -7.3290181     147.8802  0.029064506  0.029919772            2 
  425000    1.0950298   -7.3250186    148.53539  0.029124586   0.02990181            2 
  426000    1.0900147   -7.3558877    148.59971  0.029068802  0.029884118            1 
  427000    1.0642262   -7.3496456    148.67379  0.029015181  0.029866633            3 
  428000    1.0755365   -7.3646615     149.3971  0.029088221  0.029849255            1 
  429000    1.0725908   -7.3091021     149.7264  0.029084383  0.029832343            1 
  430000     1.091697   -7.3299828    149.91435  0.029053168  0.029814965            3 
  431000    1.1073671   -7.3662538    149.75971   0.02895586  0.029797138            2 
  432000    1.1012464   -7.3445844    150.17405   0.02896876  0.029779236            1 
  433000    1.0781393   -7.3819429    149.84412  0.028838359     0.029761            3 
  434000     1.075697   -7.3594364    151.35009  0.029061078  0.029743115            1 
  435000    1.0905743   -7.3713871    151.24804   0.02897472  0.029725825            2 
  436000    1.0765664   -7.3362341    151.58474  0.028972619  0.029709005            1 
  437000    1.0645117   -7.3457637    152.24287  0.029031822   0.02969133            1 
  438000    1.0667773   -7.3300752    151.59443  0.028842167  0.029673686            2 
  439000    1.0823586   -7.3710037    151.93183  0.028840515  0.029655788            3 
  440000    1.0892078    -7.356327    152.58892  0.028899417  0.029637628            2 
  441000    1.0841477   -7.3661256    152.18369   0.02875731  0.029619315            2 
  442000    1.0776413   -7.3423507      153.368  0.028915534  0.029601643            1 
  443000    1.1000222   -7.3706629     153.4691  0.028869282  0.029583617            3 
  444000    1.0930683   -7.3549899    153.94822  0.028894185  0.029566304            1 
  445000    1.0700603   -7.3648942    153.80305   0.02880207  0.029549604            2 
  446000    1.0795604    -7.425841    154.24533  0.028820129  0.029532237            3 
  447000    1.0697404   -7.3646209    154.65803  0.028832593  0.029514982            2 
  448000    1.0724937   -7.4005306    154.58587  0.028754812  0.029498176            1 
  449000    1.0784063    -7.350274    155.26402  0.028816634  0.029481985            2 
  450000    1.0691194   -7.3749595    155.63689  0.028821645  0.029465404            2 
  451000    1.0913176   -7.4028019    155.80995  0.028789717  0.029448153            2 
  452000    1.0800044   -7.3698499    156.31385  0.028818925  0.029431034            2 
  453000    1.0633852   -7.3548737    156.16185  0.028727345  0.029413609            2 
  454000    1.0816564   -7.3976807    155.98262  0.028631171  0.029395775            2 
  455000    1.0622046   -7.3680903    155.96472  0.028564966  0.029377573            4 
  456000    1.0726771   -7.4140856    156.54685  0.028608708   0.02935897            1 
  457000    1.0667659   -7.3372151    156.79191  0.028590794  0.029340562            2 
  458000    1.0322399   -7.3046786    157.17435  0.028597953  0.029323134            3 
  459000    1.0695182   -7.4140097    157.27008  0.028553027  0.029305067            1 
  460000     1.069639   -7.3700481    157.73308  0.028574834  0.029287654            1 
  461000     1.097069   -7.3800816    157.76935  0.028519406  0.029270178            2 
  462000    1.0773643   -7.4517567    157.64282  0.028434852  0.029252081            2 
  463000    1.0515133   -7.4069695    157.78659  0.028399315  0.029233842            1 
  464000    1.0834961    -7.319465    158.84901  0.028528917  0.029215678            1 
  465000    1.0822683   -7.3684023    158.60845  0.028424453  0.029197579            4 
  466000      1.08617   -7.4026217    158.53942  0.028351112  0.029179106            2 
  467000    1.0464911   -7.3797696    158.85734  0.028347135  0.029160177            4 
  468000    1.0671853   -7.4016452    159.02099  0.028315704   0.02914113            2 
  469000    1.0479009   -7.4126213    159.26683   0.02829901  0.029121919            3 
  470000    1.0568152   -7.4047566    159.58475  0.028295168  0.029103068            1 
  471000    1.0695834     -7.40526    160.14045  0.028333412   0.02908428            2 
  472000    1.0973569   -7.4588029     159.6093  0.028179608  0.029065052            1 
  473000    1.0511267   -7.4052445    160.31378  0.028244147  0.029045666            1 
  474000     1.097631   -7.3787758    160.33602   0.02818847  0.029026898            1 
  475000    1.0485632   -7.3814372    160.72739  0.028197787  0.029008257            2 
  476000    1.0608699   -7.3846016    160.87396  0.028164208  0.028989199            1 
  477000    1.0691427    -7.358269    161.54344  0.028222124  0.028970068            2 
  478000    1.0594772   -7.4143834    161.04432  0.028076067  0.028950665            1 
  479000    1.0775145    -7.399314    161.13479  0.028033193  0.028930645            2 
  480000     1.082005   -7.4083907    161.39347    0.0280197  0.028910668            2 
  481000    1.0869301   -7.3937683    162.00075  0.028066658  0.028890834            2 
  482000    1.0329085   -7.4230578    161.65303   0.02794831  0.028871311            2 
  483000    1.0466433   -7.4284625    161.81372  0.027918171  0.028851348            1 
  484000    1.0724164   -7.4154225    162.71197  0.028015146  0.028831217            1 
  485000    1.0536188   -7.4016427    162.71684  0.027958219  0.028810498            1 
  486000    1.0471925    -7.394956    162.89284  0.027930872  0.028790176            1 
  487000     1.048847   -7.4371823    162.97247  0.027887145  0.028769861            2 
  488000    1.0335422   -7.4149174    163.30671  0.027887075  0.028749729            1 
  489000     1.075169   -7.4411322    164.10597  0.027966253  0.028729819            1 
  490000    1.0651115   -7.4073242    163.79859  0.027856902  0.028709673            1 
  491000    1.0425791   -7.4124563    163.78426  0.027797736  0.028689741            1 
  492000    1.0732657   -7.4462902      164.328  0.027833334  0.028669947            1 
  493000    1.0715723   -7.3951529    164.23493  0.027761145  0.028650091            2 
  494000    1.0468791   -7.4112887    165.02812  0.027838751  0.028630048            3 
  495000    1.0578864   -7.3909925    164.77426  0.027739775  0.028610051            1 
  496000    1.0533172    -7.392957    165.34682  0.027780043  0.028589996            3 
  497000     1.066297   -7.4233914    165.48968  0.027748102  0.028569796            1 
  498000    1.0539326    -7.412228    165.57356   0.02770642  0.028549489            1 
  499000    1.0752159   -7.4098501    165.44238  0.027628988  0.028529047            1 
  500000    1.0398421   -7.4031074    166.12673  0.027687789  0.028508368            1 
  501000    1.0602023   -7.4001864    166.53867  0.027701042   0.02848814            3 
  502000    1.0274751   -7.4493236    165.67418  0.027502355  0.028467158            1 
  503000    1.0597234   -7.3833258    166.37754  0.027564204  0.028446043            1 
  504000    1.0376072   -7.4346938    166.50006  0.027529772  0.028425347            1 
  505000    1.0215738   -7.3961297    167.14474  0.027581641  0.028404709            3 
  506000     1.093775   -7.4267739    167.22016  0.027539552  0.028384063            1 
  507000    1.0355354   -7.3791717     167.7769  0.027576743  0.028363151            3 
  508000    1.0483098   -7.4280205     167.5642  0.027487565  0.028342382            2 
  509000    1.0595765   -7.4227122    167.81941  0.027475345  0.028321815            1 
  510000    1.0449523    -7.399295     168.0994  0.027467223  0.028301022            2 
  511000    1.0281052   -7.4567898    167.96488  0.027391532  0.028279767            2 
  512000    1.0540472   -7.4750924     168.1211   0.02736346  0.028258395            2 
  513000    1.0422197   -7.4446158    168.63103  0.027392954  0.028237012            1 
  514000    1.0362766   -7.4381259    168.65884   0.02734417  0.028215802            2 
  515000    1.0363194     -7.43421    168.87711  0.027326394  0.028194765            2 
  516000    1.0587668   -7.4172929    169.37869  0.027354439   0.02817421            4 
  517000    1.0241952   -7.4359217     169.7889  0.027367651  0.028154312            1 
  518000    1.0522107   -7.4232552    170.10389   0.02736549  0.028134083            2 
  519000    1.0624243   -7.4424977     169.8756  0.027276109  0.028113598            1 
  520000    1.0516644   -7.4487617    169.92144     0.027231  0.028093156            4 
  521000    1.0206822   -7.3674735    170.83294  0.027324527  0.028072552            2 
  522000     1.060885   -7.4104776    170.72669  0.027255218  0.028051961            3 
  523000    1.0504954   -7.4653793    170.99717  0.027246202  0.028031387            1 
  524000    1.0335218   -7.4066547    171.51911  0.027277213  0.028010946            2 
  525000    1.0550063   -7.4518496    170.64326  0.027086231  0.027990413            1 
  526000     1.048478    -7.433798    171.63837   0.02719239  0.027969223            2 
  527000    1.0525108   -7.4521759    171.66232  0.027144579   0.02794821            2 
  528000    1.0380542    -7.440677    171.88331  0.027128048  0.027927582            2 
  529000    1.0463785   -7.4360067    172.20048  0.027126729  0.027907197            2 
  530000    1.0518529   -7.4609521    171.88287  0.027025608  0.027886333            2 
  531000    1.0378285   -7.4188586     172.3468   0.02704752  0.027865447            1 
  532000    1.0378883   -7.4224658    172.43942  0.027011188  0.027844568            1 
  533000    1.0618384   -7.4417045    172.22984  0.026927743   0.02782346            3 
  534000    1.0271743    -7.444284    172.92186  0.026985309  0.027802617            2 
  535000    1.0626215   -7.4554077    173.25911    0.0269874  0.027781621            1 
  536000    1.0411073   -7.4500882    173.44518  0.026965979  0.027760808            2 
  537000    1.0618829   -7.4865221    173.03217  0.026851671  0.027740091            3 
  538000    1.0280841     -7.46448    173.45854  0.026867803  0.027719256            2 
  539000    1.0557879   -7.4594587    174.16093  0.026926551  0.027698383            2 
  540000    1.0454939    -7.462502    174.19876  0.026882525  0.027677648            3 
  541000    1.0339921   -7.4489067     174.7429   0.02691665  0.027657445            2 
  542000    1.0280553    -7.454505    175.46915  0.026978652  0.027637247            1 
  543000    1.0497165   -7.4535207     175.3273  0.026907198   0.02761766            2 
  544000    1.0557146   -7.4733398    175.84754  0.026937429   0.02759814            1 
  545000    1.0510555   -7.4255292      176.277   0.02695367  0.027578583            2 
  546000    1.0365314   -7.4336262    176.44366  0.026929741  0.027558859            3 
  547000    1.0362344    -7.447061    175.57878  0.026748747  0.027538805            2 
  548000    1.0361165   -7.4618267    176.37192  0.026820547  0.027518864            3 
  549000    1.0181386   -7.4531379    176.03298  0.026720246  0.027498963            1 
  550000    1.0538267   -7.4629803     177.1207   0.02683647  0.027478923            1 
  551000    1.0307813    -7.457795    176.93748  0.026760054  0.027459345            1 
  552000    1.0407943   -7.4712685    176.81943  0.026693755  0.027439371            2 
  553000     1.007333   -7.4952341    177.13621  0.026693221  0.027418897            2 
  554000     1.027724   -7.4655902        177.4  0.026684718   0.02739852            2 
  555000     1.054511   -7.4643349    177.96933  0.026722122  0.027378471            2 
  556000    1.0218275   -7.4524752    178.33115  0.026728289  0.027358591            3 
  557000    1.0138469    -7.460983    178.22244   0.02666404   0.02733883            2 
  558000    1.0201247   -7.4525483    178.23019  0.026617412  0.027318923            2 
  559000    1.0124357   -7.4771361    177.92547   0.02652437  0.027298582            2 
  560000    1.0279214   -7.4486307    178.34532  0.026539483  0.027277668            1 
  561000    1.0138791    -7.483588    177.91113  0.026427678  0.027256665            3 
  562000    1.0266292    -7.527371     177.9114  0.026380695  0.027235274            2 
  563000    1.0204946   -7.4709201    178.49552  0.026420296  0.027214308            2 
  564000    1.0458531   -7.4298748    178.98089  0.026445167  0.027193597            1 
  565000    1.0175395   -7.4639109    179.07426  0.026412133  0.027173095            1 
  566000    1.0461962   -7.4690639    179.40725  0.026414495  0.027152284            2 
  567000    1.0483529    -7.475577    179.35943  0.026360881  0.027131215            3 
  568000    1.0392034   -7.4420058    179.68739  0.026362587   0.02711015            1 
  569000    1.0404933   -7.4669677    179.64847  0.026310556  0.027089166            1 
  570000    1.0257953   -7.4811129    179.80121  0.026286726  0.027068056            1 
  571000    1.0549531   -7.4894482    180.18513   0.02629672  0.027047017            1 
  572000    1.0223521   -7.5153223    180.15097  0.026245771  0.027026199            2 
  573000     1.042015   -7.5006381    180.43325  0.026241019  0.027005275            1 
  574000   0.99242854   -7.5155903    180.81841  0.026251221  0.026984321            1 
  575000   0.99589215    -7.463393    181.17596  0.026257386  0.026963815            2 
  576000    1.0193263   -7.4764695    181.14648  0.026207535   0.02694292            4 
  577000    1.0288778    -7.507133    181.31806  0.026186895   0.02692217            1 
  578000    1.0060087   -7.4918738    181.22638  0.026128371  0.026901251            4 
  579000    1.0249443   -7.4836468    182.18475  0.026221179  0.026880675            1 
  580000    1.0120118   -7.5081932    182.37597  0.026203444  0.026860194            2 
  581000    1.0045391   -7.5147552    182.05847  0.026112803  0.026840004            2 
  582000    1.0125929   -7.4733394    183.24292  0.026237531  0.026820152            2 
  583000    1.0179476   -7.4940366    182.78218   0.02612667  0.026800301            2 
  584000    1.0015049   -7.4953499    183.40485  0.026170783  0.026780343            4 
  585000    1.0086175   -7.4981364    183.20425  0.026097471  0.026760524            1 
  586000    1.0371077   -7.4921553    183.42389  0.026084171  0.026740435            2 
  587000    1.0292155   -7.4797949    183.55292  0.026058053   0.02672043            2 
  588000    1.0410006   -7.4642331    183.92913  0.026067053  0.026700285            3 
  589000    1.0119447   -7.5063491    183.93394  0.026023477  0.026680158            2 
  590000    1.0137129   -7.5176278    183.64773  0.025938944   0.02665997            2 
  591000    1.0012911   -7.4854166    184.12128  0.025961828  0.026639872            1 
  592000     1.006668   -7.5134802    184.90574  0.026028398  0.026619833            1 
  593000   0.99846724   -7.5260418    184.78387  0.025967379  0.026599984            1 
  594000    1.0345891   -7.5009358    185.26885  0.025991702  0.026580256            4 
  595000    1.0260014   -7.4615724    186.07761   0.02606129   0.02656036            1 
  596000    1.0430799   -7.5175268     185.7791  0.025975825  0.026540851            4 
  597000    1.0278902   -7.5315668    185.78386  0.025932979  0.026521427            1 
  598000    1.0213478   -7.5254252    186.08178  0.025931129  0.026501964            3 
  599000    1.0067564   -7.4749239    186.60726  0.025960943  0.026482364            2 
  600000    1.0188219    -7.529362    185.82483  0.025809004  0.026462527            1 
  601000    1.0373831   -7.5085138    186.12222  0.025807296  0.026442314            2 
  602000    1.0129425   -7.5245379    186.25788  0.025783206  0.026422284            3 
  603000   0.99189723   -7.5053265    186.04168  0.025710569  0.026402572            1 
  604000   0.98992466   -7.4825582    186.90727  0.025787427  0.026383117            3 
  605000    1.0097258   -7.4866472     187.8043  0.025868361  0.026364048            1 
  606000    0.9984407   -7.5339035    186.89305  0.025700365  0.026344754            5 
  607000    1.0236848   -7.5297586    187.47513  0.025737937  0.026325186            3 
  608000    1.0094408   -7.5077742    187.91635  0.025756078  0.026305747            2 
  609000    1.0376575   -7.5179264    187.82207  0.025700886  0.026286296            2 
  610000   0.99633333     -7.53436    188.14092  0.025702311  0.026266858            2 
  611000    1.0155224   -7.5243838    188.43827  0.025700801  0.026247532            1 
  612000    1.0241253   -7.4922955    188.56294  0.025675781  0.026228516            2 
  613000    1.0077283   -7.5210768    188.71877   0.02565508  0.026209526            2 
  614000    1.0190816   -7.4900371    189.86601  0.025769002  0.026190571            2 
  615000    1.0222063   -7.5263054    189.16219  0.025631733  0.026171484            1 
  616000    1.0069231   -7.5408189    189.70877  0.025664066  0.026152422            1 
  617000     1.012358   -7.5191395     189.2665  0.025562736  0.026133185            2 
  618000    1.0048901   -7.5010827    189.94367  0.025612684  0.026114258            2 
  619000     1.000519   -7.5680873    189.38288  0.025495811  0.026095078            5 
  620000   0.98879518   -7.5135377    190.16302  0.025559546  0.026076069            1 
  621000   0.99179347    -7.541025    190.42036   0.02555292  0.026057274            1 
  622000   0.99572805   -7.5898382    190.88336  0.025573869  0.026038266            2 
  623000    1.0184345   -7.5086421    190.77303  0.025518062  0.026019383            2 
  624000    1.0015054   -7.5370902    190.78225  0.025478399  0.026000592            5 
  625000    1.0091147   -7.5231537    191.31348  0.025508463  0.025981942            1 
  626000    1.0056856    -7.540999    190.92841  0.025416454  0.025962711            2 
  627000    1.0201505   -7.5459873    190.84064  0.025364254  0.025943156            2 
  628000   0.99340169   -7.5594642    190.92701  0.025335325  0.025923768            2 
  629000   0.97764759   -7.5412781     191.8969  0.025423543    0.0259042            2 
  630000    1.0042143    -7.541717    191.75438  0.025364335  0.025884796            4 
  631000   0.99791759   -7.5909499    191.60941  0.025304993   0.02586513            2 
  632000    1.0197443   -7.5148636    192.63162  0.025399738  0.025845901            2 
  633000    1.0063521   -7.5474703    192.88106  0.025392451  0.025826621            1 
  634000    1.0159621   -7.5415435    193.00087  0.025368147  0.025807243            3 
  635000    1.0159348   -7.5511141    192.76672  0.025297469  0.025788186            2 
  636000    1.0135653   -7.5622093    192.87044  0.025271284  0.025768782            1 
  637000   0.99147719   -7.5579225    194.05686  0.025386821  0.025749879            1 
  638000   0.99589471   -7.5223668    194.17248  0.025362131  0.025731442            4 
  639000   0.99910712     -7.54342    194.51851  0.025367568  0.025713258            1 
  640000    1.0002347   -7.5657032    194.53084  0.025329536  0.025695048            1 
  641000   0.99523087   -7.5252762    194.84778  0.025331225  0.025676946            2 
  642000   0.99300196   -7.5797304    193.87661  0.025165708  0.025658626            1 
  643000   0.98373471   -7.5725811    194.80566  0.025246974  0.025640331            2 
  644000   0.99636029   -7.5547899    195.18323  0.025256629  0.025621897            3 
  645000   0.96857828    -7.518872    195.14849  0.025212983  0.025603733            1 
  646000   0.97714219   -7.5601728    195.16872  0.025176563  0.025585475            2 
  647000   0.99784923   -7.5601337    194.91871  0.025105449  0.025567304            3 
  648000    1.0124078   -7.5540188     195.4445  0.025134323  0.025548732            1 
  649000   0.99330179   -7.5863437    195.59276  0.025114633  0.025530324            2 
  650000    1.0132904   -7.5274719    196.20535  0.025154533  0.025511974            2 
  651000    0.9730981   -7.5552474    196.28619   0.02512624  0.025493646            2 
  652000    0.9907885   -7.5459184    196.73379  0.025144911  0.025475729            1 
  653000   0.98967951   -7.5509624    196.85749  0.025122191  0.025457716            2 
  654000   0.98224061   -7.5506816    196.47217  0.025034681  0.025439375            2 
  655000   0.99148133   -7.5553076     196.8405   0.02504332  0.025420994            2 
  656000   0.99899512   -7.5999393     196.5927  0.024973666   0.02540275            2 
  657000     0.982898   -7.5763309    197.12448  0.025003105  0.025384275            3 
  658000   0.98173263   -7.5607368    197.33786   0.02499213  0.025365687            2 
  659000    0.9968361   -7.5550344    197.44931  0.024968299  0.025347486            1 
  660000    0.9865701   -7.5122208    198.03877  0.025004895   0.02532894            2 
  661000   0.97078835   -7.5564977     198.1413  0.024979992  0.025310751            2 
  662000   0.98890602   -7.5848894    197.94769  0.024917887  0.025292802            2 
  663000   0.97093287    -7.536685      198.581  0.024959904  0.025274905            3 
  664000   0.98335777   -7.5717148    197.96226  0.024844661  0.025256759            2 
  665000   0.99027595   -7.6214582    198.24046  0.024842162  0.025238651            2 
  666000   0.99013699   -7.5782445    198.18303  0.024797676  0.025220236            1 
  667000    0.9852632   -7.5350685    199.03731   0.02486723  0.025201946            4 
  668000   0.97159369   -7.5669942    198.90412  0.024813389  0.025183496            1 
  669000    1.0013714   -7.5780602    199.00693  0.024789105  0.025165451            3 
  670000    1.0074641   -7.5592561    199.23944  0.024781025  0.025147298            3 
  671000   0.96754255   -7.6141263     199.0169  0.024716455  0.025128884            1 
  672000   0.99359251   -7.6112354    199.18451   0.02470046  0.025110305            2 
  673000   0.98404255   -7.5583117    199.52855  0.024706358  0.025091745       -1e+20 
  674000   0.99537498   -7.6050248    199.27555  0.024638421  0.025073201            1 
  675000   0.98993153   -7.5489202     200.4389  0.024745543  0.025054852            2 
  676000     1.010327   -7.5966405    200.53945  0.024721332  0.025036569            1 
  677000   0.98056797   -7.5354222    200.76954  0.024713139  0.025018276            3 
  678000    1.0208752   -7.5992655    200.23389  0.024610852  0.025000003            2 
  679000    0.9911818   -7.5740099    200.81742  0.024646222  0.024981572            1 
  680000   0.98395464   -7.5977693    200.61091  0.024584671  0.024963455            1 
  681000   0.97868276   -7.5935756    201.01679  0.024598237  0.024945244            1 
  682000    1.0035681    -7.583974    201.15793  0.024579415  0.024927194            1 
  683000    0.9992222   -7.6073662    201.48249  0.024583027  0.024909401            1 
  684000   0.99557272   -7.6093416    202.02163  0.024612771  0.024891875            2 
  685000   0.98432311   -7.6147998    201.45575  0.024507999  0.024874072            2 
  686000   0.97493425   -7.6017917    202.16506  0.024558437  0.024856266            1 
  687000   0.99202444   -7.6111845    202.51661  0.024565334  0.024838704            3 
  688000   0.98601387    -7.614355    202.14652  0.024484802  0.024820839            2 
  689000    0.9743052   -7.6310608     202.7578  0.024523198  0.024803294            3 
  690000   0.97501154   -7.5889702    203.41286   0.02456677    0.0247858            3 
  691000   0.97117971   -7.6058572    202.85534  0.024463982  0.024768404            3 
  692000   0.97958211   -7.6069186    203.87338  0.024551226  0.024751307            1 
  693000   0.96677554   -7.5939993    203.61908  0.024485219  0.024734264            2 
  694000    1.0068753   -7.6068846    203.18426  0.024397726  0.024716916            2 
  695000   0.97596098    -7.580499    203.58893  0.024411143  0.024699257            1 
  696000   0.98136412   -7.6046459    204.03135  0.024429041  0.024681596            3 
  697000   0.95212471   -7.5871247    204.06652  0.024398197  0.024664158            2 
  698000   0.97168242   -7.5834199    204.45714  0.024409879  0.024646783            5 
  699000   0.95672324   -7.5949188     205.3122  0.024476896  0.024629681            3 
  700000   0.94462297   -7.6276725    204.82691  0.024384156  0.024612575            1 
  701000   0.97184409   -7.6189653    204.58569  0.024320695  0.024595018            2 
  702000   0.97528513   -7.6101001    204.37591  0.024261147  0.024577585            2 
  703000   0.98972897   -7.5859906     205.1713  0.024320922  0.024560183            2 
  704000   0.96742272   -7.6057029    205.30553  0.024302264  0.024542948            1 
  705000   0.99054328   -7.5888751    205.32012  0.024269518  0.024525595            1 
  706000   0.96417112   -7.6096368    205.01211  0.024198786  0.024508267            1 
  707000   0.98013598   -7.6026496    205.51116  0.024223381   0.02449063            2 
  708000   0.97122433   -7.6395883    205.30151   0.02416449  0.024472978            1 
  709000   0.97836807   -7.5900007    205.96945  0.024208915  0.024455158            1 
  710000   0.95224664   -7.6107726    205.85681  0.024161598  0.024437287            2 
  711000   0.98242737   -7.6018656    205.75153  0.024115276  0.024419456            1 
  712000   0.97390345   -7.6122975    205.89246    0.0240979  0.024401748            2 
  713000   0.95561803   -7.6006479     206.6282  0.024150094  0.024384151            2 
  714000   0.98087218    -7.606424    206.96198  0.024155226  0.024366734            1 
  715000   0.96409338   -7.5933728    206.21426  0.024034296   0.02434936            3 
  716000   0.97822037    -7.609415    207.15642  0.024110384  0.024331981            2 
  717000   0.95713143   -7.5731226    207.20076   0.02408191  0.024314486            2 
  718000   0.96131289   -7.6470279    207.00395  0.024025528  0.024296854            3 
  719000   0.94833769   -7.6484628    207.07296  0.024000111  0.024279108            3 
  720000   0.99232755   -7.6196013    206.66753  0.023919853  0.024261533            2 
  721000     0.960406   -7.6004134     207.9255  0.024032074  0.024244021            3 
  722000   0.97092921   -7.6606814    206.78246  0.023866858   0.02422624            1 
  723000   0.94969265   -7.6732822    207.42918  0.023908388  0.024208343            2 
  724000   0.98648705    -7.608214    207.90964  0.023930667  0.024190882            3 
  725000   0.94825078   -7.6167258    208.00358  0.023908457  0.024173475            2 
  726000   0.96326483   -7.6045283    208.60026  0.023944015  0.024156127            1 
  727000   0.94215745   -7.6416707    208.77146  0.023930704  0.024138841            1 
  728000   0.94610122   -7.6352817    208.63827  0.023882586  0.024121585            4 
  729000   0.94751863    -7.645147    208.24523  0.023804896  0.024103824            1 
  730000   0.95775397   -7.6510506    208.22293  0.023769741  0.024085846            2 
  731000   0.97312734   -7.6551793    208.69331  0.023790847  0.024067995            3 
  732000    0.9286789    -7.623655    208.59082  0.023746678  0.024050278            1 
  733000   0.97092287   -7.6341705    209.17899   0.02378115  0.024032511            1 
  734000   0.96950177   -7.5947332    209.95355  0.023836688  0.024014855            1 
  735000    0.9543726   -7.6305265    209.69146  0.023774542   0.02399737            1 
  736000   0.97352341   -7.6272652     209.9907  0.023776121  0.023979912            2 
  737000   0.96851399   -7.6704941     209.4244  0.023679828  0.023962271            1 
  738000   0.96044591    -7.627467    209.77868  0.023687746  0.023944865            2 
  739000    0.9661064   -7.6485309    210.09356    0.0236912  0.023927442            2 
  740000   0.97519678   -7.6435736    209.89529  0.023636857   0.02390996            1 
  741000   0.95696627   -7.6232037     210.8224  0.023709221  0.023892844            2 
  742000   0.97331917   -7.6703442    210.72778  0.023666642  0.023875514            1 
  743000   0.95844445   -7.7138405    210.95946  0.023660774  0.023858135            2 
  744000   0.96144845    -7.640321    211.93943  0.023738736  0.023841035            2 
  745000   0.95961167   -7.6539823    211.26213  0.023631111   0.02382393            2 
  746000   0.95822443   -7.6357589     210.9654  0.023566287  0.023806727            2 
  747000   0.94310731   -7.6252614    211.10293  0.023550081  0.023789492            1 
  748000    0.9505708   -7.6553318    211.68645  0.023583607  0.023772208            2 
  749000   0.93943901   -7.6626973    211.67084  0.023550383  0.023754849            1 
  750000   0.95247443   -7.6564057    211.11386  0.023457096  0.023737445            2 
  751000   0.94770103   -7.6640473    212.07599  0.023532622  0.023719932            2 
  752000   0.94904898   -7.6630655    211.50687  0.023438261  0.023702471            3 
  753000   0.95577515   -7.6571024     211.5819  0.023415438  0.023684977            4 
  754000   0.97501625   -7.6527513    212.07916  0.023439341  0.023667544            1 
  755000   0.96349765   -7.6583538    212.08582  0.023409031  0.023650072            2 
  756000    0.9655338   -7.6481811    211.76927  0.023343174   0.02363251            4 
  757000   0.94690028   -7.6697694    211.68127  0.023302649  0.023614854            1 
  758000   0.94786234   -7.6581596    212.78283  0.023393011  0.023597153            2 
  759000   0.95958823   -7.6341724    213.10714  0.023397797  0.023579451            4 
  760000   0.94727026   -7.6693437    213.06317   0.02336219   0.02356209            2 
  761000   0.95279698   -7.6528106    212.92416  0.023316268   0.02354467            2 
  762000   0.95240151   -7.6783866    212.70297   0.02326148  0.023527164            1 
  763000   0.94604851   -7.6783755    212.90131  0.023252655  0.023509597            2 
  764000   0.95390464   -7.6664531    213.51503  0.023289161   0.02349203            2 
  765000   0.94003047    -7.656802    213.24787  0.023229615  0.023474535            1 
  766000   0.91836092   -7.6812302    213.12859  0.023186313  0.023456688            2 
  767000   0.93380216   -7.6701153    213.58395  0.023205557  0.023438926            2 
  768000    0.9683595   -7.6414302    214.09657  0.023230965  0.023421296            2 
  769000   0.95190951   -7.6432919    214.02613  0.023193122  0.023403684            1 
  770000   0.92184687   -7.6999535    214.44476  0.023208307  0.023386117            1 
  771000   0.92957699   -7.6626692     213.9446  0.023124146  0.023368428            5 
  772000   0.95126311   -7.6853824    213.96249  0.023096124  0.023350771            1 
  773000   0.93164688   -7.7062997    214.10674  0.023081796  0.023333083            2 
  774000   0.92965075   -7.6578821    214.89702   0.02313706   0.02331552            1 
  775000   0.95061184   -7.6639406    214.24791   0.02303741  0.023298112            2 
  776000   0.93624282   -7.6742482    214.90203  0.023077968  0.023280665            5 
  777000   0.95208071   -7.6856178    213.96632  0.022947911   0.02326301            3 
  778000    0.9155312   -7.6533121    214.89533  0.023017923  0.023245377            2 
  779000   0.95650326   -7.6842552     215.1783  0.023018646  0.023227675            2 
  780000   0.96783223   -7.7028182    214.95704  0.022965496  0.023210023            1 
  781000   0.94948149   -7.6764962    215.24726  0.022967057   0.02319253            3 
  782000   0.93450316   -7.6699305    215.45981  0.022960338  0.023175101            2 
  783000   0.94095613   -7.6658311     215.4461  0.022929555  0.023157865            2 
  784000   0.95689054    -7.682628    215.35378  0.022890495  0.023140449            3 
  785000   0.94694855   -7.6901958     215.7903  0.022907675  0.023122985            1 
  786000   0.93824408   -7.6933968    215.07122  0.022802292  0.023105316            2 
  787000   0.92742696   -7.7256792    215.66821  0.022836532  0.023087543            2 
  788000   0.93022333   -7.7383573    215.34778  0.022773666  0.023069716            3 
  789000    0.9411054    -7.732116    215.29209   0.02273892   0.02305177            3 
  790000   0.94506507   -7.7158306    216.25957  0.022812191  0.023033839            2 
  791000   0.93700248   -7.7005957    215.81428  0.022736439  0.023016193            1 
  792000   0.92232361   -7.6736695    216.33722  0.022762755  0.022998551            3 
  793000   0.93840849   -7.6872751    216.69147  0.022771276  0.022980984            1 
  794000   0.95001508   -7.7358564    216.50023  0.022722526  0.022963494            3 
  795000   0.93317153   -7.7198147    216.78276   0.02272356  0.022945951            3 
  796000   0.94723037   -7.6532275     217.3519  0.022754596   0.02292845            2 
  797000   0.92792978   -7.7163891    216.99332  0.022688553  0.022911156            5 
  798000   0.95888971   -7.6906202     217.5731  0.022720667  0.022893791            1 
  799000    0.9203807   -7.7223746     217.5435  0.022689143  0.022876512            2 
  800000   0.94010038   -7.7094609    217.50504  0.022656775  0.022859347            2 
  801000   0.92894115   -7.7105516    217.79771  0.022658938  0.022842197            2 
  802000   0.93746668   -7.7015085    218.05322  0.022657234  0.022825014            1 
  803000   0.94597158     -7.68044    218.15499   0.02263958  0.022807863            2 
  804000   0.92866479   -7.7305515    218.42786  0.022639703  0.022790846            1 
  805000   0.91240623   -7.7332384    218.58968  0.022628331  0.022773682            2 
  806000   0.92307734   -7.7283179    218.59548  0.022600856  0.022756263            1 
  807000   0.94940677   -7.6759428    218.62044  0.022575427  0.022738898            4 
  808000   0.92033165     -7.71018    218.54949  0.022540171  0.022721701            1 
  809000   0.91754564   -7.7464038    218.43307  0.022500316  0.022704299            4 
  810000   0.95447322   -7.7194479    219.04742  0.022535742  0.022687114            5 
  811000   0.94329655   -7.6761876    219.49424  0.022553867  0.022670099            3 
  812000   0.93235434   -7.6936569    219.26947  0.022503025  0.022653131            1 
  813000   0.93451234   -7.6752515    220.30464  0.022581452  0.022636276            2 
  814000    0.9345957    -7.722332     219.5579  0.022477263  0.022619406            2 
  815000   0.92144808   -7.7071004    219.25321  0.022418529  0.022602448            2 
  816000   0.93094542   -7.6816251    219.81732  0.022448665  0.022585491            2 
  817000   0.92436237   -7.7261734    220.13366  0.022453454  0.022568773            1 
  818000   0.93734921   -7.7254149    220.20412  0.022433182  0.022552056            2 
  819000   0.93137792   -7.7109253    220.28845  0.022414373  0.022535254            2 
  820000   0.93022132    -7.728539    219.94997   0.02235264   0.02251844            2 
  821000   0.93345215    -7.734157    220.81257  0.022412969  0.022501532            1 
  822000   0.91556397   -7.7336993     220.5736  0.022361476   0.02248453            2 
  823000     0.925806   -7.7473051    220.75462  0.022352635  0.022467706            2 
  824000   0.93874434   -7.7420713       220.86  0.022336165   0.02245106            2 
  825000   0.92626958   -7.7092513    221.03227  0.022326492  0.022434351            6 
  826000   0.92863353   -7.7328429    221.57947  0.022354668  0.022417634            2 
  827000   0.90786332   -7.7378086    221.87227  0.022357141  0.022400976            1 
  828000   0.93561764   -7.7302805    221.38481   0.02228108  0.022384348            3 
  829000   0.92804533   -7.7343125    222.12376  0.022328484  0.022367824            1 
  830000   0.92472441   -7.7214981    222.32252  0.022321538  0.022351208            2 
  831000   0.91840452   -7.7330403    222.13465  0.022275838  0.022334703            3 
  832000   0.94362097   -7.7156961     222.5915  0.022294822  0.022318175            2 
  833000   0.93139025   -7.7038632    222.71953  0.022280865  0.022301866            1 
  834000   0.94110053   -7.7534475    222.18868  0.022201107  0.022285331            2 
  835000   0.92002131    -7.759116    222.25791  0.022181429  0.022268853            1 
  836000   0.91838201   -7.7096256    222.72294   0.02220125  0.022252459            4 
  837000    0.9016599   -7.7410013    222.84945  0.022187321  0.022235891            1 
  838000   0.92922657    -7.753049    222.31846  0.022108041  0.022219286            1 
  839000   0.92779375   -7.7327399    222.89744  0.022139197  0.022202604            1 
  840000   0.92036817   -7.7149573    223.12127  0.022135047  0.022186111            1 
  841000   0.91823205   -7.7384284    223.48977   0.02214524  0.022169653            3 
  842000   0.91810068   -7.7659065    222.46478  0.022017496   0.02215298            3 
  843000   0.93012344   -7.7458072    223.70785   0.02211426  0.022136524            4 
  844000   0.90958094   -7.7559076    223.75842   0.02209305  0.022119851            1 
  845000   0.90930382   -7.7512343    223.76667  0.022067719   0.02210332            2 
  846000   0.94430559   -7.7371056    224.08417  0.022072909  0.022087006            3 
  847000   0.90846605   -7.7029112    224.41879  0.022079771  0.022070754            2 
  848000   0.89184938   -7.7409633    223.91662  0.022004385  0.022054464            1 
  849000   0.90685308   -7.7647468    224.19735  0.022006022  0.022038301            2 
  850000   0.89671465   -7.7605852     224.8875  0.022047794  0.022022165            2 
  851000   0.92725491   -7.7554346    224.37744  0.021971939  0.022005963            3 
  852000   0.91316333   -7.7206667    225.19004   0.02202563  0.021989815            2 
  853000   0.89213241    -7.748689    224.67594  0.021949583  0.021973793            3 
  854000   0.94406404   -7.7758582     225.1156  0.021966784  0.021957651            2 
  855000   0.92449638   -7.7621144    225.05357  0.021935045  0.021941477            1 
  856000   0.93049667   -7.7269346    225.32389  0.021935737  0.021925304            2 
  857000   0.91303546   -7.7667075    225.06928  0.021885383  0.021909277            4 
  858000   0.90199411   -7.7819246    224.96455  0.021849703  0.021893135            2 
  859000   0.90579243   -7.7772852    225.52474  0.021878613  0.021876847            2 
  860000   0.90770971   -7.7558607    225.91593  0.021891078  0.021860629            3 
  861000    0.9112056   -7.7628559      225.448  0.021820364  0.021844382            3 
  862000   0.89704822   -7.7574555    225.63477  0.021813106  0.021828129            5 
  863000   0.91771586   -7.7638684    225.72215  0.021796268  0.021812006            2 
  864000   0.91384108   -7.7904608    226.33244  0.021829904  0.021796089            1 
  865000   0.91090402   -7.7799687    226.78839  0.021848593  0.021780115            2 
  866000    0.8952394   -7.7647684    226.87608  0.021831801  0.021764233            1 
  867000   0.90458614   -7.7524497    226.24318  0.021745788  0.021748346            1 
  868000   0.90368358   -7.7726197    226.34002  0.021730033  0.021732347            2 
  869000   0.92023068    -7.773289    226.96894  0.021765338  0.021716372            1 
  870000   0.89355192   -7.7795869    226.47967  0.021693455  0.021700433            4 
  871000   0.92654332   -7.7934717    226.65469  0.021685294  0.021684447            3 
  872000   0.90433622   -7.7648652     227.7129  0.021761554  0.021668522            3 
  873000   0.92367437   -7.7939186    227.02651  0.021671107  0.021652796            2 
  874000   0.90317425   -7.7939784    227.00451  0.021644213  0.021637022            2 
  875000   0.89832253   -7.7635923    227.95346  0.021709853  0.021621332            3 
  876000   0.88596068   -7.7700082    227.07934  0.021601916  0.021605539            2 
  877000   0.91434551    -7.775951    227.09609  0.021578876  0.021589596            2 
  878000   0.91467131   -7.8057337    227.13732  0.021558212  0.021573666            2 
  879000   0.91921865   -7.8023256    227.99247  0.021614758  0.021557731            1 
  880000   0.92445961    -7.771825     228.1322  0.021603428  0.021541843            2 
  881000   0.89170559   -7.7814165    228.38472  0.021602792   0.02152606            3 
  882000   0.90560662   -7.7654569    228.57035  0.021595838  0.021510354            2 
  883000    0.8900811   -7.7556871    227.98497  0.021516136  0.021494589            2 
  884000   0.90055358   -7.7650931    228.30162  0.021521646  0.021478741            3 
  885000   0.90567715   -7.7857495     228.4036   0.02150693  0.021463154            4 
  886000   0.89640268   -7.7740609    228.89249  0.021528639  0.021447742            1 
  887000   0.90841721   -7.7787257    228.97828  0.021512427  0.021432285            2 
  888000    0.8848375   -7.7340926    229.21025  0.021509971  0.021416804            1 
  889000   0.91036836   -7.7599593     229.6169  0.021523894  0.021401408            2 
  890000   0.89029971   -7.7798519    229.48344  0.021487213  0.021385948            3 
  891000   0.89571485   -7.8387416    228.64506  0.021384685  0.021370443            1 
  892000   0.87874311    -7.803494    229.88119  0.021476195  0.021354814            6 
  893000   0.92340884    -7.778903    229.39001  0.021406309  0.021339233            1 
  894000    0.8877319   -7.7988654    229.79994  0.021420576  0.021323604            6 
  895000   0.90260471   -7.7845902    230.42121  0.021454488  0.021308138            1 
  896000   0.88034855   -7.8141036    229.81923  0.021374556  0.021292648            3 
  897000   0.90091865   -7.8099402    229.57029    0.0213276  0.021277228            2 
  898000   0.88597823   -7.8099311    229.66665  0.021312793    0.0212618            2 
  899000   0.91959607   -7.8053816    230.41155  0.021358134  0.021246241            2 
  900000   0.89090597   -7.7939473    230.03551  0.021299585  0.021230797            3 
  901000   0.89932548   -7.8300806    230.12321  0.021284056  0.021215354            2 
  902000   0.89443921   -7.8401231    230.70575  0.021314278  0.021199806            2 
  903000    0.9161916   -7.7937119    231.13914   0.02133067  0.021184339            2 
  904000   0.86846464   -7.8214456    230.78575  0.021274498  0.021168848            1 
  905000   0.89128889    -7.818046    230.92081  0.021263427  0.021153374            2 
  906000   0.89032713   -7.8059052    230.69704  0.021219375  0.021137829            3 
  907000   0.89244561   -7.8312926    230.69734  0.021196007   0.02112224            1 
  908000    0.8900939   -7.8073415    230.45533  0.021150453  0.021106554            1 
  909000   0.88430102   -7.7623729    231.54459  0.021227044   0.02109102            3 
  910000   0.90689245   -7.8156682    231.07771  0.021160962  0.021075426            3 
  911000   0.87472029   -7.8167307    231.15849  0.021145124  0.021059834            2 
  912000   0.90872517   -7.8089404    231.73443  0.021174564  0.021044418            1 
  913000   0.88786355   -7.8345325    231.43109  0.021123684  0.021029008            2 
  914000    0.9079845   -7.8088302    231.02501   0.02106355  0.021013551            2 
  915000   0.87697631   -7.8428139    231.51627   0.02108527  0.020998092            2 
  916000   0.87991951   -7.7927511    232.33227  0.021136487  0.020982779            2 
  917000   0.88979784   -7.7854879    232.61274  0.021138926  0.020967546            6 
  918000   0.88540969   -7.8223902    232.38313  0.021095055  0.020952319            2 
  919000   0.87365878   -7.8397978    232.15788  0.021051675  0.020936954            5 
  920000   0.90410031   -7.8263087    232.71681  0.021079421  0.020921646            1 
  921000   0.86298493   -7.8226305    232.86389  0.021069842  0.020906425            3 
  922000   0.87908189     -7.82733    232.80401  0.021041578  0.020891297            4 
  923000   0.89268897   -7.8034823    233.13006  0.021048218  0.020876227            1 
  924000   0.89975471   -7.8288288    232.81101  0.020996664  0.020861214            2 
  925000   0.88772356   -7.8235517    232.80944  0.020973824  0.020846012            4 
  926000   0.86913402   -7.8484006    233.29925  0.020995253  0.020830853            3 
  927000   0.88679116   -7.8023702    233.80993  0.021018512  0.020815721            3 
  928000    0.8840772   -7.8381203    233.34587  0.020954191  0.020800701            1 
  929000   0.90488409   -7.8375867    232.75743  0.020878851  0.020785546            1 
  930000   0.88989937   -7.8249009     233.2352  0.020899211  0.020770353            1 
  931000    0.8796992    -7.793104    233.86977  0.020933563  0.020755185            1 
  932000    0.8790969    -7.830619    234.08795  0.020930611  0.020740091            2 
  933000   0.88125766   -7.8387691    234.00519  0.020900785  0.020725011            2 
  934000   0.85502398   -7.8655535    233.58605  0.020841011  0.020709965            3 
  935000   0.87154442   -7.8164393    234.69786  0.020917813  0.020695093            3 
  936000   0.88243359   -7.8194827    234.45212  0.020873586  0.020680248            2 
  937000   0.89087576   -7.8372863     234.3307   0.02084051  0.020665378            2 
  938000   0.87690131   -7.8695399    234.63006  0.020844888  0.020650513            2 
  939000   0.87906052   -7.8511709    234.69566  0.020828511  0.020635682            2 
  940000   0.88943052   -7.8388934    235.23484  0.020854152  0.020620908            2 
  941000   0.87210775   -7.8355829    234.99996   0.02081119  0.020606024            2 
  942000   0.87975157   -7.8718062    234.25305  0.020723023  0.020590995            2 
  943000   0.89328108   -7.8558856    234.90857  0.020758976  0.020576035            3 
  944000    0.8733713   -7.8384399     235.3538  0.020776289  0.020561167            3 
  945000   0.86876405   -7.8447439    235.34158  0.020753226  0.020546258            3 
  946000    0.8806995    -7.858471    234.43215  0.020651176  0.020531321            3 
  947000   0.86303261   -7.8751484    234.84871  0.020666025  0.020516219            1 
  948000   0.88983772   -7.8611115    235.12859  0.020668828  0.020501064            2 
  949000   0.87221459    -7.881422    234.93589  0.020630127  0.020486066            6 
  950000   0.89641846   -7.8727246    235.00481  0.020614457  0.020471096            4 
  951000   0.88744613   -7.8469273    235.71036  0.020654606  0.020456153            2 
  952000   0.88676765   -7.8857081    235.37669  0.020603702    0.0204413            2 
  953000   0.87435549    -7.874885    235.14378  0.020561716  0.020426414            1 
  954000    0.8803862   -7.8816655    235.44718  0.020566665  0.020411454            1 
  955000   0.88332331   -7.8756772    236.14916  0.020606384  0.020396637            2 
  956000   0.85427357   -7.8762662    236.01491  0.020573127  0.020381887            2 
  957000   0.88102999   -7.8739144    235.43572  0.020501195  0.020367135            1 
  958000   0.86189797   -7.8651512    236.04853  0.020533101  0.020352357            2 
  959000   0.87954386   -7.8935824     236.3414  0.020537139  0.020337589            3 
  960000    0.8672432   -7.8432356    237.07398  0.020579339  0.020322892            2 
  961000   0.86183076   -7.8794089     236.0343  0.020467768   0.02030814            3 
  962000   0.87229358   -7.8435794    236.91144  0.020522474  0.020293407            1 
  963000   0.86905845   -7.8823199    236.46711  0.020462713  0.020278776            1 
  964000   0.89648869   -7.8954829    236.94143  0.020482488   0.02026393            2 
  965000   0.86352594   -7.8779018     236.8637  0.020454551  0.020249159            2 
  966000   0.84161845   -7.8884049    236.99588   0.02044478  0.020234337            3 
  967000   0.87131462   -7.8552612    237.91173  0.020502562  0.020219613            2 
  968000   0.86297111   -7.8808043    236.32576  0.020344849  0.020204786            4 
  969000   0.85321046   -7.8949879    237.08285  0.020388962  0.020189868            1 
  970000   0.84571035   -7.8688596    237.02932  0.020363344  0.020174857            1 
  971000      0.87361   -7.8746677    236.79748  0.020322475  0.020160079            2 
  972000   0.84159359   -7.8922963    237.07161   0.02032507  0.020145198            2 
  973000   0.88457733   -7.9118381    236.42615  0.020248899  0.020130208            2 
  974000   0.84194653   -7.8847393    236.98525  0.020275946  0.020115232            1 
  975000   0.88019426   -7.8829794    236.81328  0.020240452  0.020100216            4 
  976000   0.86925142   -7.8579262    237.59909  0.020286807   0.02008536            2 
  977000   0.86813498   -7.8725753    237.54285  0.020261246  0.020070732            4 
  978000   0.86201914   -7.9183642    236.98497  0.020192993  0.020055819            3 
  979000   0.86986394   -7.9035076    237.61299  0.020225825  0.020040844            2 
  980000   0.84870935   -7.8786443     237.7256  0.020214762  0.020025904            2 
  981000   0.85486085   -7.8925248    238.25608  0.020239218  0.020010957            2 
  982000   0.87802854   -7.9148741    237.35675  0.020142291  0.019995899            1 
  983000   0.86154527   -7.8740451    237.89476  0.020167409  0.019980962            1 
  984000   0.85360343   -7.9226688    237.64631  0.020125873  0.019965942            2 
  985000    0.8662815   -7.8930246    237.45113  0.020088928   0.01995083            1 
  986000   0.85785578   -7.8917685    237.50906   0.02007345  0.019935735            1 
  987000   0.86448635   -7.9143639    237.39565  0.020043537  0.019920614            4 
  988000   0.85662236   -7.9146578    237.88154  0.020064233  0.019905494            2 
  989000   0.85069075   -7.8705787    238.92098  0.020131529  0.019890496            3 
  990000   0.85110664   -7.8971583    238.23772   0.02005368  0.019875539            2 
  991000   0.84910126   -7.9390642    237.71429  0.019989429  0.019860395            2 
  992000   0.86860519   -7.9145493    238.21847  0.020011632  0.019845302            2 
  993000   0.83511281   -7.9205733    238.04199   0.01997667  0.019830183            2 
  994000     0.837233    -7.915672    238.20042  0.019969854   0.01981512            2 
  995000   0.86182371   -7.9054278    238.23007  0.019952267   0.01980006            1 
  996000   0.84092658   -7.9227396    238.65794  0.019968034  0.019785153            5 
  997000   0.86720188   -7.9256072    238.51005  0.019935644  0.019770264            2 
  998000   0.85972049   -7.8905116    238.20371  0.019890089  0.019755277            2 
  999000   0.84754731   -7.9005597    239.30644  0.019962166  0.019740346            3 
 1000000   0.86929256   -7.9042518    239.41037  0.019950864   0.01972548            2 
 1001000   0.86072733   -7.9286254    238.53285  0.019857879  0.019710616            3 
 1002000   0.84881028   -7.9310052    238.33914  0.019821951  0.019695688            2 
 1003000   0.83732977   -7.9125045    238.32296  0.019800844   0.01968071            2 
 1004000   0.85649329   -7.9181644    238.73895   0.01981565  0.019665753            2 
 1005000   0.85341115   -7.8911851    238.83075  0.019803545  0.019650877            3 
 1006000    0.8790594   -7.8836103    239.23535  0.019817375   0.01963596            2 
 1007000   0.85298391   -7.9196673    239.48417  0.019818286  0.019621017            1 
 1008000   0.83699235   -7.9068999    239.04288  0.019762143  0.019605955            1 
 1009000   0.85422692   -7.9199129    239.03369  0.019741798  0.019590961            4 
 1010000   0.84631353   -7.9160958    239.37477  0.019750393  0.019575955            2 
 1011000   0.84694049   -7.9094622    239.59642  0.019749128  0.019560923            2 
 1012000   0.84674242   -7.9355195    238.73647    0.0196588  0.019545812            2 
 1013000   0.82632695   -7.9560305    239.16486  0.019674635  0.019530611            3 
 1014000   0.85588002   -7.9662514    239.39796  0.019674389  0.019515342            1 
 1015000   0.84836321   -7.9463821    239.10922  0.019631299  0.019500007            2 
 1016000   0.84304751   -7.9406151    238.81715  0.019588021  0.019484766            4 
 1017000   0.84788102   -7.9110214    239.47078  0.019622319   0.01946978            2 
 1018000   0.84998589   -7.9393566    240.25174  0.019666973  0.019454863            1 
 1019000   0.84944441   -7.9308711    239.73308  0.019605256  0.019439864            2 
 1020000   0.85478981    -7.906161    240.21149  0.019625122  0.019424843            4 
 1021000   0.84218983   -7.8915282    240.48346  0.019628098  0.019410005            2 
 1022000   0.86170109   -7.9079961    240.39871  0.019601982  0.019395252            2 
 1023000   0.85733823   -7.9518019    240.29996  0.019574777  0.019380395            4 
 1024000   0.85107619   -7.9268909     239.8669  0.019520418  0.019365429            4 
 1025000   0.84413853   -7.9236285    240.42239  0.019546536  0.019350553            1 
 1026000   0.84753865   -7.9155707    240.65545  0.019546414  0.019335804            3 
 1027000   0.83292082   -7.9384745    240.21577  0.019491705  0.019320889            1 
 1028000   0.84252204   -7.9376473    240.70217  0.019512173  0.019306102            3 
 1029000   0.82605496   -7.9414542    241.10479  0.019525817  0.019291334            4 
 1030000   0.83795126    -7.922823    240.97482  0.019496345   0.01927657            1 
 1031000   0.84459485   -7.9179159    240.82005  0.019464925   0.01926181            4 
 1032000   0.83835391    -7.934088    240.84111  0.019447764    0.0192471            2 
 1033000   0.83260377   -7.9392763    241.36244  0.019470994  0.019232393            2 
 1034000   0.83152312   -7.9330847    241.14925  0.019434982  0.019217564            1 
 1035000   0.83490252    -7.949307    240.31396   0.01934895  0.019202764            2 
 1036000   0.84854956   -7.9779252     240.6978  0.019361149  0.019187894            2 
 1037000   0.83401965   -7.9387823    240.32199  0.019312278  0.019173081            1 
 1038000   0.83953555   -7.9287127    241.26066  0.019369032  0.019158144            3 
 1039000    0.8356973   -7.9491504    240.90118  0.019321558   0.01914324            1 
 1040000   0.84572088   -7.9329372    240.70714  0.019287431  0.019128279            2 
 1041000   0.83847327   -7.9438772     240.9389  0.019287456  0.019113229            2 
 1042000   0.85294396   -7.9095577    241.65693   0.01932637  0.019098233            4 
 1043000   0.83932946   -7.9637772    241.02727  0.019257532  0.019083294            3 
 1044000   0.82425553   -7.9538319    241.64282   0.01928822  0.019068296            2 
 1045000   0.83917842   -7.9611597    241.23248   0.01923704  0.019053469            1 
 1046000   0.84764928   -7.9502683    241.80952  0.019264621  0.019038652            1 
 1047000   0.82565782   -7.9310429    241.44744  0.019217402  0.019023844            1 
 1048000   0.84011151   -7.9655327     241.3846  0.019194068  0.019009007            1 
 1049000    0.8428827   -7.9730964    241.63432  0.019195609  0.018994169            1 
 1050000    0.8358388   -7.9437901    241.71433  0.019183677  0.018979378            2 
 1051000   0.83212953   -7.9641168    241.58956  0.019155531  0.018964566            3 
 1052000   0.81860578   -7.9845369    242.10197  0.019177912  0.018949848            2 
 1053000   0.83159769   -7.9547018    242.16591   0.01916476  0.018935164            3 
 1054000   0.84278608   -7.9597874    241.85002  0.019121602  0.018920564            2 
 1055000   0.82963291   -7.9571292    242.30172  0.019139156  0.018905987            1 
 1056000   0.80953153   -7.9731271     242.7198  0.019154024  0.018891366            2 
 1057000   0.81602881   -7.9687233    242.41369   0.01911177  0.018876746            2 
 1058000   0.86105837   -7.9547627    242.21326  0.019077919  0.018862066           12 
 1059000   0.82001321   -7.9740095    242.25225  0.019062972  0.018847476            2 
 1060000   0.82592137   -7.9577497     242.8766  0.019094073  0.018832846            2 
 1061000   0.82376956   -7.9656672    242.08768  0.019014113  0.018818255            2 
 1062000   0.83769091   -7.9233867     243.2245  0.019085413  0.018803821            2 
 1063000   0.84020282   -7.9823287    242.86352   0.01903916  0.018789285            2 
 1064000   0.82233897   -7.9827134    242.50207  0.018992956  0.018774571            2 
 1065000   0.82609804   -7.9810417    243.28014  0.019036005  0.018759912            2 
 1066000   0.82551823   -7.9973072    242.56316  0.018962098  0.018745237            3 
 1067000   0.82732215   -7.9805676    242.63842  0.018950204  0.018730598            2 
 1068000   0.82157828   -7.9867213    242.63378  0.018932099   0.01871594            2 
 1069000   0.82075086   -7.9680108    242.47388  0.018901924  0.018701287            3 
 1070000   0.83904115   -7.9502448    243.08556  0.018931897  0.018686658            3 
 1071000    0.8683202   -7.9554076    242.93169  0.018902248  0.018672071            1 
 1072000   0.82227838   -7.9679008    242.78135  0.018872929  0.018657573            2 
 1073000     0.818424   -7.9752432      243.215  0.018889018  0.018643069            2 
 1074000   0.84611442    -7.982799    242.80106  0.018839312  0.018628476            1 
 1075000   0.83421917   -7.9896204     243.0769  0.018843171  0.018613861            2 
 1076000   0.81494679    -7.958099    244.02405  0.018899012  0.018599322            2 
 1077000   0.82932592   -7.9802124    242.90683  0.018795019  0.018584729            1 
 1078000   0.82519891   -7.9390849    243.49635  0.018823157  0.018570076            2 
 1079000   0.82859783   -7.9537447    243.01216  0.018768317  0.018555443            1 
 1080000   0.81882987   -7.9661753     243.2461  0.018768989  0.018540726            1 
 1081000   0.81869656   -8.0003166    243.23921  0.018751095  0.018526039            3 
 1082000   0.81479176   -7.9803225    242.98096  0.018713875  0.018511319            2 
 1083000   0.80227411   -8.0209577      243.658  0.018748692  0.018496589            2 
 1084000   0.82384131   -8.0061149    243.38348  0.018710292  0.018482007            2 
 1085000   0.83150454   -7.9565216    243.03939   0.01866662  0.018467399            2 
 1086000   0.82896018   -7.9663303    244.16995  0.018736184  0.018452852            2 
 1087000   0.83195107   -7.9810595    243.41033  0.018660712   0.01843835            1 
 1088000   0.83012793   -7.9902921    243.52289  0.018652182  0.018423782            1 
 1089000    0.8157633   -7.9836018    243.98091  0.018670103  0.018409224            2 
 1090000   0.81129574   -8.0232261    244.34603  0.018680889  0.018394649            1 
 1091000   0.82111544   -7.9942035    243.75919  0.018618942  0.018380187            5 
 1092000   0.82406173   -8.0015015    244.22742  0.018637623  0.018365741            2 
 1093000   0.82747096   -8.0244126    244.16176  0.018615566  0.018351276            6 
 1094000   0.81638378   -7.9996748    244.17243  0.018599362  0.018336768            4 
 1095000   0.80593322   -7.9916218    244.29632  0.018591805  0.018322365       -1e+20 
 1096000   0.81294428   -8.0208536    244.48531  0.018589212  0.018307946            4 
 1097000   0.81138982   -8.0129764    244.32516  0.018560101  0.018293528            2 
 1098000   0.80074869   -8.0031621    244.31653  0.018542541  0.018279111            1 
 1099000    0.8320141   -8.0335474    243.67552  0.018477064   0.01826463            2 
 1100000   0.81912925   -8.0182262    244.87405  0.018551064  0.018250252            2 
 1101000   0.81427488   -8.0059729    244.46979  0.018503617  0.018235928            2 
 1102000    0.8129586   -8.0180306    244.38597  0.018480487  0.018221637            3 
 1103000   0.81029339   -8.0324862    245.15311  0.018521692  0.018207345            3 
 1104000   0.80852024   -8.0040737    245.14139   0.01850403  0.018193112            3 
 1105000   0.81369401   -8.0014585    245.16659  0.018489185  0.018179013            1 
 1106000   0.82362417   -8.0097567    245.18551  0.018473893  0.018164862            1 
 1107000   0.84758592   -8.0196022    245.12836  0.018452903  0.018150713            3 
 1108000    0.8074015   -8.0239308    245.27975  0.018447635  0.018136657            3 
 1109000   0.82736301   -7.9944932    245.93145  0.018479971  0.018122665            3 
 1110000   0.80231253   -8.0155619    245.29451  0.018415504  0.018108575            3 
 1111000    0.7947472   -8.0146557    245.88307  0.018443075  0.018094552            2 
 1112000   0.80309834   -8.0624367    245.47918  0.018396221  0.018080503            2 
 1113000   0.82041988   -8.0202358    245.82625  0.018405679  0.018066372            2 
 1114000   0.80847138   -8.0320103    245.36778  0.018354861  0.018052371            5 
 1115000   0.80333979   -8.0227163    245.98168  0.018384281  0.018038354            1 
 1116000   0.82471841   -8.0113285    245.26144  0.018314027  0.018024315            1 
 1117000   0.81235293   -8.0261609    246.07263  0.018358149   0.01801033            2 
 1118000   0.79700041    -8.057193    245.71663  0.018315193  0.017996294            1 
 1119000   0.80187253   -8.0469174    246.03874  0.018322814  0.017982261            2 
 1120000    0.8138687   -8.0734837    245.30134  0.018251588  0.017968187            2 
 1121000    0.8082357   -8.0380475    245.59585  0.018257199  0.017954102            1 
 1122000   0.78274509   -8.0598505    245.90361  0.018263786  0.017939994            1 
 1123000   0.78731577   -8.0419007    246.02413  0.018256465  0.017925984            2 
 1124000   0.79046557   -8.0579761     245.4409  0.018196983  0.017911929            2 
 1125000   0.80565925   -8.0316767    246.94115  0.018291937  0.017898009            2 
 1126000   0.80575413   -8.0394552    246.35447  0.018232273  0.017884119            3 
 1127000   0.79808459   -8.0297229    246.79836  0.018248917  0.017870222            3 
 1128000   0.77908716   -8.0560485    246.31063  0.018196708  0.017856289            5 
 1129000   0.80325372   -8.0604007    246.80885  0.018217364   0.01784228            3 
 1130000    0.8052735   -8.0346229    246.27099  0.018161578  0.017828326            8 
 1131000   0.81223674   -8.0395496    246.53402    0.0181649  0.017814393            5 
 1132000   0.81140539   -8.0526175    246.44855  0.018142561  0.017800498            8 
 1133000   0.78143647   -8.0219049    247.06996  0.018172253  0.017786657            1 
 1134000   0.82106932   -8.0515803      246.777    0.0181347  0.017772798            2 
 1135000   0.80474947   -8.0689126    246.52569  0.018100271  0.017758919            2 
 1136000   0.81185503   -8.0521816    247.13821   0.01812927  0.017745075            1 
 1137000    0.7898679   -8.0428921    246.71288  0.018082152  0.017731249            3 
 1138000   0.81921406   -8.0555188    247.15573  0.018098691  0.017717459            2 
 1139000   0.78531162   -8.0464662    247.28108  0.018091973  0.017703708            2 
 1140000   0.80926545   -8.0377864    247.28829  0.018076629   0.01768993            4 
 1141000     0.787691   -8.0548906    247.02466  0.018041533  0.017676096            1 
 1142000   0.81495997   -8.0956335    247.10186  0.018031367  0.017662289            2 
 1143000   0.80043623   -8.0606732    246.65559  0.017983056  0.017648405            1 
 1144000   0.80257037   -8.0452213    247.27548  0.018012491  0.017634545            4 
 1145000   0.80097117   -8.0649923    247.18844  0.017990425  0.017620714            1 
 1146000    0.7954952   -8.0631732    247.50546   0.01799778  0.017606891            2 
 1147000   0.80863512   -8.0659089    247.52129  0.017983238  0.017593144            2 
 1148000    0.8065479   -8.0541046    247.18458  0.017943132  0.017579467            5 
 1149000   0.79689515   -8.0759472    247.61557  0.017958774  0.017565783            2 
 1150000   0.79355339   -8.0601934    247.64263  0.017945118   0.01755214            2 
 1151000   0.79807486   -8.0557014    247.99636  0.017955137  0.017538479            1 
 1152000   0.79151972   -8.0564766    248.01537  0.017940926  0.017524854            3 
 1153000   0.81405896   -8.0455899    247.57521  0.017893554  0.017511243            2 
 1154000   0.79774246   -8.0537337    247.39697  0.017865177  0.017497652            5 
 1155000   0.78651379   -8.0646559    247.74857  0.017875077  0.017484007            2 
 1156000   0.79115889   -8.0842396    247.41132  0.017835303  0.017470325            1 
 1157000   0.79083891   -8.0761439     247.8612   0.01785229  0.017456622            1 
 1158000   0.80553865   -8.0861268    247.96311  0.017844207  0.017442958            2 
 1159000   0.78180549   -8.0610284    247.76374  0.017814477  0.017429363            1 
 1160000    0.7959938   -8.0738174    247.83905  0.017804529  0.017415658            1 
 1161000   0.77804933   -8.0695046    247.40052  0.017757717  0.017401959            3 
 1162000   0.78019035   -8.0724486    247.78643  0.017770111  0.017388328            1 
 1163000   0.79647336   -8.0629028    247.75843  0.017752825  0.017374602            2 
 1164000   0.78307828   -8.0704211    247.39152  0.017711306  0.017360828            4 
 1165000   0.77635583   -8.0921423    247.64062  0.017713922  0.017347115            2 
 1166000   0.78982096   -8.1119649    247.84939   0.01771365  0.017333363            5 
 1167000    0.8073769   -8.0604584    247.98341  0.017708041  0.017319649            1 
 1168000   0.79693219    -8.102954    247.84008  0.017682654   0.01730597            1 
 1169000   0.79145296   -8.0873094    247.44108  0.017639084  0.017292225            2 
 1170000   0.76541039   -8.0983841      248.124  0.017672649  0.017278444            3 
 1171000   0.77827301   -8.0452694    248.60993  0.017692139  0.017264728            3 
 1172000   0.80133109   -8.0760199    248.95929  0.017701884  0.017251168            2 
 1173000   0.77528237   -8.0887528    248.52983  0.017656282  0.017237668            3 
 1174000   0.78833632   -8.0835199    248.35292  0.017628686  0.017224061            2 
 1175000   0.78763104   -8.0922481    248.10122  0.017595831  0.017210425            1 
 1176000    0.7786612   -8.1136569    248.01299  0.017574616  0.017196827            3 
 1177000   0.78109516   -8.0785144    248.20725  0.017573439  0.017183215            2 
 1178000   0.76279712   -8.0697391    247.96595  0.017541451  0.017169597            6 
 1179000    0.8043509   -8.1239683    247.44082  0.017489456  0.017155878            1 
 1180000    0.7685176   -8.1014782    248.51292  0.017550347  0.017142132            2 
 1181000   0.78330785   -8.0874308    248.34762  0.017523823  0.017128471            2 
 1182000   0.78543798   -8.1047702    248.02696   0.01748639  0.017114865            1 
 1183000   0.77757545   -8.1238302    248.01907  0.017471053   0.01710125            2 
 1184000    0.7791739   -8.1238926    248.09044  0.017461321  0.017087644            1 
 1185000   0.76863903   -8.1104893    249.54719  0.017549029  0.017074034            4 
 1186000   0.78678895    -8.100525    248.46943  0.017458504   0.01706049            4 
 1187000    0.7838924   -8.1270133    248.58546  0.017451942  0.017046934            2 
 1188000   0.79311737   -8.1106309    248.65718  0.017442283  0.017033335            1 
 1189000   0.77601155   -8.1114054    248.51744  0.017417819  0.017019761            2 
 1190000   0.78070765   -8.1419617     248.0534  0.017370686  0.017006182            2 
 1191000   0.77352937    -8.113487    248.56491  0.017391891  0.016992604            2 
 1192000   0.77260735   -8.1229203    248.37336   0.01736391  0.016979026            6 
 1193000    0.7661715   -8.1190323    248.90565  0.017386536  0.016965516            3 
 1194000   0.78359599    -8.090552    249.54932  0.017416899  0.016952021            2 
 1195000   0.77182823   -8.1356712    248.50954  0.017329815  0.016938585            4 
 1196000   0.79810738   -8.0912407    249.32298  0.017372002  0.016925163            4 
 1197000   0.78706036   -8.1075321    249.03543  0.017337471  0.016911747            2 
 1198000   0.76675731   -8.1084457    249.43822  0.017351017  0.016898302            1 
 1199000   0.77378181   -8.1154038    249.48702  0.017339938  0.016884848            1 
 1200000   0.77103563   -8.1394958    249.30152  0.017312605  0.016871402            2 
 1201000   0.75698333   -8.1257933    249.26125  0.017295396  0.016857974            3 
 1202000   0.75832148   -8.1378332    249.24381  0.017279798  0.016844623            4 
 1203000   0.78346395   -8.0899025    249.38653  0.017275321  0.016831272            3 
 1204000   0.77076663   -8.1073101    249.45127  0.017265454  0.016818025            3 
 1205000   0.78567069   -8.0947946    249.94409  0.017285207  0.016804674            2 
 1206000   0.75852237   -8.1554282    249.39203  0.017232727  0.016791308            2 
 1207000   0.78212374    -8.131463    249.86276   0.01725095  0.016777964            3 
 1208000   0.77114284   -8.1336962    248.77907  0.017161911  0.016764515            2 
 1209000   0.77208753    -8.145321     248.7173  0.017143459  0.016751084            1 
 1210000   0.77822981   -8.1093443    249.50897  0.017183814  0.016737719            2 
 1211000   0.78290218   -8.1358804    249.43492  0.017164528  0.016724309            1 
 1212000   0.76164039   -8.1371609    248.94406  0.017116616  0.016710879            2 
 1213000   0.77664323   -8.1370712    250.23456  0.017191162  0.016697454            1 
 1214000   0.76415055   -8.1335026    249.51778  0.017127799  0.016684056            3 
 1215000   0.77074671   -8.1321515     249.9709   0.01714478  0.016670756            2 
 1216000   0.75203559   -8.1158195    250.06968   0.01713745  0.016657456            5 
 1217000   0.77677978   -8.1519798    249.58505  0.017090184  0.016644187            2 
 1218000   0.76871851   -8.1367276    249.83351  0.017093152  0.016630828            2 
 1219000   0.75806715   -8.1385015    249.37935  0.017048082  0.016617393            3 
 1220000   0.75749437   -8.1625555    249.16621   0.01701955  0.016603996            1 
 1221000   0.76577336   -8.1270035    249.65139  0.017038724  0.016590557            4 
 1222000    0.7676251   -8.1731228    248.91094  0.016974287  0.016577159            2 
 1223000   0.75108598    -8.164441     248.6582  0.016943186  0.016563782            1 
 1224000   0.76776469   -8.1358471    249.59787  0.016993319  0.016550427            1 
 1225000   0.76586619   -8.1524106    250.04086  0.017009582  0.016537114            2 
 1226000   0.75828844    -8.146095     249.6297  0.016967761  0.016523752            2 
 1227000   0.74481046   -8.1581224     249.8438  0.016968473  0.016510413            3 
 1228000   0.75520363   -8.1057289     250.2722  0.016983727  0.016497104            4 
 1229000   0.78522762   -8.1309801    249.98769  0.016950616  0.016483864            5 
 1230000   0.76873584   -8.1330124    249.19782  0.016883321  0.016470566            5 
 1231000   0.76060319   -8.1355042    249.75753  0.016907496   0.01645725            3 
 1232000   0.76268554   -8.1570945    249.03534  0.016844923  0.016443896            3 
 1233000   0.77172399   -8.1385293    250.02429    0.0168981  0.016430587            3 
 1234000   0.75652259   -8.1479365    249.21742  0.016829917   0.01641723            2 
 1235000   0.76610702   -8.1824124    249.36372  0.016826162  0.016403874            3 
 1236000   0.76775611   -8.1413706    250.47559  0.016887512  0.016390488            3 
 1237000   0.76091218   -8.1607575    249.60978  0.016815534   0.01637714            1 
 1238000   0.73961158   -8.1527446    250.09652  0.016834715  0.016363807            1 
 1239000   0.76046001   -8.1558749     249.0149  0.016748379  0.016350393            6 
 1240000   0.75235888   -8.1492503    249.84162  0.016790432  0.016337013            2 
 1241000    0.7439309    -8.162965     249.3203  0.016741895  0.016323606            4 
 1242000   0.75201094    -8.173877    249.27004  0.016725043  0.016310201            3 
 1243000   0.76846864   -8.1608052    249.03307  0.016695701  0.016296776            3 
 1244000   0.76173809   -8.1704966    249.76008  0.016730981  0.016283464            3 
 1245000   0.76375092   -8.1559181    250.49764   0.01676691  0.016270196            1 
 1246000   0.75137542   -8.1473719    249.51874  0.016687984  0.016256925            2 
 1247000   0.74256429   -8.1578043    250.01585  0.016707822  0.016243598            1 
 1248000   0.75392274   -8.1534444    249.52811  0.016661866  0.016230331            2 
 1249000   0.76003729   -8.1832604    250.32648  0.016701793  0.016217097            3 
 1250000   0.77469771   -8.1873966    249.85546  0.016657031  0.016203866            3 
 1251000    0.7596493   -8.1613124    250.50142  0.016686745  0.016190571            2 
 1252000   0.76047528   -8.1941275    249.30498  0.016593782  0.016177296            2 
 1253000    0.7599888   -8.1823074    249.88791  0.016619308  0.016163984            2 
 1254000   0.76380403    -8.183767    250.14212  0.016622948  0.016150729            2 
 1255000   0.75995256   -8.1611741     249.6477  0.016576872  0.016137512            1 
 1256000   0.76478771   -8.1370256    250.80049   0.01664016  0.016124363            3 
 1257000   0.75959611   -8.1589571    250.35942  0.016597681  0.016111226            3 
 1258000   0.74350036   -8.1974716    250.17716  0.016572414  0.016098053            2 
 1259000   0.76494311   -8.1650199    250.59028  0.016586595  0.016084914            1 
 1260000   0.75584334   -8.1613369    250.45558  0.016564522  0.016071762            4 
 1261000   0.74923214   -8.1564121    250.59028  0.016560288   0.01605865            2 
 1262000   0.74599186     -8.15991    250.47921  0.016539831    0.0160456            4 
 1263000   0.74487431   -8.1766998    250.34198  0.016517682  0.016032535            3 
 1264000   0.75575919   -8.1456077    250.78294  0.016533685  0.016019496            1 
 1265000   0.74539556   -8.1829761    250.34943  0.016492057  0.016006436            1 
 1266000   0.75966088   -8.1842658    250.71212  0.016502904  0.015993394            2 
 1267000   0.75456434   -8.1774652    250.31151   0.01646353  0.015980348            3 
 1268000   0.75005237   -8.1576916    250.64915  0.016472736  0.015967377            4 
 1269000   0.73318929    -8.190251    251.13782  0.016491845  0.015954397            4 
 1270000   0.76523351   -8.1889236    251.21886  0.016484177  0.015941448            1 
 1271000   0.76058412   -8.1920563    250.98753   0.01645604   0.01592852            1 
 1272000   0.74174854   -8.1945783    250.80396  0.016431077  0.015915607            3 
 1273000   0.72864349   -8.1988371    250.70454  0.016411661   0.01590268            2 
 1274000    0.7402891   -8.1979011    250.87743  0.016410089  0.015889745            6 
 1275000   0.74428824   -8.1900312    250.34143  0.016362185  0.015876823            3 
 1276000   0.75122029   -8.1744027    250.96334  0.016389978  0.015863919            1 
 1277000   0.74502329   -8.2125699    250.84839  0.016369642  0.015851071            1 
 1278000   0.74170598   -8.2039865    251.09031  0.016372607  0.015838118            1 
 1279000   0.75405266   -8.2065559    250.22587  0.016303484  0.015825163            2 
 1280000   0.74688171   -8.2222578    251.03952  0.016343719  0.015812219            1 
 1281000   0.73755612   -8.1925633    251.29168  0.016347364  0.015799261            4 
 1282000   0.73607452    -8.185655    251.04884  0.016318828  0.015786296            3 
 1283000   0.74000924   -8.1996805     250.4735  0.016268739  0.015773346            2 
 1284000    0.7237122   -8.2124945    251.26978  0.016307748  0.015760376            3 
 1285000     0.746075   -8.2168298    250.85135  0.016267922  0.015747388            1 
 1286000   0.73545204   -8.2252058    250.72675  0.016247197   0.01573444            2 
 1287000   0.75848388   -8.2008646    250.66927  0.016230851  0.015721516            2 
 1288000   0.73988757   -8.2625554    250.31228  0.016195153  0.015708551            1 
 1289000   0.72400388   -8.2165558    251.35701   0.01625013  0.015695586            2 
 1290000   0.75769919   -8.2127021    250.76243  0.016199123  0.015682648            2 
 1291000   0.73755589    -8.227088    250.16765  0.016148183  0.015669737            1 
 1292000   0.75671409   -8.2032114    250.50286  0.016157305  0.015656814            2 
 1293000   0.74386296   -8.2284666    250.59693  0.016150872  0.015643889            1 
 1294000   0.73687784   -8.2174187    250.62186  0.016139996   0.01563098            2 
 1295000   0.73247471   -8.2308811    250.73429  0.016134767  0.015618073            2 
 1296000   0.71469077   -8.2381073    250.17546  0.016086385   0.01560507            3 
 1297000   0.73691523   -8.2314985    250.12662  0.016070844  0.015592097            3 
 1298000   0.72833484   -8.2499634     250.5385  0.016084906  0.015579148            1 
 1299000   0.72321279   -8.2532722     250.4271  0.016065377  0.015566194            5 
 1300000   0.73825122   -8.2297539    250.67605  0.016068978  0.015553287            3 
 1301000   0.73938067     -8.24548    250.79878  0.016064488  0.015540381            1 
 1302000   0.74359677   -8.2576124    250.68387  0.016044795  0.015527531            3 
 1303000   0.73535065   -8.2573896     250.2965  0.016007707  0.015514684            3 
 1304000   0.74939711   -8.2507402     250.5357  0.016010717  0.015501828            2 
 1305000    0.7346277   -8.2527489    251.42467  0.016055215  0.015489011            4 
 1306000   0.72562175   -8.2477285    250.91376  0.016010322    0.0154762            2 
 1307000   0.71811605   -8.2474619      250.734  0.015986611  0.015463375            2 
 1308000   0.72785424    -8.249198    250.73878  0.015974693  0.015450501            3 
 1309000   0.72661246   -8.2250398    251.02296   0.01598058  0.015437678            2 
 1310000   0.71764052   -8.2691507    250.29745  0.015922229  0.015424809            5 
 1311000   0.73487281   -8.2618021    250.63602  0.015931605  0.015412014            2 
 1312000   0.71774012   -8.2466881    250.45726  0.015908108  0.015399233            2 
 1313000   0.72328561   -8.2658106    250.54912  0.015901823  0.015386462            1 
 1314000   0.74369155   -8.2837904    250.53023  0.015888523  0.015373688            1 
 1315000   0.72568811   -8.2342395    250.97355  0.015904534  0.015360942            5 
 1316000   0.74310059   -8.2149825    251.64474  0.015934951  0.015348223            2 
 1317000   0.71279046   -8.2494259    250.31619  0.015838787  0.015335507            1 
 1318000   0.70769334   -8.2449287    250.90865  0.015864229  0.015322771            1 
 1319000   0.71667087   -8.2728845    251.04611  0.015860886  0.015310021            1 
 1320000   0.74386434   -8.2642794    251.13151  0.015854262  0.015297333            2 
 1321000   0.73367253   -8.2422793    251.05469  0.015837414  0.015284646            1 
 1322000   0.72639438   -8.2574393    251.38396   0.01584619  0.015272036            1 
 1323000   0.73146605   -8.2450191    251.22128  0.015823966  0.015259409            3 
 1324000   0.72483132   -8.2564102     250.8778  0.015790395  0.015246797            2 
 1325000   0.73585894   -8.2359209    251.25814  0.015802398  0.015234198            4 
 1326000   0.73566864   -8.2535169    251.52518  0.015807264  0.015221623            3 
 1327000    0.7119475   -8.2557913    251.26537  0.015779036  0.015209056            3 
 1328000   0.72872651   -8.2710125    251.01485  0.015751434  0.015196428            5 
 1329000   0.72210921   -8.2446009    251.27621   0.01575597  0.015183816            1 
 1330000   0.71802944   -8.2516393    251.53774   0.01576051  0.015171193            1 
 1331000   0.71199107   -8.2765372    251.01872  0.015716173  0.015158624            2 
 1332000   0.72625976   -8.2726749    251.03844  0.015705608  0.015146039            3 
 1333000   0.72570453   -8.2752793    250.61353  0.015667262  0.015133472            2 
 1334000   0.71514708   -8.2734715    251.07901  0.015684596  0.015120901            1 
 1335000   0.73728838   -8.2545682    250.72694   0.01565087  0.015108324            2 
 1336000   0.73662597    -8.278895    251.09252  0.015661958  0.015095793            3 
 1337000   0.72394121   -8.2709333    252.43725  0.015734059  0.015083294            3 
 1338000   0.70855574   -8.2494485    251.60203  0.015670281  0.015070815            2 
 1339000    0.7115807   -8.2718716    250.94397  0.015617623  0.015058367            2 
 1340000   0.70635606   -8.2489444    251.39327   0.01563391  0.015045939            2 
 1341000   0.70726463   -8.2542659    251.54624  0.015631757  0.015033498            2 
 1342000   0.72830987   -8.2593186    251.59083  0.015622878   0.01502105            1 
 1343000   0.71629709   -8.2674543    251.45158  0.015602605  0.015008565            1 
 1344000   0.71933932   -8.2626201    251.34683  0.015584501  0.014996093            2 
 1345000   0.71395077   -8.2612175    251.16186  0.015561453  0.014983609            2 
 1346000   0.71043661   -8.2437409    251.21293  0.015553054  0.014971125            2 
 1347000   0.70203002   -8.2631711    251.30578  0.015547252  0.014958678            1 
 1348000   0.71115813   -8.2789906    251.42099  0.015542841  0.014946225            2 
 1349000   0.72535972   -8.2842583    251.27257   0.01552215  0.014933733            1 
 1350000   0.69351474   -8.2981819    250.92399  0.015489135  0.014921243            1 
 1351000   0.71209295   -8.2700888    251.55509  0.015516598  0.014908788            2 
 1352000   0.70463265   -8.2962693    251.37118  0.015493786  0.014896377            3 
 1353000   0.71901321   -8.2624547    252.16998  0.015531534  0.014884008            2 
 1354000   0.71067642   -8.2657831     251.6859   0.01549027  0.014871657            2 
 1355000   0.69990151   -8.2754909    251.49299  0.015466973  0.014859324            1 
 1356000   0.72417838   -8.2862776    251.30269  0.015443872  0.014846954            1 
 1357000   0.71052699   -8.3029335    251.22869  0.015427947  0.014834575            2 
 1358000   0.71005578   -8.3303781    251.24465  0.015417566  0.014822156            3 
 1359000   0.72930319   -8.3132614     251.1305  0.015399221  0.014809734            4 
 1360000   0.72958291   -8.2814621    251.19268  0.015391708  0.014797343            3 
 1361000   0.68918509   -8.2846766    251.72305  0.015412874  0.014784998            3 
 1362000   0.71707638   -8.3026256    251.42424  0.015383274  0.014772699            5 
 1363000   0.70791447   -8.3186462    250.78493  0.015332901  0.014760381            2 
 1364000   0.71347846   -8.3127568    251.48769  0.015364595  0.014748052            2 
 1365000   0.71167156   -8.2948538    251.54603    0.0153569  0.014735764            2 
 1366000   0.71577148   -8.2939477      251.973  0.015371706  0.014723455            2 
 1367000   0.71410047   -8.3488385    251.41474  0.015326429  0.014711146            2 
 1368000   0.70313898   -8.3282951    251.62116  0.015327799  0.014698821            1 
 1369000   0.70711153   -8.2988954    251.79379  0.015327112  0.014686533            1 
 1370000   0.71616923   -8.3061575    252.12261  0.015335925   0.01467427            1 
 1371000   0.68353831   -8.3345362    251.80129  0.015305208  0.014661987            2 
 1372000   0.71013221   -8.3311707    251.47362  0.015274151  0.014649682            3 
 1373000   0.70901875   -8.2999378    251.24644  0.015249238  0.014637382            1 
 1374000   0.71545515   -8.3254632    251.87888  0.015276497  0.014625106            3 
 1375000   0.69430775   -8.3319487    251.45423   0.01523965  0.014612816            7 
 1376000   0.71927407   -8.3290351    251.09155   0.01520661  0.014600528            2 
 1377000   0.69489075    -8.301593    251.83976  0.015240847  0.014588297            4 
 1378000    0.7006659   -8.3205211    251.97004  0.015237666  0.014576083            3 
 1379000   0.69230371   -8.3085152    251.73331   0.01521231  0.014563914            1 
 1380000    0.7035185   -8.2931166    251.91862  0.015212477  0.014551749            1 
 1381000   0.72110129   -8.3247584    251.35164  0.015167248  0.014539596            2 
 1382000   0.69829828   -8.3048264    251.91518  0.015190254  0.014527424            4 
 1383000   0.70727516    -8.314565    251.75488  0.015169612  0.014515253            1 
 1384000   0.67681139   -8.2906889     251.9949  0.015173103  0.014503114            1 
 1385000   0.70315515   -8.3246173    251.54637  0.015135161  0.014490989            3 
 1386000    0.7000701   -8.3536796    251.12938  0.015099169  0.014478842            5 
 1387000   0.69328879   -8.3353176    251.12343  0.015087925  0.014466695            3 
 1388000   0.69957497   -8.3379421    251.65234   0.01510881  0.014454582            2 
 1389000   0.70201163   -8.3216259    251.28101  0.015075655  0.014442499            2 
 1390000   0.72091973   -8.3104522     251.8294  0.015097686  0.014430439            2 
 1391000   0.69137774   -8.3228399     251.9393  0.015093416  0.014418419            5 
 1392000   0.69505535   -8.3343856     252.3453  0.015106878  0.014406342            2 
 1393000   0.68406175   -8.3296263    252.03112  0.015077239  0.014394269            3 
 1394000   0.69384326    -8.327092    251.66322   0.01504443  0.014382251            4 
 1395000   0.69228287   -8.3247887    251.66009  0.015033458   0.01437023            1 
 1396000   0.69138118   -8.3587422    251.61431  0.015019956  0.014358182            1 
 1397000   0.70767315   -8.3582786    251.93848  0.015028542  0.014346095            3 
 1398000   0.69777441   -8.3436635    251.71549    0.0150045  0.014334069            3 
 1399000   0.69314854   -8.3583511    251.72254  0.014994195  0.014322014            2 
 1400000   0.69454175   -8.3238347    252.10484  0.015006241  0.014309969            2 
 1401000   0.71035901   -8.3488901    251.76562  0.014975352  0.014297941            4 
 1402000   0.67749278   -8.3583394    250.98863  0.014918487  0.014285915            1 
 1403000   0.69462591   -8.3353302    251.63283  0.014946117  0.014273878            5 
 1404000   0.69296753   -8.3603715    251.54199   0.01493008  0.014261853            1 
 1405000    0.6948155    -8.360967    251.48493  0.014916069  0.014249851            3 
 1406000   0.70447051   -8.3598936    251.54894  0.014909255  0.014237856            1 
 1407000   0.69873255   -8.3642788    251.97817   0.01492408    0.0142259            3 
 1408000   0.69311621   -8.3311111    251.91091    0.0149095  0.014213918            2 
 1409000   0.68435558   -8.3449418    251.67329  0.014884864  0.014201959       -1e+20 
 1410000   0.68166768   -8.3439307    252.16042  0.014903098  0.014190018            1 
 1411000   0.68618814    -8.342658    252.22966  0.014896625  0.014178157            1 
 1412000   0.68651875   -8.3526706    251.41763  0.014838151  0.014166279            2 
 1413000    0.6895303   -8.3437163    251.97915  0.014860766  0.014154365            3 
 1414000   0.67968373   -8.3381811    252.03002  0.014853254  0.014142481            4 
 1415000   0.66808552   -8.3458601    252.54038  0.014872814  0.014130614            3 
 1416000   0.68415596   -8.3389866    252.07441  0.014834887  0.014118789            2 
 1417000   0.69644163   -8.3328475    252.36884  0.014841734  0.014106995            2 
 1418000    0.6795936   -8.3497566    252.02075   0.01481081  0.014095231            1 
 1419000   0.69445429   -8.3091802    251.85518  0.014790649  0.014083435            2 
 1420000   0.69942987   -8.3256658    252.08367  0.014793643  0.014071638            1 
 1421000    0.6915759   -8.3329763    252.38614   0.01480097  0.014059818            1 
 1422000    0.6973941   -8.3564593    251.94325  0.014764607  0.014048005            1 
 1423000   0.67248316   -8.3482666    251.61593  0.014735063  0.014036203            1 
 1424000   0.68490599   -8.3563161    251.88536  0.014740482  0.014024422            2 
 1425000   0.67918557   -8.3707621    251.76187  0.014722916  0.014012625            2 
 1426000   0.68610515   -8.3595093    251.91341  0.014721447   0.01400083            2 
 1427000   0.68465734   -8.3772572    251.76982  0.014702746  0.013989015            2 
 1428000   0.68398346   -8.3691733    251.96805  0.014704018  0.013977233            4 
 1429000   0.69590993   -8.3836916    251.49539  0.014666165  0.013965455            2 
 1430000   0.67509063   -8.3508276    251.24016  0.014641035  0.013953698            3 
 1431000   0.69196558   -8.3593396    251.51471  0.014646792  0.013941924            4 
 1432000   0.68040411   -8.3736068    251.85074  0.014656118  0.013930184            2 
 1433000   0.66996828   -8.3722468    251.43078  0.014621469   0.01391842            2 
 1434000   0.69003158   -8.3657306    251.85599  0.014635983   0.01390667            2 
 1435000   0.69033056   -8.3902857    251.75403  0.014619862  0.013894892            4 
 1436000   0.68520654   -8.3853521    251.66149  0.014604311  0.013883163            1 
 1437000   0.69352243   -8.3457255    251.23525   0.01456943  0.013871454            2 
 1438000   0.67611778   -8.3857177    251.42026   0.01457002  0.013859769            1 
 1439000   0.68206878    -8.374442    251.70191  0.014576205  0.013848062            1 
 1440000    0.6799508   -8.3862206    251.53509  0.014556429  0.013836328            3 
 1441000   0.67446606   -8.3934749    251.88913  0.014566801  0.013824613            2 
 1442000   0.67433221   -8.4001764    251.66235  0.014543594  0.013812933            1 
 1443000    0.6812498   -8.3998596    251.61091  0.014530544  0.013801255            2 
 1444000   0.66873055   -8.3725976     252.1291  0.014550387  0.013789584            1 
 1445000    0.6720734   -8.3924776    251.58513  0.014508946  0.013777922            2 
 1446000   0.67439641   -8.4081566     252.1706  0.014532653  0.013766231            3 
 1447000   0.67498317   -8.3756939    251.80579    0.0145016  0.013754574            5 
 1448000     0.670283   -8.3706294     251.8554  0.014494441  0.013742942            2 
 1449000   0.66507905   -8.3791181    252.03752  0.014494911  0.013731305            6 
 1450000   0.67736087    -8.387259    252.16513  0.014492249  0.013719676            2 
 1451000   0.66470973   -8.3640398     251.7958   0.01446105  0.013708063            1 
 1452000   0.68320371   -8.3934478    251.78044  0.014450209  0.013696424            2 
 1453000   0.66782461   -8.3972768    251.83534  0.014443412  0.013684834            2 
 1454000   0.67861702    -8.405888    251.49649  0.014414058  0.013673223            3 
 1455000   0.67812723   -8.3815789    251.61317  0.014410834  0.013661646            3 
 1456000   0.66752743   -8.4219528    251.58317   0.01439922  0.013650084            3 
 1457000   0.67746363   -8.3831017    251.51077  0.014385196  0.013638479            2 
 1458000   0.67000258   -8.3974325    251.75728  0.014389419  0.013626894            2 
 1459000   0.66769816   -8.3905956    251.31392  0.014354233  0.013615351            2 
 1460000   0.66984674   -8.3787756    251.91493  0.014378706  0.013603796            5 
 1461000   0.66406719   -8.3867783     251.6135  0.014351671  0.013592267            2 
 1462000   0.66392682   -8.4023338    251.49491  0.014335095  0.013580748            3 
 1463000   0.66421022   -8.3783056    251.84882  0.014345456  0.013569228            2 
 1464000   0.66305917   -8.3939133    251.83619  0.014334938  0.013557749            1 
 1465000    0.6539591   -8.4071744    251.26754  0.014292807  0.013546219            2 
 1466000   0.67587009   -8.3831466    251.63586  0.014303994    0.0135347            3 
 1467000   0.65307086   -8.3752812    251.84698  0.014306236  0.013523196            1 
 1468000   0.66498204   -8.4182081    251.93985  0.014301763  0.013511734            5 
 1469000   0.66439422   -8.4300697    251.72994  0.014280119  0.013500273            1 
 1470000   0.67733265    -8.403306    251.37982  0.014250557  0.013488812            1 
 1471000      0.66738   -8.4278413    251.61827  0.014254377  0.013477386            5 
 1472000   0.66349476   -8.4140262    251.79303  0.014254587  0.013465946            2 
 1473000   0.66131564   -8.3925754    251.81251  0.014246012  0.013454543            2 
 1474000   0.66677046   -8.4147088    251.97116  0.014245317  0.013443158            2 
 1475000   0.67231074   -8.4219041    251.56235  0.014212562  0.013431776            2 
 1476000   0.67968551   -8.4181264    251.49014  0.014198856  0.013420397            2 
 1477000   0.66871956   -8.3966817    251.74985  0.014203896  0.013409013            4 
 1478000   0.64250134   -8.4100273    251.62053  0.014186994  0.013397667            1 
 1479000   0.66473591    -8.424283    251.44285  0.014167391  0.013386312            2 
 1480000     0.660005   -8.4276185    251.68926  0.014171693  0.013374988            1 
 1481000   0.65367469   -8.4287196    251.70143  0.014162808  0.013363609            2 
 1482000   0.66728494   -8.4347583     251.8304  0.014160504   0.01335227            2 
 1483000   0.65859534   -8.4254839    251.37705  0.014125481  0.013340961            3 
 1484000   0.67676138   -8.4247843    251.60624  0.014128832  0.013329661            2 
 1485000    0.6539183   -8.4417168      251.422  0.014108979  0.013318351            3 
 1486000   0.64726308   -8.4325656    251.49943  0.014103826  0.013307059            5 
 1487000   0.66962941     -8.44399    251.67967  0.014104442   0.01329574            5 
 1488000   0.66186321   -8.4194984    251.99678  0.014112723  0.013284423            3 
 1489000   0.67244471     -8.43546    252.05735  0.014106635  0.013273111            1 
 1490000   0.68220935   -8.4409904    251.45186  0.014063303  0.013261813            3 
 1491000   0.67111235   -8.4338254    251.49668  0.014056376  0.013250512            4 
 1492000   0.65903472   -8.4240987    251.81553  0.014064764  0.013239264            1 
 1493000   0.66177514   -8.4172274    251.60977  0.014043858  0.013227998            2 
 1494000   0.66689506   -8.4263842    251.50541  0.014028637   0.01321672            2 
 1495000   0.65824791   -8.4649848    251.30818   0.01400826  0.013205449            2 
 1496000   0.64783388   -8.4319151    251.68897  0.014020107  0.013194147            5 
 1497000   0.66568708   -8.4222391    251.48141  0.013999188   0.01318288            4 
 1498000   0.66337991   -8.3926962     252.1449  0.014026753  0.013171628            3 
 1499000   0.66838184   -8.4402655    251.80602  0.013998556  0.013160442            2 
 1500000   0.65135242   -8.4174722    251.67407  0.013981893  0.013149237            2 
 1501000   0.66726939   -8.4524208    251.54798  0.013965577  0.013138027            3 
 1502000    0.6457835   -8.4499795    251.49646  0.013953421  0.013126843            4 
 1503000   0.66723384   -8.4405218     251.3421  0.013935579  0.013115636            2 
 1504000   0.66772226   -8.4195856    252.07237  0.013966776  0.013104459            2 
 1505000    0.6449895   -8.4285542    251.84347  0.013944821  0.013093309            2 
 1506000     0.644544   -8.4327798    251.38411  0.013910143  0.013082176            2 
 1507000   0.65299695   -8.3933609    252.17363  0.013944571  0.013071088            2 
 1508000    0.6520978   -8.4129225    251.36698  0.013890748  0.013059984            2 
 1509000   0.65652457   -8.4500617    251.49366  0.013888539  0.013048897            2 
 1510000   0.65252229   -8.4257019    251.67194   0.01388918  0.013037809            2 
 1511000   0.63409713   -8.4613666    251.40621  0.013865332  0.013026725            1 
 1512000   0.64903097   -8.4431356     251.7666  0.013876025  0.013015672            1 
 1513000   0.64166968    -8.435834    251.37419  0.013845241   0.01300462            2 
 1514000   0.63733748   -8.4399195    251.60806  0.013848968  0.012993578            3 
 1515000   0.64209769   -8.4719184      251.171  0.013815787  0.012982504            3 
 1516000   0.64180954   -8.4593457    252.01182  0.013852893  0.012971461            3 
 1517000   0.64409322    -8.444409    251.66653  0.013824793  0.012960409            3 
 1518000   0.65194359   -8.4348735    251.54828  0.013809194  0.012949376            4 
 1519000   0.67022113    -8.450201    251.30594  0.013786808  0.012938356            3 
 1520000   0.65228881   -8.4488841    251.40481  0.013783158  0.012927359            3 
 1521000   0.63721315   -8.4725868    251.41248  0.013774517  0.012916348            3 
 1522000   0.64299995   -8.4539601     251.8672  0.013790363  0.012905352            1 
 1523000   0.64507235   -8.4621178     251.7988  0.013777566  0.012894375            3 
 1524000   0.65561277   -8.4450691    251.59226  0.013757232  0.012883413            2 
 1525000    0.6552322   -8.4544174    251.72327   0.01375537   0.01287246            4 
 1526000   0.64475968    -8.470249    251.60427  0.013739857  0.012861521            3 
 1527000   0.65394504   -8.4602701    251.35466  0.013717238  0.012850582            1 
 1528000   0.65012206    -8.469571    251.45315  0.013713632  0.012839635            3 
 1529000   0.65980298   -8.4742681    251.22848  0.013692418  0.012828688            2 
 1530000   0.63131303   -8.4724704    251.62303  0.013704958  0.012817747            4 
 1531000   0.63833223   -8.4662083    251.70436  0.013700433   0.01280684            1 
 1532000   0.64006505     -8.46333    251.78548  0.013695903  0.012795935            1 
 1533000   0.64681249   -8.4911477    251.70309   0.01368249  0.012785057            2 
 1534000   0.64067582    -8.465637    251.63816  0.013670043  0.012774167            2 
 1535000   0.64947298    -8.489592    251.02134  0.013627652  0.012763297            1 
 1536000   0.63104686    -8.487863    251.34528  0.013636354  0.012752422            2 
 1537000   0.64574002   -8.5005337    251.93063  0.013659219  0.012741574            1 
 1538000   0.64629284   -8.4755941    251.59961  0.013632402  0.012730719            1 
 1539000   0.64100993   -8.4799067    251.41982  0.013613809   0.01271987            2 
 1540000   0.64587107   -8.4905751    251.47328  0.013607861  0.012709021            1 
 1541000   0.63662619   -8.5082709    251.39001  0.013594528  0.012698179            2 
 1542000   0.62383201    -8.482341    251.81732  0.013608805  0.012687322            7 
 1543000   0.63204472   -8.4735144    251.60769  0.013588663  0.012676506            2 
 1544000   0.63474949   -8.4700514    251.16759  0.013556109  0.012665677            3 
 1545000   0.64158857   -8.4889532    251.79347  0.013581093   0.01265487            4 
 1546000   0.64174755   -8.4876313    251.29319  0.013545342   0.01264408            3 
 1547000   0.64023958   -8.5014334    251.22836  0.013533094  0.012633274            4 
 1548000   0.62688662   -8.4756995    251.68713  0.013549049  0.012622496            2 
 1549000   0.63017972   -8.4692735     251.1154  0.013509544  0.012611727            3 
 1550000   0.63687134   -8.4791881     251.6075  0.013527285  0.012600987            3 
 1551000   0.64260695   -8.4857663    251.36356  0.013505457  0.012590229            4 
 1552000   0.62772033   -8.4843745    251.44246  0.013500991  0.012579464            2 
 1553000   0.62188458   -8.4897229    251.28573  0.013483887  0.012568731            2 
 1554000   0.62769952   -8.4968477    251.53879  0.013488781  0.012557989            2 
 1555000    0.6123885   -8.4949371    251.22691  0.013463393  0.012547247            4 
 1556000   0.63218035   -8.5281752    250.91888  0.013438243  0.012536499            2 
 1557000   0.63046978   -8.4975961    251.04445  0.013436333  0.012525769            4 
 1558000   0.63237941   -8.4826499    251.40149  0.013446806  0.012515049            3 
 1559000   0.63494931   -8.4888291    251.30122  0.013432821  0.012504343            1 
 1560000   0.63123137   -8.4974288    251.23776  0.013420821  0.012493659            2 
 1561000   0.62943478   -8.4877489    251.34252  0.013417816  0.012482989            2 
 1562000   0.62513739   -8.5053271    251.23767  0.013403632  0.012472312            3 
 1563000   0.62935785   -8.5081237    251.23391  0.013394855  0.012461656            1 
 1564000   0.62556998   -8.4980495    251.21045  0.013385041  0.012450989            1 
 1565000   0.62118836   -8.4956206    250.93487  0.013361814  0.012440324            2 
 1566000    0.6245821   -8.5216471    250.82615  0.013347496  0.012429689            2 
 1567000   0.62434639   -8.4980024    251.24987  0.013361512  0.012419055            3 
 1568000   0.61315706   -8.5047197    251.19405  0.013350024  0.012408428            1 
 1569000   0.62245317   -8.5051391    250.98386  0.013330352  0.012397808            3 
 1570000   0.61428172   -8.4771881    251.36662  0.013342177  0.012387207            2 
 1571000   0.61768977   -8.4728871    250.73841  0.013300361  0.012376618            2 
 1572000   0.62743843   -8.5115652    250.66344  0.013287926  0.012366044            6 
 1573000    0.6319378   -8.4908247    251.55182  0.013326543  0.012355457            3 
 1574000   0.63375089   -8.4893872    250.79895  0.013278216   0.01234489            6 
 1575000   0.62049557   -8.5204711    251.18497   0.01329021  0.012334324            3 
 1576000   0.62951247    -8.527521    251.20034   0.01328259  0.012323766            4 
 1577000   0.64528489   -8.5221023    251.15293  0.013271662  0.012313216            4 
 1578000   0.62477469   -8.5131436    251.00102  0.013255229  0.012302642            3 
 1579000   0.61904033   -8.5174716    250.94911  0.013244095  0.012292104            2 
 1580000   0.63072221   -8.4910687    251.22124  0.013250065  0.012281598            3 
 1581000   0.62830675    -8.505543    251.18214  0.013239624  0.012271092            1 
 1582000   0.59979708   -8.5021326    251.23619  0.013234102  0.012260598            3 
 1583000   0.61927782   -8.5085188    251.36456  0.013232499  0.012250111            3 
 1584000   0.62636327   -8.5080412    251.16839  0.013213825  0.012239644            1 
 1585000   0.61369932   -8.5130317      251.311  0.013212986  0.012229177            2 
 1586000   0.62780766   -8.5168097      250.969  0.013186686  0.012218695            2 
 1587000   0.60984379   -8.5142499    250.96641  0.013178241  0.012208231            2 
 1588000   0.61780879   -8.5271376    250.73607  0.013157854  0.012197746            1 
 1589000   0.62292261   -8.5160477    250.73014  0.013149263  0.012187269            3 
 1590000   0.62629757   -8.5443726    251.12343  0.013161605  0.012176806            2 
 1591000   0.61707748   -8.5171675    250.70453  0.013131391  0.012166367            1 
 1592000   0.60619067   -8.5154014    250.88316  0.013132494  0.012155961            3 
 1593000   0.61475049   -8.5102035    251.00744  0.013130751  0.012145557            2 
 1594000    0.6161106   -8.5138117    250.94095  0.013119037  0.012135141            2 
 1595000   0.61617553   -8.5322055    250.98878  0.013113312  0.012124741            2 
 1596000   0.60777792    -8.520556    250.82942  0.013096774  0.012114361            3 
 1597000   0.62698572   -8.5421191    250.66048  0.013079758  0.012103983            2 
 1598000   0.60629363   -8.5339626    250.76354  0.013076947  0.012093604            1 
 1599000    0.6116529   -8.5117427    251.14232  0.013088509  0.012083237            1 
 1600000   0.62512587   -8.5297872    251.12949  0.013079661  0.012072895            1 
 1601000   0.61251437    -8.528893    250.71025  0.013049669  0.012062551            5 
 1602000   0.60425123   -8.5272634     251.3569  0.013075161  0.012052207            1 
 1603000   0.61623254   -8.5239055    250.62898  0.013029163  0.012041872            1 
 1604000   0.62684777     -8.55302    250.22852  0.013000235  0.012031544            2 
 1605000   0.59577819   -8.5297604    251.16512  0.013040764  0.012021221            4 
 1606000   0.60599078   -8.5586234    250.52379  0.012999366  0.012010905            2 
 1607000   0.61437479   -8.5376282    251.02168  0.013017096   0.01200059            6 
 1608000   0.60910521   -8.5581022    250.72858  0.012993811  0.011990298            1 
 1609000   0.61030174    -8.560642    251.18786  0.013009522  0.011980016            2 
 1610000   0.60726857   -8.5452919    250.96304  0.012989805  0.011969753            7 
 1611000   0.61425263   -8.5528813    251.47374   0.01300816  0.011959495            4 
 1612000    0.6178983   -8.5513496    250.70419  0.012960308  0.011949253            2 
 1613000   0.60951214   -8.5494959    250.61214  0.012947517  0.011939008            4 
 1614000     0.607098   -8.5529876    250.74828  0.012946524  0.011928771            2 
 1615000   0.62040087   -8.5439332    251.05773  0.012954475  0.011918548            4 
 1616000   0.60894052    -8.567767     250.6201  0.012923891  0.011908337            2 
 1617000   0.60500536   -8.5674102    250.63178  0.012916501   0.01189814            3 
 1618000   0.61418335   -8.5667434    250.69638  0.012911845  0.011887937            2 
 1619000   0.60557172   -8.5591477    250.53336  0.012895479  0.011877753            3 
 1620000   0.62060518   -8.5364209    250.66202  0.012894137  0.011867583            1 
 1621000   0.60462233   -8.5446162    250.64542  0.012885329  0.011857426            1 
 1622000   0.60544687   -8.5461143    250.43088  0.012866362  0.011847272            5 
 1623000   0.60838959    -8.541691    250.89316  0.012882171  0.011837128            2 
 1624000   0.60770516   -8.5565509    250.41515   0.01284971  0.011826997            2 
 1625000   0.59491503   -8.5574769    250.48834  0.012845556  0.011816865            3 
 1626000    0.6110136   -8.5543744    250.91219  0.012859378  0.011806751            2 
 1627000    0.6093171   -8.5689888     250.7687  0.012844125  0.011796644            3 
 1628000   0.59535779   -8.5374235    250.59222  0.012827202  0.011786537            3 
 1629000   0.60728947   -8.5754261    250.55572   0.01281746  0.011776443            2 
 1630000   0.60977464   -8.5746931    250.88034  0.012826193  0.011766356            2 
 1631000   0.60322193    -8.561694    250.33769  0.012790604  0.011756276            3 
 1632000   0.60131266   -8.5457351    250.67947  0.012800218  0.011746187            4 
 1633000   0.59862474   -8.5436888     250.2554  0.012770739  0.011736116            1 
 1634000   0.59070317   -8.5525893    250.11181    0.0127556   0.01172604            1 
 1635000   0.61075146    -8.561967     250.6042  0.012772895  0.011715987            3 
 1636000   0.60821049    -8.568458    250.40339  0.012754859  0.011705933            5 
 1637000   0.60457762   -8.5510422    250.57097  0.012755598  0.011695889            3 
 1638000   0.60454781   -8.5842369    250.41106  0.012739675  0.011685855            2 
 1639000   0.59822101   -8.5555483    250.51839   0.01273736   0.01167584            4 
 1640000   0.59959244   -8.5658078    250.65986  0.012736781  0.011665839            1 
 1641000   0.59313285   -8.5716078    251.01547  0.012747079  0.011655844            1 
 1642000   0.60034441    -8.572494    250.34988  0.012705536  0.011645853            3 
 1643000   0.59373768   -8.5873903    250.62934  0.012711977  0.011635885            1 
 1644000   0.59713998   -8.5631923    250.31778  0.012688452  0.011625927            2 
 1645000   0.60820643   -8.5756999    250.27763  0.012678705  0.011615982            2 
 1646000   0.59853985   -8.5686495     250.6099  0.012687824  0.011606028            1 
 1647000    0.5983939   -8.5580014    250.76075  0.012687753   0.01159608            1 
 1648000   0.61080638   -8.5614035    250.36188  0.012659885  0.011586157            2 
 1649000   0.59989994   -8.5727812    251.09657  0.012689336  0.011576236            1 
 1650000   0.59400749   -8.5817585    250.33383  0.012643123  0.011566334            1 
 1651000   0.58281578   -8.5834579    250.89311  0.012663694  0.011556428            3 
 1652000   0.59421463   -8.5820512    250.45569  0.012633963  0.011546538            2 
 1653000   0.60395421   -8.5879547    250.27766  0.012617345  0.011536656            1 
 1654000   0.58990419   -8.5887544    250.20837  0.012606226  0.011526793            3 
 1655000   0.60204241   -8.5605341    250.34499  0.012605488  0.011516914            3 
 1656000   0.58396453   -8.5747096     250.2949  0.012595355  0.011507061            2 
 1657000   0.59550722   -8.5902919    250.48888  0.012597509  0.011497218            2 
 1658000   0.57767732   -8.5661524    250.36669   0.01258377  0.011487388            3 
 1659000   0.60510659   -8.5610844    250.93575  0.012604769  0.011477595            5 
 1660000   0.58804701   -8.5742879    250.42637  0.012571605  0.011467799            5 
 1661000   0.58150736   -8.5591536    250.58448  0.012571969  0.011458014            2 
 1662000    0.5990403   -8.5738568    250.35665  0.012552981   0.01144822            2 
 1663000   0.59670762   -8.5885073    250.16217  0.012535687  0.011438448            1 
 1664000   0.59023887   -8.5718902    250.76063  0.012558125  0.011428688            1 
 1665000    0.5797444   -8.5553305    250.53108  0.012539093  0.011418937            4 
 1666000   0.58650237   -8.5734094    250.98663  0.012554353  0.011409192            2 
 1667000    0.5892331   -8.5806085     250.4134  0.012518166  0.011399445            3 
 1668000   0.57640131   -8.5714107    250.13395    0.0124967  0.011389724            1 
 1669000   0.57708997   -8.5815251    250.75239  0.012520091  0.011380008            2 
 1670000   0.59112955   -8.6055084     250.4985  0.012499925  0.011370292            5 
 1671000   0.59384879   -8.5838222    250.38861  0.012486964  0.011360586            3 
 1672000   0.58251895   -8.5834317    250.44903  0.012482507  0.011350871            3 
 1673000   0.57854902   -8.5877913    250.57801  0.012481471  0.011341179            1 
 1674000     0.588748    -8.613409    250.37899  0.012464107  0.011331502            2 
 1675000   0.58768471   -8.5953313    250.18566  0.012447048  0.011321847            2 
 1676000   0.58620426   -8.5565667    249.91737  0.012426281  0.011312179            3 
 1677000    0.5725903    -8.602048    250.25451  0.012435625  0.011302534            3 
 1678000   0.57878352   -8.5939068    250.36251  0.012433577  0.011292883            3 
 1679000   0.57621773   -8.6041871    250.50002  0.012432997  0.011283258            2 
 1680000   0.57139335   -8.5952086    250.23907  0.012412652  0.011273644            4 
 1681000   0.56979307    -8.574271    250.09149  0.012397952  0.011264031            3 
 1682000   0.58406531   -8.5977867    250.10351  0.012391176  0.011254433            4 
 1683000   0.57848757   -8.5909277    250.48553   0.01240273  0.011244816            3 
 1684000    0.5737244   -8.5898459    250.56481  0.012399288  0.011235225            2 
 1685000   0.58440634    -8.592437    250.37043  0.012382316  0.011225648            1 
 1686000   0.56683548    -8.568057    250.13149  0.012363162  0.011216075            2 
 1687000   0.57126726   -8.5873716    250.15685  0.012357086  0.011206504            2 
 1688000   0.58100164   -8.6328204    249.97643  0.012340859  0.011196964            2 
 1689000   0.57167442   -8.5870815    250.08961  0.012339136  0.011187418            1 
 1690000   0.59549467   -8.6031119    249.65672  0.012310489  0.011177889            2 
 1691000    0.5852427   -8.6013153    250.11515  0.012325801  0.011168352            1 
 1692000   0.58150623   -8.6031809     250.8598  0.012355191  0.011158827            2 
 1693000   0.56756888   -8.6052881    250.35162   0.01232288  0.011149307            3 
 1694000   0.57974589   -8.6127964    249.84696  0.012290779  0.011139807            2 
 1695000   0.57302085   -8.6021441    250.58161  0.012319646  0.011130317            3 
 1696000   0.57394144   -8.5832905    250.81281  0.012323742  0.011120841            1 
 1697000   0.59539368   -8.6086795    250.55136  0.012303642  0.011111384            1 
 1698000   0.56915497   -8.6024376    250.55219  0.012296436  0.011101933            2 
 1699000   0.56671367   -8.6191752    250.48682  0.012285993  0.011092504            1 
 1700000   0.57450934   -8.5998367    250.35491    0.0122723  0.011083091            1 
 1701000    0.5740226   -8.6134052    250.80731  0.012287248  0.011073661            2 
 1702000   0.57335721    -8.590755    250.02593  0.012241771  0.011064241            2 
 1703000   0.56874264   -8.6244024    250.11317  0.012238852  0.011054832            1 
 1704000   0.57208042   -8.6197439     250.2369   0.01223772  0.011045425            1 
 1705000   0.58376893   -8.5976198    250.44534   0.01224073   0.01103604            2 
 1706000   0.57154626   -8.6213067    250.25251  0.012224136  0.011026669            2 
 1707000   0.56997146   -8.6258459    249.96373  0.012202877  0.011017298            1 
 1708000   0.55786096   -8.6161613     249.8967  0.012192462  0.011007935            2 
 1709000   0.56656722   -8.5945932     250.5167   0.01221556  0.010998584            1 
 1710000   0.57561529   -8.6135134     250.1957  0.012192773  0.010989228            1 
 1711000   0.57575873   -8.6338287     250.0045  0.012176334  0.010979887            5 
 1712000   0.57722502   -8.6349695     249.9242  0.012165313  0.010970549            4 
 1713000   0.57294224   -8.6218523     249.9748  0.012160673  0.010961215            2 
 1714000   0.58509471   -8.6291396    250.25023  0.012166969  0.010951898            2 
 1715000   0.55619601   -8.6406811    249.91038  0.012143362  0.010942579            1 
 1716000   0.54563458   -8.6187648    250.31095  0.012155738  0.010933282            2 
 1717000   0.57485632   -8.6290451     249.6393   0.01211606  0.010923981            1 
 1718000    0.5652334   -8.6360826    250.18251  0.012135357  0.010914702            1 
 1719000    0.5661195   -8.6231254    249.94302  0.012116687  0.010905421            2 
 1720000   0.57652128   -8.6327197    250.34145  0.012128946  0.010896144            1 
 1721000    0.5606958   -8.6138714    250.40712  0.012125078  0.010886887            1 
 1722000   0.56536801   -8.6042091    249.98317  0.012097521  0.010877636            1 
 1723000   0.56415792   -8.6351172    249.50468  0.012067357  0.010868399            3 
 1724000   0.57811353   -8.6340544    250.07914  0.012088125  0.010859172            2 
 1725000   0.56070427   -8.6175172    250.07636  0.012080983  0.010849937            3 
 1726000   0.56003868   -8.6374891    249.83308  0.012062238  0.010840732            1 
 1727000   0.57011182     -8.62501    249.43779   0.01203618  0.010831537            2 
 1728000   0.55614929   -8.6430197    249.54171  0.012034226  0.010822346            1 
 1729000   0.57303885   -8.6437282    249.77162  0.012038347  0.010813155            1 
 1730000   0.57132176   -8.6506501    249.74433  0.012030074  0.010803984            2 
 1731000   0.56914705   -8.6389211    250.04021  0.012037368  0.010794815            1 
 1732000   0.54474334   -8.6504917    249.82889  0.012020251  0.010785654            2 
 1733000   0.57218962   -8.6271175    250.48604  0.012044915  0.010776514            3 
 1734000    0.5649948   -8.6541693    250.28916  0.012028506  0.010767373            3 
 1735000   0.55726633   -8.6523063    249.80706  0.011998418  0.010758237            1 
 1736000   0.56095659   -8.6524017    250.04178  0.012002774  0.010749115            1 
 1737000   0.55499759   -8.6408971    250.02433  0.011995026  0.010739996            3 
 1738000   0.57516301   -8.6336976    249.91865  0.011983058  0.010730893            1 
 1739000   0.56386952   -8.6432891    249.71993  0.011966644  0.010721799            1 
 1740000   0.55994065   -8.6423619    249.84029  0.011965531  0.010712707            4 
 1741000   0.56199286   -8.6524068    249.83726  0.011958513  0.010703613            3 
 1742000   0.53406074   -8.6308996    249.95225  0.011957149  0.010694536            3 
 1743000   0.55895741   -8.6256537    250.05865  0.011955376  0.010685461            3 
 1744000   0.55797533   -8.6518443    249.55591  0.011924499  0.010676408            1 
 1745000   0.54616494   -8.6376134    250.03597  0.011940591  0.010667364            2 
 1746000   0.55083808   -8.6278124     250.0867  0.011936173  0.010658334            4 
 1747000   0.54682756   -8.6504061    250.06396  0.011928256  0.010649299            1 
 1748000   0.55508824   -8.6447306    249.88299  0.011912805  0.010640279            1 
 1749000   0.55195629   -8.6466351    249.87836  0.011905773  0.010631263            4 
 1750000   0.55843569   -8.6401217    249.80046   0.01189526  0.010622253            2 
 1751000   0.55464912   -8.6301558    249.74537  0.011885845  0.010613256            1 
 1752000   0.55423821   -8.6580586    249.68335  0.011876111  0.010604267            3 
 1753000   0.57073108   -8.6499322    249.78997  0.011874404  0.010595282            4 
 1754000    0.5578226   -8.6309335    249.69902  0.011863313  0.010586318            2 
 1755000   0.55198202   -8.6485513    250.14232  0.011877603  0.010577369            2 
 1756000   0.54701221    -8.647956    249.74818  0.011852135  0.010568407            4 
 1757000   0.54408673   -8.6524279    249.35632  0.011826803  0.010559451            2 
 1758000   0.55317288    -8.655095    249.42538  0.011823349  0.010550521            2 
 1759000   0.55311123    -8.657383    249.68304  0.011828835    0.0105416            2 
 1760000   0.55106919   -8.6780386    249.43701  0.011810464  0.010532675            1 
 1761000   0.55126368   -8.6698942    249.48431  0.011805996  0.010523766            1 
 1762000   0.54900033    -8.646003     249.7324  0.011811029  0.010514871            3 
 1763000   0.55324763   -8.6543068    249.84679  0.011809737  0.010505979            2 
 1764000    0.5421353   -8.6529387    249.64754  0.011793629  0.010497094            2 
 1765000   0.54941319   -8.6585437    250.01955  0.011804511  0.010488216            1 
 1766000   0.54996002   -8.6666571    249.59323   0.01177771  0.010479341            2 
 1767000   0.54474357   -8.6730967     249.5448  0.011768761  0.010470485            2 
 1768000   0.55147321   -8.6728399     249.3396  0.011752432  0.010461623            2 
 1769000   0.54555525    -8.653516     249.7484  0.011765046  0.010452779            1 
 1770000   0.53954157   -8.6622154    249.12505  0.011729051  0.010443949            3 
 1771000   0.53230634   -8.6861994    249.52197  0.011741105  0.010435123            3 
 1772000   0.54211888   -8.6668846     249.5934  0.011737839  0.010426303            2 
 1773000   0.53809022   -8.6634147    249.53007  0.011728242  0.010417503            2 
 1774000   0.56016351   -8.6758009    249.19629  0.011705951  0.010408706            2 
 1775000    0.5473385   -8.6777289    249.45386  0.011711449  0.010399911            4 
 1776000   0.54341828   -8.6786186    249.43317  0.011703884  0.010391138            3 
 1777000   0.53663847   -8.6752701    249.77406  0.011713283  0.010382375            4 
 1778000   0.54703029   -8.6751836    249.57933  0.011697569  0.010373611            4 
 1779000   0.54397737   -8.6566466    249.51896  0.011688165  0.010364851            5 
 1780000   0.54524945   -8.6536436    249.37867  0.011675031  0.010356101            3 
 1781000   0.54762589   -8.6735309    249.49302  0.011673827  0.010347361            4 
 1782000   0.53997689   -8.6690538    249.73666  0.011678669  0.010338628            2 
 1783000   0.54463222   -8.6807269    249.56961  0.011664312  0.010329902            3 
 1784000   0.54212649   -8.6846885    249.14947  0.011638148  0.010321186            6 
 1785000   0.52941265   -8.6954528     249.5178  0.011648823  0.010312475            2 
 1786000   0.52979932    -8.692112    249.61898  0.011647022  0.010303783            3 
 1787000   0.54738484   -8.6730309    249.38397  0.011629545  0.010295088            4 
 1788000   0.53906489   -8.6841704    249.26485   0.01161749  0.010286398            1 
 1789000   0.54113855   -8.6832229    249.40708   0.01161762  0.010277723            2 
 1790000   0.53410164   -8.6975443     249.3623  0.011609045  0.010269059            2 
 1791000   0.53762775   -8.6870749    249.72752  0.011619557  0.010260415            1 
 1792000   0.52746239   -8.6853179    249.33675  0.011594901  0.010251773            2 
 1793000   0.53413562   -8.6889412    249.02078  0.011573749  0.010243133            5 
 1794000    0.5346323    -8.676122    249.70938  0.011599284  0.010234512            4 
 1795000    0.5474791   -8.6821281    249.60292  0.011587879  0.010225902            3 
 1796000   0.52889337   -8.6775107    249.43399  0.011573589  0.010217285            4 
 1797000   0.53693668   -8.6860344    248.99954  0.011547001  0.010208668            3 
 1798000   0.54244222   -8.6907641    249.14346   0.01154725  0.010200068            2 
 1799000   0.54809435   -8.6756468    248.83994  0.011526772  0.010191474            2 
 1800000   0.53230405    -8.681302      249.566  0.011553982    0.0101829            5 
 1801000   0.53396063   -8.6959338     249.2976  0.011535147  0.010174333            2 
 1802000   0.54385505   -8.6842487     249.4061  0.011533764  0.010165771            2 
 1803000   0.53499956   -8.6815283    249.64691  0.011538497  0.010157214            1 
 1804000    0.5361881   -8.7045643    249.54176  0.011527243  0.010148659            4 
 1805000   0.52718323    -8.699866    249.09647  0.011500299  0.010140121            5 
 1806000   0.53672572    -8.704929    249.64026  0.011519023  0.010131592            4 
 1807000   0.52797971   -8.6776465    249.30804  0.011497327  0.010123075            5 
 1808000   0.52654735   -8.6942258    249.47926   0.01149886  0.010114577            6 
 1809000   0.54675151   -8.6842997    249.29376  0.011483958  0.010106079            2 
 1810000   0.53909115   -8.7081969    249.49321  0.011486796  0.010097596            3 
 1811000   0.54094819   -8.6933354    249.31697  0.011472344  0.010089105            3 
 1812000   0.53454443   -8.7005425     248.6492  0.011435302  0.010080621            4 
 1813000   0.52807276   -8.6865125    249.50164  0.011468176  0.010072159            2 
 1814000   0.52943357   -8.6735808    249.50159  0.011461852  0.010063702            3 
 1815000   0.53288794   -8.6968326    249.50943  0.011455897  0.010055251            3 
 1816000   0.52027112   -8.7186737     249.0486  0.011428442   0.01004682            2 
 1817000   0.53211595   -8.7086346    249.46491  0.011441245  0.010038398            4 
 1818000    0.5333665   -8.7024612      249.418  0.011432802  0.010029979            5 
 1819000   0.52861372   -8.6892398     249.6082   0.01143523  0.010021563            3 
 1820000   0.52890996   -8.7080254    249.57765  0.011427548  0.010013166            3 
 1821000   0.52186951   -8.7104957    249.24499  0.011406049   0.01000477            3 
 1822000   0.52646935   -8.6919987     249.2155   0.01139844 0.0099963909            3 
 1823000   0.52552908   -8.7162522    249.23232  0.011392956 0.0099880084            3 
 1824000   0.51498018    -8.705681    249.26822  0.011388351 0.0099796289            3 
 1825000   0.53076817   -8.7144873    249.38988  0.011387666 0.0099712586            3 
 1826000   0.51944888   -8.6959838     249.1017  0.011368278 0.0099629013            4 
 1827000   0.51997219   -8.7106723    249.05449  0.011359902 0.0099545514            5 
 1828000    0.5212886   -8.7246444    248.90715  0.011346971 0.0099462063            4 
 1829000   0.53022665   -8.7066785      249.068  0.011348095 0.0099378624            2 
 1830000   0.53223894   -8.7132572    249.59309  0.011365806 0.0099295344            4 
 1831000   0.51639656   -8.7020672    249.09881  0.011337102 0.0099212057            4 
 1832000   0.52793499    -8.722455    248.99639  0.011326255  0.009912903            3 
 1833000   0.52538372   -8.6981202    248.89856  0.011315628 0.0099046014            3 
 1834000   0.51519172    -8.721678     249.2778   0.01132669 0.0098963039            4 
 1835000   0.52197284   -8.7230737    249.04979  0.011310163 0.0098880099            7 
 1836000   0.51530805   -8.7176661    249.16474   0.01130922 0.0098797276            4 
 1837000   0.52245515   -8.7126902    249.08157  0.011299291 0.0098714619            4 
 1838000   0.51720609   -8.7170631    248.84081  0.011282227 0.0098632006            3 
 1839000   0.51756528   -8.7216763     248.9465  0.011280882 0.0098549401            3 
 1840000   0.51061272   -8.7217487     248.9125  0.011273211 0.0098466895            5 
 1841000   0.52168423   -8.7105368     249.4278  0.011290413 0.0098384563            3 
 1842000    0.5146842   -8.7163636     248.8216  0.011256858 0.0098302409            5 
 1843000   0.52794686   -8.7266717    248.88556  0.011253643 0.0098220246            4 
 1844000   0.52641409   -8.7282969    249.44356  0.011272757  0.009813824            2 
 1845000   0.50359332   -8.7209352     249.0985  0.011251061 0.0098056224            4 
 1846000   0.51464786   -8.7175085    249.08864  0.011244521 0.0097974181            2 
 1847000   0.50297339   -8.7374348    249.12076  0.011239883 0.0097892309            2 
 1848000   0.50080338   -8.7111787    249.20195  0.011237462 0.0097810455            3 
 1849000   0.52187359   -8.7228693    249.12317  0.011227834 0.0097728715            3 
 1850000    0.5187264   -8.7204532    248.70582  0.011202965   0.00976471            6 
 1851000   0.50881955   -8.7132597    248.84723  0.011203279 0.0097565539            3 
 1852000      0.51112   -8.7305642     249.0536  0.011206515 0.0097484042            4 
 1853000   0.51554231   -8.7222366    249.23386  0.011208574  0.009740266            6 
 1854000    0.5158462   -8.7361529    248.47059  0.011168222 0.0097321241            4 
 1855000   0.52038021   -8.7271234    249.09377  0.011190196 0.0097239949            3 
 1856000   0.51274196   -8.7295889    248.84323  0.011172918 0.0097158786            3 
 1857000   0.51090261   -8.7421027    248.97927  0.011173006 0.0097077785            3 
 1858000   0.51041089   -8.7479889    249.05152  0.011170233 0.0096996705            1 
 1859000   0.51954094   -8.7306749    248.68556   0.01114782 0.0096915748            5 
 1860000   0.51664796   -8.7073982    249.03425  0.011157448 0.0096834893            5 
 1861000   0.49519832    -8.731818    248.66497  0.011134917 0.0096754193            4 
 1862000    0.5269082   -8.7197816    248.91981  0.011140343 0.0096673495            3 
 1863000   0.51018039   -8.7249774    248.59881  0.011120004 0.0096592875            5 
 1864000   0.51724317   -8.7354784    248.61625  0.011114818 0.0096512317            3 
 1865000   0.51166802   -8.7349758    248.62582  0.011109286 0.0096431833            2 
 1866000   0.51290975   -8.7183465    248.92204  0.011116561 0.0096351454            2 
 1867000   0.50935895   -8.7214418    249.27749  0.011126472 0.0096271133            1 
 1868000    0.5196272   -8.7309086    248.87064  0.011102366 0.0096190927            4 
 1869000    0.5006392   -8.7411378    248.68086  0.011087964 0.0096110804            2 
 1870000   0.51389301   -8.7497329    248.74213  0.011084765  0.009603071            2 
 1871000   0.50289052   -8.7286537    249.03226  0.011091763 0.0095950761            3 
 1872000   0.50974029   -8.7284229     249.0154  0.011085087 0.0095870878            2 
 1873000    0.5036551   -8.7290449    248.77556  0.011068498  0.009579097            2 
 1874000   0.50415631   -8.7435857    248.45376  0.011048282 0.0095711254            2 
 1875000    0.5068063   -8.7362598    248.73972  0.011055099 0.0095631584            2 
 1876000    0.4886316    -8.730954     249.3671  0.011077075 0.0095552043            1 
 1877000   0.50530515   -8.7427374    249.02254  0.011055875 0.0095472549            3 
 1878000   0.51281656    -8.742654    248.77615  0.011039055 0.0095393108            2 
 1879000   0.51714836   -8.7448212    248.73998  0.011031576  0.009531369            3 
 1880000   0.49399849   -8.7271675    248.50335   0.01101522 0.0095234329            4 
 1881000   0.50578577   -8.7410305    248.89841  0.011026866 0.0095155106            2 
 1882000    0.4918051   -8.7530186    248.82944  0.011017953 0.0095076007            2 
 1883000   0.50893494   -8.7534751    248.32955  0.010989978 0.0094996971            4 
 1884000    0.5106456   -8.7397933    248.64455  0.010998078 0.0094917962            2 
 1885000   0.49240153   -8.7289054    249.05769  0.011010508 0.0094839014            5 
 1886000    0.4918793   -8.7435043    248.89954  0.010997682 0.0094760198            2 
 1887000   0.50524596   -8.7358925    249.26312   0.01100791 0.0094681516            2 
 1888000    0.4963637   -8.7401142     248.4903  0.010967969  0.009460286            3 
 1889000   0.49799829   -8.7581632    248.42516  0.010959289 0.0094524292            2 
 1890000   0.48940615   -8.7317784    248.74517    0.0109676 0.0094445809            3 
 1891000    0.4918578   -8.7431191    248.84037  0.010965995 0.0094367306            3 
 1892000   0.50605937    -8.756846     248.8355  0.010959985  0.009428899            2 
 1893000   0.50728842   -8.7686463    248.79071  0.010952223 0.0094210796            2 
 1894000   0.49960006     -8.74685    248.41849  0.010930064 0.0094132627            2 
 1895000   0.48929522   -8.7460641    248.67137  0.010935416 0.0094054581            2 
 1896000   0.49552625   -8.7479594    248.85914  0.010937902 0.0093976566            1 
 1897000    0.5001084    -8.759899    248.23288  0.010904625 0.0093898648            2 
 1898000   0.49512608   -8.7589678    248.83666  0.010925389  0.009382072            1 
 1899000   0.49175209   -8.7507201    248.50615  0.010905132 0.0093742966            3 
 1900000   0.50088564    -8.757277    248.54331  0.010901022 0.0093665372            3 
 1901000   0.49505164   -8.7278321    248.89707  0.010910796 0.0093587875            2 
 1902000   0.50009612   -8.7596837    248.41674  0.010884014 0.0093510458            2 
 1903000   0.48327915   -8.7501596    248.47887  0.010881016 0.0093433171            1 
 1904000   0.48340133   -8.7515954    248.61304  0.010881173 0.0093355889            3 
 1905000    0.5003673   -8.7669979    248.48555  0.010869884 0.0093278661            1 
 1906000   0.49315509   -8.7552464    248.85963  0.010880536 0.0093201524            3 
 1907000   0.48763909   -8.7747858    248.48343  0.010858392 0.0093124491            3 
 1908000   0.50128689   -8.7636842    248.44752  0.010851132 0.0093047481            3 
 1909000   0.49019379   -8.7578142    248.53595  0.010849308 0.0092970527            4 
 1910000   0.49636488   -8.7601645    248.34613  0.010835346 0.0092893606            3 
 1911000   0.48804991   -8.7774183     248.2915  0.010827294 0.0092816848            3 
 1912000   0.49067996   -8.7573863    248.27582  0.010820948 0.0092740049            4 
 1913000   0.50604423   -8.7566711    248.73538   0.01083531 0.0092663407            6 
 1914000   0.48929951   -8.7660925    248.14463  0.010803929 0.0092586866            3 
 1915000   0.49679986   -8.7627021    248.70646  0.010822736 0.0092510362            3 
 1916000   0.49333835   -8.7529866    248.50836  0.010808471 0.0092433898            3 
 1917000   0.49305713    -8.756821    248.40308  0.010798256 0.0092357512            2 
 1918000   0.48417855   -8.7606734    248.74669  0.010807555 0.0092281209            3 
 1919000   0.48767867   -8.7610127     248.4676  0.010789804 0.0092205063            2 
 1920000    0.4821198   -8.7741151    248.99506  0.010807077 0.0092128858            4 
 1921000   0.48833514   -8.7717312    248.69151  0.010788284 0.0092052798            5 
 1922000    0.4815364   -8.7700879    248.43561  0.010771575 0.0091976796            2 
 1923000   0.47926684   -8.7651385    248.37435  0.010763319 0.0091900865            4 
 1924000   0.47995915   -8.7681486    248.51961  0.010764016 0.0091824977            2 
 1925000   0.47853543   -8.7774111    248.32334  0.010749928 0.0091749168            3 
 1926000   0.48591213    -8.775559    248.66205  0.010759002 0.0091673505            5 
 1927000    0.4844997   -8.7613043    248.02808  0.010726003 0.0091597921            3 
 1928000   0.49161601   -8.7865954     248.2838  0.010731492 0.0091522418            3 
 1929000   0.48458846   -8.7732457    248.40523  0.010731175 0.0091446951            3 
 1930000   0.48835567   -8.7718148    248.10026  0.010712446  0.009137157            4 
 1931000   0.47858296   -8.7776768    248.58637  0.010727877 0.0091296217            3 
 1932000   0.47531217   -8.7868945    248.39384   0.01071402 0.0091221005            5 
 1933000   0.48740072   -8.7775274     248.3912  0.010708364 0.0091145837            4 
 1934000   0.48823794   -8.7639239    248.31232  0.010699428 0.0091070705            3 
 1935000   0.47828496   -8.7626043    248.10757  0.010685081 0.0090995669            3 
 1936000   0.48467177   -8.7831839     248.6718  0.010703848 0.0090920796            3 
 1937000   0.47898646   -8.7718087    248.08468  0.010673063 0.0090845896            4 
 1938000   0.47501532   -8.7658516    248.19285  0.010672207  0.009077104            1 
 1939000   0.48000497   -8.7846249    248.22404  0.010668044 0.0090696358            3 
 1940000   0.48317959   -8.7809618    247.97108  0.010651679 0.0090621692            2 
 1941000   0.48111361   -8.7868531    248.29621   0.01066015 0.0090547064            4 
 1942000   0.46497151   -8.7971846    248.41483  0.010659751 0.0090472556            3 
 1943000    0.4818152   -8.7775822    248.31528  0.010649995 0.0090398125            3 
 1944000   0.47931311   -8.7933792    248.28332  0.010643147 0.0090323827            2 
 1945000   0.47141451    -8.786545    248.41685  0.010643395 0.0090249503            1 
 1946000   0.48179202   -8.7814998    248.07387  0.010623239 0.0090175325            2 
 1947000    0.4775371   -8.7878522    248.28588  0.010626857  0.009010116            3 
 1948000   0.48015687    -8.784461    248.24604  0.010619697 0.0090027136            4 
 1949000   0.47720034    -8.786481     248.1336  0.010609441 0.0089953138            4 
 1950000   0.46953176   -8.7931013    248.17193  0.010605638 0.0089879268            3 
 1951000   0.47070437   -8.7863873    248.39044  0.010609535  0.008980546            1 
 1952000   0.47557136   -8.7862118    248.19252  0.010595651 0.0089731741            3 
 1953000   0.47439916   -8.7797611     247.9502  0.010579885 0.0089658043            2 
 1954000   0.46402679   -8.7959592     248.4105  0.010594102 0.0089584478            5 
 1955000   0.46691757   -8.7918721     248.0734  0.010574314 0.0089510907            3 
 1956000   0.46348006   -8.8121503    248.42843  0.010584033 0.0089437446            2 
 1957000   0.47436912   -8.8025729    248.43582   0.01057894 0.0089364062            2 
 1958000   0.48409307   -8.8078783     247.8939  0.010550472 0.0089290718            2 
 1959000   0.47390656   -8.7851344    248.03807  0.010551219  0.008921742            5 
 1960000   0.46448858   -8.7991784    248.20256   0.01055283 0.0089144232            3 
 1961000   0.46761766   -8.8022707    248.29707  0.010551465 0.0089071129            2 
 1962000   0.45930321   -8.8010372    247.80955   0.01052538 0.0088998087            2 
 1963000   0.47380457   -8.8089922    248.05324  0.010530363 0.0088925115            2 
 1964000   0.47043736   -8.8024927    248.00835  0.010523097 0.0088852185            2 
 1965000   0.46854449   -8.8086563    248.09577  0.010521449 0.0088779408            1 
 1966000   0.46677636   -8.7928714    248.32489  0.010525809 0.0088706678            4 
 1967000   0.47098584   -8.8051617    248.05921  0.010509202 0.0088633969            2 
 1968000   0.47728997   -8.8091829     248.3053  0.010514283 0.0088561374            2 
 1969000   0.46167793   -8.7831345    248.21784  0.010505241 0.0088488869            2 
 1970000   0.46138462   -8.8017124    247.93909  0.010488117  0.008841649            2 
 1971000    0.4638041   -8.8020623    248.15188  0.010491793 0.0088344187            3 
 1972000   0.47044521   -8.8029313    247.91721  0.010476555 0.0088272027            2 
 1973000   0.46479841   -8.7969098    247.66072  0.010460412   0.00881999            3 
 1974000    0.4619362   -8.7947055    247.82868  0.010462204 0.0088127791            2 
 1975000   0.46909923   -8.8048393    247.92538  0.010460986 0.0088055779            2 
 1976000   0.47038934   -8.8048837    248.10334  0.010463198 0.0087983767            2 
 1977000   0.45188717    -8.794457    248.18235  0.010461235 0.0087911828            6 
 1978000   0.46875157   -8.8123186    247.95889  0.010446532 0.0087839992            3 
 1979000   0.46119718   -8.8209699    247.92475  0.010439816 0.0087768157            2 
 1980000   0.47637973   -8.8158066     247.5883  0.010420383 0.0087696431            3 
 1981000    0.4439382   -8.8118632     248.0179  0.010433195 0.0087624787            3 
 1982000   0.46082226   -8.7949231    247.74993  0.010416664 0.0087553244            2 
 1983000    0.4519607   -8.7980747    248.04821  0.010423946 0.0087481743            4 
 1984000     0.459258   -8.7937795    247.74275  0.010405862 0.0087410318            1 
 1985000   0.45606863   -8.8169894    247.83758  0.010404601 0.0087338951            4 
 1986000   0.46484767   -8.8174035    248.08105  0.010409578 0.0087267655            3 
 1987000   0.46525663   -8.8249511    247.49345  0.010379695 0.0087196375            2 
 1988000    0.4542587   -8.8062739    247.74067  0.010384837 0.0087125128            6 
 1989000   0.46775256   -8.8092938    248.20174  0.010398933 0.0087053997            2 
 1990000   0.46218712   -8.8158915    247.90252  0.010381178 0.0086982971            4 
 1991000   0.45711774   -8.8202785    247.55129  0.010361263 0.0086911959            2 
 1992000   0.45908338   -8.8144625    247.84525  0.010368359 0.0086841037            2 
 1993000    0.4615185   -8.8019878    247.73064  0.010358364 0.0086770202            2 
 1994000   0.45982491   -8.8169659    247.99521  0.010364226 0.0086699459            2 
 1995000   0.45701177   -8.8229056    247.75103  0.010348832 0.0086628798            4 
 1996000   0.46038089   -8.8225759    247.63076  0.010338625 0.0086558255            3 
 1997000   0.45424707   -8.8206152    247.64164  0.010333902 0.0086487786            2 
 1998000   0.44711522   -8.8010263     247.5741  0.010325913 0.0086417388            2 
 1999000   0.44837027   -8.8289914    247.66432  0.010324509  0.008634704            4 
 2000000   0.46491659   -8.8199307    247.54048  0.010314187 0.0086276683            3 
 2001000   0.45349948    -8.830049    247.83567  0.010321325 0.0086206466            2 
 2002000   0.44743852     -8.83131    247.52799  0.010303363 0.0086136279            5 
 2003000   0.43528315    -8.828761    247.74447  0.010307225 0.0086066219            2 
 2004000   0.44390931   -8.8155284    247.46756  0.010290567  0.008599623            3 
 2005000   0.45544451   -8.8388636    247.81662  0.010299943 0.0085926279            3 
 2006000   0.45349976   -8.8059024    247.73735  0.010291515 0.0085856348            2 
 2007000   0.45120261   -8.8268673    247.93921  0.010294769 0.0085786529            2 
 2008000    0.4524573   -8.8280887     247.7697  0.010282607 0.0085716781            2 
 2009000   0.44685906   -8.8192752    247.59491  0.010270239 0.0085647091            2 
 2010000   0.45614911   -8.8295023    247.82022   0.01027447 0.0085577507            3 
 2011000   0.45476189   -8.8291038    247.68202  0.010263634 0.0085507905            3 
 2012000     0.452526   -8.8098895    247.60426  0.010255312 0.0085438382            6 
Loop time of 4837.36 on 48 procs for 2000000 steps with 4000 atoms

Performance: 71443.993 tau/day, 413.449 timesteps/s
99.4% CPU use with 48 MPI tasks x no OpenMP threads

MPI task timing breakdown:
Section |  min time  |  avg time  |  max time  |%varavg| %total
---------------------------------------------------------------
Pair    | 297.52     | 325.87     | 351.97     |  69.0 |  6.74
Neigh   | 31.678     | 33.154     | 34.582     |  13.1 |  0.69
Comm    | 305.31     | 331.9      | 365.12     |  77.1 |  6.86
Output  | 4.2314     | 4.2334     | 4.2648     |   0.2 |  0.09
Modify  | 4087.8     | 4097.7     | 4106.6     |   7.1 | 84.71
Other   |            | 44.49      |            |       |  0.92

Nlocal:        83.3333 ave          91 max          76 min
Histogram: 3 2 5 4 9 5 12 3 4 1
Nghost:        2112.90 ave        2141 max        2087 min
Histogram: 1 2 4 8 11 9 7 5 0 1
Neighs:        13860.1 ave       15137 max       12533 min
Histogram: 3 2 5 10 7 3 5 4 4 5
FullNghs:      27721.1 ave       30743 max       25252 min
Histogram: 4 3 4 6 9 9 9 2 1 1

Total # of neighbors = 1330612
Ave neighs/atom = 332.65300
Neighbor list builds = 106989
Dangerous builds = 0

#clear
#
#next RN
#
#jump SELF
Total wall time: 1:20:40
