
units lj                  # Use reduced LJ style units
atom_style atomic         # Uncharged point particles
atom_modify map hash      # Needed for indexing of clusters etc
                          # Used to be able to find where atoms are in relation to each other.

lattice fcc 1.0 spacing 1 1 1
Lattice spacing in x,y,z = 1.5874011 1.5874011 1.5874011
region box block 0 10 0 10 0 10 units lattice
create_box 2 box
Created orthogonal box = (0.0000000 0.0000000 0.0000000) to (15.874011 15.874011 15.874011)
  3 by 4 by 4 MPI processor grid
create_atoms 1 box
Created 4000 atoms
  using lattice units in orthogonal box = (0.0000000 0.0000000 0.0000000) to (15.874011 15.874011 15.874011)
  create_atoms CPU = 0.002 seconds
set type 1 type/fraction 2 0.78 78393
Setting atom values ...
  3107 settings made for type/fraction
mass 1 1.0
mass 2 1.0
pair_style lj/cut  3.5
pair_modify tail  yes
pair_coeff 1  1  1.0  1.0   # Intearaction between 1 and 1 set with epsilon = 1 and sigma = 1
pair_coeff 1  2  1.5  0.8
pair_coeff 2  2  0.5  0.88

write_data data.0
System init for write_data ...
Neighbor list info ...
  update every 1 steps, delay 10 steps, check yes
  max neighbors/atom: 2000, page size: 100000
  master list distance cutoff = 3.8
  ghost atom cutoff = 3.8
  binsize = 1.9, bins = 9 9 9
  1 neighbor lists, perpetual/occasional/extra = 1 0 0
  (1) pair lj/cut, perpetual
      attributes: half, newton on
      pair build: half/bin/atomonly/newton
      stencil: half/bin/3d
      bin: standard
WARNING: Not all mixed pair coeffs generated from mixing. Use write_data with 'pair ij' option to store all pair coeffs. (../write_data.cpp:312)


#############################
#   M E L T   S Y S T E M   #
#############################

velocity all create 2.4 8172548 mom yes dist gaussian # Assign velocities
                                                    # Temperature 2.4, random number seed, zero linear momentum
                                                                                # Gaussian distribution

timestep 0.002   # simulation timestep
thermo 1000       # output thermodynamic data every 1000 steps bf 100

# Define a fix  in this case with index 1 applied to all
# particles in the simulation. This fix is for simulations
# in the anisotropic NPT ensemble. Note that we use the MTK
# correction.
fix 1 all npt temp 2.4 2.4 0.1 iso 5.68 5.68 0.5 mtk yes tchain 5 pchain 5 # Use NPT ensemble
                                                                         # Set temperature and pressure and damping
                                                                         # Numbers of thermostats in chain and in barostat
run 10000          # run for 10000 steps
Per MPI rank memory allocation (min/avg/max) = 3.642 | 3.644 | 3.648 Mbytes
Step Temp E_pair E_mol TotEng Press Volume 
       0          2.4   -3.8018078            0  -0.20270782   -3.3841895         4000 
    1000    2.3887931    -3.175573            0    0.4067209    5.6474019    3793.2999 
    2000    2.4775486   -3.2054999            0   0.50989382    5.9745004    3738.5614 
    3000    2.3762428   -3.2486683            0   0.31480471    5.3052278    3785.7011 
    4000    2.3810271    -3.212891            0   0.35775668    5.7137359    3761.0686 
    5000    2.3985693   -3.2477025            0   0.34925196    5.6997989    3731.5977 
    6000    2.3940992   -3.2364408            0   0.35381018    5.8244625    3722.3194 
    7000    2.4182189   -3.2140629            0   0.41235872    5.5752052    3769.1846 
    8000     2.391028   -3.2730646            0   0.31258081    5.6454403    3720.8673 
    9000     2.428339   -3.2196903            0   0.42190767    5.9919636    3727.6631 
   10000    2.3950139   -3.2548286            0   0.33679411    5.6639563    3747.0114 
Loop time of 2.66125 on 48 procs for 10000 steps with 4000 atoms

Performance: 649319.693 tau/day, 3757.637 timesteps/s
99.6% CPU use with 48 MPI tasks x no OpenMP threads

MPI task timing breakdown:
Section |  min time  |  avg time  |  max time  |%varavg| %total
---------------------------------------------------------------
Pair    | 1.1739     | 1.2363     | 1.3527     |   3.5 | 46.46
Neigh   | 0.21598    | 0.22269    | 0.23561    |   1.0 |  8.37
Comm    | 0.83207    | 0.91996    | 1.0095     |   4.9 | 34.57
Output  | 0.00025916 | 0.00026449 | 0.00033845 |   0.0 |  0.01
Modify  | 0.21705    | 0.26644    | 0.35518    |   6.8 | 10.01
Other   |            | 0.01556    |            |       |  0.58

Nlocal:        83.3333 ave          91 max          71 min
Histogram: 2 0 1 0 6 11 11 6 5 6
Nghost:        1718.19 ave        1739 max        1700 min
Histogram: 4 3 4 9 7 6 7 3 3 2
Neighs:        10192.6 ave       11375 max        7976 min
Histogram: 1 1 0 2 7 4 12 11 4 6

Total # of neighbors = 489243
Ave neighs/atom = 122.31075
Neighbor list builds = 907
Dangerous builds = 217

# Equilibrate just above the melting temperature to avoid step fn in T

fix 1 all npt temp 1.25 1.25 0.1 iso 5.68 5.68 0.5 mtk yes tchain 5 pchain 5
run 2000
Per MPI rank memory allocation (min/avg/max) = 3.644 | 3.646 | 3.649 Mbytes
Step Temp E_pair E_mol TotEng Press Volume 
   10000    2.3950139   -3.2548286            0   0.33679411    5.6639563    3747.0114 
   11000    1.2821001   -4.7746252            0   -2.8519558    5.5489715    2886.2079 
   12000    1.2321904    -4.765705            0   -2.9178815    5.5920666    2880.8286 
Loop time of 0.659513 on 48 procs for 2000 steps with 4000 atoms

Performance: 524023.005 tau/day, 3032.541 timesteps/s
99.6% CPU use with 48 MPI tasks x no OpenMP threads

MPI task timing breakdown:
Section |  min time  |  avg time  |  max time  |%varavg| %total
---------------------------------------------------------------
Pair    | 0.28582    | 0.31779    | 0.37098    |   2.8 | 48.19
Neigh   | 0.040647   | 0.043467   | 0.049793   |   0.8 |  6.59
Comm    | 0.19363    | 0.24723    | 0.28028    |   3.3 | 37.49
Output  | 5.1584e-05 | 5.3058e-05 | 6.8283e-05 |   0.0 |  0.01
Modify  | 0.039286   | 0.046005   | 0.051891   |   1.8 |  6.98
Other   |            | 0.004972   |            |       |  0.75

Nlocal:        83.3333 ave          89 max          77 min
Histogram: 2 4 5 4 2 14 4 6 1 6
Nghost:        2049.92 ave        2069 max        2023 min
Histogram: 1 1 4 6 1 9 9 9 5 3
Neighs:        13268.8 ave       14566 max       12113 min
Histogram: 3 5 7 5 6 5 7 3 5 2

Total # of neighbors = 636904
Ave neighs/atom = 159.22600
Neighbor list builds = 143
Dangerous builds = 13

#############################
# L I N E A R  Q U E N C H  #
#############################

# Define solid atoms. This closely follows ten Wolde  Ruiz-Montero and Frenkel  Faraday Discuss  1996  104  93-110
# Compute components of the per-atom q6 vector
compute q6 all orientorder/atom degrees 1 6 components 6 nnn NULL cutoff 1.3 # compute the Q6 parameter.
                                                                             # Use all neighbours within 1.3 unit cell.

# get number of connections
compute coord_number all coord/atom orientorder q6 0.5

# An atom is solid if it has 8 or more connections (of a possible 14)
variable is_solid atom c_coord_number>=8
group solid dynamic all var is_solid    # Must be dynamic to update
dynamic group solid defined

# do clustering
compute cluster solid cluster/atom 1.3 # Create a cluster where all atoms within are solid and max 1.3 units from another member

# define chunks one chunk per cluster
compute clus_chunks solid chunk/atom c_cluster nchunk every compress yes  # Says which atoms are in which chunk

# count the size of each chunk
compute size_chunks solid property/chunk clus_chunks count


# Find the maximum entry in the vector of chunk sizes
variable max_n equal max(c_size_chunks)


# Thermo style which includes this variable
# thermo_style custom step temp pe vol v_max_n

thermo ${N}  # Print the thermo information every 100 steps
thermo 1000  

# Reset the npt fix at a lower temperature (below freezing)
fix 1  all npt temp  ${temp} ${temp}  0.1  iso  5.68  5.68  0.5  mtk yes tchain  5  pchain  5
fix 1  all npt temp  0.45 ${temp}  0.1  iso  5.68  5.68  0.5  mtk yes tchain  5  pchain  5
fix 1  all npt temp  0.45 0.45  0.1  iso  5.68  5.68  0.5  mtk yes tchain  5  pchain  5

dump dmp2 all dcd ${N} traj.dcd
dump dmp2 all dcd 1000 traj.dcd


compute msd all msd com yes
variable twopoint equal c_msd[4]/6/(step*dt+1.0e-6)
fix 9 all vector 10 c_msd[4]
variable fit equal slope(f_9)/6/(10*dt)
thermo_style custom step temp pe c_msd[4] v_twopoint v_fit v_max_n

fix 1 all npt temp 1.25 ${temp} 0.1 iso 5.68 5.68 0.5 mtk yes tchain 5 pchain 5
fix 1 all npt temp 1.25 0.45 0.1 iso 5.68 5.68 0.5 mtk yes tchain 5 pchain 5
run 2000000 # 5000000  # Run for this many steps
Neighbor list info ...
  update every 1 steps, delay 10 steps, check yes
  max neighbors/atom: 2000, page size: 100000
  master list distance cutoff = 3.8
  ghost atom cutoff = 3.8
  binsize = 1.9, bins = 8 8 8
  4 neighbor lists, perpetual/occasional/extra = 1 3 0
  (1) pair lj/cut, perpetual
      attributes: half, newton on
      pair build: half/bin/atomonly/newton
      stencil: half/bin/3d
      bin: standard
  (2) compute orientorder/atom, occasional
      attributes: full, newton on
      pair build: full/bin/atomonly
      stencil: full/bin/3d
      bin: standard
  (3) compute coord/atom, occasional
      attributes: full, newton on
      pair build: full/bin/atomonly
      stencil: full/bin/3d
      bin: standard
  (4) compute cluster/atom, occasional
      attributes: full, newton on
      pair build: full/bin/atomonly
      stencil: full/bin/3d
      bin: standard
Per MPI rank memory allocation (min/avg/max) = 9.838 | 9.842 | 9.846 Mbytes
Step Temp PotEng c_msd[4] v_twopoint v_fit v_max_n 
   12000    1.2321904    -4.765705 3.8965784e-30 2.7059571e-32 8.3333333e+20            4 
   13000    1.2692377   -4.7636437   0.75222072 0.0048219275  0.062772567            2 
   14000    1.2803227   -4.7813632    1.4968461 0.0089097982  0.062743815            1 
   15000    1.2430689   -4.7497449    2.2358191  0.012421217  0.062062445            2 
   16000    1.2787426   -4.7962252    2.9532123  0.015381314  0.061525184            3 
   17000     1.253915    -4.779124    3.7118718   0.01819545  0.061635245            1 
   18000    1.2751048   -4.7710715    4.5108996  0.020883794  0.062232384            4 
   19000    1.2507984   -4.8008097     5.300939  0.023249732  0.062925951            2 
   20000    1.2594867   -4.7784246    6.0730633   0.02530443  0.063287672            2 
   21000    1.2585388   -4.8517037    6.7882763  0.026937604  0.063445988            2 
   22000    1.2286342    -4.800716    7.6378259  0.028931158    0.0634807            1 
   23000    1.2696709   -4.8055932    8.4353043  0.030562696  0.063744961            1 
   24000    1.2407659   -4.7768115    9.3074201   0.03231743  0.064191078            2 
   25000    1.2294587   -4.7886215    10.089509  0.033631695  0.064606301            3 
   26000    1.2353735   -4.8200509    10.836316  0.034731782  0.064901264            2 
   27000    1.2622209   -4.7882945    11.584783  0.035755501  0.065000817            3 
   28000     1.234886   -4.8134152    12.313814  0.036648255  0.064993293            3 
   29000    1.2800065   -4.7694752    13.133696  0.037740506  0.064997473            4 
   30000    1.2486093   -4.7826531    13.948675  0.038746319  0.065012676            3 
   31000    1.2298645    -4.800024    14.861225   0.03994953  0.065123442            1 
   32000    1.2161077   -4.7994807    15.504293  0.040375762  0.065229752            2 
   33000    1.2236478   -4.7965466    16.202441  0.040915255  0.065175756            2 
   34000    1.2524026   -4.7937796    16.794673  0.041163413  0.064985465            3 
   35000    1.2208194   -4.7882848     17.40411  0.041438357  0.064706362            2 
   36000    1.2215316   -4.8163748    18.129768  0.041967056  0.064385386            2 
   37000     1.226848   -4.8007868    18.847026  0.042448256  0.064057008            2 
   38000    1.2290054   -4.7982444    19.634888  0.043058965  0.063852996            2 
   39000    1.2432575   -4.8433471    20.351942  0.043487056  0.063652987            2 
   40000    1.2670903   -4.8225613    20.982398  0.043713329  0.063458748            4 
   41000    1.2350674   -4.7883934    21.888391  0.044488599  0.063249726            2 
   42000    1.2323194   -4.8178366    22.446924  0.044537547  0.063070702            3 
   43000    1.2310932     -4.80657    23.132433  0.044830297  0.062862943            3 
   44000    1.2358525   -4.7872877    23.865901   0.04520057  0.062668551            3 
   45000     1.203949   -4.7682769    24.484781  0.045342186   0.06249726            2 
   46000    1.2434369   -4.8314766    25.147667  0.045557367  0.062352135            3 
   47000    1.2149917   -4.8452426    25.850966  0.045835045  0.062171268            2 
   48000    1.2204984   -4.8369905    26.441848  0.045905986  0.062005987            5 
   49000    1.2332976   -4.8008671    27.348926  0.046511779  0.061799316            2 
   50000    1.2341523    -4.830847    27.965625  0.046609375  0.061663921            2 
   51000    1.2271774   -4.8117501    28.767556  0.047005811  0.061523446            2 
   52000    1.2431444   -4.7880418    29.488358  0.047256983  0.061414389            5 
   53000    1.2307058   -4.7838068    30.088462  0.047308902  0.061310425            3 
   54000    1.2380675   -4.8244877    30.882754  0.047658571  0.061204005            2 
   55000     1.241364   -4.7953339    31.521294  0.047759536  0.061131071            2 
   56000     1.211986   -4.8050714    32.182444  0.047890541  0.061050188            4 
   57000    1.2161092   -4.8470961     32.77294  0.047913654  0.060938786            1 
   58000    1.2244158   -4.8422923    33.466291  0.048083752   0.06083655            1 
   59000    1.2411033   -4.7943433     34.38495  0.048566314  0.060747283            3 
   60000      1.25611    -4.833995    35.152615  0.048823076  0.060702272            2 
   61000    1.2282936   -4.7675211    36.080348  0.049290093  0.060676286            2 
   62000    1.2585962   -4.8239567    36.925573  0.049631146  0.060680208            3 
   63000    1.2257592   -4.8396737    37.455055  0.049543723   0.06068465            4 
   64000    1.2277071   -4.8292483    38.261111  0.049819155  0.060693117            2 
   65000    1.2098906   -4.7919086    39.084694  0.050108582  0.060713379            4 
   66000    1.2345729   -4.8000365    39.777523  0.050224145  0.060709671            6 
   67000    1.2701008   -4.8534582     40.34246  0.050177189  0.060695355            1 
   68000    1.2004502   -4.8196847      41.0582  0.050316421  0.060687727            5 
   69000    1.2265589   -4.7952772    41.988821  0.050711137    0.0606915            1 
   70000    1.2102906   -4.7887084    42.747788  0.050890223  0.060681083            2 
   71000    1.2377787   -4.8083124    43.320006  0.050845077  0.060687175            2 
   72000     1.198924   -4.8250095    44.034336  0.050965667  0.060683003            5 
   73000    1.2009322   -4.8494759    44.636193  0.050954558  0.060660474            3 
   74000    1.2349252   -4.8526488    45.194549  0.050894762   0.06063502            4 
   75000    1.2203812   -4.8169151    45.929953  0.051033281   0.06058842            4 
   76000    1.2042522   -4.8267951    46.693738  0.051199273  0.060548214            1 
   77000    1.2341123   -4.8063499     47.14975  0.051027868  0.060500378            2 
   78000    1.1962529   -4.8369909    47.733501   0.05099733  0.060431642            1 
   79000    1.2258683   -4.8499747    48.215307  0.050860028  0.060353051            2 
   80000    1.2287766   -4.8566114    48.795329  0.050828467  0.060276369            4 
   81000    1.2177855   -4.8152637    49.549367  0.050976714  0.060177895            2 
   82000    1.2000388   -4.8546306    50.296664  0.051114495  0.060092273            2 
   83000    1.2373164   -4.8470933    51.184632  0.051390193  0.060024949            3 
   84000    1.1929785   -4.8289949    51.778071  0.051367134  0.059971067            4 
   85000    1.2181196   -4.8303057      52.4478  0.051419412  0.059909876            2 
   86000     1.218743   -4.8318375    53.434625  0.051777737  0.059850818            2 
   87000    1.2041073   -4.8147663     53.68473  0.051422155  0.059803128            1 
   88000    1.2016053   -4.8547222    54.657338  0.051758842  0.059756242            1 
   89000    1.2114247   -4.8651083    55.331866  0.051808863  0.059716862            3 
   90000    1.2128959   -4.8244253    56.289306  0.052119727  0.059686247            2 
   91000    1.1941313   -4.8234376     56.80126  0.052015806   0.05965824            4 
   92000     1.259284   -4.8021409    57.843767  0.052394716  0.059627293            2 
   93000    1.2475699   -4.8482686    58.115403  0.052074733  0.059587617            2 
   94000    1.1993627   -4.8501566    58.718294  0.052055225  0.059543048            5 
   95000    1.2205542   -4.8158906    59.398665  0.052104092  0.059493798            1 
   96000     1.209106   -4.8320307    60.042852  0.052120531  0.059451819            1 
   97000    1.1984748   -4.8496752    60.749865  0.052190605  0.059407421            1 
   98000    1.2134971   -4.8406301    61.610179  0.052389608  0.059363722            2 
   99000    1.1851906   -4.8393888     62.41287  0.052536086  0.059333217            2 
  100000    1.2163419   -4.8247274    63.148756  0.052623963  0.059292063            1 
  101000    1.1988606    -4.822264    64.138687  0.052919709  0.059266469            3 
  102000     1.218596   -4.8017257    64.519845  0.052712291  0.059239115            3 
  103000    1.2150953   -4.8311192    65.168617  0.052725418  0.059228126            4 
  104000     1.196848   -4.8337777     66.16693  0.053018373  0.059221196            1 
  105000    1.2132494   -4.8288178    66.843451  0.053050358  0.059214883            2 
  106000    1.2139251   -4.8549605    67.760405  0.053270758  0.059205609            2 
  107000     1.225375   -4.8173149     68.36508  0.053243832  0.059205659            5 
  108000    1.2103236   -4.8842778    68.579504  0.052916283  0.059192245            2 
  109000    1.2186141   -4.8546032     69.41174  0.053067079  0.059174599            3 
  110000    1.1915621   -4.8492379    70.199804   0.05318167  0.059150914            1 
  111000    1.2174513   -4.8728281    70.519959  0.052942912  0.059124747            3 
  112000    1.2050757   -4.8040129     71.51868  0.053213303  0.059097551            2 
  113000    1.1979445   -4.8655147    72.141122  0.053201417  0.059069948            5 
  114000    1.2224568   -4.8870438    72.444769  0.052956702  0.059045564            2 
  115000    1.1886343   -4.8707114    73.328095  0.053136301  0.059028501            2 
  116000    1.2216593   -4.8421317    74.379364  0.053433451  0.059014205            4 
  117000    1.2162214   -4.8815235    74.754992  0.053244296  0.058996336            1 
  118000    1.1969884   -4.8770767    75.472264  0.053299622  0.058980551            2 
  119000    1.1909609   -4.8473365    76.214495  0.053371495  0.058964181            2 
  120000    1.2168721   -4.8566869    77.200333  0.053611342  0.058947614            1 
  121000    1.2008341   -4.8600162    77.491206  0.053368599   0.05892423            3 
  122000    1.2163242   -4.8453729    77.853301  0.053178484  0.058895077            4 
  123000    1.1739609   -4.8585095    79.026736  0.053541149  0.058867165            5 
  124000    1.1936707   -4.8469761     79.50398  0.053430094  0.058846153            3 
  125000    1.2072347   -4.8331385     80.55327   0.05370218  0.058827335            3 
  126000    1.1935129   -4.8600139    80.935851  0.053529002  0.058808988            2 
  127000    1.2034018   -4.8888308    81.433009  0.053433733  0.058789049            4 
  128000    1.2111364   -4.8550924    81.852325  0.053289274  0.058759151            1 
  129000    1.2038246   -4.8676805    82.261247   0.05314034  0.058719809            3 
  130000    1.1937538    -4.869813    83.426923  0.053478797  0.058685808            2 
  131000    1.1766862   -4.8444201    84.489433  0.053746458  0.058666436            2 
  132000    1.1812075   -4.8628279    85.390896  0.053908394  0.058651754            3 
  133000    1.2010144   -4.8832443    85.357922  0.053482407  0.058632286            4 
  134000    1.1850616   -4.9210999    86.361841  0.053707612  0.058615319            4 
  135000    1.2044686   -4.8433374    87.517528  0.054023165  0.058601072            2 
  136000    1.2203559   -4.8341741    88.488905  0.054221143  0.058602781            2 
  137000    1.1824211   -4.8681676    89.123795  0.054211554  0.058599918            3 
  138000    1.1617434   -4.8303648    89.984128  0.054338241  0.058600154            3 
  139000    1.1940188   -4.8687049    89.934195  0.053917383   0.05859413            1 
  140000    1.1994514   -4.8650442    90.650343  0.053958537  0.058581538            2 
  141000    1.2058646   -4.8555892    91.494835  0.054074961  0.058566584            3 
  142000    1.2026385   -4.8748089      91.6866   0.05380669  0.058546067            2 
  143000    1.1896291   -4.8799797    92.478602  0.053891959  0.058529192            1 
  144000    1.2191325   -4.8958738    93.250701  0.053964526  0.058512778            2 
  145000     1.216248    -4.845748     94.27579  0.054181488  0.058496798            2 
  146000    1.1843954    -4.827841    95.026083  0.054238631  0.058484533            3 
  147000    1.1910922   -4.8846842    95.321419  0.054037085  0.058468408            2 
  148000    1.1733892   -4.8966943    96.028866  0.054070307  0.058456762            4 
  149000    1.2270649   -4.8692815    96.612449  0.054033808  0.058436869            4 
  150000    1.1934399     -4.88937    97.529809  0.054183227  0.058421828            2 
  151000    1.1884147   -4.8608282    98.196671  0.054192423  0.058409529            3 
  152000    1.2184801   -4.8766434    98.969592  0.054259644   0.05839849            4 
  153000    1.2130708   -4.8912798    99.253635  0.054059714  0.058385448            1 
  154000    1.2225625   -4.8836681    100.01677  0.054121628  0.058369315            3 
  155000     1.163103   -4.8973084    100.85029  0.054220587  0.058350032            7 
  156000    1.1878568   -4.8664684    101.51823  0.054229823  0.058339829            2 
  157000     1.211297   -4.8871491    102.44597  0.054376844  0.058328314            3 
  158000    1.1988147   -4.8974708    103.08473  0.054369582  0.058318497            3 
  159000    1.1601708   -4.8881637    104.09835  0.054558881  0.058316419            5 
  160000    1.1839153   -4.8954376    104.46974  0.054411322  0.058312232            3 
  161000     1.177195   -4.9170319    105.41032  0.054560209   0.05830529            3 
  162000    1.1869693   -4.8908883     105.7336  0.054389714  0.058295913            2 
  163000    1.2029431    -4.905981     106.3809  0.054386963  0.058284607            2 
  164000    1.1900119   -4.8696104    107.02119  0.054380687  0.058268416            5 
  165000    1.2329148   -4.8891427    107.60765  0.054347298  0.058252914            3 
  166000    1.1914395   -4.8934845    108.01614  0.054224969   0.05823248            3 
  167000    1.2054728   -4.9014928    108.09091  0.053937579  0.058205915            3 
  168000    1.1884616   -4.8994619     108.9815  0.054058286  0.058178893            2 
  169000    1.1729522   -4.8608185    109.16622  0.053829495  0.058147285            3 
  170000    1.1981714   -4.8970747    109.93919  0.053891759  0.058118525            3 
  171000     1.175804    -4.879521     110.6326  0.053914522  0.058085862            2 
  172000    1.1397544   -4.8904301    111.25544   0.05390283   0.05805719            1 
  173000    1.2088386   -4.8884297    112.05193  0.053974919   0.05802386            4 
  174000    1.1666309   -4.8984845    112.46983  0.053864859  0.057993063            4 
  175000    1.1935399   -4.8810639     113.8267  0.054203192   0.05796183            1 
  176000    1.1579373   -4.8962587    114.29015  0.054114655  0.057932342            5 
  177000    1.2228497   -4.9157817    114.23612  0.053783484  0.057901101            2 
  178000    1.1885073   -4.8742549    115.21948  0.053941706  0.057870132            2 
  179000    1.1665285   -4.9264989    115.19992  0.053631248  0.057835447            3 
  180000    1.1747963   -4.8942071     116.6156  0.053988704  0.057805143            2 
  181000    1.1704033   -4.8564815    117.30229   0.05400658  0.057774972            2 
  182000    1.2043443   -4.9206801    117.47456  0.053788716  0.057749101            2 
  183000    1.1641322   -4.9207313     118.7252  0.054064299  0.057722931            2 
  184000    1.1996401   -4.9143862     119.3689  0.054061999  0.057698974            1 
  185000    1.1935391   -4.8696551    120.11777  0.054107105  0.057678109            3 
  186000    1.1605749   -4.9265036      120.438  0.053959679  0.057654657            5 
  187000    1.1617422   -4.8838769    121.76302  0.054261597  0.057636579            1 
  188000    1.1924899   -4.9080165    122.14103  0.054140528  0.057617061            2 
  189000     1.208627   -4.9125673     122.3838  0.053961111  0.057599094            3 
  190000    1.1902131   -4.9027713    123.79876  0.054297702  0.057583042            4 
  191000    1.1910193   -4.9007451    124.84274  0.054468909  0.057564256            3 
  192000    1.2029124   -4.9124651    124.97265  0.054241599  0.057549277            2 
  193000    1.1774653   -4.9128006    125.90847  0.054364623  0.057534797            3 
  194000    1.1694577    -4.937779    126.60789  0.054384832  0.057522061            2 
  195000    1.1863046   -4.8884834    127.78976  0.054611006  0.057514153            2 
  196000    1.1886869   -4.9181309    128.43657  0.054607385  0.057507703            2 
  197000    1.1513682   -4.9264872    128.77177  0.054471983  0.057499435            2 
  198000    1.1719553   -4.9194937    129.72538  0.054598224  0.057493921            2 
  199000    1.1890989   -4.8943103    130.65099  0.054711469  0.057490484            3 
  200000    1.1685766    -4.913056    130.93472  0.054556134  0.057481829            3 
  201000    1.1791177   -4.8846979    131.63408  0.054574661  0.057471539            1 
  202000    1.1815038   -4.8714761     132.1554  0.054519552    0.0574562            2 
  203000    1.1630897    -4.877358    132.67384  0.054463811  0.057440275            2 
  204000    1.1856519   -4.9179176    132.67721  0.054198205  0.057422137            2 
  205000    1.1531106   -4.9399518     132.9923   0.05406191  0.057403999            3 
  206000    1.1614307   -4.9493986    134.00679  0.054209865  0.057385163            4 
  207000    1.1922488   -4.8824436    135.43406  0.054522567  0.057369844            1 
  208000    1.1735229   -4.8979184    136.37611  0.054637864  0.057357168            2 
  209000    1.1844023   -4.9238043    136.77008  0.054533525   0.05734221            4 
  210000    1.1640564   -4.9090781    137.48001  0.054555558  0.057331981            1 
  211000    1.1626472   -4.9534796    137.77777    0.0544146  0.057321633            2 
  212000    1.1903601   -4.9207161    138.67743  0.054511568   0.05731013            2 
  213000     1.181224   -4.9373778    139.29876  0.054498733   0.05729873            2 
  214000    1.1659123   -4.8750148    140.37182  0.054661923  0.057288845            1 
  215000    1.1630572   -4.9561683    140.13774  0.054316952  0.057278686            5 
  216000    1.1688664    -4.953382    141.12392  0.054445955  0.057266864            2 
  217000    1.1785125   -4.9327169    141.51205  0.054344107  0.057250013            2 
  218000    1.1791103   -4.9575595    142.18259  0.054351144   0.05723457            4 
  219000    1.1697745   -4.9188403    142.90506  0.054377875   0.05722032            2 
  220000    1.1977442   -4.8704048    144.10844  0.054586529  0.057208339            4 
  221000    1.1642935   -4.9188559    144.63258  0.054537172  0.057195782            6 
  222000    1.1685068   -4.9550462    144.79784  0.054353543  0.057179801            4 
  223000    1.1559644   -4.9399986    145.27516  0.054288175  0.057169164            2 
  224000    1.1741581   -4.9372947    146.66304  0.054562142  0.057156046            2 
  225000     1.163848   -4.9954332    146.29088  0.054181806  0.057144175            2 
  226000    1.1702835   -4.9414246    147.52235  0.054396145  0.057131829            2 
  227000    1.1560287    -4.931027    148.85695  0.054646457   0.05711996            3 
  228000    1.1658004   -4.9575759    149.77326   0.05474169  0.057109516            3 
  229000     1.131815   -4.9502028    149.88941  0.054544907  0.057102473            5 
  230000    1.1667927   -4.9372515     150.5695  0.054554167  0.057092589            3 
  231000    1.1491331   -4.9064556    151.42678  0.054627267   0.05708057            3 
  232000    1.1432107   -4.9378238    152.17498  0.054660552  0.057071556            4 
  233000    1.1676906   -4.9542146    152.49067  0.054538868  0.057059807            1 
  234000     1.162674   -4.9435253    153.55565  0.054685059  0.057050889            3 
  235000    1.1360414   -4.8948854    154.42997  0.054762402  0.057041579            3 
  236000    1.1586873   -4.9330853    154.08504  0.054408558  0.057033155            1 
  237000    1.1620331   -4.9642009    154.52848  0.054334909   0.05702236            3 
  238000    1.1414053   -4.9601075    156.10073  0.054657118  0.057012255            4 
  239000    1.1575309   -4.9407069     156.4384  0.054546163  0.056999496            3 
  240000    1.1795944   -4.9860384    156.86774  0.054467966  0.056986058            4 
  241000    1.1500254   -4.9209212    157.88647  0.054594216  0.056975719            7 
  242000    1.1545688   -4.9330716    158.20422  0.054478037  0.056968154            2 
  243000    1.1463633   -4.9524683    158.99213  0.054524049  0.056955689            6 
  244000    1.1758213   -4.9807662      159.288  0.054401638  0.056941997            2 
  245000    1.1482898   -4.9753125    159.13018   0.05412591  0.056927517            2 
  246000     1.173713   -4.9352633    161.01277   0.05454362  0.056914085            2 
  247000     1.148859   -4.9465155    161.27599  0.054411601  0.056900116            2 
  248000    1.1632625   -4.9826713     162.0512  0.054452688  0.056887613            2 
  249000    1.1558527   -4.9445976    162.47052  0.054374336  0.056875246            2 
  250000    1.1831481   -4.9735632    162.17644  0.054058814  0.056861392            4 
  251000    1.1672775   -4.9498221    163.12923   0.05415977  0.056842629            3 
  252000    1.1445925   -4.9550284    164.34821  0.054347951  0.056824993            2 
  253000    1.1570406   -4.9154316    164.92551  0.054323292  0.056807524            4 
  254000    1.1547594   -4.9092719    165.21306   0.05420376  0.056788988            2 
  255000    1.1622535   -5.0188885    164.28646  0.053688385  0.056767272            2 
  256000    1.1793877    -4.931628    166.23445  0.054112776  0.056743004            1 
  257000    1.1642114   -4.9398058    167.10573  0.054184738  0.056718866            2 
  258000    1.1669618   -4.9415472    168.34877  0.054376217  0.056698269            3 
  259000    1.1678804   -4.9885457    167.44554  0.053875655   0.05667739            2 
  260000    1.1418552   -4.9488774    167.46138  0.053673519  0.056653725            3 
  261000    1.1910105   -5.0005505    168.60629  0.053833426  0.056629208            3 
  262000    1.1604338   -4.9555451    169.30048  0.053848753  0.056604557            3 
  263000    1.1510633   -4.9783352    169.90165   0.05383449  0.056580336            2 
  264000    1.1293292   -4.9772664    171.26607  0.054061258  0.056556721            3 
  265000    1.1591341   -4.9526598    172.24212   0.05416419  0.056537927            2 
  266000     1.151968   -4.9421906    173.14942  0.054244806  0.056520409            2 
  267000    1.1652636   -4.9893145      172.658  0.053888266  0.056499349            1 
  268000    1.1352781   -4.9707701    173.52536  0.053956889  0.056479947            4 
  269000    1.1468055   -4.9663068    173.76243  0.053829748  0.056459169            4 
  270000    1.1434292   -4.9638809    174.92114  0.053988006  0.056438897            2 
  271000    1.1257315   -4.9831281    175.79544  0.054057638  0.056418626            2 
  272000    1.1223485   -5.0002934    175.75626  0.053846894  0.056396938            1 
  273000    1.1502881   -4.9602718    176.59393  0.053905351  0.056376859            2 
  274000    1.1392966   -4.9712269    177.68849  0.054041513  0.056358136            3 
  275000    1.1699476   -4.9727603    177.68436  0.053843746  0.056339179            3 
  276000    1.1443232   -4.9772871    178.22878  0.053813036  0.056318547            2 
  277000     1.134998    -4.975484    179.16116  0.053899267  0.056295357            4 
  278000    1.1290907   -4.9806239    179.26881  0.053737652  0.056272547            3 
  279000    1.1251853   -5.0019078    180.28481  0.053848509  0.056247098            5 
  280000    1.1550255   -4.9638489    180.80653  0.053811466  0.056226408            3 
  281000      1.13725   -4.9681803    181.48115  0.053820033  0.056206185            2 
  282000    1.1381565   -4.9828624    182.33532  0.053881596  0.056187042            4 
  283000    1.1731822   -4.9475947    183.33499  0.053985568  0.056169283            2 
  284000    1.1514866   -4.9611533    183.70855  0.053905092  0.056152928            3 
  285000    1.1457963   -4.9656448    185.12564  0.054130305  0.056134287            4 
  286000    1.1349681   -4.9886076    186.00502  0.054197268  0.056119623            2 
  287000    1.1467886   -5.0008298     185.9586  0.053994946  0.056103049            2 
  288000    1.1463457   -4.9807915    185.92542  0.053797864  0.056085861            3 
  289000     1.137564    -4.961649    186.93701  0.053903407  0.056066921            3 
  290000    1.1109902   -4.9702994    187.89801  0.053993682  0.056047584            5 
  291000     1.166429   -4.9615605    187.83058  0.053788826  0.056027171            2 
  292000    1.1291821   -5.0330115    187.83281  0.053605254  0.056006873            3 
  293000    1.1430492   -4.9902366    188.50914  0.053614658  0.055986035            3 
  294000     1.117308   -4.9638094    189.74197  0.053781736  0.055968079            4 
  295000    1.1310543   -4.9779735     190.8616  0.053915705  0.055949701            4 
  296000    1.1470056   -4.9827423    191.40769    0.0538873   0.05593286            2 
  297000    1.1415494   -4.9795317    191.63518  0.053769691  0.055913063            3 
  298000    1.1537774   -4.9562597     192.3145  0.053779223  0.055893152            3 
  299000    1.1246805   -4.9890895    192.71933  0.053712189  0.055874227            3 
  300000    1.1483641   -4.9766122    192.85909  0.053571971  0.055855167            2 
  301000    1.1148043   -4.9940743    193.88625  0.053678364  0.055835862            2 
  302000    1.1326555   -4.9928803     195.5781  0.053967466  0.055817832            2 
  303000    1.1162112   -5.0211573    195.67202  0.053815186  0.055798919            2 
  304000    1.1177171   -5.0183314    195.75174  0.053660016  0.055782153            3 
  305000    1.1368702   -4.9949353    197.21086  0.053882748  0.055766296            6 
  306000    1.1416602   -5.0218568    197.19575  0.053702547  0.055750543            2 
  307000    1.1182983   -5.0079155    197.70775  0.053666598  0.055734707            2 
  308000     1.105307   -4.9655243    199.93523  0.054095031  0.055721003            2 
  309000    1.1176734   -4.9915869    199.19043  0.053719101   0.05570692            4 
  310000    1.1226614   -4.9828171    200.42408  0.053877441  0.055693992            3 
  311000    1.1229315   -5.0248741    200.79835  0.053804487   0.05568063            5 
  312000    1.1492644   -5.0107206    201.05918  0.053701705  0.055667349            4 
  313000    1.1256154   -4.9997196     201.9803  0.053775373  0.055653118            8 
  314000     1.151408   -4.9906145    202.60264  0.053769279  0.055637526            4 
  315000    1.1382462   -5.0469689    202.43212  0.053553471   0.05561884            3 
  316000    1.1049484   -5.0332841    202.58808  0.053425128  0.055599448            3 
  317000    1.1317534   -4.9894586    203.94058  0.053612139  0.055582815            4 
  318000    1.1344734   -4.9978861    204.65154  0.053629859  0.055564955            2 
  319000    1.1234761   -5.0236183    204.14343  0.053329004  0.055547255            2 
  320000    1.1222118   -5.0307448    205.30698  0.053465359  0.055529919            1 
  321000    1.1255355   -5.0029153    205.96668  0.053470063  0.055509273            4 
  322000    1.1458852   -5.0490023    206.62401  0.053474123   0.05548893            3 
  323000    1.1277416    -4.966701    207.29388  0.053481392  0.055467389            1 
  324000    1.1118358     -4.99425    207.10699  0.053268257  0.055446681            4 
  325000    1.1534404   -5.0113777    208.46544  0.053452677   0.05542486            2 
  326000    1.1467888   -5.0128393    208.26657  0.053237875   0.05540339            3 
  327000    1.1158142   -5.0465499    208.30764  0.053085536  0.055382169            4 
  328000    1.1135267   -5.0340225    209.59966  0.053251945  0.055361494            4 
  329000    1.1030838   -4.9965979     210.0082  0.053193566   0.05533877            2 
  330000    1.1155242   -5.0084498    211.57353  0.053427658   0.05531773            1 
  331000    1.1141255   -5.0238559    211.75765  0.053312602  0.055296711            9 
  332000    1.1178546   -4.9966742    213.15053  0.053501638  0.055278305            1 
  333000    1.1222021   -5.0134868    213.31006  0.053380895  0.055259042            4 
  334000    1.1179761   -5.0341646     212.6063  0.053045484  0.055238403            3 
  335000    1.1229685   -5.0154352    214.26503  0.053299759  0.055217257            2 
  336000    1.1214923   -4.9996921    215.41699  0.053426832   0.05519704            2 
  337000     1.096988   -4.9955146    214.92176  0.053145836  0.055176195            4 
  338000    1.1406441   -5.0141376    214.84677   0.05297011  0.055152225            1 
  339000    1.1512018     -4.99752    216.47023  0.053212938  0.055129067            3 
  340000    1.1206231   -5.0356317    216.35901   0.05302917  0.055106144            5 
  341000    1.1144552   -5.0000523    217.52057  0.053157519   0.05508319            2 
  342000    1.1060728   -4.9829093    217.50526  0.052998356  0.055059568            2 
  343000    1.1269786   -5.0264227    218.07513  0.052982297  0.055035175            2 
  344000     1.125537   -5.0077244     218.4274  0.052913614  0.055012561            2 
  345000    1.1013183   -5.0454521    219.67231  0.053060945  0.054990507            2 
  346000    1.1411849   -5.0051796    219.48217  0.052861794   0.05496644            2 
  347000    1.1144534   -5.0618801    220.37794  0.052924577  0.054944671            2 
  348000    1.1324393   -5.0079386    220.91883  0.052902019  0.054921961            3 
  349000    1.1362027   -5.0438917    221.27326  0.052835068  0.054899604            4 
  350000     1.125043   -5.0077859    221.82888  0.052816399  0.054876575            4 
  351000    1.1054903   -5.0717964    222.52891  0.052832124  0.054854206            3 
  352000    1.1325184    -5.014428     223.2106  0.052843418  0.054830216            4 
  353000    1.1338883   -5.0409547    223.60538  0.052786917  0.054806536            4 
  354000     1.139557   -5.0761898    223.20491  0.052543528  0.054784032            2 
  355000    1.0977199   -5.0227813    225.73004  0.052988272  0.054761531            2 
  356000    1.0838922   -5.0586208    224.53982  0.052560819  0.054738799            6 
  357000    1.1097486   -5.0147787    226.18732   0.05279816  0.054714092            5 
  358000    1.1278488   -5.0235947    227.08971  0.052860733  0.054693834            2 
  359000    1.0960511   -5.0604599    227.04736  0.052703659  0.054672865            4 
  360000     1.120815   -5.0036352    229.28827  0.053075989  0.054652794            1 
  361000    1.1244139   -5.0565566     228.9276  0.052845707  0.054633267            4 
  362000    1.1214238   -5.0614969    229.00862  0.052718375  0.054613553            3 
  363000    1.1137493   -5.0109905    230.08679  0.052820659  0.054592638            1 
  364000    1.1028553    -5.055887    230.89814  0.052861296  0.054572255            4 
  365000    1.1000047   -5.0582559    231.55672  0.052866831  0.054551598           11 
  366000    1.1132327   -5.0698314    231.31206  0.052666681  0.054529471            4 
  367000    1.1059937   -5.0154033    233.15954  0.052942675  0.054510041            3 
  368000    1.1130496   -5.0539713    232.29605  0.052603272  0.054490034           11 
  369000    1.1049441   -5.0623527     232.8458  0.052584868  0.054468995            3 
  370000    1.1447697    -5.016257    233.67524  0.052629559  0.054446797            3 
  371000    1.0853067   -5.0379927    233.90755  0.052539882     0.054427            3 
  372000     1.084144   -5.0375114    235.02031   0.05264792  0.054405083            2 
  373000    1.1034166   -5.0781567    234.42701  0.052374221   0.05438278            2 
  374000     1.107745   -5.0609074     235.8288  0.052546525  0.054360761            2 
  375000    1.0942295   -5.0557787    236.74943  0.052610984  0.054338818            2 
  376000    1.0949345   -5.0579383    236.29317   0.05236994  0.054317946            2 
  377000    1.1277038   -5.0327045     238.3868   0.05269381  0.054296346            2 
  378000    1.1022107    -5.077617    237.71615  0.052406559  0.054274954            2 
  379000    1.1078223   -5.0896988    238.62624  0.052468391  0.054253082            3 
  380000    1.1092048   -5.0520034    238.57527  0.052319138  0.054230437            1 
  381000    1.0816343    -5.062657    239.33072  0.052347051  0.054207498            2 
  382000    1.0845843   -5.0837403    239.11968  0.052163978  0.054185059            1 
  383000    1.1040858   -5.0877196    240.00819  0.052221102  0.054161095            2 
  384000    1.0845866   -5.0793399    240.25036  0.052137665    0.0541374            2 
  385000    1.1164819   -5.0997513    241.31488  0.052232658  0.054112037            4 
  386000    1.0950754   -5.0813014    241.57995  0.052154566  0.054086953            3 
  387000    1.1144453   -5.0545567    242.57001  0.052232991  0.054062434            3 
  388000    1.0859319   -5.0724854    243.22644  0.052239356  0.054039919            2 
  389000    1.1055339   -5.0425909    244.98247  0.052481249   0.05401752            5 
  390000    1.1047841   -5.0696933    245.10249  0.052372327  0.053996466            2 
  391000    1.1027512   -5.0922754    244.53811  0.052118098     0.053974            2 
  392000    1.1297131   -5.0531931    245.05729  0.052095512  0.053950636            2 
  393000    1.1083682   -5.0155846    246.30708  0.052227965  0.053927285            3 
  394000    1.0912077   -5.0679311    246.58766  0.052154749  0.053902255            2 
  395000    1.1089276   -5.0655399     246.0817   0.05191597  0.053878062            4 
  396000    1.0901253   -5.0385686    246.21697  0.051813336  0.053852275            6 
  397000     1.100837   -5.0982855    246.45309  0.051732387   0.05382582            2 
  398000    1.0949039   -5.0678022    247.84665  0.051894189  0.053799203            2 
  399000    1.0776889   -5.1198221    246.53464  0.051490109  0.053772037            2 
  400000    1.0823858   -5.1055509    248.26808  0.051722517  0.053744226            2 
  401000    1.0961651   -5.0688268    248.39558  0.051620028  0.053717323            2 
  402000    1.1000082   -5.1044888    249.38278  0.051696265  0.053690647            2 
  403000     1.079842   -5.0716543    249.39427  0.051570361  0.053663095            3 
  404000    1.0886696   -5.0985886    249.42488  0.051449026  0.053635024            1 
  405000    1.0838958   -5.0558333    250.15487  0.051472196  0.053606016            8 
  406000    1.1185246   -5.0629178    251.85447  0.051694268  0.053577662            4 
  407000    1.1045186   -5.0547424    251.19632  0.051432499  0.053549014            3 
  408000    1.0891779   -5.0854942    251.28542  0.051324637  0.053519843            1 
  409000     1.095855   -5.0599775    253.47334  0.051644936  0.053493343            2 
  410000    1.0807287       -5.076     254.1084  0.051648049  0.053466613            4 
  411000    1.0909769   -5.0983998    253.91436  0.051483042  0.053441572            4 
  412000    1.0677254   -5.0804245    254.88202  0.051553807  0.053415578            2 
  413000    1.0731078   -5.0645244    255.35133  0.051523675  0.053389755            4 
  414000    1.0970192   -5.0864696    255.95237  0.051520202  0.053364196            6 
  415000     1.109089   -5.0973471    256.14519  0.051434777  0.053338189            3 
  416000    1.1099756   -5.0727297    257.06202  0.051494796  0.053312095            5 
  417000    1.0998766   -5.0851236    257.63825  0.051486461  0.053286952            3 
  418000    1.0433083   -5.1026424    258.00914  0.051437229  0.053261202            2 
  419000    1.0757861    -5.070449     257.9493  0.051302566  0.053233688            2 
  420000    1.0703533   -5.0837433    257.73757  0.051138406  0.053207005            4 
  421000    1.0905573   -5.0511326    259.98072  0.051460951  0.053180207            3 
  422000     1.081878   -5.1249877    258.92607  0.051130741   0.05315315            2 
  423000    1.0776019   -5.1091003    260.29491  0.051279534  0.053125821            4 
  424000    1.1077578   -5.1004963    260.59255  0.051217089  0.053098954            3 
  425000    1.0911062   -5.0849687    261.71733  0.051317123   0.05307266            2 
  426000    1.0856293   -5.0375193    262.14502  0.051280326  0.053045792            3 
  427000    1.0906024   -5.0713266    262.07199  0.051145978  0.053018841            2 
  428000    1.0840563   -5.0861109    262.96862  0.051201055  0.052991022            4 
  429000    1.0720339   -5.0831291    263.47849  0.051180748  0.052962961            2 
  430000     1.070978   -5.0910512    263.29491  0.051026144  0.052935556            2 
  431000    1.0945065   -5.1093889    263.47422  0.050942425  0.052908185            3 
  432000     1.104297   -5.0628214    264.76511  0.051073516  0.052880432            3 
  433000    1.0679077   -5.1089816    264.42767  0.050890621  0.052852068            3 
  434000    1.0908951   -5.1005379    264.80392  0.050845606  0.052822202            3 
  435000    1.0810329   -5.0811517    264.89404  0.050745985  0.052793302            3 
  436000    1.0719511   -5.0908411    266.49359  0.050935319   0.05276415            4 
  437000    1.0654803   -5.1148412    266.70158  0.050858425  0.052735171            4 
  438000    1.0746824   -5.1157002    267.72456  0.050936941  0.052707969            3 
  439000    1.0483541    -5.119786    267.59713  0.050796721  0.052679137            7 
  440000    1.0427412    -5.089947    268.95271  0.050938014   0.05265145            2 
  441000    1.0630579   -5.0985868    268.54605  0.050745664  0.052625125            4 
  442000    1.0699236    -5.106699    269.88037  0.050882423  0.052597963            3 
  443000    1.0801727   -5.1059944    270.16462  0.050821034  0.052571526            2 
  444000    1.0839318   -5.1214166    270.82035  0.050829645   0.05254634            3 
  445000    1.0801072   -5.1039709    271.91117  0.050919694   0.05252082            2 
  446000    1.0697706   -5.0714545    272.35683  0.050888795  0.052496338            3 
  447000    1.0928417   -5.1369007    272.32367  0.050768768  0.052471127            3 
  448000    1.0966724   -5.1206257    272.61398  0.050709446  0.052445799            2 
  449000     1.082893   -5.1175415    273.60634  0.050780687  0.052419275            5 
  450000    1.0859682   -5.1266909    273.35152  0.050620651  0.052393689            2 
  451000    1.0710119   -5.1286183    274.02102  0.050632117  0.052366801            1 
  452000     1.096101   -5.0852115    275.50048  0.050792862  0.052340397            3 
  453000    1.0719696   -5.0894241    275.96578  0.050766333  0.052313745            1 
  454000    1.0846683   -5.0942471    277.48172  0.050932769  0.052287691            2 
  455000    1.1046903    -5.095189    275.94338  0.050539081  0.052261395            2 
  456000    1.0482712   -5.1087388    276.91026  0.050604946  0.052234605            3 
  457000    1.0966239   -5.1337476    277.67245  0.050633196   0.05220818            2 
  458000    1.0431058   -5.1498409    277.88554  0.050561415  0.052183589            5 
  459000     1.064787   -5.0966484    279.55316  0.050754023  0.052159151            2 
  460000    1.0801909   -5.1248182    279.14489  0.050569726  0.052134192            2 
  461000    1.0516462   -5.1186945    280.04452  0.050622654  0.052108739            4 
  462000    1.0628057   -5.1220866    280.17344  0.050536335  0.052082613            3 
  463000    1.0539606   -5.1312108    279.95516  0.050387898  0.052056138            2 
  464000    1.0733829   -5.1025271    280.24238  0.050330887   0.05202955            4 
  465000    1.0887295   -5.1116586    280.85413  0.050332282  0.052002459            2 
  466000    1.0774264   -5.1240035    281.14579  0.050276429  0.051975259            3 
  467000    1.0809001   -5.1498061    281.81694  0.050288533  0.051947419            5 
  468000    1.0732521   -5.0819073    283.08222  0.050406377  0.051920825            3 
  469000    1.0521954   -5.1220652    283.33065  0.050343044  0.051893827            3 
  470000    1.0522892   -5.0749966    285.03546  0.050538202  0.051867877            3 
  471000    1.0406511   -5.1128721    284.99377  0.050423527  0.051842258            3 
  472000    1.0772894    -5.152022    283.54484  0.050060883  0.051817312            5 
  473000    1.0666181   -5.1169678    284.84604  0.050184291   0.05179113            3 
  474000    1.0673679   -5.1178288     286.6645  0.050398119  0.051765554            2 
  475000    1.0737328   -5.1584824    285.42735  0.050074973  0.051740652            5 
  476000    1.0819221   -5.1344098    287.78859  0.050383156  0.051716268            5 
  477000    1.0497217   -5.1156484    287.56579  0.050238607  0.051691734            2 
  478000    1.0299201   -5.1357605    287.91447  0.050194295  0.051666645            4 
  479000    1.0668428    -5.111756    288.79373  0.050242473  0.051641307            4 
  480000    1.0629291   -5.1540984    287.50111  0.049913387  0.051615386            5 
  481000    1.0454652   -5.1097367    288.16341   0.04992436  0.051588833            4 
  482000    1.0491471   -5.1366272    289.95531  0.050130587   0.05156446            4 
  483000    1.0702913   -5.1479682    290.14936  0.050060275   0.05153864            3 
  484000    1.0855634   -5.1277475     291.2871  0.050152738  0.051513275            3 
  485000    1.0517365   -5.1858452    290.06477  0.049839307  0.051488217            8 
  486000    1.0590013   -5.1243819    291.87383  0.050046952  0.051462159            2 
  487000    1.0745087   -5.1295062    292.61572  0.050071137   0.05143735            2 
  488000    1.0459148    -5.104631    291.68852  0.049810198  0.051411489            3 
  489000    1.0562404    -5.119937    292.04251  0.049768663  0.051384372            3 
  490000    1.0429546   -5.1413745    292.48215  0.049741863  0.051357357            4 
  491000    1.0727939   -5.1376969    293.75946  0.049857342  0.051330539            3 
  492000    1.0737599   -5.1280541    293.61351  0.049731286  0.051304194            2 
  493000    1.0811338   -5.1784774    293.19537  0.049559731  0.051276799            3 
  494000    1.0488056   -5.1096115    294.10658  0.049613121  0.051248664            1 
  495000    1.0506351    -5.129836    293.98417  0.049492284  0.051221511            4 
  496000    1.0736588   -5.1599035    295.43639   0.04963649  0.051193664            2 
  497000    1.0590329   -5.1528496    295.78006  0.049594242  0.051166881            3 
  498000     1.069293   -5.1405654    297.58758  0.049797119  0.051140183            9 
  499000    1.0560251   -5.1220141    297.37482  0.049661793  0.051113789            4 
  500000    1.0513635    -5.123602    297.75811  0.049626351  0.051086763            1 
  501000     1.035363   -5.1576503    299.11761  0.049753428  0.051061033            3 
  502000    1.0514324   -5.1359577    298.06228   0.04947913  0.051033795            3 
  503000    1.0663898   -5.1662374     298.7591  0.049496207  0.051005373            2 
  504000     1.078746   -5.1782849    298.42436  0.049342652  0.050977449            5 
  505000    1.0601844   -5.1764173    299.57746  0.049435225  0.050950062            3 
  506000    1.0546646   -5.1645173    299.73691  0.049363786  0.050923182            3 
  507000    1.0621709   -5.1842036    301.09936  0.049490362  0.050896718            2 
  508000    1.0563041   -5.1730772    300.93383  0.049365785  0.050869409            3 
  509000    1.0450348   -5.2086149    300.42126  0.049184881  0.050842478           11 
  510000    1.0390409   -5.1846657    301.82723  0.049318176  0.050815455            4 
  511000    1.0558147   -5.1483612    303.03245  0.049418208  0.050789419            4 
  512000     1.025239   -5.1935395    301.55959  0.049081964  0.050762868            3 
  513000    1.0488945   -5.1797805    302.73641  0.049177455  0.050736779            4 
  514000    1.0414406   -5.1368062    304.21974  0.049322266  0.050710391            2 
  515000    1.0450163   -5.1692845    303.72278   0.04914608  0.050683284            4 
  516000    1.0426861   -5.1730323    304.28474  0.049141592  0.050655935            3 
  517000    1.0479057   -5.1614246    303.98894  0.048998862  0.050627896            2 
  518000    1.0458403   -5.1588547     306.0447   0.04923499  0.050599835            6 
  519000    1.0483221   -5.1487329    305.70723  0.049085939  0.050571884            2 
  520000     1.049714    -5.171886    305.50617  0.048959323   0.05054375            2 
  521000    1.0469565   -5.1777777    306.04574  0.048951654  0.050515545            3 
  522000    1.0650331   -5.1601729     306.8768  0.048990548    0.0504874            2 
  523000    1.0650337   -5.1307411    308.93734  0.049225197  0.050460378            6 
  524000     1.027999   -5.1887397    306.79973  0.048791306   0.05043333            2 
  525000    1.0415221   -5.1751282    309.44314  0.049117959  0.050405657            6 
  526000    1.0402178   -5.1443737    308.69258  0.048905668  0.050379225            1 
  527000    1.0472645   -5.2060019    308.55668  0.048791379  0.050351029            3 
  528000    1.0357639   -5.1736331     309.5698   0.04885887  0.050323118            3 
  529000    1.0601091   -5.1607339    310.19053  0.048864293  0.050295914            4 
  530000    1.0351913   -5.1830392    309.76884  0.048705793  0.050268067            4 
  531000    1.0263168   -5.1597688    310.88831  0.048789753  0.050240697            3 
  532000    1.0504258   -5.1917778    311.19061  0.048745397  0.050213046            3 
  533000    1.0343791   -5.1772883    311.42672  0.048690857   0.05018557            2 
  534000    1.0120015    -5.184011    311.98391  0.048686627  0.050157257            3 
  535000    1.0254426   -5.1631688     313.2011  0.048785218  0.050129218            5 
  536000    1.0362747   -5.1839648    312.16321  0.048532837   0.05010046            5 
  537000    1.0602925    -5.164147    312.13393  0.048437915  0.050072575            3 
  538000    1.0192795   -5.1832323    313.25018  0.048520783  0.050043729            5 
  539000    1.0448114   -5.1656422    312.95238  0.048384722   0.05001533            4 
  540000    1.0364926   -5.1924972    313.65368  0.048403346  0.049986541            3 
  541000    1.0376055   -5.1745233    315.22047  0.048555217  0.049956919            4 
  542000    1.0339104   -5.1741746    313.85409  0.048255549  0.049928174            2 
  543000    1.0534291    -5.204902    314.46506  0.048260446   0.04989869            4 
  544000    1.0594099    -5.202206    314.82505  0.048226876  0.049868193            3 
  545000    1.0332258   -5.1616314    316.07472  0.048329468  0.049838695            4 
  546000    1.0484432   -5.2218365    315.73067  0.048188442  0.049808467            7 
  547000    1.0265673   -5.2105473    316.12458  0.048160357  0.049777586            6 
  548000    1.0367116   -5.1642963    317.25919  0.048245011  0.049748274            9 
  549000    1.0582317   -5.1968145    316.41722  0.048029328  0.049718946            9 
  550000      1.05198   -5.1880075    317.50059   0.04810615  0.049689496            3 
  551000    1.0314747   -5.2132742    317.75694  0.048057613  0.049659937            6 
  552000    1.0456989   -5.2203917    317.08962  0.047869809  0.049628416            4 
  553000     1.040281   -5.1858692    317.26278  0.047809341   0.04959768            2 
  554000    1.0562398   -5.1958925    318.25253   0.04787192  0.049565899            4 
  555000    1.0164544   -5.1929762     317.9669  0.047742777  0.049534173            3 
  556000    1.0359525   -5.1760612    318.69277  0.047765702  0.049501659            4 
  557000    1.0368034   -5.2186106     318.4123  0.047637986  0.049469031            5 
  558000    1.0194501   -5.1673325    319.31127  0.047686868   0.04943697            3 
  559000    1.0408255   -5.1818272    320.61999  0.047796659  0.049406269            4 
  560000    1.0138549   -5.2124418    320.47976  0.047690441   0.04937494            3 
  561000    1.0258656   -5.2330793    319.71327  0.047491572  0.049342936            5 
  562000    1.0318333   -5.2025472    321.30065  0.047642445   0.04931167            2 
  563000    1.0257096   -5.2409533    321.86664  0.047641598  0.049280168            5 
  564000    1.0199009   -5.2455539     320.6917  0.047383525  0.049248755            4 
  565000    1.0278919   -5.2346327    320.89167  0.047329154  0.049217035            2 
  566000    1.0396041   -5.1911278    322.70851  0.047513031  0.049185429            4 
  567000    1.0322814   -5.1481971    324.43904  0.047683574  0.049154812            3 
  568000    1.0160407   -5.1913615    323.45111  0.047454682  0.049123411            4 
  569000     1.020782   -5.2316964     322.9615  0.047299576  0.049092131           10 
  570000    1.0260123   -5.2141741    324.77334  0.047481482   0.04906016            8 
  571000    1.0487372   -5.1832711    324.73411  0.047392602  0.049028937            2 
  572000    1.0153524   -5.2310057    324.58409  0.047287892  0.048996246            3 
  573000    1.0568966   -5.2565521    324.99416  0.047265003  0.048963903            3 
  574000    1.0234128   -5.2392441    325.35573  0.047235153   0.04893133            3 
  575000    1.0369193   -5.2128258    325.23866  0.047136037  0.048898475            2 
  576000    1.0116569   -5.2242448    326.81443   0.04728218  0.048866909            2 
  577000    1.0063874   -5.2236146    326.30078  0.047126052   0.04883531            3 
  578000    1.0171469   -5.1992346    326.92707  0.047134814  0.048804329            3 
  579000    1.0295686   -5.2458672    326.69396  0.047019856  0.048773061            3 
  580000    1.0302331   -5.2253641    327.84603  0.047104315  0.048741542            2 
  581000    1.0177183      -5.2096    327.46659  0.046968816  0.048710793            2 
  582000    1.0105459   -5.1940765    328.96839  0.047103149  0.048680229            4 
  583000    1.0374995   -5.2389453    329.10663  0.047042115  0.048649327            2 
  584000      1.00329   -5.2398803    329.64791    0.0470388  0.048618869           10 
  585000    1.0138038   -5.2048259    330.48181  0.047077182  0.048589391            4 
  586000    1.0354754   -5.1776405     332.0106  0.047214249  0.048560431            8 
  587000    1.0280228   -5.2255905     331.8878  0.047116382  0.048530758            3 
  588000    1.0485831   -5.2290256    332.19566  0.047079884  0.048500867            2 
  589000    1.0193036   -5.2474085    332.44952  0.047035869  0.048471495            3 
  590000    1.0204628    -5.195781    333.44498  0.047096748  0.048442064            2 
  591000     1.025386   -5.2138165    331.79001  0.046783702  0.048412303            2 
  592000    1.0154048   -5.1835349    333.34395  0.046923416  0.048382216            4 
  593000    1.0318396   -5.2551484    332.46381  0.046720603   0.04835183            3 
  594000    1.0048002   -5.1963038     335.4507  0.047060985  0.048320802            5 
  595000    1.0105366   -5.2159478     334.1715  0.046802731  0.048290556            2 
  596000    1.0348505   -5.2306821    335.72941  0.046942032  0.048260787            3 
  597000    1.0245226   -5.2175535    335.21093  0.046791029  0.048230237            1 
  598000    1.0216919    -5.227964    335.41058  0.046740605  0.048199581            3 
  599000    1.0174056   -5.2314423    336.16189  0.046767097  0.048169961            9 
  600000    1.0251471    -5.260621    335.80609  0.046639735  0.048140565            4 
  601000    1.0085291   -5.2311627    337.29122  0.046768057  0.048110345            2 
  602000   0.99570853   -5.2283666    336.42881  0.046570987  0.048080158            2 
  603000    1.0043581   -5.2442409    337.28877    0.0466126   0.04804966            4 
  604000   0.98842616   -5.2433087    337.80958  0.046607282  0.048019399            3 
  605000    1.0184335   -5.2157581    338.10658  0.046571154  0.047990314            2 
  606000    1.0154169   -5.2627085    338.53298  0.046552941  0.047960403            9 
  607000   0.99838678   -5.2116536    340.10752   0.04669241  0.047930939            4 
  608000    1.0222837   -5.2274667    339.08468  0.046475422  0.047901973            6 
  609000    0.9956861   -5.2264527    341.09149  0.046673713  0.047872419            5 
  610000    1.0080543   -5.2325923    339.51956  0.046382453  0.047842382            7 
  611000   0.99554437   -5.2222844    340.26263  0.046407888  0.047812392            2 
  612000   0.98663824   -5.2434802    340.96547   0.04642776   0.04778204            2 
  613000    1.0005194   -5.2570259     340.4582  0.046283062  0.047752043            3 
  614000    1.0420846   -5.2460272    341.40984   0.04633684  0.047721977            4 
  615000    1.0296267   -5.2651533    340.54284  0.046144016  0.047691573            8 
  616000    1.0084525   -5.2444844    340.98918  0.046129488  0.047661579            2 
  617000    1.0078835   -5.2083814     342.1854  0.046216289  0.047631719            1 
  618000    1.0115802   -5.2314909    342.77226   0.04622064  0.047601749            3 
  619000    1.0013113     -5.22953    342.46894  0.046105134   0.04757093            3 
  620000    1.0102757   -5.2749431    342.30754  0.046009078  0.047540539            6 
  621000    1.0071257   -5.2447461    343.07316   0.04603773  0.047509586            3 
  622000    1.0289952   -5.2320205    343.71989  0.046050361   0.04747832            5 
  623000     1.028347   -5.2791021    343.19752   0.04590657  0.047448084            2 
  624000    1.0143045   -5.2339835    344.64373  0.046026139  0.047417655            4 
  625000   0.98988823   -5.2639617    343.88847  0.045851796  0.047387416            6 
  626000    1.0125059   -5.2716398     343.8859  0.045778209  0.047356297            3 
  627000    1.0182774   -5.2512662    345.70187  0.045946553  0.047325509            2 
  628000    1.0126595   -5.2618618    346.23294  0.045943862  0.047294378            3 
  629000   0.99118821   -5.2525259    347.74212  0.046070763  0.047263594            5 
  630000   0.98946487   -5.2573381    346.57391   0.04584311  0.047233642            2 
  631000    1.0033202   -5.2766635    346.78878  0.045798835  0.047204198            4 
  632000   0.99896561   -5.2534893    348.42026   0.04594149  0.047174971            2 
  633000   0.98623322   -5.2758513    347.61646  0.045763093  0.047145271            3 
  634000   0.97636066   -5.2330068     349.1103  0.045887264  0.047115793            4 
  635000   0.99150564   -5.2446703    349.66153   0.04588734  0.047086825            4 
  636000    1.0268954    -5.240991    350.64989  0.045944692  0.047057587            3 
  637000   0.99275411   -5.2397026    350.97367  0.045914922   0.04702846            4 
  638000   0.97689083   -5.2711997    349.04076  0.045590485   0.04699928            5 
  639000   0.98829753   -5.2542182    350.98475  0.045772659  0.046969675            5 
  640000   0.99914382   -5.2420824    351.92264   0.04582326  0.046940702            5 
  641000   0.99080549   -5.2376061    351.97844  0.045759027  0.046911853            5 
  642000    1.0071362   -5.2411841     351.3971  0.045612292   0.04688246            5 
  643000    1.0043777   -5.2530411    351.52581  0.045558037  0.046853361            3 
  644000   0.98660722   -5.2511418    352.44934  0.045606799    0.0468243            3 
  645000   0.99325282   -5.2938241    352.42054   0.04553237  0.046795193            3 
  646000   0.99969618   -5.2550522    353.78783  0.045638265  0.046766046            6 
  647000    1.0216481   -5.2893243    352.47213  0.045398265  0.046736163            5 
  648000   0.96605194   -5.2721697    351.91612  0.045256702  0.046706091            5 
  649000   0.99746011   -5.2800151    352.73399  0.045291987  0.046675762            2 
  650000   0.98038327   -5.2721105    353.37397  0.045304356  0.046645936            2 
  651000   0.99942703   -5.2811805    354.20385  0.045340994  0.046615974            3 
  652000   0.99874213    -5.285037    353.06674  0.045126118  0.046585423            5 
  653000   0.99193349   -5.2638952    354.58923  0.045251306  0.046555004            4 
  654000   0.99072714   -5.2655216    354.26187  0.045140402  0.046524629            5 
  655000   0.97296632   -5.2671694    355.15178  0.045184704  0.046494241            3 
  656000    1.0048435   -5.3080811    354.09762  0.044981913  0.046464143            2 
  657000    1.0009763   -5.2617571    356.27286  0.045189353  0.046433848            4 
  658000   0.99042607   -5.2632242    356.77963  0.045184857  0.046403629            4 
  659000   0.98693974   -5.2479189    357.07275  0.045153357  0.046374365            2 
  660000   0.97086186   -5.2688138    356.50682  0.045013487  0.046344395            2 
  661000   0.99787461   -5.2707863    356.52299  0.044947427  0.046313945            4 
  662000    0.9771785   -5.2777888    357.05812  0.044946893  0.046283387            4 
  663000    1.0047773   -5.2761891    356.84745   0.04485262    0.0462528            4 
  664000   0.99251162   -5.2737519    356.82125  0.044781784  0.046221918            2 
  665000    1.0001911   -5.2649738    359.49553  0.045049566  0.046192125            3 
  666000    1.0035776    -5.265544    360.07426  0.045054337  0.046162275            5 
  667000   0.98618826   -5.2906562    359.08546  0.044863251  0.046132564            5 
  668000   0.99604004   -5.2914442    359.48188  0.044845544  0.046102199            2 
  669000   0.95348836   -5.2859865    359.04083  0.044723572  0.046071916            1 
  670000    1.0059256   -5.3005346    359.49817  0.044713702   0.04604171            5 
  671000   0.99256893   -5.3004176     359.5125  0.044648845  0.046011145            6 
  672000     1.000885   -5.2693006    360.76512  0.044737738  0.045981022            4 
  673000   0.98583328   -5.3030371    361.54427   0.04476774   0.04595108            7 
  674000   0.98780452   -5.2862313    361.96359  0.044753164  0.045921343            5 
  675000   0.97825398   -5.3096368    361.58572  0.044640212  0.045890866            3 
  676000    1.0012526   -5.2792554    362.67795   0.04470882  0.045860844            6 
  677000   0.99657466   -5.2889327     364.1934   0.04482932  0.045830873            3 
  678000    1.0006011   -5.2852644    362.58179  0.044565116  0.045800663            4 
  679000     1.013189   -5.3070695    363.68391  0.044634746  0.045770712            2 
  680000   0.97697149   -5.3048386    363.24572  0.044515407  0.045740636            2 
  681000   0.97459723   -5.2905303    363.33724  0.044461239  0.045711264            3 
  682000   0.97821149   -5.3328555    364.22222  0.044504181  0.045681666            4 
  683000   0.97753731   -5.2803719    365.24306  0.044563575  0.045652295            4 
  684000   0.97123128     -5.29208    365.32965  0.044508973  0.045622922            6 
  685000    0.9852741   -5.3083552    365.34992  0.044446462  0.045593559            2 
  686000   0.98109017   -5.3189059    364.19101   0.04424089  0.045564127            5 
  687000   0.96785192   -5.2746259    366.45387  0.044450979   0.04553416            1 
  688000    0.9833756   -5.3079803    366.87069  0.044436857  0.045505077            3 
  689000   0.96362651   -5.3079014    366.49031  0.044326356  0.045475929            4 
  690000   0.97306638   -5.2907945    367.17477  0.044344779  0.045446811            4 
  691000   0.97282846    -5.256168    368.34001   0.04442113  0.045417621            3 
  692000    1.0024095   -5.2874198    368.30109  0.044352251  0.045389125           11 
  693000   0.97888768   -5.3222628    368.65939  0.044331336   0.04536016            3 
  694000   0.96422902   -5.3403262    368.21168  0.044213699  0.045331105            4 
  695000   0.97949044   -5.2778233     369.7536  0.044334965   0.04530205            2 
  696000    0.9768904   -5.2934658    369.34609  0.044222473  0.045273884            5 
  697000   0.97278509   -5.3157712    369.70054  0.044201404  0.045244789            6 
  698000   0.97395754   -5.3276106    368.80183  0.044030782  0.045216105            5 
  699000   0.97259207    -5.341227    370.83177  0.044209796  0.045187428            3 
  700000    0.9541648   -5.2967837    370.46766  0.044103293  0.045158513            3 
  701000   0.96519574   -5.3207388    371.07322  0.044112365  0.045129447            3 
  702000   0.99131914   -5.3111756    370.80733  0.044017964  0.045100387            4 
  703000   0.96403343   -5.3061852    371.26208  0.044009256  0.045071455            2 
  704000   0.97686359   -5.3615779    370.50536  0.043857169  0.045042178            6 
  705000   0.96939559   -5.3328442    371.73169  0.043939916  0.045013136            4 
  706000   0.96303233   -5.3174252    373.30245  0.044063085   0.04498463           16 
  707000    0.9634038   -5.3164956    372.68757  0.043928285  0.044955775            5 
  708000   0.96896177   -5.3175197    373.10233  0.043915058  0.044926522            3 
  709000   0.93962818   -5.3176936    372.69006  0.043804661  0.044898105            3 
  710000   0.97382705    -5.305506    373.86351  0.043880693  0.044869433            3 
  711000   0.96923473    -5.348631    372.28484  0.043633947  0.044840247            4 
  712000   0.96638463   -5.3327906    374.86931  0.043875154  0.044811211            4 
  713000   0.98097223   -5.3558055    374.99544  0.043828359  0.044782285            3 
  714000   0.96538057   -5.3424373    374.45073  0.043703399  0.044754013            2 
  715000   0.95203958   -5.3039343    376.92738   0.04393093  0.044725932            3 
  716000   0.94653997    -5.310646    375.89462  0.043749374   0.04469778            7 
  717000    1.0005717   -5.3246386    376.28831  0.043734114  0.044669534            3 
  718000   0.94934131   -5.3735087    374.34562  0.043447727  0.044641158            5 
  719000   0.97294538   -5.3326733    376.97977  0.043692602  0.044612866            3 
  720000   0.96589929   -5.3232241    377.43275  0.043684346  0.044585241            7 
  721000   0.96613064   -5.3441365    378.38468  0.043733781  0.044557628            7 
  722000   0.97725294   -5.3333937    378.56541  0.043694068  0.044530112            2 
  723000   0.97130201   -5.3421805    379.24741  0.043712241  0.044502724            4 
  724000   0.95319075     -5.32182    380.00204  0.043738725   0.04447568            4 
  725000   0.96420205   -5.3571627    377.77458  0.043422365  0.044448654            2 
  726000   0.96329658   -5.3577298    378.57116   0.04345399  0.044421351            3 
  727000   0.95224869   -5.3380413    379.99062  0.043556926  0.044393699            6 
  728000   0.97390124   -5.3414903    380.65536  0.043573186  0.044366138            1 
  729000    0.9769492   -5.3286001    381.00144  0.043552977  0.044338737            4 
  730000   0.97762344   -5.3304882    380.75869  0.043465604  0.044311567            4 
  731000   0.95229712   -5.3543631    380.29826  0.043353655  0.044284124            6 
  732000    0.9520553   -5.3109544    383.63032  0.043673761  0.044257056            2 
  733000   0.95463079   -5.3294962    382.05393  0.043434962  0.044229839            4 
  734000   0.95995655    -5.382567    381.35676  0.043296634  0.044202113            4 
  735000    0.9417633   -5.3487793    381.69453  0.043276023  0.044174306            5 
  736000   0.96365097   -5.3752768    381.68051  0.043215637  0.044146405            4 
  737000   0.94963161   -5.3371692    382.92543  0.043297764  0.044118916            3 
  738000   0.96160446   -5.3526902    382.14536  0.043151012  0.044091627            6 
  739000   0.95736536   -5.3514973    384.43033  0.043350285  0.044064528            2 
  740000    0.9752295   -5.3299084    384.14656  0.043259748    0.0440379            2 
  741000   0.96354642   -5.3451658    384.68773  0.043262228  0.044010467            6 
  742000   0.95657449   -5.3450481    384.76421  0.043212512  0.043983577            2 
  743000   0.96435567   -5.3647935    385.61874  0.043250196  0.043956904            3 
  744000    1.0006461   -5.3579154    386.78471   0.04332266  0.043930206            7 
  745000   0.93860257   -5.3208437    386.49293  0.043231872  0.043903561            3 
  746000    0.9420072   -5.3290903    386.65648   0.04319219  0.043876493            3 
  747000   0.94575379   -5.3295779    387.00635  0.043173399  0.043849939            6 
  748000    0.9410731    -5.331361    388.08276  0.043235601   0.04382297            2 
  749000   0.97681599   -5.3756532    387.15408  0.043074552  0.043796543            7 
  750000   0.96516036   -5.3349931    388.61431  0.043179368  0.043770425            4 
  751000   0.95052313   -5.3312574    389.48728   0.04321874   0.04374454            7 
  752000   0.97347958   -5.3396922    389.52667  0.043165633  0.043718797            4 
  753000   0.94917381   -5.3481124    388.80366  0.043028294  0.043693391            5 
  754000   0.94419018   -5.3874835    390.17944   0.04312328  0.043667784            3 
  755000   0.97262144   -5.3427867    392.04917  0.043272535  0.043642683            5 
  756000   0.96896812   -5.3520137    390.86488  0.043084753  0.043617922            4 
  757000   0.94166689   -5.3299634      392.783  0.043238991  0.043593566            5 
  758000   0.96462071    -5.339764    392.38211  0.043137875  0.043568806            4 
  759000    0.9269748   -5.3639072    390.96217  0.042925139  0.043543876            4 
  760000   0.94108277   -5.3866592    391.73585  0.042953493  0.043518788            6 
  761000   0.96743292   -5.3723077    393.23028  0.043060697  0.043494233            7 
  762000   0.92960844   -5.3831278    392.71268  0.042947581  0.043469707            5 
  763000   0.95395154   -5.4039356     392.4657  0.042864319  0.043445439            3 
  764000   0.94830188   -5.3802656    392.62178  0.042825238  0.043420516            5 
  765000   0.92680165   -5.3715076    393.91444   0.04291007  0.043396276            6 
  766000    0.9533662   -5.3576349    395.13177  0.042986485  0.043372019            2 
  767000   0.96949332   -5.3549452    395.71243  0.042993528  0.043347536            3 
  768000   0.94325341   -5.3264505    395.41045   0.04290478  0.043323562            3 
  769000   0.94481913   -5.3703899    395.47549  0.042856035  0.043299699            4 
  770000   0.93300101   -5.3693828    395.69475  0.042824108   0.04327558            3 
  771000   0.94906339   -5.3917117    397.48599  0.042962169  0.043251405            4 
  772000   0.94749043   -5.3768212    397.32574  0.042889221  0.043227557            6 
  773000   0.94352555   -5.3786477    396.43513  0.042737724  0.043203497            4 
  774000   0.96413286   -5.4003604    397.11913   0.04275615  0.043179122            2 
  775000   0.92759594   -5.3853709    398.26891  0.042824614  0.043154842            7 
  776000    0.9438863   -5.3569815    397.03378  0.042636789  0.043130668            3 
  777000   0.92388504    -5.397281      398.097  0.042695946  0.043106417            4 
  778000   0.92876985   -5.4022825    398.42171  0.042675847  0.043081798            4 
  779000   0.95012202    -5.429782    396.98557  0.042467433  0.043057082            3 
  780000   0.93251309   -5.3603423    399.71695  0.042704802  0.043032647            4 
  781000   0.93731504    -5.400031    397.45218  0.042408469  0.043008043            3 
  782000    0.9406361   -5.3994416    399.53679  0.042576385  0.042983052            4 
  783000    0.9431074   -5.3716114    399.40766  0.042508265  0.042958254            5 
  784000   0.93259265   -5.3966334    399.46091  0.042459705  0.042933671            2 
  785000   0.94012309   -5.3509155    401.60386  0.042633106  0.042909034            8 
  786000   0.96638098   -5.3940846     400.9797  0.042512691   0.04288447            4 
  787000    0.9328828    -5.357655    401.90116  0.042556243   0.04286046            9 
  788000   0.92058175   -5.3935794     401.8817  0.042500179  0.042836082            3 
  789000   0.93005922   -5.3954692    399.59426  0.042204717  0.042811266            4 
  790000   0.92356974   -5.3613324    402.12729   0.04241849  0.042786197            4 
  791000   0.92725639   -5.3523637    403.23691  0.042481765  0.042761202            3 
  792000    0.9273556    -5.347723    401.97856  0.042295724  0.042736264            4 
  793000   0.91896633   -5.4423185    401.30918  0.042172045  0.042711614            3 
  794000   0.94633179   -5.4010898    402.42595  0.042236141  0.042686951            5 
  795000   0.92900472   -5.3635613    403.44889   0.04229024  0.042662427            3 
  796000   0.95051185   -5.3741351    404.95535  0.042394823   0.04263821            2 
  797000    0.9521913   -5.3712229    404.51579  0.042295671  0.042614006            3 
  798000   0.95182698   -5.3813386    404.14506  0.042203954  0.042589726            2 
  799000   0.91442498   -5.3766988     404.0986  0.042146287  0.042565754            3 
  800000   0.93373369   -5.4266395    404.77016  0.042163558  0.042540974            2 
  801000   0.93083916   -5.3551375     406.7427  0.042316136  0.042517102            3 
  802000   0.92310542   -5.3964962    404.15563  0.041994558  0.042493286            4 
  803000   0.93874621   -5.4028607    405.55865  0.042087863  0.042468799            3 
  804000   0.93072163   -5.3927466    405.37089  0.042016054  0.042444261            6 
  805000   0.93589776   -5.4095566    405.53192   0.04198053  0.042419259            9 
  806000    0.9284703    -5.405556      406.968  0.042076923  0.042394958            3 
  807000   0.92501405   -5.4093363    406.15358  0.041940683  0.042370436            9 
  808000   0.92923038   -5.3993905    406.46661  0.041921061  0.042345883            5 
  809000   0.93631031   -5.4214064    406.76912  0.041900404  0.042321858           12 
  810000   0.94486859    -5.424931    406.54044  0.041825148  0.042297247            6 
  811000   0.93693745   -5.4027268    407.79101  0.041902076  0.042272928            4 
  812000   0.92679349   -5.3641443    409.21018  0.041996119  0.042248398            3 
  813000    0.9363216   -5.4053009    408.51874  0.041873589  0.042223948            3 
  814000   0.92583308   -5.3990545    409.26949  0.041899006  0.042199487            5 
  815000   0.92166067   -5.4160862    407.25059  0.041641165  0.042175014           10 
  816000   0.92450529    -5.404129    409.08464  0.041777434   0.04215048            3 
  817000   0.91773401   -5.4146561    409.80247  0.041799517  0.042126415            4 
  818000   0.94969432   -5.4269236    410.10461  0.041779198  0.042101788            5 
  819000   0.94905648   -5.4148238     409.7518  0.041692288   0.04207739            3 
  820000   0.93811055   -5.4185857    409.98398  0.041665039  0.042052576           11 
  821000   0.92136983   -5.4405433    410.18542  0.041634736  0.042027667            5 
  822000   0.91784158   -5.4052668    410.81546  0.041647959   0.04200324            4 
  823000   0.92450107   -5.4309499    410.64093  0.041579681  0.041978947            7 
  824000   0.92238999   -5.4648048    409.23725  0.041387262   0.04195407            5 
  825000   0.94025265   -5.4320403    409.77948  0.041391867  0.041929082            3 
  826000   0.92811655   -5.4410135    411.78004  0.041543587  0.041904376            8 
  827000   0.93488122    -5.399669    411.82311  0.041497694  0.041879815            5 
  828000   0.93285312   -5.4337832     412.1747  0.041482961  0.041855181            5 
  829000   0.93651666   -5.3981584    412.95439  0.041511297  0.041830305            4 
  830000   0.92313039   -5.4260636    412.35338  0.041400942  0.041805826            7 
  831000   0.91853093   -5.4604651    413.34205  0.041450266  0.041781054            3 
  832000   0.92338461   -5.4216531    413.36776  0.041403021  0.041756433            4 
  833000   0.92150831   -5.3869446    414.04358  0.041420926  0.041731944            7 
  834000   0.92849863   -5.4077465    414.04848  0.041371751  0.041707834            6 
  835000   0.94815371   -5.4188226    413.54163  0.041271619  0.041683596            4 
  836000   0.92318491   -5.4223052    415.46951  0.041414425  0.041659428           12 
  837000   0.92615853   -5.4155108    415.34075  0.041352126  0.041635143            3 
  838000   0.90560885   -5.4594676    413.15131  0.041085055  0.041610705            4 
  839000   0.90528977   -5.4196059    416.37447  0.041356225  0.041586234            5 
  840000   0.93901651   -5.4505627    414.38847  0.041109967  0.041561812            7 
  841000   0.90447989   -5.4438946    415.30719  0.041152119  0.041536924            3 
  842000   0.89810782   -5.4607407    414.94956  0.041067851  0.041512181            4 
  843000   0.92518792   -5.4030989    417.64232  0.041285322  0.041487543            4 
  844000   0.92167079   -5.4126533    416.32653   0.04110649  0.041462861            4 
  845000   0.92303107   -5.4349389     416.9343  0.041117781  0.041437921            5 
  846000   0.90181074    -5.423711    416.26272  0.041003026   0.04141341            5 
  847000   0.90847449   -5.4330138    415.61576  0.040890964  0.041388445            5 
  848000   0.93134246   -5.4468961    417.01491  0.040980239  0.041363606            7 
  849000    0.9042179   -5.4668223    416.88566  0.040919284  0.041339045            5 
  850000    0.9134575   -5.4720538    416.61684  0.040844788  0.041313891            9 
  851000   0.91802933   -5.4445876    417.58622  0.040891718  0.041289018            4 
  852000   0.90682861   -5.4128481    419.20307  0.041001865  0.041264183            4 
  853000   0.90955506   -5.4442185     418.4943  0.040884554    0.0412397            5 
  854000   0.89988572   -5.4648018    416.86718  0.040677906  0.041215049            3 
  855000   0.92179891   -5.4459781     419.7591  0.040912193  0.041190224            3 
  856000   0.90548419   -5.4292663    417.72644  0.040666515  0.041165115            3 
  857000   0.91380276   -5.4324644    418.01804  0.040647417  0.041140285            7 
  858000    0.9329536   -5.4342991    419.78021  0.040771194  0.041115467            2 
  859000   0.89891834   -5.4825439    418.25406  0.040575675  0.041090704            8 
  860000   0.90729066   -5.4450663    418.28606  0.040531595  0.041065598            5 
  861000   0.91669266   -5.4663855    420.03863  0.040654145  0.041040405            4 
  862000   0.90807167   -5.4781865    418.43698  0.040452144  0.041015372            6 
  863000    0.9183317   -5.4520482    420.61869  0.040615942  0.040990436            4 
  864000   0.91000353   -5.4363056    421.22913  0.040627809   0.04096597           10 
  865000   0.91017983   -5.4800018    420.97878  0.040556723  0.040941518            5 
  866000   0.90241675   -5.4712741    421.11869  0.040523354  0.040916597            4 
  867000   0.91883074   -5.4741902     422.5191  0.040611217  0.040891873            9 
  868000   0.91959163   -5.4337422    423.00506  0.040611085  0.040867198            4 
  869000   0.92013637   -5.4662044    422.45285  0.040511397  0.040842613            4 
  870000   0.90691606   -5.4483636    423.86129   0.04059974  0.040818121            6 
  871000   0.89489976    -5.433391    422.66541  0.040438711  0.040793995            3 
  872000   0.90899676    -5.429869     423.6635   0.04048772  0.040769595            3 
  873000   0.90553157   -5.4348883    423.88917  0.040462884  0.040745186            5 
  874000    0.9022931   -5.4751762    423.02749  0.040334429  0.040720454            3 
  875000   0.91000795   -5.4633964    422.49409  0.040237533  0.040695367            9 
  876000   0.90215027    -5.455612    424.26319  0.040359893  0.040670355            4 
  877000    0.9030976   -5.4478253     422.3727  0.040134236  0.040644928            3 
  878000   0.91673323   -5.4504325    424.59384   0.04029934  0.040619573            6 
  879000   0.91442916   -5.4540333     423.1881  0.040120222  0.040594187            4 
  880000   0.88808588   -5.4384294     424.6071  0.040209006  0.040568895           10 
  881000   0.91484107   -5.4525583    424.27594  0.040132041  0.040543749            3 
  882000   0.92230651   -5.4698591    423.68268  0.040030487  0.040518566            6 
  883000   0.89218828   -5.4857816    424.38719  0.040051641   0.04049328            2 
  884000   0.90108395   -5.4660369    425.67703  0.040127925  0.040467881            9 
  885000    0.9166905   -5.4604555    423.99026  0.039923754  0.040442758            6 
  886000   0.91146158   -5.4343748    426.09319  0.040076486  0.040417706           10 
  887000   0.89415511   -5.4561395    426.75934  0.040093888  0.040393015           11 
  888000   0.91012708   -5.4880714    424.67921   0.03985353  0.040367811            6 
  889000   0.89830593   -5.5041495    424.77228  0.039817424  0.040342581            5 
  890000    0.8951239   -5.4464927    426.54975  0.039939115  0.040317246            4 
  891000   0.90000741   -5.4820038    426.01574  0.039844345  0.040292173            4 
  892000   0.91479201   -5.4587438    426.48763  0.039843763  0.040267035            4 
  893000   0.90846732   -5.4914995    426.65178  0.039814462  0.040241953            4 
  894000   0.89276825   -5.4919331    426.33129  0.039740053  0.040216735            4 
  895000   0.89291684   -5.4763795    428.42222  0.039890337   0.04019193            4 
  896000   0.89209154   -5.4680408    428.27908  0.039832503  0.040167457            4 
  897000   0.90411183   -5.4336992    429.78671  0.039928159  0.040142957           28 
  898000   0.88216077   -5.4739265    430.59069  0.039958305  0.040118372            6 
  899000   0.87369901   -5.4945888    428.33968  0.039705198  0.040093518            4 
  900000    0.8666191   -5.4734975    427.71665  0.039603393  0.040068734            3 
  901000    0.9023095    -5.488488    430.00682  0.039771256   0.04004422            5 
  902000   0.89102756   -5.4735433    431.19521  0.039836956  0.040020077            5 
  903000   0.89447791   -5.5196638    430.94219   0.03976949  0.039995986            4 
  904000   0.88864022   -5.5105045    430.55289   0.03968961   0.03997197            6 
  905000   0.88657527   -5.4897398    431.07414  0.039693752  0.039947753            8 
  906000   0.88450306   -5.5153914    431.25371  0.039666456  0.039923524           10 
  907000    0.9044484   -5.4688618    430.14742  0.039521079  0.039899455            3 
  908000   0.88685003   -5.4645156     431.9225  0.039640464  0.039875732            3 
  909000   0.87148146     -5.48162    432.64833  0.039663396  0.039852123            8 
  910000   0.90763518   -5.5196242    433.10396  0.039661535  0.039828296            5 
  911000   0.91011408   -5.4663646     434.5119   0.03974679  0.039804833            3 
  912000   0.89719502   -5.4932065    433.66158   0.03962551  0.039781402            4 
  913000   0.88544406    -5.515566     433.6581  0.039581791  0.039757818            5 
  914000   0.89766325    -5.495091    435.34986  0.039692729  0.039734249            5 
  915000   0.88579201   -5.4885103    434.40214  0.039563036  0.039710939            6 
  916000   0.88967886   -5.4962207    434.26567   0.03950743  0.039687682            4 
  917000   0.91263211   -5.4873663    434.57559  0.039492511  0.039664237            5 
  918000    0.8928396   -5.5098748    435.47346  0.039530997  0.039640727            7 
  919000    0.8872677   -5.4993503    435.63915  0.039503006  0.039617522            9 
  920000   0.91253767   -5.4948852    434.07315   0.03931822  0.039594044            3 
  921000   0.88543994   -5.5250766    435.14787  0.039372772  0.039570881            4 
  922000   0.86317038    -5.521982     436.2933  0.039433596  0.039547573            4 
  923000   0.86738152   -5.5077165    436.22426  0.039384639  0.039524287            4 
  924000   0.87707179   -5.5287782    435.85027  0.039308286  0.039501093            5 
  925000   0.89008664   -5.5158956    436.93637  0.039363637  0.039477596            3 
  926000   0.87906394   -5.5005963    436.62104   0.03929275  0.039454171            8 
  927000   0.87152119   -5.5019607    435.68181   0.03916593  0.039430311           10 
  928000   0.88886308   -5.4888002    435.96867  0.039149485  0.039406586            3 
  929000   0.87190208   -5.4806807    438.17982  0.039305688  0.039383162            2 
  930000   0.86304653   -5.5031205    438.81129  0.039320008  0.039359988           14 
  931000   0.88773845   -5.5096355    437.86936  0.039193463  0.039336335            3 
  932000   0.87681341   -5.4798388    438.25805  0.039186163  0.039312811            2 
  933000   0.89584981   -5.5120273    437.77829  0.039101312  0.039289322            2 
  934000   0.87104829   -5.4895081    438.08317   0.03908665  0.039265666            6 
  935000   0.89899719   -5.5081028    437.12692  0.038959618  0.039241886           17 
  936000    0.8804668   -5.4953693      438.683  0.039056535  0.039217812            3 
  937000   0.86870156   -5.5101277    438.16993  0.038969222  0.039193751            3 
  938000   0.88594875   -5.5139107    437.74528   0.03888995  0.039169333            5 
  939000   0.88561899   -5.5291989    437.67696  0.038842471  0.039145303            3 
  940000   0.89057801   -5.5334543    438.23751  0.038850843  0.039120849            5 
  941000   0.88253704   -5.5052075    439.05248  0.038881729  0.039096504            4 
  942000    0.8901079   -5.5564397    438.67261  0.038806848  0.039072037            4 
  943000   0.85991126   -5.5521123    437.11936  0.038628434  0.039047354            4 
  944000   0.86975072    -5.535382    439.70512  0.038815777  0.039023001            4 
  945000    0.8837895   -5.5099079    439.31195  0.038740031  0.038998659            5 
  946000   0.88485734   -5.5432201    438.48871   0.03862656  0.038974509           10 
  947000   0.86304095   -5.5108381    439.73211  0.038695187  0.038950149            4 
  948000   0.85171713   -5.5160542    439.73146  0.038654313   0.03892576            5 
  949000   0.87195639   -5.4947587    439.46637  0.038590303  0.038901302            3 
  950000   0.88653777   -5.5560858    438.98404  0.038507372  0.038876922            8 
  951000   0.89545793   -5.5355707     440.1549   0.03856948  0.038852621            4 
  952000   0.86361101   -5.5030475    441.80742  0.038673619  0.038828524            5 
  953000   0.88617194   -5.5370323    440.90266  0.038553923  0.038804244            7 
  954000   0.86579212    -5.526872    440.39822  0.038469446  0.038779543            6 
  955000   0.86564945   -5.5332191    441.47921  0.038523491  0.038755614            6 
  956000   0.87619763   -5.5134418    441.72294   0.03850444  0.038731442            2 
  957000   0.85609773   -5.5596053    440.79427  0.038383339  0.038707254            5 
  958000   0.88047736   -5.5188653    441.82021  0.038432517  0.038683195            9 
  959000   0.87857518   -5.5469223    442.11309  0.038417891  0.038659305            8 
  960000   0.87946915   -5.5262638    443.27014  0.038478311  0.038635433            6 
  961000   0.87790885   -5.5321866     442.3003  0.038354171  0.038611432            5 
  962000    0.8694508   -5.4967393     443.2719  0.038398466  0.038587444            6 
  963000   0.87116735   -5.5187871    442.66672  0.038306224  0.038563299            5 
  964000   0.85547241   -5.5348883    444.34376  0.038411459  0.038539117            4 
  965000    0.8707125   -5.5261791    443.94074  0.038336852  0.038514952            7 
  966000   0.88514861   -5.5517733    444.21596  0.038320907  0.038491415            3 
  967000   0.85909214    -5.547702    444.22307  0.038281891  0.038467656            5 
  968000   0.84730801   -5.5217543    444.44549  0.038261492  0.038443833           10 
  969000   0.87269482   -5.5311138    445.39278  0.038303472   0.03842054           15 
  970000   0.84832099   -5.5623434      445.555  0.038277921  0.038396956            5 
  971000   0.87232284   -5.5230163    445.25771  0.038212986  0.038373262            7 
  972000   0.88926824   -5.5029567    445.10679  0.038160733  0.038349901            7 
  973000   0.86783401   -5.5666558    445.00179   0.03811252  0.038326281            2 
  974000   0.86676013   -5.5144579    447.61914  0.038297325  0.038302909            3 
  975000   0.87232614   -5.5615326    445.57282  0.038083147  0.038279376            3 
  976000   0.86053542   -5.5550073    446.47053  0.038120776  0.038255692            6 
  977000   0.85295652   -5.5245423    447.16383  0.038140893  0.038232099            3 
  978000   0.85676511   -5.5667815    445.82483    0.0379878  0.038208459            4 
  979000   0.87089866   -5.5490931     446.3077  0.037990101   0.03818458            2 
  980000   0.85408875   -5.5498581     447.5784  0.038059388  0.038160626            6 
  981000   0.86511753   -5.5430776    447.36418  0.038002393   0.03813673           10 
  982000   0.85385127   -5.5659287    447.30897  0.037959009  0.038113352            7 
  983000   0.86363421   -5.5301697    448.12149  0.037989275  0.038089848            3 
  984000   0.85855666   -5.5674223    447.84825  0.037927528  0.038066426            7 
  985000   0.84791888   -5.5661261    448.00613   0.03790238  0.038042511            2 
  986000   0.88838324   -5.5918341    447.05822  0.037783825  0.038018536            5 
  987000   0.86478516   -5.5447968    447.90139  0.037816733  0.037994567            5 
  988000   0.84121566   -5.5433935    448.40729  0.037821128  0.037970852            2 
  989000   0.85461483   -5.5727517    447.28666  0.037688462  0.037947173            5 
  990000   0.86773993   -5.5437314    448.96569  0.037791725  0.037923478            4 
  991000   0.85908055   -5.5514029    447.75355  0.037651661  0.037899639            5 
  992000   0.85924945   -5.5891588    448.87736  0.037708111  0.037875892            7 
  993000   0.88270057   -5.5792521    449.27479  0.037703491  0.037851781            4 
  994000   0.84303646   -5.5751444    449.45698  0.037680833  0.037827646            6 
  995000   0.85602512   -5.5705935     449.3117  0.037630796  0.037803273            6 
  996000   0.84712309   -5.6074522    446.96969  0.037397063  0.037779025            6 
  997000   0.86300724    -5.582172    448.53685  0.037490542  0.037755008            6 
  998000   0.85287329   -5.5917174    449.28392  0.037515357  0.037731191            5 
  999000   0.84047789   -5.5595429    450.75454  0.037600479  0.037707606            5 
 1000000   0.86182245   -5.5616983    450.52478  0.037543732  0.037684019            4 
 1001000   0.85486062    -5.574507    450.64234  0.037516012  0.037660542            4 
 1002000   0.85701979   -5.5646881    449.64527  0.037395648  0.037636643            4 
 1003000   0.85766559   -5.5757653    451.95497  0.037550264   0.03761306           10 
 1004000   0.84296352   -5.5897936    450.76334  0.037413956  0.037589335            6 
 1005000   0.83845442   -5.5450656    452.84039  0.037548954  0.037565982            6 
 1006000   0.85953387   -5.5768046    451.45948  0.037397239  0.037542316            9 
 1007000   0.85615091   -5.5757608    452.36622  0.037435139  0.037519016            6 
 1008000   0.85018471   -5.5615208    452.71068  0.037426478   0.03749559            3 
 1009000   0.83204818   -5.5848725    452.69878  0.037388403  0.037471817           11 
 1010000   0.86424337   -5.5996795    452.34464  0.037322165  0.037447992            7 
 1011000   0.86482366   -5.5770825    452.46578  0.037295234  0.037424159            7 
 1012000     0.830354   -5.5895213    452.85385  0.037290337  0.037400485            4 
 1013000   0.85652551   -5.5841819    452.07017  0.037189057  0.037377109            6 
 1014000   0.86528343   -5.5816136     452.5242  0.037189694  0.037353433            8 
 1015000   0.85858829   -5.6015209    452.41464  0.037144059  0.037329834            8 
 1016000    0.8406865   -5.6027467    452.58246  0.037121265  0.037306048            5 
 1017000   0.83606745   -5.5562825    454.69964  0.037258246  0.037282535            4 
 1018000   0.84709673    -5.575485    453.42971  0.037117691   0.03725925            3 
 1019000   0.82037377    -5.598194     453.9502  0.037123831  0.037235807            4 
 1020000   0.85514854   -5.5499953    454.99242  0.037172583  0.037212247            6 
 1021000   0.85637416   -5.5776004    454.46127  0.037092824  0.037188804            6 
 1022000   0.85194758   -5.6196292    453.75819    0.0369992  0.037165121            6 
 1023000   0.85003511   -5.5956836    454.83043  0.037050377  0.037141513           14 
 1024000   0.84220953   -5.5710021    456.10366  0.037117811  0.037118028            8 
 1025000   0.84966357    -5.577658    456.46748  0.037111177  0.037095032            3 
 1026000   0.84573464   -5.6101371    456.44592  0.037073255  0.037071886            3 
 1027000   0.85173169    -5.586014    456.84336  0.037069406   0.03704868            8 
 1028000   0.85184009   -5.5781406     456.1732  0.036979021  0.037025719            6 
 1029000   0.83401249   -5.5613627    456.14015  0.036940408  0.037002575            3 
 1030000   0.83810142   -5.6089213    455.99496  0.036892796  0.036979713            4 
 1031000   0.84199194   -5.6022135    455.60723  0.036825673  0.036956627            5 
 1032000   0.84771779   -5.6061173    455.95795   0.03681831  0.036933163            4 
 1033000   0.84934252    -5.597373    456.14127  0.036797456   0.03690975            7 
 1034000   0.83862565   -5.5830986    457.18316  0.036845838  0.036886695            2 
 1035000   0.84083129   -5.6031083    455.76707  0.036696222  0.036863326            4 
 1036000   0.83891129   -5.5820279    456.87956  0.036750286  0.036840303            4 
 1037000   0.83695398   -5.6453833    456.08745  0.036651194  0.036816839            4 
 1038000   0.83646917   -5.6158251    457.90279  0.036761624  0.036793316            3 
 1039000   0.84262457   -5.6324291    457.24985  0.036673873   0.03677016            3 
 1040000   0.84974038   -5.6115146    456.68085  0.036593017  0.036746766            5 
 1041000   0.82211766    -5.612695    457.50609  0.036623927  0.036723488            7 
 1042000   0.82660756   -5.6230842    457.48485   0.03658708  0.036700146           39 
 1043000   0.84000522   -5.6175787    458.53074  0.036635566  0.036676889            6 
 1044000   0.83970488   -5.6240807    458.33567  0.036584904  0.036653577            7 
 1045000   0.83319818   -5.5972969    458.25883  0.036543767  0.036630306            3 
 1046000   0.82628815     -5.57886     459.2775  0.036589986  0.036607223            5 
 1047000   0.83409526    -5.578772    459.47986  0.036571145  0.036584155            6 
 1048000   0.84073646   -5.6053239    459.63912  0.036548912  0.036561004            3 
 1049000   0.83318343   -5.6018344    459.31568  0.036488376  0.036537816            8 
 1050000   0.84391733   -5.6306375    458.43409  0.036383658  0.036514498           11 
 1051000   0.83169426   -5.6002326    458.88614  0.036384882  0.036491329            7 
 1052000   0.83336986   -5.6218253    459.60124  0.036406942  0.036468335            7 
 1053000   0.84973894   -5.6122247    461.08657  0.036489915  0.036445198            7 
 1054000   0.81990513   -5.6110789    460.29811  0.036392956  0.036421923            3 
 1055000   0.83260792   -5.6034053    461.44416  0.036448986  0.036398642            8 
 1056000   0.83565813   -5.6301806    459.02141   0.03622328  0.036375427            6 
 1057000   0.81533831   -5.6292539    460.78158  0.036327781   0.03635223            4 
 1058000   0.84617127   -5.5986642    461.23975  0.036329533  0.036329247            2 
 1059000   0.83002204   -5.6222089     462.1809  0.036369287  0.036306367           10 
 1060000   0.81550577     -5.61353     462.7327  0.036378357  0.036283444            5 
 1061000   0.79738191   -5.6360942    461.93217  0.036281194  0.036260452            5 
 1062000   0.82557103   -5.6126676    462.42487  0.036285693  0.036237561            9 
 1063000   0.84098578   -5.6282836    462.11259  0.036227076  0.036214764            5 
 1064000    0.8238024   -5.6359417    461.67241  0.036158553  0.036191834            5 
 1065000   0.84241399   -5.6265906    462.75681  0.036209453  0.036168984            9 
 1066000   0.83587264   -5.6159075     463.0127   0.03619549  0.036146612            7 
 1067000   0.82912121   -5.6127827    462.92331  0.036154585  0.036124193            4 
 1068000   0.81644083   -5.6161382    463.59088  0.036172821  0.036101219            7 
 1069000   0.82448371   -5.6291902    464.20693  0.036187007  0.036078646            4 
 1070000   0.83080495   -5.6204275    463.69581   0.03611338  0.036056066            7 
 1071000   0.81649847     -5.64757    464.00145  0.036103443  0.036033515            3 
 1072000   0.80636328   -5.6276297    463.49498  0.036030393  0.036010945            6 
 1073000   0.82428444    -5.628683    463.91526  0.036029455  0.035988394           10 
 1074000   0.84196242   -5.6318734     464.0724  0.036008101  0.035965632            7 
 1075000     0.829199   -5.6365391    465.38197  0.036076122  0.035942806            4 
 1076000   0.83777647   -5.6523794    462.99465  0.035857702  0.035920083            4 
 1077000   0.82819177   -5.6080006    465.94637  0.036052798  0.035897294            6 
 1078000   0.82241872   -5.6299089    464.47003  0.035905228  0.035874436            5 
 1079000   0.81335463   -5.6645834    463.78034  0.035818685  0.035851621            6 
 1080000   0.83837858   -5.6247329    465.95549  0.035953355  0.035828842            4 
 1081000   0.81463841   -5.6371248    465.28394  0.035868327  0.035806281            4 
 1082000   0.81421586   -5.6295918    466.62665   0.03593859  0.035783585            3 
 1083000   0.80969069   -5.6158751    465.75657  0.035838456  0.035761114            3 
 1084000   0.81114435   -5.6415606     463.1582  0.035605643  0.035738102            5 
 1085000   0.81836935   -5.6605779    464.37338  0.035666158   0.03571494            6 
 1086000   0.80742863   -5.6658827    465.63731  0.035730303  0.035692041           10 
 1087000   0.81313938   -5.6504177    465.83396  0.035712509  0.035669101            6 
 1088000   0.81433136   -5.6213263     465.4451    0.0356499  0.035646182            4 
 1089000   0.81550432   -5.6382787    465.88553  0.035650867  0.035623299            6 
 1090000   0.83039575   -5.6074963    467.53951  0.035744611  0.035600599            3 
 1091000   0.82245146   -5.6603295    466.69505  0.035647345  0.035577969            7 
 1092000   0.80068587    -5.621999    466.98045  0.035636481  0.035555539            5 
 1093000   0.80603631   -5.6452376    467.60329  0.035651364  0.035532758            7 
 1094000   0.82355911   -5.6424409    465.64054  0.035469267  0.035509898            4 
 1095000   0.82951412    -5.646804    467.34155  0.035566328   0.03548718            8 
 1096000   0.80981476     -5.65039     467.6886  0.035560265  0.035464467            3 
 1097000   0.81083204   -5.6466839    467.22461  0.035492602  0.035441822            5 
 1098000   0.81481837   -5.6736495    468.97137  0.035592848   0.03541932            6 
 1099000   0.80734534   -5.6435809    467.10673  0.035419073   0.03539659            7 
 1100000   0.81295526   -5.6707592    467.66851  0.035429432  0.035373809           10 
 1101000   0.81574906   -5.7065493    466.10117  0.035278623   0.03535088            5 
 1102000   0.82614497   -5.6544816    467.60594  0.035360401  0.035328059            6 
 1103000     0.786094   -5.6450074    468.84675  0.035422087   0.03530542            8 
 1104000    0.8021815   -5.6590829    468.73185  0.035381329  0.035282775            2 
 1105000   0.81692811   -5.6433055    469.66194  0.035419452  0.035260361            5 
 1106000   0.81249466   -5.6653614    469.05348  0.035341583  0.035237913            5 
 1107000   0.80267619   -5.6579867    467.65424  0.035204324  0.035215099            4 
 1108000   0.84732342   -5.6638256    468.05728  0.035202864  0.035192765            8 
 1109000   0.82238501     -5.66142    469.07233  0.035247395  0.035170182            5 
 1110000   0.82222499   -5.6772266     468.5732  0.035178168  0.035147738            7 
 1111000   0.81375738   -5.6272963    471.04951  0.035332246  0.035125507            6 
 1112000   0.82713061   -5.6704973    470.48741  0.035258349  0.035103455           16 
 1113000   0.80951209   -5.6828054    469.56286  0.035157447  0.035081383            6 
 1114000   0.80549198   -5.6915001     471.1777  0.035246686  0.035059162            9 
 1115000   0.81163478   -5.6633398    472.01944  0.035277985  0.035037042            5 
 1116000   0.80428029   -5.6999129    469.67824  0.035071554  0.035014803            4 
 1117000   0.82123623   -5.6505251    470.71296   0.03511735  0.034992627            6 
 1118000   0.80609402   -5.6817873    471.52991  0.035146833  0.034970836            6 
 1119000   0.80376027   -5.6791104    473.00393  0.035225196   0.03494891            6 
 1120000   0.80585438   -5.6770225    472.03453  0.035121617  0.034927072            6 
 1121000   0.80793759   -5.6904293    472.70039  0.035139785   0.03490501            7 
 1122000   0.79144669   -5.6631121    471.62243  0.035028404  0.034883295            6 
 1123000   0.81874829    -5.669298     472.1019  0.035032791  0.034861384            9 
 1124000   0.80729133    -5.698695     472.8468  0.035056851  0.034839524            6 
 1125000   0.80575185   -5.7005253     472.9202  0.035031126   0.03481743            4 
 1126000   0.78935206   -5.6722858    474.50758  0.035117494   0.03479571            3 
 1127000   0.82558429   -5.7005532    473.29855  0.034996935  0.034773996           14 
 1128000   0.82118114   -5.7012379     473.2425  0.034961768  0.034752374            4 
 1129000   0.80670129   -5.6682163    474.39572  0.035015923  0.034730705            7 
 1130000   0.80285266   -5.7086224    473.48325  0.034917644  0.034708911            9 
 1131000   0.80618973   -5.6863011    474.17155  0.034937485  0.034687168            6 
 1132000   0.80156588   -5.6878836    475.81582  0.035027666  0.034665558            5 
 1133000    0.8102762   -5.7029032    474.15468  0.034874572   0.03464413            6 
 1134000   0.80401624   -5.6685472    475.36759   0.03493295  0.034622776            6 
 1135000   0.79169094   -5.6808412    474.77671  0.034858789  0.034601486            6 
 1136000   0.79991256   -5.6863511    474.27535  0.034791326  0.034579918           18 
 1137000   0.80798395   -5.7056204    475.45759  0.034847375   0.03455842            9 
 1138000   0.77339452   -5.7540321    474.45639  0.034743438  0.034536822            7 
 1139000   0.79669366   -5.6939706    476.34322  0.034850982  0.034515212            6 
 1140000   0.79405403   -5.6901711    475.78572  0.034779658  0.034493837            4 
 1141000   0.79966619   -5.7034194     475.7707  0.034748079  0.034472494            4 
 1142000   0.79653732   -5.7051422    475.38999  0.034689871  0.034450964            6 
 1143000   0.80774766   -5.6826355    476.31677  0.034727091  0.034429624            4 
 1144000    0.7969965   -5.6747963    477.99899  0.034819274  0.034408408           10 
 1145000   0.81043594   -5.7273405    477.31849  0.034739337  0.034387241            7 
 1146000   0.80873667    -5.662877    478.54151  0.034797957  0.034366006            5 
 1147000   0.79034486     -5.67609    477.57372  0.034697306  0.034344939            8 
 1148000   0.78811984   -5.7078142    477.97225  0.034696011  0.034323775            7 
 1149000   0.80364834   -5.7154179    478.07171  0.034673028  0.034302283            5 
 1150000   0.78153903   -5.6986863     477.3889  0.034593399  0.034280961            7 
 1151000   0.78805208   -5.7113951    475.94757   0.03445899  0.034259739            4 
 1152000   0.78158824   -5.7079811    477.29775  0.034526747  0.034238421            4 
 1153000   0.79025433   -5.7555489    478.03891  0.034550369   0.03421702           11 
 1154000   0.79535377   -5.7321615    476.98003  0.034443965  0.034195756           11 
 1155000   0.79787213   -5.7053611    477.67837  0.034464529   0.03417433            8 
 1156000   0.79855566   -5.7176081    477.32447  0.034409203  0.034153147            4 
 1157000   0.79890188   -5.7236142    478.27982  0.034448273  0.034131976            8 
 1158000   0.79398184   -5.7732916    477.24548   0.03434409  0.034110907            5 
 1159000   0.79385482   -5.7228691    479.95271   0.03450911  0.034089748           19 
 1160000   0.77629012   -5.6922963    479.55083  0.034450491  0.034068605           16 
 1161000   0.78505307   -5.7456314    478.12799   0.03431869  0.034047602           10 
 1162000   0.80397104   -5.7242892    479.96571  0.034420949   0.03402662           10 
 1163000   0.79878124   -5.7357449    479.63701    0.0343678    0.0340056            6 
 1164000   0.77292012   -5.7399887    479.16838  0.034304723  0.033984471            7 
 1165000   0.79052563   -5.6789882    480.39819  0.034363247  0.033963457            6 
 1166000   0.78748331   -5.6965786    480.84488    0.0343657  0.033942572            7 
 1167000   0.79471744   -5.7363538    479.10351  0.034211904  0.033921479            3 
 1168000   0.79557246   -5.7230596    479.64307   0.03422111   0.03390034            5 
 1169000   0.80162908   -5.7251634    479.02649  0.034147882  0.033879289            6 
 1170000   0.78163876   -5.7160767    480.27716  0.034207775  0.033858041            7 
 1171000   0.79403009   -5.6862357    481.77336  0.034285038  0.033837114           13 
 1172000   0.79544089   -5.7044286    481.23805  0.034217722  0.033816241            8 
 1173000   0.78849781   -5.7079506    481.36117  0.034197298  0.033795334            7 
 1174000   0.77914395   -5.7367133    480.60948  0.034114813  0.033774289           10 
 1175000   0.80190753   -5.7163925    481.45174  0.034145514  0.033753206            7 
 1176000   0.78434215   -5.7312599    481.38478  0.034111733  0.033732452           11 
 1177000   0.77726331   -5.7549855    480.18868  0.033998066  0.033711241            4 
 1178000   0.79591144    -5.730284    480.37927  0.033982687  0.033690082            6 
 1179000   0.78376471   -5.7198938    481.71188  0.034048055  0.033668936            6 
 1180000   0.79180848   -5.7260585     481.3507  0.033993693  0.033647945            7 
 1181000   0.79160569   -5.7066528    483.41757  0.034110752  0.033626992            5 
 1182000   0.77791225    -5.747553    483.16193   0.03406387  0.033606306            7 
 1183000   0.79650115   -5.7479382    482.60878   0.03399611  0.033585378            6 
 1184000    0.7741644   -5.7335374    483.67863  0.034042697  0.033564433            4 
 1185000   0.78517359   -5.7683761    481.81146  0.033882663  0.033543495            9 
 1186000   0.79258983   -5.7478083    481.13627  0.033806652  0.033522357           12 
 1187000   0.76759239   -5.7701117     481.7905  0.033824102   0.03350124            6 
 1188000   0.79753393   -5.7427047    483.69717  0.033929375  0.033480216            4 
 1189000   0.78026749   -5.7513041    482.05651   0.03378585   0.03345918            8 
 1190000   0.77934618   -5.7428187    484.36246   0.03391894  0.033438194            6 
 1191000   0.75588677   -5.7381744    482.45479  0.033756982  0.033417155            9 
 1192000   0.77574582   -5.7344139    481.92563  0.033691669  0.033396047           10 
 1193000   0.78097766   -5.7485323    482.40724  0.033697069  0.033375099            5 
 1194000   0.77440117   -5.7460573    482.38603  0.033667367  0.033353993            7 
 1195000   0.77659448   -5.7325136    484.31184   0.03377349  0.033333033            6 
 1196000   0.78413283   -5.7536848    482.79793  0.033639767  0.033311992            9 
 1197000   0.76482486   -5.7233804    483.75807  0.033678506  0.033290932            6 
 1198000   0.78302434   -5.7551595    483.07783  0.033603077  0.033269951            6 
 1199000   0.76737869     -5.77152    482.49903  0.033534822  0.033248784            7 
 1200000   0.77470645   -5.7808739    482.24332  0.033489119  0.033227543            4 
 1201000   0.77893674    -5.780018    482.90767  0.033507332  0.033206392            4 
 1202000   0.76787899   -5.7454221    484.66249  0.033601115  0.033185253            9 
 1203000   0.76865676   -5.7514173    485.18387  0.033609301  0.033164445            7 
 1204000   0.77516842    -5.761982    483.95995  0.033496674  0.033143436            9 
 1205000   0.77226395   -5.7769856    483.63324  0.033446282  0.033122361            8 
 1206000   0.77402616    -5.772072    483.17154  0.033386646  0.033101191            9 
 1207000   0.75444144   -5.7871652    483.42397  0.033376413  0.033080015            8 
 1208000   0.78873748   -5.7865768    483.19331  0.033332872  0.033058791            7 
 1209000   0.76555947   -5.7794404    483.09337  0.033298412  0.033037493            7 
 1210000   0.76749239   -5.7659355    483.10548  0.033271727   0.03301618            5 
 1211000   0.77350946   -5.7814019    482.98759   0.03323614  0.032995043            9 
 1212000   0.77555704   -5.7624326    483.42165  0.033238562  0.032973828            4 
 1213000   0.76898984   -5.7810735    483.95805  0.033248011   0.03295261            9 
 1214000   0.77150726   -5.7701733    483.92691  0.033218486  0.032931232            8 
 1215000    0.7702673   -5.7638284    483.23394  0.033143617  0.032909957            5 
 1216000   0.75518193   -5.7793362    484.14874  0.033179053  0.032888622            8 
 1217000    0.7676885   -5.7775001    483.87632  0.033133136  0.032867227           14 
 1218000    0.7672662   -5.7658405    484.90418  0.033176258  0.032845905            4 
 1219000   0.76769087   -5.7634719     484.9582  0.033152734  0.032824605            9 
 1220000   0.77398122   -5.7646759    485.87319  0.033188059   0.03280341            7 
 1221000   0.77901052   -5.7930007    484.86204  0.033091867  0.032782191            4 
 1222000   0.77210468   -5.7783124    483.86443  0.032996756  0.032760767           12 
 1223000   0.76260944     -5.80214    484.74583  0.033029833  0.032739432            8 
 1224000   0.75059972   -5.7629115    486.31343  0.033109574  0.032718167            7 
 1225000   0.76879102   -5.7907661    485.83794    0.0330502  0.032697151            6 
 1226000   0.75201341   -5.7932409    485.13149  0.032975223  0.032675915            7 
 1227000    0.7711764   -5.8122105    485.39594  0.032966309  0.032654713           20 
 1228000   0.78652875   -5.7994357    484.86541  0.032903461  0.032633635           10 
 1229000   0.77302561   -5.7794209    485.83188  0.032942221  0.032612472           10 
 1230000   0.76106294   -5.7508481    487.27123  0.033012956  0.032591322           15 
 1231000   0.76619005   -5.7584063    485.53998   0.03286894  0.032570236            7 
 1232000   0.76148066    -5.770054    485.53874  0.032842176  0.032548924            9 
 1233000   0.76153731   -5.7942251    485.67726  0.032824903   0.03252758           20 
 1234000   0.77910019   -5.7958937    485.16291  0.032763568   0.03250629            6 
 1235000   0.76797705   -5.7881084    484.61406  0.032700004  0.032484829            7 
 1236000   0.76512622   -5.7994934    486.29749  0.032787047  0.032463261            7 
 1237000   0.74912191   -5.7896912    485.32283  0.032694882  0.032441848            6 
 1238000    0.7721338   -5.7916184    485.28328  0.032665811  0.032420219            7 
 1239000   0.76993249     -5.80097    485.38897  0.032646554  0.032398602            7 
 1240000   0.74652134   -5.7614036    485.86708  0.032652358  0.032377358            8 
 1241000   0.74661672   -5.7910491    486.92043  0.032696779  0.032355955            7 
 1242000   0.76044664   -5.7994126    484.26082  0.032492004   0.03233462            9 
 1243000   0.74309509   -5.7784073    486.64854  0.032625942  0.032313327            6 
 1244000   0.73732304   -5.7938201    486.21289  0.032570531  0.032292168           10 
 1245000   0.76033769    -5.740596    488.58864   0.03270339  0.032271136            7 
 1246000   0.73458804   -5.7875524    486.80103  0.032557587  0.032250164            6 
 1247000   0.77201604   -5.8057817    486.31624   0.03249908  0.032228955           10 
 1248000   0.74812511   -5.7938762    486.76459  0.032502977  0.032207754            6 
 1249000    0.7443642   -5.7886414     486.7755  0.032477682  0.032186542            6 
 1250000   0.77463795   -5.8108584    486.72341  0.032448227  0.032165338            3 
 1251000   0.76461052   -5.7815661    487.80953   0.03249464  0.032144297            5 
 1252000    0.7560744   -5.8041662    488.06817  0.032485901  0.032123284            6 
 1253000   0.77784791   -5.8176604    487.87517  0.032447138  0.032102291           15 
 1254000   0.75298152   -5.7771514    489.32333  0.032517499   0.03208136            9 
 1255000    0.7333633   -5.8008958    489.32016  0.032491379   0.03206027           25 
 1256000   0.76100903    -5.816493    488.32424  0.032399432   0.03203926            7 
 1257000   0.73455231   -5.7859136    489.72318    0.0324664  0.032018292            3 
 1258000   0.74492411   -5.8272675    488.15097  0.032336444  0.031997353            7 
 1259000   0.75911531   -5.8000099     489.1349  0.032375887  0.031976408            7 
 1260000   0.76627638   -5.8040988    489.52433  0.032375948  0.031955537            9 
 1261000   0.74543945   -5.8016379    489.47683  0.032347134  0.031934661            7 
 1262000   0.75192915   -5.8173548    487.93252  0.032219527  0.031913722            6 
 1263000   0.74214469   -5.8027439    488.62259  0.032239548  0.031892891            5 
 1264000   0.74540711   -5.8013773    489.08515  0.032244538  0.031872023           10 
 1265000   0.73900202   -5.7842414    490.99351  0.032344763  0.031851197            8 
 1266000   0.75566219   -5.8086402    489.83708  0.032243094  0.031830451            5 
 1267000   0.75097946   -5.7699763    489.77605  0.032213632  0.031809826           11 
 1268000   0.75832301   -5.7999807    489.29992  0.032156935  0.031788998            6 
 1269000   0.74812642    -5.801196    491.09466  0.032249453  0.031768154            5 
 1270000   0.74715235   -5.8272613      488.804  0.032073753  0.031747345           11 
 1271000   0.74269559   -5.8089677    489.01511   0.03206236   0.03172648           16 
 1272000   0.74738642   -5.8128981    490.10141  0.032108321    0.0317055           18 
 1273000   0.73664145   -5.8198129    490.42918  0.032104555   0.03168465            8 
 1274000   0.73258846   -5.8212679    490.38118  0.032076215  0.031663713           10 
 1275000   0.74678126   -5.8288874    489.07739  0.031965842  0.031642776           12 
 1276000   0.74507893   -5.8261477    489.52502  0.031970025  0.031621879            9 
 1277000   0.72973605    -5.812962    490.28847   0.03199481  0.031601186           11 
 1278000   0.74353198    -5.837123    490.87337  0.032007914  0.031580192           14 
 1279000   0.73695967   -5.8442226    489.10179  0.031867461  0.031559252            4 
 1280000   0.72889277   -5.8350637    489.46189  0.031866009  0.031538323            8 
 1281000   0.72921299    -5.840075    489.41429  0.031838036  0.031517336            8 
 1282000   0.74898752   -5.8247731    491.50679  0.031949219  0.031496538            7 
 1283000   0.74691495   -5.8358398    490.19971   0.03183942  0.031475749            4 
 1284000   0.75298973   -5.8270924     490.3244  0.031822716  0.031454871            8 
 1285000   0.73727836   -5.8476626    490.15158  0.031786743  0.031433967           25 
 1286000   0.72931146   -5.8316486    490.95679  0.031814203  0.031413031           13 
 1287000   0.72484742   -5.8190813    490.89776  0.031785662  0.031392151           13 
 1288000    0.7409962   -5.8400413    490.62712  0.031743473  0.031371352            6 
 1289000   0.72911059   -5.8363166    490.65332   0.03172054  0.031350497            8 
 1290000   0.72982465   -5.8412007     491.9179  0.031777642  0.031329705           20 
 1291000   0.75607555   -5.8284808     490.1175  0.031636813  0.031308899            9 
 1292000   0.73568755   -5.8511893    490.12267  0.031612659  0.031288328            7 
 1293000   0.73035007   -5.8206444    492.92703   0.03176895   0.03126781           21 
 1294000   0.74304389   -5.8320284    492.81772   0.03173736   0.03124726            9 
 1295000   0.72488469   -5.8154431    492.77198  0.031709909  0.031226716            5 
 1296000   0.75881422   -5.8439685    492.53852   0.03167043   0.03120608           38 
 1297000   0.73450707   -5.8154702    491.19714  0.031559826  0.031185527            9 
 1298000   0.75479592   -5.8454882    492.98467  0.031650274  0.031164923            9 
 1299000   0.73163433   -5.8294686    492.95507   0.03162401  0.031144405            7 
 1300000    0.7393092   -5.8333577    493.60285  0.031641208  0.031123945            6 
 1301000   0.72170281   -5.8427219     493.0311  0.031580265  0.031103505           16 
 1302000   0.73323427   -5.8681715     491.7966  0.031476997  0.031082997           14 
 1303000   0.72581712   -5.8798566    492.03021   0.03146778  0.031062306           11 
 1304000   0.73125844   -5.8546258    491.84814  0.031432013   0.03104167            6 
 1305000   0.73103652   -5.8714627    492.35857  0.031440521  0.031021119            8 
 1306000   0.74243599   -5.8602049    492.43079  0.031421056  0.031000407           11 
 1307000   0.72374895   -5.8658695    493.04315  0.031436059  0.030979834            7 
 1308000   0.73491942   -5.8488277      492.577  0.031382327  0.030959347            6 
 1309000   0.73609105   -5.8639303    493.19522  0.031397709  0.030938818            7 
 1310000   0.73111298    -5.868229    493.27517  0.031378828  0.030918481            8 
 1311000    0.7246857   -5.8685163    492.24475  0.031289394  0.030897898            8 
 1312000   0.72160312   -5.8728554    494.06914  0.031381424  0.030877234           11 
 1313000   0.71861413   -5.8840374    492.57722  0.031262834  0.030856581           10 
 1314000   0.74533358   -5.8533035    494.01273  0.031330082  0.030835986            9 
 1315000   0.73881238   -5.8759072     493.3656  0.031265247  0.030815408            5 
 1316000   0.72508268   -5.8772639    493.28284  0.031236249  0.030794744           17 
 1317000   0.72804168   -5.8711117    493.09647  0.031200738  0.030774138            9 
 1318000   0.73711546   -5.8579488    492.80746  0.031158792  0.030753589            8 
 1319000    0.7157731   -5.8557417    494.30409  0.031229725  0.030733211           10 
 1320000   0.71976094   -5.8451726     492.3767  0.031084387  0.030712924            6 
 1321000   0.72640016   -5.8774608    494.71169  0.031208156  0.030692535           23 
 1322000   0.72010778   -5.8751589    494.15694   0.03114958  0.030672113            7 
 1323000   0.72040962   -5.8698395    493.80482  0.031103856  0.030651595            5 
 1324000    0.7231429   -5.8783825    494.92769  0.031151038  0.030631091            7 
 1325000   0.74394558   -5.8713731    493.75234  0.031053606  0.030610703            7 
 1326000   0.71050969   -5.9061973    493.25017  0.030998628  0.030590082           15 
 1327000   0.71806705   -5.8618413    495.44181    0.0311129  0.030569484           14 
 1328000   0.73178753   -5.9057287       491.77  0.030859061  0.030548751           15 
 1329000   0.71253637   -5.9167408    492.16265  0.030860462  0.030527872            6 
 1330000   0.71122787   -5.9056816     494.0357  0.030954618  0.030507111           11 
 1331000   0.71972253   -5.8980821    493.50109  0.030897889  0.030486449            8 
 1332000   0.70839315   -5.8829296    493.77126  0.030891595  0.030465878            5 
 1333000    0.7080131    -5.910373    492.32719  0.030778144  0.030445217            7 
 1334000   0.73121275   -5.8818947    495.17301  0.030932847  0.030424651            8 
 1335000   0.72803195   -5.8851934    495.07855   0.03090378  0.030404278           18 
 1336000   0.73089707   -5.8791349    494.58565  0.030849903   0.03038399            5 
 1337000   0.71793429    -5.876058    495.10872  0.030859432  0.030363764            6 
 1338000   0.74498937   -5.8652412    495.49956   0.03086071  0.030343423            5 
 1339000   0.71264284   -5.8899773     495.2042   0.03081928  0.030323046           13 
 1340000   0.73345419   -5.8508299     495.5619  0.030818526  0.030302707           10 
 1341000   0.71761649   -5.8829148    495.12156  0.030768181  0.030282389            5 
 1342000   0.73115312   -5.8969362    495.66897  0.030779246   0.03026198            9 
 1343000   0.72335503   -5.8669105    495.32794  0.030735166  0.030241553           17 
 1344000   0.71427102   -5.9184974    494.70091  0.030673419  0.030220985            5 
 1345000   0.70170107   -5.9057495    495.88505  0.030723981  0.030200423           10 
 1346000   0.71554324   -5.8856617    495.03232   0.03064836  0.030179887            6 
 1347000   0.70421538   -5.8853728    495.31466  0.030643075  0.030159501            7 
 1348000   0.71552344   -5.8941069    495.64133  0.030640537   0.03013906            9 
 1349000   0.72200571   -5.8899183    496.07243  0.030644454  0.030118684            8 
 1350000    0.7197755   -5.8915442    495.94522  0.030613902  0.030098376            6 
 1351000   0.71648109   -5.8926662    496.03067  0.030596513  0.030078148            6 
 1352000   0.70111174   -5.8885348     495.8583  0.030563258  0.030057943            6 
 1353000   0.70831004    -5.905987    496.55859  0.030583801  0.030037806            8 
 1354000   0.71782665    -5.884335    496.86996  0.030580377  0.030017699            5 
 1355000   0.69967261   -5.9308886    495.68805   0.03048512  0.029997579           20 
 1356000   0.70018057   -5.9066555     495.9444  0.030478392  0.029977355           12 
 1357000   0.72459019    -5.911421       496.09  0.030464874   0.02995718            8 
 1358000   0.71931089    -5.915309    496.22125  0.030450494  0.029936943            6 
 1359000   0.70699972   -5.8944828    497.12347  0.030483411  0.029916648            7 
 1360000   0.72379159   -5.9211527       496.06  0.030395833  0.029896564            7 
 1361000   0.70824969    -5.897029    496.91905  0.030426099  0.029876203            7 
 1362000    0.7182814    -5.923101    495.60086  0.030323107  0.029855843           10 
 1363000   0.72820163   -5.9085923    497.04925  0.030389414  0.029835638           10 
 1364000   0.70437805    -5.913435    496.12002  0.030310363  0.029815429            4 
 1365000   0.69308687   -5.9025909    496.53517  0.030313502  0.029795382            9 
 1366000    0.7178945   -5.9053555    495.84823  0.030249404  0.029775208           15 
 1367000   0.70674089   -5.9076619    496.85891  0.030288887  0.029754958            7 
 1368000   0.70912558   -5.9080475    496.81539  0.030264095  0.029734635            6 
 1369000   0.72245322   -5.9065548    496.12859  0.030200182  0.029714445            7 
 1370000    0.7049163   -5.8971939    497.11879  0.030238369  0.029694241           23 
 1371000   0.71105695   -5.8830177    497.66389  0.030249446  0.029674168            5 
 1372000   0.70513827    -5.905805    497.57358  0.030221913  0.029654073           15 
 1373000   0.71157932   -5.9203773    496.87054  0.030157231  0.029633969            9 
 1374000   0.72281353   -5.9267079    496.78917  0.030130348  0.029613861            9 
 1375000   0.68955287   -5.9016174    496.90062  0.030115189  0.029593624            6 
 1376000    0.6881181   -5.9215367    497.10962  0.030105961  0.029573293            8 
 1377000   0.69955365   -5.9132348    496.49217   0.03004673  0.029552964           10 
 1378000   0.71352371   -5.9226188    496.74747  0.030040365  0.029532701           10 
 1379000   0.70517104   -5.9298225    497.34239  0.030054532  0.029512461           18 
 1380000   0.70001947   -5.9304517    496.69494  0.029993656  0.029492151           12 
 1381000   0.71855095   -5.8967267    497.59933  0.030026511  0.029471977            7 
 1382000   0.69634367   -5.9200193    496.34924  0.029929404  0.029451859           20 
 1383000   0.70511922   -5.9146889    496.63244  0.029924828  0.029431692           16 
 1384000   0.69653739   -5.9131953    497.21128  0.029938059  0.029411428           14 
 1385000    0.6993553   -5.9305068    497.37401  0.029926234  0.029391253            8 
 1386000   0.69245912   -5.9219808    497.14322  0.029890766  0.029371183           14 
 1387000   0.70859124   -5.9355404    496.33085  0.029820406  0.029351004           13 
 1388000   0.67816779   -5.9091733    497.87745  0.029891778  0.029330879            9 
 1389000   0.69983606   -5.9343025    498.44329  0.029904205  0.029310753            6 
 1390000   0.70897713   -5.9321627    497.35009  0.029817152  0.029290667           11 
 1391000    0.6739839   -5.9333489    496.84207  0.029765281  0.029270479           14 
 1392000    0.7045963    -5.950597    495.94443   0.02969016  0.029250203           11 
 1393000    0.6928223   -5.9332666    497.12274  0.029739336  0.029230062           11 
 1394000   0.70543394   -5.9298092    496.42635  0.029676372      0.02921           20 
 1395000   0.71048352   -5.9394716    497.95408  0.029746361  0.029189775            7 
 1396000   0.69961139   -5.9228261    497.73079  0.029711723    0.0291697            7 
 1397000   0.70195668   -5.9375301     497.4636  0.029674517  0.029149684            9 
 1398000   0.69530312     -5.92998    498.53162  0.029716954  0.029129758            7 
 1399000    0.6935775   -5.9366444    497.14876  0.029613341  0.029109802           12 
 1400000   0.69677434   -5.9103813    499.46867  0.029730278  0.029089859            9 
 1401000   0.71608113   -5.9158347    499.14623  0.029689878  0.029070039            9 
 1402000   0.69682655    -5.911294     499.1318  0.029667843   0.02905029            4 
 1403000   0.69220224   -5.9313177    498.87664  0.029631542  0.029030602           10 
 1404000   0.70916735   -5.9461488    498.20195  0.029570391   0.02901081           22 
 1405000   0.70562097   -5.9595245    498.75503  0.029582149  0.028990974           10 
 1406000   0.69717832   -5.9431798     498.3201  0.029535331  0.028971126            9 
 1407000   0.69066968   -5.9200786    499.06784  0.029558626  0.028951304           15 
 1408000   0.72038137   -5.9253181    498.65717  0.029513327  0.028931482            6 
 1409000   0.69316503   -5.9515737    498.62059  0.029490217  0.028911422           12 
 1410000   0.68819883    -5.929295    499.03272   0.02949366  0.028891457            8 
 1411000   0.68975611   -5.9520221    498.11778  0.029418721  0.028871583           17 
 1412000   0.69662276   -5.9582693    497.58575  0.029366486  0.028851637           15 
 1413000   0.69242715   -5.9603674    498.06155  0.029373764  0.028831675            5 
 1414000   0.69844885   -5.9694186    497.64145  0.029328233  0.028811622           18 
 1415000   0.69059083   -5.9661492    498.87507  0.029380157  0.028791652           22 
 1416000   0.69774281   -5.9468454    497.63664  0.029286526  0.028771712            7 
 1417000   0.70337839    -5.963657     498.2355  0.029301076  0.028751877            9 
 1418000   0.69402439   -5.9594169    499.58337  0.029359625  0.028731978           11 
 1419000   0.68384788   -5.9821094    497.71291  0.029229088  0.028712092            8 
 1420000   0.67827179   -5.9728743    497.30434  0.029184527   0.02869211           43 
 1421000   0.68942889   -5.9602915    498.63418  0.029241976  0.028672086           20 
 1422000   0.68744585   -5.9520443    498.11446  0.029190955    0.0286521            7 
 1423000   0.66646827   -5.9588328    498.71651  0.029205699  0.028632081           34 
 1424000   0.69585644   -5.9586174    498.48472  0.029171625  0.028612015           23 
 1425000   0.68458037   -5.9815858    498.11763  0.029129686  0.028591926           18 
 1426000   0.70627629   -5.9689487    497.10048  0.029049818  0.028571963           13 
 1427000   0.67443005   -5.9512138    499.69292  0.029180853  0.028552001           10 
 1428000   0.67856938   -5.9603322     498.6161  0.029097578  0.028532156           11 
 1429000   0.67368361   -5.9629238    498.93445  0.029095781  0.028512404           17 
 1430000   0.68251083   -5.9834534    498.56593  0.029053959  0.028492463            8 
 1431000   0.69824272   -5.9712056    498.35481  0.029021361  0.028472529           13 
 1432000   0.69016134   -5.9686285    499.14111  0.029046852  0.028452627            7 
 1433000   0.70620814   -5.9451369     500.3425  0.029096447  0.028432809            8 
 1434000   0.67943094   -5.9840369    498.74696  0.028983435  0.028412869           10 
 1435000   0.68790707   -5.9865027    498.75023  0.028963428  0.028393018           13 
 1436000   0.68764728   -6.0014264    499.74485  0.029000978  0.028373228           18 
 1437000   0.65937314   -5.9726508    499.48921  0.028965971  0.028353342           19 
 1438000    0.6829704   -5.9753926    499.78104   0.02896274  0.028333454           17 
 1439000    0.6780805   -5.9997534     499.3894  0.028919933    0.0283136           23 
 1440000   0.67955475   -5.9802546    499.44943  0.028903323  0.028293848            6 
 1441000   0.68775945   -5.9752427    499.69645  0.028897551  0.028274127            4 
 1442000   0.68032279   -5.9847469    499.31398  0.028855408  0.028254348           15 
 1443000   0.67746548   -5.9585947    499.51903  0.028847253  0.028234693            8 
 1444000   0.68616791   -5.9991154    499.28049   0.02881351  0.028214962            8 
 1445000   0.66357086   -5.9939549    499.21633  0.028789869  0.028195126           11 
 1446000   0.66933381   -5.9934135    498.36981  0.028721174  0.028175331            9 
 1447000    0.6538373   -5.9740768    499.37525  0.028759229  0.028155541           19 
 1448000   0.68101772   -5.9757937    501.38171   0.02885484  0.028135858           20 
 1449000    0.6849178   -6.0068758    498.63868  0.028677173  0.028116085           19 
 1450000   0.65921618   -6.0034832    498.97856  0.028676928  0.028096327           16 
 1451000   0.67386931   -6.0193575    499.09057  0.028663598  0.028076628           34 
 1452000   0.65258418   -5.9937251    499.29509  0.028655595  0.028057015            9 
 1453000   0.66525784   -6.0116098    499.26346  0.028634059  0.028037308           13 
 1454000   0.67345883   -6.0009782    500.72713  0.028698254  0.028017597            9 
 1455000   0.68215699   -6.0095315    499.65451  0.028617097  0.027997923            8 
 1456000   0.66696171   -6.0126197    499.02728  0.028561543  0.027978209            9 
 1457000    0.6794526   -5.9998163    499.50202  0.028569093  0.027958615           12 
 1458000    0.6566676    -5.999322    500.87715  0.028628095  0.027939103           12 
 1459000   0.66611338   -5.9797767    500.85902  0.028607438  0.027919521            9 
 1460000   0.66291837   -6.0094823    499.73611   0.02852375  0.027900043           10 
 1461000   0.67877117   -6.0251066    500.32201  0.028537646  0.027880554            7 
 1462000   0.68232393   -6.0054194    499.53547  0.028473294   0.02786089           12 
 1463000   0.67667925   -6.0234439    500.78026  0.028524736  0.027841299           19 
 1464000   0.65831545   -6.0267289    500.56743  0.028493137  0.027821663           15 
 1465000   0.67141412   -6.0371234    499.57285  0.028417113  0.027801877           15 
 1466000   0.65931355   -6.0467554    498.97603  0.028363804  0.027782216           16 
 1467000   0.66382049    -5.995621    501.31025  0.028477065  0.027762609            7 
 1468000   0.67071281   -5.9993797    500.92438  0.028435762  0.027743021           10 
 1469000   0.67075638   -5.9988105    499.53415   0.02833754  0.027723543           21 
 1470000   0.66843257    -6.003525    499.66911  0.028325913   0.02770413            8 
 1471000   0.66410082    -5.994483    501.02975  0.028383739  0.027684669           14 
 1472000   0.67060015   -6.0033082    499.36066  0.028269965  0.027665261            9 
 1473000   0.66673047   -6.0126179    502.15606   0.02840892  0.027645949           10 
 1474000   0.68450556   -6.0450048    499.66451  0.028248785  0.027626494           33 
 1475000   0.66357735   -6.0273676    500.31395  0.028266325  0.027606964            9 
 1476000   0.65903574   -6.0110686    501.02104  0.028287096  0.027587548            7 
 1477000   0.66367091   -6.0095754    500.10513  0.028216268  0.027568148           10 
 1478000   0.67434795   -6.0169632    499.92871   0.02818723  0.027548699           13 
 1479000   0.66122704   -6.0219073    499.95157   0.02816946  0.027529281           20 
 1480000   0.67225516   -6.0398292    499.80707   0.02814229  0.027509753            8 
 1481000     0.649928   -5.9919596     501.5236  0.028219874  0.027490371            8 
 1482000   0.66933642   -6.0201756    501.37226  0.028192323   0.02747115           15 
 1483000   0.66196693   -6.0330567    502.52755   0.02823823  0.027451838           24 
 1484000   0.66606416   -6.0037043    501.22767  0.028146208  0.027432636           21 
 1485000   0.66437859   -6.0221631    501.93304  0.028166837  0.027413464           46 
 1486000   0.64755742   -6.0400352    500.88852  0.028089307  0.027394211           12 
 1487000   0.66658915   -6.0192063    501.48214  0.028103684  0.027374866            9 
 1488000   0.64011125   -6.0283102    500.80678  0.028046974  0.027355608            8 
 1489000   0.64919879   -6.0466789    501.12174  0.028045766  0.027336282           18 
 1490000   0.65402388   -6.0124415    502.12947  0.028083304  0.027317011           12 
 1491000   0.65846909   -6.0398617    500.30947  0.027962747  0.027297831           18 
 1492000   0.65144207   -6.0533555    499.53136  0.027900545  0.027278642           16 
 1493000   0.65057707   -6.0354348    501.05825  0.027967083  0.027259503           25 
 1494000   0.65339515   -6.0503106    500.20578  0.027900813  0.027240311           13 
 1495000   0.63793281   -6.0372748    501.88091  0.027975525  0.027221203           22 
 1496000   0.66402943   -6.0471131     500.7094  0.027891566  0.027202105           44 
 1497000   0.64815932   -6.0279094    501.17779  0.027899009  0.027183032           52 
 1498000   0.65367513   -6.0644285    501.17946  0.027880478  0.027163904           21 
 1499000   0.66340793   -6.0565714    501.95164  0.027904805  0.027144751           17 
 1500000   0.65770375   -6.0631225    501.26074  0.027847819  0.027125496           31 
 1501000   0.66766199   -6.0558875    502.16171  0.027879287   0.02710633           19 
 1502000   0.67188979   -6.0696001    501.58774   0.02782888  0.027087169           29 
 1503000    0.6504277   -6.0677662    502.53204  0.027862721  0.027068106           14 
 1504000   0.67408904   -6.0509392    501.97939  0.027813574  0.027049129           22 
 1505000   0.64278626   -6.0348445     500.9161  0.027736218  0.027030121           19 
 1506000   0.65831447   -6.0360854    502.69712  0.027816352  0.027011115           27 
 1507000   0.64792942    -6.054489    500.87812  0.027697308  0.026992104           17 
 1508000   0.64327982   -6.0602389    500.90511  0.027680433  0.026973169           13 
 1509000   0.64600318   -6.0269344    502.76144  0.027764604  0.026954313           10 
 1510000   0.64253907   -6.0497166    502.41225  0.027726946  0.026935423           19 
 1511000   0.65005909   -6.0473367    502.27824  0.027701205  0.026916521           22 
 1512000     0.639038   -6.0315519    502.56155  0.027698498  0.026897648           14 
 1513000    0.6518103   -6.0560392     503.4141  0.027727148  0.026878823            7 
 1514000   0.64536718   -6.0363934    503.14067  0.027693784  0.026859966           12 
 1515000   0.66212823   -6.0444315    503.28241  0.027683301  0.026841187           25 
 1516000     0.653444   -6.0451924     501.5206  0.027568195  0.026822399           25 
 1517000   0.64346825   -6.0761554    502.37912  0.027597183  0.026803512           36 
 1518000   0.65700301   -6.0452446    501.29481  0.027519478  0.026784538           19 
 1519000   0.64211339   -6.0813389     500.8378  0.027476289  0.026765652           24 
 1520000    0.6610654   -6.0454103     502.3736  0.027542412  0.026746772           25 
 1521000    0.6475157   -6.0567332    502.20402  0.027515013  0.026727885           25 
 1522000   0.63685399   -6.0377012    502.86994  0.027533396  0.026709048           23 
 1523000    0.6468388   -6.0717896    502.09195  0.027472749  0.026690251           22 
 1524000   0.63861316   -6.0482139    504.16934  0.027568315  0.026671445           21 
 1525000   0.64263476    -6.040343    503.12787  0.027493326  0.026652713           31 
 1526000   0.64625428   -6.0807198    503.00292  0.027468486  0.026633997           11 
 1527000   0.64229621   -6.0836017     503.1396  0.027457957  0.026615251           22 
 1528000   0.63662191   -6.0849697    502.98276  0.027431433  0.026596489           22 
 1529000   0.64199458   -6.0626007    502.42081  0.027382865  0.026577807           43 
 1530000   0.65511156   -6.0803991    502.92968  0.027392684  0.026559152           12 
 1531000   0.63974018   -6.0966079    502.77431  0.027366335  0.026540475           19 
 1532000   0.64186071   -6.0628835    502.02627  0.027307783  0.026521748           21 
 1533000   0.63580507   -6.0634103     505.3561  0.027470977  0.026503181           21 
 1534000   0.64685342    -6.073512    503.87959  0.027372859  0.026484605            7 
 1535000   0.65911404   -6.0497369    503.95436  0.027359086   0.02646603           12 
 1536000   0.63747802   -6.0756267    501.91263  0.027230503  0.026447455           11 
 1537000   0.63322575   -6.0659282    503.10741  0.027277565  0.026428773           11 
 1538000   0.64403446   -6.0508548    502.14096  0.027207464  0.026410055            7 
 1539000   0.63730043   -6.0733971    503.46073  0.027261248  0.026391431           12 
 1540000   0.62783835    -6.086692    502.95353    0.0272161  0.026372889           10 
 1541000   0.63619173   -6.0884123     502.6178  0.027180283  0.026354288           10 
 1542000   0.66042739   -6.0890243    502.24085  0.027142285  0.026335749           14 
 1543000   0.63305369   -6.0767056     501.9287  0.027107836  0.026317178           13 
 1544000   0.64745237    -6.088784    503.21982  0.027159964  0.026298586           10 
 1545000   0.62784461    -6.105904    503.31986  0.027147781  0.026280013           22 
 1546000     0.640575   -6.0916968    504.02688  0.027168331  0.026261366           14 
 1547000   0.63276589   -6.1109035    503.44215  0.027119271  0.026242742           11 
 1548000   0.63235396   -6.0748215    503.12415  0.027084633  0.026224135           10 
 1549000   0.64457262   -6.0900065     503.2076  0.027071638  0.026205574           14 
 1550000   0.64636899   -6.0931729    503.32951  0.027060726  0.026187045           11 
 1551000   0.62926396   -6.0755571    503.80229  0.027068681  0.026168553            8 
 1552000   0.62666643   -6.0962445    503.63681  0.027042354   0.02615004           22 
 1553000   0.63075381   -6.0665825     502.8409  0.026982233   0.02613155            7 
 1554000   0.63359742   -6.0628878    504.02768  0.027028511  0.026113147           28 
 1555000   0.63826759   -6.0804951    504.76475   0.02705063  0.026094838           17 
 1556000   0.63878998   -6.0719479    503.51233   0.02696617  0.026076533           11 
 1557000   0.62201139   -6.0922128    503.32702  0.026938933  0.026058176           18 
 1558000    0.6250797   -6.0942226    503.84515  0.026949356  0.026039836           10 
 1559000   0.61761627   -6.1097025    503.89976  0.026934988   0.02602153            7 
 1560000   0.63337187   -6.1078778    503.48546  0.026895591  0.026003241           20 
 1561000   0.63009275   -6.1134004    503.45193  0.026876571  0.025984915           13 
 1562000   0.63626119   -6.0752689    503.91738  0.026884197  0.025966615           13 
 1563000   0.62445678   -6.0942045    503.56626  0.026848276  0.025948307           11 
 1564000   0.62071164   -6.0876325    503.96418  0.026852312  0.025930054            9 
 1565000   0.62069495   -6.0873315    504.99619  0.026890106  0.025911831           10 
 1566000   0.62269831    -6.094686    504.80471  0.026862745  0.025893626           27 
 1567000   0.63111908   -6.1019442    503.53226  0.026777933  0.025875414           41 
 1568000   0.61668441   -6.1196546    503.25771  0.026746265  0.025857136           25 
 1569000   0.62670451   -6.1265891    504.26255  0.026782587  0.025838959           29 
 1570000   0.64114622   -6.1161673     502.9784  0.026697367  0.025820747           26 
 1571000   0.62496894   -6.1165636    503.97906  0.026733453  0.025802455           26 
 1572000   0.63222583   -6.1118296    503.59334     0.026696  0.025784194           25 
 1573000   0.62510701   -6.1146083    504.24528  0.026713567  0.025765901           18 
 1574000   0.62819643   -6.1212352    504.15779  0.026691963  0.025747734           22 
 1575000   0.61906654   -6.1201392      503.069  0.026617408   0.02572948           13 
 1576000   0.62592185   -6.1071606    504.86853  0.026695671  0.025711233           18 
 1577000   0.62272953   -6.0865778    504.63771  0.026666546  0.025693065           44 
 1578000   0.62944401   -6.1145531    504.40416  0.026637313  0.025674958           19 
 1579000   0.62297328   -6.1152904    505.29335  0.026667371  0.025656871           17 
 1580000   0.62551578   -6.1027642    504.23028  0.026594424  0.025638809           12 
 1581000   0.61326068   -6.0903208    503.89453  0.026559906  0.025620777           24 
 1582000   0.63205101   -6.1181634    505.57256  0.026631508  0.025602709           14 
 1583000   0.63291898   -6.1164396    503.96335  0.026529972  0.025584644           11 
 1584000   0.63076109    -6.125719    505.07136  0.026571515   0.02556662           15 
 1585000   0.62026637   -6.1172169    504.85464  0.026543356  0.025548549           12 
 1586000    0.6125753   -6.1163784    504.68983  0.026517961  0.025530519           13 
 1587000   0.62024271   -6.1417882    504.29521   0.02648053  0.025512479            9 
 1588000   0.62250335   -6.1319314    503.83191  0.026439542  0.025494363           31 
 1589000   0.61159406    -6.140304    504.04218   0.02643393  0.025476208           23 
 1590000   0.62272112   -6.1363581    504.31221  0.026431457  0.025458128           11 
 1591000   0.62361545   -6.1376426    503.13128   0.02635299  0.025440101            8 
 1592000   0.62790559    -6.132586    504.62879  0.026414823  0.025422163           13 
 1593000   0.62202984   -6.1422119    504.37657  0.026385048  0.025404165           19 
 1594000   0.61622213   -6.1587073     503.9251  0.026344892  0.025386126           18 
 1595000    0.6082226   -6.1429885    504.01885  0.026333273  0.025368078           13 
 1596000   0.61555683   -6.1563093    504.41623  0.026337523  0.025350097           10 
 1597000   0.60820839   -6.1349167    504.70688  0.026336197  0.025332162           28 
 1598000    0.6115552   -6.1518939    503.37902   0.02625047   0.02531419           22 
 1599000   0.63001314   -6.1466224    503.71576  0.026251603  0.025296224           20 
 1600000   0.61728455   -6.1531246    503.45203   0.02622146  0.025278232           20 
 1601000   0.59644687   -6.1509125    504.02385  0.026234846  0.025260247           10 
 1602000   0.60187354   -6.1365062    504.97982  0.026268197  0.025242289           20 
 1603000   0.60858095   -6.1468037    504.73858  0.026239269  0.025224399           29 
 1604000   0.61438252   -6.1334262    504.57179  0.026214245  0.025206473           23 
 1605000    0.6158263   -6.1793748     504.6519  0.026202071  0.025188622           16 
 1606000   0.62390497   -6.1522845    504.25454  0.026165138  0.025170727           29 
 1607000   0.60072715   -6.1627192    504.54205  0.026163766  0.025152842           24 
 1608000    0.6225271   -6.1527248    504.75048  0.026158296  0.025134935           19 
 1609000   0.60895208   -6.1327504     505.5382  0.026182836  0.025117096           19 
 1610000   0.60532548   -6.1573878    504.24045  0.026099402  0.025099219           15 
 1611000   0.59635582   -6.1818836    506.09352  0.026179057  0.025081389           18 
 1612000   0.60958033   -6.1689734    504.58588  0.026084878  0.025063573           33 
 1613000   0.60775113   -6.1573059    504.86327  0.026083037  0.025045829           41 
 1614000   0.61679111   -6.1587442    505.17248  0.026082842  0.025028094           43 
 1615000   0.60726756   -6.1629092    504.07916  0.026010276  0.025010406           34 
 1616000   0.59563204   -6.1621874    505.02339  0.026042873   0.02499269           12 
 1617000   0.60208952   -6.1571799     504.1997  0.025984317  0.024974957           15 
 1618000   0.60365767   -6.1605575    505.18462  0.026018985  0.024957305           24 
 1619000   0.62304703   -6.1822942    504.64248  0.025975009  0.024939679           25 
 1620000   0.60609648   -6.1728079    504.18348  0.025935364  0.024922006           27 
 1621000   0.59029207   -6.1492832    505.19624  0.025971429  0.024904369           20 
 1622000   0.61053509   -6.1578407    504.93267  0.025941876  0.024886602           13 
 1623000   0.60028764   -6.1414358    504.54029  0.025905745  0.024868992           31 
 1624000   0.60984254   -6.1669816    504.89598  0.025908045  0.024851313           12 
 1625000   0.59383365   -6.1460165    505.08771  0.025901934   0.02483373           15 
 1626000   0.60403974   -6.1551613    506.38768  0.025952628  0.024816189           42 
 1627000   0.60954498   -6.1507022    505.08031  0.025869715  0.024798676           30 
 1628000   0.60079141   -6.1557642    504.39291  0.025818638  0.024781122           20 
 1629000   0.60669044   -6.1588224    505.29124  0.025848744  0.024763565           37 
 1630000   0.60128253   -6.1516509    505.84737  0.025861317  0.024746039           55 
 1631000   0.60524586   -6.1542664    506.92795  0.025900672  0.024728557           51 
 1632000   0.59722117   -6.1579106    505.75908  0.025825116  0.024711141           47 
 1633000   0.60292191   -6.1793601    505.33365  0.025787592  0.024693679           26 
 1634000   0.59225758   -6.1746746    505.83702  0.025797482  0.024676159           17 
 1635000    0.5856563      -6.1544    506.04243  0.025792173  0.024658688           16 
 1636000   0.60519954   -6.1691739    504.33179  0.025689272  0.024641141           34 
 1637000   0.61235303   -6.1818147    505.46089  0.025731057  0.024623603           31 
 1638000   0.60071877   -6.1802044    503.72026  0.025626794  0.024606084           19 
 1639000   0.60269919   -6.1961295    503.62728  0.025606431  0.024588539           14 
 1640000   0.59978512   -6.1882893    504.23522  0.025621708   0.02457095           25 
 1641000   0.60759592   -6.1932575    503.39892  0.025563626  0.024553379           38 
 1642000    0.5935518   -6.1797267    503.63784  0.025560183  0.024535845           26 
 1643000   0.59786237   -6.1725373    504.33716  0.025580095  0.024518317           54 
 1644000   0.59847748    -6.203204    504.72776  0.025584335  0.024500763           34 
 1645000   0.59375614   -6.1843638    504.47655  0.025556056  0.024483152           61 
 1646000   0.58779346   -6.1788021    505.00096   0.02556708  0.024465592           41 
 1647000   0.60566454   -6.2039238    503.59826  0.025480584  0.024448015           63 
 1648000   0.58665132   -6.1937438    504.24907  0.025498031  0.024430519           63 
 1649000   0.59251502   -6.2114734    503.88552  0.025464197  0.024413027           59 
 1650000   0.59257594   -6.2123432    503.55901  0.025432273   0.02439555           34 
 1651000   0.59241166   -6.1970323    504.46151  0.025462422  0.024378136           45 
 1652000   0.60007896   -6.1794879    503.54515  0.025400784  0.024360737           26 
 1653000   0.59637358    -6.186092    504.46385  0.025431733  0.024343334           26 
 1654000   0.58763126   -6.2009619     504.1808  0.025402096  0.024325873           35 
 1655000   0.60061706   -6.2041195    504.96204  0.025426085  0.024308444           38 
 1656000   0.59137289   -6.1988773    505.30127  0.025427801  0.024290997           33 
 1657000   0.58332434   -6.1978581    504.31456  0.025362833  0.024273537          105 
 1658000   0.59241677   -6.2196127    503.16976  0.025289996  0.024256145           31 
 1659000   0.60364002   -6.2164379    503.17644  0.025275087  0.024238751           16 
 1660000   0.57968921   -6.1988865    504.31692  0.025317115  0.024221333           35 
 1661000   0.59479481   -6.1984396    504.59799  0.025315974  0.024203978           19 
 1662000   0.60049066   -6.2097859    504.59843  0.025300764  0.024186654           26 
 1663000   0.60017642    -6.209051    505.20585  0.025315988  0.024169374           21 
 1664000   0.61096241   -6.2309252    504.50487  0.025265669  0.024152112           27 
 1665000   0.58958104   -6.2077317    505.55924  0.025303265  0.024134812           46 
 1666000   0.57259409   -6.1841737    507.13743  0.025367018  0.024117554           69 
 1667000   0.58530344   -6.2389287    503.46009  0.025167971   0.02410027           73 
 1668000   0.58703338   -6.1938596    504.68023  0.025213841  0.024082951           83 
 1669000   0.59795429    -6.207492    504.15789  0.025172653  0.024065641           40 
 1670000   0.58149716    -6.200083    504.25044  0.025162198  0.024048282           51 
 1671000   0.57860192   -6.2122558    504.37723  0.025153462  0.024030922           74 
 1672000   0.58590227   -6.2405148    503.22244  0.025080863  0.024013537           72 
 1673000   0.58247549   -6.2066136    503.71724  0.025090518  0.023996181           88 
 1674000   0.58175091   -6.2260268    504.34049  0.025106555  0.023978833           76 
 1675000   0.59318883   -6.2475726    503.80299  0.025064826  0.023961523           57 
 1676000   0.57969789   -6.2440532    503.48426  0.025034023  0.023944218           85 
 1677000   0.56986635   -6.2361061    505.07646  0.025098214  0.023926917           99 
 1678000   0.58884208   -6.2214878    504.96262  0.025077603  0.023909626           90 
 1679000   0.58234813    -6.231776    504.13816  0.025021747  0.023892368           43 
 1680000   0.59596724   -6.2422243    503.33481  0.024967005  0.023875109           60 
 1681000     0.572757   -6.2325244    504.02432  0.024986334  0.023857872           17 
 1682000    0.5835392   -6.2402865     504.9202  0.025015864  0.023840692           20 
 1683000   0.58305434   -6.2007106    506.30434  0.025069535   0.02382357           11 
 1684000   0.58323153   -6.1916873    505.09966  0.024995035  0.023806509           13 
 1685000   0.57784851   -6.2135942    504.23897  0.024937634  0.023789428           12 
 1686000   0.58304429   -6.2029049    504.03144  0.024912586  0.023772328           27 
 1687000   0.57501996   -6.2270356     504.7169  0.024931678  0.023755232           22 
 1688000   0.59104774   -6.2329544    505.78877  0.024969825  0.023738149           14 
 1689000   0.59439623   -6.2105066    505.44886   0.02493827  0.023721128           56 
 1690000   0.56894031   -6.2224353    505.07021  0.024904843  0.023704159           26 
 1691000   0.59068904   -6.2290697    504.94067  0.024883731  0.023687139           48 
 1692000   0.57956716   -6.2409489    505.15601   0.02487963  0.023670065           15 
 1693000   0.57650893   -6.2225762    504.16579  0.024816194   0.02365295           34 
 1694000    0.5774829   -6.2420497    504.49772  0.024817873  0.023635933           32 
 1695000   0.57462194   -6.2353848    504.52036  0.024804344  0.023618917           68 
 1696000   0.56738843   -6.2423327    504.44901  0.024786213  0.023601931           24 
 1697000   0.57656992   -6.2433282     504.5078  0.024774494  0.023584956           32 
 1698000   0.58446906   -6.2526233    504.93231  0.024780737  0.023567987           30 
 1699000   0.56912334   -6.2328352    505.90822  0.024814019   0.02355104           16 
 1700000   0.57997072   -6.2231426    505.00794  0.024755291  0.023534052           24 
 1701000   0.58280755   -6.2484355    505.00326  0.024740509  0.023517118           14 
 1702000   0.55918863   -6.2321725    504.06268  0.024679919  0.023500151           77 
 1703000   0.57450038   -6.2304655    504.32605  0.024678315  0.023483249           46 
 1704000   0.56654553   -6.2378501    503.96886  0.024646364  0.023466328           15 
 1705000   0.57287064   -6.2571743    503.89285  0.024628194  0.023449375           19 
 1706000   0.56831569   -6.2554567    503.23514  0.024581631  0.023432412           34 
 1707000    0.5753198   -6.2488182    505.70196  0.024687656  0.023415471           86 
 1708000   0.57553588   -6.2606506    505.22381  0.024649874  0.023398547           24 
 1709000   0.58075257    -6.265838    503.88591  0.024570212   0.02338167           36 
 1710000   0.57386396   -6.2534302    504.92784   0.02460662  0.023364851           30 
 1711000   0.56730192   -6.2549513    504.49153  0.024570988  0.023348013           33 
 1712000   0.57364959   -6.2608842    505.78609   0.02461965  0.023331231           31 
 1713000   0.55749893   -6.2468832    504.74363  0.024554564  0.023314439           55 
 1714000     0.580657   -6.2469637    505.35501  0.024569963  0.023297683           91 
 1715000   0.58164729   -6.2458577    504.25768  0.024502317  0.023280899           33 
 1716000   0.57218795   -6.2695915    504.76166  0.024512513  0.023264132           64 
 1717000   0.56983521   -6.2619713    504.58221  0.024489527  0.023247308           62 
 1718000   0.57847796   -6.2533894    504.72889  0.024482387  0.023230507           49 
 1719000    0.5575518   -6.2500814    504.26594  0.024445702  0.023213715           62 
 1720000    0.5661328   -6.2806238    504.64065  0.024449644  0.023196945          101 
 1721000    0.5645773   -6.2840118    504.41647  0.024424582  0.023180179          146 
 1722000   0.55698386   -6.2643808    505.09566  0.024443267   0.02316344          163 
 1723000     0.555725   -6.2834479    503.71316  0.024362215  0.023146683          247 
 1724000   0.56114737   -6.2754027    503.49232  0.024337409  0.023129918          279 
 1725000   0.56120424   -6.2578848    503.19041  0.024308715  0.023113175          307 
 1726000   0.56963409   -6.2751168    504.48766  0.024357264  0.023096433          149 
 1727000   0.56727472   -6.2733581    503.94878  0.024317158  0.023079703          285 
 1728000   0.55816601   -6.2833235    504.71239  0.024339911  0.023062919          119 
 1729000   0.55125835   -6.2914297     503.7079   0.02427742  0.023046136          111 
 1730000   0.56476792   -6.2742075    503.66903  0.024261514  0.023029328          177 
 1731000   0.57166868   -6.3011881    503.93133  0.024260126  0.023012563          115 
 1732000   0.56930628   -6.2793888    504.16603  0.024257411  0.022995783          166 
 1733000   0.55928324   -6.2885737     504.0211  0.024236445  0.022979023          207 
 1734000   0.55603497   -6.3079442     503.8693  0.024215172  0.022962242          201 
 1735000   0.56997021   -6.2897015    502.89868  0.024154595  0.022945485          116 
 1736000   0.56737806   -6.2989557    503.85998  0.024186827  0.022928752          122 
 1737000   0.56169585   -6.2875549    505.10603  0.024232682  0.022912085          224 
 1738000   0.55583227   -6.2871784    503.97332  0.024164428  0.022895385          203 
 1739000   0.56529165   -6.3152409    504.04329  0.024153886  0.022878671          156 
 1740000   0.55974958   -6.3089405    502.49882  0.024066035  0.022862015          176 
 1741000   0.54140189   -6.3103778    503.45739  0.024098094   0.02284533          203 
 1742000   0.55789665   -6.2984614    503.88434  0.024104685  0.022828594          137 
 1743000   0.56594649    -6.334455    502.26208  0.024013295  0.022811833          246 
 1744000   0.55658379   -6.3179806     502.5979  0.024015572  0.022795088          157 
 1745000    0.5635243   -6.3253415    502.47012  0.023995708  0.022778371          147 
 1746000   0.55035351    -6.322429    503.56928  0.024034425  0.022761644          223 
 1747000   0.56156344   -6.3020661    503.94561  0.024038619  0.022744941          210 
 1748000   0.56129871   -6.3263035    503.09177  0.023984162  0.022728241          203 
 1749000   0.54700356   -6.2877985    503.17889  0.023974599  0.022711556          205 
 1750000   0.54967988   -6.3075129    502.79396   0.02394257  0.022694829          187 
 1751000   0.55049911   -6.3159157    502.31635  0.023906166  0.022678154          205 
 1752000   0.55394051   -6.3192181    502.96175  0.023923218  0.022661506          157 
 1753000   0.54299929   -6.3238341    502.80628  0.023902181  0.022644831          125 
 1754000   0.54752081   -6.3176615    502.45613  0.023871918  0.022628175          134 
 1755000   0.55613995   -6.3183361    503.15861  0.023891672  0.022611544          141 
 1756000   0.55642535   -6.3042258    503.84589  0.023910682  0.022594954          110 
 1757000   0.54538801   -6.3206879    502.76973  0.023846032  0.022578371          164 
 1758000   0.54280171   -6.3354611    503.29423   0.02385733  0.022561773          147 
 1759000   0.55919788   -6.3183304    502.60931  0.023811318  0.022545193          142 
 1760000   0.55148125   -6.3182922    501.42862  0.023741885  0.022528605          129 
 1761000   0.56279531   -6.3256416    503.17932  0.023811249  0.022512016          113 
 1762000   0.53856284   -6.3225455    502.26004  0.023754259  0.022495462          117 
 1763000   0.54576575   -6.3325773    503.15052  0.023782876  0.022478892          107 
 1764000    0.5364361   -6.3133987    502.74116  0.023750055  0.022462314          123 
 1765000   0.54623647   -6.3189772    503.32742  0.023764278  0.022445801          120 
 1766000   0.54781162   -6.3078148    502.38816  0.023706501  0.022429292           71 
 1767000    0.5421253   -6.3153187    503.09814  0.023726568  0.022412801           76 
 1768000   0.54053602   -6.3197564    502.85414  0.023701647  0.022396309           98 
 1769000    0.5410438   -6.3237343    503.28988  0.023708775  0.022379836          106 
 1770000   0.54626405   -6.3316671    503.27195  0.023694536  0.022363387          104 
 1771000   0.54680246   -6.3114237     502.3683  0.023638637  0.022346948           90 
 1772000   0.54121847   -6.3341224    502.34875  0.023624377  0.022330539           65 
 1773000   0.54197785   -6.3359295    502.74376  0.023629618  0.022314123           88 
 1774000   0.55597327   -6.3584601     501.7401  0.023569152  0.022297689          119 
 1775000   0.54633871   -6.3398351    502.62422  0.023597381  0.022281274          108 
 1776000   0.55885047   -6.3166179    501.64241  0.023538026   0.02226489           73 
 1777000   0.54215459   -6.3141795    502.66201  0.023572595  0.022248523          102 
 1778000   0.53063185   -6.3541422    501.71417  0.023514912   0.02223218           93 
 1779000   0.52766482   -6.3211814    501.95464  0.023512959  0.022215809           64 
 1780000   0.55181919   -6.3426426    502.73231  0.023536157  0.022199487           85 
 1781000    0.5487436   -6.3312323     502.6929  0.023521098  0.022183166           87 
 1782000   0.53917933   -6.3442129    502.89175  0.023517197  0.022166886          128 
 1783000   0.53600254   -6.3199411    503.08216  0.023512907  0.022150592          135 
 1784000   0.53993803   -6.3359497    503.11105  0.023501077  0.022134323           76 
 1785000   0.53361103   -6.3376363    501.85359  0.023429206  0.022118061           91 
 1786000   0.54056093   -6.3030058    502.82472    0.0234614   0.02210182          136 
 1787000   0.53953027   -6.3510761    502.49386  0.023432842  0.022085607          153 
 1788000   0.53990502   -6.3497178     502.9139  0.023439313  0.022069338          172 
 1789000   0.53933373   -6.3344514    503.73253  0.023464343  0.022053121          129 
 1790000   0.52276769   -6.3539807    502.08055  0.023374327  0.022036901          134 
 1791000   0.54450526   -6.3466494    501.81745  0.023349034  0.022020693          105 
 1792000    0.5398793   -6.3436656    502.85257  0.023384141  0.022004493          164 
 1793000   0.53611308   -6.3481697    502.44326  0.023352076  0.021988307          112 
 1794000   0.52823707   -6.3357857    502.42313  0.023338124  0.021972147          140 
 1795000   0.53306046   -6.3352147    502.89569  0.023347061  0.021956009          123 
 1796000   0.54547878   -6.3401376    503.11176  0.023344087  0.021939876          146 
 1797000   0.54057739   -6.3332946    502.91573  0.023322006  0.021923746          137 
 1798000   0.53753495   -6.3317478    502.32624  0.023281713  0.021907641          150 
 1799000   0.52553906   -6.3481388    501.53137  0.023231951  0.021891544          162 
 1800000   0.54467312   -6.3346891    502.62851  0.023269838  0.021875429          150 
 1801000   0.53627604    -6.336423    502.47604  0.023249863  0.021859305          253 
 1802000   0.53806989   -6.3446023      502.636  0.023244358    0.0218432          134 
 1803000   0.54061766   -6.3541442    503.01466  0.023248968  0.021827091          137 
 1804000   0.53746856   -6.3575204      500.997  0.023142877  0.021811019          145 
 1805000   0.52721041   -6.3393731    501.90597  0.023172021  0.021794935          166 
 1806000   0.54432995    -6.359066    502.84952  0.023202728  0.021778892          205 
 1807000   0.52773932   -6.3549158    502.23893  0.023161729  0.021762824          195 
 1808000   0.52937588   -6.3613056    502.79225  0.023174422  0.021746772          109 
 1809000   0.53507156   -6.3441622    501.95735  0.023123151  0.021730743          169 
 1810000     0.523434   -6.3573024    502.80793  0.023149537  0.021714716          142 
 1811000   0.53096943   -6.3635088    502.34141  0.023115287    0.0216987          117 
 1812000   0.53239562   -6.3627587    501.50717  0.023064164  0.021682694          126 
 1813000   0.54046143   -6.3492459    501.60062  0.023055737   0.02166671          160 
 1814000   0.54036289   -6.3534221    500.80996  0.023006705  0.021650722          197 
 1815000   0.53302539   -6.3658893    502.07912  0.023052301  0.021634736          196 
 1816000   0.51363707   -6.3441297    501.99512  0.023035752  0.021618766          199 
 1817000   0.52799655   -6.3484057    501.50364  0.023000534  0.021602777          188 
 1818000   0.51683579   -6.3689208    501.07895  0.022968415  0.021586776          117 
 1819000   0.52675909   -6.3838774    501.56281  0.022977955  0.021570772          132 
 1820000   0.52387734   -6.3740683    501.46345   0.02296078  0.021554781          226 
 1821000   0.52656558   -6.3681156    501.31914  0.022941568    0.0215388          223 
 1822000    0.5370551   -6.3778047    500.96435  0.022912749   0.02152283          123 
 1823000    0.5190596   -6.3856228    501.10171   0.02290646  0.021506885          173 
 1824000   0.53285638     -6.37838    501.84804  0.022927999  0.021490938          154 
 1825000   0.52083263   -6.3660303    501.21666  0.022886606  0.021475015          234 
 1826000   0.52925337   -6.3460797    501.61025  0.022892034  0.021459127          207 
 1827000   0.54167496   -6.3543281     501.5429  0.022876432  0.021443235          211 
 1828000   0.52121908   -6.3652383    501.73977  0.022872893  0.021427368          217 
 1829000   0.53897789   -6.3718633    501.61522  0.022854712  0.021411483          248 
 1830000   0.51698032    -6.375833    500.09494  0.022772993  0.021395602          220 
 1831000   0.51249911   -6.3516243    502.78822  0.022883134  0.021379771          276 
 1832000   0.52223761   -6.3598108     500.8302  0.022781577  0.021363954          293 
 1833000   0.52382797   -6.3700385    501.31681  0.022791272  0.021348097          221 
 1834000   0.51083632   -6.3707016    501.38628  0.022782001  0.021332244          264 
 1835000   0.52497169   -6.3812755    502.13382  0.022803534  0.021316442          204 
 1836000   0.50933072   -6.3707192    502.55579  0.022810266  0.021300645          257 
 1837000   0.51727647   -6.3624345    501.52265  0.022750982   0.02128486          246 
 1838000    0.5224562   -6.3633402    501.23976  0.022725778  0.021269082          184 
 1839000    0.5219843   -6.3583493    501.54692  0.022727339  0.021253313          150 
 1840000    0.5347434   -6.3841784    501.66555   0.02272036  0.021237564          243 
 1841000   0.52628295    -6.379531    501.45266  0.022698382  0.021221803          239 
 1842000   0.51565109   -6.3735226    500.71481  0.022652679  0.021206062          236 
 1843000   0.52252248   -6.3714139    501.13826  0.022659534  0.021190309          240 
 1844000   0.51791984   -6.3766749    500.40981  0.022614326  0.021174588          312 
 1845000   0.51456058   -6.4024543    501.16904  0.022636361  0.021158867          216 
 1846000    0.5141677   -6.3923521    501.36346  0.022632876  0.021143129          339 
 1847000   0.50292258    -6.388547    500.69658  0.022590533  0.021127381          271 
 1848000   0.51671775   -6.3906901    502.64536  0.022666187   0.02111166          223 
 1849000   0.51750152   -6.4041077    501.46982  0.022600948  0.021095961          267 
 1850000   0.51964322   -6.3967812     500.1809  0.022530671  0.021080263          357 
 1851000   0.51844402   -6.4047061    500.10413  0.022515043  0.021064541          263 
 1852000   0.51143481   -6.4007764    500.66837  0.022528274  0.021048827          323 
 1853000   0.51557601     -6.40479    501.00795  0.022531388  0.021033149          305 
 1854000   0.51342114   -6.4024942    500.65863  0.022503534  0.021017472          349 
 1855000   0.51834296    -6.415513     500.2751  0.022474173  0.021001818          352 
 1856000   0.51412425   -6.3921927    501.16591  0.022502061  0.020986188          350 
 1857000   0.51661084   -6.4001085    499.91276  0.022433708  0.020970554          252 
 1858000   0.50813072   -6.3866361    500.58222   0.02245166  0.020954911          302 
 1859000   0.51214128   -6.3873956    500.31222   0.02242748   0.02093929          290 
 1860000   0.51456092   -6.3954475    499.83638  0.022394103  0.020923695          368 
 1861000   0.51206181   -6.4026593    500.87596  0.022428621  0.020908105          317 
 1862000   0.51830703   -6.4084652    500.21651  0.022387062  0.020892529          386 
 1863000    0.5042895    -6.413983     500.1809  0.022373452  0.020876971          280 
 1864000   0.50482157   -6.4190977    500.52118  0.022376662   0.02086142          489 
 1865000   0.51284931   -6.4123414    500.02335  0.022342419  0.020845875          423 
 1866000   0.50947003   -6.4101526    500.86559   0.02236806  0.020830364          403 
 1867000   0.49631194   -6.4119815    500.60904  0.022344628  0.020814844          405 
 1868000   0.49508933   -6.4326561    499.91831  0.022301852  0.020799312          341 
 1869000   0.49842004   -6.4168065    500.50428  0.022316046  0.020783785          402 
 1870000   0.51485491   -6.4171289    500.36686  0.022297989  0.020768271          297 
 1871000   0.50794283   -6.4239765    499.34139  0.022240397  0.020752778          346 
 1872000    0.5042012   -6.4161879    501.11362  0.022307408  0.020737276          301 
 1873000   0.50017649   -6.4413972    499.55133  0.022225989  0.020721783          324 
 1874000   0.51165559   -6.4260576    499.25899  0.022201129   0.02070629          350 
 1875000   0.50088514   -6.4304914    499.92885   0.02221906  0.020690794          455 
 1876000   0.50898676    -6.418085    500.20158  0.022219331  0.020675347          458 
 1877000   0.49605803   -6.4246726    499.78302   0.02218891  0.020659908          431 
 1878000   0.50257183    -6.425749     500.3388  0.022201757  0.020644472          342 
 1879000   0.51419204   -6.4472691    500.18808  0.022183257   0.02062903          490 
 1880000   0.49587419   -6.4208654    499.55726  0.022143495    0.0206136          353 
 1881000   0.49331887   -6.4164826    499.38323  0.022124014  0.020598173          368 
 1882000   0.50857961   -6.4313218     499.6464  0.022123911  0.020582787          385 
 1883000    0.4973275   -6.4304129    500.67912  0.022157865   0.02056741          221 
 1884000   0.49876082   -6.4132427    499.42067   0.02209044  0.020552041          272 
 1885000   0.48980334   -6.4385425    500.64087  0.022132664  0.020536669          336 
 1886000   0.49940399     -6.44379    499.46929  0.022069163  0.020521296          301 
 1887000   0.50377858   -6.4434636    499.80753  0.022072405  0.020505936          324 
 1888000   0.50708983   -6.4256346    499.61021  0.022052004  0.020490635          314 
 1889000   0.50680575   -6.4152077    500.46036  0.022077835  0.020475363          336 
 1890000   0.50767282   -6.4205811     499.9667  0.022044387   0.02046009          417 
 1891000    0.4904904   -6.4416878    499.30308  0.022003485  0.020444825          408 
 1892000   0.49232692   -6.4391679    499.20485  0.021987528  0.020429553          376 
 1893000   0.49750334   -6.4559836     499.3465  0.021982149  0.020414276          374 
 1894000   0.50039763   -6.4244291    499.71121   0.02198659  0.020399016          409 
 1895000   0.50188327   -6.4545723    498.39892  0.021917279  0.020383737          476 
 1896000   0.49681204   -6.4353294    500.13122  0.021981857  0.020368496          440 
 1897000   0.48622224   -6.4170911    499.19422  0.021929108  0.020353247          578 
 1898000   0.48410464   -6.4316959    499.51942  0.021931832     0.020338          442 
 1899000   0.49763313   -6.4518058     498.3803  0.021870296  0.020322743          430 
 1900000   0.48532258   -6.4559263    499.33844  0.021900809  0.020307529          328 
 1901000   0.49186692   -6.4599871    498.48319  0.021851797  0.020292318          439 
 1902000   0.49906716   -6.4515959    499.71337  0.021894207  0.020277096          388 
 1903000   0.49577432   -6.4438753    499.86492  0.021889338  0.020261884          422 
 1904000   0.49710973   -6.4557478    499.13872  0.021846058  0.020246694          415 
 1905000    0.4883547   -6.4530137    499.41542  0.021846694  0.020231513          385 
 1906000   0.49008441   -6.4573981    499.05408  0.021819433  0.020216338          471 
 1907000   0.48897616   -6.4743514    498.35268  0.021777341  0.020201162          471 
 1908000   0.48686329   -6.4509105    498.05952  0.021753123  0.020186008          469 
 1909000   0.49483272   -6.4515979    498.44453  0.021758535  0.020170858          395 
 1910000   0.50003315   -6.4514158    498.79189  0.021762299  0.020155753          344 
 1911000   0.49917973    -6.463102    498.79711  0.021751139  0.020140644          492 
 1912000   0.48619529   -6.4690344    498.90313  0.021744383  0.020125534          452 
 1913000   0.49053595   -6.4568027     498.6244  0.021720875  0.020110422          535 
 1914000   0.48371938   -6.4646973    499.41428  0.021743917  0.020095323          546 
 1915000   0.48848793   -6.4529744     499.0709   0.02171762  0.020080243          594 
 1916000   0.48643913   -6.4632163    498.01401  0.021660317  0.020065171          463 
 1917000   0.48633791   -6.4704748    499.10196  0.021696312  0.020050117          366 
 1918000   0.49077008   -6.4722041    498.04289  0.021638986  0.020035086          434 
 1919000    0.4972459   -6.4722039    499.54356  0.021692876  0.020020064          504 
 1920000   0.48174931   -6.4569209    498.93144   0.02165501  0.020005044          430 
 1921000   0.48697257     -6.45407    498.87849  0.021641441  0.019990044          365 
 1922000   0.47847751   -6.4678709    498.49248  0.021613444  0.019975053          390 
 1923000    0.4839588    -6.467377     498.4823  0.021601764   0.01996006          452 
 1924000   0.49755217   -6.4747229     497.6828  0.021555908  0.019945084          491 
 1925000   0.48216565   -6.4667185     498.6911  0.021588359   0.01993013          493 
 1926000   0.48188203   -6.4727085    497.83374  0.021540054  0.019915184          537 
 1927000   0.49007657   -6.4794278     498.8351   0.02157218  0.019900243          552 
 1928000   0.48166289    -6.471018     498.5873  0.021550281  0.019885299          463 
 1929000   0.49169694   -6.4814945    498.25207  0.021524627  0.019870373          629 
 1930000   0.47888568   -6.4904612    499.04452  0.021547691   0.01985547          666 
 1931000   0.48602316   -6.4763837    497.72252  0.021479481  0.019840543          635 
 1932000   0.47856225   -6.4732697    497.68956  0.021466941  0.019825648          515 
 1933000   0.48073298   -6.4770807    498.66846  0.021498037  0.019810764          536 
 1934000   0.48352021   -6.4902796    497.97882  0.021457205  0.019795881          563 
 1935000   0.48081949   -6.4926931    498.59784  0.021472775  0.019781013          624 
 1936000   0.47272134   -6.4667324    497.72286  0.021424021  0.019766167          607 
 1937000    0.4734892   -6.4914419    497.99186  0.021424534  0.019751298          671 
 1938000   0.47936846   -6.4755482    498.37239  0.021429841  0.019736457          710 
 1939000    0.4765483   -6.4811092    497.64286  0.021387436  0.019721618          563 
 1940000   0.47842123   -6.4944235    497.22008  0.021358251  0.019706798          656 
 1941000   0.47431669   -6.4751304    498.15946  0.021387578  0.019691973          647 
 1942000   0.48489256   -6.4863262    497.45676  0.021346411  0.019677183          607 
 1943000   0.48130704   -6.4844676    498.32753  0.021372771   0.01966243          714 
 1944000   0.47076539   -6.4895375    497.81299   0.02133972  0.019647691          747 
 1945000   0.47488906   -6.4730518     498.1672  0.021343924  0.019632962          660 
 1946000   0.48116103   -6.4772931     498.4137  0.021343512  0.019618225          674 
 1947000   0.47102072    -6.486065     497.4347  0.021290648  0.019603512          731 
 1948000   0.46681766   -6.4900199    497.68835   0.02129057  0.019588797          756 
 1949000   0.47822657    -6.505403    498.53773  0.021315962  0.019574072          643 
 1950000   0.46839596   -6.5018556    496.76458  0.021229256  0.019559334          527 
 1951000    0.4835492   -6.4906776    498.29263  0.021283642  0.019544613          737 
 1952000    0.4783328    -6.504503    497.67855  0.021246523  0.019529925          746 
 1953000   0.46761604   -6.5025287    497.59367  0.021232022  0.019515232          715 
 1954000    0.4718683   -6.4948692    497.96998  0.021237205  0.019500556          706 
 1955000   0.48035593   -6.4963068    497.79717  0.021218976  0.019485904          658 
 1956000   0.47860313   -6.5095752    497.48686  0.021194907  0.019471266          741 
 1957000   0.47851848   -6.5112746    497.59738  0.021188783  0.019456641          787 
 1958000   0.47944917   -6.4996186    496.95665  0.021150692  0.019442059          784 
 1959000   0.46867285   -6.5031669    497.38026  0.021157915  0.019427457          661 
 1960000   0.47746698   -6.5054756    498.45481  0.021192806  0.019412869          821 
 1961000   0.46808282   -6.5101825    497.13935  0.021126099   0.01939826          820 
 1962000   0.47092465   -6.5012421    497.38874  0.021125923   0.01938368          861 
 1963000   0.47226635   -6.5209005     498.0222  0.021142053  0.019369095          860 
 1964000   0.47049121   -6.4944301    497.46155  0.021107499   0.01935453          821 
 1965000   0.46743547   -6.5024873     496.2085  0.021043617  0.019339955          780 
 1966000   0.47310596   -6.5161785    497.28823  0.021078681  0.019325398          820 
 1967000   0.48046288   -6.5298812     497.6549  0.021083498  0.019310864          884 
 1968000   0.45993638   -6.5090582    497.03319   0.02104646  0.019296324          884 
 1969000   0.47028374   -6.5222857     497.6313  0.021061084  0.019281811          805 
 1970000   0.45649818    -6.519977    496.20059  0.020989873  0.019267313          835 
 1971000   0.47534223   -6.5044952     497.0775  0.021016299  0.019252823          808 
 1972000   0.46118039   -6.5006993    497.50816  0.021023841  0.019238362          787 
 1973000    0.4670925   -6.5221485    497.16865  0.020998845  0.019223896          777 
 1974000   0.45642796   -6.5214078     498.0979  0.021027436  0.019209469          850 
 1975000   0.46300684   -6.5150859    496.25546  0.020939049  0.019195048          738 
 1976000   0.46368041   -6.5265038    496.78776  0.020950901  0.019180619          858 
 1977000    0.4629799   -6.5103161    497.18173   0.02095691  0.019166218          833 
 1978000   0.46019713   -6.5308637    497.54995  0.020961828  0.019151835          801 
 1979000   0.46483716   -6.5212964    497.35269  0.020942929  0.019137439          844 
 1980000   0.47045474   -6.5261225    497.04295  0.020919316  0.019123072          933 
 1981000   0.46124089   -6.5336861    497.14735  0.020913148  0.019108723          875 
 1982000   0.45883958   -6.5136269    496.75559  0.020886125  0.019094396          882 
 1983000   0.44970616   -6.5221698    497.78306   0.02091877  0.019080079          854 
 1984000   0.46071786   -6.5177979    498.02115  0.020918227   0.01906578          757 
 1985000   0.45974536   -6.5264948    497.44493  0.020883498  0.019051476          891 
 1986000   0.46674635   -6.5410752    496.66594  0.020840296  0.019037185          936 
 1987000   0.45468165   -6.5101313    496.85139  0.020837586  0.019022899          832 
 1988000   0.45807014    -6.530541    497.42011  0.020850944  0.019008632          895 
 1989000   0.45770356   -6.5465234     497.1932  0.020830954  0.018994368          832 
 1990000   0.45954413   -6.5197828    496.82767  0.020805179  0.018980114          845 
 1991000   0.45702287   -6.5212697    497.68344  0.020830548  0.018965857          815 
 1992000   0.46262648    -6.519408     496.6458  0.020776682  0.018951634          861 
 1993000   0.46500898    -6.539268    496.89076  0.020776499  0.018937401          885 
 1994000   0.46371569   -6.5258674    495.76028  0.020718835  0.018923189          911 
 1995000   0.46246577   -6.5228721    496.13778  0.020724218  0.018908968          855 
 1996000   0.45950202   -6.5351853    496.26627    0.0207192   0.01889478          787 
 1997000   0.45551648   -6.5455071    495.87433  0.020692469  0.018880594          883 
 1998000   0.45418377   -6.5268888    495.69774  0.020674747  0.018866411          816 
 1999000   0.44979262   -6.5365003    496.12222    0.0206821  0.018852249          787 
 2000000   0.45126516   -6.5357654    496.87721  0.020703217  0.018838103          799 
 2001000   0.45201671    -6.527826    496.55632  0.020679507  0.018823959          806 
 2002000    0.4522601    -6.538414    496.93685  0.020685017  0.018809829          851 
 2003000   0.45007974   -6.5410848    495.99241  0.020635397  0.018795691          741 
 2004000   0.45506884   -6.5317399    496.55791  0.020648616  0.018781579          825 
 2005000   0.44971697   -6.5331665     496.2697  0.020626338  0.018767488          783 
 2006000   0.45545162   -6.5546353    496.74061  0.020635618  0.018753387          809 
 2007000   0.45540629   -6.5335133    496.66233  0.020622087  0.018739309          765 
 2008000   0.45371115   -6.5332412    495.79746  0.020575924  0.018725237          739 
 2009000    0.4465298   -6.5218772    496.37827  0.020589774  0.018711179          811 
 2010000   0.44342761   -6.5456821    495.72141  0.020552297  0.018697133          861 
 2011000   0.44412094   -6.5451298    495.96825  0.020552306  0.018683099          874 
 2012000   0.45196286   -6.5346125    497.04782  0.020586805   0.01866908          909 
Loop time of 5174.31 on 48 procs for 2000000 steps with 4000 atoms

Performance: 66791.544 tau/day, 386.525 timesteps/s
99.4% CPU use with 48 MPI tasks x no OpenMP threads

MPI task timing breakdown:
Section |  min time  |  avg time  |  max time  |%varavg| %total
---------------------------------------------------------------
Pair    | 364.43     | 396.11     | 430.45     |  82.8 |  7.66
Neigh   | 35.117     | 36.51      | 38.967     |  15.2 |  0.71
Comm    | 315.17     | 358.22     | 392.51     |  98.1 |  6.92
Output  | 5.6664     | 5.6685     | 5.7257     |   0.4 |  0.11
Modify  | 4310.6     | 4328.4     | 4343.3     |  14.2 | 83.65
Other   |            | 49.41      |            |       |  0.95

Nlocal:        83.3333 ave          90 max          77 min
Histogram: 2 4 4 8 5 5 15 1 3 1
Nghost:        2384.56 ave        2405 max        2357 min
Histogram: 1 0 4 5 4 9 13 7 3 2
Neighs:        16363.7 ave       18506 max       14232 min
Histogram: 1 5 10 4 6 5 4 6 1 6
FullNghs:      32726.3 ave       35128 max       29899 min
Histogram: 2 2 7 3 6 4 13 7 0 4

Total # of neighbors = 1570862
Ave neighs/atom = 392.71550
Neighbor list builds = 107337
Dangerous builds = 1

#clear
#
#next RN
#
#jump SELF
Total wall time: 1:26:17
