
units lj                  # Use reduced LJ style units
atom_style atomic         # Uncharged point particles
atom_modify map hash      # Needed for indexing of clusters etc
                          # Used to be able to find where atoms are in relation to each other.

lattice fcc 1.0 spacing 1 1 1
Lattice spacing in x,y,z = 1.5874011 1.5874011 1.5874011
region box block 0 10 0 10 0 10 units lattice
create_box 2 box
Created orthogonal box = (0.0000000 0.0000000 0.0000000) to (15.874011 15.874011 15.874011)
  3 by 4 by 4 MPI processor grid
create_atoms 1 box
Created 4000 atoms
  using lattice units in orthogonal box = (0.0000000 0.0000000 0.0000000) to (15.874011 15.874011 15.874011)
  create_atoms CPU = 0.002 seconds
set type 1 type/fraction 2 0.47 78393
Setting atom values ...
  1873 settings made for type/fraction
mass 1 1.0
mass 2 1.0
pair_style lj/cut  3.5
pair_modify tail  yes
pair_coeff 1  1  1.0  1.0   # Intearaction between 1 and 1 set with epsilon = 1 and sigma = 1
pair_coeff 1  2  1.5  0.8
pair_coeff 2  2  0.5  0.88

write_data data.0
System init for write_data ...
Neighbor list info ...
  update every 1 steps, delay 10 steps, check yes
  max neighbors/atom: 2000, page size: 100000
  master list distance cutoff = 3.8
  ghost atom cutoff = 3.8
  binsize = 1.9, bins = 9 9 9
  1 neighbor lists, perpetual/occasional/extra = 1 0 0
  (1) pair lj/cut, perpetual
      attributes: half, newton on
      pair build: half/bin/atomonly/newton
      stencil: half/bin/3d
      bin: standard
WARNING: Not all mixed pair coeffs generated from mixing. Use write_data with 'pair ij' option to store all pair coeffs. (../write_data.cpp:312)


#############################
#   M E L T   S Y S T E M   #
#############################

velocity all create 2.4 2750902 mom yes dist gaussian # Assign velocities
                                                    # Temperature 2.4, random number seed, zero linear momentum
                                                                                # Gaussian distribution

timestep 0.002   # simulation timestep
thermo 1000       # output thermodynamic data every 1000 steps bf 100

# Define a fix  in this case with index 1 applied to all
# particles in the simulation. This fix is for simulations
# in the anisotropic NPT ensemble. Note that we use the MTK
# correction.
fix 1 all npt temp 2.4 2.4 0.1 iso 5.68 5.68 0.5 mtk yes tchain 5 pchain 5 # Use NPT ensemble
                                                                         # Set temperature and pressure and damping
                                                                         # Numbers of thermostats in chain and in barostat
run 10000          # run for 10000 steps
Per MPI rank memory allocation (min/avg/max) = 3.642 | 3.644 | 3.648 Mbytes
Step Temp E_pair E_mol TotEng Press Volume 
       0          2.4   -5.4815223            0   -1.8824223   -4.2035566         4000 
    1000    2.3804957   -4.9735037            0   -1.4036528    5.5812378    3756.7384 
    2000    2.4144428   -4.9379248            0    -1.317166    5.8725855    3758.0573 
    3000    2.3509631   -4.9900031            0   -1.4644401     5.501026    3751.2667 
    4000    2.4105971   -4.9790529            0   -1.3640612    5.7013523    3745.2688 
    5000    2.4141492   -4.9298134            0    -1.309495    5.3478231    3786.8321 
    6000     2.355949   -4.9839996            0   -1.4509596    5.1955305    3779.4521 
    7000    2.4267063   -5.0184698            0   -1.3793203    5.6901315    3726.6021 
    8000    2.3479487   -4.9199621            0   -1.3989195    5.5885832    3773.3586 
    9000     2.405926   -5.0687777            0   -1.4607909    5.3955868    3728.2261 
   10000    2.3707549   -4.9711864            0   -1.4159431    5.6777973    3751.3439 
Loop time of 2.6144 on 48 procs for 10000 steps with 4000 atoms

Performance: 660955.754 tau/day, 3824.975 timesteps/s
99.6% CPU use with 48 MPI tasks x no OpenMP threads

MPI task timing breakdown:
Section |  min time  |  avg time  |  max time  |%varavg| %total
---------------------------------------------------------------
Pair    | 1.1393     | 1.2313     | 1.3185     |   3.1 | 47.10
Neigh   | 0.21061    | 0.21968    | 0.23322    |   1.0 |  8.40
Comm    | 0.78295    | 0.88877    | 0.97427    |   4.3 | 34.00
Output  | 0.00024642 | 0.00025134 | 0.0003178  |   0.0 |  0.01
Modify  | 0.2231     | 0.25886    | 0.29634    |   3.4 |  9.90
Other   |            | 0.01555    |            |       |  0.59

Nlocal:        83.3333 ave          91 max          75 min
Histogram: 1 3 4 12 3 4 9 3 8 1
Nghost:        1711.77 ave        1742 max        1691 min
Histogram: 5 5 9 11 3 3 2 8 1 1
Neighs:        10178.8 ave       11469 max        8921 min
Histogram: 2 0 8 10 7 3 10 4 2 2

Total # of neighbors = 488580
Ave neighs/atom = 122.14500
Neighbor list builds = 902
Dangerous builds = 193

# Equilibrate just above the melting temperature to avoid step fn in T

fix 1 all npt temp 1.25 1.25 0.1 iso 5.68 5.68 0.5 mtk yes tchain 5 pchain 5
run 2000
Per MPI rank memory allocation (min/avg/max) = 3.644 | 3.646 | 3.649 Mbytes
Step Temp E_pair E_mol TotEng Press Volume 
   10000    2.3707549   -4.9711864            0   -1.4159431    5.6777973    3751.3439 
   11000    1.2612282   -7.0797452            0   -5.1883758    5.7025574    2935.5883 
   12000    1.2611021   -7.1259879            0   -5.2348076    5.7840165    2918.2844 
Loop time of 0.623192 on 48 procs for 2000 steps with 4000 atoms

Performance: 554564.583 tau/day, 3209.286 timesteps/s
99.7% CPU use with 48 MPI tasks x no OpenMP threads

MPI task timing breakdown:
Section |  min time  |  avg time  |  max time  |%varavg| %total
---------------------------------------------------------------
Pair    | 0.28652    | 0.3083     | 0.33245    |   1.9 | 49.47
Neigh   | 0.038754   | 0.041853   | 0.044993   |   0.6 |  6.72
Comm    | 0.20108    | 0.22422    | 0.24793    |   2.6 | 35.98
Output  | 5.3657e-05 | 5.5306e-05 | 6.9068e-05 |   0.0 |  0.01
Modify  | 0.039456   | 0.043917   | 0.047659   |   1.2 |  7.05
Other   |            | 0.004849   |            |       |  0.78

Nlocal:        83.3333 ave          89 max          76 min
Histogram: 1 0 6 11 4 4 8 3 2 9
Nghost:        2026.94 ave        2048 max        2009 min
Histogram: 2 7 2 7 6 13 4 4 2 1
Neighs:        13082.9 ave       14326 max       11502 min
Histogram: 3 2 3 5 7 5 9 4 6 4

Total # of neighbors = 627979
Ave neighs/atom = 156.99475
Neighbor list builds = 141
Dangerous builds = 6

#############################
# L I N E A R  Q U E N C H  #
#############################

# Define solid atoms. This closely follows ten Wolde  Ruiz-Montero and Frenkel  Faraday Discuss  1996  104  93-110
# Compute components of the per-atom q6 vector
compute q6 all orientorder/atom degrees 1 6 components 6 nnn NULL cutoff 1.3 # compute the Q6 parameter.
                                                                             # Use all neighbours within 1.3 unit cell.

# get number of connections
compute coord_number all coord/atom orientorder q6 0.5

# An atom is solid if it has 8 or more connections (of a possible 14)
variable is_solid atom c_coord_number>=8
group solid dynamic all var is_solid    # Must be dynamic to update
dynamic group solid defined

# do clustering
compute cluster solid cluster/atom 1.3 # Create a cluster where all atoms within are solid and max 1.3 units from another member

# define chunks one chunk per cluster
compute clus_chunks solid chunk/atom c_cluster nchunk every compress yes  # Says which atoms are in which chunk

# count the size of each chunk
compute size_chunks solid property/chunk clus_chunks count


# Find the maximum entry in the vector of chunk sizes
variable max_n equal max(c_size_chunks)


# Thermo style which includes this variable
# thermo_style custom step temp pe vol v_max_n

thermo ${N}  # Print the thermo information every 100 steps
thermo 1000  

# Reset the npt fix at a lower temperature (below freezing)
fix 1  all npt temp  ${temp} ${temp}  0.1  iso  5.68  5.68  0.5  mtk yes tchain  5  pchain  5
fix 1  all npt temp  0.45 ${temp}  0.1  iso  5.68  5.68  0.5  mtk yes tchain  5  pchain  5
fix 1  all npt temp  0.45 0.45  0.1  iso  5.68  5.68  0.5  mtk yes tchain  5  pchain  5

dump dmp2 all dcd ${N} traj.dcd
dump dmp2 all dcd 1000 traj.dcd


compute msd all msd com yes
variable twopoint equal c_msd[4]/6/(step*dt+1.0e-6)
fix 9 all vector 10 c_msd[4]
variable fit equal slope(f_9)/6/(10*dt)
thermo_style custom step temp pe c_msd[4] v_twopoint v_fit v_max_n

fix 1 all npt temp 1.25 ${temp} 0.1 iso 5.68 5.68 0.5 mtk yes tchain 5 pchain 5
fix 1 all npt temp 1.25 0.45 0.1 iso 5.68 5.68 0.5 mtk yes tchain 5 pchain 5
run 500000 # 5000000  # Run for this many steps
Neighbor list info ...
  update every 1 steps, delay 10 steps, check yes
  max neighbors/atom: 2000, page size: 100000
  master list distance cutoff = 3.8
  ghost atom cutoff = 3.8
  binsize = 1.9, bins = 8 8 8
  4 neighbor lists, perpetual/occasional/extra = 1 3 0
  (1) pair lj/cut, perpetual
      attributes: half, newton on
      pair build: half/bin/atomonly/newton
      stencil: half/bin/3d
      bin: standard
  (2) compute orientorder/atom, occasional
      attributes: full, newton on
      pair build: full/bin/atomonly
      stencil: full/bin/3d
      bin: standard
  (3) compute coord/atom, occasional
      attributes: full, newton on
      pair build: full/bin/atomonly
      stencil: full/bin/3d
      bin: standard
  (4) compute cluster/atom, occasional
      attributes: full, newton on
      pair build: full/bin/atomonly
      stencil: full/bin/3d
      bin: standard
Per MPI rank memory allocation (min/avg/max) = 9.835 | 9.838 | 9.841 Mbytes
Step Temp PotEng c_msd[4] v_twopoint v_fit v_max_n 
   12000    1.2611021   -7.1259879 3.9443045e-34 2.7391003e-36 8.3333333e+20            2 
   13000    1.2730426   -7.1187774   0.46676935 0.0029921111  0.038173753            2 
   14000    1.2598129   -7.1030944   0.92004449 0.0054764551  0.037892428            3 
   15000    1.2613582   -7.1529067    1.3385415 0.0074363412  0.036961389            2 
   16000    1.2272173   -7.1555453    1.7350408 0.0090366707  0.035889442            1 
   17000    1.2481125    -7.172593     2.092175   0.01025576  0.034936634            2 
   18000     1.239656   -7.1271712    2.4721856  0.011445303  0.034077032            1 
   19000    1.2258183   -7.1190473    2.8237471  0.012384855  0.033387274            4 
   20000     1.245299   -7.1096976    3.2461334  0.013525555  0.032848085            2 
   21000    1.2513675   -7.1803574    3.6466448  0.014470812  0.032814929            2 
   22000    1.2468012   -7.2300196     4.040914  0.015306492  0.032900485            2 
   23000    1.2283313    -7.162985    4.4270005  0.016039857  0.032837179            2 
   24000    1.2332593   -7.1523397     4.799905  0.016666337  0.032699398            1 
   25000    1.2195576   -7.1475615    5.1695279  0.017231759  0.032612672            5 
   26000    1.2569394   -7.1888823    5.5339254   0.01773694  0.032514002            2 
   27000    1.2025075   -7.2047409    5.8616945  0.018091649  0.032338273            1 
   28000    1.2308387   -7.2303292    6.2761296  0.018678957   0.03220909            5 
   29000    1.2152279   -7.2074975    6.7443589  0.019380341  0.032190099            2 
   30000      1.22312   -7.1944745    7.1163786  0.019767718    0.0322552            2 
   31000    1.2282392   -7.1825725    7.3315081  0.019708355  0.032121326            1 
   32000    1.1977078   -7.1697646    7.6796095  0.019998983  0.031927705            1 
   33000    1.2050134   -7.2495628    8.0790667  0.020401683  0.031765238            2 
   34000    1.1995539   -7.2185627    8.5024525  0.020839344  0.031706895            4 
   35000    1.2153004    -7.234446    8.8075911  0.020970455  0.031623336            1 
   36000    1.2484089   -7.2050234    9.1826137   0.02125605  0.031533518            2 
   37000    1.2004019   -7.2405063    9.5672994  0.021547971   0.03148023            2 
   38000    1.2071274   -7.2151779    9.8235733  0.021542924  0.031363055            2 
   39000    1.2205903   -7.1989786    10.151917   0.02169213  0.031213903            2 
   40000    1.2213342   -7.2846216    10.423029  0.021714643  0.031037453            4 
   41000    1.1927563   -7.2551005    10.751783  0.021853218  0.030876059            2 
   42000    1.2019865   -7.2749169    11.120708  0.022064896  0.030736977            1 
   43000    1.2247547   -7.3022729    11.506655  0.022299719  0.030639145            4 
   44000    1.1980417   -7.2919992    11.757131  0.022267294  0.030540185            3 
   45000    1.1955247   -7.2797184    12.085627  0.022380791  0.030402576            2 
   46000    1.2070625   -7.3139693    12.409531  0.022481035   0.03029031            1 
   47000    1.1907077   -7.3168883    12.737145   0.02258359  0.030166436            1 
   48000    1.1899562   -7.3161073    13.009878  0.022586594  0.030015022            3 
   49000    1.2131828   -7.2958544     13.43717   0.02285233  0.029915202            3 
   50000    1.2023627   -7.3090337    13.702166  0.022836943  0.029816113            3 
   51000     1.195735   -7.3543338    14.136425  0.023098733  0.029746906            4 
   52000    1.1512854   -7.2786486    14.539274  0.023300119  0.029691611            3 
   53000    1.1699915   -7.2790457    14.942891  0.023495111  0.029655762            2 
   54000    1.2073232    -7.311611    15.219927  0.023487541   0.02960812            1 
   55000    1.1855799   -7.3343247    15.350508  0.023258345  0.029555391            4 
   56000     1.153959   -7.2714511    15.792374  0.023500557  0.029480881            2 
   57000    1.1741571   -7.2342462    16.218748   0.02371162  0.029435362            1 
   58000    1.1849265   -7.3106627    16.452247  0.023638285  0.029377914            3 
   59000    1.1748648   -7.3089689    16.866196   0.02382231  0.029333337            1 
   60000    1.1773344   -7.3278873    17.203266  0.023893425  0.029296668            3 
   61000    1.1644078    -7.312482    17.663612  0.024130617  0.029284626            5 
   62000    1.1743806   -7.3160413    17.955405  0.024133609  0.029272431            1 
   63000    1.1726392   -7.3435237    18.318589  0.024230938  0.029250637            2 
   64000     1.133905    -7.377922    18.616727   0.02424053  0.029222726            3 
   65000    1.1744589    -7.386979    18.969863  0.024320337  0.029196414            2 
   66000    1.1762779   -7.3327321    19.288913  0.024354688  0.029170585            1 
   67000    1.1569425   -7.3303672    19.448892  0.024190165   0.02913066            3 
   68000    1.1585447   -7.3445517    19.886104  0.024370225  0.029087463            6 
   69000    1.1513878   -7.3836852     20.14067   0.02432448  0.029045007            2 
   70000    1.1717953    -7.337827    20.518023  0.024426217  0.028996389            2 
   71000    1.1456266   -7.3807358    20.702794  0.024299054  0.028947242            3 
   72000    1.1341063   -7.3678149    21.040513  0.024352445  0.028893424            2 
   73000    1.1503755    -7.353393    21.349869  0.024371997  0.028844023            2 
   74000    1.1489254   -7.3703852    21.606544  0.024331693  0.028786378            3 
   75000    1.1448833   -7.3635515    21.731933  0.024146592  0.028715908            3 
   76000    1.1828488   -7.3868679    22.022967   0.02414799  0.028642715            1 
   77000    1.1360676   -7.4007596    22.251689  0.024081914  0.028562517            2 
   78000    1.1254694    -7.440205    22.554706  0.024096908  0.028480046            1 
   79000    1.1237978    -7.395837    22.797068   0.02404754  0.028395754            1 
   80000    1.1346025   -7.4209647    23.001973  0.023960389  0.028306883            3 
   81000    1.1279587   -7.4062206    23.500562  0.024177533  0.028226091            2 
   82000    1.1209718   -7.3633466    23.879875  0.024268165  0.028157064            1 
   83000    1.1434331   -7.3523088    24.108616  0.024205438  0.028098229            4 
   84000    1.1278396   -7.4069183    24.384877  0.024191346  0.028030767            3 
   85000    1.1172171    -7.457753    24.695517  0.024211292  0.027971021            2 
   86000     1.106617    -7.423694    24.898399  0.024126355  0.027907082            1 
   87000    1.1197023   -7.4366302    25.231433  0.024168039  0.027842768            2 
   88000    1.1549155    -7.426971    25.452748  0.024102981  0.027777252            3 
   89000     1.122667   -7.4563502    25.849789  0.024203922   0.02771754            2 
   90000    1.1139248   -7.4595234     26.18008  0.024240814  0.027668735            2 
   91000    1.1058191   -7.4118036    26.586505  0.024346616  0.027618824            4 
   92000    1.1265862   -7.4209096    26.702208  0.024186783  0.027567661            6 
   93000    1.1500559   -7.4845214    26.897371  0.024101586  0.027507805            2 
   94000    1.1255274   -7.4592009    27.282506  0.024186618  0.027451467            1 
   95000    1.1207399   -7.4777275    27.525856  0.024145488  0.027401604            3 
   96000    1.1226715   -7.4548027    27.785617  0.024119459  0.027347391            4 
   97000    1.1225253   -7.4570654    28.204089  0.024230317  0.027293432            1 
   98000    1.1355722   -7.5539182    28.204748  0.023983629  0.027233576            1 
   99000    1.1139148   -7.4569411    28.631257  0.024100385  0.027176496            1 
  100000    1.1201216   -7.4585913    28.958486  0.024132071   0.02712279            2 
  101000    1.1016732   -7.5026471    29.266472  0.024147254  0.027072802            2 
  102000    1.0854709   -7.4938358    29.534293  0.024129324  0.027024919            4 
  103000    1.1071122   -7.4565425    29.885243  0.024178999   0.02697967       -1e+20 
  104000    1.1099039   -7.4934381     30.05029  0.024078758  0.026934723            4 
  105000    1.1191839    -7.497865    30.362786  0.024097449  0.026886044            1 
  106000    1.0938927   -7.5090322    30.577425  0.024038856  0.026834938            4 
  107000    1.1119414   -7.5222591    30.688586  0.023900768   0.02677979            1 
  108000    1.0843637   -7.5136155    31.029175  0.023942264  0.026725831            3 
  109000    1.1067738     -7.52178    31.235893  0.023880652  0.026666815            2 
  110000    1.1141307   -7.5355478    31.386473  0.023777631   0.02660641            2 
  111000    1.1003616   -7.5334592    31.479931  0.023633582  0.026541651            2 
  112000    1.0933913   -7.5576755    31.737169  0.023613965  0.026473032            2 
  113000    1.0883848   -7.5432791    31.992108     0.023593  0.026406269            1 
  114000    1.0813185   -7.5422177    32.175757   0.02352029  0.026337332            6 
  115000    1.0877742   -7.5368732    32.482625  0.023538134   0.02627055            3 
  116000    1.0678566   -7.5849884    32.707749  0.023496946  0.026201657            2 
  117000    1.0806112   -7.5787324    32.844025   0.02339318  0.026129256            1 
  118000    1.0724525   -7.5887282    32.965513  0.023280729  0.026054134            2 
  119000    1.0943649   -7.5933353      33.2678  0.023296779  0.025978428            5 
  120000    1.0783241   -7.5579502    33.493262   0.02325921  0.025906266            1 
  121000    1.0872447    -7.587805    33.791232  0.023272198  0.025836426            2 
  122000    1.0882151   -7.5828381    34.027151   0.02324259  0.025766447            3 
  123000    1.0779446   -7.6042818    34.077812  0.023087948  0.025694586            3 
  124000    1.0759617   -7.5956895    34.342281   0.02307949  0.025622372            2 
  125000    1.0781555    -7.650024    34.477539  0.022985026  0.025553958            1 
  126000    1.0439866   -7.5851287    34.797907  0.023014488   0.02548048            2 
  127000    1.0589607   -7.5873678    34.898189  0.022899074  0.025406123            2 
  128000    1.0478636   -7.6068956    34.965244  0.022763831  0.025328941            3 
  129000    1.0283651   -7.5971591    35.119407  0.022686955  0.025248685            2 
  130000    1.0677655    -7.624781    35.251868  0.022597351  0.025169502            1 
  131000    1.0686858   -7.5814146    35.580226  0.022633731  0.025092555            4 
  132000    1.0885762   -7.6255725    35.775501  0.022585544  0.025012706            2 
  133000    1.0519948   -7.6362678    35.845845  0.022459803   0.02493226            5 
  134000    1.0598562   -7.6270475    35.925216  0.022341552  0.024849292            1 
  135000    1.0468849   -7.5916831    36.164042  0.022323483  0.024765267            1 
  136000    1.0598805   -7.6468436     36.32655  0.022258916  0.024680852            2 
  137000    1.0520887    -7.690175    36.388896  0.022134365  0.024595682            3 
  138000    1.0580223    -7.647415    36.674693  0.022146554  0.024511724            5 
  139000    1.0247114   -7.6459573    36.918452  0.022133364  0.024430209            2 
  140000    1.0555107   -7.6421253    37.078085  0.022070289  0.024349513            4 
  141000    1.0666063   -7.6491692    37.334412  0.022065255  0.024269706            3 
  142000    1.0674505   -7.6432096    37.491643  0.022002138  0.024191819            3 
  143000    1.0374831   -7.6829937    37.646661  0.021938614  0.024113892            1 
  144000    1.0275995   -7.6772805    37.810685  0.021881184  0.024035776            3 
  145000    1.0392352   -7.6791538    37.902238  0.021782895  0.023957595            1 
  146000    1.0265116   -7.6911667    38.143455  0.021771378  0.023879478            4 
  147000    1.0376632   -7.6953714    38.213007  0.021662702  0.023800624            3 
  148000    1.0205046   -7.6723974    38.457316  0.021653894  0.023722496            6 
  149000    1.0363206   -7.6650485     38.54697  0.021558708  0.023642404            2 
  150000    1.0423342   -7.7156712    38.760013   0.02153334   0.02356339            4 
  151000    1.0259962   -7.7403537    38.885237  0.021459844  0.023485076            5 
  152000    1.0217829   -7.7163678    39.121186  0.021448019  0.023405739            3 
  153000    1.0539292   -7.7181181    39.498569  0.021513382  0.023331388            4 
  154000    1.0214595   -7.7276694    39.681115  0.021472465  0.023257831            2 
  155000    1.0314471   -7.7615199    39.635362  0.021309334  0.023183908            2 
  156000    1.0187567   -7.7373339    39.841874  0.021283052  0.023110027            3 
  157000    1.0148764   -7.7469182    39.986162  0.021224077  0.023035775            4 
  158000    1.0343184   -7.7074608    40.333342   0.02127286  0.022963849            2 
  159000   0.99697104   -7.7824438    40.237822  0.021089005  0.022891855            2 
  160000    1.0095608    -7.742733      40.5616  0.021125834  0.022818082            5 
  161000   0.99366956   -7.7297035    40.738044  0.021085944  0.022745688            7 
  162000    1.0176759   -7.7406256    40.792588  0.020983841   0.02267373            2 
  163000    1.0196367     -7.76693    40.953221   0.02093723  0.022600399            1 
  164000    1.0019716   -7.7324016    41.029325  0.020848234  0.022527633            3 
  165000    1.0115328   -7.7813745    41.066207  0.020740509  0.022453187            2 
  166000   0.98838035   -7.7925427    41.083547  0.020624271  0.022377611            2 
  167000    1.0050366   -7.7409875    41.591158  0.020754071  0.022304081            1 
  168000   0.98669841   -7.7751937    41.713667  0.020691303  0.022232502            1 
  169000    1.0020438   -7.7426497    41.928017  0.020674565  0.022162766            2 
  170000    1.0031439    -7.796441    41.909619  0.020543931  0.022090537            3 
  171000    1.0010755   -7.7850697    42.008283  0.020471873  0.022018076            3 
  172000    1.0006514   -7.8260239    42.053099  0.020374564  0.021945918            4 
  173000   0.97672797   -7.8235072    42.279478  0.020365837  0.021874035            3 
  174000    1.0060743   -7.8143891    42.428455  0.020320141  0.021802894            6 
  175000   0.99248203   -7.8253852     42.40571  0.020193195  0.021730516            2 
  176000   0.96687228   -7.8193968    42.686808  0.020211557  0.021658642            2 
  177000   0.97353419   -7.8375112    42.694288  0.020100889  0.021586359            4 
  178000   0.97299652   -7.8493432    42.769593  0.020023218  0.021514419            2 
  179000   0.97719869       -7.893    42.851483   0.01994948  0.021441281           10 
  180000   0.98067352   -7.8156723     43.20599  0.020002773  0.021369948            3 
  181000   0.97256277   -7.8383627    43.296326  0.019933852  0.021298959            4 
  182000   0.98395791   -7.8293246    43.339438  0.019844065  0.021228386            3 
  183000   0.95359266   -7.8490382     43.46176  0.019791329  0.021156265            6 
  184000   0.96253172   -7.8563268    43.515179  0.019707961  0.021084458            5 
  185000   0.94994169   -7.8759637    43.581016  0.019631088   0.02101318            3 
  186000   0.96769979   -7.8530465    43.748643  0.019600646  0.020942077            3 
  187000   0.96510331   -7.8632138     43.96128  0.019590588  0.020871034            3 
  188000    0.9747849   -7.8669821    44.160458  0.019574671  0.020801648            1 
  189000     0.973199   -7.8899465    44.340232  0.019550367  0.020732915            4 
  190000   0.93567772   -7.8622008    44.385908  0.019467503  0.020664571            4 
  191000   0.98503487   -7.8703458    44.432445  0.019385884  0.020597327            3 
  192000   0.95539262   -7.8959016    44.636779  0.019373602  0.020530471            6 
  193000    0.9496776   -7.8972827    44.816349  0.019350755  0.020462824            2 
  194000   0.94322932   -7.9096784    44.895525  0.019285019  0.020396033            5 
  195000   0.98634319   -7.9027149    44.942342  0.019206129  0.020328295            5 
  196000   0.95508474   -7.9167479     45.05075   0.01915423  0.020259712            4 
  197000   0.94883743   -7.9128956    45.241292  0.019137602   0.02019224            6 
  198000   0.94999204   -7.9085837    45.354601  0.019088637  0.020125897            2 
  199000   0.95724374   -7.9270976    45.167999  0.018914572  0.020058639            9 
  200000   0.92756103   -7.8955636    45.365032  0.018902096  0.019990793            4 
  201000   0.95377253   -7.9329738    45.415325  0.018828907  0.019923327           13 
  202000   0.96917481     -7.88087    45.615057  0.018818093  0.019856479            3 
  203000    0.9424117   -7.9521089    45.586392  0.018713625  0.019789584            3 
  204000   0.92197804   -7.9700877    45.643139  0.018645073  0.019721387            4 
  205000   0.95725044   -7.9628779    45.807847  0.018621076  0.019652776            3 
  206000   0.94164111    -7.950154    45.975286  0.018598417  0.019584134            2 
  207000    0.9540415   -7.9453167    45.947484  0.018497377  0.019516712            4 
  208000   0.95345747   -7.9260329    46.181692   0.01850228  0.019449401            3 
  209000   0.91868819   -7.9640242    46.166325  0.018407626  0.019383464            5 
  210000   0.93764046    -7.931858    46.463183  0.018437771  0.019317674            4 
  211000   0.92602592   -7.9475862    46.491998  0.018361769  0.019252756            3 
  212000   0.91233396   -7.9757991    46.629768  0.018329311  0.019187368            8 
  213000   0.92026027   -7.9659372      46.6266  0.018242019  0.019122176            4 
  214000   0.91185054   -7.9657217    46.529182   0.01811884  0.019055797            2 
  215000   0.91951509   -7.9764115    46.661321  0.018085783  0.018988732            4 
  216000   0.89629517   -7.9960552    46.676757  0.018008008  0.018921878            3 
  217000   0.94313022   -8.0279019    46.771843  0.017961537  0.018855697            3 
  218000   0.91888095   -8.0191982    46.890878  0.017924647  0.018790123            2 
  219000   0.91166782   -7.9819608    47.034595  0.017897487  0.018724635            2 
  220000   0.92417785   -8.0023562    47.228772  0.017889686  0.018659501            3 
  221000   0.91719222   -8.0098414    47.063999  0.017746606  0.018593835            8 
  222000   0.89471344   -8.0241749    47.246346  0.017735115  0.018528958            6 
  223000   0.92249745   -8.0579857    47.216067   0.01764427  0.018464764            3 
  224000   0.91422484   -8.0342638    47.333962  0.017609361   0.01839998            3 
  225000   0.91383833   -8.0830302    47.347184  0.017535994  0.018335703            5 
  226000   0.90486086   -8.0575476    47.282775  0.017434652  0.018270869            3 
  227000    0.9028962   -8.0291817    47.380838  0.017393846  0.018205778            8 
  228000   0.90605788   -8.0705065    47.514039  0.017366242  0.018139984            2 
  229000    0.8919765   -8.0544588     47.68209  0.017351561  0.018075446            3 
  230000   0.90092322   -8.0524052    47.739298  0.017296847  0.018011656            8 
  231000   0.89786053   -8.1005418    47.638683  0.017185672  0.017946929            3 
  232000   0.91845211   -8.1118054    47.720646  0.017141036  0.017882447            5 
  233000   0.89390719    -8.100336    47.736393  0.017073102  0.017817518            4 
  234000   0.91715973   -8.1225712    47.819419  0.017029707  0.017752945           10 
  235000   0.88912332   -8.0866406    47.970315   0.01701075  0.017688711            3 
  236000   0.89795672    -8.090818    48.089825   0.01698087  0.017626336            2 
  237000   0.88082461   -8.0545443    48.239876  0.016961982  0.017564655            4 
  238000   0.90317744   -8.0796037    48.383142  0.016940876  0.017502604            3 
  239000   0.88125011   -8.1020076    48.210084  0.016809653    0.0174411            6 
  240000   0.88259027   -8.0887154      48.3747  0.016796771  0.017379402            5 
  241000   0.89066245   -8.1185707     48.45216  0.016753859  0.017318332            5 
  242000   0.86166617   -8.1347972    48.438154  0.016679805   0.01725721            5 
  243000   0.88231387   -8.0684139    48.667316  0.016689752  0.017196764            4 
  244000   0.87374436   -8.0952369    48.669054  0.016621945    0.0171368            2 
  245000    0.8789101   -8.1296377     48.68039  0.016557956  0.017077051            5 
  246000    0.8617973   -8.0801535    49.018272  0.016605106  0.017018175            2 
  247000   0.85500481   -8.1218336    48.990789  0.016528606  0.016959482            7 
  248000    0.8808831   -8.1639156    49.165668  0.016520722  0.016901378           10 
  249000   0.87279722   -8.1357561    49.133996  0.016443774  0.016843636            2 
  250000   0.86596105   -8.1672804    49.273963  0.016424654  0.016786207            3 
  251000   0.84334101   -8.1563352    49.178769  0.016327612  0.016729233            4 
  252000    0.8799967   -8.1636074    49.371208  0.016326458   0.01667304            3 
  253000   0.87567876   -8.1657525    49.388386  0.016267584  0.016616147            5 
  254000   0.87679512   -8.1584132    49.495913  0.016238816  0.016559612            3 
  255000    0.8784251   -8.1826932     49.49799  0.016175814  0.016503365            3 
  256000   0.85557826   -8.1394346    49.470142  0.016103562  0.016446539            3 
  257000   0.84520155   -8.1718253    49.659923  0.016102439  0.016390336            5 
  258000    0.8553641    -8.175834    49.533093  0.015999061  0.016333755            5 
  259000   0.85647581   -8.1915793    49.570567  0.015949346  0.016277098            4 
  260000   0.84927053   -8.1883787    49.731888  0.015939708   0.01622115            6 
  261000   0.84257715   -8.1973165    49.777201  0.015893104  0.016165544            3 
  262000   0.83798783   -8.2007271    49.779844  0.015833284  0.016109534           12 
  263000   0.85428886   -8.1883192    49.818046  0.015785186  0.016054118            5 
  264000   0.86687009   -8.2385511    49.876144  0.015743732  0.015998801           25 
  265000   0.85815424   -8.2312763    50.006322  0.015725258  0.015943833           10 
  266000   0.83513968   -8.2138246    50.023104  0.015671398  0.015888802           14 
  267000   0.84994796   -8.2230854    50.026689  0.015613823  0.015833805            8 
  268000   0.85441072   -8.2320281    50.042509  0.015560482   0.01577864           27 
  269000   0.82637239   -8.2352329     50.05154  0.015505434  0.015723952           53 
  270000   0.83446026   -8.2301784    50.103352  0.015463997    0.0156697           19 
  271000   0.84866354   -8.2346986    50.262647  0.015455919  0.015615417           56 
  272000   0.84850413   -8.2643275    50.217706  0.015385327  0.015561839           70 
  273000    0.8296185   -8.2757733    50.364233  0.015373698  0.015508291           59 
  274000   0.82450337   -8.2633396    50.505369  0.015360514  0.015454676           64 
  275000   0.83196012   -8.2834322    50.407629  0.015275039   0.01540105           65 
  276000    0.8244747   -8.3027781    50.371293  0.015208724   0.01534768           42 
  277000   0.82336692   -8.2990088    50.477254  0.015185696  0.015294262           47 
  278000   0.82845458   -8.3234941    50.521913  0.015144458  0.015241273           54 
  279000   0.83822198   -8.3153487    50.444919   0.01506718   0.01518809           48 
  280000   0.81232109   -8.3327538    50.430394  0.015009046  0.015135066           57 
  281000   0.81189984   -8.3303458    50.586753  0.015002003  0.015082092           60 
  282000   0.82185499   -8.3069239    50.600677  0.014952919  0.015029767           37 
  283000   0.83538327   -8.3106615    50.785458  0.014954493  0.014977676           42 
  284000   0.81126118   -8.3257822    50.697041  0.014875892  0.014925999           54 
  285000   0.81147666   -8.2918453    50.863837  0.014872467  0.014874352           53 
  286000   0.79277183   -8.3039637    50.786751  0.014798004  0.014823217           60 
  287000   0.80447845   -8.3115624    50.822798   0.01475691  0.014772283           38 
  288000   0.81612017   -8.3147133    50.986723  0.014753103  0.014721247           66 
  289000   0.83242949   -8.3299902     50.91038   0.01468004  0.014670646           40 
  290000   0.81096942   -8.3313635    51.022952  0.014661768  0.014620074           21 
  291000   0.80956127   -8.3065365    51.013386  0.014608644  0.014569909           28 
  292000   0.81173445   -8.3545581    51.061753  0.014572418  0.014519936           26 
  293000   0.80480278   -8.3272038    51.143846  0.014546031   0.01447016           30 
  294000   0.80248804   -8.3306586    51.185286  0.014508301  0.014420324           37 
  295000   0.79920458   -8.3544694    51.180159  0.014457672  0.014370722           37 
  296000   0.80142127   -8.3370806    51.193901  0.014412697  0.014321166           43 
  297000   0.79459351   -8.3573936    51.204524   0.01436715  0.014271605           49 
  298000   0.79989106   -8.3847843    51.180345  0.014312177  0.014222089           46 
  299000   0.78651556   -8.3899988    51.109371  0.014244529  0.014172949           52 
  300000   0.79412001   -8.4117259    51.316637  0.014254621   0.01412351           68 
  301000   0.78458774   -8.3819084    51.290812  0.014200114  0.014074453           79 
  302000   0.79070869   -8.4038222    51.280714  0.014150307  0.014025518           63 
  303000   0.78869102   -8.3933149    51.238287  0.014091938  0.013976379           42 
  304000   0.77144342   -8.3975344    51.171104  0.014027167  0.013926947           52 
  305000   0.78940314   -8.4315996    51.276657  0.014010016  0.013877981           62 
  306000   0.78476851   -8.3975138    51.287096  0.013967074  0.013829077           49 
  307000   0.77078617   -8.4249299     51.18031  0.013892592  0.013780052           67 
  308000   0.78479298   -8.4008978    51.309405  0.013882415   0.01373119           65 
  309000   0.79627066   -8.4250574    51.317786  0.013839748  0.013682535           57 
  310000   0.76945898   -8.4203605    51.226743   0.01377063  0.013633996           54 
  311000   0.77914216   -8.4507841    51.291247  0.013743635  0.013585922           83 
  312000   0.80226291   -8.4409257    51.321333  0.013707621  0.013537966           83 
  313000   0.77092039   -8.4116776    51.377161   0.01367869  0.013489653           71 
  314000   0.77512251   -8.4399457      51.4119  0.013644347  0.013441553           73 
  315000   0.77784319   -8.4596648    51.432717  0.013606539  0.013393283           77 
  316000   0.76179683   -8.4519708    51.299339  0.013528307  0.013345022           88 
  317000   0.75556315   -8.4758808    51.277936  0.013480004   0.01329691           65 
  318000   0.75519412   -8.4694365    51.191194  0.013414883   0.01324855           66 
  319000   0.76024635   -8.4910958    51.257084  0.013390043   0.01320043           83 
  320000   0.75060887   -8.5018758    51.286585  0.013355882  0.013152346           87 
  321000   0.74335744   -8.5077593    51.305688  0.013319234  0.013104451           71 
  322000   0.74813632   -8.4921717    51.308603  0.013278624  0.013056842           54 
  323000   0.76165459   -8.4711757    51.378094  0.013255442  0.013009564           61 
  324000   0.75554349    -8.497279      51.3977  0.013219573  0.012962432           52 
  325000   0.74224231   -8.4937294     51.34899  0.013166408  0.012915218           64 
  326000   0.73946109   -8.4925739    51.367757  0.013130817  0.012868095           67 
  327000   0.74008004   -8.4777992    51.358569   0.01308832  0.012821188           62 
  328000    0.7279112   -8.4787879    51.223334  0.013014058  0.012774577           58 
  329000   0.73187637   -8.5040957    51.368478  0.013011266  0.012727677           93 
  330000   0.74248115   -8.5040264    51.294824  0.012953238   0.01268097           96 
  331000   0.74578439   -8.5240758    51.182618  0.012885855  0.012634445           87 
  332000   0.74378853   -8.5519921    51.179397  0.012846234  0.012587866           72 
  333000   0.74695682   -8.5044277    51.310327  0.012840422  0.012541421           66 
  334000   0.73037071   -8.5308008    51.269065  0.012791683  0.012495027           77 
  335000   0.72268584   -8.5381728    51.398361  0.012785662  0.012448939           98 
  336000   0.74209341   -8.5376732     51.27366  0.012716682  0.012402826           89 
  337000   0.72597679   -8.5611486    51.241489  0.012670991  0.012357036           93 
  338000   0.72984211   -8.5671319    51.180769  0.012618533  0.012311306           77 
  339000   0.73046986   -8.5328549    51.384657   0.01263143  0.012265819           72 
  340000    0.7191195   -8.5384319    51.279404  0.012568481  0.012220523           75 
  341000   0.72427866   -8.5617348    51.443023  0.012571609  0.012175643           74 
  342000   0.71764661   -8.5611019    51.355206  0.012513452  0.012130664           66 
  343000   0.70190108   -8.5569682    51.513834  0.012515509  0.012085988           82 
  344000   0.73523571   -8.5894264    51.358065  0.012441392  0.012041541          103 
  345000   0.72086229   -8.5484614    51.441849  0.012425567  0.011997144          104 
  346000   0.72544117   -8.5692413    51.310631  0.012358052  0.011953086          114 
  347000   0.71024865   -8.6056719    51.367952  0.012336204  0.011909071           90 
  348000   0.71545171   -8.5791035    51.405943  0.012309852  0.011865581           99 
  349000   0.70689392   -8.5993547    51.389796  0.012270725  0.011822017          107 
  350000   0.70495129   -8.6068817    51.402276  0.012238637  0.011778395          106 
  351000    0.7007064   -8.6298914    51.223517  0.012161329  0.011734981           88 
  352000   0.70020629   -8.6247677     51.40963   0.01217084  0.011691578          104 
  353000   0.69613716    -8.631195    51.296204  0.012109585  0.011648422          153 
  354000   0.69359016   -8.6435009    51.351784  0.012088461  0.011605306          106 
  355000   0.70429902   -8.6370548    51.183499  0.012014906    0.0115624          103 
  356000   0.69843261   -8.6436659     51.28186  0.012004181  0.011519605          120 
  357000   0.70399933   -8.6597044    51.237807  0.011960272  0.011476673          104 
  358000   0.68557833   -8.6529801    51.207644  0.011919843  0.011433888          130 
  359000   0.68804722   -8.6262956    51.326266  0.011914175  0.011391544          117 
  360000   0.67955663   -8.6612087    51.272275  0.011868582  0.011349346          114 
  361000   0.68894187   -8.6333824    51.375736  0.011859588  0.011307402          123 
  362000   0.69790979   -8.6491618    51.260419  0.011800281  0.011265715          133 
  363000   0.69944412   -8.6871813    51.285445  0.011773518  0.011224266          136 
  364000   0.68767322   -8.6794883    51.248832  0.011732791  0.011182759          150 
  365000   0.70368885   -8.6711396    51.371883   0.01172874  0.011141407          132 
  366000   0.67315221   -8.6746588    51.282676  0.011676383  0.011100206          144 
  367000   0.68966009   -8.6824754    51.277251  0.011643336  0.011059005          151 
  368000   0.68365257   -8.6787515     51.20044  0.011594303  0.011018042          140 
  369000    0.6710542   -8.6768947    51.386244  0.011604843  0.010977256          176 
  370000   0.67470295   -8.7105908     51.30153  0.011554399  0.010936516          143 
  371000   0.68182487   -8.7092983    51.326904  0.011528954  0.010896071          147 
  372000   0.67585969   -8.7093156     51.31306  0.011494861  0.010855651          145 
  373000   0.67152607   -8.7354594     51.19541  0.011437759  0.010815353          159 
  374000   0.67271518   -8.6976167    51.344916  0.011440489  0.010775148          138 
  375000   0.66609672   -8.7138489    51.206887  0.011379308  0.010735148          156 
  376000   0.68545544   -8.7168621    51.172236  0.011341364  0.010695316          152 
  377000   0.66909455    -8.739082    51.100516  0.011295428  0.010655444          169 
  378000   0.66116468   -8.7284554    51.019264  0.011247633  0.010615817          152 
  379000   0.67045233   -8.7504257     51.14977  0.011246651  0.010576388          168 
  380000   0.65722597   -8.7120384    51.192721  0.011226474   0.01053726          142 
  381000   0.66413492   -8.7441127    51.235824  0.011206436  0.010498363          163 
  382000   0.65436624    -8.725816    51.078332  0.011142742  0.010459504          204 
  383000   0.65911401   -8.7334467    51.220813   0.01114465  0.010420768          186 
  384000   0.64772959   -8.7614267    51.309362  0.011134844  0.010382278          153 
  385000   0.65177867   -8.7592225    51.185193  0.011079046  0.010343882          193 
  386000   0.65215878   -8.7584801      51.1771  0.011048597  0.010305645          198 
  387000   0.65258612   -8.7488719    51.328213  0.011052587  0.010267503          190 
  388000   0.63691549   -8.7576403    51.177963  0.010991831  0.010229593          192 
  389000   0.64428287   -8.7726804    51.202084  0.010968741  0.010191731          162 
  390000   0.64054769   -8.7937096    51.173077  0.010934418  0.010154092          171 
  391000   0.63393283   -8.7846477    51.152785  0.010902128  0.010116499          186 
  392000   0.63488805   -8.7930079    51.005736  0.010843056  0.010079143          175 
  393000   0.63785114   -8.7978308    51.097122  0.010834844   0.01004175          170 
  394000   0.64531128   -8.7851069    51.163589  0.010821402  0.010004606          180 
  395000   0.62232287   -8.7884694    51.095791  0.010779703 0.0099676486          171 
  396000    0.6240717   -8.8073083    51.034356  0.010739553 0.0099308839          181 
  397000   0.63195138    -8.790895    51.058972  0.010717668 0.0098942239          181 
  398000   0.62300792   -8.8147221    51.029509   0.01068457 0.0098577119          181 
  399000   0.62957212   -8.7997079    51.171399  0.010687427 0.0098213959          152 
  400000   0.61818663   -8.7803314    51.125281    0.0106511 0.0097852777          168 
  401000   0.63097981   -8.8015872    50.942199  0.010586492 0.0097492205          168 
  402000   0.60983428    -8.800109     51.07366  0.010587409  0.009713403          169 
  403000   0.62761615   -8.8197369    51.126211  0.010572004 0.0096777663          166 
  404000   0.61819978   -8.8285929    51.140421  0.010548767 0.0096422966          185 
  405000   0.62003363   -8.8271308    51.069437  0.010508115 0.0096069005          168 
  406000   0.60604656   -8.8049134    51.077007  0.010483786 0.0095715756          190 
  407000   0.61183728     -8.83212     51.02381  0.010447135 0.0095363753          187 
  408000   0.60711959   -8.7982543    50.988204  0.010414257 0.0095014316          194 
  409000    0.6029455    -8.822388    51.037918  0.010398924 0.0094665717          190 
  410000   0.60866615   -8.8418541    51.034255  0.010372816 0.0094318882          184 
  411000   0.61353667   -8.8485616    50.978277  0.010336228 0.0093974148          176 
  412000   0.62061456    -8.841431    51.016616  0.010318895 0.0093630268          185 
  413000   0.61197498   -8.8564422    50.977459  0.010286009 0.0093288601          194 
  414000   0.60373693    -8.840836    51.014799  0.010268679 0.0092947981          188 
  415000     0.596359   -8.8649293    50.955181  0.010231964 0.0092609234          186 
  416000   0.60874604   -8.8474232     51.04608  0.010225577 0.0092271389          163 
  417000   0.59212917   -8.8627214    50.956258  0.010183105 0.0091935305          201 
  418000   0.60679551   -8.8405089    50.970677  0.010161618 0.0091600263          179 
  419000   0.59402377   -8.8437807    51.048081  0.010152761 0.0091266971          199 
  420000   0.59662185   -8.8567966     50.98254  0.010115583 0.0090934108          198 
  421000   0.58892452   -8.8639608    51.064217  0.010107723  0.009060363          183 
  422000   0.58945245   -8.8658381     51.01755  0.010074556 0.0090274461          196 
  423000   0.59682021   -8.8746038    50.899666  0.010027515 0.0089945758          198 
  424000   0.59873777   -8.8613862     50.91116  0.010006124 0.0089618889          196 
  425000   0.59197048   -8.8716519    50.947754 0.0099897557 0.0089293743          196 
  426000   0.57920274    -8.868994    50.861678 0.0099494675 0.0088969359          192 
  427000   0.59480387   -8.8851195    50.835552 0.0099210679 0.0088645907          188 
  428000   0.59049441   -8.8732982    50.887226 0.0099079489 0.0088324195          214 
  429000   0.58178365   -8.8920435    50.922972 0.0098917972 0.0088004334          203 
  430000   0.58715367   -8.8860016    50.894632 0.0098633007  0.008768523          203 
  431000   0.58222728   -8.8964714    50.892761 0.0098400544 0.0087367801          188 
  432000   0.56394609   -8.8885385    50.823443 0.0098039049 0.0087051468          202 
  433000   0.56617784   -8.8945185    50.903437 0.0097966583  0.008673701          199 
  434000   0.58420562   -8.8849084     50.90897 0.0097751479 0.0086424136          206 
  435000   0.58154062   -8.8842581    50.865672 0.0097443816 0.0086112408          185 
  436000   0.57101113   -8.8983557    50.939697 0.0097361805 0.0085801518          197 
  437000   0.58585291   -8.8880607    50.926547 0.0097113933 0.0085492077          200 
  438000   0.57466123   -8.9097725      50.8803 0.0096804224 0.0085183787          195 
  439000   0.58074536   -8.9026494    50.777261 0.0096388119 0.0084876611          211 
  440000   0.56039243   -8.9094158    50.742459 0.0096103142 0.0084570842          206 
  441000   0.55501034   -8.9125788    50.854791 0.0096097489 0.0084266266          220 
  442000   0.55344156   -8.9315327     50.81738  0.009580954 0.0083962701          215 
  443000   0.55626973   -8.9236973      50.8861 0.0095722536 0.0083660578          201 
  444000   0.55526432   -8.9389231    50.874602 0.0095485363 0.0083359819          226 
  445000   0.54930477   -8.9279076    50.813546 0.0095156453 0.0083060981          194 
  446000   0.55668705   -8.9381682     50.74423 0.0094813583 0.0082763754          218 
  447000   0.56054788   -8.9351056    50.792455 0.0094691378 0.0082467702          186 
  448000   0.55509236   -8.9275566    50.782776 0.0094462009 0.0082173054          213 
  449000    0.5522572   -8.9623217    50.700666 0.0094099231 0.0081879767          216 
  450000   0.54552028   -8.9469736    50.795538 0.0094065811 0.0081586922          216 
  451000   0.55460444   -8.9335344    50.768848 0.0093807924 0.0081296238          180 
  452000   0.53856748   -8.9637264    50.745387 0.0093557129 0.0081006556          192 
  453000    0.5412456   -8.9487627    50.749368 0.0093357925 0.0080717903          207 
  454000   0.56389588   -8.9402887    50.825019  0.009329115 0.0080430441          190 
  455000   0.53757858   -8.9693792    50.719021  0.009289198 0.0080144146          233 
  456000   0.54371622    -8.981814    50.652194 0.0092566144 0.0079859041          200 
  457000   0.51963755   -8.9723527     50.71915 0.0092485685 0.0079575116          194 
  458000   0.52759134   -8.9716741    50.753722 0.0092346655 0.0079292625          209 
  459000    0.5347755   -8.9643459    50.738897 0.0092118549 0.0079011348          187 
  460000   0.54642166   -8.9800925    50.646357 0.0091750646 0.0078731303          207 
  461000   0.54094922    -8.974341    50.702168 0.0091652508 0.0078452711          223 
  462000     0.518412   -8.9921662    50.737914 0.0091518604 0.0078174901          212 
  463000    0.5285642   -8.9933433    50.676731 0.0091210818 0.0077898783          205 
  464000   0.52633693   -8.9985849    50.648298 0.0090963179 0.0077624048          200 
  465000   0.53011266   -8.9883451    50.624926 0.0090725674 0.0077349903          207 
  466000   0.52775927   -9.0039803    50.573293 0.0090438649 0.0077077457          190 
  467000   0.52430029   -9.0000959    50.653251 0.0090387671 0.0076806088          214 
  468000   0.51991023   -8.9921144    50.658977 0.0090204732 0.0076535514          218 
  469000   0.53327002   -8.9892331    50.689233 0.0090066157 0.0076266991          223 
  470000   0.51298251   -9.0174122    50.651526  0.008980767 0.0075999343          220 
  471000   0.50679437   -9.0063351    50.599079 0.0089524202   0.00757323          197 
  472000   0.51101708    -9.019267    50.622807 0.0089376424 0.0075466432          201 
  473000   0.50577574   -9.0148682    50.608683 0.0089162584 0.0075201701          208 
  474000   0.51588051   -9.0179946     50.52532 0.0088827918 0.0074938173          194 
  475000   0.50399439   -9.0028806    50.614289 0.0088796999 0.0074676189          191 
  476000   0.50789133   -9.0166453    50.623844 0.0088627179  0.007441509          215 
  477000   0.50517833   -9.0288582     50.54473 0.0088303163 0.0074155249          215 
  478000   0.51168075   -9.0378389      50.5759 0.0088172768 0.0073896125          188 
  479000   0.51212459   -9.0309646    50.532788 0.0087913689 0.0073638795          214 
  480000   0.49526651   -9.0404664    50.597156 0.0087842284 0.0073382489          193 
  481000   0.49858289    -9.033347    50.572323 0.0087616637 0.0073127132          201 
  482000    0.5088052    -9.036231    50.577511  0.008744383 0.0072873001          203 
  483000   0.48523101    -9.022328    50.526637 0.0087175011 0.0072620219          222 
  484000   0.49744584   -9.0211602    50.564884  0.008706075  0.007236838          215 
  485000   0.49424343   -9.0252601    50.555891 0.0086865793 0.0072117175          210 
  486000   0.48429107   -9.0454521    50.513279 0.0086613991 0.0071866614          204 
  487000   0.49116035   -9.0472022     50.52879  0.008646268 0.0071617637          209 
  488000   0.48651662   -9.0467723     50.59834 0.0086404269 0.0071369828          205 
  489000   0.48386568   -9.0701087    50.466606 0.0086003078 0.0071123215          196 
  490000   0.48324582   -9.0557527    50.468146  0.008583018 0.0070877587          209 
  491000    0.4840556   -9.0702197    50.485942 0.0085685578 0.0070633568          204 
  492000   0.47773702   -9.0597356    50.545562 0.0085612401 0.0070390354          208 
  493000   0.47997436   -9.0526542    50.402922 0.0085197637 0.0070148147          193 
  494000   0.47862141   -9.0514337    50.395666 0.0085012931 0.0069906972          199 
  495000   0.48000274   -9.0712066    50.482898 0.0084988044 0.0069667024          210 
  496000   0.46735881   -9.0593066    50.476383  0.008480575 0.0069428472          205 
  497000   0.46670887   -9.0724683    50.509993  0.008469147 0.0069190445          196 
  498000   0.47516063   -9.0756627    50.471987 0.0084457809 0.0068953416          202 
  499000   0.47812774   -9.0773423    50.515223  0.008436076 0.0068717483          217 
  500000   0.47217882   -9.0685098    50.483436 0.0084139059 0.0068482756          212 
  501000   0.46549791   -9.0828306    50.395397 0.0083824679 0.0068249232          180 
  502000   0.46152737   -9.0871507     50.34127 0.0083567845 0.0068015994          213 
  503000   0.46272215   -9.0839102    50.462066 0.0083601833 0.0067783872          212 
  504000   0.46111982   -9.0966488    50.363124  0.008327236 0.0067552719          205 
  505000   0.46226813   -9.1008366    50.422547 0.0083205523 0.0067322703          207 
  506000   0.46085634   -9.0840643    50.412584 0.0083024677 0.0067093544          184 
  507000   0.45774873   -9.1041801    50.319612 0.0082708107 0.0066865298          192 
  508000   0.45452458   -9.0964202    50.407391 0.0082689289 0.0066638525          197 
  509000   0.45994322   -9.0922709    50.389676 0.0082497832 0.0066412481          218 
  510000   0.45875587    -9.095816    50.379708 0.0082319783 0.0066187411          208 
  511000   0.45570162   -9.0911214     50.45123 0.0082275326  0.006596352          206 
  512000   0.43840092   -9.1129898    50.449011 0.0082111021 0.0065740845          186 
Loop time of 1261.98 on 48 procs for 500000 steps with 4000 atoms

Performance: 68463.642 tau/day, 396.202 timesteps/s
99.4% CPU use with 48 MPI tasks x no OpenMP threads

MPI task timing breakdown:
Section |  min time  |  avg time  |  max time  |%varavg| %total
---------------------------------------------------------------
Pair    | 85.782     | 93.388     | 100.58     |  29.4 |  7.40
Neigh   | 8.4197     | 8.7961     | 9.2675     |   7.0 |  0.70
Comm    | 78.867     | 85.528     | 93.532     |  35.3 |  6.78
Output  | 0.93007    | 0.93147    | 0.98123    |   0.8 |  0.07
Modify  | 1056.3     | 1061.3     | 1065       |   6.7 | 84.10
Other   |            | 12.03      |            |       |  0.95

Nlocal:        83.3333 ave          89 max          79 min
Histogram: 2 6 6 4 9 7 4 2 4 4
Nghost:        2272.79 ave        2291 max        2262 min
Histogram: 6 3 11 8 7 4 6 2 0 1
Neighs:        15348.5 ave       16915 max       13947 min
Histogram: 3 3 6 7 6 6 10 4 2 1
FullNghs:      30697.9 ave       32980 max       28980 min
Histogram: 5 5 5 6 12 4 3 2 4 2

Total # of neighbors = 1473498
Ave neighs/atom = 368.37450
Neighbor list builds = 26650
Dangerous builds = 0

#clear
#
#next RN
#
#jump SELF
Total wall time: 0:21:05
