
units lj                  # Use reduced LJ style units
atom_style atomic         # Uncharged point particles
atom_modify map hash      # Needed for indexing of clusters etc
                          # Used to be able to find where atoms are in relation to each other.

lattice fcc 1.0 spacing 1 1 1
Lattice spacing in x,y,z = 1.5874011 1.5874011 1.5874011
region box block 0 10 0 10 0 10 units lattice
create_box 2 box
Created orthogonal box = (0.0000000 0.0000000 0.0000000) to (15.874011 15.874011 15.874011)
  3 by 4 by 4 MPI processor grid
create_atoms 1 box
Created 4000 atoms
  using lattice units in orthogonal box = (0.0000000 0.0000000 0.0000000) to (15.874011 15.874011 15.874011)
  create_atoms CPU = 0.002 seconds
set type 1 type/fraction 2 0.92 78393
Setting atom values ...
  3673 settings made for type/fraction
mass 1 1.0
mass 2 1.0
pair_style lj/cut  3.5
pair_modify tail  yes
pair_coeff 1  1  1.0  1.0   # Intearaction between 1 and 1 set with epsilon = 1 and sigma = 1
pair_coeff 1  2  1.5  0.8
pair_coeff 2  2  0.5  0.88

write_data data.0
System init for write_data ...
Neighbor list info ...
  update every 1 steps, delay 10 steps, check yes
  max neighbors/atom: 2000, page size: 100000
  master list distance cutoff = 3.8
  ghost atom cutoff = 3.8
  binsize = 1.9, bins = 9 9 9
  1 neighbor lists, perpetual/occasional/extra = 1 0 0
  (1) pair lj/cut, perpetual
      attributes: half, newton on
      pair build: half/bin/atomonly/newton
      stencil: half/bin/3d
      bin: standard
WARNING: Not all mixed pair coeffs generated from mixing. Use write_data with 'pair ij' option to store all pair coeffs. (../write_data.cpp:312)


#############################
#   M E L T   S Y S T E M   #
#############################

velocity all create 2.4 8172548 mom yes dist gaussian # Assign velocities
                                                    # Temperature 2.4, random number seed, zero linear momentum
                                                                                # Gaussian distribution

timestep 0.002   # simulation timestep
thermo 1000       # output thermodynamic data every 1000 steps bf 100

# Define a fix  in this case with index 1 applied to all
# particles in the simulation. This fix is for simulations
# in the anisotropic NPT ensemble. Note that we use the MTK
# correction.
fix 1 all npt temp 2.4 2.4 0.1 iso 5.68 5.68 0.5 mtk yes tchain 5 pchain 5 # Use NPT ensemble
                                                                         # Set temperature and pressure and damping
                                                                         # Numbers of thermostats in chain and in barostat
run 10000          # run for 10000 steps
Per MPI rank memory allocation (min/avg/max) = 3.642 | 3.644 | 3.648 Mbytes
Step Temp E_pair E_mol TotEng Press Volume 
       0          2.4   -3.0929104            0   0.50618957   -2.4174795         4000 
    1000     2.451918   -2.0526804            0    1.6242772    5.8332248    4047.1297 
    2000    2.4013517   -2.0739631            0     1.527164    5.6847273    4050.8557 
    3000    2.4260596   -2.0666989            0    1.5714807    5.4993091    4100.4831 
    4000    2.3697357   -2.0666547            0    1.4870602    5.6951295    4054.0619 
    5000    2.3970829     -2.08088            0    1.5138454    5.5359333    4070.1494 
    6000    2.4256929   -2.0925985            0    1.5450312    5.5539726    4069.0575 
    7000    2.3687084   -2.1113761            0    1.4407982    5.3780497    4064.7003 
    8000    2.3890163    -2.016132            0    1.5664966    5.9689553    4043.1618 
    9000    2.4298364   -2.1074022            0    1.5364412     5.566335    4043.7455 
   10000     2.429807   -2.0518532            0    1.5919462     5.862408    4056.4635 
Loop time of 2.50334 on 48 procs for 10000 steps with 4000 atoms

Performance: 690277.761 tau/day, 3994.663 timesteps/s
99.6% CPU use with 48 MPI tasks x no OpenMP threads

MPI task timing breakdown:
Section |  min time  |  avg time  |  max time  |%varavg| %total
---------------------------------------------------------------
Pair    | 1.0287     | 1.1434     | 1.2306     |   3.1 | 45.67
Neigh   | 0.20706    | 0.2142     | 0.23026    |   0.8 |  8.56
Comm    | 0.74457    | 0.85342    | 0.98677    |   4.6 | 34.09
Output  | 0.00026784 | 0.00027155 | 0.00033698 |   0.0 |  0.01
Modify  | 0.242      | 0.27686    | 0.31071    |   4.2 | 11.06
Other   |            | 0.01524    |            |       |  0.61

Nlocal:        83.3333 ave          96 max          74 min
Histogram: 1 7 5 7 11 9 4 2 1 1
Nghost:        1627.00 ave        1661 max        1594 min
Histogram: 2 3 7 4 7 9 6 5 4 1
Neighs:        9400.02 ave       11421 max        7939 min
Histogram: 1 3 7 13 10 8 3 2 0 1

Total # of neighbors = 451201
Ave neighs/atom = 112.80025
Neighbor list builds = 908
Dangerous builds = 216

# Equilibrate just above the melting temperature to avoid step fn in T

fix 1 all npt temp 1.25 1.25 0.1 iso 5.68 5.68 0.5 mtk yes tchain 5 pchain 5
run 2000
Per MPI rank memory allocation (min/avg/max) = 3.643 | 3.645 | 3.649 Mbytes
Step Temp E_pair E_mol TotEng Press Volume 
   10000     2.429807   -2.0518532            0    1.5919462     5.862408    4056.4635 
   11000    1.2338134    -3.140013            0   -1.2897557    5.5741081     3141.701 
   12000    1.2733107   -3.1132175            0    -1.203729    5.8808055    3139.8096 
Loop time of 0.612494 on 48 procs for 2000 steps with 4000 atoms

Performance: 564250.484 tau/day, 3265.338 timesteps/s
99.6% CPU use with 48 MPI tasks x no OpenMP threads

MPI task timing breakdown:
Section |  min time  |  avg time  |  max time  |%varavg| %total
---------------------------------------------------------------
Pair    | 0.26577    | 0.29063    | 0.33593    |   2.5 | 47.45
Neigh   | 0.039625   | 0.041791   | 0.047183   |   0.6 |  6.82
Comm    | 0.18003    | 0.22936    | 0.25695    |   3.0 | 37.45
Output  | 5.2541e-05 | 5.4078e-05 | 6.8882e-05 |   0.0 |  0.01
Modify  | 0.039258   | 0.045918   | 0.053262   |   2.2 |  7.50
Other   |            | 0.004742   |            |       |  0.77

Nlocal:        83.3333 ave          92 max          73 min
Histogram: 1 0 4 7 5 14 9 2 5 1
Nghost:        1933.08 ave        1955 max        1907 min
Histogram: 3 1 1 6 10 8 8 3 4 4
Neighs:        12154.8 ave       13835 max       10579 min
Histogram: 2 5 5 7 7 7 4 8 2 1

Total # of neighbors = 583430
Ave neighs/atom = 145.85750
Neighbor list builds = 145
Dangerous builds = 12

#############################
# L I N E A R  Q U E N C H  #
#############################

# Define solid atoms. This closely follows ten Wolde  Ruiz-Montero and Frenkel  Faraday Discuss  1996  104  93-110
# Compute components of the per-atom q6 vector
compute q6 all orientorder/atom degrees 1 6 components 6 nnn NULL cutoff 1.3 # compute the Q6 parameter.
                                                                             # Use all neighbours within 1.3 unit cell.

# get number of connections
compute coord_number all coord/atom orientorder q6 0.5

# An atom is solid if it has 8 or more connections (of a possible 14)
variable is_solid atom c_coord_number>=8
group solid dynamic all var is_solid    # Must be dynamic to update
dynamic group solid defined

# do clustering
compute cluster solid cluster/atom 1.3 # Create a cluster where all atoms within are solid and max 1.3 units from another member

# define chunks one chunk per cluster
compute clus_chunks solid chunk/atom c_cluster nchunk every compress yes  # Says which atoms are in which chunk

# count the size of each chunk
compute size_chunks solid property/chunk clus_chunks count


# Find the maximum entry in the vector of chunk sizes
variable max_n equal max(c_size_chunks)


# Thermo style which includes this variable
# thermo_style custom step temp pe vol v_max_n

thermo ${N}  # Print the thermo information every 100 steps
thermo 1000  

# Reset the npt fix at a lower temperature (below freezing)
fix 1  all npt temp  ${temp} ${temp}  0.1  iso  5.68  5.68  0.5  mtk yes tchain  5  pchain  5
fix 1  all npt temp  0.45 ${temp}  0.1  iso  5.68  5.68  0.5  mtk yes tchain  5  pchain  5
fix 1  all npt temp  0.45 0.45  0.1  iso  5.68  5.68  0.5  mtk yes tchain  5  pchain  5

dump dmp2 all dcd ${N} traj.dcd
dump dmp2 all dcd 1000 traj.dcd


compute msd all msd com yes
variable twopoint equal c_msd[4]/6/(step*dt+1.0e-6)
fix 9 all vector 10 c_msd[4]
variable fit equal slope(f_9)/6/(10*dt)
thermo_style custom step temp pe c_msd[4] v_twopoint v_fit v_max_n

fix 1 all npt temp 1.25 ${temp} 0.1 iso 5.68 5.68 0.5 mtk yes tchain 5 pchain 5
fix 1 all npt temp 1.25 0.45 0.1 iso 5.68 5.68 0.5 mtk yes tchain 5 pchain 5
run 5000000 # 5000000  # Run for this many steps
Neighbor list info ...
  update every 1 steps, delay 10 steps, check yes
  max neighbors/atom: 2000, page size: 100000
  master list distance cutoff = 3.8
  ghost atom cutoff = 3.8
  binsize = 1.9, bins = 8 8 8
  4 neighbor lists, perpetual/occasional/extra = 1 3 0
  (1) pair lj/cut, perpetual
      attributes: half, newton on
      pair build: half/bin/atomonly/newton
      stencil: half/bin/3d
      bin: standard
  (2) compute orientorder/atom, occasional
      attributes: full, newton on
      pair build: full/bin/atomonly
      stencil: full/bin/3d
      bin: standard
  (3) compute coord/atom, occasional
      attributes: full, newton on
      pair build: full/bin/atomonly
      stencil: full/bin/3d
      bin: standard
  (4) compute cluster/atom, occasional
      attributes: full, newton on
      pair build: full/bin/atomonly
      stencil: full/bin/3d
      bin: standard
Per MPI rank memory allocation (min/avg/max) = 9.821 | 9.828 | 9.834 Mbytes
Step Temp PotEng c_msd[4] v_twopoint v_fit v_max_n 
   12000    1.2733107   -3.1132175 8.3678421e-31 5.8110012e-33 8.3333333e+20            1 
   13000    1.2357482    -3.084616    1.0321125 0.0066161053  0.087856671            2 
   14000    1.2350427   -3.1185585    2.0959149  0.012475684  0.088607022            2 
   15000       1.2559   -3.1014659    3.2455623  0.018030901  0.090497537            1 
   16000    1.2652616   -3.0933708    4.3770106  0.022796929   0.09162908            2 
   17000    1.2555454   -3.0910396    5.4261513   0.02659878  0.091744932            2 
   18000    1.2374083   -3.1079169    6.4847659  0.030022064  0.091340044            1 
   19000    1.2333236    -3.132529    7.5425504   0.03308136  0.091024207            1 
   20000    1.2446478   -3.1069767    8.6985574  0.036243988  0.090761962            2 
   21000    1.2478776   -3.1072315    9.8245949  0.038986487  0.091067781            1 
   22000    1.2736124   -3.1039751    10.943503  0.041452662  0.091462771            3 
   23000    1.2638976   -3.1360561    12.098355  0.043834618  0.091847951            2 
   24000    1.2191241   -3.1104772    13.353576  0.046366583  0.092172185            1 
   25000    1.2489419   -3.1039971    14.434444  0.048114812  0.092733636            1 
   26000    1.2461043   -3.1018937    15.948748  0.051117781  0.093474056            1 
   27000     1.259392   -3.1233773     17.01266  0.052508208  0.094145766            2 
   28000    1.2607552   -3.0918228    17.927804   0.05335656  0.094447503            1 
   29000    1.2377927   -3.0956828    19.076686  0.054818061  0.094503067            1 
   30000    1.2568178   -3.1054252    20.067809  0.055743914  0.094415348            1 
   31000    1.2593409   -3.1030161    21.194333  0.056974011  0.094244964            1 
   32000    1.2415964   -3.0923435    22.424108  0.058396114  0.094356961            2 
   33000    1.2578564   -3.0986105     23.93326  0.060437524  0.094475332            3 
   34000    1.2243252   -3.1199269    25.060733  0.061423363  0.094757201            2 
   35000    1.2587136   -3.1026008    26.377849  0.062804402   0.09508994            1 
   36000    1.2451836   -3.1457439    27.737327  0.064206775   0.09546853            1 
   37000    1.2618296   -3.0681851    28.911509  0.065116009  0.095896527            1 
   38000    1.2387047   -3.1230234    30.093006  0.065993434  0.096271223            5 
   39000    1.2263935   -3.1029931    31.051059  0.066348416  0.096553013            1 
   40000      1.23218   -3.1605856    31.929391  0.066519564  0.096623017            1 
   41000    1.2257116   -3.1200982    33.146766  0.067371475  0.096654249            4 
   42000    1.2387942   -3.1122932    34.413693  0.068281136  0.096709427            2 
   43000    1.2506721   -3.1152017     35.56448   0.06892341   0.09678556            1 
   44000    1.2604327   -3.0845566    36.935799  0.069954165  0.096875108            1 
   45000    1.2732157   -3.1183525    37.935023  0.070250042  0.096957892            1 
   46000    1.2228263   -3.1026174    39.273689  0.071147987  0.097077252            2 
   47000    1.2367366   -3.1077847    40.543706  0.071886002  0.097185692            1 
   48000    1.2593308   -3.1116968    41.811228  0.072588937  0.097304948            4 
   49000    1.2489074   -3.1126251    42.676061  0.072578335  0.097386703            2 
   50000    1.2738887   -3.1014926    44.063486  0.073439142  0.097438319            2 
   51000    1.2682828   -3.1418319    45.139327   0.07375707  0.097434677            2 
   52000    1.2516705   -3.1149874    46.125491  0.073919055  0.097415323            1 
   53000    1.2326983   -3.1182605    47.013363  0.073920381  0.097366729            3 
   54000    1.2572645   -3.1023023    48.296766  0.074532046  0.097317236            1 
   55000    1.2653762   -3.1089697    49.269204  0.074650308  0.097243369            2 
   56000    1.2234024   -3.0904482    50.607125  0.075308221  0.097176533            3 
   57000    1.2502113   -3.1111006    51.725984  0.075622783   0.09708103            2 
   58000    1.2296968    -3.126237    52.352613  0.075219272  0.096945806            2 
   59000    1.2483011   -3.1234041    53.506256  0.075573807  0.096816382            2 
   60000    1.2581429    -3.123258    54.456504  0.075634033  0.096653478            1 
   61000    1.2273805   -3.1313093    55.755512  0.076168731  0.096493119            1 
   62000    1.2347812   -3.1130556    56.451837  0.075876125  0.096308624            2 
   63000     1.259858   -3.1257982    57.345832  0.075854274    0.0960593            1 
   64000    1.2421825   -3.1465921    58.362707  0.075993108  0.095850516            5 
   65000    1.2197176   -3.1098476    59.834269  0.076710601   0.09565971            1 
   66000    1.2034306   -3.1231795    60.866484  0.076851621   0.09548544            2 
   67000    1.2171693    -3.140876     61.58008  0.076592139  0.095308007            1 
   68000    1.2380223   -3.0793697    62.959436   0.07715617   0.09513196            1 
   69000    1.2574843   -3.1572445    63.901346  0.077175538  0.094980072            2 
   70000    1.2206871   -3.1226227    64.659156  0.076975185  0.094817898            2 
   71000    1.2586699    -3.110016    66.303269  0.077820737  0.094680863            2 
   72000    1.2669775   -3.1471069    66.962676  0.077503096  0.094554358            4 
   73000    1.2552265   -3.0916279     68.33977  0.078013436   0.09439489            2 
   74000    1.2296871   -3.1157171    68.962785  0.077660794  0.094236739            7 
   75000    1.2413451   -3.1036808    70.495856  0.078328728  0.094099507            1 
   76000    1.2341112   -3.0856354    71.268335  0.078145104   0.09399721            4 
   77000    1.2343427   -3.1112581    72.409943  0.078365738  0.093883383            1 
   78000    1.2270721   -3.1026703     73.50014   0.07852579  0.093762443            1 
   79000    1.2496866   -3.0843107    74.175267  0.078243952  0.093614639            4 
   80000    1.2466197   -3.1567064    74.860152  0.077979325  0.093452858            2 
   81000    1.2161512   -3.1369313    75.965331  0.078153633  0.093280823            2 
   82000    1.2584151   -3.1356409    77.255429  0.078511614  0.093145377            3 
   83000    1.2370128   -3.1204345     78.56605  0.078881576  0.093038914            1 
   84000    1.2132945    -3.103812     79.67526  0.079042916  0.092922292            2 
   85000    1.2316872   -3.1317802    80.172628  0.078600616  0.092808022            1 
   86000    1.2232343    -3.093508    81.434691  0.078909584  0.092678262            1 
   87000     1.245057   -3.1316526    82.287552  0.078819493  0.092538446            2 
   88000    1.2249045   -3.1406191    82.889761  0.078494091  0.092390549            1 
   89000    1.2176594   -3.1085307    84.242442  0.078878691  0.092246121            1 
   90000    1.2288699   -3.1291402    85.198164  0.078887188   0.09210944            3 
   91000    1.2454202   -3.1335903    86.209597  0.078946517    0.0919753            1 
   92000    1.2159472   -3.1156603    88.130583  0.079828426  0.091878648            2 
   93000    1.2137505   -3.0842933    89.371986  0.080082425  0.091807698            1 
   94000     1.250963   -3.1226442     90.47702  0.080210123   0.09176168            3 
   95000    1.2344997   -3.1346086    91.467049  0.080234253  0.091700999            3 
   96000    1.2549918   -3.1495443    92.944722  0.080681182  0.091668763            1 
   97000    1.2635859   -3.1484173    94.411484  0.081109522  0.091641223            3 
   98000    1.2367411   -3.1361284    94.956919  0.080745679  0.091606871            2 
   99000    1.2311486   -3.0902617     96.31076  0.081069663  0.091578918            2 
  100000    1.2513816   -3.1197774    97.342289  0.081118574    0.0915511            1 
  101000     1.249228   -3.1361138     98.17563  0.081002994  0.091525432            3 
  102000    1.2137216   -3.1428499    99.021903  0.080900247  0.091496108            3 
  103000    1.2405346   -3.0850157    100.08245  0.080972854  0.091434183            2 
  104000    1.2387712    -3.102964    100.87755   0.08083137  0.091384496            1 
  105000    1.2411695   -3.1405211    101.68971  0.080706117  0.091332315            2 
  106000    1.2143644   -3.1292098    102.84398  0.080852189  0.091275543            2 
  107000    1.2417737   -3.1188577    104.68906  0.081533533  0.091225589            1 
  108000    1.2569284   -3.1426909    105.58158  0.081467266   0.09118098            2 
  109000    1.2848332   -3.1427687    107.14139  0.081912376  0.091143543            3 
  110000    1.2343298   -3.1155126     108.3311  0.082069017  0.091129323            4 
  111000    1.2306066   -3.1580557    108.66535  0.081580591  0.091109005            1 
  112000    1.2303365   -3.1292495    109.83115  0.081719607  0.091067948            1 
  113000    1.2492385    -3.102722     111.3847   0.08214211  0.091040292            4 
  114000    1.2598443   -3.1377421    111.37618  0.081415335  0.091008085            2 
  115000    1.2475399   -3.1017424    112.87016  0.081789974  0.090949398            1 
  116000    1.2366098   -3.1298748    112.98445   0.08116699  0.090895917            5 
  117000    1.1966754   -3.1137619    114.84419  0.081797857  0.090843668            2 
  118000    1.2361024   -3.1097241    115.76929  0.081757972  0.090809234            1 
  119000    1.2416736   -3.1403667    117.11604  0.082014036  0.090775486            1 
  120000     1.222412   -3.1669111    118.02793   0.08196384  0.090756362            5 
  121000    1.2031911   -3.1400399    119.01007  0.081962861  0.090733029            2 
  122000    1.2241016   -3.1439501    120.36071  0.082213597  0.090708296            1 
  123000     1.239447   -3.1403395    121.61298  0.082393615  0.090693455            1 
  124000    1.2358433   -3.1491293    122.44398  0.082287617  0.090690046            1 
  125000    1.2316443   -3.0886821    123.72207  0.082481383  0.090673315            2 
  126000    1.2430505   -3.1519061    125.08078  0.082725382  0.090673342            1 
  127000    1.2212608   -3.1245291    126.79156  0.083196559  0.090667649            1 
  128000    1.2459351   -3.1145981     127.6868  0.083129424  0.090673657            1 
  129000     1.232262   -3.1097506    128.78728   0.08319592  0.090686774            2 
  130000    1.2656506   -3.1153322    129.29598  0.082882039  0.090689568            3 
  131000     1.205132   -3.1123761    131.13404    0.0834186  0.090697289            2 
  132000    1.2047683   -3.1337225      132.773  0.083821338  0.090711808            1 
  133000    1.2331046   -3.1176117     133.0234  0.083347992  0.090721081            1 
  134000    1.2607268   -3.0904695    134.50419  0.083646884  0.090737785            2 
  135000    1.2402134   -3.1520701    134.42704  0.082979655  0.090743576            3 
  136000    1.2516185   -3.1505357     135.8155  0.083220284  0.090744637            2 
  137000     1.224406   -3.1546266    136.74471   0.08317805  0.090746273            2 
  138000    1.2176193   -3.1254179    138.76181  0.083793361  0.090743387            4 
  139000    1.2251182   -3.1471077    139.40434  0.083575745  0.090738128            4 
  140000    1.2265824   -3.1362388    140.78759  0.083802139  0.090729202            1 
  141000    1.2339917   -3.1374195    140.73137  0.083174569  0.090719934            3 
  142000    1.2264731   -3.1439109    141.83474  0.083236347  0.090714339            1 
  143000    1.2252246   -3.1085511     144.5975  0.084264274  0.090718004            1 
  144000    1.2269489   -3.1524126    144.85693  0.083829242  0.090731691            1 
  145000    1.2343685   -3.1505018    146.48884   0.08418899  0.090743843            2 
  146000     1.251895   -3.1279647    147.98074  0.084463892  0.090760093            2 
  147000    1.2468726   -3.1287536    149.05062  0.084495816  0.090787846            1 
  148000    1.2348211   -3.1644772    151.02138  0.085034559  0.090830045            2 
  149000    1.2206616   -3.1688883    151.50465  0.084734143  0.090868795            4 
  150000    1.2369502   -3.1374232     152.7406  0.084855888  0.090909326            2 
  151000    1.2322862   -3.1769205    153.64586  0.084793523  0.090950363            2 
  152000    1.2329542   -3.1500401    154.64148  0.084781515  0.090985473            2 
  153000    1.2100247   -3.1533091    155.97899  0.084955877  0.091020334            1 
  154000    1.2274088    -3.147364     157.8642  0.085424352  0.091044414            1 
  155000    1.2520534   -3.1331014     157.5964  0.084729248  0.091078241            2 
  156000    1.2188638   -3.1104823    159.50236  0.085204251  0.091103288            2 
  157000    1.2267803   -3.1266965    160.39289   0.08513423  0.091125021            1 
  158000     1.208725   -3.1153456    161.93922  0.085410979  0.091147653            2 
  159000    1.2414395   -3.1433393    163.77699  0.085836995  0.091173473            1 
  160000    1.2328765   -3.1451784    164.25419   0.08554906  0.091201664            2 
  161000    1.2448068   -3.1583363    164.19831  0.084988773  0.091226404            1 
  162000     1.226644   -3.1389975    166.01204  0.085397139  0.091244361            1 
  163000    1.2280374   -3.1545692    167.55058  0.085659804  0.091262072            1 
  164000    1.2491867   -3.1442913    167.98007  0.085355724  0.091279679            1 
  165000    1.2569961   -3.1292621    170.03316  0.085875336  0.091290873            4 
  166000     1.223466   -3.1556018    170.33987  0.085511984  0.091303411            1 
  167000    1.2244881   -3.1336059     171.5073  0.085582484  0.091314907            2 
  168000    1.2368797   -3.1308274    173.01705  0.085821951  0.091332728            1 
  169000    1.2247895   -3.1096131    173.94005  0.085769253  0.091352489            3 
  170000    1.2486738   -3.1531369    174.82445  0.085698259  0.091375605            1 
  171000    1.2214012   -3.1588322    175.32365  0.085440377  0.091392415            1 
  172000    1.2342178   -3.1069034    178.19366  0.086334136  0.091407313            1 
  173000     1.226711   -3.1499481     178.1252  0.085802118  0.091417473            1 
  174000    1.2393103   -3.1671466    179.19051  0.085819212  0.091425362            3 
  175000    1.2202322   -3.1398874    180.87211  0.086129574  0.091437339            2 
  176000    1.2149021   -3.1254423     181.4341  0.085906299  0.091454963            2 
  177000    1.2336468   -3.1298867      183.461  0.086375237  0.091468122            1 
  178000    1.2559922   -3.1350561    183.17502  0.085756095  0.091483441            3 
  179000    1.2085453   -3.1294243    185.32232  0.086276684   0.09150365            1 
  180000    1.2308214   -3.1265532    186.13334  0.086172843  0.091529963            2 
  181000    1.2191926   -3.1405675    187.95766  0.086536674   0.09155354            1 
  182000    1.2123537   -3.1615599    189.17726  0.086619627  0.091573402            2 
  183000    1.2306206   -3.1771134    189.36303   0.08623089   0.09160069            2 
  184000    1.2367914   -3.1375961    190.22649  0.086153299  0.091623325            1 
  185000    1.2284803   -3.1353607    192.35453  0.086646186  0.091643907            1 
  186000    1.2229985   -3.1324191    192.77753  0.086369862  0.091656183            3 
  187000    1.2281376   -3.1725494    193.25257  0.086119683  0.091660557            1 
  188000    1.2092352   -3.1299276    194.76937  0.086333941  0.091667657            2 
  189000    1.2226883   -3.1683183    195.78176  0.086323526  0.091667317            2 
  190000    1.2327925   -3.0907216     197.6998  0.086710436  0.091673217            1 
  191000    1.2053464   -3.1426347    198.52702  0.086617374   0.09167927            1 
  192000     1.219861   -3.1569644    198.86245  0.086311827  0.091680735            1 
  193000    1.2282528   -3.1497995    199.40783  0.086100098  0.091682148            2 
  194000    1.2193752   -3.1237737    201.38866  0.086507156  0.091689157            3 
  195000    1.2321822   -3.0975265    202.47461  0.086527613  0.091699502            3 
  196000    1.2251274   -3.1209492    203.76199  0.086633499  0.091706078            1 
  197000    1.2344142   -3.1402138    204.30317   0.08642266  0.091717078            2 
  198000    1.1968886   -3.1791675    205.18846  0.086358781  0.091719549            1 
  199000    1.2183471   -3.1252311    207.55669  0.086916537  0.091726154            1 
  200000    1.2163504   -3.1242386    208.42233  0.086842638  0.091735405            2 
  201000    1.2020375    -3.120496    210.10391  0.087107756  0.091750418            1 
  202000    1.2159338   -3.1430591    211.99428  0.087456386  0.091768109            1 
  203000    1.2235674   -3.1358141    212.30427   0.08715282  0.091788685            2 
  204000    1.2425693   -3.1301694    213.45372  0.087195146  0.091813367            3 
  205000     1.239997   -3.1381989     216.0282  0.087816342  0.091841088            2 
  206000    1.1903831   -3.1054997    216.76377  0.087687611  0.091869804            2 
  207000    1.2378085   -3.1269196    218.58748   0.08799818  0.091907894            2 
  208000    1.2029881   -3.1135198    219.76646  0.088047461  0.091948147            5 
  209000    1.2395357   -3.1452109    221.56525    0.0883434   0.09198671            2 
  210000    1.2112739   -3.1555736    221.73136  0.087988637  0.092030101            1 
  211000    1.2258108   -3.1402247    223.66317  0.088334587  0.092070215            2 
  212000    1.2209605   -3.1596295    224.62169  0.088294689  0.092116478            2 
  213000    1.2170891   -3.1500499    226.72311  0.088702311  0.092157401            1 
  214000    1.2133344   -3.1666268    227.15607  0.088456414  0.092205532            3 
  215000    1.2251708   -3.1467645    229.00869  0.088763056  0.092250883       -1e+20 
  216000    1.2196719    -3.170818    229.55402  0.088562507   0.09229724            2 
  217000    1.2093532   -3.1464842    231.36391  0.088849427  0.092343409            1 
  218000    1.2130997   -3.1646765     231.9936  0.088682569  0.092394815            2 
  219000    1.1793883   -3.1573607    234.48268  0.089224762  0.092444684            3 
  220000     1.227406   -3.1654489    236.39548  0.089543744  0.092496373            4 
  221000    1.2161967   -3.1651542    237.11086  0.089408319  0.092549578            5 
  222000    1.2323747   -3.1260106    239.25057  0.089808771  0.092598651            2 
  223000    1.2229108   -3.1573009    239.11828  0.089356605  0.092649196            3 
  224000    1.2023873   -3.1789601    240.79205  0.089580375  0.092695015            1 
  225000    1.2051958    -3.150494    240.51427  0.089079361  0.092742201            2 
  226000    1.2014974   -3.1537392    241.04896  0.088882358  0.092785351            2 
  227000    1.1795957   -3.1670499    242.41307  0.088991582  0.092820249            1 
  228000    1.2286102   -3.1674632    243.15654  0.088873004  0.092849808            3 
  229000    1.1977142   -3.1245273    245.82696   0.08945668  0.092885793            2 
  230000    1.2014284   -3.1445992     246.4275  0.089285325  0.092929032            1 
  231000    1.2216866   -3.1486072    247.80328  0.089395123  0.092969245            1 
  232000    1.2092721   -3.1560714    249.35965  0.089568841  0.093008701            2 
  233000    1.2114602   -3.1625639    249.16376  0.089114364  0.093046842            5 
  234000    1.2271808   -3.1378186    252.48745  0.089917184  0.093088392            1 
  235000    1.2161745   -3.1466185    252.81951  0.089652309  0.093127841            1 
  236000     1.229344   -3.1552803    254.38998   0.08982697  0.093163353            1 
  237000    1.2427981   -3.1713056    254.76371  0.089579365  0.093199962            1 
  238000    1.1971473   -3.1702234    254.83946  0.089229502  0.093232556            1 
  239000    1.2148978   -3.1464242    256.17434  0.089321597  0.093260777            1 
  240000    1.2270459   -3.1436862    258.47989  0.089749962  0.093291365            1 
  241000     1.214144   -3.1753859     257.2158  0.088940455  0.093315266            2 
  242000    1.2216993   -3.1594141    258.01206   0.08884713  0.093333233            1 
  243000      1.23649   -3.1425817    260.50501  0.089336424  0.093351565            2 
  244000    1.2272851   -3.1554894    260.64649   0.08901861  0.093368527            1 
  245000     1.217059   -3.1358775    262.54827  0.089302133  0.093388335            1 
  246000    1.2288627   -3.1632626    265.42689  0.089914257   0.09341047            2 
  247000    1.2116905   -3.1537203    265.48628  0.089570268  0.093433285            2 
  248000     1.222976   -3.1508431    267.01624  0.089723198  0.093461104            2 
  249000    1.2075284   -3.1521977    267.76717   0.08961418  0.093488771            2 
  250000    1.2278885     -3.14527     268.9519  0.089650632  0.093517269            5 
  251000    1.2144831   -3.1108635    271.55235  0.090156823   0.09354417            2 
  252000    1.2223266   -3.1802438    270.33004  0.089394853  0.093570498            3 
  253000     1.210495   -3.1647054    271.88112  0.089552412  0.093592303            2 
  254000    1.2439263   -3.1542626    273.16493   0.08962104  0.093613151            1 
  255000    1.1992533   -3.1625569    275.79044  0.090127595  0.093636237            3 
  256000    1.2278804   -3.1143522    275.20563  0.089585167  0.093658461            2 
  257000    1.1881552   -3.1657792    276.50171  0.089656844  0.093678547            2 
  258000    1.2362375   -3.1381805    278.31693   0.08989565  0.093697695            4 
  259000    1.1941488   -3.1842561    278.79678  0.089702952  0.093715581            1 
  260000    1.2215518   -3.1488705    279.43524  0.089562578  0.093730933            3 
  261000    1.2151946   -3.1873075    281.65072  0.089926794  0.093742509            3 
  262000    1.2146093    -3.144994    281.96302  0.089682894   0.09375658            1 
  263000    1.2133063   -3.1752142     283.1505  0.089718154  0.093771861            2 
  264000    1.2032399   -3.1535751    284.36708  0.089762336  0.093789684            4 
  265000    1.2128385   -3.1449518    286.69733  0.090156393  0.093808484            2 
  266000    1.2332202   -3.1792557    286.74586  0.089832663   0.09382231            2 
  267000     1.209712   -3.1464134    288.14621  0.089933275  0.093837811            2 
  268000    1.2391014   -3.1467352    289.04998  0.089878726  0.093855701            1 
  269000    1.2072778   -3.1602827    289.02245  0.089536074  0.093872356            4 
  270000    1.1812039   -3.1720884    292.25026  0.090200699  0.093887709            2 
  271000    1.1968962   -3.1817634     292.1162   0.08982663  0.093906324            1 
  272000    1.2216894   -3.1586944      293.514  0.089924631  0.093921021            2 
  273000    1.1677686   -3.1658619    295.56576  0.090221538   0.09393929            1 
  274000    1.2074554   -3.1677395    295.09901  0.089750307  0.093959228            2 
  275000    1.2065089   -3.1668966     297.3899  0.090118151  0.093976655            1 
  276000    1.2057969   -3.1678145    298.01172  0.089979383  0.093987742            2 
  277000    1.2060909   -3.1789613    299.65837   0.09014993  0.094000889            1 
  278000    1.2191033   -3.1684985     300.9248  0.090205277  0.094009289            2 
  279000     1.229988   -3.1512373    301.00488  0.089905878   0.09401633            1 
  280000    1.2005118   -3.1309926    302.13005  0.089919658  0.094022421            1 
  281000    1.2217479   -3.1742562    301.77709  0.089494985  0.094026223            3 
  282000    1.2116122   -3.1716236     303.6455  0.089729758  0.094030762            2 
  283000    1.2027684   -3.1753909    304.66461  0.089712781  0.094034301            2 
  284000    1.1896221   -3.1528147    308.38755  0.090489304  0.094038058            2 
  285000    1.2108644   -3.1583122    307.63716  0.089952387  0.094044148            3 
  286000    1.2015639   -3.1731154     308.5612  0.089907109  0.094046825            1 
  287000    1.2300502   -3.1646011     309.1935  0.089777438  0.094051732            1 
  288000    1.2049532   -3.1632542    310.48468  0.089839316  0.094055797            3 
  289000    1.2192924   -3.1779747    310.57499  0.089554495  0.094059058            1 
  290000    1.1995592    -3.176746     312.3491  0.089755489  0.094059771            2 
  291000    1.2125773   -3.1401501     314.1906  0.089974398  0.094059229            1 
  292000    1.2029547   -3.1358923    315.87812  0.090147866  0.094062651            3 
  293000    1.2340823   -3.1434997    316.20002  0.089931747  0.094061748            2 
  294000    1.2149904    -3.172881    317.25113   0.08992379  0.094061106            2 
  295000     1.214911    -3.147915    317.65818   0.08973395  0.094058071            3 
  296000    1.2122339   -3.1650969    319.83744  0.090044323  0.094057297            2 
  297000    1.2031864   -3.1702154    318.08155  0.089248469  0.094053765            2 
  298000    1.1962297   -3.1730756    321.41207  0.089880332  0.094049521            3 
  299000    1.1893954   -3.1908462    321.60029  0.089632189  0.094048122            3 
  300000    1.2036981   -3.1509616    324.06702  0.090018616  0.094042981            2 
  301000    1.1792711   -3.1453277    324.77554  0.089915708  0.094039409            1 
  302000    1.2082844   -3.1915434    324.20517  0.089460587  0.094034461            1 
  303000    1.2155859   -3.1857419    326.10605  0.089688132  0.094029088            3 
  304000    1.2049975   -3.1943447     325.7044  0.089283003  0.094021388            1 
  305000    1.2105122   -3.1853632    328.06266  0.089634606  0.094014189            2 
  306000    1.1920452   -3.1643388    328.94722  0.089582577  0.094006529            1 
  307000    1.2093554   -3.1430951    331.48145  0.089978679   0.09400171            2 
  308000    1.2007582    -3.151613    329.60689  0.089179352  0.093998013            1 
  309000    1.2190702   -3.1854912    332.17064  0.089582158  0.093987258            2 
  310000    1.2186907   -3.1825346    333.24882  0.089583017  0.093976882            1 
  311000     1.183686   -3.1272299    335.17295  0.089810544  0.093969543            1 
  312000     1.216147   -3.1952278     335.0922  0.089501122  0.093961687            2 
  313000    1.2255997   -3.1811166    335.62191  0.089356206  0.093952614            1 
  314000    1.2276816   -3.2122694    336.77201  0.089376859  0.093942446            1 
  315000    1.1812042   -3.1766943    338.22475  0.089477446  0.093932573            4 
  316000     1.198405   -3.1484453    340.25223  0.089728964  0.093924927            1 
  317000    1.2036749   -3.1856656    341.39702   0.08974685  0.093919116            2 
  318000    1.2164068   -3.1785701    342.86579  0.089849526  0.093912858            2 
  319000    1.2096959   -3.1611428    345.34946  0.090216681   0.09390749            1 
  320000    1.1714306   -3.1389026    344.70776  0.089767646  0.093902364            1 
  321000    1.2046754    -3.162863     346.4054  0.089928713  0.093895193            2 
  322000    1.2015713   -3.1587105    347.46204  0.089922889  0.093889489            2 
  323000     1.195016   -3.2033868    345.92396  0.089247669  0.093884992            2 
  324000    1.2060076   -3.1778772    350.60975  0.090177404  0.093877963            2 
  325000    1.1834551   -3.1798496    349.21412  0.089542082  0.093872999            1 
  326000     1.191637   -3.1533317    350.95471   0.08971235  0.093865746            2 
  327000    1.2098193   -3.1543749    351.87851  0.089673423  0.093856287            2 
  328000    1.1797678   -3.1690108    352.06006  0.089446154   0.09384413            1 
  329000    1.2014898   -3.1544121    353.47191  0.089531892  0.093830467            2 
  330000    1.1693869   -3.1701332    353.71012  0.089320738   0.09381709            1 
  331000    1.1871769   -3.1646081    355.90624  0.089603787   0.09380505            2 
  332000    1.1906725   -3.1962767    356.18857   0.08940476  0.093794971            1 
  333000    1.1790779   -3.1434618    358.84906  0.089802067  0.093785029            2 
  334000    1.1895602   -3.1541915    360.27209  0.089888246  0.093777809            2 
  335000    1.2110368   -3.1680306    359.53548  0.089436686  0.093766781            3 
  336000    1.1713714   -3.1661832    362.09793  0.089806034  0.093758273            1 
  337000    1.2062191   -3.2162353    361.43681  0.089376065  0.093747327            3 
  338000     1.185552   -3.1758036    362.26175  0.089315027  0.093737317            2 
  339000    1.2171381   -3.1996619    363.06514  0.089249052  0.093725959            4 
  340000    1.1837066   -3.1742224    366.21543  0.089758684  0.093717131            1 
  341000    1.1899763    -3.155367    367.26891  0.089752911   0.09370781            2 
  342000    1.1883454   -3.1838331    369.04955  0.089924355  0.093699494            3 
  343000    1.1987602   -3.1416459    372.20762  0.090429451  0.093694858            1 
  344000    1.1907928   -3.1967182    369.36874  0.089478861  0.093688096            2 
  345000     1.189921   -3.1524353    371.70957  0.089784921  0.093681736            2 
  346000    1.2200962   -3.2203105    371.13622  0.089387336  0.093678964            2 
  347000    1.2068737   -3.2189422    374.25284  0.089878203  0.093674126            3 
  348000    1.2438883   -3.1539187    375.56687  0.089934595  0.093668371            3 
  349000    1.1918384    -3.158764    377.43458  0.090122871  0.093662948            4 
  350000    1.1779384   -3.1895792    378.92391  0.090219978  0.093659858            2 
  351000    1.2130848   -3.1882514    379.83264  0.090178688  0.093659002            3 
  352000     1.209832   -3.1718778    381.17649  0.090240647  0.093659341            2 
  353000    1.1900149   -3.1788123    382.49848  0.090297091  0.093659867            1 
  354000    1.1921851   -3.1918391    383.23042  0.090214316  0.093657341            2 
  355000    1.2127165   -3.2188627    382.47068  0.089781849   0.09365491            5 
  356000    1.1785908   -3.1791931    386.75898  0.090533469  0.093653603            2 
  357000    1.2112906   -3.1508655    385.53762  0.089994775  0.093653288            1 
  358000    1.2007901   -3.1906893    387.19714  0.090129689  0.093651427            1 
  359000    1.1811397   -3.1793464    389.07016  0.090313408  0.093648398            3 
  360000    1.1963571   -3.1822528    386.98372  0.089579564  0.093642362            2 
  361000    1.1804411   -3.1987272    390.00348  0.090028503  0.093635484            1 
  362000    1.1804801   -3.1810837    389.75768  0.089723222    0.0936294            2 
  363000     1.198957   -3.1758529    390.60647  0.089670906   0.09362429            1 
  364000    1.1698935   -3.1852241    392.62775  0.089887306  0.093619081            1 
  365000    1.1754089   -3.1639896    394.44657  0.090056294  0.093615015            3 
  366000    1.1917616   -3.1909236    395.55663  0.090062986  0.093614173            2 
  367000    1.1829945   -3.2080078    398.18634    0.0904147  0.093613041            1 
  368000    1.1924399    -3.186587    400.36121  0.090661505  0.093613328            3 
  369000     1.195626   -3.2010965     399.3771  0.090193563  0.093612431            1 
  370000    1.1988101    -3.166574    399.62055  0.090004629  0.093609354            2 
  371000    1.1812905   -3.1733073    401.15496  0.090106684  0.093603331            1 
  372000    1.1734488   -3.2102359    401.11345  0.089855163  0.093597327            2 
  373000    1.1941614   -3.1724772    402.55259  0.089935789  0.093589887            2 
  374000    1.1929508   -3.2094784    402.73658  0.089736314    0.0935827            3 
  375000    1.1935762   -3.1813197    405.21167  0.090047038  0.093575502            2 
  376000    1.2427464   -3.1785279    404.89929  0.089738317  0.093567837            2 
  377000    1.2000156   -3.1687497    406.72826  0.089904567  0.093557899            2 
  378000    1.1767334   -3.1742969    407.29933  0.089792621  0.093547172            3 
  379000    1.1915562   -3.1744007    409.23775  0.089981915  0.093536318            2 
  380000    1.1935663   -3.1658841    409.58038  0.089820258  0.093527532            2 
  381000    1.1834813   -3.1818823    409.30706  0.089524729  0.093514693            3 
  382000    1.2109562   -3.2036805    408.98785  0.089220734  0.093499568            1 
  383000    1.1810952   -3.1986071    411.74796  0.089588329  0.093485251            2 
  384000    1.2010886   -3.1648115    414.95701  0.090051435  0.093472167            1 
  385000    1.1828949   -3.2077238    412.49646  0.089284948  0.093457708            1 
  386000    1.1888521   -3.1742035    414.38485  0.089461323  0.093442814            1 
  387000    1.1782654   -3.1988594    416.14568  0.089609318  0.093429007            2 
  388000    1.2091677   -3.1797485     417.8652  0.089747681  0.093420097            1 
  389000    1.1823799   -3.1734211    419.89619  0.089952053  0.093408276            2 
  390000    1.2019444   -3.1764773    420.05794  0.089755969   0.09339721            1 
  391000    1.1928629   -3.2216348    418.88141  0.089275663  0.093382868            4 
  392000    1.1716289   -3.1875236     422.7069  0.089861161  0.093368165            1 
  393000    1.2097277   -3.1794372    421.56355  0.089390065  0.093353758            1 
  394000    1.2048702   -3.1509694    424.76255  0.089839795  0.093338311            2 
  395000    1.1967153    -3.202622    421.90372  0.089009223  0.093320795            2 
  396000    1.2474117   -3.1920229    424.74069  0.089381458  0.093302179            1 
  397000    1.1786429   -3.2070638    424.68611  0.089144859  0.093283165            3 
  398000    1.1934266   -3.2325914    425.01163  0.088989035    0.0932614            1 
  399000     1.184139   -3.1766204     427.0908   0.08920025  0.093240678            2 
  400000    1.1898683   -3.1803961    428.06467   0.08918014  0.093221206            1 
  401000    1.2105501   -3.1894786    428.47575  0.089043174  0.093203054            3 
  402000    1.1826634   -3.1867971    431.92135  0.089535934  0.093184759            2 
  403000    1.1777155   -3.1863683    433.70967  0.089683555  0.093168901            2 
  404000    1.2220928   -3.1284002    434.05926  0.089533676  0.093151172            3 
  405000    1.1702145    -3.169645    434.85097  0.089475507  0.093136098            2 
  406000    1.2040293    -3.200019    435.24041   0.08933506  0.093120255            3 
  407000     1.180069    -3.160879    436.77206  0.089429168  0.093104513            1 
  408000    1.1899597   -3.1973643    438.41175  0.089544883   0.09308933            2 
  409000    1.1944808   -3.1776452     439.0003  0.089445864  0.093076562            3 
  410000    1.1608651   -3.1965493    441.20823   0.08967647  0.093060261            2 
  411000    1.2004115   -3.1963782    440.98497   0.08941301  0.093043254            1 
  412000     1.215738   -3.1798556    440.64618  0.089127463   0.09302894            1 
  413000    1.1518033   -3.1968813    441.49807  0.089083549  0.093011501            3 
  414000    1.2079144    -3.203115    442.49822  0.089069691  0.092992541            2 
  415000    1.1768806   -3.1591991    444.18018  0.089192807  0.092971543            2 
  416000    1.1820756   -3.2064656    444.66077  0.089074673  0.092952891            3 
  417000    1.1840355   -3.1552705    446.99935  0.089328407  0.092937934            3 
  418000    1.1954955   -3.1801155    448.34323  0.089382622  0.092922816            1 
  419000    1.1714142   -3.2044868    448.31763  0.089164206  0.092908417            1 
  420000    1.1890763   -3.1659667    450.07275  0.089300149  0.092892448            1 
  421000    1.1812549   -3.1880765     451.1525  0.089301762  0.092875932            1 
  422000    1.1818123   -3.1797829    452.38366  0.089333266   0.09286108            3 
  423000    1.1610826    -3.206058    453.36755  0.089315908  0.092846127            1 
  424000    1.2095633   -3.2037793    453.51843  0.089134911  0.092831256            2 
  425000    1.1783708   -3.2105793     452.2761  0.088681589  0.092814431            2 
  426000    1.2034019   -3.2081755    454.95567  0.088997588  0.092793858            2 
  427000    1.1841692   -3.2074415    455.09317  0.088815998  0.092772263            1 
  428000    1.1495996   -3.1847705    454.70212  0.088532345  0.092748772            2 
  429000    1.1865484   -3.1643691    458.08733  0.088983553  0.092726387            1 
  430000    1.1599086   -3.1963737    456.91201  0.088548839  0.092705546            1 
  431000    1.1710212   -3.2064559    459.83868  0.088909258  0.092684554            1 
  432000    1.1773865   -3.2092951    461.61644  0.089046382  0.092665266            1 
  433000    1.1692665    -3.200835    461.42302  0.088803506  0.092644398            1 
  434000    1.1973028   -3.1856991    462.78213  0.088859855  0.092622552            1 
  435000    1.2229969   -3.1793148    464.77263  0.089036902   0.09260143            1 
  436000    1.1713647   -3.1935569    463.06588  0.088506476  0.092580311            2 
  437000    1.1827722   -3.2319537    464.67135  0.088610097  0.092559976            3 
  438000    1.1873658   -3.2100463    466.83984  0.088820365  0.092539802            2 
  439000    1.1675738   -3.1830373    468.38312  0.088910995  0.092519529            1 
  440000     1.160237   -3.2034067    467.34616   0.08851253   0.09249953            4 
  441000     1.191892   -3.2043611    469.17857  0.088658082  0.092479378            1 
  442000    1.1749161   -3.2085583    470.37953  0.088683922  0.092462001            1 
  443000    1.1870945   -3.1850608    472.50784  0.088884094  0.092443476            1 
  444000    1.1802324   -3.1922644    471.24441  0.088446774  0.092424681            1 
  445000    1.1823515   -3.1947123    475.73052  0.089088113  0.092404019            2 
  446000    1.1783461   -3.1940039    476.14272  0.088965382   0.09238602            2 
  447000    1.1901277   -3.2028903    478.72823  0.089248365  0.092368742            1 
  448000     1.187044    -3.200479    477.38752  0.088799762  0.092353903            1 
  449000    1.1951126   -3.1846823    479.62109  0.089016534  0.092340206            1 
  450000    1.1770108   -3.2063509    481.77985  0.089218491  0.092322772            5 
  451000    1.1683542   -3.2031996    482.12222  0.089083929  0.092306704            4 
  452000    1.1760766   -3.2042615    482.57257   0.08896987  0.092290911            2 
  453000    1.2109022   -3.2219417    482.13412   0.08869281  0.092275846            2 
  454000     1.164223   -3.2118163    485.09676  0.089041256  0.092259502            2 
  455000    1.1918574   -3.2190485    484.14945  0.088672061  0.092243745            2 
  456000    1.1645573   -3.2098879    484.32892  0.088510403  0.092225203            3 
  457000    1.1727615   -3.1672845    489.11441  0.089189352  0.092210105            3 
  458000    1.1639336   -3.1888857    486.96663  0.088603826   0.09219315            1 
  459000    1.1725924   -3.2044425     490.3751  0.089029612  0.092178007            3 
  460000    1.1701914   -3.2067947     490.8709  0.088925887  0.092163587            1 
  461000    1.1708303   -3.1958042    494.45669   0.08938118  0.092150063            1 
  462000    1.1579571   -3.1821814    491.82186  0.088712456  0.092136386            2 
  463000    1.1961644   -3.1978558    494.73066  0.089044395  0.092121615            1 
  464000    1.1630679   -3.2008173    496.72381  0.089210455  0.092107337            2 
  465000    1.1922246    -3.219172    498.46873  0.089331314  0.092094889            3 
  466000    1.1548758    -3.208985     498.9982    0.0892343  0.092081601            1 
  467000    1.2004834   -3.1740132    500.16239  0.089250961  0.092068278            2 
  468000    1.1687944   -3.2211031    496.94437  0.088487245  0.092053742            1 
  469000    1.1989059   -3.1811369    501.50166  0.089108326   0.09204068            1 
  470000    1.1603286   -3.1645269    500.90998  0.088813826  0.092025693            4 
  471000    1.1584076   -3.2504152    499.73615  0.088417578  0.092011899            3 
  472000    1.1756122   -3.1948039    501.69134  0.088575449  0.091998692            2 
  473000    1.1649919    -3.211058    503.87856   0.08877353   0.09198431            3 
  474000    1.1655767   -3.1852276    505.85266  0.088933308  0.091970852            1 
  475000    1.1706635    -3.200676    506.17544  0.088802708   0.09195717            2 
  476000    1.1903425   -3.2250906     506.9717   0.08875555  0.091942413            2 
  477000    1.1948489   -3.2004723    509.37314  0.088989018  0.091927557            2 
  478000    1.1935214    -3.182828    509.69254  0.088858532  0.091914792            4 
  479000    1.1780199   -3.1932118    511.84218  0.089047003  0.091900553            1 
  480000    1.1733155   -3.1851538    511.51996  0.088805548  0.091888413            1 
  481000    1.1703268   -3.1936554    516.50794   0.08948509  0.091876486            1 
  482000    1.1721453   -3.1675974    518.64831  0.089669486  0.091865732            1 
  483000     1.189153   -3.2101983    515.94707  0.089017782  0.091855848            2 
  484000    1.1722997   -3.2108193    515.76452  0.088802431  0.091842695            2 
  485000    1.1748481   -3.1938623    519.34941  0.089235294   0.09183141            1 
  486000     1.152834   -3.1953475    519.52728  0.089082182  0.091819069            2 
  487000    1.1924468    -3.216113    518.03125  0.088643267  0.091806724            6 
  488000    1.1453184   -3.2028036    521.91269  0.089124435  0.091795126            2 
  489000    1.1757409   -3.2138465    520.38499  0.088681832  0.091781951            2 
  490000     1.178244   -3.2234731    523.59527  0.089046814  0.091768759            4 
  491000    1.2027734   -3.1862765    523.36128  0.088825742  0.091755925            2 
  492000    1.1701789   -3.1922213    522.79998  0.088550132  0.091741512            2 
  493000    1.1563865   -3.1836177    525.92363  0.088898518  0.091726827            3 
  494000     1.185631    -3.219506    524.91062  0.088547675  0.091712416            1 
  495000    1.1618911   -3.1867898    528.04917  0.088897166  0.091698514            2 
  496000    1.1490743   -3.2106957    530.02338  0.089049626  0.091685186            2 
  497000    1.1488909   -3.1877395    530.05616  0.088875949  0.091672009            2 
  498000    1.1581209   -3.1787869    531.27691  0.088901758   0.09165984            2 
  499000    1.1637742   -3.1837351     529.1579  0.088369722  0.091645999            2 
  500000    1.1527929   -3.1902048    534.39414   0.08906569  0.091630579            3 
  501000    1.1778774   -3.1840015    532.12386  0.088510289  0.091615143            2 
  502000    1.1895811   -3.2180631    534.89946  0.088794731  0.091600098            4 
  503000    1.1837897   -3.2422698    533.45945   0.08837963  0.091584318            2 
  504000    1.1638037    -3.205968    537.18678  0.088820566   0.09156857            2 
  505000    1.1571551   -3.2446657    534.11263  0.088137397  0.091554373            2 
  506000     1.182766    -3.216832    538.22721  0.088640845  0.091539149            1 
  507000    1.1799426   -3.2122944     540.2472  0.088798028   0.09152462            3 
  508000    1.1795822   -3.2418089    538.13037   0.08827598  0.091509628            3 
  509000    1.1661853   -3.2198846    540.36042  0.088467653  0.091493881            4 
  510000    1.1525426   -3.2097374    539.68916  0.088184503  0.091477676            1 
  511000    1.1456239   -3.1919875    542.24784  0.088429197  0.091461842       -1e+20 
  512000    1.1973831   -3.2122113     542.1153  0.088234912   0.09144501            1 
  513000    1.1614531   -3.2269548    544.03714  0.088375104   0.09142723            2 
  514000    1.1958761   -3.2255848    542.86572  0.088013249  0.091408974            2 
  515000    1.1881962    -3.201657    548.07679  0.088685564  0.091391468            2 
  516000    1.1756103   -3.2212263    545.44235  0.088088236  0.091374825            2 
  517000     1.170972   -3.2216568    548.74407  0.088450043  0.091355764            2 
  518000    1.1835891   -3.2027423    549.54118  0.088407526  0.091338871            1 
  519000    1.1513928   -3.2238188    548.89203  0.088132953  0.091322297            2 
  520000    1.1966314   -3.2309497    550.10634  0.088158068  0.091304961            1 
  521000    1.1433011   -3.2133718     551.8069   0.08826086  0.091287003            2 
  522000    1.1747884   -3.2286087    551.95513  0.088115442  0.091268589            3 
  523000    1.1726794   -3.2390159    551.78734  0.087920226  0.091248192            3 
  524000    1.1679934   -3.2027833    552.54184   0.08787243  0.091228255            1 
  525000    1.1625652    -3.185505    555.19744  0.088126578  0.091210154            2 
  526000    1.1606747    -3.207558    557.48199  0.088320975  0.091192272            2 
  527000    1.1629568   -3.2043169     555.4906  0.087838489  0.091175081            1 
  528000    1.1830287   -3.2152033    555.89372  0.087735751  0.091156923            2 
  529000    1.1894079   -3.1611287    559.82845  0.088189736  0.091138917            1 
  530000    1.1776846    -3.236593     559.7987  0.088018664  0.091120704            2 
  531000    1.1850995    -3.218485    560.86888  0.088020853  0.091101777            1 
  532000    1.1542044   -3.2269816    563.35298  0.088244514  0.091083452            1 
  533000    1.1736733   -3.1860163    563.94412  0.088171375  0.091065194            2 
  534000    1.1926506   -3.2140918    561.81109  0.087673392  0.091044472            3 
  535000    1.1423875   -3.1933121    564.14467  0.087873001  0.091023913            2 
  536000    1.1560894   -3.2342107     565.0187  0.087844947  0.091003512            3 
  537000    1.1943317    -3.234635    563.93077  0.087512534  0.090983524            2 
  538000    1.1571534   -3.2140547    566.95431  0.087818202  0.090963665            2 
  539000    1.1641652   -3.2322125    567.51351  0.087741731     0.090943            1 
  540000     1.146849   -3.2238904    570.31505  0.088011581  0.090923594            1 
  541000    1.1790033   -3.2376782    570.44438  0.087868819  0.090903051            1 
  542000    1.1407884   -3.2183155    569.24492  0.087522281  0.090884024            2 
  543000    1.1870257   -3.2058613    571.93576  0.087774058  0.090864974            2 
  544000    1.1836715    -3.213471    574.45148  0.087998082  0.090843072            3 
  545000    1.1892655    -3.191525    574.08745  0.087780956  0.090823517            2 
  546000    1.1571547   -3.2263539     573.9064  0.087592552  0.090804867       -1e+20 
  547000    1.1866308   -3.2064703    575.09078  0.087612855  0.090786143            3 
  548000    1.1696762     -3.22486    575.22438  0.087473294  0.090764778            2 
  549000    1.1739458   -3.1939456    578.07937  0.087747324  0.090743181            3 
  550000    1.1677882    -3.205442    578.87087  0.087707708  0.090724066            2 
  551000    1.1777096   -3.2299612    578.70891  0.087524033  0.090704016            2 
  552000    1.1411875   -3.2500152    578.08105  0.087270691  0.090681327            2 
  553000    1.1778234   -3.2059466    580.94859  0.087544995  0.090661163            2 
  554000    1.1537763   -3.1960098    583.28191  0.087737953  0.090641616            4 
  555000    1.1525899   -3.2266812    582.86021  0.087516548  0.090621469            5 
  556000    1.1581963   -3.2278269    583.17982  0.087407048  0.090602496            1 
  557000    1.1485166   -3.2364487    584.14411  0.087394392  0.090583324            2 
  558000      1.18263   -3.2223722    587.69029  0.087767367  0.090563232            2 
  559000    1.1732125   -3.2020464    586.36024  0.087412082  0.090543659            3 
  560000    1.1671878   -3.2376233    587.90986  0.087486586  0.090522675            2 
  561000    1.1561909   -3.2075252    590.72435  0.087748715  0.090501012            3 
  562000    1.1556067   -3.2253208     588.6793  0.087289339  0.090479668            1 
  563000    1.1734219    -3.233661      588.979  0.087178655  0.090457928            2 
  564000    1.1490587   -3.2089101    590.36283   0.08722855  0.090436715            2 
  565000    1.1561873    -3.245642    589.23623  0.086907999  0.090414899            2 
  566000    1.1600169   -3.1919819     593.8276  0.087430447  0.090394074            2 
  567000    1.1844301   -3.2484623    593.97797  0.087298349  0.090374229            1 
  568000    1.1801943   -3.1896672    594.70105  0.087250741  0.090353793            3 
  569000    1.1553387   -3.2079022    598.06943   0.08759072  0.090332524            3 
  570000    1.1957099   -3.2331943    597.12978  0.087299675  0.090312477            1 
  571000    1.1584538   -3.1935523    600.43163  0.087628668  0.090293476            2 
  572000    1.1604292   -3.2189274    600.09663  0.087426666  0.090273751            3 
  573000    1.1527546   -3.2324876    601.00135  0.087405665  0.090255347            1 
  574000    1.1593231   -3.1982083     604.4124  0.087748607  0.090237032            2 
  575000    1.1483433   -3.2285083    605.21844  0.087712818  0.090219648            2 
  576000    1.1649885   -3.2202543    603.90954  0.087371172  0.090202412            4 
  577000    1.1055574   -3.2206677    604.12524  0.087250901  0.090184002            1 
  578000    1.1631872   -3.2596336    607.62711  0.087604831  0.090165748            4 
  579000    1.1431391   -3.2320973    604.39443   0.08698826  0.090146883            3 
  580000    1.1531918   -3.2257899    610.24716   0.08767919  0.090127179            3 
  581000     1.150554   -3.2145851    608.47568  0.087274194  0.090107945            1 
  582000    1.1652933   -3.2416631    609.09941  0.087213546  0.090087551            2 
  583000     1.155897   -3.2534154    606.96842  0.086759351  0.090066704            1 
  584000    1.1727394   -3.2468989    608.71895   0.08686058  0.090046304            4 
  585000    1.1491633   -3.2308712    611.35355  0.087087401  0.090024629            3 
  586000    1.1511146   -3.2074415    615.09236  0.087470472  0.090004992            1 
  587000    1.1844976   -3.2192227    613.81392  0.087139966   0.08998574            3 
  588000     1.168883   -3.2351443     612.8479  0.086854861   0.08996572            1 
  589000    1.1514832   -3.2387581    615.57179  0.087092783  0.089945601            2 
  590000    1.1578513   -3.2418944    615.44956  0.086927904  0.089926084            5 
  591000    1.1628162   -3.2292025     615.7723  0.086826325  0.089904046            2 
  592000    1.1567316   -3.2348551    618.61222  0.087079423  0.089885935            1 
  593000    1.1823601   -3.2170718    619.19141   0.08701397  0.089865694            3 
  594000    1.1369353   -3.2254348    620.30839  0.087024185  0.089846327            4 
  595000    1.1630209   -3.2299775    619.71544   0.08679488  0.089827424            3 
  596000    1.1641482   -3.2161424    622.02095   0.08697161  0.089808739            3 
  597000    1.1647901   -3.2580531     624.8748  0.087224289   0.08979001            3 
  598000    1.1629405   -3.2037367    626.70639  0.087333667  0.089772494            1 
  599000    1.1423178    -3.235473    626.62818  0.087176986  0.089753495            2 
  600000    1.1309424   -3.2370347    622.59575  0.086471632  0.089732907            3 
  601000      1.14342   -3.2450627    625.93455  0.086790703  0.089711465            1 
  602000    1.1375072   -3.1770894     628.9937  0.087070003  0.089690892            4 
  603000    1.1620844   -3.2269239    627.69612  0.086746286  0.089668402            2 
  604000    1.1256093   -3.2011504    629.43225  0.086842198  0.089646852            2 
  605000    1.1416077   -3.2343354    626.84804  0.086342705  0.089627114            2 
  606000    1.1589446   -3.2500415    630.58442  0.086714029  0.089604281            2 
  607000    1.1494461   -3.2341304    632.35242  0.086813896    0.0895836            3 
  608000    1.1595832   -3.2326973    634.40938   0.08695304  0.089563701            3 
  609000    1.1349518   -3.2313348    633.71043  0.086714618  0.089543595            2 
  610000    1.1709879   -3.1880557    635.02005  0.086751372  0.089523624            1 
  611000    1.1749231   -3.2098608    632.88538  0.086318246  0.089503964            1 
  612000     1.165584   -3.2255586    635.35426   0.08651338  0.089484977            2 
  613000    1.1076178   -3.2201299    637.08229  0.086607163  0.089464558            1 
  614000    1.1710352   -3.2210486    638.54595   0.08666476  0.089444635            2 
  615000    1.1622409   -3.2434413     640.0385  0.086726084  0.089423302            2 
  616000    1.1674317   -3.2522308    641.19408  0.086741624  0.089403095            1 
  617000     1.155179   -3.2338035    639.82952  0.086416737  0.089380261            2 
  618000    1.1498223   -3.2413617    642.10021  0.086583092  0.089359454            3 
  619000    1.1346137   -3.2227849    641.24205  0.086327685  0.089339814            3 
  620000    1.1556233   -3.2331035    643.77069  0.086528319  0.089319036            2 
  621000    1.1545872   -3.2495286    643.65727  0.086373761  0.089297959            3 
  622000    1.1346459   -3.2508542    646.98252  0.086680402  0.089277094            2 
  623000    1.1706285   -3.2350868    644.28934  0.086181025  0.089255881            1 
  624000    1.1297498   -3.2045466    645.74678   0.08623755  0.089234095            1 
  625000    1.1479954   -3.2491514    642.97601  0.085730135  0.089212589            2 
  626000    1.1226397   -3.2369671    648.11933  0.086277866  0.089190352            1 
  627000    1.1490301   -3.2355303    648.17374  0.086147493  0.089167854            1 
  628000    1.1320353   -3.2486126    651.89218  0.086503739  0.089146383            2 
  629000    1.1293337   -3.1992333    655.31025  0.086819058   0.08912654            2 
  630000    1.1488422   -3.2562189    652.32704  0.086286645  0.089105273            2 
  631000    1.1450467   -3.2210064    652.95736  0.086233143  0.089084789            2 
  632000    1.1804741   -3.2507293    653.69091  0.086193421  0.089063614            1 
  633000     1.166917   -3.2283222    655.35415  0.086276218  0.089044022            1 
  634000    1.1443876   -3.2156421    660.28217  0.086787878  0.089024441            1 
  635000    1.1522563   -3.2458571    655.33685  0.086002211  0.089005296            2 
  636000    1.1446864   -3.2553283    657.26245  0.086119293  0.088984405            1 
  637000    1.1223583   -3.2303444    659.38825  0.086262199  0.088965324            3 
  638000    1.1527547   -3.2484116    660.18478  0.086231032  0.088946198            2 
  639000    1.1447557   -3.2281284    662.66967  0.086420145  0.088926911            1 
  640000    1.1608877   -3.2226983    662.99443    0.0863274  0.088908943            2 
  641000    1.1562518     -3.20441    665.15806  0.086474007  0.088889471            2 
  642000    1.1520751   -3.2459823    662.44043  0.085986557  0.088870029            1 
  643000    1.1283779   -3.2366331    666.34003  0.086358221  0.088849949            2 
  644000    1.1627769   -3.2325012    664.73289  0.086016161  0.088830243            1 
  645000    1.1194273   -3.2256294    667.55336  0.086247204  0.088809504            3 
  646000    1.1300141   -3.2281123    672.57175  0.086761062  0.088789905            1 
  647000    1.1512303    -3.253164    669.59733  0.086243859  0.088770354            1 
  648000    1.1607145   -3.2213976    669.56648  0.086106801  0.088752189            2 
  649000     1.155527   -3.2003316    672.16549  0.086307844  0.088734022            2 
  650000    1.1309434   -3.2249291    673.05181  0.086288694  0.088715417            2 
  651000    1.1423483   -3.2225108    672.40198  0.086072963  0.088697404            2 
  652000    1.1285105   -3.2333121    675.49592  0.086336391  0.088681036            3 
  653000    1.1319465   -3.2354039     677.2942  0.086433666  0.088663391            5 
  654000    1.1361952   -3.2260951     677.4185  0.086317342  0.088645458            2 
  655000    1.1321012   -3.2324382     679.5946  0.086462418  0.088627451            1 
  656000    1.1257388   -3.2415678    679.18597  0.086278706  0.088608886            2 
  657000    1.1415277   -3.2156944    681.56277  0.086448855   0.08859053            2 
  658000    1.1522482   -3.2534524    681.92109  0.086362853  0.088572153            1 
  659000    1.1381152   -3.2387715    684.01777  0.086496936  0.088554553            3 
  660000    1.1331074   -3.2332138      681.683  0.086071085  0.088536535            1 
  661000    1.1498643   -3.2138362    686.09687  0.086497336  0.088518469            2 
  662000    1.1422251   -3.2195458     686.1614  0.086374798  0.088500283            3 
  663000    1.1483919   -3.2194254    685.43145  0.086152772  0.088481642            2 
  664000    1.1568757   -3.2083685    688.98686  0.086469235  0.088463437            2 
  665000    1.1203682   -3.2382077    685.60299  0.085915162  0.088444495            2 
  666000    1.1581379   -3.2482748    686.78859  0.085934509  0.088425364            3 
  667000     1.152012   -3.2492642    686.14786   0.08572562  0.088404683            2 
  668000    1.1453091   -3.2379994    688.82166  0.085930846  0.088385048            5 
  669000    1.1481052   -3.2227868    688.73302  0.085791358  0.088366379            2 
  670000    1.1677173   -3.2393219    689.27712  0.085730985  0.088345014            1 
  671000    1.1388588   -3.2571508    687.55789  0.085389704  0.088323187            5 
  672000    1.1497552   -3.2868825    689.18867  0.085464864  0.088300205            2 
  673000    1.1490101   -3.2643879    692.22786  0.085714197  0.088277361            2 
  674000    1.1514895   -3.2739246    687.66942   0.08502342  0.088254026            2 
  675000    1.1904019   -3.2377016    691.87692  0.085416904  0.088231656            3 
  676000    1.1178188   -3.2628352    691.42311  0.085234604  0.088209488            1 
  677000    1.1613094   -3.2649802    693.12214  0.085317841  0.088185638            2 
  678000    1.1356777   -3.2139531    698.76119  0.085885101   0.08816267            2 
  679000    1.1415882   -3.2435106    697.25469  0.085573723  0.088141943            2 
  680000    1.1650763   -3.2378678     698.7325  0.085628982  0.088120278            3 
  681000    1.1657436   -3.2630323    695.57733  0.085117147  0.088098921            2 
  682000    1.1271129   -3.2413595    701.15416  0.085673773   0.08807718            2 
  683000    1.1180652   -3.2627113    697.66286  0.085122359  0.088054439            3 
  684000    1.1410265   -3.2442545    702.07745  0.085535751  0.088032389            1 
  685000    1.1009018   -3.2436398     700.3544  0.085201265  0.088010472            1 
  686000    1.1377966   -3.2169523    700.56607  0.085102778  0.087988013            3 
  687000    1.1462836   -3.2830416    700.11185  0.084923805  0.087965431            2 
  688000    1.1116355   -3.2539362    707.21015  0.085660144  0.087943988            5 
  689000    1.1490417   -3.2321169    707.15152  0.085528728  0.087922951            1 
  690000    1.1225074   -3.2572129    704.36664  0.085068435  0.087901648            2 
  691000    1.1438903   -3.2561313    708.33081  0.085423397  0.087879904            2 
  692000    1.1400841   -3.2759055    706.55753  0.085086408   0.08785815            3 
  693000    1.1343108   -3.2657445    708.16575  0.085157017  0.087835606            2 
  694000     1.120695   -3.2429086    712.06739  0.085502809  0.087813924            1 
  695000    1.1375063   -3.2253785     712.1241  0.085386583  0.087793162            2 
  696000    1.1388277   -3.2241172    713.33392  0.085408754   0.08777296            2 
  697000    1.1285731   -3.2426269    713.63855  0.085322638  0.087753031            1 
  698000    1.1145765   -3.2404143    712.45033   0.08505854   0.08773362            1 
  699000    1.1388204   -3.2348826    715.03393  0.085244866  0.087713551            3 
  700000    1.1377907   -3.2855521    714.07109  0.085008463  0.087692958            2 
  701000     1.144563   -3.2516131    717.00287  0.085235719  0.087672507            2 
  702000    1.1443531   -3.2580558    717.75726  0.085203853  0.087651769            2 
  703000     1.149915   -3.2647304    718.86778  0.085214293  0.087630605            2 
  704000    1.1514019   -3.2498673    721.73835  0.085433044  0.087609798            4 
  705000    1.1443864   -3.2698029    719.85895  0.085089711  0.087589744            1 
  706000    1.1177274   -3.2447249    719.66529  0.084946328  0.087567523            2 
  707000    1.1421978   -3.2423541     724.3392  0.085377086  0.087546669            2 
  708000     1.141428   -3.2876596     724.6219  0.085289771   0.08752504            2 
  709000    1.1489176   -3.2182515    722.96627  0.084974879  0.087503078            4 
  710000    1.1535222   -3.2425194    726.02677   0.08521441  0.087481637            1 
  711000    1.1329075   -3.2531337    726.59181  0.085160784  0.087459944            2 
  712000    1.1324922    -3.230089    725.85187  0.084954573  0.087438888            1 
  713000    1.1577724   -3.2533541    728.40824  0.085134203  0.087416595            3 
  714000    1.1383323   -3.2147334    731.00832  0.085318432  0.087397094            2 
  715000    1.1365795   -3.2473208    730.13398    0.0850972  0.087377867            1 
  716000    1.1349006   -3.2671278    729.58616   0.08491459   0.08735722            2 
  717000    1.1588044   -3.2740506    730.84626  0.084942615   0.08733556            2 
  718000    1.1461113   -3.2437827    732.57938  0.085025462  0.087315004            1 
  719000    1.1250668   -3.2647654    732.31898  0.084877026  0.087295237            1 
  720000    1.1477894     -3.24953    734.57729   0.08502052  0.087275765            2 
  721000    1.1260708   -3.2505627     733.7994  0.084812691  0.087255624            2 
  722000    1.1310855   -3.2363992    734.77954   0.08480835  0.087235409            2 
  723000    1.1697846    -3.268115    738.09986  0.085073751  0.087214743            2 
  724000    1.1177319   -3.2375578    738.45355  0.084996955  0.087195593            3 
  725000    1.1221946   -3.2588105    736.38589  0.084642057  0.087176313            1 
  726000    1.0990013   -3.2348072    741.06705  0.085062793  0.087155986            1 
  727000    1.1304864   -3.2728179    739.49641  0.084765751  0.087136266            2 
  728000    1.1326742   -3.2553729    739.67801  0.084670101  0.087116359            2 
  729000    1.1482447   -3.2715809    742.46007  0.084871979  0.087096488            4 
  730000    1.1596582   -3.2481544     742.8383  0.084798893   0.08707638            2 
  731000    1.1589262   -3.2542916    743.69626  0.084780695  0.087056426            1 
  732000    1.1111618   -3.2545798    745.65055  0.084887358  0.087034515            2 
  733000    1.1494667   -3.2368728     742.1145  0.084369543  0.087012238            2 
  734000    1.1251059   -3.2600427    746.34422  0.084734811   0.08699112            2 
  735000    1.1313051   -3.2702685    745.53442  0.084527712   0.08696977            2 
  736000    1.1191027   -3.2439829     749.0168  0.084807156  0.086950466            3 
  737000    1.1303491   -3.2467943    747.06009  0.084470837  0.086929278            1 
  738000    1.1551602   -3.2436327    748.85609  0.084559179  0.086908693            1 
  739000    1.1447951   -3.2361818     750.9616  0.084682183  0.086888178            2 
  740000    1.1388151    -3.244564    750.91371  0.084562355  0.086867224            3 
  741000    1.1181795   -3.2831835     750.7231  0.084426799  0.086846311            4 
  742000    1.1092912   -3.2380013    753.65539  0.084642339  0.086825435            4 
  743000    1.1418613   -3.2596456    754.07071  0.084575001  0.086803669            1 
  744000    1.1286588   -3.2447416    758.20784  0.084924714  0.086783292            2 
  745000    1.1516755   -3.2377107    758.93491  0.084892048  0.086763666            3 
  746000    1.1482576   -3.2672091     756.7744  0.084536908  0.086742659            2 
  747000    1.1763274   -3.2500489     755.6362  0.084296764  0.086721656            2 
  748000     1.144235   -3.2632771    756.87409   0.08432198  0.086700311            2 
  749000    1.1526927   -3.2274126    759.45517   0.08449657  0.086679223            3 
  750000     1.119704   -3.2381165    758.14726  0.084238584  0.086658051            3 
  751000    1.1550281   -3.2534914    760.31583  0.084367047  0.086637948            3 
  752000    1.1192877   -3.2375152    759.31308  0.084143736  0.086618355            5 
  753000    1.1397447   -3.2570504    765.18549  0.084681882  0.086598344            1 
  754000    1.1230727   -3.2890441    763.56564  0.084390544  0.086578406            2 
  755000    1.1339121   -3.2737954    764.51134   0.08438315  0.086556814            3 
  756000    1.0967199   -3.2470677    762.48126  0.084047758  0.086536197            1 
  757000    1.1389082   -3.2605822    767.50954  0.084490262  0.086515567            1 
  758000    1.1399888   -3.2536656    768.30489  0.084466236  0.086495421            3 
  759000    1.1266931   -3.2848575    768.33432  0.084358181  0.086474475            2 
  760000     1.106325   -3.2511686    767.81562  0.084190309  0.086452961            1 
  761000     1.116831   -3.2536686    770.65156  0.084390227  0.086433281            1 
  762000    1.1445792    -3.278765    772.86519  0.084521565  0.086414155            1 
  763000    1.1267092    -3.294035    774.16721  0.084552993  0.086395485            4 
  764000    1.1299739   -3.2789048    773.91234  0.084414522   0.08637585            1 
  765000    1.1337355   -3.2772043    772.75638  0.084178255  0.086356217            3 
  766000    1.1103693   -3.2533221    771.68816   0.08395215  0.086337992            2 
  767000    1.1287647   -3.2466957    774.28079  0.084124379  0.086317586            1 
  768000    1.1107287   -3.2581351    775.98147  0.084199379  0.086297606            1 
  769000     1.126305   -3.2379066     776.7627  0.084174545  0.086278418            4 
  770000    1.1189012   -3.2457199    780.63889  0.084484728  0.086257814            4 
  771000    1.1520595   -3.2756534    775.56664  0.083826918  0.086237678            1 
  772000    1.0961108   -3.2689034    778.03891  0.083985202  0.086217753            2 
  773000     1.151629   -3.2219986    783.92717  0.084511337  0.086198775            1 
  774000     1.136076    -3.285263    781.33622  0.084123194  0.086180349            2 
  775000    1.1418853   -3.2933459    779.87228  0.083857234  0.086159808            3 
  776000    1.1255511   -3.2384077    783.55388  0.084144532  0.086139914            2 
  777000    1.0998888   -3.2476416    783.73189  0.084055329  0.086120415            1 
  778000    1.1377231   -3.2741871    785.68624  0.084156623  0.086101398            1 
  779000      1.11667   -3.2889142    785.38363   0.08401622  0.086081837            1 
  780000    1.1226432   -3.2767631    784.27317  0.083789868  0.086062854            3 
  781000    1.1279237   -3.2912046    790.15907  0.084310613  0.086043828            2 
  782000    1.1253275   -3.2455591    790.40528  0.084229036  0.086024926            3 
  783000    1.1405444   -3.2683474    790.31863  0.084112242  0.086006362            5 
  784000    1.1534079   -3.2540771    791.59543  0.084140671  0.085987699            1 
  785000    1.1083707   -3.2357107    796.84741  0.084591021  0.085970555            3 
  786000    1.1140017   -3.2554117    795.03233  0.084290959  0.085953336            3 
  787000    1.1122021   -3.2358748    794.77275  0.084156369  0.085935376            2 
  788000    1.1151564   -3.2564467    795.97461  0.084176672  0.085917845            2 
  789000    1.1318795   -3.2576885    795.76472  0.084047816  0.085900507            3 
  790000    1.1322139   -3.2564081    799.22499  0.084306434  0.085882391            1 
  791000    1.1247936   -3.2995255    799.32782  0.084210685  0.085865294            2 
  792000    1.1227407   -3.2586337    799.87652  0.084162092  0.085847486            2 
  793000    1.1154185   -3.2442594    802.22597  0.084302855  0.085830837            1 
  794000     1.125999   -3.2595177    800.66462   0.08403281  0.085812908            1 
  795000    1.1289797   -3.2554317    800.35771  0.083894938  0.085796267            2 
  796000    1.1126035   -3.2613604    802.90399  0.084056113  0.085778872            3 
  797000    1.1280153   -3.2824709    807.00934  0.084379897  0.085760822            1 
  798000    1.1098204   -3.2760696    804.77253  0.084040573  0.085742936            3 
  799000    1.1128942   -3.2534649    808.75933  0.084351203  0.085725061            1 
  800000    1.1257188   -3.2448452    805.96441  0.083954626    0.0857075            1 
  801000    1.1281548     -3.26874    810.58224  0.084330237  0.085688925            3 
  802000    1.1187138   -3.2289417    811.62955   0.08433391  0.085671617            5 
  803000    1.1166254   -3.2859541    805.22315  0.083564046  0.085654422            2 
  804000    1.1340199   -3.2478248    812.24559  0.084187976  0.085637586            5 
  805000    1.1335381   -3.2508477    812.97713  0.084159123  0.085620477            2 
  806000    1.1392186   -3.2539801    814.83642  0.084246941  0.085604129            1 
  807000    1.1228839   -3.2997273    813.10431  0.083963683  0.085587014            2 
  808000    1.1333788   -3.2650216    813.72954  0.083924251  0.085570208            1 
  809000    1.1250399   -3.2868371    814.28122   0.08387734  0.085552501            3 
  810000    1.1343851   -3.2542562    815.66942  0.083916607  0.085535017            1 
  811000    1.1343502   -3.2695229    813.47995  0.083588158  0.085516941            3 
  812000    1.1115881   -3.2910383     813.9827  0.083536812  0.085499288            3 
  813000    1.1263701   -3.2785959    817.91255  0.083836875   0.08548207            2 
  814000    1.1201539   -3.2697413    821.65091  0.084116596  0.085465594            2 
  815000     1.120431   -3.2866611    820.66826   0.08391291  0.085448135            1 
  816000    1.1355211   -3.2738706    824.10637  0.084161189  0.085430737            1 
  817000    1.1408129   -3.2705187    821.60953  0.083803501  0.085413791            2 
  818000      1.12287   -3.2752203    821.61204  0.083701308  0.085396395            2 
  819000    1.1196632   -3.2580381    823.33539  0.083774459  0.085378639            1 
  820000    1.1468177   -3.2505077    823.56919  0.083696056  0.085361132            2 
  821000    1.1378366   -3.2546693    828.10851  0.084054862   0.08534406            3 
  822000     1.132898   -3.3120484    823.71521  0.083507219  0.085325943            2 
  823000    1.1250333   -3.2798843    825.99493  0.083636587  0.085309345            5 
  824000    1.1130357   -3.2662949    826.18226  0.083554031  0.085291696            2 
  825000    1.1177228   -3.2750672    827.70092  0.083606154  0.085274114            1 
  826000    1.1460651   -3.2656752    830.13019  0.083750019  0.085256875            2 
  827000    1.1077076   -3.2697518    826.39221  0.083272089  0.085240024            2 
  828000    1.1209051   -3.2994589    829.30598  0.083464773  0.085222558            1 
  829000     1.139079   -3.2420421    832.12492  0.083647459  0.085204766            1 
  830000    1.1166123   -3.2774401    832.87091  0.083621577  0.085186237            1 
  831000    1.1316215   -3.2773595    833.84791  0.083618924  0.085168682            3 
  832000    1.1353531   -3.2590945    832.19386   0.08335275  0.085150338            2 
  833000    1.1227703   -3.2608531    832.86978  0.083320306  0.085132945            2 
  834000    1.1186451    -3.286295    835.03529  0.083436779   0.08511354            1 
  835000    1.1128158   -3.2949762    835.17185  0.083350484  0.085096081            1 
  836000    1.1279573   -3.2534343    838.24785  0.083557401  0.085077096            1 
  837000    1.1252161   -3.3321462     833.6735  0.083002141  0.085058465            2 
  838000    1.0959091   -3.2808397    834.37506  0.082972858  0.085039214            3 
  839000    1.1010068   -3.2619648    837.90112  0.083224187  0.085020522            2 
  840000    1.1259267   -3.2530319    839.90178  0.083323589  0.085001541            2 
  841000    1.1167107   -3.3065213    841.90917  0.083423421  0.084982919            2 
  842000    1.0963833    -3.240017    843.28889  0.083460896  0.084964652            1 
  843000    1.1052663   -3.2971292    843.28828   0.08336183  0.084946498            1 
  844000    1.1142586   -3.2871177    845.76635  0.083507736  0.084929123            2 
  845000    1.1287019   -3.2977132    843.29792  0.083165475  0.084911325            2 
  846000    1.1245659   -3.2695528    843.75064  0.083111765  0.084894491            2 
  847000    1.1054354   -3.2900086    848.53339  0.083484198  0.084877493            3 
  848000    1.1126517   -3.3038477    846.83895  0.083219236  0.084861144            1 
  849000    1.1253974   -3.2717668    848.25919  0.083260619  0.084843862            2 
  850000    1.1257993   -3.2864441    850.11243  0.083344356   0.08482616            3 
  851000    1.1044584   -3.2864426    850.98793  0.083332151  0.084808199            3 
  852000    1.1486781   -3.2482474    852.85214   0.08341668   0.08479068            1 
  853000    1.1069014   -3.2653544    849.15961  0.082958149  0.084774355            4 
  854000     1.107079   -3.2643348    855.37176   0.08346719  0.084756948            2 
  855000     1.124987   -3.2737474    854.06926  0.083242618  0.084738917            5 
  856000    1.1216368   -3.3043061    850.01411  0.082750595  0.084721587            3 
  857000    1.1042481   -3.2647879    855.00522  0.083139364  0.084702961            1 
  858000    1.1164696   -3.2553213    854.73111  0.083015842  0.084683713            2 
  859000    1.1207092    -3.277067    856.33788  0.083075075  0.084664817            2 
  860000    1.0910041   -3.2959322     854.0686  0.082758585  0.084646291            1 
  861000    1.1160383   -3.2839151    853.73062  0.082629754  0.084627354            2 
  862000     1.099276   -3.2779256    856.85667  0.082836105  0.084608434            5 
  863000    1.1208414   -3.2688781    857.18125  0.082771461  0.084589564            2 
  864000    1.1274995   -3.2915371    856.97247  0.082655524  0.084570716            3 
  865000    1.0904183   -3.2556136    857.22054  0.082583867  0.084552764            3 
  866000    1.1057922    -3.292417    860.33024  0.082787744  0.084534707            3 
  867000     1.123149   -3.2924768    862.46559    0.0828975  0.084516801            3 
  868000    1.1243903    -3.265332    865.17682  0.083062291  0.084498628            3 
  869000    1.0859507    -3.258389    864.16646  0.082869818   0.08448099            1 
  870000    1.0931571   -3.3090415    865.21937  0.082875418  0.084463512            3 
  871000    1.0938848   -3.2805132    865.19851  0.082778273  0.084445846            2 
  872000    1.1169626   -3.2874926    868.04456  0.082955328  0.084428798            1 
  873000    1.1144286   -3.2673893    871.99873  0.083237756   0.08441163            2 
  874000    1.0926843    -3.284061    868.32911  0.082792631  0.084394719            3 
  875000    1.1189717   -3.2856771    868.08282  0.082674554   0.08437804            3 
  876000    1.1122498   -3.2700833    875.21989  0.083259122  0.084361248            2 
  877000    1.1307357   -3.2798552    871.97925  0.082856257  0.084345487            2 
  878000    1.1158013   -3.3050904    872.33715  0.082795857  0.084329509            2 
  879000    1.1195812    -3.274238    875.39656   0.08299171  0.084312792            2 
  880000    1.0947716   -3.3071839    874.66383  0.082828014  0.084296344            1 
  881000    1.0855679    -3.270893    871.61373  0.082445491  0.084278651            1 
  882000    1.0968647   -3.2723508    876.65191  0.082828034  0.084261429            2 
  883000    1.0896291   -3.2856825    878.71184  0.082928637  0.084244537            3 
  884000    1.0846224   -3.2938779    874.93193    0.0824785  0.084227835            2 
  885000    1.1204121   -3.2894667    878.95732  0.082764343  0.084211358            1 
  886000     1.123236   -3.2989015     879.1652  0.082690482  0.084194392            1 
  887000    1.1041525   -3.2946242    879.00726  0.082582418  0.084177713            3 
  888000    1.1403571   -3.2921294    882.11932  0.082781467  0.084160691            4 
  889000    1.1190891   -3.2775142    882.84884  0.082756734  0.084144088            2 
  890000    1.0805358   -3.2967942     882.5657  0.082637238  0.084127644            3 
  891000    1.1012716   -3.2742524    884.04933  0.082683252  0.084110502            5 
  892000    1.1073533   -3.2903351    888.60038  0.083015731   0.08409385            1 
  893000    1.1150065   -3.2728038    884.62947  0.082552209  0.084077517            2 
  894000    1.0930941    -3.281513     891.2408  0.083076137   0.08406102            3 
  895000     1.107623   -3.2997724    891.36154  0.082994557  0.084044508            3 
  896000    1.0869473   -3.2543036    890.57546  0.082828819   0.08402848            3 
  897000    1.1162017   -3.2929717    890.27749  0.082708797  0.084012513            3 
  898000    1.0990469   -3.2724042      889.677  0.082560969  0.083996049            2 
  899000     1.110776   -3.2760172    893.97331  0.082867381  0.083979346            1 
  900000    1.1057995   -3.2587829    896.38389  0.082998509  0.083964175            1 
  901000    1.0903186   -3.2960158    895.71533  0.082844555  0.083948594            2 
  902000     1.099351    -3.303269    894.27837  0.082619953  0.083932797            1 
  903000    1.1052205    -3.274975    899.91286  0.083048436  0.083917298            2 
  904000    1.1265393   -3.3177334    892.66167  0.082288134  0.083901374            2 
  905000    1.0958665   -3.2877248    892.16486   0.08215146  0.083884906            2 
  906000    1.0905596    -3.281125     897.3331  0.082536157  0.083869012            2 
  907000     1.113011    -3.288915    900.12859  0.082702002  0.083853092            2 
  908000    1.0980179   -3.2925874    894.80264  0.082122122  0.083836278            1 
  909000    1.1001859   -3.2998257    898.45304  0.082366432  0.083819553            2 
  910000    1.1135117   -3.2910814    899.78227  0.082397644  0.083802342            2 
  911000    1.0874914   -3.2962292    901.69395  0.082482066  0.083787139            2 
  912000    1.0991695   -3.2791213    900.86118  0.082315532  0.083770155            3 
  913000    1.0863123   -3.2865535    904.65296  0.082571464  0.083753532            1 
  914000    1.1089586   -3.2842437    902.50485  0.082285271  0.083736454            2 
  915000    1.1173267   -3.3055595    906.56976  0.082565552  0.083719889            2 
  916000    1.0933151   -3.2969149    905.85627  0.082410505  0.083703465            2 
  917000    1.0895125   -3.2896732     907.2224  0.082444784  0.083686919            1 
  918000    1.1101641   -3.3121759    907.08388    0.0823424  0.083669804            2 
  919000    1.1049621   -3.3114768    904.26897  0.081997549  0.083652735            2 
  920000    1.0845321   -3.3120091    907.31117  0.082183983  0.083635849            1 
  921000    1.0946806   -3.2797437    910.56912  0.082389533  0.083619133            3 
  922000    1.0915953   -3.2673007    910.39452  0.082284393  0.083601832            2 
  923000     1.087454   -3.2820133     909.2691  0.082093635  0.083585519            3 
  924000    1.0927111   -3.2751724    914.81724  0.082505162  0.083568928            1 
  925000    1.0969273   -3.3029157    913.17842  0.082268326  0.083552814            3 
  926000    1.0766333   -3.3099216    909.98958  0.081892511   0.08353562            3 
  927000    1.0986087    -3.305091     912.5656  0.082035743  0.083519085            2 
  928000    1.0947756   -3.3110392    913.63169  0.082043075  0.083501541            2 
  929000    1.0993132   -3.3030568     913.6676  0.081957984  0.083484636            6 
  930000     1.122455   -3.3018676    917.61422  0.082223496  0.083467104            3 
  931000    1.1000139   -3.3204947    913.09491  0.081730657  0.083450183            2 
  932000    1.1196955    -3.283969    920.00953  0.082261224  0.083432352            2 
  933000    1.1141842   -3.2741167    918.06106  0.081999022  0.083414889            2 
  934000    1.0885563    -3.270896    920.38296  0.082118394  0.083397231            1 
  935000    1.1123212   -3.2815256    918.83906  0.081892964  0.083380128            4 
  936000    1.1019334   -3.3309946    917.56493  0.081692034  0.083362048            5 
  937000     1.118053   -3.3320431    916.48282  0.081508611  0.083343401            1 
  938000    1.1068834   -3.3124784    918.23794  0.081577643   0.08332508            2 
  939000    1.0933089   -3.3269089    919.75859  0.081625718  0.083306012            3 
  940000    1.1072737    -3.257138    922.96487  0.081823127  0.083288129            1 
  941000    1.1249324   -3.3196286       916.94  0.081202622  0.083269969            1 
  942000    1.0855149   -3.2879597    922.76178  0.081631439  0.083251483            1 
  943000    1.0869536   -3.2837617    923.60923  0.081619763  0.083233206            1 
  944000    1.0948747   -3.2576404    927.40381  0.081868274  0.083215727            1 
  945000    1.1050499   -3.3014112    925.20429   0.08158768   0.08319769            2 
  946000     1.085295   -3.3100766    927.46895  0.081700929  0.083179719            1 
  947000     1.102245   -3.2907518    930.86432  0.081913439  0.083161826            1 
  948000     1.094697   -3.3272988    927.90781  0.081567142  0.083142977            2 
  949000    1.0973005   -3.2790009    931.06209  0.081758174  0.083125343            2 
  950000    1.1121908   -3.2559881    932.01915  0.081756066   0.08310706            2 
  951000    1.1093189   -3.2895011     930.7096  0.081555345  0.083089209            2 
  952000    1.0900807   -3.3059825    930.91823  0.081487941  0.083070431            2 
  953000    1.1090322   -3.3226421    930.60865  0.081375363  0.083051671            2 
  954000    1.0847495   -3.3053519    931.18795  0.081340666  0.083033498            4 
  955000    1.1154782   -3.2951722    935.08638   0.08159567  0.083015381            1 
  956000    1.1021625   -3.2911304    936.27957  0.081614328  0.082996891            2 
  957000    1.1174616   -3.2799129    938.58268  0.081729596  0.082979387            1 
  958000    1.0891761   -3.2813723    934.28174  0.081270159  0.082960627            4 
  959000    1.1294373   -3.3106622    936.39985  0.081369469  0.082942804            1 
  960000    1.0921791   -3.3153888    934.05545  0.081081202  0.082924666            3 
  961000     1.116125   -3.3027739    936.80635  0.081235375  0.082906016            2 
  962000    1.0745905    -3.304683    936.64496   0.08113695  0.082887853            2 
  963000    1.0917733   -3.3067513    936.01465  0.080998153  0.082869559            3 
  964000    1.0934889   -3.2939933    943.09109  0.081525855  0.082850762            1 
  965000    1.0973112   -3.2915018    939.71792  0.081150079  0.082832122            2 
  966000    1.1298455   -3.3301068    938.64633  0.080973631  0.082813879            2 
  967000    1.0747601   -3.2942053    942.15582  0.081192332  0.082795002            2 
  968000    1.1147084    -3.278229    944.79709  0.081335838  0.082776114            2 
  969000    1.0941925   -3.3022413    945.24062  0.081290043  0.082757224            6 
  970000    1.0866024   -3.3068028    943.26907  0.081036862  0.082737685            2 
  971000    1.1049962   -3.3083401     945.9417  0.081182776  0.082718392            2 
  972000    1.0821098   -3.3034571    944.71444  0.080994037  0.082699247            4 
  973000    1.0745509   -3.3270206    949.28559  0.081302295  0.082679721            8 
  974000    1.0648008   -3.2957757    947.71063  0.081084071  0.082660308            9 
  975000    1.0937138   -3.2918013    943.70164  0.080658259   0.08264083            4 
  976000    1.1192038   -3.3259494    946.20548  0.080789403  0.082621485            4 
  977000    1.0960756    -3.319776    947.76941  0.080840107  0.082602304            5 
  978000    1.0841342   -3.3148117     949.4108  0.080897307  0.082583149            1 
  979000    1.0919628   -3.3281814    952.41904  0.081070739  0.082564156            1 
  980000    1.1219098   -3.2734397    949.11727  0.080707251  0.082545461            3 
  981000    1.0957485   -3.3155897    957.76305  0.081359416  0.082526604            3 
  982000    1.1107582   -3.3274309    951.91065  0.080779927   0.08250768            2 
  983000    1.0880951    -3.300904    955.07271  0.080965811  0.082488445            2 
  984000    1.0837316   -3.3036179    957.15918  0.081060229  0.082468723            2 
  985000    1.1167699   -3.3325278     955.3761  0.080827081  0.082449347            1 
  986000    1.0945293   -3.3173261    954.42667  0.080664864  0.082430868            2 
  987000    1.0875389   -3.2750072    956.47178  0.080755807  0.082412181            2 
  988000     1.089696   -3.2861224    958.33855  0.080831524   0.08239258            2 
  989000    1.1034666   -3.3399339    956.52876  0.080597301   0.08237392            2 
  990000    1.0931485   -3.2958349    961.98676  0.080975317  0.082354686            2 
  991000     1.086843   -3.3225464    961.43105  0.080846876  0.082335203            2 
  992000    1.0701872   -3.3213053    961.06375  0.080734522  0.082316451            4 
  993000    1.1006018    -3.304227    958.23913  0.080416174  0.082297515            1 
  994000     1.098842   -3.3042776    965.00443   0.08090245  0.082278155            2 
  995000     1.111114   -3.3227165     962.9368  0.080647973  0.082258097            2 
  996000     1.087303   -3.2752064    966.44458  0.080860491   0.08223874            1 
  997000    1.0960902   -3.2891112      967.569   0.08087337  0.082219973            1 
  998000    1.0914771   -3.2997169    965.98006  0.080659657  0.082200966            1 
  999000    1.0877683   -3.3216715    965.30781   0.08052284  0.082181589            1 
 1000000    1.1127132   -3.3025324    968.64365  0.080720304  0.082162661            3 
 1001000    1.1116168   -3.3098237     967.6243  0.080554803  0.082144066            2 
 1002000    1.0864527   -3.3321929    970.09673  0.080680034  0.082125247            3 
 1003000    1.0835275   -3.3301102    968.55182  0.080471238  0.082106471            2 
 1004000     1.071711   -3.3115891    971.39654  0.080627202  0.082087608            3 
 1005000     1.095798   -3.3053258     970.7567  0.080493922  0.082069141            1 
 1006000    1.0749968   -3.2976329    972.28443   0.08054046  0.082049686            2 
 1007000    1.0954979   -3.3129786    969.64329  0.080241914  0.082029953            2 
 1008000     1.113717   -3.3551333    974.86743  0.080594199  0.082010079            2 
 1009000    1.1025015   -3.3042279    976.39601  0.080640569  0.081990479            2 
 1010000    1.0668633   -3.3137357    972.01107  0.080198933  0.081970412            1 
 1011000    1.0992175   -3.2851936     975.9956  0.080448038  0.081950479            1 
 1012000    1.0841901   -3.3149047    973.43256   0.08015749  0.081929688            3 
 1013000    1.0982651   -3.2953416    973.85185  0.080112854  0.081909645            4 
 1014000    1.0809356   -3.3042953    978.97992  0.080455286  0.081889493            2 
 1015000    1.1118761   -3.2987495     978.2538  0.080316403  0.081868971            4 
 1016000    1.0936786   -3.2866911    975.39659  0.080003001  0.081849167            3 
 1017000    1.0759475   -3.3299997    971.86159  0.079634676  0.081828848            1 
 1018000    1.0862308    -3.310263    978.27075  0.080081102  0.081808531            2 
 1019000    1.0828621    -3.313382    981.72071  0.080284651  0.081787594            3 
 1020000    1.1129329   -3.3332774    978.83069  0.079969828  0.081766455            1 
 1021000    1.0833346   -3.3065988    980.33875  0.080014589  0.081746111            1 
 1022000    1.0840978   -3.3046015    981.72543  0.080049367   0.08172593            5 
 1023000    1.0725118   -3.3306207    978.45564   0.07970476  0.081704986            3 
 1024000    1.0678233   -3.3093965    983.09227  0.080004253  0.081684095            2 
 1025000      1.09563   -3.3200598    978.00676  0.079512745   0.08166304            3 
 1026000     1.096415      -3.2878    987.65731   0.08021908  0.081642246            3 
 1027000    1.0784661   -3.3095979    983.75278  0.079824146  0.081621286            2 
 1028000    1.0862182   -3.3037506    981.63774  0.079575044  0.081600365            3 
 1029000    1.0667035   -3.3261389    985.68749  0.079825679  0.081580353            3 
 1030000    1.0823113     -3.30409    985.59786  0.079740927  0.081560552            4 
 1031000    1.1004203   -3.3260961    982.40848  0.079405793  0.081540094            1 
 1032000    1.0820846   -3.3257728    986.85033  0.079687527   0.08152001            7 
 1033000    1.0896536   -3.3237773    989.80816  0.079848996  0.081500333            3 
 1034000    1.1014033   -3.3506537    988.46859  0.079663813  0.081480236            2 
 1035000    1.0845876   -3.3038967    985.88464  0.079378796  0.081460336            1 
 1036000    1.0898674   -3.3050509    994.84341  0.080022797  0.081440531            4 
 1037000    1.0816706    -3.297683    995.86795  0.080027961  0.081421422            3 
 1038000    1.0891925    -3.325978    991.67559   0.07961429  0.081401845            3 
 1039000    1.0950643   -3.3009879    992.76217  0.079624813  0.081382451            3 
 1040000     1.098446   -3.2903607    998.42432  0.080001949  0.081362878            4 
 1041000    1.0770862   -3.3317403    994.73626  0.079629864  0.081343559            2 
 1042000     1.074576   -3.2824652    1000.2026  0.079990612  0.081323999            2 
 1043000    1.1043824   -3.3192769     996.9932  0.079657495  0.081303687            4 
 1044000    1.0758983   -3.3268977    996.19594  0.079517556   0.08128311            4 
 1045000    1.0806783    -3.290337    997.29407  0.079529032  0.081263142            5 
 1046000    1.0844932   -3.2956104    995.08851  0.079277288  0.081242674            1 
 1047000     1.082699   -3.2960429    1002.8257   0.07981739    0.0812224            2 
 1048000    1.0732398   -3.3060704    1006.0225  0.079995425  0.081202267            1 
 1049000     1.089843   -3.3107725    1001.2757  0.079542082  0.081182445            2 
 1050000    1.1028099   -3.3091317    1006.0909  0.079848481  0.081162303            5 
 1051000    1.0694854   -3.3241322    1000.2439  0.079308905  0.081142184            2 
 1052000    1.0867492   -3.3145412    1006.9076  0.079761377  0.081122371            1 
 1053000    1.0805345   -3.3357827    1007.7676  0.079753687  0.081103046            5 
 1054000    1.0960135   -3.3204599    1005.2385  0.079478063  0.081082996            2 
 1055000    1.0927063   -3.3024617    1005.2832   0.07940626  0.081063765            1 
 1056000    1.0625594   -3.3163522    1004.6919  0.079284401  0.081043698            5 
 1057000    1.0596712   -3.3626175    1010.1737  0.079641569  0.081023296            3 
 1058000    1.0682253   -3.3489781    1008.9468  0.079469659  0.081003127            2 
 1059000    1.0879607   -3.2991434    1009.0447  0.079402324  0.080982924            2 
 1060000    1.0873393     -3.34078    1008.7922   0.07930756  0.080962495            1 
 1061000    1.0674748   -3.3263918    1008.8663  0.079238633  0.080942108            2 
 1062000    1.0650743   -3.3210272    1008.1363   0.07910674  0.080921523            3 
 1063000    1.0725008   -3.3273496    1009.4267  0.079133482  0.080901161            2 
 1064000    1.0541459   -3.3319087    1010.7233  0.079160657  0.080880788            2 
 1065000    1.0589948   -3.3411588    1012.8154   0.07925003   0.08085959            2 
 1066000    1.0751486   -3.3118233    1012.8628   0.07917939  0.080838846            1 
 1067000    1.0766366   -3.3264334    1013.8293  0.079180673  0.080817552            1 
 1068000    1.0765264   -3.3372047    1011.2867  0.078908136  0.080796198            2 
 1069000     1.066475   -3.3440103    1011.7439  0.078869967  0.080774726            2 
 1070000    1.0793082   -3.3311309    1019.0911  0.079368466  0.080754003            1 
 1071000    1.0679439    -3.335022    1012.8282  0.078807052  0.080733319            3 
 1072000    1.0465343   -3.3305465    1017.4808   0.07909521  0.080712053            1 
 1073000    1.0904044   -3.3296525    1016.4781  0.078943627  0.080691818            1 
 1074000    1.0881652   -3.3272981    1018.9809  0.079064316  0.080671318            4 
 1075000    1.0742698   -3.3398367    1020.2779  0.079091308  0.080651234            1 
 1076000    1.1098523   -3.3346119    1022.0266  0.079153235  0.080631055            3 
 1077000    1.0981797   -3.3330123    1017.7129  0.078745965  0.080611248            4 
 1078000    1.0804158    -3.318407    1020.8424  0.078914846   0.08059147            2 
 1079000    1.0595155   -3.3163777    1024.2236   0.07910284  0.080572379            3 
 1080000    1.0623077   -3.3214462    1024.1221  0.079021766   0.08055366            1 
 1081000    1.0817796    -3.329463    1023.7959  0.078923517  0.080534907            1 
 1082000    1.0770118   -3.3025429     1029.558   0.07929436  0.080515645            1 
 1083000    1.0662556   -3.3484938    1025.0959    0.0788778   0.08049676            4 
 1084000    1.0666055   -3.3518511    1032.6593   0.07938648  0.080478396            2 
 1085000    1.0827351   -3.2982596    1034.5478  0.079458359  0.080461026            1 
 1086000     1.077575    -3.340468    1033.3446  0.079292865  0.080443601            3 
 1087000    1.0854156   -3.3151273    1038.0327  0.079579327  0.080425777            3 
 1088000    1.0665472   -3.3129881    1034.1236  0.079206768   0.08040799            2 
 1089000    1.0709407   -3.3156885    1036.2332  0.079295471  0.080389816            3 
 1090000    1.0820178   -3.3177592    1034.1331  0.079062164  0.080371432            3 
 1091000    1.0814176   -3.3374888    1035.5688  0.079099356  0.080353007            2 
 1092000    1.0764676   -3.3478267    1039.2245  0.079305902  0.080334958            3 
 1093000     1.092538   -3.3392268    1036.8817  0.079054716   0.08031693            3 
 1094000    1.0761309   -3.3685808    1035.7536  0.078896527   0.08029868            3 
 1095000    1.0901051   -3.3145524    1033.1365  0.078625305  0.080280058            2 
 1096000    1.0733341   -3.3280277    1040.8621  0.079140974  0.080261764            2 
 1097000    1.0715544   -3.3278377    1042.4691   0.07919091  0.080243234            2 
 1098000    1.0812032   -3.3455771    1041.5347  0.079047865  0.080225563            4 
 1099000    1.0653324   -3.3395601    1042.9825  0.079085719  0.080207509            2 
 1100000    1.0591638   -3.3434806    1041.7612  0.078921306  0.080189795            5 
 1101000    1.0978302   -3.3354467     1045.046  0.079098241  0.080171678            2 
 1102000     1.095197   -3.3304283     1047.201  0.079189426   0.08015374            2 
 1103000    1.0787558   -3.3232019    1047.3359  0.079127826  0.080135914            2 
 1104000    1.0880468   -3.3449459    1049.6881  0.079233705  0.080117814            8 
 1105000    1.0469258   -3.3151244    1050.4882   0.07922234   0.08009968            4 
 1106000    1.0854321   -3.3374962    1045.2566  0.078756522  0.080081513            5 
 1107000    1.0687538   -3.3367501    1044.3554  0.078617539   0.08006386            5 
 1108000    1.0919861   -3.3346258    1050.4388   0.07900412  0.080045654            1 
 1109000    1.0929104   -3.3535449    1052.1618  0.079062352  0.080027382            1 
 1110000    1.0896814   -3.3124877    1051.5088  0.078942101  0.080009678            2 
 1111000      1.08369   -3.3396303    1055.6357  0.079180592  0.079991658            3 
 1112000    1.0979352   -3.3287458    1050.8348  0.078749612  0.079973256            2 
 1113000    1.0565661   -3.3090071    1055.3337  0.079015701  0.079955123            4 
 1114000    1.0519173   -3.3212286    1051.0125  0.078621524  0.079937199            3 
 1115000    1.0565183    -3.305547    1055.4178  0.078880255  0.079919642            1 
 1116000    1.0447938   -3.3256499    1053.1706  0.078641773  0.079901987            2 
 1117000    1.0484859   -3.3181399    1058.7581  0.078988222  0.079884023            1 
 1118000    1.0808846   -3.3235024    1060.6729  0.079060291   0.07986675            1 
 1119000    1.0615628   -3.3178433    1061.5021  0.079051392  0.079849785            2 
 1120000    1.0814345   -3.3280299    1055.6487  0.078545291  0.079832419            4 
 1121000    1.0670906   -3.3353661    1059.9598  0.078795704   0.07981496            2 
 1122000    1.0497678   -3.3502292    1058.7764  0.078637578  0.079798336            2 
 1123000     1.059489   -3.3470654    1067.2274  0.079194669  0.079781814            2 
 1124000    1.0942477   -3.3207424    1063.4442  0.078843725  0.079765702            1 
 1125000    1.0536229    -3.355378    1063.9262  0.078809347  0.079749397            3 
 1126000    1.0750195   -3.3574187    1065.2714  0.078838911    0.0797326            2 
 1127000    1.0759795   -3.3423126    1064.5485  0.078715502   0.07971539            4 
 1128000    1.0854112   -3.3135934    1072.7462  0.079251347  0.079699409            2 
 1129000    1.0746494   -3.3582775    1065.1239  0.078618537  0.079683408            1 
 1130000    1.0574524   -3.3503382    1065.6201  0.078585557  0.079667293            2 
 1131000    1.0739944   -3.3468669    1070.7908  0.078897051  0.079651449            1 
 1132000    1.0783466    -3.365829    1066.2372  0.078492134  0.079634716            1 
 1133000    1.0657188   -3.3499788    1063.8669  0.078248522   0.07961772            4 
 1134000    1.0731841    -3.344896    1071.4702   0.07873826  0.079600655            2 
 1135000    1.0792221   -3.3466589    1074.9136  0.078921706  0.079584069            4 
 1136000    1.0802254   -3.3365307    1076.2889   0.07895312  0.079567313            3 
 1137000    1.0634818   -3.3190273    1074.5338  0.078755045  0.079550734            1 
 1138000    1.0762873    -3.375471    1073.9472  0.078642884   0.07953433            1 
 1139000    1.0726147   -3.2995709    1076.5922  0.078767351  0.079517687            2 
 1140000     1.072804    -3.349758    1072.6041  0.078406735  0.079500825            4 
 1141000    1.0899036   -3.3428477    1069.8836  0.078139322  0.079483317            4 
 1142000    1.0469029   -3.3549691    1075.9279  0.078511958  0.079466734            3 
 1143000     1.069152   -3.3326939    1074.5091  0.078339828  0.079449536            2 
 1144000    1.0559605   -3.3467894    1072.0013  0.078088669  0.079432724            4 
 1145000    1.0643895   -3.3309038    1078.8267  0.078517225  0.079415242            4 
 1146000    1.0471129   -3.3234427    1076.7889  0.078300533  0.079397906            3 
 1147000    1.0869337   -3.3313067    1079.0187  0.078394268  0.079380517            3 
 1148000    1.0823507   -3.3550609    1079.5004   0.07836095  0.079362375            2 
 1149000    1.0649564   -3.3447919    1077.9698  0.078181737  0.079345144            2 
 1150000    1.0566107   -3.3284462    1079.4598  0.078221726  0.079327567            1 
 1151000    1.0704794   -3.3336953     1077.559  0.078016145  0.079309863            2 
 1152000    1.0778319   -3.3589421    1080.4702  0.078159012   0.07929187            1 
 1153000    1.0765451   -3.3397771    1082.5935  0.078244684  0.079273728            2 
 1154000    1.0675729   -3.3232093    1081.6542  0.078109053  0.079255581            1 
 1155000    1.0672041   -3.3362753    1084.0441  0.078213862  0.079237911            2 
 1156000    1.0617849   -3.3428961    1089.2452  0.078521135   0.07921992            1 
 1157000    1.0923288   -3.3745317    1085.4549  0.078180269   0.07920225            1 
 1158000    1.0899448   -3.3319735    1087.5789  0.078265609   0.07918519            1 
 1159000    1.0758056   -3.3509851    1087.3405  0.078180942   0.07916836            2 
 1160000    1.0788682   -3.3185619    1088.3415  0.078185453  0.079151278            2 
 1161000    1.0529552   -3.3497358     1088.997  0.078165157  0.079134228            3 
 1162000    1.0452533   -3.3358136    1089.2829  0.078118394   0.07911711            1 
 1163000     1.045708   -3.3321651    1090.8477  0.078163349  0.079099715            1 
 1164000    1.0887156   -3.3975793    1082.4617  0.077495828   0.07908246            4 
 1165000    1.0583474   -3.3811946    1091.1558  0.078051201  0.079065013            4 
 1166000    1.0436208   -3.3394663    1096.9891  0.078401164  0.079047972            2 
 1167000    1.0862221   -3.3322135    1094.5898  0.078162655  0.079030277            1 
 1168000    1.0480472   -3.3130758    1101.4582  0.078585771  0.079014045            4 
 1169000     1.046675    -3.337484    1099.5743  0.078384256  0.078998215            2 
 1170000    1.0509223   -3.3414766    1095.5356  0.078029602  0.078981183            2 
 1171000    1.0568777   -3.3514483    1101.2164  0.078367237  0.078965388            2 
 1172000    1.0550896   -3.3373993    1098.1361  0.078081349  0.078948922            2 
 1173000    1.0546477   -3.3538808    1099.3981  0.078104442  0.078932899            1 
 1174000    1.0781377   -3.3449158    1100.3124  0.078102807   0.07891614            1 
 1175000    1.0736702   -3.3486424    1102.4773  0.078189882  0.078900498            2 
 1176000    1.0486229    -3.369215     1099.348  0.077901643  0.078883642            3 
 1177000    1.0542975   -3.3762298    1094.1438  0.077466994  0.078867133            4 
 1178000    1.0505453   -3.3218219    1104.8875  0.078161253  0.078850787            4 
 1179000    1.0843109     -3.34573       1105.1  0.078109978  0.078834955            1 
 1180000    1.0507621   -3.3657646    1103.5722   0.07793589  0.078818706            2 
 1181000    1.0762356   -3.4041869    1105.4061    0.0779993  0.078802987            3 
 1182000    1.0582599   -3.3343075    1105.9823  0.077973933  0.078786819            1 
 1183000    1.0575046   -3.3636721    1107.5592  0.078019106  0.078770712            2 
 1184000    1.0469583   -3.3444601    1110.8921  0.078187788  0.078754479            3 
 1185000    1.0494502   -3.3291165    1107.1708  0.077860115  0.078738438            3 
 1186000    1.0470659   -3.3684639    1111.8801   0.07812536   0.07872234            3 
 1187000    1.0696453   -3.3752308     1108.124  0.077795841  0.078706264            3 
 1188000    1.0679368   -3.3455865    1113.9813  0.078141227  0.078690396            2 
 1189000    1.0664316   -3.3922254    1109.6406  0.077771281   0.07867523            2 
 1190000    1.0636923   -3.3476391    1114.7055   0.07806061  0.078658281            2 
 1191000    1.0660871   -3.3410818    1115.7938  0.078071217   0.07864257            3 
 1192000    1.0543032   -3.3667571    1110.9488  0.077667004  0.078626881            2 
 1193000    1.0366814   -3.3481195    1112.1521  0.077685954  0.078610471            5 
 1194000    1.0600486   -3.3671492    1114.5834  0.077790576  0.078594583            2 
 1195000    1.0688558   -3.3423633    1118.3113  0.077985445   0.07857892            4 
 1196000    1.0624035   -3.3476721    1117.1383  0.077838512  0.078563197            1 
 1197000    1.0482024   -3.3635474    1118.5788  0.077873766  0.078547567            1 
 1198000    1.0584986   -3.3873121    1119.5178  0.077874084  0.078532565            2 
 1199000    1.0612597   -3.3653046    1118.3469   0.07772775  0.078517289            4 
 1200000    1.0862901   -3.3524931    1119.9743  0.077775993  0.078502061            2 
 1201000    1.0584324   -3.3359392    1126.9625  0.078196124    0.0784874            3 
 1202000    1.0595717   -3.3668321    1123.4381  0.077886726  0.078472206            2 
 1203000    1.0433294   -3.3615788    1124.3416  0.077884567  0.078457336            2 
 1204000    1.0681413   -3.3382408    1128.7393  0.078124261  0.078442431            4 
 1205000    1.0691479   -3.3562447    1123.1555  0.077673275  0.078427509            3 
 1206000    1.0778019   -3.3496934    1126.4401  0.077835828  0.078412045            4 
 1207000     1.049664   -3.3464033    1130.1156  0.078025105  0.078396424            3 
 1208000    1.0535648   -3.3674194    1123.5861  0.077510082  0.078380936            2 
 1209000    1.0666535   -3.3541216    1124.3836   0.07750094  0.078365255            4 
 1210000    1.0711267    -3.372628    1130.4126  0.077852107  0.078349558            4 
 1211000    1.0641972   -3.3672501    1124.4789    0.0773795  0.078333511            2 
 1212000    1.0740534   -3.3695153    1132.1579  0.077843643  0.078316939            3 
 1213000    1.0542674   -3.3663508    1129.6761  0.077608964  0.078301154            2 
 1214000    1.0588289   -3.3516701    1136.2521  0.077996437  0.078285084            3 
 1215000    1.0708127   -3.3497315    1131.1585  0.077582891  0.078269447            2 
 1216000    1.0571088   -3.3599119    1135.9989  0.077850799  0.078253356            2 
 1217000    1.0427058   -3.3532133    1131.8546  0.077503054  0.078238107            1 
 1218000    1.0593056   -3.3591795    1130.9084  0.077374683  0.078222031            2 
 1219000    1.0497837   -3.3631278    1133.3067  0.077475166  0.078206064            4 
 1220000    1.0445842    -3.402099    1139.9499  0.077865433  0.078190761            3 
 1221000    1.0857234   -3.3415894    1141.2786   0.07789234  0.078175675            1 
 1222000    1.0755661   -3.3687286    1137.3079  0.077557824  0.078160984            3 
 1223000    1.0524023   -3.3769206    1136.5385  0.077441982  0.078145851            2 
 1224000    1.0566194   -3.3809094    1139.7707  0.077598766  0.078130455            3 
 1225000    1.0542024   -3.3611089    1141.0776  0.077624327  0.078115616            1 
 1226000    1.0661546   -3.3797475    1140.9301  0.077550986  0.078100552            4 
 1227000    1.0709682   -3.3549154    1142.5284  0.077596335  0.078085337            4 
 1228000    1.0445232   -3.3280265    1144.4683  0.077664785  0.078070494            3 
 1229000    1.0501824    -3.368121    1143.7237  0.077551107  0.078055477            1 
 1230000    1.0541319   -3.3392851     1147.202  0.077723715  0.078040626            2 
 1231000    1.0780973   -3.3184249    1143.4773   0.07740843  0.078025883            2 
 1232000     1.068281   -3.3780888    1144.2904  0.077400593  0.078010867            2 
 1233000    1.0395453   -3.3583132    1144.7973  0.077372083  0.077995639            4 
 1234000    1.0565521   -3.3338734     1152.796  0.077849542  0.077980618            1 
 1235000    1.0430714   -3.3753141    1147.9505  0.077459546  0.077965479            5 
 1236000    1.0762123   -3.3522757    1150.1646  0.077546154  0.077950483            4 
 1237000      1.03604   -3.3487098    1150.1924  0.077485339  0.077935753            7 
 1238000    1.0548008   -3.3535056    1152.2624  0.077562089    0.0779206            2 
 1239000     1.044571   -3.3416189    1152.2212  0.077496721  0.077906082            2 
 1240000    1.0508099    -3.355441    1152.5618  0.077457112  0.077891195            2 
 1241000    1.0559801   -3.3888059    1152.9005  0.077417441   0.07787603            3 
 1242000    1.0476802     -3.35687    1150.2765  0.077179049  0.077861268            3 
 1243000    1.0455054   -3.3627278    1157.4446  0.077597522   0.07784648            2 
 1244000    1.0390662   -3.3664583    1154.9443  0.077367649  0.077831864            4 
 1245000    1.0365054   -3.3682992    1153.1182  0.077183283  0.077816709            5 
 1246000    1.0512488   -3.3764754    1153.0476  0.077116616  0.077802391            2 
 1247000    1.0484432   -3.3472791     1161.269   0.07760418  0.077787936            3 
 1248000    1.0767691   -3.3273078    1160.5282  0.077492531  0.077773505            2 
 1249000    1.0465412   -3.3610555    1159.1411  0.077337941  0.077759286            1 
 1250000    1.0436822   -3.3472089    1156.5799  0.077105326  0.077744464            3 
 1251000    1.0599127   -3.3618489      1157.71  0.077118972  0.077729778            2 
 1252000    1.0828889   -3.3457462    1162.0348  0.077345234  0.077715196            3 
 1253000    1.0404076   -3.3567711    1163.2678  0.077365506  0.077700804            3 
 1254000    1.0331935   -3.3896493    1162.2054  0.077233215  0.077685784            2 
 1255000    1.0569985   -3.3875878    1161.8453  0.077147765  0.077670916            1 
 1256000    1.0668657   -3.3747752    1166.0131  0.077362866  0.077657054            1 
 1257000    1.0457361   -3.3632068    1167.3489  0.077389877  0.077643169            7 
 1258000    1.0552349   -3.3646125    1167.7206  0.077352979  0.077629663            2 
 1259000     1.036882   -3.3827673     1167.171  0.077255161  0.077615446            2 
 1260000    1.0707975    -3.349646    1168.2986  0.077268427  0.077601086            1 
 1261000    1.0604475   -3.3641336    1170.4146  0.077346984  0.077586371            3 
 1262000    1.0269651   -3.3808775    1166.6041  0.077034079  0.077571427            2 
 1263000    1.0503793   -3.3809459    1168.0293  0.077067121  0.077556837            2 
 1264000    1.0522164   -3.3714979     1172.672  0.077312234  0.077542281            3 
 1265000    1.0401434   -3.3666578    1173.1273  0.077281114  0.077527965            3 
 1266000    1.0552593    -3.370629    1172.8116  0.077199288  0.077513599            2 
 1267000     1.052239   -3.3743989    1170.0133  0.076954308  0.077499502            3 
 1268000    1.0461509   -3.3714191    1174.9758  0.077219753  0.077484978            3 
 1269000    1.0692449    -3.331685     1179.955  0.077485881  0.077470932            1 
 1270000    1.0569558   -3.3426354    1176.5306   0.07720017  0.077456746            2 
 1271000    1.0450798   -3.3940677    1174.8202  0.077027286  0.077442981            4 
 1272000    1.0357456   -3.3474176    1179.9608  0.077303511  0.077429098            2 
 1273000    1.0455961   -3.3573901    1177.9935  0.077114004  0.077415576            5 
 1274000    1.0499742   -3.3683422    1180.2031  0.077198004  0.077402022            4 
 1275000    1.0389599   -3.3779131    1177.5584    0.0769646  0.077388234            2 
 1276000    1.0340046   -3.3643577    1188.8531  0.077641923  0.077374777            1 
 1277000     1.028857    -3.380424    1179.0868  0.076943797  0.077361308            1 
 1278000    1.0635938   -3.3902916    1182.4311   0.07710166  0.077347656            2 
 1279000    1.0223596   -3.3651159    1181.3909  0.076973607  0.077334054            3 
 1280000    1.0144258   -3.3917492     1188.166  0.077354555  0.077320809            2 
 1281000    1.0310326   -3.3700541    1185.2586  0.077105035  0.077307557            2 
 1282000    1.0481885   -3.3709042    1189.9846  0.077352092  0.077293909            4 
 1283000    1.0355531    -3.364562    1189.9402  0.077288922  0.077280876            4 
 1284000    1.0397254   -3.3638682    1194.6378  0.077533604  0.077267822            2 
 1285000    1.0600199   -3.4055052    1189.5171  0.077141187  0.077254744            4 
 1286000     1.063226   -3.3836116    1186.4172  0.076880326  0.077242111            2 
 1287000    1.0461808   -3.3882887    1192.3125  0.077202312  0.077229101            3 
 1288000    1.0400808   -3.3871932    1193.4468  0.077215763  0.077216635            4 
 1289000    1.0483674   -3.3830254    1194.6093  0.077231012  0.077203992            2 
 1290000    1.0128172   -3.3674131    1199.4831  0.077485991  0.077192243            3 
 1291000    1.0313279   -3.3897295    1194.8032  0.077123886  0.077179654            3 
 1292000    1.0289925    -3.411051    1194.0932  0.077018395  0.077167007            3 
 1293000    1.0470483    -3.386343    1198.6086  0.077249846  0.077154494            5 
 1294000    1.0496592   -3.3861759     1201.152  0.077353939  0.077141949            1 
 1295000    1.0420116    -3.353587     1197.175  0.077038291  0.077129385            3 
 1296000    1.0772003   -3.3643041    1201.7388  0.077272302  0.077116933            3 
 1297000    1.0361124   -3.3678211     1204.065   0.07736218  0.077104895            4 
 1298000    1.0463775   -3.4045359    1204.7982  0.077349656  0.077092785            3 
 1299000    1.0291295   -3.3508616    1203.7698  0.077224135  0.077080109            2 
 1300000    1.0454925   -3.3646063    1205.8358  0.077297169  0.077067965            4 
 1301000    1.0423916    -3.373802     1205.691  0.077228478   0.07705604            3 
 1302000    1.0222351   -3.3795568    1204.3932  0.077086099  0.077043846            3 
 1303000    1.0357753    -3.340895    1209.3127  0.077341562  0.077031343            3 
 1304000    1.0537669   -3.3892007    1209.4247  0.077289409  0.077018929            2 
 1305000    1.0059369   -3.3618273    1210.1964  0.077279465  0.077006456            2 
 1306000    1.0358241   -3.3902582    1206.4242  0.076979597  0.076993888            2 
 1307000    1.0532081   -3.3633676    1212.2446    0.0772918  0.076982215            4 
 1308000     1.042255   -3.3575856    1209.5937  0.077063816  0.076970674            3 
 1309000    1.0414669   -3.3687555    1211.1904  0.077106593  0.076958771            2 
 1310000    1.0390833   -3.3620256    1214.4762  0.077256754  0.076946866            2 
 1311000    1.0411075   -3.3965741    1208.7765  0.076835525  0.076935042            4 
 1312000    1.0543376    -3.418986    1213.1391  0.077054056  0.076922736            3 
 1313000    1.0233485   -3.3948947    1212.4303  0.076950389   0.07691053            2 
 1314000    1.0453358   -3.3941395     1217.148  0.077191022  0.076898185            2 
 1315000    1.0196034   -3.3717552    1213.3642  0.076892533  0.076886028            3 
 1316000    1.0253878    -3.369767    1218.1476  0.077137006  0.076873817            1 
 1317000    1.0320856   -3.3991863    1215.3959  0.076904321  0.076861493            4 
 1318000     1.049868   -3.4103384    1212.3371  0.076652574  0.076849095            4 
 1319000    1.0656851   -3.4061499    1217.6605  0.076930785  0.076836755            2 
 1320000    1.0364069   -3.3992286    1221.0966  0.077089429  0.076824399            2 
 1321000    1.0364577    -3.381183     1219.818  0.076950418  0.076812342            3 
 1322000     1.044652   -3.3590023    1223.0611  0.077096637  0.076800382            5 
 1323000    1.0240058   -3.3611244    1222.3107  0.076991101  0.076788799            6 
 1324000     1.037089   -3.3628908    1222.4489  0.076941648  0.076776359            2 
 1325000    1.0308345   -3.3823423    1220.0368  0.076731876   0.07676443            1 
 1326000    1.0636174    -3.376941    1225.7856  0.077035297  0.076752238            4 
 1327000    1.0405751   -3.4041422     1226.253  0.077006591  0.076740666            4 
 1328000    1.0253425   -3.3585614    1232.1013  0.077315592  0.076729042            2 
 1329000    1.0336411   -3.3706918    1230.9798  0.077187097  0.076717838            2 
 1330000    1.0352131   -3.3679689    1231.8224  0.077181857  0.076706655            1 
 1331000    1.0210851   -3.3855959    1235.4691  0.077352182  0.076695445            2 
 1332000    1.0433637   -3.3130243    1233.5256  0.077172523   0.07668432            4 
 1333000     1.012809   -3.3733773    1226.6463  0.076684567  0.076672393            3 
 1334000    1.0322786   -3.3647085    1232.3626  0.076984168  0.076661424            2 
 1335000    1.0474064   -3.3907292    1230.1212  0.076786591  0.076650483            2 
 1336000     1.034861    -3.372175    1233.2853  0.076926479  0.076638759            2 
 1337000    1.0402673   -3.3653951    1235.6075  0.077013679  0.076627233            4 
 1338000     1.032792   -3.3717469    1236.8393  0.077032841  0.076616093            2 
 1339000    1.0180334   -3.4069276    1239.6063  0.077147518  0.076604837            2 
 1340000    1.0257631   -3.4005257    1229.0049  0.076430651  0.076593519            3 
 1341000    1.0383505    -3.389805    1241.8155  0.077169744  0.076582157            4 
 1342000    1.0181473   -3.3880136    1238.8556  0.076928442  0.076570836            2 
 1343000    1.0015201   -3.4062286    1237.9646  0.076815875  0.076559147            1 
 1344000    1.0596096   -3.3956788    1240.5677  0.076920117  0.076547319            3 
 1345000    1.0315455   -3.3932457    1239.9021  0.076821695  0.076536256            2 
 1346000    1.0487273   -3.3912712    1240.1561  0.076780344  0.076525354            2 
 1347000    1.0384068    -3.381921    1243.5387  0.076932612   0.07651431            1 
 1348000    1.0300192   -3.4247125    1241.8819  0.076773117  0.076503517            3 
 1349000    1.0350507   -3.4014416    1242.8264  0.076774548  0.076492635            6 
 1350000    1.0187558   -3.3829851    1246.8987  0.076969057  0.076482094            1 
 1351000    1.0252969   -3.4154318    1245.4277  0.076821347  0.076470675            2 
 1352000    1.0047221    -3.374825    1250.8927  0.077101377  0.076459563            3 
 1353000    1.0538154    -3.407027    1248.4064  0.076891255  0.076449283            4 
 1354000    1.0371434   -3.3588056    1249.2052  0.076883627   0.07643869            3 
 1355000    1.0478024   -3.3773743    1249.2453  0.076829351  0.076428204            2 
 1356000    1.0469932   -3.3792052    1251.9232  0.076937265  0.076417864            1 
 1357000    1.0395406   -3.3936102    1249.2008  0.076713388  0.076407184            3 
 1358000    1.0505755   -3.3791129    1254.8744  0.077005057  0.076396628            2 
 1359000     1.016481   -3.4015662    1251.7327  0.076755746  0.076385833            1 
 1360000    1.0264301   -3.3761045    1257.2652   0.07703831  0.076374786            2 
 1361000    1.0287335   -3.3737033    1253.8398   0.07677197  0.076364286            2 
 1362000    1.0497424   -3.3652375    1253.7794  0.076711906  0.076353016            1 
 1363000    1.0157743   -3.3615852    1254.4983   0.07669958  0.076341978            2 
 1364000    1.0309436   -3.4084784    1256.0088  0.076735632  0.076330794            2 
 1365000    1.0282861   -3.4023077     1251.945   0.07643132  0.076319793            2 
 1366000    1.0444309   -3.3980165    1264.6845  0.077152543   0.07630894            2 
 1367000    1.0333589   -3.4208285    1259.5164  0.076781051  0.076298228            2 
 1368000    1.0299827   -3.3810578    1256.7753  0.076557949  0.076287144            2 
 1369000    1.0424857   -3.3730084    1259.6959  0.076679809  0.076275937            2 
 1370000    1.0216675   -3.4043871    1256.4183  0.076424472  0.076264717            3 
 1371000    1.0451841   -3.4084111    1258.9281  0.076521281  0.076253589            4 
 1372000    1.0491406    -3.370416    1264.7986  0.076822074  0.076242544            2 
 1373000    1.0125003    -3.376829    1263.3178  0.076676242  0.076231772            3 
 1374000    1.0111067   -3.3602959    1261.3725  0.076502455   0.07622058            2 
 1375000    1.0521289   -3.3641397    1259.2476  0.076318038  0.076209371            3 
 1376000    1.0433249    -3.392669    1264.8427  0.076601421  0.076198185            2 
 1377000    1.0257191    -3.395503    1263.5758  0.076469126  0.076187004            2 
 1378000    1.0311461   -3.3945672    1263.7496  0.076424143  0.076175389            2 
 1379000    1.0622819   -3.4041999    1258.0919  0.076026824  0.076163539            3 
 1380000    1.0339805   -3.4100041    1264.4631  0.076356466  0.076151766            4 
 1381000    1.0353551   -3.4067045    1266.2398   0.07640839   0.07614024            1 
 1382000     1.016185   -3.3956731    1263.9226  0.076213372  0.076129124            3 
 1383000    1.0396045   -3.4029573    1267.5718  0.076378154  0.076117571            2 
 1384000    1.0334392   -3.4232749    1268.3917  0.076372332  0.076105959            2 
 1385000     1.050555   -3.3938284     1270.606   0.07645042  0.076094467            3 
 1386000    1.0262848   -3.3640052    1272.5666  0.076513146  0.076082841            3 
 1387000    1.0425558   -3.4019546    1268.9058  0.076238032  0.076071455            2 
 1388000    1.0447504   -3.3816305    1273.4256  0.076454469  0.076060095            2 
 1389000    1.0308394   -3.4182949    1268.1208  0.076081161  0.076048341            1 
 1390000    1.0379541   -3.4016174     1274.999  0.076438791  0.076036655            3 
 1391000    1.0269275   -3.3693169    1274.0093  0.076324545  0.076025405            2 
 1392000    1.0313493    -3.373259     1276.633  0.076426783  0.076014013            3 
 1393000    1.0162607   -3.4075548    1272.6828  0.076135609  0.076002054            2 
 1394000     1.036122   -3.4270138    1268.8279  0.075850542  0.075990385            2 
 1395000    1.0271491   -3.4029899    1277.9694  0.076342256  0.075978894            1 
 1396000      1.01758   -3.4045109    1275.0389  0.076112638  0.075967512            2 
 1397000    1.0265195   -3.4012778    1274.8138  0.076044726  0.075956575            2 
 1398000    1.0320203   -3.4116123    1280.1182  0.076306522  0.075944913            4 
 1399000     1.022466   -3.4012277    1282.7699  0.076409931  0.075933134            3 
 1400000    1.0492314   -3.4254455    1282.5531  0.076342448  0.075921808            4 
 1401000    1.0227148    -3.389025     1281.795  0.076242864  0.075909904            3 
 1402000    1.0331811   -3.4056217    1276.9864  0.075902661  0.075898648            3 
 1403000    1.0487836   -3.4119063    1281.5486  0.076119539  0.075887012            5 
 1404000    1.0445672   -3.3998669    1282.6038  0.076127955  0.075875754            3 
 1405000    1.0351732   -3.3865342    1283.2294  0.076110879  0.075864527            2 
 1406000    1.0182442   -3.4013248    1282.1988  0.075995662  0.075852973            2 
 1407000    1.0262303   -3.4172851    1288.1439  0.076293765  0.075841608            3 
 1408000    1.0508337   -3.3775867    1285.3053  0.076071572  0.075830407            3 
 1409000    1.0339651    -3.415817    1289.6801  0.076276322  0.075818909            2 
 1410000     1.005839   -3.3861727    1286.6267  0.076041765  0.075807351            3 
 1411000    1.0574741   -3.3872278    1286.9218  0.076005305  0.075795575            8 
 1412000     1.025278   -3.3819118    1285.8007  0.075885313  0.075784305            3 
 1413000    1.0047246   -3.3831268    1293.8095  0.076303931  0.075772614            2 
 1414000    1.0130308   -3.3884804    1288.7228  0.075950189  0.075761137            2 
 1415000    1.0182579   -3.4211104    1288.1123  0.075860561  0.075749553            1 
 1416000    1.0117514   -3.4018015    1289.1749  0.075869521  0.075737651            4 
 1417000    1.0520282   -3.4153443    1288.7913  0.075793417   0.07572591            2 
 1418000    1.0106639   -3.4052068    1299.7736  0.076385377  0.075714313            3 
 1419000    1.0178879   -3.3848031    1293.2877  0.075950653  0.075702053            2 
 1420000    1.0485669   -3.4040786    1297.6221  0.076151531  0.075690186            2 
 1421000    1.0416248    -3.393633    1299.7136  0.076220597  0.075678812            2 
 1422000     1.014604   -3.4065484    1293.8753  0.075824855  0.075667203            4 
 1423000    1.0095995   -3.4075198    1299.0053  0.076071992  0.075655753            3 
 1424000    1.0169175   -3.3993378    1294.7289  0.075768309  0.075643842            2 
 1425000    1.0218448   -3.4058738    1296.0094  0.075790021  0.075632416            3 
 1426000    1.0334613   -3.3802061    1296.5629  0.075769222  0.075620837            2 
 1427000    1.0371408   -3.3998341    1299.0739  0.075862759  0.075609139            6 
 1428000    1.0177376   -3.4176619     1300.454  0.075890171  0.075597299            3 
 1429000    1.0089886   -3.4231268     1300.097  0.075816245  0.075585496            2 
 1430000   0.99471072   -3.4078154    1302.9829  0.075931402  0.075573236            4 
 1431000    1.0027878   -3.3933894    1305.4648  0.076022874  0.075561629            4 
 1432000    1.0236658   -3.3858978    1299.4443  0.075619431  0.075549912            1 
 1433000    1.0271864    -3.408445    1303.9498  0.075828669  0.075538267            2 
 1434000    1.0208881   -3.4128207    1299.3725  0.075509789  0.075526178            2 
 1435000    1.0277548   -3.4041178    1307.5579  0.075932513  0.075514811            1 
 1436000    1.0206683   -3.4269584    1301.6113  0.075534546  0.075503247            2 
 1437000    1.0222351   -3.4067084    1302.7151   0.07554599  0.075491745            5 
 1438000    1.0235229   -3.3843941    1307.0963  0.075747349   0.07548051            3 
 1439000    1.0144791   -3.3829137    1310.9866  0.075920003   0.07546915            2 
 1440000    1.0105944   -3.3962383     1311.578  0.075901503  0.075457453            4 
 1441000    1.0325385   -3.4322706    1307.1917  0.075595172  0.075445268            3 
 1442000    1.0052713   -3.4125384    1308.3143  0.075607621  0.075433001            4 
 1443000    1.0259643   -3.4053069    1303.4203  0.075272597  0.075421199            3 
 1444000    1.0512035   -3.3942509    1308.3942  0.075507511  0.075408754            3 
 1445000     1.047837   -3.4067924    1302.0431  0.075088989  0.075396573            2 
 1446000     1.028917   -3.3832162    1311.4208  0.075577501  0.075384343            4 
 1447000    1.0271026   -3.4170774    1298.4337  0.074777337  0.075371964            3 
 1448000    1.0170831   -3.4053423    1309.1227  0.075340853  0.075359532            2 
 1449000     1.031056    -3.405529     1308.678  0.075263284  0.075346717            3 
 1450000    1.0325124   -3.3836853    1311.9022  0.075396676  0.075334133            2 
 1451000    1.0148178   -3.3807578    1314.8777  0.075515601   0.07532141            3 
 1452000     1.010876   -3.4209731    1311.3753  0.075262587  0.075308878            1 
 1453000    1.0300711   -3.4289237    1312.0436  0.075249118  0.075296181            3 
 1454000    1.0156662   -3.3934529      1311.03  0.075139271   0.07528361            2 
 1455000    1.0318548   -3.3943331     1317.236  0.075443068  0.075270972            2 
 1456000    1.0138608   -3.3908443    1316.2736  0.075336171  0.075258869            2 
 1457000   0.98823368   -3.4133097    1318.1449  0.075391493  0.075246211            3 
 1458000   0.98504633    -3.424686     1316.313  0.075235084  0.075233611            1 
 1459000    1.0057226   -3.4115251    1315.7924  0.075153783  0.075220966            3 
 1460000     1.031614   -3.4066991     1316.465  0.075140697   0.07520822            3 
 1461000    1.0260683   -3.3752827      1320.73  0.075332537  0.075195686            2 
 1462000     1.023706   -3.3964031    1320.9847  0.075295524  0.075183404            2 
 1463000     1.012346   -3.4278573     1322.767  0.075345583  0.075171154            3 
 1464000     1.017034    -3.405563    1323.8331    0.0753548  0.075158405            1 
 1465000    1.0147948    -3.437876    1322.7467  0.075241565  0.075145846            2 
 1466000    1.0303748   -3.4240181    1322.8899  0.075198378  0.075133629            1 
 1467000    1.0118485   -3.4163434    1322.8687  0.075145918  0.075121525            2 
 1468000    1.0167398   -3.4074006    1328.2599  0.075400769  0.075109248            2 
 1469000    1.0105763   -3.4095148    1325.7231  0.075205529  0.075096996            5 
 1470000    1.0162961   -3.4314871     1324.073  0.075060826  0.075084931            2 
 1471000    1.0318039   -3.4298881    1324.8992  0.075056603  0.075072719            4 
 1472000    1.0026069   -3.4005512    1325.4663  0.075037723  0.075060421            3 
 1473000    1.0173653   -3.4308718    1329.2181  0.075199035  0.075048111            2 
 1474000    1.0151313   -3.3812944    1333.2297  0.075374811  0.075036289            3 
 1475000    1.0031917   -3.3973764    1332.9422  0.075307467  0.075024128            4 
 1476000    1.0259123   -3.4207949    1325.3892  0.074830015   0.07501217            2 
 1477000    1.0143745   -3.4136072    1329.7646  0.075026216  0.074999394            4 
 1478000    1.0113186   -3.4070784    1330.9602  0.075042862  0.074987547            3 
 1479000    1.0483671   -3.4091835    1334.5812  0.075196143  0.074975232            1 
 1480000    1.0240371   -3.4177165    1337.6713  0.075319329  0.074963271            2 
 1481000     1.001045   -3.3888418    1331.0037  0.074893301  0.074951184            7 
 1482000    1.0078701   -3.4093876    1339.1511  0.075300891  0.074938729            4 
 1483000   0.98865252   -3.4160149    1335.1199  0.075023592  0.074926773            1 
 1484000    1.0190097    -3.414929    1342.9567  0.075413114  0.074914984            2 
 1485000    1.0241421    -3.423354     1334.936  0.074912231  0.074902775            3 
 1486000     1.023052   -3.4396088    1333.3741   0.07477423  0.074890458            1 
 1487000    0.9914015    -3.423414    1336.7812  0.074914882  0.074877892            5 
 1488000     1.012184   -3.4399473    1337.3812  0.074898139  0.074865777            4 
 1489000    1.0092783   -3.4191078    1340.9995   0.07505034   0.07485349            2 
 1490000    1.0177414   -3.4302827    1335.5532  0.074695371   0.07484093            2 
 1491000    1.0170628   -3.4190392    1335.3189  0.074632176  0.074828421            2 
 1492000    1.0203802   -3.4236827    1340.8526   0.07489123  0.074815704            4 
 1493000    1.0426434   -3.4224151    1334.8522  0.074506149  0.074802946            5 
 1494000    1.0202843   -3.4271574    1334.8421   0.07445572  0.074790545            4 
 1495000    1.0189717   -3.4116439    1345.8521  0.075019629  0.074778043            2 
 1496000     1.008809   -3.4427302     1341.679  0.074737022  0.074765634            1 
 1497000    1.0164014   -3.4174896    1341.0101  0.074649863  0.074753078            2 
 1498000    1.0183239   -3.4037207     1350.239  0.075113428  0.074740912            3 
 1499000    1.0262862   -3.4315142    1344.0313  0.074718216   0.07472833            1 
 1500000    1.0142279   -3.4069186    1347.1095  0.074839418  0.074715879            6 
 1501000    1.0492772   -3.4351547    1344.6647  0.074653825  0.074703148            3 
 1502000    1.0079296   -3.4539179    1345.0531  0.074625669  0.074690813            3 
 1503000     1.003288    -3.422131    1350.7944  0.074894344  0.074678262            4 
 1504000    1.0063024   -3.3932496    1350.0147  0.074801347  0.074666191            2 
 1505000    1.0276649   -3.4339736    1346.8916  0.074578718  0.074654217            2 
 1506000    1.0034978   -3.4189181    1351.2794  0.074771988  0.074642096            2 
 1507000    1.0014943    -3.424345    1353.2172  0.074829531  0.074629687            2 
 1508000    1.0046121   -3.4178859    1353.5812  0.074800024  0.074617886            3 
 1509000    1.0135573   -3.4003244    1352.0499  0.074665889  0.074605661            3 
 1510000    1.0128277    -3.385594    1355.7508  0.074820684  0.074593468            2 
 1511000    1.0148613   -3.4272029    1354.3571  0.074694303  0.074581413            1 
 1512000    1.0177531   -3.4221638    1352.4538      0.07454  0.074568945            4 
 1513000    1.0314943   -3.4575064    1348.4497  0.074270197  0.074556257            3 
 1514000   0.98688343   -3.4376566    1354.7924  0.074570257  0.074544044            5 
 1515000    1.0317798   -3.4290627    1356.8026  0.074631609  0.074531776            2 
 1516000     1.028572   -3.4464232     1350.777  0.074251154   0.07451897            8 
 1517000    1.0157816   -3.4164867    1355.9074  0.074484037  0.074506447            4 
 1518000   0.99436532   -3.4611435    1355.5691  0.074416398  0.074493742            2 
 1519000   0.99996959   -3.4263226    1353.9803  0.074280245  0.074481057            3 
 1520000    0.9831618    -3.423187    1357.8434  0.074443168  0.074468579            3 
 1521000    1.0022278   -3.4140486    1357.7787  0.074390681  0.074455993            2 
 1522000    1.0097487   -3.3933692    1361.3537  0.074537544  0.074443942            3 
 1523000   0.98829089   -3.4495053    1359.9571  0.074412186   0.07443137            2 
 1524000    1.0130837   -3.4138233    1362.9415  0.074526548  0.074418824            3 
 1525000    1.0056241   -3.4250337    1365.6621  0.074626345  0.074406056            4 
 1526000   0.99384718   -3.4291134    1362.3132  0.074394559  0.074393175            3 
 1527000    1.0349812   -3.4356029    1359.9726  0.074218107  0.074380578            5 
 1528000    1.0176897   -3.4445199    1362.5085  0.074307838  0.074368304            5 
 1529000     1.001677   -3.4165633    1372.5861  0.074808486  0.074356139            2 
 1530000    1.0116317   -3.4428071    1364.2129  0.074303537  0.074343711            2 
 1531000   0.98781762    -3.426629    1366.8226  0.074397048  0.074331006            3 
 1532000    1.0148763   -3.4239235    1366.4676  0.074329178  0.074318505            4 
 1533000    1.0159062    -3.468542    1359.4074  0.073896902  0.074305387            1 
 1534000   0.99688236   -3.4400231    1366.4212  0.074229746  0.074292329            4 
 1535000    1.0094539   -3.4301745    1366.2654  0.074172932   0.07427951            2 
 1536000    1.0159597   -3.4253055    1367.8648  0.074211413  0.074267233            3 
 1537000   0.98672929   -3.3951232     1371.928  0.074383431  0.074254646            1 
 1538000    0.9986536   -3.4392679    1372.9307  0.074389397  0.074242153            6 
 1539000    1.0232849   -3.4132505    1370.9903  0.074235991  0.074229573            1 
 1540000    1.0010434    -3.418432    1370.0041   0.07413442  0.074216981            2 
 1541000    1.0028228   -3.4604205    1368.2732   0.07399271   0.07420436            3 
 1542000    1.0078196   -3.4157216    1371.2549  0.074105863  0.074191418            4 
 1543000    1.0061169   -3.4308036    1368.5232  0.073910307  0.074179051            2 
 1544000    1.0061013   -3.4351036    1368.9932  0.073887802  0.074166322            4 
 1545000   0.98360566   -3.4421249    1371.9958  0.074001929  0.074153309            2 
 1546000    1.0085667   -3.4465656    1368.8923   0.07378678  0.074140416            2 
 1547000    1.0047537   -3.4460383    1374.4139  0.074036519  0.074127535            3 
 1548000     1.009544   -3.4485117    1380.9396  0.074339989  0.074114563            2 
 1549000   0.99213241   -3.4256195    1374.3184  0.073935789  0.074102165            4 
 1550000   0.99891361    -3.444295    1378.3512  0.074104903  0.074089254            3 
 1551000     1.004474   -3.4196824    1379.5293  0.074120425  0.074076933            1 
 1552000   0.99116583   -3.4288783    1379.6086  0.074076922  0.074064297            2 
 1553000   0.99002841   -3.4397167    1376.2714  0.073850151  0.074051367            2 
 1554000    1.0248693   -3.4429009    1380.6541  0.074037652  0.074038477            3 
 1555000   0.99991997   -3.4328901    1375.1677  0.073696021  0.074025511            4 
 1556000    1.0014218   -3.4515108    1375.6881  0.073676528  0.074012306            3 
 1557000    1.0063162   -3.3973547    1386.7611  0.074221852  0.073999289            1 
 1558000   0.99430433   -3.4549836    1383.9915  0.074026076  0.073986523            5 
 1559000    1.0221715    -3.437074    1380.5482  0.073794537   0.07397365            1 
 1560000   0.98840015   -3.4596305     1384.322  0.073948823  0.073960479            3 
 1561000   0.99739007   -3.4570968    1384.4304   0.07390724  0.073947668            1 
 1562000   0.99384979   -3.4205555    1385.5096  0.073917496  0.073934849            2 
 1563000    0.9782509    -3.455452     1380.477  0.073601889  0.073922139            3 
 1564000    1.0161239   -3.4570301    1384.8471  0.073787678  0.073908984            3 
 1565000   0.99555091   -3.4251194    1383.1774  0.073651617  0.073895844            4 
 1566000    1.0245165   -3.4287823    1388.5721  0.073891664  0.073882958            4 
 1567000    1.0136121   -3.4395127    1389.1766  0.073876655  0.073869642            3 
 1568000    1.0047446   -3.4432703    1384.6792   0.07359052  0.073856444            3 
 1569000    1.0260802   -3.3896054    1383.9208  0.073503336  0.073843226            3 
 1570000   0.99051279   -3.4436487    1383.6374  0.073441474   0.07383039            2 
 1571000    1.0023884   -3.4263044    1393.2415  0.073904173  0.073817395            5 
 1572000    1.0065953    -3.437071    1386.8139   0.07351643  0.073804691            3 
 1573000    1.0153831   -3.4301184    1388.2057  0.073543427  0.073792391            3 
 1574000     1.001469   -3.4249314    1391.8677  0.073690582   0.07377957            1 
 1575000     0.985071    -3.425975    1395.2286   0.07382162  0.073766985            3 
 1576000    1.0215019   -3.4392868    1395.5245  0.073790424  0.073754348            4 
 1577000    1.0253075   -3.4276472    1395.7275   0.07375436  0.073741415            2 
 1578000   0.99683373   -3.4346808    1395.6748  0.073704838   0.07372889            5 
 1579000   0.99252913   -3.4577982    1395.9774  0.073674128   0.07371586            2 
 1580000    1.0012653   -3.4242391    1394.3267  0.073540439  0.073703203            3 
 1581000   0.99934969    -3.446357    1396.4666  0.073606713  0.073689967            2 
 1582000   0.99387003   -3.4534069    1386.5392  0.073037253  0.073676724            2 
 1583000    1.0040182   -3.4365619    1393.6058   0.07336312  0.073663618            3 
 1584000    1.0134305   -3.4538118    1394.3436  0.073355621  0.073650296            3 
 1585000     1.004019   -3.4216578    1395.2306  0.073355973  0.073636784            3 
 1586000    1.0132079   -3.4148421    1401.5258  0.073640492  0.073623882            2 
 1587000   0.98216619   -3.4350859    1404.1336  0.073731022  0.073610959            2 
 1588000    1.0052127   -3.4193004    1407.4886  0.073860651  0.073598181            3 
 1589000   0.97237132    -3.438282    1404.7406  0.073670056  0.073585283            3 
 1590000   0.98737182   -3.4358937    1399.9875  0.073374607  0.073572137            8 
 1591000   0.99165253   -3.4376827     1399.773  0.073317254  0.073559392            1 
 1592000    1.0191891   -3.4672634    1398.6718  0.073213557  0.073546777            1 
 1593000   0.98440549   -3.4684297    1404.7056  0.073483239  0.073533885            2 
 1594000   0.98783202   -3.4567102    1407.6512  0.073591133  0.073521112           12 
 1595000   0.99499435   -3.4546338    1408.8869  0.073609556  0.073508472            4 
 1596000   0.99022157   -3.4367641    1406.4812  0.073437826  0.073495795            4 
 1597000   0.99254119   -3.4376435    1409.4652  0.073547545  0.073482759            5 
 1598000   0.98857461    -3.461668    1405.6539  0.073302768  0.073470003            3 
 1599000    1.0038802   -3.4627808    1410.8769  0.073529125   0.07345752            2 
 1600000    1.0074881   -3.4292163    1407.9736  0.073331957  0.073445067            3 
 1601000    1.0008789   -3.4479712    1409.1084  0.073345224   0.07343253            3 
 1602000   0.98192783   -3.4629979     1413.783  0.073542601  0.073420182            3 
 1603000    0.9877734   -3.4488067    1408.0619  0.073199309  0.073407886            2 
 1604000   0.97799507   -3.4186322     1419.347  0.073739971  0.073395555            4 
 1605000   0.98811005   -3.4208817    1414.6362   0.07344944  0.073383463            2 
 1606000   0.97692506   -3.4495295    1416.8883  0.073520566  0.073371206            2 
 1607000   0.99259672   -3.4398385    1413.1851  0.073282776  0.073359193            2 
 1608000    1.0077579   -3.4445451    1412.7865  0.073216545  0.073347082            3 
 1609000   0.98597679   -3.4488827    1422.7381  0.073686459  0.073335167            2 
 1610000    1.0015683    -3.433745    1417.8746  0.073388953  0.073323064            2 
 1611000   0.98054647   -3.4501471    1420.0863  0.073457808  0.073311236            2 
 1612000   0.99569047   -3.4446293    1421.5411  0.073487442  0.073299334            3 
 1613000   0.99711157   -3.4264698    1416.3975  0.073176149  0.073287027            3 
 1614000   0.98646378   -3.4485145    1416.1227  0.073116618  0.073274495            5 
 1615000   0.97202758   -3.4531187      1420.75  0.073310113  0.073262205            6 
 1616000   0.98287555   -3.4217553    1422.2283   0.07334098  0.073249835            3 
 1617000   0.99729479   -3.4425134    1424.7087  0.073423455  0.073237715            4 
 1618000   0.98710975   -3.4389571    1428.0024  0.073547714  0.073225521            3 
 1619000   0.97514772   -3.4443123    1420.6067  0.073121612  0.073212858            4 
 1620000   0.96431548   -3.4480563    1424.3102  0.073266984  0.073200369            4 
 1621000   0.98135363   -3.4569697    1419.3545  0.072967023  0.073187662            5 
 1622000   0.98526694   -3.4461962     1422.987  0.073108662  0.073175135            2 
 1623000   0.97613482   -3.4595182     1428.525  0.073347968  0.073162827            5 
 1624000   0.99869477   -3.4373011    1428.7139  0.073312497  0.073150661            1 
 1625000   0.97494126   -3.4505673    1432.4981  0.073461443  0.073138306            2 
 1626000   0.97251481   -3.4380398    1431.7854  0.073379734  0.073126362            3 
 1627000   0.99330576   -3.4133911    1430.0744  0.073246997  0.073114379            2 
 1628000    0.9872586   -3.4260942     1427.475  0.073068948  0.073102239            3 
 1629000    1.0018407   -3.4448074    1429.6516  0.073135441  0.073089996            2 
 1630000     1.006809    -3.436546    1429.1836  0.073066646  0.073077636            4 
 1631000   0.98001403   -3.4047378     1432.574  0.073195076  0.073065587            2 
 1632000   0.97231646   -3.4339944    1432.7875  0.073161127  0.073053456            2 
 1633000   0.98487626   -3.4512124     1433.712  0.073163505  0.073041469            2 
 1634000   0.98349323   -3.4632232    1432.6667  0.073065415  0.073029494            4 
 1635000   0.99373847   -3.4425646    1436.9376  0.073238409  0.073017578            3 
 1636000   0.98747151   -3.4478694     1431.926  0.072938368  0.073005697            7 
 1637000    1.0005063   -3.4539057    1433.8144   0.07298994   0.07299344            1 
 1638000   0.98922994   -3.4610857    1433.6248  0.072935737  0.072981316            7 
 1639000   0.99243374   -3.4343368     1441.049  0.073268708  0.072969279            5 
 1640000   0.97572124   -3.4562487    1437.4392  0.073040612  0.072957343            2 
 1641000   0.97606401     -3.48668    1439.4767   0.07309957  0.072945335            3 
 1642000   0.97276332   -3.4412648    1439.7425  0.073068542  0.072933887            3 
 1643000    1.0190287   -3.4443514    1443.8669  0.073233257  0.072922423            3 
 1644000   0.99020708   -3.4456865    1444.2507  0.073208164  0.072910908            4 
 1645000   0.99013755   -3.4919933    1436.1636   0.07275398  0.072899094            2 
 1646000   0.98141189   -3.4797089    1445.0584  0.073160103  0.072886891            4 
 1647000   0.99484209   -3.4289665    1448.5997  0.073294866  0.072875224            2 
 1648000   0.98937291    -3.427141    1443.4945   0.07299224  0.072863582            2 
 1649000   0.97443048   -3.4612247    1447.2914  0.073139851   0.07285134            2 
 1650000   0.98404029   -3.4667359    1438.9481  0.072674146  0.072839102            3 
 1651000    1.0041138   -3.4624294     1446.479  0.073010246  0.072826804            4 
 1652000   0.99020999   -3.4442312     1447.418  0.073013418  0.072814798            2 
 1653000   0.97430021    -3.455697    1447.4443  0.072970572  0.072802772            3 
 1654000   0.96456774   -3.4818089     1446.766  0.072892282   0.07279037            2 
 1655000   0.98051732    -3.442275    1449.2491  0.072973268   0.07277817            4 
 1656000    1.0006338   -3.4675479     1446.591  0.072795441  0.072765824            6 
 1657000    0.9647854    -3.446158    1453.2317  0.073085478  0.072753557            2 
 1658000   0.96562273   -3.4679491    1442.7578  0.072514969  0.072741365            2 
 1659000   0.97857272   -3.4633227    1450.5086  0.072860588  0.072729095            1 
 1660000   0.98803141   -3.4405187    1450.2549  0.072803963  0.072717226            2 
 1661000   0.98769237    -3.464361    1452.9157  0.072893622  0.072705263            2 
 1662000   0.97526832   -3.4591583    1449.7509  0.072691079  0.072693416            5 
 1663000   0.97764199   -3.4665309    1451.2806  0.072724024  0.072681617            2 
 1664000    1.0077781   -3.4432196    1455.3863  0.072885934  0.072669864            7 
 1665000   0.98675043   -3.4613957    1459.5536   0.07305073  0.072657948            4 
 1666000   0.98654567   -3.4501829     1457.717  0.072915018   0.07264574            3 
 1667000   0.97212971   -3.4408533    1462.8148  0.073126113  0.072633718            2 
 1668000   0.97447521   -3.4473467    1457.5152  0.072817507   0.07262194            3 
 1669000    1.0097719   -3.4802863    1461.1501  0.072955369  0.072609936            1 
 1670000    1.0005979   -3.4592268    1455.1554  0.072612544  0.072597853            5 
 1671000   0.99110056   -3.4240266    1465.6977  0.073094836  0.072586008            2 
 1672000   0.98599945   -3.4462018    1451.9044  0.072363657  0.072573993            3 
 1673000   0.99189835   -3.4436155    1458.2582   0.07263689  0.072562271            3 
 1674000   0.98981999   -3.4535072    1465.0263  0.072930423  0.072550817            4 
 1675000   0.98906064   -3.4667049    1462.7052  0.072771401  0.072539207            5 
 1676000   0.98631185   -3.4562512     1462.116  0.072698687  0.072527614            3 
 1677000   0.97149124   -3.4599331    1464.5174  0.072774668  0.072515927            2 
 1678000   0.97826997   -3.4790556    1458.8944  0.072452044  0.072504134            2 
 1679000   0.98150467   -3.4624827    1460.1969  0.072473543  0.072492196            3 
 1680000   0.97644853   -3.4837732    1463.3494  0.072586776  0.072480548            3 
 1681000   0.96557496   -3.4302119    1465.3597  0.072643252  0.072468663            4 
 1682000   0.97313883   -3.4544587    1468.0263  0.072732177  0.072456791            3 
 1683000   0.97687498   -3.4616959    1460.6257  0.072322526  0.072444778            6 
 1684000   0.98247629   -3.4582881    1468.3895  0.072663774  0.072432803            5 
 1685000   0.99490148   -3.4606702    1472.3886  0.072818427  0.072420986            1 
 1686000   0.99994777   -3.4416627    1470.5632  0.072685016  0.072409034            2 
 1687000   0.98754045   -3.5113366    1465.0352  0.072368858  0.072396994            2 
 1688000   0.97264333   -3.4742927    1466.0773  0.072377433  0.072384476            5 
 1689000    0.9634741   -3.4851388    1468.4987  0.072454052  0.072372075            2 
 1690000   0.97006269   -3.4846519    1466.2362  0.072299615  0.072359723            2 
 1691000    1.0057083   -3.4591824    1470.1295  0.072448723  0.072347393            2 
 1692000   0.98263621   -3.4927517    1468.1053  0.072306212  0.072335153            4 
 1693000   0.96162421   -3.4697783    1469.8877  0.072351237  0.072323045            4 
 1694000   0.99442882   -3.4658461    1475.2303  0.072571346   0.07231087            3 
 1695000   0.98953318    -3.446511    1475.1121  0.072522717   0.07229875            2 
 1696000    0.9589284   -3.4739657     1472.867  0.072369645  0.072286265            3 
 1697000   0.97699538   -3.4564326    1468.3307  0.072104236  0.072273755            2 
 1698000   0.96969905   -3.4552782    1475.2136  0.072399567   0.07226109            3 
 1699000   0.98481369   -3.4567835    1478.1845  0.072502674   0.07224865            1 
 1700000    0.9724153    -3.475973    1471.6035  0.072137427  0.072236402            2 
 1701000   0.98697341   -3.4980677    1475.6695  0.072294216  0.072224146            1 
 1702000   0.99646557   -3.4776382    1480.5744  0.072491891  0.072212221            2 
 1703000   0.99946798   -3.4709697    1478.2928   0.07233768  0.072200126            3 
 1704000    0.9853462   -3.4651726    1480.2631  0.072391585  0.072188094            4 
 1705000   0.97501208   -3.4615969    1481.2395  0.072396846  0.072175961            8 
 1706000   0.96661372   -3.4938459    1480.1161  0.072299534  0.072164184            4 
 1707000   0.97208096    -3.477515    1476.3991  0.072075724  0.072152295            3 
 1708000   0.96642145   -3.4766613    1485.6072  0.072482788   0.07214014            3 
 1709000   0.97236843   -3.4766943    1479.8541  0.072159846  0.072127942            3 
 1710000   0.99562575   -3.4851268    1481.0106  0.072174007  0.072115683            8 
 1711000   0.96728252   -3.4839258    1478.1661  0.071993285  0.072103415            2 
 1712000   0.96185907   -3.4409283    1487.0945  0.072385832  0.072091255            3 
 1713000   0.96805095   -3.4630188    1486.8114  0.072329802  0.072079413            3 
 1714000   0.98119582   -3.4987368    1483.0827  0.072106317  0.072067539            3 
 1715000   0.98699798   -3.4720759     1490.812  0.072439843  0.072055347            3 
 1716000   0.95551853   -3.4888749    1477.7312  0.071762392  0.072043236            2 
 1717000   0.98791816   -3.4655365     1488.324  0.072234713  0.072031115            2 
 1718000   0.96202493    -3.458961    1482.7633  0.071922939  0.072019059            7 
 1719000   0.96256206   -3.5020948    1486.1453   0.07204505  0.072006757            3 
 1720000   0.97401175   -3.4436856    1497.6083  0.072558542  0.071994662            2 
 1721000   0.98155296   -3.4768256    1490.6573  0.072179803  0.071982783            2 
 1722000     0.969337   -3.4421808    1494.6809  0.072332602  0.071971067            5 
 1723000   0.98974728   -3.4706873    1493.4704  0.072232077  0.071959122            2 
 1724000   0.97571356   -3.4796173      1496.28  0.072325984  0.071946915            4 
 1725000   0.96784417   -3.4655707    1490.0801  0.071984544  0.071935257            3 
 1726000   0.98553706   -3.4960264    1502.4958  0.072542286  0.071923362            2 
 1727000   0.96598783   -3.4630306    1500.0462  0.072382078  0.071911593            2 
 1728000    0.9558339   -3.4834784    1497.4304  0.072214044  0.071899845            4 
 1729000   0.96824682    -3.477773    1485.8878  0.071615951  0.071888214            5 
 1730000   0.96509637   -3.4733394    1497.1356  0.072116358  0.071876275            1 
 1731000   0.97673533    -3.436766    1494.2011  0.071933426  0.071864235            2 
 1732000   0.97573876   -3.4792962    1496.2203  0.071989043  0.071852251            2 
 1733000   0.97976452   -3.4675961    1500.0642  0.072132343   0.07184046            2 
 1734000   0.97456314   -3.4354942    1498.3115   0.07200651  0.071828546            7 
 1735000   0.97243931   -3.4724387     1490.403  0.071585156  0.071816342            3 
 1736000   0.96425771   -3.4737859    1498.5975  0.071937286  0.071803959            1 
 1737000   0.95976085   -3.4864893    1497.8736  0.071861142  0.071791454            2 
 1738000   0.98266083   -3.4901397    1499.0794   0.07187761  0.071779099            3 
 1739000   0.97364384   -3.4911162    1496.8239  0.071728193  0.071766509            5 
 1740000   0.97190842   -3.4978724    1497.9105   0.07173901  0.071754049            1 
 1741000   0.97663408   -3.4734721    1506.8373  0.072125087  0.071741659            5 
 1742000   0.98339581   -3.4697704    1500.2462   0.07176838  0.071729404            2 
 1743000   0.97447085   -3.4655013    1497.9567  0.071617741  0.071717214            1 
 1744000   0.96701159   -3.4765799    1503.4653  0.071839892  0.071705329            3 
 1745000   0.97436732   -3.4510367    1509.7022  0.072096571  0.071693372            1 
 1746000   0.97707638   -3.4928305    1502.6588  0.071719108  0.071680971            3 
 1747000   0.95700475   -3.4860274     1504.231  0.071753051  0.071668544            4 
 1748000   0.98317311   -3.4746344     1505.383  0.071766923  0.071656135            3 
 1749000    0.9916756   -3.4776563    1503.9409  0.071657179  0.071643508            4 
 1750000   0.97140628   -3.4761122    1501.7375  0.071511311   0.07163071            4 
 1751000   0.98065236   -3.4572343     1507.438  0.071741769  0.071617984            7 
 1752000   0.97264251   -3.5010251    1505.6396  0.071615276  0.071605532            2 
 1753000   0.97617053   -3.5057601    1507.1179  0.071644702  0.071593164            4 
 1754000   0.96213089   -3.4498316    1509.0667  0.071696443   0.07158065            3 
 1755000   0.97671636   -3.4667632    1508.8492  0.071645259  0.071567984            2 
 1756000   0.95808749   -3.5133092    1504.6985  0.071407486  0.071555478            2 
 1757000   0.99458162   -3.5049032    1506.6326  0.071458573  0.071542819            3 
 1758000   0.96588442   -3.4686018    1508.3753  0.071500536  0.071530038            4 
 1759000    0.9923139   -3.4831232    1510.1079   0.07154197  0.071517574            1 
 1760000   0.97744741   -3.4760444    1508.6575  0.071432645  0.071505147            1 
 1761000   0.99052349   -3.4581153     1510.084  0.071459586  0.071492686            3 
 1762000   0.97404392   -3.4859058    1511.3787  0.071480263  0.071480355            4 
 1763000   0.98311869   -3.4612365    1511.7933  0.071459315  0.071467886            3 
 1764000     0.958143   -3.4691449    1518.1499    0.0717191  0.071455469            2 
 1765000   0.96502521   -3.4676344    1514.3701  0.071500004  0.071443102            2 
 1766000   0.97853232   -3.4917278    1519.7532  0.071713535  0.071430715            2 
 1767000   0.99100283   -3.4798059    1517.7448  0.071578231  0.071418468            3 
 1768000   0.95795235   -3.5178115    1515.0743  0.071411872  0.071405735            5 
 1769000   0.97160657   -3.4898448    1513.2126  0.071283807  0.071392783            4 
 1770000   0.95651686   -3.4989548    1520.2875  0.071576623  0.071380199            2 
 1771000   0.97129877   -3.5061634    1513.3105  0.071207909  0.071367332            2 
 1772000    0.9694109   -3.4548058     1516.432  0.071314522  0.071354586            3 
 1773000    0.9848027   -3.4601764     1516.889  0.071295779  0.071342155            2 
 1774000   0.99186115   -3.5076883    1512.6446  0.071056209  0.071329631            6 
 1775000   0.97659243   -3.4623138    1521.6246  0.071437776  0.071316926            2 
 1776000   0.96262064   -3.4895488      1520.86  0.071361675  0.071304123            2 
 1777000   0.95873311   -3.4829627       1519.2   0.07124367  0.071291558            2 
 1778000   0.97639827   -3.4985075    1521.4105  0.071307202  0.071278951            4 
 1779000   0.98049054   -3.5013493    1516.8714  0.071054497  0.071266334            7 
 1780000   0.97124993   -3.4840598    1524.3902   0.07136658  0.071253531            3 
 1781000   0.97177718   -3.5020533    1520.4683  0.071143004  0.071241299            7 
 1782000   0.96362125   -3.5004123    1523.1041   0.07122634  0.071228665            2 
 1783000   0.96642183   -3.4900126    1514.6942  0.070793335  0.071216129            4 
 1784000   0.98173451   -3.4842796    1519.5996  0.070982792  0.071203216            4 
 1785000   0.95514336   -3.4943797     1520.286  0.070975072  0.071190335            3 
 1786000   0.97257991   -3.4926117    1519.9058  0.070917591  0.071177206            9 
 1787000   0.95224896   -3.4720901    1527.0743  0.071212193  0.071164333            2 
 1788000   0.94990229   -3.4886633    1525.2163  0.071085773  0.071151381            5 
 1789000    0.9729077   -3.4857099    1527.6786  0.071160733  0.071138543            3 
 1790000   0.95186009   -3.4988845    1528.8444   0.07117525  0.071126009            3 
 1791000   0.95062995   -3.4706499    1526.1433  0.071009831  0.071113186            4 
 1792000   0.96511156   -3.5120412    1522.8533  0.070817213  0.071100427            2 
 1793000   0.95311978   -3.5051591    1527.0259  0.070971643  0.071087895            4 
 1794000   0.97392694   -3.4841207    1532.0143  0.071163802  0.071075384            3 
 1795000   0.95348421   -3.5079467    1526.6489  0.070875065  0.071062504           10 
 1796000   0.94322042   -3.5252857    1526.1084  0.070810524  0.071049534            1 
 1797000   0.98470854    -3.489403    1523.6408  0.070656688  0.071036573            3 
 1798000   0.95308787   -3.4930178    1537.2094  0.071246265  0.071023837            3 
 1799000   0.97197551   -3.4715224    1536.6313  0.071179882  0.071011314            2 
 1800000   0.97870294   -3.5017056    1532.9275  0.070968867  0.070998616            3 
 1801000   0.98838765   -3.5045122    1532.1167  0.070891942  0.070985953            2 
 1802000   0.96785892    -3.483278    1534.8095  0.070977134  0.070973559            2 
 1803000   0.97585688   -3.4977172     1534.165  0.070907979  0.070960926            2 
 1804000   0.99021499   -3.4775809    1536.8232  0.070991464  0.070948288            4 
 1805000   0.97925286   -3.4956027     1537.929  0.071003186  0.070935862            3 
 1806000   0.96100802   -3.4650326    1539.9593  0.071057553  0.070922965            2 
 1807000   0.97825924   -3.4758327     1532.372  0.070668328   0.07091014            2 
 1808000   0.95798126   -3.5091386    1536.7132  0.070829332  0.070897335            2 
 1809000   0.94385873     -3.46601    1536.6259  0.070786159  0.070884381            2 
 1810000   0.96794732   -3.4742362     1542.972  0.071039225  0.070871961            5 
 1811000   0.98636771    -3.472121    1537.4212  0.070744577  0.070859159            2 
 1812000   0.95128761   -3.4961802     1539.371   0.07079521  0.070846209            2 
 1813000   0.98272422   -3.4879606    1537.8282  0.070685246  0.070832978            7 
 1814000   0.98414153   -3.4760159    1544.0811   0.07093353  0.070820093            3 
 1815000   0.97180809   -3.4898988    1538.1569  0.070622447  0.070806974            3 
 1816000   0.95925644   -3.4941429    1537.2608  0.070542436  0.070793872            2 
 1817000   0.96757271   -3.4786587    1539.8729  0.070623413  0.070780846            3 
 1818000    0.9513404   -3.4788599    1542.4854   0.07070432  0.070767868            2 
 1819000   0.97047205   -3.4919948    1547.2794  0.070885076  0.070754921            4 
 1820000   0.96431241   -3.5070719     1543.436  0.070670147  0.070741816            3 
 1821000   0.94128381   -3.4802675    1540.9643  0.070518225  0.070728691            4 
 1822000   0.98096333   -3.5006355    1541.5814  0.070507749  0.070715449            5 
 1823000   0.96285622   -3.5198315    1541.0256  0.070443666  0.070702136            7 
 1824000   0.97608011   -3.5420219    1536.4394  0.070195515    0.0706888            5 
 1825000   0.95665323   -3.4687563     1546.789  0.070629633  0.070675454            2 
 1826000    0.9667589   -3.5095401    1546.7325  0.070588378  0.070662432            5 
 1827000   0.95451868   -3.5135069    1543.1338  0.070385595  0.070649359            5 
 1828000   0.94363911   -3.5094245    1547.4652  0.070544547  0.070636496            4 
 1829000   0.97258681    -3.500736    1550.0862  0.070625396  0.070623553            3 
 1830000   0.96029666   -3.5195918    1542.8647  0.070257956  0.070610668            3 
 1831000   0.94804985   -3.4948998    1559.6522  0.070983625  0.070597949            2 
 1832000   0.96322721   -3.5255808    1544.7514  0.070267074  0.070584978            2 
 1833000   0.97503021   -3.5018851    1554.6577  0.070679109  0.070572264            2 
 1834000    0.9733003   -3.5089387    1552.2254  0.070530054   0.07055972            2 
 1835000   0.94604794   -3.5104946    1545.6267  0.070191947  0.070546947            4 
 1836000   0.95683275   -3.4988463    1554.8806   0.07057374  0.070534206            2 
 1837000   0.94606347   -3.4783887    1552.9215  0.070446449  0.070521718            3 
 1838000   0.96004914   -3.4991165    1552.8029  0.070402744   0.07050899            1 
 1839000   0.95550095    -3.473567    1560.3129  0.070704774  0.070496328            2 
 1840000   0.95402934   -3.5047515    1552.5742   0.07031586  0.070483497            5 
 1841000   0.95196822   -3.5083385    1554.7616  0.070376678  0.070470996            5 
 1842000   0.93802343   -3.4973861    1562.0544  0.070668406  0.070458146            4 
 1843000   0.96443162   -3.4935458    1560.0582  0.070539801  0.070445752            3 
 1844000   0.97067889   -3.5079505    1554.9201  0.070269346   0.07043304            1 
 1845000   0.94537536   -3.4675871     1560.077  0.070464181  0.070420403            2 
 1846000   0.96755218   -3.4764613    1557.4162  0.070305896  0.070407756            3 
 1847000   0.96442393   -3.5061232    1562.4317  0.070494121  0.070395343            3 
 1848000   0.98660076   -3.5375148    1557.6143   0.07023874  0.070382626            4 
 1849000   0.97416872   -3.5035683    1560.4712  0.070329512  0.070370156            2 
 1850000   0.95441646   -3.5035488    1563.9234  0.070447002  0.070357442            2 
 1851000   0.97238765   -3.4883702    1565.0139  0.070458034  0.070345025            2 
 1852000   0.96044365   -3.5217595    1560.2324  0.070204841  0.070332435            3 
 1853000   0.94265738   -3.4979315    1562.8837  0.070286188  0.070319473            2 
 1854000   0.94605614   -3.4883248    1561.1576  0.070170696  0.070306441            3 
 1855000   0.93976347    -3.480357    1562.5933  0.070197364  0.070293876            3 
 1856000   0.94749136   -3.5068552    1568.6308   0.07043062   0.07028084            3 
 1857000   0.95632366   -3.4852105    1565.6969  0.070261033   0.07026788            4 
 1858000   0.95577605   -3.5209461    1557.5681  0.069858632  0.070254917            6 
 1859000   0.97010466   -3.5112958    1563.5138  0.070087582  0.070241805            2 
 1860000   0.97350074   -3.5192968    1567.0182  0.070206908   0.07022861            3 
 1861000   0.95289768   -3.5154018    1558.2328  0.069775783  0.070215388            2 
 1862000   0.94800201   -3.4731228    1564.6579  0.070025862  0.070202224            6 
 1863000   0.96288058   -3.4998348    1564.7927  0.069994305  0.070189151            2 
 1864000    0.9700259   -3.5233304    1562.3131  0.069845899  0.070175773            3 
 1865000   0.93482282   -3.4796038    1574.6953   0.07036172  0.070162288            3 
 1866000   0.93928949   -3.4889047    1566.5685  0.069961078  0.070148976            2 
 1867000   0.96185063   -3.4922125    1563.9495  0.069806707  0.070135599            3 
 1868000   0.95900181   -3.5027144    1568.7248  0.069982368  0.070122273            9 
 1869000   0.93463544   -3.5292896    1565.2661  0.069790711  0.070108507            4 
 1870000   0.94009576   -3.4863765    1567.1472  0.069837221  0.070095064            4 
 1871000   0.95889702   -3.5007054     1563.594  0.069641637   0.07008165            1 
 1872000   0.93306924   -3.5146219    1571.1906  0.069942601  0.070068077            3 
 1873000   0.93982412   -3.4822331    1571.0724  0.069899999  0.070054759            5 
 1874000   0.93877347   -3.4883863    1570.3396  0.069830112  0.070041384            5 
 1875000   0.97288602   -3.4904654    1573.1804  0.069919127  0.070028099            2 
 1876000   0.93347273   -3.5335048     1566.731  0.069595372  0.070014827            3 
 1877000   0.94280831   -3.5042511    1570.0455  0.069705449  0.070001462            2 
 1878000   0.93924651   -3.5065198    1576.1889  0.069940937  0.069988286            2 
 1879000   0.94717158   -3.5161506    1575.0678  0.069853991  0.069974903            2 
 1880000   0.95098824   -3.5106923     1575.403  0.069831692  0.069961706            4 
 1881000   0.93846889   -3.5019195    1571.3488  0.069614955   0.06994802            3 
 1882000   0.96639957     -3.52058    1573.6643  0.069680494  0.069934422            2 
 1883000    0.9447546   -3.5283547    1574.1275  0.069663988  0.069920654            4 
 1884000   0.91889096    -3.527454    1570.2833  0.069456977  0.069906835            5 
 1885000   0.94551822   -3.5398682    1569.6733  0.069393161  0.069893221            2 
 1886000   0.94033378   -3.5255841    1575.6586  0.069620828  0.069879665            2 
 1887000   0.94891467   -3.5120192    1572.8066  0.069457986  0.069865964            6 
 1888000   0.96866845   -3.5043088    1572.3037  0.069398996  0.069852596            3 
 1889000   0.96314262   -3.5049772    1579.2388  0.069668202  0.069839047            4 
 1890000   0.94294736   -3.5349797    1577.6076   0.06955942  0.069825558            2 
 1891000   0.94735671   -3.5278802    1578.1514  0.069546596  0.069812199            3 
 1892000   0.93039842   -3.4998562    1576.6633  0.069444296  0.069798906            4 
 1893000   0.95443871   -3.5069417    1581.5862  0.069624328  0.069785401            3 
 1894000   0.94598683   -3.5079359    1577.3332  0.069400442  0.069771532            1 
 1895000   0.94339495   -3.5192407    1579.7829  0.069471546  0.069757772            3 
 1896000   0.94704987   -3.4937673    1573.7289  0.069168818  0.069743832            4 
 1897000   0.94532654   -3.5032627    1574.9112  0.069184291  0.069729722            2 
 1898000   0.93607223     -3.53429    1572.0112  0.069020514  0.069715729            3 
 1899000   0.95082786    -3.492545    1581.1903  0.069386972  0.069701727            2 
 1900000   0.91763509   -3.5129704    1575.0923  0.069082996  0.069687888            6 
 1901000   0.93496116   -3.4797511    1575.7042  0.069073477  0.069673939            1 
 1902000   0.95113153   -3.5119103    1579.9887  0.069224882  0.069659899            2 
 1903000   0.93169473   -3.5165822    1582.4937  0.069298199  0.069646134            4 
 1904000   0.95390626   -3.5117174    1584.1349  0.069333635  0.069632612            2 
 1905000   0.96525358   -3.5126476    1583.2697   0.06925939  0.069618877            2 
 1906000   0.95122428   -3.5127221    1589.7122  0.069504729  0.069604906            2 
 1907000   0.93437474   -3.5197967    1585.4783  0.069283269  0.069591139            5 
 1908000   0.93860256   -3.5256344    1579.6496  0.068992384  0.069577371            3 
 1909000   0.95863014   -3.5205489    1587.8282  0.069313261  0.069563559            3 
 1910000   0.95918106   -3.5383642     1580.931  0.068976046  0.069549733            3 
 1911000   0.94790498   -3.5065664    1586.1861  0.069169112  0.069536027            2 
 1912000     0.948011   -3.5080928    1585.7728  0.069114925  0.069522176            2 
 1913000   0.97161544   -3.5009202    1587.1297  0.069137904  0.069508346            3 
 1914000   0.94232878    -3.523021    1587.6043  0.069122446  0.069494513            6 
 1915000   0.95532418   -3.5338039    1585.7884   0.06900733   0.06948063            5 
 1916000   0.93527826   -3.5147387    1587.5409  0.069047535   0.06946687            2 
 1917000   0.93172079   -3.5256021    1586.9991  0.068987964  0.069452796            2 
 1918000    0.9452957   -3.5163498    1588.6855  0.069025263  0.069439136            2 
 1919000   0.95911361   -3.5167185    1583.8478  0.068779218  0.069425359            3 
 1920000   0.93722026    -3.530793    1588.9791  0.068966109   0.06941143            2 
 1921000   0.93094294   -3.5140996     1590.694    0.0690046  0.069397867            2 
 1922000   0.93081685   -3.5029854    1595.3896  0.069172286   0.06938407            2 
 1923000   0.93414865    -3.541517    1591.7597  0.068979014  0.069370034            3 
 1924000   0.93725219   -3.5340446     1592.688  0.068983366  0.069356177            2 
 1925000   0.94917649   -3.5153818    1591.1475  0.068880844  0.069342153            2 
 1926000   0.96145269    -3.517681    1594.6838  0.068998086  0.069327969            3 
 1927000   0.93437295   -3.4866541    1595.8098  0.069010976  0.069314136            4 
 1928000    0.9563068   -3.5055144    1589.5131  0.068703022   0.06930033            4 
 1929000   0.96090264   -3.5126228    1595.0185   0.06890524  0.069286297            3 
 1930000   0.93233461   -3.5113605    1593.1287   0.06878794  0.069272343            2 
 1931000   0.94061932   -3.5355342    1596.7611  0.068909078  0.069258245            6 
 1932000    0.9326441   -3.5368381    1596.4675  0.068860743  0.069244384            4 
 1933000   0.95532757   -3.5121908    1596.6705  0.068833871  0.069230431            2 
 1934000   0.94746624   -3.5549425    1590.1183  0.068515954  0.069216642            3 
 1935000   0.94022499   -3.5215608    1594.8741  0.068685362  0.069202953            2 
 1936000   0.97871213   -3.5076867    1599.9371  0.068867814  0.069189091            3 
 1937000    0.9394436   -3.5013358    1606.4354  0.069111831  0.069175192            3 
 1938000   0.94161956   -3.5146856    1598.9705  0.068755181  0.069161396            3 
 1939000   0.95775112   -3.5005473    1603.2684  0.068904433  0.069147539            2 
 1940000   0.93212729   -3.5611262    1600.1288  0.068734054  0.069133701            2 
 1941000   0.93208038   -3.5077208    1612.1442  0.069214504  0.069119944            4 
 1942000   0.93813487   -3.5358662    1600.5233  0.068680198  0.069106384            6 
 1943000   0.96319393   -3.5285201    1606.3561  0.068895011  0.069092775            3 
 1944000   0.93368361   -3.5058813    1604.5047   0.06878021  0.069079179            3 
 1945000   0.93441886   -3.5364865    1604.2433  0.068733646  0.069065925            1 
 1946000   0.93570541   -3.5289054    1603.9131  0.068684184  0.069052507            4 
 1947000   0.95841932   -3.5060967    1609.3742  0.068882648  0.069038979            7 
 1948000   0.92746317   -3.5235259    1608.5444  0.068811791  0.069025343            4 
 1949000   0.94369269   -3.5131313    1611.8853  0.068919328  0.069011815            2 
 1950000   0.94418526   -3.4982062    1607.1163  0.068680184  0.068998538            2 
 1951000   0.94037057   -3.5368825    1611.8068  0.068845327  0.068985065            3 
 1952000   0.93487593   -3.5252285    1605.9044  0.068558075  0.068971849            3 
 1953000   0.95958645   -3.5332175    1612.0411  0.068784824  0.068958664            2 
 1954000   0.93281337   -3.5404151    1615.2074  0.068884653  0.068945404            3 
 1955000   0.93117016   -3.5268635     1610.743  0.068659124  0.068932093            2 
 1956000   0.94801661   -3.5561475    1612.1966  0.068685947  0.068918965            3 
 1957000   0.94270712   -3.5206148    1613.1703  0.068692316  0.068905815            2 
 1958000    0.9396468   -3.5081492    1614.9303  0.068732136  0.068893047            3 
 1959000   0.95928431   -3.5298514    1616.9313  0.068782172  0.068880017            7 
 1960000   0.95806256   -3.5252697    1615.5255  0.068687308  0.068867147            3 
 1961000   0.94342639   -3.5059127     1614.898  0.068625618  0.068853927            4 
 1962000   0.93623579   -3.5302474    1620.1034  0.068811733  0.068841036            6 
 1963000   0.94646012   -3.5292871    1616.8162  0.068637131   0.06882789            5 
 1964000   0.93591066   -3.5173513    1617.7425  0.068641485  0.068814589            2 
 1965000   0.95134721   -3.5424484    1612.1064  0.068367531  0.068801019            2 
 1966000   0.93970104   -3.5196856    1621.8653  0.068746411  0.068787613            3 
 1967000   0.94664675   -3.5674696    1614.2107  0.068387169   0.06877448            3 
 1968000   0.93235945   -3.5214371    1621.1636  0.068646833  0.068761261            3 
 1969000   0.93132529   -3.5336062    1622.0652  0.068650125  0.068748197            2 
 1970000   0.95511469   -3.5335086    1619.6729  0.068514082  0.068735078            1 
 1971000   0.94208519   -3.5275883    1620.1716  0.068500404  0.068721904            3 
 1972000   0.93705173   -3.5530565    1622.1985  0.068551324  0.068708848            2 
 1973000   0.93238668   -3.5336843    1620.2595   0.06843468  0.068695727            3 
 1974000   0.93993407   -3.4961846     1629.596  0.068794156  0.068682656            2 
 1975000   0.94613993   -3.5549118    1627.7524  0.068681536  0.068669497            6 
 1976000   0.92902282   -3.5340602    1623.6794  0.068475008  0.068656541            4 
 1977000   0.91415142   -3.5219917    1621.1512  0.068333804  0.068643378            5 
 1978000   0.93430278   -3.5224084    1625.6157  0.068487349  0.068629976            3 
 1979000   0.93215185   -3.5424204    1617.1085  0.068094513  0.068616574            5 
 1980000   0.93314896   -3.5547701    1615.5831  0.067995923  0.068603131            5 
 1981000   0.93652235   -3.5157839    1631.5492  0.068633232  0.068589531            3 
 1982000   0.93892658   -3.5311326    1628.7428  0.068480607  0.068576202            3 
 1983000   0.94246182   -3.5270562    1630.8406  0.068534234  0.068562848            3 
 1984000   0.92184065   -3.5219814     1629.736  0.068453292  0.068549505            2 
 1985000   0.91696544   -3.5448486    1626.4018  0.068278831  0.068536332            3 
 1986000    0.9426378   -3.5383462    1632.0269  0.068480485  0.068523156            8 
 1987000   0.93928821   -3.5477877     1632.385  0.068461038   0.06850993            2 
 1988000   0.91723964   -3.5734598    1627.2633  0.068211907  0.068496606            3 
 1989000   0.94066437   -3.5501017     1626.667  0.068152632  0.068483092            2 
 1990000    0.9397728   -3.5169156    1631.8316  0.068334655  0.068469714            8 
 1991000   0.93618829   -3.5256745    1629.8702  0.068218239  0.068456312            3 
 1992000   0.92313924   -3.5235274    1633.1431  0.068320915  0.068442766            1 
 1993000   0.94846135   -3.5316856    1629.9635  0.068153684  0.068429526            2 
 1994000   0.92561773   -3.5272277    1627.2663  0.068006783  0.068416165            1 
 1995000   0.92298673   -3.5294681    1640.2725  0.068515976  0.068402744            3 
 1996000   0.94580786   -3.5629715    1626.9475  0.067925328  0.068389109            3 
 1997000   0.92773579   -3.5234211    1636.4784  0.068289033  0.068375992            2 
 1998000   0.94155859   -3.4933283     1634.627  0.068177634  0.068362522            3 
 1999000   0.93372239   -3.5349342    1635.4573  0.068178144  0.068349409            3 
 2000000   0.92674109   -3.5474283    1637.2095  0.068217062  0.068336326            5 
 2001000   0.94250365   -3.5491812      1631.84  0.067959353  0.068323111            5 
 2002000   0.93216232   -3.5206961    1633.9359  0.068012651  0.068309826            2 
 2003000   0.94903773   -3.5244283    1637.3049  0.068118861  0.068296417            3 
 2004000   0.93044052   -3.5797466    1630.8602  0.067816876  0.068283056            4 
 2005000   0.92251666   -3.5519612    1640.5676  0.068186518  0.068269805            4 
 2006000    0.9178958   -3.5393672    1637.8165  0.068038239  0.068256492            2 
 2007000   0.92729917   -3.5374563    1638.9338   0.06805073  0.068243142            4 
 2008000    0.9407832   -3.5202858    1642.5143  0.068165435   0.06822981            2 
 2009000   0.92182346   -3.5505269    1642.8018  0.068143432  0.068216708            5 
 2010000   0.92980165   -3.5460987    1644.3481  0.068173636  0.068203588            3 
 2011000   0.92700131   -3.5193091    1645.3648  0.068181868  0.068190674            8 
 2012000   0.91200744   -3.5398236    1648.2526  0.068267587  0.068177792            5 
 2013000   0.93543926   -3.5580693    1636.7385  0.067757019  0.068164404            3 
 2014000   0.93269901   -3.5579404    1647.6465  0.068174716  0.068151116            3 
 2015000   0.93368378   -3.5477183    1646.8741  0.068108935  0.068138043            3 
 2016000   0.94593833   -3.5202477    1647.6537  0.068107379   0.06812529            3 
 2017000    0.9299979   -3.5097613    1638.5528  0.067697602  0.068112335            4 
 2018000   0.92545379   -3.5383837    1647.5775  0.068036732  0.068099639            5 
 2019000   0.94276535   -3.5472684    1648.9102   0.06805804  0.068086713            3 
 2020000   0.92656775   -3.5190313    1645.3932  0.067879257  0.068073347            3 
 2021000   0.93224036   -3.5611505     1646.151  0.067876916   0.06806025            3 
 2022000   0.93494219   -3.5447215    1653.7895  0.068158158  0.068047072            3 
 2023000   0.93539692   -3.5311601    1654.8794  0.068169362  0.068034087            4 
 2024000    0.9276806   -3.5435356    1652.7943  0.068049829  0.068021182            3 
 2025000   0.91692693   -3.5552656    1653.7656  0.068056198  0.068008356            6 
 2026000    0.9338474   -3.5338765    1652.4943  0.067970315  0.067995437            4 
 2027000   0.92092444   -3.5580057    1651.2505  0.067885648  0.067982755            2 
 2028000   0.91713615    -3.539694    1657.8662   0.06812402  0.067969874            2 
 2029000   0.91220073   -3.5470548    1653.3291  0.067904103  0.067956886            3 
 2030000    0.9232828   -3.5711567    1657.1678  0.068028235  0.067943931            4 
 2031000   0.92566347   -3.5274928    1657.1768  0.067995108  0.067930847            3 
 2032000   0.93938839    -3.559639    1649.6511  0.067653012   0.06791788            4 
 2033000   0.93063497   -3.5508357    1656.5706  0.067903369  0.067905113            5 
 2034000   0.93440326   -3.5430485    1658.2149  0.067937351  0.067892393            2 
 2035000   0.91337593   -3.5303602    1661.8216  0.068051663  0.067879703            2 
 2036000   0.92499955   -3.5069341    1662.7714  0.068057112  0.067866996            6 
 2037000   0.93911457   -3.5605251    1661.1649  0.067957983  0.067854246            4 
 2038000   0.92005496   -3.5397137    1656.5176  0.067734608  0.067841345            3 
 2039000   0.91495389   -3.5547861    1660.5272   0.06786526  0.067828531            5 
 2040000   0.90917095   -3.5717487    1657.0805  0.067691197  0.067815426            4 
 2041000   0.94631712   -3.5438733     1657.564  0.067677772  0.067802612            3 
 2042000    0.9390995    -3.548148    1654.1521  0.067505389  0.067789684            1 
 2043000   0.91968284   -3.5036673    1665.9963  0.067955471  0.067776904            2 
 2044000   0.91973821   -3.5447192    1663.7452  0.067830445  0.067764439            2 
 2045000   0.91180983   -3.5499145    1666.3024  0.067901483  0.067751458            2 
 2046000   0.91921268   -3.5345543     1663.248  0.067743892  0.067738674            3 
 2047000   0.92272728   -3.5309914    1660.4848  0.067598307  0.067725858            2 
 2048000   0.90784387   -3.5487478     1657.274  0.067434651  0.067712932            4 
 2049000    0.9283372   -3.5430804    1668.4296  0.067855441  0.067699917            2 
 2050000   0.92443515   -3.5629059     1663.668   0.06762878  0.067686833            3 
 2051000   0.90795834   -3.5386016    1665.8208  0.067683277  0.067673538            1 
 2052000   0.94227966   -3.5238519    1659.7035  0.067401863  0.067660396            3 
 2053000   0.92739615   -3.5734503    1665.3549   0.06759843  0.067647214            5 
 2054000   0.92454761   -3.5495723    1660.9769  0.067387897  0.067634013            2 
 2055000   0.94908578   -3.5488709    1665.5394  0.067540123  0.067620925            5 
 2056000   0.91986601   -3.5451678    1660.1717  0.067289709  0.067607644            2 
 2057000    0.9354801   -3.5582847    1660.9394  0.067288098  0.067594476            5 
 2058000   0.92708729   -3.5527593    1664.9935  0.067419564  0.067581134            3 
 2059000   0.91936418   -3.5610495    1664.2896  0.067358327  0.067567711            5 
 2060000   0.94984623   -3.5622923    1667.1937   0.06744311  0.067554521            2 
 2061000   0.94399722   -3.5429658    1671.4589  0.067582845  0.067541381            3 
 2062000   0.92958336   -3.5872307     1665.602  0.067313368  0.067528325            3 
 2063000   0.92651244   -3.5335377    1671.3997  0.067514935  0.067515434            3 
 2064000   0.90868931    -3.562877    1667.5357  0.067326216  0.067502189            3 
 2065000   0.89646427   -3.5759777    1670.7978  0.067425256   0.06748913            2 
 2066000   0.92731475   -3.5353774    1675.2451  0.067572003  0.067476122            2 
 2067000   0.89223672   -3.5554906    1674.3566   0.06750349   0.06746303            3 
 2068000   0.92209322   -3.5467234    1671.1971  0.067343533  0.067449973            2 
 2069000   0.93708787   -3.5570839     1673.035  0.067385007  0.067436883            2 
 2070000   0.92464806   -3.5454878    1676.1452  0.067477664  0.067423855            6 
 2071000   0.93646068   -3.5501516    1681.6176  0.067665282  0.067410989            3 
 2072000   0.92959461   -3.5250117    1680.1828  0.067574919  0.067398198            6 
 2073000    0.9305204   -3.5494205    1679.8744  0.067529925  0.067385519            3 
 2074000   0.92905344   -3.5638469    1676.5225  0.067362683  0.067373037            1 
 2075000   0.93634958    -3.570558    1677.5096  0.067369863  0.067360273            4 
 2076000   0.93138045   -3.5770755    1672.8296  0.067149552  0.067347332            2 
 2077000   0.89334678   -3.5514752    1675.3725  0.067219248  0.067334501            4 
 2078000     0.906755   -3.5536045    1670.4136  0.066988032  0.067321526            4 
 2079000   0.91698778   -3.5405555    1679.3725  0.067314915   0.06730883            3 
 2080000   0.90464157   -3.5574554    1676.0448   0.06714923  0.067295975            6 
 2081000    0.9029401   -3.5334775     1678.592  0.067218964  0.067283074            4 
 2082000   0.92253744   -3.5656819    1682.0799  0.067326283  0.067270023            5 
 2083000   0.92206513    -3.562491    1677.3109  0.067103172  0.067257014            6 
 2084000   0.90660455   -3.5596739    1679.1708  0.067145346  0.067244041            3 
 2085000   0.92526124   -3.5504446    1683.0533  0.067268318  0.067231445            3 
 2086000   0.90909878    -3.576011    1684.0509  0.067275923  0.067219036            3 
 2087000   0.93375992   -3.5436633    1685.6812  0.067308785  0.067206497            2 
 2088000   0.89863041   -3.5513072    1687.1417  0.067334837  0.067194012            2 
 2089000   0.92696219   -3.5788926    1687.9046  0.067333039  0.067181513            4 
 2090000   0.90707917   -3.5684661    1688.1679  0.067311321  0.067169215            6 
 2091000    0.9074971   -3.5291076    1689.8908  0.067347793  0.067156926            3 
 2092000   0.91306632   -3.5529366    1690.6616  0.067346302  0.067144808            3 
 2093000   0.90777535   -3.5680463    1686.2673  0.067139166  0.067132432            2 
 2094000   0.92100517   -3.5871637    1687.2525  0.067146311  0.067120164            3 
 2095000   0.91405365   -3.5790258    1690.9612  0.067261781  0.067108106            2 
 2096000   0.91740259   -3.5532805     1696.833  0.067463146  0.067095897            5 
 2097000   0.90894664   -3.5420212    1698.8309  0.067510369  0.067083647            3 
 2098000   0.91766531   -3.5705857     1693.562  0.067268905  0.067071311            5 
 2099000   0.92378396   -3.5394023     1691.891  0.067170516  0.067059401            2 
 2100000   0.91349285   -3.5614998    1689.5992  0.067047587  0.067047259            6 
 2101000   0.90176428   -3.5778771    1700.0687  0.067430932  0.067035063            6 
 2102000   0.90662132   -3.5314097    1689.2502  0.066969959  0.067022879            3 
 2103000   0.92720576   -3.5531196    1693.9577  0.067124653  0.067010669            3 
 2104000    0.9314025   -3.5734694    1697.6677  0.067239689  0.066998499            2 
 2105000   0.91337564   -3.5641087    1698.3007  0.067232807  0.066986405            6 
 2106000   0.92618859   -3.5758288    1698.9129  0.067225106  0.066974258            6 
 2107000   0.92169768   -3.5731651    1693.2557  0.066969456   0.06696203            3 
 2108000   0.94890419    -3.543363    1695.1738  0.067013511  0.066949881            2 
 2109000   0.90673867   -3.5630238    1700.7713  0.067202912  0.066937696            2 
 2110000   0.91916584   -3.5682033    1698.7157  0.067089878  0.066925631            2 
 2111000   0.91027145   -3.5506576    1701.4042  0.067164227  0.066913524            4 
 2112000   0.90667522   -3.5652415    1702.7804  0.067186725  0.066901441            2 
 2113000    0.9219663   -3.5663823    1695.5193  0.066868562  0.066889142            3 
 2114000   0.89177348   -3.5571155    1705.2263  0.067219581  0.066877057            3 
 2115000   0.90787974   -3.5518231    1701.1856  0.067028591   0.06686509            7 
 2116000   0.92901372   -3.5362654    1700.7082   0.06697811  0.066852931            2 
 2117000   0.91752203   -3.5714392    1699.1281  0.066884272  0.066840567            3 
 2118000   0.90065218   -3.5410875    1697.6308  0.066793785  0.066828123            2 
 2119000   0.91732317   -3.5759764    1702.7359  0.066963028  0.066815748            2 
 2120000   0.90794347    -3.574582    1702.0266  0.066903561  0.066803247            4 
 2121000   0.91280882   -3.5927464    1699.1293  0.066758182  0.066790708            3 
 2122000   0.91169131   -3.5934428    1700.9838  0.066799551  0.066778363            3 
 2123000   0.92148319   -3.5611821    1699.3178  0.066702693  0.066765767            2 
 2124000   0.93081309   -3.5784854    1700.5565  0.066719887  0.066753295            2 
 2125000   0.90877727   -3.5561369      1704.63  0.066848235  0.066740649            1 
 2126000   0.90047988   -3.5705252    1701.2134  0.066682872  0.066728086            2 
 2127000   0.92028552   -3.5626393    1701.6281  0.066667769  0.066715528            3 
 2128000     0.894461   -3.5447376    1711.1009  0.067007397  0.066703033            4 
 2129000   0.91430058   -3.5777591    1703.0816  0.066662031  0.066690325            1 
 2130000   0.89568068   -3.6072329    1707.2222  0.066792729   0.06667762            4 
 2131000   0.90529937   -3.5547657    1706.7366  0.066742399  0.066664887            3 
 2132000   0.91894651   -3.5427323     1711.056  0.066879926  0.066652311            4 
 2133000   0.91379431   -3.5566963    1703.7904  0.066564714  0.066639987            3 
 2134000   0.92611406   -3.5752717    1701.8554  0.066457959  0.066627266            4 
 2135000   0.88638641   -3.5774675    1706.8153  0.066620427  0.066614462            5 
 2136000   0.92857705   -3.5776909    1703.4236  0.066456914  0.066601445            4 
 2137000   0.91403392   -3.5451856    1712.8109  0.066791878  0.066588815            6 
 2138000   0.92150719   -3.5567328    1708.4974  0.066592507  0.066576041            6 
 2139000   0.89977453   -3.5935933    1704.7941  0.066417098  0.066563393            3 
 2140000   0.92366598   -3.5656015    1705.8353   0.06642661  0.066550521            2 
 2141000   0.89388119   -3.5967152    1710.3325  0.066570624  0.066537819            2 
 2142000   0.92426562   -3.5809939    1713.8538  0.066676541  0.066525208            3 
 2143000   0.92071615   -3.5804396    1713.2391  0.066621525  0.066512504            3 
 2144000   0.91736081    -3.573788    1715.0327  0.066660163  0.066499857            3 
 2145000    0.8937661   -3.5919649    1706.1336  0.066283355  0.066486868            1 
 2146000   0.91272849   -3.5624414    1708.0613  0.066327324  0.066474187            6 
 2147000   0.90604795   -3.5442102    1716.0473  0.066606401  0.066461365            3 
 2148000    0.9007722     -3.56582    1712.0283   0.06641947  0.066448468            5 
 2149000   0.90205518   -3.5956796    1713.3386  0.066439374  0.066435405            2 
 2150000    0.9152972   -3.5431304     1716.121  0.066516317  0.066422678            3 
 2151000   0.92688467   -3.5577551    1713.9672  0.066401953  0.066409912            4 
 2152000   0.90338834   -3.5959182    1716.5868  0.066472539  0.066397185            3 
 2153000   0.93153782    -3.588845    1711.5399   0.06624632  0.066384347            3 
 2154000   0.90811238   -3.5925063    1714.0359   0.06631213  0.066371684            4 
 2155000   0.91897892   -3.5454405    1723.8074  0.066659218  0.066359088            3 
 2156000    0.9216196   -3.5690094    1716.3986  0.066341938  0.066346725            2 
 2157000   0.87890484   -3.5711475    1716.8158    0.0663273  0.066334112            2 
 2158000   0.89006711   -3.5824529    1718.8216  0.066374017   0.06632153            4 
 2159000   0.91787447   -3.5759759    1717.0161  0.066273586  0.066308617            2 
 2160000   0.90206502   -3.5824207    1718.0476  0.066282699  0.066295781            3 
 2161000   0.92155405   -3.5799582    1726.0516   0.06656068   0.06628314            4 
 2162000    0.9035527   -3.5801401    1720.4041  0.066312213    0.0662706            2 
 2163000   0.92759549   -3.5937639    1720.1994   0.06627367  0.066258131            3 
 2164000   0.90224348   -3.5866067     1716.447  0.066098544  0.066245665            4 
 2165000   0.90100363   -3.5892341    1727.0079  0.066474514  0.066233406            2 
 2166000   0.90253815   -3.6006314    1729.8629  0.066553665  0.066221117            7 
 2167000   0.89626154   -3.6026311    1719.3731  0.066119562  0.066208762            2 
 2168000    0.8825866   -3.5714662    1728.5011  0.066439925  0.066196448            3 
 2169000   0.91573916   -3.5763569    1730.9058  0.066501684  0.066184083            4 
 2170000   0.90041985   -3.5948268    1726.2752  0.066293209  0.066171893            3 
 2171000    0.8957069    -3.585739    1726.0431  0.066253767  0.066159491            2 
 2172000   0.92321086   -3.5633653    1724.3987   0.06616017  0.066147022            4 
 2173000    0.9132284   -3.6191469    1721.6398  0.066023923  0.066134708            2 
 2174000   0.92012046   -3.6088882    1726.8247  0.066192299  0.066122027            3 
 2175000   0.90266769   -3.5949884    1728.1544  0.066212813  0.066109601            2 
 2176000    0.8983894   -3.5858007     1733.041  0.066369522  0.066097173            3 
 2177000   0.91569204   -3.5974595     1729.262  0.066194382  0.066084715            5 
 2178000   0.90231166   -3.5997887    1729.4294  0.066170395  0.066072314            3 
 2179000    0.8889571   -3.5865921    1737.4716  0.066447589  0.066059952            2 
 2180000   0.88986444   -3.5752007    1735.9117  0.066357483   0.06604785            4 
 2181000   0.89075715   -3.5734347    1735.2154   0.06630045  0.066035713            5 
 2182000   0.92398958   -3.5500134    1734.1246  0.066228407  0.066023606            5 
 2183000   0.90500713   -3.5638785    1732.6839  0.066143072  0.066011583            2 
 2184000   0.90095415    -3.600913    1725.1704  0.065826097  0.065999258            4 
 2185000   0.90743266   -3.5952242    1737.4351  0.066263735  0.065986786            6 
 2186000   0.91339315   -3.5752236    1728.5011  0.065892844  0.065974537            3 
 2187000   0.91274874   -3.5807478    1737.8145  0.066217594  0.065962079            4 
 2188000   0.89740399   -3.5955457    1730.2966  0.065900998   0.06594997            7 
 2189000   0.87684223   -3.5734926    1740.8408  0.066272302  0.065937747            2 
 2190000   0.89505686   -3.5883986    1741.1842  0.066255107   0.06592551            3 
 2191000   0.91254207   -3.5772716     1739.189  0.066148982  0.065913293            2 
 2192000   0.91370222   -3.5854502    1735.1048  0.065963534  0.065900965            3 
 2193000   0.92418411   -3.5729818    1734.4812  0.065909757  0.065888753            5 
 2194000   0.91302417   -3.5748824    1746.3573    0.0663308  0.065876565            2 
 2195000   0.90369882   -3.5868597    1733.4073  0.065808932  0.065864209            3 
 2196000   0.89736442   -3.6193685    1741.5684  0.066088661  0.065851751            2 
 2197000   0.90355271    -3.593939    1736.6347  0.065871441   0.06583913            2 
 2198000   0.90600544     -3.58894    1742.5139  0.066064375  0.065826668            4 
 2199000   0.89974537   -3.5885705     1738.952  0.065899347  0.065814072            3 
 2200000   0.90911073   -3.5743964    1740.6314  0.065933009  0.065801367            3 
 2201000   0.88956602   -3.5814865    1735.0075  0.065690121    0.0657889            3 
 2202000   0.89031825   -3.5859901    1738.7277  0.065801079  0.065776325            3 
 2203000    0.9054549   -3.5782046    1746.1775  0.066053015  0.065763849            2 
 2204000   0.90513492   -3.5848282    1740.7373   0.06581735  0.065751177            4 
 2205000    0.9050749   -3.6030673    1738.9469  0.065719837   0.06573846            3 
 2206000   0.87127177   -3.5680045    1742.0004  0.065805393  0.065725898            9 
 2207000    0.8704619   -3.6191026    1736.1398   0.06555429   0.06571342            2 
 2208000   0.90113808   -3.5645966    1743.2721  0.065793785  0.065700838            4 
 2209000   0.89865816   -3.6194357    1740.2423  0.065649704   0.06568833            3 
 2210000   0.88422496   -3.5865381    1744.0857   0.06576492  0.065675961            2 
 2211000   0.90171328   -3.5658183    1745.1897  0.065776787  0.065663548            1 
 2212000   0.89568942   -3.6013522    1746.1554  0.065783432  0.065651213            3 
 2213000    0.8782514   -3.5538521    1742.6613  0.065622129  0.065638697            5 
 2214000   0.89163399   -3.5948229    1749.2176  0.065839265  0.065626351            4 
 2215000    0.9054342   -3.5990295    1749.8283  0.065832517  0.065613715            3 
 2216000   0.90771288   -3.5755685    1743.9799  0.065582877  0.065601082            5 
 2217000   0.91177236   -3.5696687    1750.4799  0.065797622  0.065588458            4 
 2218000    0.8851455   -3.5814815    1748.9194  0.065709324  0.065575771            3 
 2219000   0.89732748   -3.5785034    1751.3075  0.065769398  0.065563072            4 
 2220000   0.90268019   -3.6135166     1750.311  0.065702366  0.065550577            5 
 2221000   0.91797369   -3.5530343    1753.0723  0.065776389   0.06553788            3 
 2222000   0.89093987   -3.6066255    1747.9039  0.065552953  0.065525274            3 
 2223000   0.89251366     -3.58616     1744.871  0.065409771  0.065512708            5 
 2224000   0.90067358   -3.5864278    1749.6224  0.065558394   0.06550007            2 
 2225000   0.87937895   -3.5886188    1753.4978  0.065674076  0.065487539            4 
 2226000   0.90437581   -3.5726742    1747.6387   0.06542523  0.065474883            3 
 2227000   0.91286082   -3.6042905    1753.2516  0.065605882  0.065462162            4 
 2228000   0.89609889   -3.5834444    1747.9679  0.065378812  0.065449317            3 
 2229000   0.89482707   -3.5858068    1753.0922  0.065541056   0.06543665            5 
 2230000   0.90022511   -3.5888345     1754.278   0.06555598  0.065424125           10 
 2231000   0.89818432    -3.568341    1751.4146   0.06541964  0.065411217            2 
 2232000   0.89417189   -3.6130272     1752.127  0.065416928  0.065398328            6 
 2233000   0.86767597   -3.6090042    1747.8868  0.065229393  0.065385165            2 
 2234000   0.88817914   -3.5976094    1758.6094   0.06560017  0.065372465            2 
 2235000   0.88022806   -3.6038804    1754.0285   0.06540002  0.065359399            2 
 2236000   0.88097446   -3.6007191    1755.8152  0.065437359  0.065346821            1 
 2237000   0.88843826   -3.6075649    1752.7061  0.065292284  0.065333989           10 
 2238000   0.89163147   -3.6292628    1748.9203  0.065122144  0.065321059            7 
 2239000   0.87671737   -3.5838152    1759.9212  0.065502501  0.065308376            3 
 2240000   0.90949186    -3.593503    1756.2465  0.065336551  0.065295758            5 
 2241000   0.88157668   -3.5537907    1758.9863  0.065409277  0.065283311            6 
 2242000   0.88174218   -3.6071846    1764.2857  0.065577077  0.065270506            6 
 2243000   0.89063739   -3.5713541    1753.1317  0.065133442  0.065257885            3 
 2244000   0.88937288   -3.5990968    1759.8755  0.065354854  0.065245265            4 
 2245000   0.89275808   -3.6243862    1759.3144  0.065304916  0.065232708            3 
 2246000   0.88155743   -3.6084478    1759.9381  0.065298979  0.065220111            5 
 2247000   0.89073754   -3.6044276      1756.41  0.065139076  0.065207577            3 
 2248000   0.91372034   -3.5898369    1754.9373  0.065055504  0.065195032            3 
 2249000   0.91133616    -3.592577    1760.8864  0.065247013  0.065182402            4 
 2250000   0.90802109   -3.5659603    1758.7804  0.065140014  0.065169658            2 
 2251000   0.89122926   -3.5743458    1761.7199  0.065219898  0.065156955            2 
 2252000    0.8937126   -3.6040127    1755.8694  0.064974445  0.065144295            3 
 2253000   0.88156857    -3.593768    1765.5584  0.065303981  0.065131508            2 
 2254000   0.88783755   -3.5765567    1763.3425  0.065193081  0.065118683            4 
 2255000   0.89143955   -3.6152502    1755.4814  0.064873665  0.065106016            2 
 2256000   0.87243891   -3.5951729    1763.0427  0.065124215  0.065093157            5 
 2257000   0.88271599   -3.6221039     1755.462  0.064815463  0.065080152            2 
 2258000   0.89696577   -3.5898191    1767.0955  0.065216103  0.065067352            5 
 2259000   0.87779747   -3.5784327    1764.0059  0.065073259  0.065054567            3 
 2260000   0.88319558   -3.6008771     1765.646   0.06510494  0.065041977            3 
 2261000   0.90325589   -3.5829328    1768.0195  0.065163624  0.065029312            2 
 2262000   0.89071179   -3.6055461    1760.2247  0.064847654  0.065016425            5 
 2263000   0.87043771   -3.6133376    1764.9797  0.064994096  0.065003599            4 
 2264000   0.88819234   -3.5952497    1761.7878    0.0648479  0.064990463            3 
 2265000   0.88145463   -3.6039628    1765.3776  0.064951345   0.06497741            6 
 2266000    0.8664809   -3.5753876    1764.6084  0.064894394  0.064964497            3 
 2267000   0.89342846   -3.6149145    1761.9058  0.064766425  0.064951559            5 
 2268000   0.90156877   -3.6144209    1764.4337  0.064830752  0.064938637            1 
 2269000   0.92004776   -3.5932722    1774.5128   0.06517235  0.064925861            1 
 2270000   0.90547321   -3.5846678    1771.7722  0.065043032   0.06491356            3 
 2271000   0.89419685   -3.5988375    1763.7662  0.064720615   0.06490078            4 
 2272000   0.89593222   -3.5986436    1772.5753  0.065015233  0.064888078            6 
 2273000    0.8993087   -3.6028234    1771.3808  0.064942836  0.064875211            3 
 2274000    0.8715795   -3.6118887    1771.1427  0.064905551  0.064862405            2 
 2275000    0.8916767   -3.6145059    1765.6912  0.064677334  0.064849494            6 
 2276000   0.88317955   -3.6325081    1769.4407  0.064786198  0.064836527            3 
 2277000   0.88868725   -3.5995369    1766.2395  0.064640592  0.064823652            5 
 2278000   0.87149744   -3.6128933    1767.1832  0.064646738   0.06481077            4 
 2279000   0.88198716   -3.6219053    1762.2064  0.064436391   0.06479786            5 
 2280000    0.8847035   -3.6173304    1764.7255  0.064500203  0.064784906            2 
 2281000   0.89394014   -3.6221115     1768.341   0.06460401  0.064771826            3 
 2282000   0.86667592   -3.6258731     1764.533  0.064436643  0.064758654            4 
 2283000   0.88016359   -3.5946979     1770.775  0.064636261  0.064745809            1 
 2284000   0.88741915   -3.5813052    1776.5365  0.064818172  0.064732608            8 
 2285000   0.89158591   -3.5813774    1770.6519  0.064575196  0.064719626            2 
 2286000   0.89658823   -3.6398694    1768.7936  0.064479208  0.064706614            4 
 2287000   0.88698588   -3.5904312    1773.9506  0.064638923  0.064693483            4 
 2288000   0.88505127   -3.5908399    1779.9259  0.064828302  0.064680711            4 
 2289000   0.87092874   -3.5985098    1767.2487  0.064338457  0.064667589            3 
 2290000   0.89885064    -3.620992    1770.1435  0.064415701  0.064654585            3 
 2291000   0.88525015   -3.5970653    1774.4152  0.064542963  0.064641743            2 
 2292000   0.88663514   -3.6004695    1781.2251  0.064762403  0.064628798            3 
 2293000   0.89255301   -3.5899713    1780.9084  0.064722649  0.064616151            2 
 2294000   0.88559435   -3.6023097    1780.2225  0.064669518  0.064603667            2 
 2295000   0.89136647   -3.6143054    1780.2129  0.064640991  0.064590849            3 
 2296000   0.89419434   -3.6003675    1778.2934  0.064543168  0.064578007            3 
 2297000   0.89002282   -3.5974042    1779.2935  0.064551354  0.064565203            6 
 2298000   0.88138712   -3.5867577    1783.2872  0.064668087  0.064552514            3 
 2299000   0.86320119   -3.6059374    1782.9286   0.06462696   0.06453969            6 
 2300000   0.87190808    -3.620355    1782.3086  0.064576399  0.064526909           10 
 2301000   0.86885405   -3.6288728    1781.4408  0.064516905  0.064513923            4 
 2302000   0.88667287   -3.6071795    1782.0445  0.064510735  0.064500946            4 
 2303000   0.88124494   -3.6091136    1782.9105  0.064514056  0.064488221            3 
 2304000   0.89305541    -3.627985    1785.0392  0.064563048  0.064475474            1 
 2305000   0.89572733   -3.6059581    1782.3334  0.064437217  0.064462668            3 
 2306000   0.88248694   -3.6076615    1782.2687  0.064406934   0.06444982            3 
 2307000   0.84747481   -3.6276485    1780.1312  0.064301807   0.06443702            5 
 2308000   0.87269701   -3.6243183    1785.4406  0.064465649  0.064424119            4 
 2309000   0.86255476   -3.6014267    1784.6934  0.064410762  0.064411232            5 
 2310000   0.87118209   -3.6121935    1786.5057  0.064448258    0.0643983            4 
 2311000   0.89980526   -3.6033859     1789.899  0.064542729  0.064385585            7 
 2312000   0.87552576   -3.6213561    1785.1839  0.064344865  0.064372896            7 
 2313000   0.87955216   -3.6287957    1789.6681  0.064478602  0.064360268            3 
 2314000   0.87583859   -3.5987448    1789.4934  0.064444447   0.06434755            4 
 2315000   0.86474824   -3.6326714    1782.1847  0.064153516  0.064334759            5 
 2316000   0.87786272   -3.6220203    1783.1374  0.064160098  0.064321764            3 
 2317000   0.87645899    -3.608806    1785.0227  0.064200213   0.06430897            4 
 2318000   0.88801347   -3.6243894    1787.4136  0.064258468  0.064296196            3 
 2319000   0.87714766   -3.6430819     1784.397   0.06412236  0.064283545            3 
 2320000   0.88740899   -3.6256308    1787.5156  0.064206739  0.064270626            9 
 2321000   0.88635758   -3.6198292    1786.9532  0.064158881  0.064257758            3 
 2322000   0.88109984   -3.6168569    1788.7167   0.06419454  0.064244954            3 
 2323000    0.8744867   -3.6236374    1791.2742  0.064258654  0.064232073            6 
 2324000   0.88949875   -3.5946959    1793.3794  0.064306491  0.064219428            3 
 2325000   0.87779455   -3.6299298     1786.347  0.064026774  0.064206788            4 
 2326000   0.87650303   -3.6225416    1792.4848  0.064219146  0.064194009            5 
 2327000   0.88680936    -3.634521     1793.922  0.064243016  0.064181287            4 
 2328000    0.8941458   -3.6235167    1796.9806  0.064324908  0.064168336            6 
 2329000   0.87123507   -3.6123886    1795.4837  0.064243726  0.064155725            4 
 2330000   0.84959807   -3.6143546    1792.9639  0.064126035  0.064143085            7 
 2331000    0.8682722   -3.6214582    1797.7984  0.064271355  0.064130232            4 
 2332000   0.86569032   -3.6020031    1795.8715  0.064174939  0.064117523            4 
 2333000   0.86907983    -3.605606    1798.0881  0.064226608   0.06410504            2 
 2334000   0.87120298   -3.6400677    1794.9289  0.064086293  0.064092376            3 
 2335000   0.87919893   -3.6065827    1796.3466  0.064109445  0.064079817            3 
 2336000   0.85686585   -3.5874092    1803.8292   0.06434893  0.064067321            2 
 2337000    0.8843073   -3.6139059    1796.3608  0.064055085  0.064054807            3 
 2338000   0.86974955     -3.59941    1801.9692  0.064227586  0.064042333            5 
 2339000   0.86869976   -3.6096088    1800.9111   0.06416243  0.064029875            3 
 2340000   0.89434883   -3.6179211    1802.6955  0.064198558  0.064017217            3 
 2341000   0.89491444   -3.6150017     1800.263  0.064084543  0.064004396            4 
 2342000   0.86229385   -3.6179931    1797.5972  0.063962325  0.063991743            2 
 2343000   0.86254139    -3.621548    1799.6749  0.064008925  0.063978818            2 
 2344000   0.89320894   -3.6275191    1804.4026  0.064149693  0.063966094            5 
 2345000   0.87318922   -3.6182804    1800.9431  0.063999398  0.063953227            3 
 2346000   0.87403969   -3.6180584    1802.6846  0.064033981  0.063940419            3 
 2347000    0.8822756   -3.6203088    1799.1381  0.063880772    0.0639276           11 
 2348000   0.89292257   -3.6450159    1794.8932  0.063702911  0.063914734            2 
 2349000   0.86340402   -3.6303277    1800.2722  0.063866617  0.063901902            4 
 2350000   0.87662283   -3.6001177    1800.6673  0.063853449  0.063888972            3 
 2351000   0.88495401   -3.6214205    1800.5394  0.063821755  0.063876352            4 
 2352000   0.85795622   -3.6368488    1795.9397  0.063631651  0.063863631            3 
 2353000   0.88259645   -3.6123231    1804.7479  0.063916556  0.063850763            5 
 2354000   0.85672899   -3.6233126    1798.3303  0.063662218  0.063837904            3 
 2355000   0.86146644    -3.608215    1810.2843  0.064058185  0.063825136            2 
 2356000   0.88297576   -3.6386327    1800.0763  0.063669932   0.06381217            4 
 2357000   0.86880193   -3.6385696    1799.4545  0.063620936  0.063799292            7 
 2358000   0.85619582   -3.6197376    1809.2464  0.063940005  0.063786374            5 
 2359000   0.88426013   -3.6160927    1803.2499  0.063701069  0.063773735            3 
 2360000   0.86226244   -3.5917649    1811.5618  0.063967578   0.06376084            4 
 2361000   0.88241832   -3.6295569    1799.9431  0.063530393  0.063747815            4 
 2362000   0.88529304   -3.6165731    1803.7948  0.063639388  0.063734895            2 
 2363000   0.87086175   -3.6443472    1806.9774  0.063724694  0.063722076            5 
 2364000   0.88014927   -3.6387189    1805.3024  0.063638693  0.063709178            4 
 2365000   0.88117051   -3.6189066    1800.5572  0.063444581  0.063696166            3 
 2366000   0.87778397   -3.6003596     1813.935  0.063888947  0.063683297            3 
 2367000   0.86241269   -3.6512338    1805.1022  0.063550985  0.063670383            6 
 2368000   0.85753273    -3.607786    1809.5191  0.063679584  0.063657439            4 
 2369000   0.87822943   -3.6224611    1806.2612  0.063538102  0.063644321            4 
 2370000   0.87246749   -3.6098554    1805.7797  0.063494362   0.06363113            6 
 2371000   0.86057357   -3.6323927    1802.4014  0.063348846  0.063618087            2 
 2372000   0.87806269   -3.6283363    1810.9878  0.063623799  0.063605207            4 
 2373000   0.86140439   -3.6210978     1807.685  0.063481003  0.063592243            4 
 2374000   0.86547537    -3.633568    1806.2952  0.063405478  0.063579173            5 
 2375000   0.86604509    -3.615652    1813.3685  0.063626966  0.063566047            5 
 2376000   0.85938356   -3.6216084    1811.9119  0.063549099  0.063552913            3 
 2377000   0.87524455   -3.6197236    1812.6624  0.063548674  0.063540034            4 
 2378000   0.85991805   -3.6273747    1812.0495  0.063500475   0.06352683            4 
 2379000    0.8726022   -3.6283254    1811.8647  0.063467306  0.063513828            4 
 2380000   0.87079969   -3.6283424    1811.1428  0.063415364  0.063500725            4 
 2381000   0.87114458   -3.6151656    1808.5237  0.063297063  0.063487679            3 
 2382000   0.87303113   -3.6227442    1811.9932  0.063391871  0.063474741            3 
 2383000   0.85813844   -3.6319556    1816.5916  0.063526073  0.063461837            6 
 2384000   0.87712134   -3.6423657    1815.6968   0.06346815  0.063448736            2 
 2385000    0.8710734   -3.6115673    1817.1035  0.063490687  0.063435797            4 
 2386000   0.85896202   -3.6493118    1812.9461  0.063318876  0.063422739            3 
 2387000   0.86110459   -3.6192071    1817.8678  0.063464172  0.063409598            3 
 2388000   0.85540206    -3.623193    1818.5092  0.063459979  0.063396837            2 
 2389000   0.84990733   -3.6422267    1817.2633  0.063389958  0.063383779            5 
 2390000   0.88349182   -3.6106241     1823.361  0.063576045  0.063371006            6 
 2391000   0.88512828    -3.624608    1824.1619  0.063577372  0.063358269            1 
 2392000   0.89025657   -3.6153311    1820.3021  0.063416322  0.063345423            3 
 2393000   0.86135841   -3.6202118    1815.9729  0.063239063  0.063332654            4 
 2394000   0.84696272   -3.6469042    1813.2347  0.063117332  0.063319895            2 
 2395000   0.88396796   -3.6272979    1827.6914  0.063593995  0.063307139            3 
 2396000   0.88655512    -3.630931    1822.3863   0.06338294   0.06329444            2 
 2397000   0.87087082   -3.6312707    1819.5273  0.063257102  0.063281567            4 
 2398000   0.84095724    -3.674399    1816.2548  0.063116999  0.063268884            8 
 2399000   0.87542032   -3.6329284    1817.8265  0.063145287  0.063255989            3 
 2400000   0.86945891   -3.6330017    1821.8979  0.063260343   0.06324344            8 
 2401000   0.85707207   -3.6620266    1820.1356   0.06317283  0.063230884            7 
 2402000   0.87725836   -3.6486078    1813.3209  0.062910104  0.063218134            3 
 2403000    0.8652459   -3.6262521    1826.0068  0.063323859  0.063205578            3 
 2404000   0.87498641   -3.6226652    1826.0141  0.063297771    0.0631931            3 
 2405000   0.86929913   -3.6255938    1820.4789  0.063079658  0.063180523            2 
 2406000   0.85790082   -3.6396016    1822.8177  0.063134444  0.063167947            2 
 2407000   0.87334953   -3.6438278    1828.0764  0.063290277  0.063155511            2 
 2408000   0.84089909   -3.6244591     1824.443  0.063138255  0.063142745            5 
 2409000   0.87115871   -3.6112716    1829.0829  0.063272549  0.063130359            3 
 2410000   0.86751417   -3.6238632    1824.8263  0.063099112  0.063117875            3 
 2411000   0.85309823   -3.6394398    1826.3203  0.063124579  0.063105231            3 
 2412000   0.86542525   -3.6366188    1823.6075  0.063004682  0.063092563            4 
 2413000   0.85827042   -3.6586061    1827.7322  0.063121017  0.063079829            4 
 2414000   0.85463099   -3.6508608    1829.4428  0.063153923  0.063067007            4 
 2415000   0.87253139   -3.6521827    1831.0436  0.063183008  0.063054405            3 
 2416000   0.86168868   -3.6462025    1823.5523  0.062898467  0.063041806            4 
 2417000   0.85609178   -3.6039304    1829.0867  0.063063258  0.063029066            6 
 2418000   0.85428155   -3.6387543     1830.012  0.063069065   0.06301626            5 
 2419000   0.86857834   -3.6320972    1833.8156  0.063174027   0.06300369            3 
 2420000   0.87060485   -3.6277259    1832.3355  0.063096953  0.062991015            4 
 2421000   0.85574567   -3.6109754    1831.9834  0.063058769  0.062978204            3 
 2422000   0.86536192   -3.6275486    1829.6913  0.062953869  0.062965325            3 
 2423000   0.87126385   -3.6562358    1823.5712  0.062717403  0.062952564            4 
 2424000   0.85768504     -3.66268    1826.2467   0.06278351  0.062939865            5 
 2425000   0.86833722    -3.636326    1835.6197  0.063079715  0.062926979            1 
 2426000   0.87308919   -3.6383061    1827.6239  0.062779056  0.062914198            5 
 2427000   0.87609304   -3.6523209    1836.5708   0.06306039  0.062901307            2 
 2428000   0.86052002    -3.671809    1834.5516  0.062965115  0.062888528            8 
 2429000   0.84413993   -3.6371782    1837.2622  0.063032187  0.062875729            2 
 2430000   0.85694268   -3.6691627    1838.4206  0.063045974  0.062863162            4 
 2431000   0.86458191   -3.6210035    1834.0097  0.062868837  0.062850645            3 
 2432000    0.8705673   -3.6524561    1834.6444  0.062864735  0.062838042            3 
 2433000   0.86702249   -3.6486203    1835.4184  0.062865408  0.062825801            4 
 2434000   0.84852794   -3.6486413    1838.6086  0.062948803  0.062813154            3 
 2435000   0.87819486   -3.6335967    1839.1499  0.062941476  0.062800732            6 
 2436000   0.85737119   -3.6338313    1837.1896  0.062848576  0.062788147            4 
 2437000    0.8640936   -3.6361398     1837.379  0.062829264  0.062775522            4 
 2438000   0.87702384    -3.616464     1842.954  0.062994053  0.062763154            3 
 2439000   0.87069897   -3.6449375    1836.8303  0.062758995  0.062750778            6 
 2440000   0.84462581   -3.6539096    1839.4339  0.062822197  0.062738146            5 
 2441000   0.86752214   -3.6425346    1840.8214  0.062843828  0.062725588            2 
 2442000    0.8742713   -3.6361626    1840.1069  0.062793712  0.062712911            6 
 2443000   0.87432353   -3.6442168    1838.8732  0.062725925  0.062700354            5 
 2444000   0.85852414   -3.6582955    1838.9406  0.062702558  0.062687682            4 
 2445000   0.85466244    -3.656677    1845.2959  0.062893521  0.062675001            5 
 2446000   0.85609373   -3.6577283    1844.2398  0.062831826  0.062662333            3 
 2447000   0.85922459   -3.6533362    1841.1449  0.062700752  0.062649741            3 
 2448000    0.8590561   -3.6646378    1839.7929  0.062629116  0.062637018            2 
 2449000   0.85399089   -3.6268329    1848.4702  0.062898808  0.062624419            3 
 2450000    0.8439286   -3.6228159     1849.518  0.062908774   0.06261173            4 
 2451000    0.8684686   -3.6299285    1848.4578  0.062847063  0.062599169            4 
 2452000   0.87774145   -3.6176782    1838.8799   0.06249592  0.062586554            7 
 2453000    0.8643541   -3.6303809    1845.2393  0.062686483  0.062573991            3 
 2454000    0.8696141   -3.6555187    1844.2035  0.062625765  0.062561365            4 
 2455000   0.84801299   -3.6662528    1841.9261   0.06252295  0.062548728            3 
 2456000   0.87532005   -3.6386519    1848.1785  0.062709638  0.062536026            6 
 2457000   0.87740812   -3.6279787    1841.1575  0.062445988  0.062523522            3 
 2458000   0.87000531   -3.6468001    1843.7098  0.062507111  0.062510899            3 
 2459000   0.86801256   -3.6209807    1841.5328  0.062407917    0.0624982            3 
 2460000   0.84932906   -3.6702989     1837.429   0.06224353  0.062485486            6 
 2461000   0.85761768   -3.6527506    1845.6611   0.06249699   0.06247269            6 
 2462000   0.85509323   -3.6632653    1847.3172  0.062527661  0.062459853            3 
 2463000   0.86414425   -3.6340665    1844.5836  0.062409786  0.062447013            6 
 2464000   0.86711841   -3.6446318     1848.448   0.06251515   0.06243406            5 
 2465000   0.86023111   -3.6337516    1841.1173  0.062241965  0.062421141            2 
 2466000   0.85942845   -3.6392256    1852.9872  0.062617843  0.062408472            4 
 2467000   0.87107873   -3.6523042    1842.0499  0.062223008  0.062395695            3 
 2468000    0.8687153   -3.6650742    1842.4451  0.062211141  0.062382861            3 
 2469000   0.84492813   -3.6476913    1850.4654  0.062456643  0.062369938            2 
 2470000    0.8448586   -3.6524535    1852.9635  0.062515637  0.062357244            3 
 2471000   0.83957192   -3.6681729    1853.6526  0.062513577  0.062344516            2 
 2472000   0.85189328   -3.6380118    1850.7515   0.06239049  0.062331793           10 
 2473000   0.84310858    -3.628433    1853.9876  0.062474308  0.062319049            3 
 2474000    0.8641942     -3.64941    1846.6381  0.062201499  0.062306357            4 
 2475000   0.85332446   -3.6703916    1853.1596  0.062395948  0.062293697            5 
 2476000   0.85560653   -3.6640945    1846.7541  0.062155159  0.062281043            6 
 2477000   0.84104967   -3.6561993    1851.9534  0.062304987  0.062268339            6 
 2478000   0.84598596   -3.6399538    1856.1664  0.062421524  0.062255792            5 
 2479000   0.85702577   -3.6703634    1854.4809  0.062339684  0.062243227            2 
 2480000   0.85484166   -3.6469132    1853.5969  0.062284842  0.062230625            3 
 2481000   0.85935817   -3.6386049    1857.5548  0.062392679  0.062218018            5 
 2482000   0.83635474   -3.6469478     1859.805   0.06244309   0.06220554            3 
 2483000   0.84561537   -3.6537598    1858.1437  0.062362187  0.062193275            3 
 2484000   0.85043916   -3.6847599    1857.7745  0.062324693  0.062180852            7 
 2485000   0.84441898    -3.674163    1851.9264    0.0621035  0.062168523            5 
 2486000   0.84103674   -3.6398577    1858.9892  0.062315274  0.062156126            2 
 2487000    0.8491813   -3.6594949    1865.4556   0.06250689  0.062143875            1 
 2488000   0.85074926   -3.6538169    1860.1726  0.062304816  0.062131637            4 
 2489000   0.85092043   -3.6539282    1859.6747  0.062263115  0.062119349            4 
 2490000   0.86121464   -3.6374605    1870.0331  0.062584776  0.062107026            6 
 2491000   0.86966525   -3.6426467    1859.7119  0.062214368  0.062094948            5 
 2492000   0.85727592   -3.6384236    1868.2746  0.062475743  0.062082887            5 
 2493000   0.85437165   -3.6702866    1867.4614    0.0624235  0.062070791            5 
 2494000   0.84924885   -3.6383186    1862.1799  0.062221997  0.062058666            3 
 2495000   0.84082184    -3.660522    1869.2356   0.06243272  0.062046448            2 
 2496000   0.84556421    -3.668154    1864.7043  0.062256419  0.062034448            7 
 2497000   0.85725381   -3.6445832    1867.7064  0.062331678  0.062022701            5 
 2498000   0.84941218   -3.6429828    1859.6453  0.062037806  0.062010662            4 
 2499000   0.85638386   -3.6816032    1861.5939   0.06207796  0.061998641            4 
 2500000   0.84394017   -3.6561241    1868.1679  0.062272262  0.061986599            4 
 2501000   0.84100555   -3.6778657    1870.2675  0.062317322    0.0619747            2 
 2502000   0.84406162   -3.6820242    1869.2938  0.062259984  0.061962799            3 
 2503000   0.85301432   -3.6586667    1869.4339  0.062239775   0.06195086            2 
 2504000   0.84591847   -3.6804211    1877.0588  0.062468675  0.061938927            4 
 2505000   0.86078923   -3.6552707    1875.8549   0.06240369  0.061927022            4 
 2506000   0.86321874   -3.6659013    1870.9003  0.062214029  0.061915225            7 
 2507000   0.85425716   -3.6457303    1872.3019  0.062235802  0.061903452            2 
 2508000   0.85347473   -3.6631409     1877.311  0.062377427  0.061891575            4 
 2509000   0.85468171   -3.6680492     1868.074   0.06204577  0.061879636            5 
 2510000   0.85225817   -3.6557985    1876.5634    0.0623029  0.061867627            3 
 2511000   0.83963351   -3.6313831      1875.84  0.062254081  0.061855799            3 
 2512000   0.84492206    -3.682244     1870.759  0.062060742   0.06184393            2 
 2513000   0.85161564   -3.6751004    1874.4985  0.062160052  0.061832076            3 
 2514000    0.8258375   -3.6352559    1876.7237  0.062209086  0.061820274            5 
 2515000   0.84733495   -3.6684992    1877.3335  0.062204555  0.061808414            9 
 2516000   0.84460852   -3.6496213    1877.1119  0.062172492  0.061796644            4 
 2517000   0.85532461    -3.660936    1875.0361  0.062079067  0.061784689            6 
 2518000   0.83622574   -3.6681351    1878.0914  0.062155526  0.061772957            4 
 2519000   0.82661499   -3.6393379    1883.6138  0.062313543  0.061761145            3 
 2520000   0.85960257   -3.6698604    1881.6964   0.06222541  0.061749221            2 
 2521000   0.84047149   -3.6861764    1877.5819   0.06206472  0.061737267            4 
 2522000   0.84101849   -3.6455223    1888.3926  0.062397325  0.061725391            3 
 2523000   0.84518646   -3.6754656    1876.8993  0.061992975  0.061713404            4 
 2524000   0.85356645   -3.6566818     1882.338  0.062147981   0.06170153            2 
 2525000   0.82369031   -3.6806516    1882.5443  0.062130175  0.061689814            4 
 2526000   0.85960661    -3.669833    1886.6456  0.062240882  0.061677946            5 
 2527000   0.82559977   -3.6661804    1883.8589  0.062124352  0.061665969            4 
 2528000   0.84996691   -3.6273325    1891.9687  0.062367112  0.061654215            4 
 2529000   0.84354716   -3.6776431    1881.0162  0.061981554  0.061642508            5 
 2530000   0.83814409   -3.6777734    1882.0112  0.061989828  0.061630718            3 
 2531000   0.86268845    -3.648133    1880.9193  0.061929384  0.061618789            2 
 2532000   0.83200059   -3.6849938    1882.1663  0.061945969  0.061606805            7 
 2533000   0.85441811   -3.6739713    1882.5152  0.061932991  0.061595006            4 
 2534000   0.84478582   -3.6716972    1883.0796  0.061927112  0.061583103            2 
 2535000   0.86076226   -3.6870829    1885.7614   0.06199084  0.061571364            4 
 2536000   0.82790377   -3.6896732    1883.1827  0.061881662  0.061559374            5 
 2537000   0.84859018   -3.6668476    1886.2975   0.06195958  0.061547525            7 
 2538000   0.84343986   -3.6917015    1879.0244  0.061696362  0.061535618            5 
 2539000   0.85244369   -3.6650865    1886.4872  0.061917002  0.061523608            3 
 2540000   0.82140962   -3.6698513    1886.8825  0.061905593  0.061511826            5 
 2541000   0.85720451   -3.6825751    1887.9732  0.061917003  0.061499936            5 
 2542000   0.82813604   -3.6467444    1887.1498  0.061865649   0.06148804            6 
 2543000   0.86118464   -3.6826903     1894.273  0.062074749  0.061476123            2 
 2544000   0.85626453   -3.6581518    1884.6273  0.061734386  0.061464332            6 
 2545000   0.83939562   -3.6752226    1882.7312  0.061648042  0.061452406            2 
 2546000   0.86142471   -3.6595782    1892.3862  0.061939847  0.061440542            3 
 2547000    0.8412548   -3.6705045    1891.3274  0.061880885   0.06142867            6 
 2548000   0.84006174   -3.6758408    1887.8403  0.061742554  0.061416739            7 
 2549000   0.85038086   -3.6578439     1888.962  0.061755002  0.061404738            3 
 2550000    0.8544199    -3.667698    1892.4661  0.061845297  0.061392927            3 
 2551000   0.83236496   -3.6825773    1886.0374  0.061611049  0.061380931            7 
 2552000    0.8180015   -3.6835294    1883.9184  0.061517711  0.061369112            4 
 2553000   0.84083259   -3.6531043    1896.5343  0.061905416  0.061357304            3 
 2554000   0.84535881   -3.6718037    1888.7415   0.06162691   0.06134552            9 
 2555000    0.8437733   -3.6646269    1895.6876   0.06182934  0.061333916            6 
 2556000   0.85385248   -3.6926623    1888.0189  0.061555128  0.061322244            4 
 2557000    0.8315139   -3.6861829    1895.1814  0.061764482  0.061310313            5 
 2558000   0.87144721   -3.6780657    1896.5336  0.061784389  0.061298526            2 
 2559000   0.83753034   -3.6668644    1894.0816  0.061680396  0.061286716            3 
 2560000   0.85930967   -3.6774632    1896.1784  0.061724557   0.06127489            2 
 2561000   0.83979823   -3.6643929    1895.6426  0.061683022  0.061263286            3 
 2562000   0.86731238   -3.6888467    1895.9931  0.061670345   0.06125152            2 
 2563000   0.84165454   -3.7016339    1896.0896  0.061649421  0.061239705            7 
 2564000   0.84743558   -3.6656168    1901.7965  0.061810857  0.061227985            4 
 2565000   0.83600651   -3.6912978    1897.8735  0.061659309  0.061216322            3 
 2566000     0.855389   -3.6859484    1896.7927  0.061600179   0.06120467            5 
 2567000   0.84271663   -3.6489945    1902.6659  0.061766847  0.061192992            2 
 2568000   0.83424994    -3.645905    1901.8428  0.061716084  0.061181577            8 
 2569000   0.84397145   -3.6837735    1899.1858  0.061605871  0.061169997            3 
 2570000   0.87480621   -3.6692059    1896.3344  0.061489441  0.061158344            1 
 2571000   0.82664651   -3.6682419    1898.4958  0.061535582  0.061146644            3 
 2572000    0.8349839   -3.6810537    1901.0065  0.061593003  0.061135206            3 
 2573000   0.83840409   -3.6611189    1901.6448   0.06158974  0.061123648            3 
 2574000    0.8575046   -3.6805182    1907.5464  0.061756878  0.061112226            3 
 2575000   0.83357057   -3.6674633    1904.9339  0.061648346  0.061100686            5 
 2576000   0.84759209   -3.6602221    1901.5553  0.061515116  0.061089162            4 
 2577000   0.84770714   -3.6691401    1897.6646  0.061365432   0.06107752            3 
 2578000   0.83537045   -3.6744119    1901.4378  0.061463597    0.0610659            5 
 2579000   0.82884565   -3.6920635    1899.0195  0.061361623   0.06105428            4 
 2580000    0.8481254   -3.6708075     1905.578  0.061549677  0.061042595            4 
 2581000   0.83995085   -3.6668061    1904.2614  0.061483321  0.061031086            5 
 2582000   0.83805127   -3.6962985    1905.7408  0.061507255   0.06101953            7 
 2583000   0.85186228   -3.6799504    1904.2502  0.061435352  0.061007894            5 
 2584000   0.83830731   -3.6982892    1904.9679  0.061434724  0.060996317            6 
 2585000   0.85189534   -3.6924476    1910.5058  0.061589483  0.060984694            6 
 2586000   0.82976033   -3.6755884    1908.2911    0.0614943  0.060973309            5 
 2587000   0.84385233   -3.6764927    1915.2426  0.061694453  0.060961852            2 
 2588000   0.84518654   -3.7047897    1910.9756  0.061533219  0.060950444            6 
 2589000   0.83297312    -3.692046    1917.1045  0.061706725    0.0609391            4 
 2590000   0.81600523   -3.6837516    1908.8234  0.061416453  0.060927589            2 
 2591000   0.84714504   -3.6790758    1911.7616  0.061487249  0.060916125            5 
 2592000   0.84741659   -3.7050459    1904.7033  0.061236604  0.060904686            4 
 2593000   0.85015382   -3.7242195    1912.6837   0.06146946  0.060893212           10 
 2594000    0.8354948   -3.6963572    1914.3818  0.061500313  0.060881853            4 
 2595000    0.8404439   -3.7048858    1910.6476    0.0613567  0.060870363            3 
 2596000   0.81164865   -3.6692547    1918.5413  0.061586456  0.060858908            2 
 2597000   0.81140086   -3.6775758    1911.2097  0.061327485   0.06084751            4 
 2598000   0.84563807    -3.676175    1913.0199  0.061361942  0.060836096            4 
 2599000   0.84057889   -3.6409621    1921.4973  0.061610148  0.060824696            4 
 2600000   0.85407172   -3.6815677    1913.4031  0.061327021  0.060813332            3 
 2601000   0.84485178   -3.6855729    1908.3444  0.061141367  0.060801777            3 
 2602000   0.85481936   -3.6898513    1913.1696  0.061272406  0.060790096            7 
 2603000   0.82038217   -3.6975105    1911.6387  0.061199855  0.060778786            2 
 2604000   0.85141065   -3.6810798    1912.3734  0.061199866  0.060767446            4 
 2605000   0.83956087    -3.682221    1912.0934  0.061167415  0.060755964            5 
 2606000   0.83335232    -3.669696    1922.7926  0.061486076  0.060744772            3 
 2607000   0.82890665   -3.6865778    1920.4359  0.061387159  0.060733671            4 
 2608000   0.81922296   -3.7090906    1922.0118  0.061413977  0.060722385            3 
 2609000   0.82354273    -3.684085    1922.7902  0.061415299  0.060710997            4 
 2610000   0.82114208   -3.6960301     1916.862  0.061202491  0.060699742            5 
 2611000   0.84187851   -3.6891681    1923.9634  0.061405699  0.060688472            3 
 2612000   0.82863566   -3.6849492    1920.1737  0.061261283   0.06067715            3 
 2613000   0.82772982   -3.6958004    1923.5269  0.061344778  0.060665842            3 
 2614000    0.8243388   -3.6975609    1923.8227  0.061330741   0.06065448            4 
 2615000   0.83930636   -3.7027667    1920.8357  0.061212099  0.060643334            5 
 2616000   0.82327188     -3.68752    1921.4239  0.061207438   0.06063189            3 
 2617000   0.82853356    -3.681521    1919.5629  0.061124791   0.06062032            6 
 2618000   0.81760434    -3.660325    1926.8892  0.061334645  0.060608978            3 
 2619000   0.82218085   -3.7009108    1922.5469   0.06117306  0.060597615            5 
 2620000    0.8416444   -3.6832156    1919.4417  0.061050944  0.060586009            6 
 2621000   0.84131642   -3.6862756    1910.2803  0.060736371  0.060574405           10 
 2622000   0.81778749   -3.6862844    1914.2579  0.060839624   0.06056302            3 
 2623000   0.82400291   -3.6968897     1919.229  0.060974363  0.060551562            3 
 2624000   0.82770437   -3.6889651      1920.43  0.060989265  0.060539918            3 
 2625000   0.81854539    -3.668171    1928.3515  0.061217509  0.060528478            5 
 2626000   0.82433693    -3.694932    1924.4187  0.061069391  0.060517124            6 
 2627000   0.83321901   -3.6924907    1926.7217    0.0611192  0.060505709            5 
 2628000   0.82523377   -3.6986996    1922.3842  0.060958404  0.060494427            4 
 2629000   0.83998942    -3.696191    1925.5377  0.061035174  0.060482912            5 
 2630000   0.83263284   -3.6923569    1927.9272  0.061087679  0.060471444            3 
 2631000   0.83707341   -3.6885988    1927.8151  0.061060912  0.060460161            5 
 2632000   0.83750887   -3.7044055    1924.4496  0.060931154  0.060448601            7 
 2633000   0.83415759   -3.7009475    1925.3606  0.060936847  0.060437169           12 
 2634000   0.82841601   -3.6761161    1923.3039  0.060848642  0.060425697            6 
 2635000   0.86113621    -3.676274    1937.5103  0.061274836  0.060414253            3 
 2636000   0.82755548   -3.7032472      1931.65  0.061066326  0.060402808            3 
 2637000   0.83228023   -3.6913176    1925.1917  0.060839077  0.060391345            2 
 2638000   0.80806026   -3.6778192    1930.2823  0.060976823  0.060379927            5 
 2639000   0.81980077   -3.7161833    1921.8888  0.060688669  0.060368389           10 
 2640000   0.82229459   -3.6902281    1921.6809   0.06065912  0.060357039            7 
 2641000   0.83347287   -3.6924129    1929.4388  0.060880942  0.060345385            3 
 2642000   0.82261419   -3.7068298     1928.445  0.060826553  0.060334001            2 
 2643000   0.85930891   -3.7013623    1928.1112  0.060793014  0.060322541            4 
 2644000    0.8256487   -3.6997879    1930.1206  0.060833351  0.060311158            4 
 2645000   0.83157121   -3.6869984    1933.1532  0.060905898   0.06029961            6 
 2646000   0.82671675   -3.7021885    1925.5304  0.060642807  0.060288159            6 
 2647000   0.83138199   -3.6833172    1933.1627  0.060860177  0.060276475            3 
 2648000   0.83602771   -3.6739965    1927.3814  0.060655256   0.06026506            5 
 2649000   0.84319522   -3.6961247    1930.4414   0.06072862  0.060253508            9 
 2650000   0.84459805    -3.688817    1930.8246  0.060717756  0.060241993            2 
 2651000   0.82377419   -3.6843088     1932.892   0.06075984  0.060230547            4 
 2652000   0.81460369   -3.7158366    1929.7703  0.060638836  0.060219039            4 
 2653000   0.83349378   -3.7030731    1928.2959  0.060569667  0.060207327            5 
 2654000   0.83592362   -3.6970197    1936.6778  0.060810029  0.060195824            3 
 2655000   0.81460167   -3.7022139    1934.2241   0.06071011  0.060184214            4 
 2656000   0.83099496   -3.6865895      1933.83  0.060674887  0.060172536           10 
 2657000   0.83809756   -3.6708821    1932.2631  0.060602906  0.060160993            3 
 2658000   0.84132454   -3.6698164    1939.5617  0.060808932   0.06014949            4 
 2659000   0.82264584    -3.724249    1930.8205  0.060512112  0.060137877            7 
 2660000   0.84032184   -3.6792473    1938.8752  0.060741703  0.060126442            5 
 2661000   0.84821419   -3.6922195    1935.4994  0.060613161  0.060114817            8 
 2662000   0.81561651   -3.7167602    1932.6713  0.060501858   0.06010324            2 
 2663000   0.82797839   -3.7196856    1936.0822  0.060585874  0.060091671            4 
 2664000   0.82045004    -3.706438    1932.3497  0.060446375  0.060079942            5 
 2665000   0.82254475   -3.7016757    1931.9305  0.060410584  0.060068306            3 
 2666000   0.82876467   -3.6941317    1937.1802  0.060552021  0.060056717            5 
 2667000   0.82418913   -3.6833142    1938.6387  0.060574888  0.060045112            5 
 2668000   0.81173665   -3.7368696    1933.8411  0.060402333  0.060033515            5 
 2669000   0.82693176   -3.7005897    1936.9106  0.060475539  0.060021664            6 
 2670000   0.82971757   -3.6829277    1936.8461  0.060450878  0.060009834            5 
 2671000   0.83326617   -3.6658984    1941.7617  0.060581607  0.059998338            3 
 2672000   0.81894386   -3.7001668    1940.9242  0.060532815  0.059986779            3 
 2673000    0.8079255   -3.7323759    1934.9369  0.060323509  0.059975096            3 
 2674000    0.8182737   -3.7125935    1941.3046  0.060499396   0.05996345            6 
 2675000   0.82870788   -3.6964868    1940.9206  0.060464817  0.059951774            8 
 2676000   0.82304479   -3.6838566    1938.3617  0.060362534  0.059940165            2 
 2677000   0.82989026   -3.7003826    1943.4716  0.060499054  0.059928514            4 
 2678000   0.83247534   -3.7134145    1938.8147   0.06033155  0.059916961            2 
 2679000   0.82486829   -3.7071417    1940.2219  0.060352804  0.059905166           11 
 2680000   0.82064514   -3.7055268    1943.9105  0.060444977  0.059893413            3 
 2681000   0.81518182   -3.7041944    1940.6099  0.060319839  0.059881713            4 
 2682000   0.81276008   -3.7171702    1935.0699  0.060125213  0.059869965            6 
 2683000   0.83924051   -3.6849854    1943.8807  0.060376466  0.059858277            4 
 2684000   0.81134856   -3.6787889    1938.5664  0.060188972  0.059846513            5 
 2685000   0.82020482   -3.7007764    1944.3503  0.060346067  0.059834785            2 
 2686000   0.82481917   -3.6952341     1945.681  0.060364886  0.059822989            4 
 2687000   0.83235116   -3.7145583    1943.1553  0.060264089  0.059811172            3 
 2688000   0.81917513   -3.6879993    1947.6406  0.060380723  0.059799436            3 
 2689000   0.81774911   -3.7100306    1938.1324  0.060063605  0.059787687            6 
 2690000    0.8173352    -3.688596    1942.7351  0.060183864  0.059775924            1 
 2691000   0.82414243   -3.7081988    1936.1643  0.059958016  0.059764113            9 
 2692000    0.8168524    -3.705525     1945.127  0.060213194  0.059752304            3 
 2693000   0.82546639   -3.6979131    1946.8808  0.060245105  0.059740736            5 
 2694000   0.82408828   -3.7111425    1944.3867  0.060145593   0.05972889            5 
 2695000    0.8322875   -3.7141513    1940.4938  0.060002902  0.059717097            3 
 2696000   0.81415809   -3.6983829    1944.7957  0.060113617  0.059705295            4 
 2697000   0.80365648   -3.7256002    1937.9307  0.059879208   0.05969362            3 
 2698000   0.81806291   -3.7100676    1944.1947  0.060050492  0.059681731            5 
 2699000   0.82056961   -3.7037616    1946.1536  0.060088725  0.059669951            5 
 2700000   0.82382919   -3.7071344    1942.4835  0.059953196  0.059658096            5 
 2701000   0.81300031   -3.7102628    1945.9795  0.060038859  0.059646418            3 
 2702000   0.84419846   -3.7079152    1946.1974  0.060023359  0.059634708            4 
 2703000   0.81599687   -3.6857545    1947.9566  0.060055388  0.059622939            2 
 2704000   0.81734164   -3.7368915    1944.9648  0.059940976  0.059611279            4 
 2705000   0.80744356   -3.6951949    1948.9078  0.060040288  0.059599596            8 
 2706000   0.81252408   -3.7168164    1953.1117  0.060147565  0.059587944            6 
 2707000   0.82145109   -3.7523878     1946.602  0.059924946  0.059576277            2 
 2708000   0.80314028   -3.7231743    1952.0873  0.060071617  0.059564713            3 
 2709000   0.80352332   -3.6986494    1948.8427  0.059949635  0.059553021            2 
 2710000   0.81242228   -3.7323747    1942.0236  0.059717823  0.059541263            3 
 2711000   0.81303887   -3.7322185    1955.2885  0.060103543   0.05952969            6 
 2712000    0.8092621   -3.7241628    1950.0663  0.059920915   0.05951799            3 
 2713000   0.81053889   -3.6934189    1952.0797  0.059960673   0.05950625            3 
 2714000    0.8380312   -3.7325256    1946.0186  0.059752475  0.059494521            4 
 2715000   0.80918859   -3.6999581     1955.671  0.060026734  0.059482882            2 
 2716000   0.81022661   -3.7208436    1956.0997  0.060017786  0.059471309            4 
 2717000   0.81330202   -3.7226129    1950.5094  0.059824237  0.059459608            4 
 2718000   0.81430994   -3.7107794    1950.1441  0.059791027  0.059448146            3 
 2719000   0.81412442   -3.7257447    1953.5741  0.059874159  0.059436489            3 
 2720000   0.81091727   -3.7070247    1957.4054  0.059969529  0.059424787            2 
 2721000    0.8298543   -3.6986649    1953.0901  0.059815329  0.059413132            3 
 2722000    0.8233571   -3.7185205    1949.7262   0.05969037  0.059401547            6 
 2723000   0.80281171    -3.702634    1955.8486  0.059855816  0.059389797            3 
 2724000   0.81194944   -3.7237619    1951.2257  0.059692417   0.05937823            5 
 2725000   0.82302335    -3.716542    1958.0184  0.059878239  0.059366622           10 
 2726000   0.80682912   -3.7247712     1953.588  0.059720837    0.0593549            3 
 2727000   0.80308708   -3.6979579    1952.9584  0.059679697  0.059343233            9 
 2728000   0.78947463   -3.7292175    1954.4505  0.059703401  0.059331574           12 
 2729000   0.83763147   -3.7252818    1957.0494  0.059760882  0.059319948            5 
 2730000   0.82430334   -3.7308904    1958.3113  0.059777512  0.059308386            3 
 2731000     0.817584   -3.6824915    1958.9796  0.059776015   0.05929681            6 
 2732000   0.81954131   -3.7063609     1959.871  0.059781326  0.059285216            5 
 2733000   0.81581197   -3.7149941    1958.9609  0.059731703  0.059273482            4 
 2734000   0.79955594   -3.7002642    1968.2202  0.059992081    0.0592619            2 
 2735000   0.80498449    -3.692694    1961.0756  0.059752456   0.05925028            3 
 2736000   0.81475473   -3.7151549    1960.7282  0.059720036  0.059238703            2 
 2737000   0.82504348   -3.7265903     1959.896  0.059672877   0.05922704            6 
 2738000   0.80157133   -3.7223992    1965.3122  0.059815929  0.059215502            3 
 2739000   0.80999108   -3.6855707    1963.7173  0.059745567  0.059203882            3 
 2740000   0.82433225   -3.7354308    1955.6939  0.059479742  0.059192412            6 
 2741000   0.82903123   -3.7274504    1951.4263  0.059328294  0.059180749            5 
 2742000   0.81708862   -3.7258292    1958.3367  0.059516677  0.059169046            3 
 2743000    0.8123771   -3.7236839     1964.253  0.059674717  0.059157418            8 
 2744000   0.80459484   -3.7186055    1966.3298  0.059716041  0.059145893            8 
 2745000   0.80451765   -3.7295768    1961.6694  0.059552804  0.059134292            8 
 2746000   0.80856976   -3.7516893    1958.0413  0.059421015  0.059122546            2 
 2747000   0.80260411   -3.7280434    1963.8482  0.059575542  0.059110912            3 
 2748000   0.79197119   -3.6960665    1963.5729  0.059545515    0.0590993            3 
 2749000   0.81483646   -3.7203765    1964.0158   0.05953728  0.059087694            3 
 2750000   0.80892519   -3.7172717    1960.1554  0.059398648  0.059076098            4 
 2751000   0.82281433   -3.7420136     1960.133   0.05937638  0.059064525            3 
 2752000   0.81916836   -3.7456532    1965.3791  0.059513659  0.059052906            6 
 2753000   0.81391503   -3.7682762    1965.6279  0.059499574  0.059041189            5 
 2754000   0.81036161   -3.7400615    1958.1767  0.059252504  0.059029393            2 
 2755000   0.80694345   -3.7195574    1961.6172  0.059335064  0.059017556            6 
 2756000    0.8140625   -3.7258999    1972.2249  0.059634279  0.059005907            3 
 2757000   0.79215707   -3.7324978    1965.9652  0.059423444   0.05899419            7 
 2758000   0.79861533   -3.7277686    1968.4219  0.059476127  0.058982396            3 
 2759000   0.82282643   -3.7328037    1966.9773  0.059410938  0.058970743            8 
 2760000   0.80060099   -3.7116844    1973.7887   0.05959507  0.058959049            7 
 2761000   0.79341999   -3.7462926    1971.1404  0.059493553  0.058947466            7 
 2762000   0.79535989   -3.7440812    1963.7653  0.059249495  0.058935792            2 
 2763000   0.82266559   -3.7100553    1975.2383  0.059574082  0.058924156            2 
 2764000   0.79739035   -3.7526802    1966.7428  0.059296395  0.058912449            3 
 2765000   0.79173385    -3.718026    1966.2961  0.059261484  0.058900584            2 
 2766000   0.81094517   -3.7052632    1966.0136  0.059231551  0.058888908            4 
 2767000   0.81059201   -3.7281506    1971.1486  0.059364793  0.058877276            2 
 2768000   0.79636338   -3.7470158    1969.9837  0.059308276   0.05886573            6 
 2769000   0.81070839   -3.7288308    1966.7522  0.059189604  0.058854021            7 
 2770000   0.80237601    -3.727288    1962.6517  0.059044876  0.058842015            6 
 2771000   0.81390134   -3.7426501    1969.7111  0.059235868   0.05883009            3 
 2772000   0.79399356   -3.7154888    1970.5436  0.059239526  0.058818355            3 
 2773000   0.80679136   -3.7404624    1969.4441  0.059185122   0.05880662            5 
 2774000   0.81192717   -3.7662448    1968.8384  0.059145589  0.058794985            6 
 2775000   0.81848204   -3.7456811    1969.6944  0.059149982  0.058783187            4 
 2776000   0.82212089    -3.701306    1972.8296  0.059222792  0.058771576            4 
 2777000   0.81584416   -3.7059891    1977.5083  0.059341866  0.058759882            3 
 2778000   0.79188455   -3.7285796    1973.6638  0.059205179  0.058748372            6 
 2779000   0.79312887   -3.7320402    1969.4796  0.059058401  0.058736783            3 
 2780000   0.81201928   -3.7119425     1978.038  0.059293704  0.058725118            6 
 2781000    0.7917904   -3.7220143    1974.8864  0.059177946  0.058713587            2 
 2782000   0.81750168   -3.7315114    1976.7446  0.059212335  0.058702041            6 
 2783000   0.81180379    -3.723833    1973.2478  0.059086351  0.058690525            3 
 2784000   0.79452956   -3.7334803    1975.5592  0.059134316  0.058678785            5 
 2785000   0.79862301    -3.743756    1977.5895  0.059173834  0.058667079            7 
 2786000   0.79922216    -3.740988    1974.9136  0.059072553  0.058655455            4 
 2787000   0.80445828     -3.72976    1985.5767  0.059370193  0.058643854            4 
 2788000   0.81405142   -3.7414315    1978.7533  0.059144944  0.058632403            3 
 2789000   0.81315727   -3.7626083    1977.3918  0.059083059  0.058620708            4 
 2790000   0.80240927   -3.7089549    1983.6549  0.059248953  0.058609275            7 
 2791000   0.79343662   -3.7288564     1978.532  0.059074764  0.058597808            6 
 2792000   0.80282834   -3.7329066    1977.9666  0.059036731  0.058586442            6 
 2793000   0.80745727   -3.7344545    1981.5297  0.059121903  0.058574914            8 
 2794000   0.81247221   -3.7393379    1981.7767  0.059108111  0.058563478            7 
 2795000    0.8070589   -3.7291583    1978.5419  0.058990515  0.058551865            7 
 2796000   0.81417126   -3.7306976    1977.8304  0.058948213  0.058540376            6 
 2797000     0.794636   -3.7182339    1984.5867  0.059128432   0.05852886            3 
 2798000   0.81746537   -3.7261161    1978.9175  0.058938455  0.058517351            2 
 2799000   0.80637316   -3.7383451    1988.6346  0.059206698  0.058505804            5 
 2800000   0.79471859   -3.7282613    1984.1339  0.059051605  0.058494343            5 
 2801000   0.80260458   -3.7190328    1984.8295  0.059051218  0.058482794            3 
 2802000    0.8055981   -3.7181705    1985.1442  0.059039501  0.058471292            4 
 2803000    0.8009289   -3.7318636    1981.9077  0.058922217  0.058459805            5 
 2804000   0.80638933   -3.7337265    1978.4542  0.058798567  0.058448225            9 
 2805000   0.79594451     -3.74315    1982.9651  0.058911619   0.05843661           11 
 2806000    0.7927485   -3.7407541    1982.4914  0.058876556  0.058424918            3 
 2807000   0.79370072    -3.729005    1988.7351  0.059040942  0.058413385            2 
 2808000   0.79812318   -3.7617466    1989.6483  0.059047019  0.058401821            7 
 2809000   0.79252873    -3.753979    1990.1153  0.059039852  0.058390305            3 
 2810000   0.80187152   -3.7430936     1986.829  0.058921382   0.05837879            5 
 2811000   0.80404155   -3.7534113    1985.5197  0.058861606  0.058367167            3 
 2812000   0.81151119   -3.7250545    1990.0352   0.05897449  0.058355762            3 
 2813000   0.81171375   -3.7551341    1991.1939  0.058987852  0.058344305            4 
 2814000   0.77805007   -3.7254012    1986.4016  0.058824971   0.05833291            2 
 2815000   0.80309404   -3.7180816    1991.4055  0.058952207  0.058321317            7 
 2816000   0.78274539   -3.7419451    1986.7466    0.0587934  0.058309885            3 
 2817000   0.81010872    -3.762098    1981.5963  0.058620173   0.05829824            4 
 2818000   0.80333005   -3.7371099    1988.5664  0.058805488  0.058286782            5 
 2819000    0.8079125   -3.7715713    1984.7587  0.058672068  0.058275169            3 
 2820000   0.80187291   -3.7351987    1992.7747  0.058888142  0.058263631            3 
 2821000   0.80507155   -3.7383492       1995.7   0.05895368  0.058252224            3 
 2822000   0.80574406   -3.7308203    1985.6149  0.058634979  0.058240771            8 
 2823000   0.81133464   -3.7500688    1987.1081  0.058658287  0.058229151            3 
 2824000   0.79365703   -3.7317758    1993.8172  0.058835493  0.058217617            4 
 2825000   0.79690727   -3.7222225    1992.9246  0.058788337  0.058206126            9 
 2826000   0.78795353   -3.7372223     1985.796  0.058557325  0.058194609            5 
 2827000   0.79291085   -3.7352952    1994.7792  0.058801415   0.05818287            5 
 2828000   0.79031811   -3.7240243    1989.1461   0.05861463  0.058171269            8 
 2829000   0.81396836   -3.7355109    1989.3042   0.05859857   0.05815973            5 
 2830000   0.78353337   -3.7538098    1987.5102  0.058525036   0.05814806            6 
 2831000   0.79859475   -3.7454809    1993.0091  0.058666228  0.058136477            4 
 2832000    0.8061949   -3.7458929    1993.0904  0.058647906  0.058124883            3 
 2833000   0.80335355   -3.7530441    1988.5606  0.058493958  0.058113326            4 
 2834000   0.79317702   -3.7409032    1990.3062  0.058524646  0.058101819            3 
 2835000   0.79181477    -3.707854    1994.2464  0.058619823  0.058090323            2 
 2836000   0.80081359   -3.7398157    1992.4171    0.0585454  0.058078595            5 
 2837000   0.78503575   -3.7363661    1987.7734  0.058388362  0.058066802            2 
 2838000   0.79381959   -3.7519367    1990.8872  0.058459221  0.058054972           10 
 2839000   0.80216351   -3.7708109    1990.3014  0.058421432  0.058043209            5 
 2840000   0.79467218   -3.7579408    1994.8603  0.058534632  0.058031449            8 
 2841000   0.77458148   -3.7466258    1993.0842  0.058461932  0.058019807            4 
 2842000   0.78763925   -3.7435761    1994.2292  0.058474934   0.05800816            7 
 2843000   0.78445606   -3.7499778    1987.5616  0.058258927  0.057996378            5 
 2844000   0.78379224   -3.7272399    1988.5993  0.058268851  0.057984689            6 
 2845000   0.78786418   -3.7349906    1991.2643   0.05832643  0.057973092            4 
 2846000   0.79598051   -3.7500777    1992.9865  0.058356363  0.057961327            4 
 2847000   0.80674689   -3.7564273    1991.3737  0.058288657  0.057949651            4 
 2848000   0.81477657    -3.752637    1993.1674  0.058320676  0.057938022            5 
 2849000   0.78594596   -3.7458441    1994.9104  0.058351189  0.057926343            3 
 2850000   0.80086777   -3.7463285    1995.1293  0.058337115  0.057914816            6 
 2851000   0.79677095   -3.7879156    1994.7525  0.058305639  0.057903149            9 
 2852000   0.78556388   -3.7326348     1998.056  0.058381721  0.057891481            5 
 2853000   0.80127902   -3.7158979    1997.8289  0.058354623  0.057879814            3 
 2854000   0.78530621   -3.7219552    1991.8767  0.058160381  0.057868183            3 
 2855000   0.77694705    -3.770713    1996.2028  0.058266281   0.05785644            5 
 2856000   0.79321219   -3.7453073    1998.0124   0.05829868  0.057844851            6 
 2857000   0.77578894   -3.7332411    1999.1405  0.058311179  0.057833275            2 
 2858000   0.80102094   -3.7577037    1999.1489  0.058291022  0.057821677            7 
 2859000   0.79380646   -3.7330094    1994.2563  0.058128027  0.057810011            2 
 2860000   0.78392723   -3.7367843    2003.0496  0.058363917  0.057798317            3 
 2861000   0.78838864   -3.7292514    1997.2544  0.058174718  0.057786681            8 
 2862000   0.81103144   -3.7489359    1997.5061  0.058161721  0.057774848            5 
 2863000       0.7852   -3.7572344    1995.1376  0.058072464  0.057763123            6 
 2864000     0.791787   -3.7637181    1998.7957  0.058158627  0.057751373            4 
 2865000   0.78046622   -3.7361633    1993.9585  0.057997628   0.05773977            3 
 2866000   0.79201141   -3.7266767    2003.0307  0.058241181  0.057728113            5 
 2867000   0.78150753   -3.7375889    2003.9814    0.0582485  0.057716456            4 
 2868000   0.80272468   -3.7574567    1996.9807  0.058024776  0.057704787            5 
 2869000   0.80468309   -3.7653108    2003.9247  0.058206247  0.057693158            6 
 2870000    0.7888896   -3.7512457    2003.1446  0.058163317  0.057681637            4 
 2871000   0.79911974   -3.7813206    2003.7969  0.058161992  0.057669976            3 
 2872000   0.79194774   -3.7452166    2006.6869  0.058225595  0.057658448            3 
 2873000   0.80218021   -3.7333382    2011.8124  0.058353996  0.057646901            5 
 2874000   0.77387573   -3.7651201    2011.5819  0.058327011  0.057635455            8 
 2875000   0.78614119   -3.7544071    2001.5734  0.058016622  0.057623962            7 
 2876000   0.77731115   -3.7570915    2007.7823  0.058176352  0.057612527            7 
 2877000   0.77631709   -3.7551005     2005.137   0.05807951  0.057600991            5 
 2878000   0.79160445   -3.7715341    2004.3659  0.058037003  0.057589304            4 
 2879000   0.80526013   -3.7497444    2008.1485  0.058126333  0.057577736            4 
 2880000   0.78815959   -3.7597214     2010.162   0.05816441  0.057566139            9 
 2881000   0.79232049   -3.7455046    2009.1206  0.058114097  0.057554657            2 
 2882000    0.7970991    -3.771593    2002.6445  0.057906676  0.057543135            6 
 2883000   0.78907974   -3.7936826    1998.6323  0.057770619  0.057531537            4 
 2884000   0.79072761   -3.7536616    2006.7638  0.057985548  0.057519902            6 
 2885000   0.78306192   -3.7710823    2003.1089  0.057859877   0.05750822            5 
 2886000    0.7779753   -3.7686525    2004.5069  0.057880196  0.057496616            2 
 2887000   0.78633872   -3.7951248    2008.1248  0.057964576   0.05748486            7 
 2888000   0.78246971   -3.7760328    1999.0295   0.05768206  0.057473069            2 
 2889000   0.79764044   -3.7512606    2001.1439  0.057723083  0.057461183            4 
 2890000    0.7868431    -3.762921     2002.446  0.057740658  0.057449342            7 
 2891000   0.76349709   -3.7438353    2007.0852  0.057854412  0.057437555            5 
 2892000   0.79785181   -3.7573286      2004.96  0.057773166  0.057425771            4 
 2893000   0.78072307    -3.756319    2001.8323  0.057663105  0.057414012            5 
 2894000   0.78518985   -3.7517913    2000.7884  0.057613118  0.057402099            5 
 2895000   0.75950116   -3.7650995     2008.375    0.0578116  0.057390294           10 
 2896000   0.79583394    -3.770627    2008.9141  0.057807151   0.05737851            4 
 2897000    0.7835521   -3.7551447    2013.9448  0.057931906  0.057366725            5 
 2898000   0.79229885   -3.7805654    2007.5272  0.057727376  0.057355011            3 
 2899000   0.77832589   -3.7551289    2006.3158   0.05767264  0.057343209            5 
 2900000   0.79024736   -3.7674123    2002.7287  0.057549677  0.057331559            4 
 2901000   0.79549252   -3.7330185    2014.7263  0.057874476  0.057319868            3 
 2902000   0.77243113   -3.7419062     2009.481  0.057703911  0.057308282            4 
 2903000   0.78249996   -3.7745649    2010.9975  0.057727567  0.057296638            3 
 2904000   0.78986832   -3.7740635    2012.5378  0.057751888  0.057284973            5 
 2905000   0.79023871   -3.7667113    2015.6071  0.057820053  0.057273397            5 
 2906000   0.76831586   -3.7376667    2014.5045  0.057768539  0.057261794            4 
 2907000   0.78297124   -3.7619105    2012.5386  0.057692312  0.057250229            5 
 2908000   0.78271499    -3.758434    2013.7019  0.057705808  0.057238785            4 
 2909000   0.78562959    -3.772043    2016.0531  0.057753327  0.057227231            5 
 2910000   0.78798397   -3.7228391    2018.8679  0.057814088  0.057215787            4 
 2911000    0.7898368   -3.7644483    2020.0513  0.057828102  0.057204225            3 
 2912000   0.78763247   -3.7664656    2009.6484  0.057510543  0.057192568            6 
 2913000   0.78784437   -3.7548308    2016.9543  0.057699802  0.057180838            2 
 2914000   0.80539991   -3.7577684     2020.507  0.057781601   0.05716921            4 
 2915000   0.79238652    -3.737172     2014.018  0.057576273  0.057157737            6 
 2916000   0.78972508   -3.7635928    2017.5771  0.057658238   0.05714619            5 
 2917000   0.76987673   -3.7525894    2016.8837  0.057618664   0.05713455            5 
 2918000   0.80329883   -3.7904046    2015.8062  0.057568147  0.057122898            3 
 2919000   0.77132746   -3.7541953       2013.3  0.057476877  0.057111283            5 
 2920000   0.79704245    -3.756767    2017.2334  0.057569447  0.057099671            6 
 2921000   0.79049581   -3.7622373    2015.5879  0.057502794  0.057088153            5 
 2922000   0.77521555   -3.8021677    2018.9346  0.057578561  0.057076537            8 
 2923000   0.78987338   -3.7588842    2019.7621  0.057582453  0.057064886            3 
 2924000   0.76667887   -3.7754653    2017.2535  0.057491265  0.057053276           10 
 2925000   0.77306438   -3.7589005    2024.7389   0.05768487  0.057041722            6 
 2926000   0.77099403   -3.7969014    2023.7379  0.057636646  0.057030231            5 
 2927000    0.7655249   -3.7533685    2017.6441  0.057443459  0.057018723            2 
 2928000   0.78288711   -3.7591733    2026.4163  0.057673505  0.057007173            5 
 2929000   0.78151149   -3.7409903    2013.5501  0.057287757  0.056995554            4 
 2930000   0.78152379   -3.7764335    2020.9487  0.057478632  0.056984011            3 
 2931000   0.77378502   -3.7747851     2018.982  0.057403104  0.056972276            3 
 2932000   0.79306656   -3.7622168    2018.8104  0.057378651  0.056960644            5 
 2933000   0.78697306   -3.7648624    2017.5452  0.057323138  0.056949048            4 
 2934000   0.78139289   -3.7699181    2023.7475  0.057479763  0.056937354            6 
 2935000   0.76259967   -3.8032997    2020.4416  0.057366315  0.056925633            6 
 2936000   0.78908084   -3.7821416    2018.8513  0.057301638  0.056913862            6 
 2937000   0.78434564   -3.7498287    2024.6653  0.057447091  0.056902337            3 
 2938000   0.79863455   -3.7830588     2026.068  0.057467326    0.0568907            3 
 2939000   0.76980102   -3.7736013    2021.4644  0.057317238  0.056879239            3 
 2940000   0.77549278   -3.7683945    2024.1108  0.057372755  0.056867661           10 
 2941000   0.77577135   -3.8146378    2016.4681  0.057136692  0.056856141            4 
 2942000    0.7729923    -3.759748    2020.7828  0.057239485   0.05684454            4 
 2943000   0.77936037   -3.7582203    2022.9384  0.057281073  0.056832955            6 
 2944000   0.77395322   -3.7437777    2030.0099  0.057461783  0.056821412            3 
 2945000   0.78241171   -3.7689452    2024.7978  0.057294788  0.056810038            2 
 2946000   0.76797187   -3.7934214    2023.2427  0.057231351  0.056798548            4 
 2947000      0.79224   -3.7785592    2020.3518  0.057130184  0.056786948            8 
 2948000   0.78629229   -3.7499934    2023.9821  0.057213424  0.056775384            4 
 2949000   0.79212228   -3.7441243    2034.9298  0.057503385  0.056764056            6 
 2950000   0.77711668   -3.7798333    2025.0683  0.057205318  0.056752571            7 
 2951000   0.80265204   -3.7408395    2025.7927  0.057206391  0.056741076            4 
 2952000   0.77668091   -3.7588458    2024.9245  0.057162503  0.056729545            3 
 2953000    0.7740685   -3.7756845    2024.3941  0.057128177  0.056718098            8 
 2954000   0.77774858   -3.7965979    2023.2526  0.057076635  0.056706671            5 
 2955000   0.78279676   -3.7910005    2029.3853  0.057230268   0.05669516            3 
 2956000    0.7726257    -3.760092    2033.8353  0.057336357  0.056683814            2 
 2957000   0.77387773   -3.7572506    2033.6637  0.057312132  0.056672386            2 
 2958000   0.79081607   -3.7792579      2028.39  0.057144185   0.05666109            5 
 2959000   0.80689984   -3.7771629    2027.7337   0.05710639    0.0566498            6 
 2960000   0.78772671    -3.775603    2031.8115  0.057201901  0.056638395            5 
 2961000   0.78670559   -3.7997819    2031.5793  0.057176046   0.05662694            5 
 2962000   0.78484472   -3.7720402    2035.9762  0.057280447  0.056615532            7 
 2963000   0.79545886   -3.7544807    2029.6044   0.05708191  0.056604138            8 
 2964000   0.79029754   -3.7858685    2038.5522   0.05731422  0.056592814            8 
 2965000    0.7733948   -3.7896023    2035.0532   0.05719655  0.056581428            3 
 2966000   0.78550782   -3.7790559    2034.4746  0.057161009  0.056570233            3 
 2967000   0.76407343   -3.7573938    2037.1061  0.057215654  0.056559082            3 
 2968000   0.76593518   -3.7306007    2049.5862  0.057546784  0.056548002            3 
 2969000   0.76120892   -3.7721479    2035.7837  0.057139995  0.056536788            9 
 2970000   0.76243886   -3.7999306    2032.6252  0.057032133   0.05652568            3 
 2971000    0.7776045   -3.7781334    2039.2659  0.057199199  0.056514582           13 
 2972000   0.78243478   -3.7868222    2033.8622  0.057028436  0.056503512            3 
 2973000   0.79028896   -3.7703496    2035.4972  0.057055083  0.056492385           12 
 2974000   0.76527712   -3.7929968      2038.72  0.057126206  0.056481212            7 
 2975000   0.78224077   -3.7845801    2039.8894   0.05713976  0.056469983            3 
 2976000   0.77032768    -3.774825    2041.0104  0.057151949  0.056458834            4 
 2977000   0.77843474   -3.7969227    2036.4835  0.057006033   0.05644763            2 
 2978000    0.7751627   -3.7784046    2041.0359   0.05711428  0.056436512            5 
 2979000   0.78136632   -3.7462867    2049.2675  0.057325375  0.056425451            5 
 2980000   0.77158818   -3.7505194    2050.1783  0.057331608  0.056414509            3 
 2981000   0.77496483    -3.771388    2050.8016    0.0573298  0.056403408            3 
 2982000   0.75930987    -3.796552    2042.3719  0.057075004  0.056392272            6 
 2983000   0.77769313     -3.75547    2048.0918  0.057215661  0.056381125            3 
 2984000   0.78202089   -3.8156624    2038.5864  0.056931031  0.056370095            4 
 2985000    0.7734477   -3.7451797    2042.8789  0.057031794  0.056359084            7 
 2986000    0.7788703   -3.7985864    2037.6898  0.056867877  0.056347991            6 
 2987000   0.78175165   -3.7908879    2045.7225  0.057072942  0.056336819            5 
 2988000   0.77890561   -3.7881982    2043.6411  0.056995791  0.056325761            4 
 2989000   0.77836706    -3.806314    2040.0747  0.056877292  0.056314734            4 
 2990000   0.75898451   -3.7918979    2041.6061  0.056900951  0.056303623            6 
 2991000   0.78565974   -3.7785419     2049.442  0.057100244  0.056292607            3 
 2992000   0.78328974   -3.7899006    2045.6552  0.056975691  0.056281673            3 
 2993000   0.78017121   -3.8011324    2052.6747  0.057152098  0.056270798            4 
 2994000   0.76501314   -3.7834601    2046.6683  0.056965829  0.056259736            9 
 2995000   0.79475161   -3.8067646    2047.5997  0.056972723  0.056248682            5 
 2996000   0.78390134   -3.7960936    2046.1954  0.056914647  0.056237548            5 
 2997000   0.75881651   -3.8185642    2055.0305  0.057141323  0.056226611            6 
 2998000   0.76590357   -3.7728868    2042.6018   0.05677679  0.056215762            4 
 2999000    0.7798186   -3.7691327    2051.0959  0.056993884  0.056204753            3 
 3000000   0.78481038   -3.8132936    2044.0022   0.05677784  0.056193644            4 
 3001000   0.78122251   -3.7906162    2045.4629   0.05679948  0.056182503            3 
 3002000   0.77848151   -3.8043039    2046.6939  0.056814731  0.056171442            7 
 3003000   0.77207042   -3.7800244    2045.0653   0.05675062  0.056160295            5 
 3004000   0.76878841   -3.7667924     2046.424  0.056769418  0.056149067            4 
 3005000   0.76509265    -3.765123    2044.5179  0.056697667  0.056137889            3 
 3006000   0.78995468   -3.8034693    2041.9049  0.056606367  0.056126678            6 
 3007000   0.78872437   -3.8014157    2045.2004  0.056678872   0.05611545            6 
 3008000   0.75210723   -3.7985966     2043.151  0.056603253  0.056104269            7 
 3009000   0.76684422   -3.7805116    2046.9068  0.056688458  0.056093053            9 
 3010000   0.75494043   -3.7849376    2046.5554  0.056659894  0.056081971            3 
 3011000   0.77024305   -3.8000318    2051.3201  0.056772946  0.056070925            4 
 3012000   0.76288435   -3.7910756    2053.0186  0.056801089   0.05605975            7 
 3013000   0.77808652   -3.7976795    2045.9898  0.056587836  0.056048689            9 
 3014000   0.78138834   -3.8044299    2049.7416  0.056672793  0.056037612            6 
 3015000   0.77330424   -3.7975684    2050.7701  0.056682424  0.056026597            3 
 3016000   0.75976657   -3.7867724    2051.5391  0.056684877  0.056015541            7 
 3017000   0.78342569   -3.7876878    2057.5883  0.056833176  0.056004552            7 
 3018000   0.76752052   -3.8005971    2049.8933  0.056601871  0.055993579            6 
 3019000   0.78786649   -3.8026207      2056.81  0.056774042  0.055982497            8 
 3020000   0.76449183    -3.790449    2056.2219  0.056739014  0.055971335            6 
 3021000   0.76789513   -3.7868768     2059.776  0.056818273   0.05596034            5 
 3022000   0.78011449   -3.8007658    2054.9374  0.056666043  0.055949333            2 
 3023000   0.74960966   -3.8268831    2050.0138  0.056511574  0.055938289            3 
 3024000   0.76205744   -3.8050998    2055.3688  0.056640455  0.055927263            7 
 3025000   0.76967803   -3.7738575    2055.6747  0.056630158  0.055916155            4 
 3026000   0.76000584   -3.8009622    2061.6145   0.05677502  0.055905114            7 
 3027000   0.77973565   -3.7991874    2058.1952   0.05666213  0.055894068            3 
 3028000    0.7649932   -3.7988463    2054.7158  0.056547661  0.055883015            5 
 3029000   0.74590966   -3.8234272    2054.1407  0.056513169   0.05587192            6 
 3030000   0.78483001   -3.8225591    2049.7753  0.056374457  0.055860764            4 
 3031000   0.76402686   -3.7899586     2051.973  0.056416281  0.055849527            3 
 3032000   0.76297669   -3.8030591    2054.3128  0.056461983  0.055838392            3 
 3033000   0.75535413   -3.7811453    2054.3916  0.056445532  0.055827168            3 
 3034000   0.77954031   -3.7981612    2053.4545  0.056401189  0.055816017            5 
 3035000   0.76918522   -3.8026116    2058.0314  0.056508275  0.055804782           11 
 3036000   0.76253385   -3.8098287    2053.6752  0.056370093  0.055793585           10 
 3037000   0.76447633   -3.7831882     2055.807  0.056410027   0.05578243            4 
 3038000   0.75501027   -3.8004778    2060.0016  0.056506519  0.055771229            6 
 3039000    0.7747693   -3.7995931    2056.4446  0.056390386   0.05576011            6 
 3040000   0.78379794   -3.8176882    2053.6658  0.056295663  0.055748796            6 
 3041000   0.75460671   -3.8286157    2058.1443  0.056399877  0.055737411            4 
 3042000   0.77370866   -3.8049782    2057.7304  0.056369999  0.055726221            4 
 3043000   0.76346056   -3.8033907    2051.1369  0.056170909  0.055715022            4 
 3044000   0.75399761   -3.8129485    2054.8271  0.056253479  0.055703763            5 
 3045000   0.76024649   -3.7827133    2056.7501  0.056287633  0.055692486            6 
 3046000   0.77137815   -3.8005222    2054.8583  0.056217397  0.055681333            4 
 3047000   0.77118062   -3.7961748    2060.2764  0.056347129  0.055670046            4 
 3048000   0.77403567   -3.8143431    2053.1839  0.056134731  0.055658879            9 
 3049000   0.76127646   -3.7934139    2059.8191   0.05629767  0.055647671            3 
 3050000   0.76155845   -3.8276354    2064.1358  0.056397154   0.05563645            3 
 3051000   0.75825271   -3.8072352    2054.4229  0.056113375  0.055625102            7 
 3052000   0.74747967   -3.8269337    2055.8732  0.056134589   0.05561384           11 
 3053000    0.7564126   -3.8310866    2061.2454  0.056262838   0.05560269            6 
 3054000   0.73704186    -3.773155    2061.1426  0.056241612  0.055591492            4 
 3055000   0.76100482   -3.7960164     2058.392  0.056148171  0.055580413            4 
 3056000   0.77912216   -3.8092732    2066.6184  0.056354122   0.05556931            6 
 3057000   0.77633057   -3.8187704    2060.7946  0.056176931  0.055558076           10 
 3058000   0.77433621   -3.7946308    2057.0859  0.056057495  0.055546908            8 
 3059000   0.77319174   -3.7963487    2060.0946  0.056121134  0.055535705            3 
 3060000   0.75180283   -3.8023413    2063.6329  0.056199154  0.055524601           13 
 3061000   0.77176954   -3.8189996    2064.7316  0.056210704   0.05551356            4 
 3062000   0.76555581   -3.8159842    2069.1536  0.056312693  0.055502395            4 
 3063000   0.75692502   -3.7987539    2064.1852  0.056159136  0.055491288            4 
 3064000   0.76145821     -3.80102    2061.8937  0.056078483  0.055480295            8 
 3065000   0.76880527   -3.7927599    2060.8657  0.056032239  0.055469076            7 
 3066000   0.76591511   -3.8081784    2072.2478  0.056323325  0.055458114            4 
 3067000   0.76745938   -3.8183974    2064.6038  0.056097266  0.055447157            3 
 3068000   0.75480899   -3.8179478    2065.5882  0.056105719  0.055436097            5 
 3069000   0.76925079   -3.7968639    2069.9589  0.056206116  0.055425025            8 
 3070000   0.74479497   -3.7998304    2070.9462  0.056214608  0.055414101            3 
 3071000   0.73866289   -3.8113352    2062.6189  0.055970337  0.055403052            4 
 3072000   0.75977526   -3.8154262    2071.6343  0.056196677  0.055391887            4 
 3073000   0.75557239   -3.8339113    2064.2637  0.055978515  0.055380736            4 
 3074000   0.76183664   -3.8220165    2064.8936  0.055977381  0.055369535            4 
 3075000   0.76630017   -3.8251863    2067.1786    0.0560211  0.055358443            5 
 3076000   0.75546386   -3.7986328    2063.4453  0.055901746    0.0553475            5 
 3077000   0.77703393   -3.8037321    2075.8063  0.056218349  0.055336524            3 
 3078000   0.76246751   -3.8244817    2067.6339  0.055978825  0.055325492            3 
 3079000   0.75476087   -3.8250042    2065.1605  0.055893702  0.055314334            4 
 3080000   0.74398648   -3.8132757     2072.534  0.056075055   0.05530321            5 
 3081000   0.76225931   -3.7953103    2070.6597  0.056006159    0.0552921            4 
 3082000    0.7597262   -3.8001703    2073.6897  0.056069914  0.055281166            5 
 3083000    0.7524155   -3.8031198    2077.2662    0.0561484  0.055270185            6 
 3084000   0.76905607   -3.7822851    2075.7868  0.056090218  0.055259292            4 
 3085000    0.7455442   -3.8038477    2072.8275  0.055992099  0.055248412            4 
 3086000   0.76093813   -3.8159968    2071.5723   0.05594006  0.055237479            6 
 3087000   0.74096996   -3.8257243    2076.7364  0.056061342  0.055226501           11 
 3088000   0.76782227   -3.7990976    2079.0875  0.056106635  0.055215759            4 
 3089000   0.76099631   -3.8232933    2077.2362  0.056038529  0.055204834            3 
 3090000   0.75476053   -3.8102695     2068.893  0.055795387  0.055193935            4 
 3091000   0.76237253   -3.7961355    2081.4294  0.056115319  0.055183073            7 
 3092000   0.75215641   -3.8334047    2073.8181  0.055892036  0.055172131           10 
 3093000   0.76169464   -3.8340925     2077.689  0.055978257  0.055161149            3 
 3094000   0.74978808   -3.8086107    2079.0546  0.055996945  0.055150146            7 
 3095000    0.7688683    -3.817403     2071.836  0.055784492  0.055139204            6 
 3096000   0.76419694    -3.816213    2079.8086  0.055981067  0.055128324            8 
 3097000   0.76408724   -3.7903641    2073.6613  0.055797582  0.055117397            3 
 3098000   0.76163203     -3.82527    2074.9831  0.055815125  0.055106363            6 
 3099000   0.76136661   -3.8265032    2076.6461  0.055841833   0.05509536            7 
 3100000   0.73585962   -3.7984653    2073.3644  0.055735602  0.055084389            5 
 3101000   0.76515965   -3.8025762     2078.842   0.05586483  0.055073457            5 
 3102000   0.74637558   -3.8190964    2078.6055  0.055840466  0.055062553            3 
 3103000   0.75280389     -3.81875    2086.6698  0.056039044  0.055051623            6 
 3104000   0.77179465   -3.8309965    2075.0427  0.055708834  0.055040785            5 
 3105000   0.73949506   -3.8400304    2079.8018   0.05581862  0.055029773            4 
 3106000   0.74344994   -3.8133341    2073.9468   0.05564356  0.055018804            2 
 3107000   0.76359989   -3.8308188    2072.1475  0.055577394  0.055007812            4 
 3108000   0.76515908    -3.828129    2078.3908  0.055726908  0.054996973           12 
 3109000   0.73673484   -3.7939642    2078.7476  0.055718548  0.054986005            6 
 3110000   0.74400466   -3.8279664    2081.2177  0.055766819  0.054974954            7 
 3111000    0.7699261   -3.8080539    2079.6777  0.055707642  0.054963843            6 
 3112000   0.75539636   -3.8344751    2079.8415  0.055694128   0.05495293            4 
 3113000   0.74154361   -3.8396579    2074.8118  0.055541594  0.054941841            6 
 3114000   0.74923894   -3.8155434    2078.9585  0.055634727   0.05493081            5 
 3115000    0.7357399   -3.8232521    2074.6065  0.055500441  0.054919727            2 
 3116000   0.75121731   -3.8053621    2086.0552   0.05578881  0.054908788            6 
 3117000   0.74663597   -3.8322908    2079.6564  0.055599839  0.054897681            6 
 3118000   0.76644809   -3.8216974     2075.527  0.055471644  0.054886593           15 
 3119000   0.74763056   -3.8219805    2081.9231  0.055624748  0.054875552            3 
 3120000    0.7655036   -3.7965064     2078.575  0.055517493  0.054864551            4 
 3121000    0.7459173   -3.8205389    2081.1063  0.055567293  0.054853553            5 
 3122000    0.7462061   -3.8473459    2085.2238    0.0556594  0.054842483           10 
 3123000   0.74712076   -3.7973439    2082.3558  0.055565049  0.054831584            4 
 3124000   0.74589768   -3.8317918    2081.0624  0.055512762  0.054820645            4 
 3125000   0.73760903   -3.8264692    2084.0757  0.055575352  0.054809597            5 
 3126000    0.7383665   -3.8278207    2084.6494  0.055572867  0.054798583            6 
 3127000   0.73756427   -3.8079028     2081.838  0.055480172  0.054787495            8 
 3128000   0.75322535   -3.8189468    2087.6927  0.055618412  0.054776547            8 
 3129000   0.73584178   -3.8078641    2085.0121  0.055529246  0.054765529            4 
 3130000      0.74895   -3.8240938    2081.6171  0.055421116  0.054754486            5 
 3131000   0.74423016   -3.8058437    2082.2464  0.055420164  0.054743528            5 
 3132000   0.74928983   -3.8119436    2083.5459  0.055437045   0.05473255            3 
 3133000   0.75747959   -3.8118929    2082.2737  0.055385513   0.05472164            6 
 3134000   0.75548911   -3.8309713    2070.9662  0.055067171  0.054710545            9 
 3135000   0.75936378   -3.8161652    2077.7562  0.055230097  0.054699471            3 
 3136000   0.76609059   -3.8325035    2083.9738  0.055377705  0.054688415            6 
 3137000   0.74444966   -3.8433786    2078.2874  0.055208996  0.054677418            8 
 3138000   0.73943751   -3.8164673    2086.5152  0.055409901  0.054666388            4 
 3139000    0.7378384   -3.8400464    2085.5309  0.055366118  0.054655334            4 
 3140000   0.76068767   -3.8320848     2080.372  0.055211572  0.054644225            8 
 3141000   0.74639445   -3.8226818     2082.007  0.055237372  0.054633067            7 
 3142000   0.73486768   -3.8193847    2085.8352  0.055321323  0.054621997            6 
 3143000   0.76159236    -3.801342    2093.1446  0.055497522  0.054610913            4 
 3144000   0.72992624   -3.8384702    2084.0461  0.055238712  0.054599749            9 
 3145000   0.76117679   -3.8387094    2084.6445  0.055237004  0.054588557           12 
 3146000   0.73112973   -3.8434359    2093.6999   0.05545931  0.054577418            3 
 3147000   0.74633139   -3.8124449    2084.1677  0.055189273  0.054566345            7 
 3148000   0.74228845   -3.8455073    2088.3351  0.055282061   0.05455531            5 
 3149000   0.75081026   -3.8307065    2084.0802  0.055151905  0.054544172            7 
 3150000   0.75023305   -3.8043662    2083.5959  0.055121584  0.054532964            6 
 3151000   0.73772995   -3.8100985    2089.6127  0.055263217   0.05452178            6 
 3152000   0.74291686   -3.8411922    2087.1774  0.055181299  0.054510588            5 
 3153000   0.74178069   -3.8153716    2089.8338  0.055234003  0.054499474            5 
 3154000   0.73898208   -3.8065544    2090.2499  0.055227486  0.054488361            4 
 3155000   0.74754076   -3.8400861    2087.6223  0.055140578  0.054477231            6 
 3156000   0.74781521   -3.8232119    2091.3708  0.055222084   0.05446616           12 
 3157000   0.74340332   -3.8354981    2080.1195  0.054907599  0.054454977            4 
 3158000   0.74466806   -3.8239208    2090.2526  0.055157605  0.054443746            5 
 3159000   0.73880213   -3.8391653    2084.6961  0.054993565  0.054432539            8 
 3160000   0.73554351   -3.8292507     2083.999  0.054957779  0.054421409            6 
 3161000    0.7454527   -3.8220625    2094.2972  0.055211883  0.054410298            6 
 3162000   0.72797435   -3.8206051    2088.8872  0.055051845  0.054399099           10 
 3163000    0.7456024   -3.8489958    2085.1849  0.054936897   0.05438786            8 
 3164000   0.74974002   -3.8177002    2082.9187  0.054859848  0.054376678            5 
 3165000    0.7496195   -3.8403768    2092.8575  0.055104201  0.054365535            6 
 3166000   0.74184078   -3.8180885    2093.4025  0.055101139  0.054354579            5 
 3167000   0.73845602   -3.8522919    2083.9376  0.054834692  0.054343537            6 
 3168000   0.74715165   -3.8334527    2092.4292  0.055040751   0.05433241            8 
 3169000   0.73949081   -3.8252205    2087.5972   0.05489632  0.054321238            2 
 3170000   0.73194105     -3.82841    2091.8665  0.054991233  0.054310108            6 
 3171000   0.73523839   -3.8125307    2097.6105  0.055124841  0.054299003            3 
 3172000    0.7355811   -3.8140894    2091.1897   0.05493878  0.054287872            4 
 3173000   0.74432545   -3.8379306    2091.7238  0.054935493  0.054276858            2 
 3174000   0.75376833   -3.8428243    2083.1849  0.054693996  0.054265709            4 
 3175000   0.74596168   -3.8302624    2090.5965    0.0548713  0.054254368            3 
 3176000   0.75251567   -3.8230928    2092.3943  0.054901194  0.054243154            6 
 3177000   0.74801615   -3.8519823    2083.0308  0.054638307  0.054231906           10 
 3178000   0.74753152   -3.8068443    2095.8306   0.05495675  0.054220754            3 
 3179000   0.74180218   -3.8240642     2092.452  0.054850898   0.05420957           19 
 3180000   0.75474548   -3.8459267    2085.7934  0.054659156  0.054198364            8 
 3181000    0.7561912   -3.8132726    2093.4831  0.054843421  0.054187193            2 
 3182000   0.73195487   -3.8537841    2089.0786  0.054710836   0.05417607            3 
 3183000   0.73767368   -3.8486843     2091.693  0.054762095  0.054164701            5 
 3184000    0.7296876   -3.8265269    2087.8643  0.054644691  0.054153393            9 
 3185000   0.74325398   -3.8768277    2094.0555   0.05478952  0.054142127            8 
 3186000   0.74777635   -3.8278839    2095.1833  0.054801822  0.054130963            6 
 3187000    0.7431211   -3.8020405     2089.241  0.054629249  0.054119752            5 
 3188000   0.74542658   -3.8290606     2091.082  0.054660236  0.054108516            7 
 3189000   0.75414687   -3.8258927    2096.0237   0.05477223    0.0540974            4 
 3190000    0.7403313   -3.8365444    2105.4289  0.055000754  0.054086166            6 
 3191000   0.75076235   -3.8300488    2090.3725   0.05459032  0.054074956            5 
 3192000   0.74095391     -3.85966    2086.2108  0.054464568  0.054063737            6 
 3193000    0.7521546   -3.8248763    2093.4696  0.054636956  0.054052521            3 
 3194000   0.73506567   -3.8324047    2092.8287  0.054603128  0.054041362            7 
 3195000   0.75938463   -3.8457166    2094.9287  0.054640812  0.054030314            4 
 3196000   0.74152299   -3.8716182    2094.5896  0.054614873  0.054019154            7 
 3197000   0.72969385   -3.8356402    2095.0934  0.054610921  0.054007928            3 
 3198000   0.74202245   -3.8606767    2094.2567  0.054572043  0.053996786            5 
 3199000   0.73494977   -3.8678829    2095.0919  0.054576741  0.053985575            7 
 3200000   0.72196048   -3.8449696    2103.2265  0.054771524  0.053974418            2 
 3201000   0.73326801   -3.8531553      2098.63  0.054634749  0.053963284            6 
 3202000   0.73396143   -3.8057174    2100.0907  0.054655702    0.0539522            2 
 3203000   0.74475819   -3.8733112    2093.6593  0.054471311  0.053941155           10 
 3204000   0.74571382   -3.8698983    2098.2641  0.054574077  0.053929995            6 
 3205000   0.74224651   -3.8672118    2100.2505  0.054608697  0.053918832            7 
 3206000   0.74087625    -3.849156    2097.3931  0.054517392  0.053907872            4 
 3207000   0.74283865   -3.8382564    2100.7001  0.054586325  0.053896818            6 
 3208000   0.73576362   -3.8364395    2098.5318  0.054512982  0.053885806            6 
 3209000   0.72789566   -3.8460675    2098.8645  0.054504635  0.053874767            7 
 3210000   0.74464254   -3.8559398    2099.7513  0.054510677  0.053863685            3 
 3211000   0.72104922   -3.8428149    2106.0022  0.054655927   0.05385264            1 
 3212000   0.72939368   -3.8431146    2105.2839  0.054620276  0.053841612            4 
 3213000   0.73411038   -3.8528014    2102.9557   0.05454289  0.053830448            6 
 3214000   0.74414637   -3.8387999     2102.905  0.054524607   0.05381946            7 
 3215000   0.75167313   -3.8471654    2105.5534  0.054576293  0.053808444            5 
 3216000   0.74428371   -3.8287858    2108.9255  0.054646702  0.053797566            2 
 3217000   0.72349401   -3.8294534    2112.1717  0.054713803  0.053786563            8 
 3218000   0.75216662   -3.8528061    2100.9501  0.054406208  0.053775527            5 
 3219000   0.72569329   -3.8314674    2106.9352  0.054544247   0.05376452            5 
 3220000   0.74244858   -3.8528214    2103.8949  0.054448625  0.053753657            9 
 3221000   0.72870865   -3.8310942    2106.1364  0.054489714  0.053742648            4 
 3222000   0.73409355   -3.8543183    2101.6172  0.054355916  0.053731689            5 
 3223000   0.73337237   -3.8482685    2101.6876  0.054340873  0.053720649            4 
 3224000    0.7210598   -3.8458289    2106.1908  0.054440414  0.053709708            4 
 3225000   0.73190439   -3.8266098    2108.5341  0.054484086  0.053698768            4 
 3226000   0.74030087   -3.8571642    2107.0805  0.054429648  0.053687838            5 
 3227000   0.74180887   -3.8579207    2103.3156  0.054315557  0.053676885            4 
 3228000   0.75288107   -3.8828587    2101.8604  0.054261163  0.053665803            4 
 3229000   0.72081083   -3.8499987    2099.1367  0.054174066  0.053654741            5 
 3230000   0.72491487    -3.869422    2106.7294  0.054353185  0.053643825            4 
 3231000   0.72335168   -3.8323658     2107.292  0.054350872  0.053632899            6 
 3232000   0.74505393   -3.8730747    2107.3075  0.054334455  0.053621817            6 
 3233000   0.74812948   -3.8543179    2115.2283  0.054521813  0.053610903            5 
 3234000   0.73562367   -3.8741436    2112.2884    0.0544292  0.053599914            5 
 3235000   0.72751727   -3.8683353    2105.1111  0.054227489   0.05358896           14 
 3236000   0.73242373   -3.8592888    2102.2987  0.054138305  0.053577979            4 
 3237000    0.7421884   -3.8326517    2112.8674  0.054393662  0.053567057            2 
 3238000   0.74331814    -3.850079    2116.1811  0.054462145  0.053556121            3 
 3239000   0.72866672   -3.8738648    2109.7509  0.054279893  0.053545137            3 
 3240000   0.72243049   -3.8565811    2108.1474  0.054221897  0.053534241            5 
 3241000   0.73462459   -3.8628049    2104.1258  0.054101763  0.053523309            4 
 3242000   0.73313429   -3.8529873    2109.2972  0.054218004  0.053512448            6 
 3243000   0.74497135   -3.8762579    2107.6865  0.054159895  0.053501407            6 
 3244000   0.75433445    -3.864102    2113.7276  0.054298388  0.053490428            4 
 3245000   0.72595885   -3.8700615    2113.0918  0.054265326  0.053479508            9 
 3246000   0.72594624   -3.8684408    2106.6427  0.054083044  0.053468544            4 
 3247000    0.7260069     -3.84249    2109.5874  0.054141962  0.053457661            7 
 3248000    0.7428265    -3.862788    2114.3965  0.054248679  0.053446751            8 
 3249000   0.72857099   -3.8811495    2107.1791  0.054046862  0.053435803            9 
 3250000   0.71977069   -3.8514507    2114.3879  0.054215075  0.053424937            5 
 3251000   0.73943498   -3.8663571    2115.2113  0.054219505  0.053414075            5 
 3252000   0.72917036   -3.8510342     2112.879  0.054143066   0.05340324            6 
 3253000   0.72400929   -3.8624049    2115.4744  0.054192909  0.053392306           18 
 3254000   0.75192294   -3.8666171    2115.2961  0.054171688  0.053381421            4 
 3255000   0.71773476   -3.8627226    2120.3547  0.054284555  0.053370614            5 
 3256000   0.72246819   -3.8315184    2119.7022  0.054251183  0.053359855            6 
 3257000   0.73038963   -3.8467464    2112.9317  0.054061296  0.053349101            5 
 3258000    0.7364083   -3.8950085     2116.336  0.054131778  0.053338249            7 
 3259000   0.72611282   -3.8494119    2118.9184    0.0541812  0.053327462            8 
 3260000   0.73547104   -3.8278672     2120.092   0.05419458  0.053316727            2 
 3261000    0.7421945   -3.8634443    2118.4646  0.054136375  0.053305954            3 
 3262000   0.73721986   -3.8682188    2119.1383   0.05413699  0.053295144            5 
 3263000    0.7373863   -3.8618123    2123.2999   0.05422668  0.053284439            3 
 3264000   0.72934747   -3.8676699    2109.6518  0.053861618  0.053273695            6 
 3265000   0.72632407   -3.8569089    2120.4996  0.054121991  0.053262953            4 
 3266000   0.73290324   -3.8623257    2114.8438   0.05396111  0.053252149            4 
 3267000   0.71380359   -3.8800721    2112.7816   0.05389199  0.053241379            4 
 3268000   0.73659332   -3.8766753    2121.0855  0.054087248  0.053230672            7 
 3269000   0.71687438   -3.8531126     2119.866  0.054039614  0.053219919           11 
 3270000   0.71929593   -3.8498045    2122.2769  0.054084528  0.053209102            7 
 3271000   0.73805182   -3.8559993    2122.6915  0.054078556  0.053198311            6 
 3272000   0.73470995    -3.820005     2124.842  0.054116799  0.053187624            3 
 3273000   0.73288524   -3.8626064    2118.4794  0.053938269   0.05317701            8 
 3274000   0.73415395   -3.8530042    2121.1384  0.053989474  0.053166287            4 
 3275000   0.72917059    -3.864252    2116.0815  0.053844313  0.053155676            5 
 3276000    0.7204981   -3.8374081    2121.0456  0.053954151  0.053144869            3 
 3277000   0.71535266   -3.8590743    2125.3306  0.054046654  0.053134163            4 
 3278000   0.71754376   -3.8800848    2120.2002  0.053899742  0.053123328            3 
 3279000    0.7427119   -3.8625875    2125.7432  0.054024174   0.05311264            4 
 3280000   0.72038749   -3.8649757    2125.8422  0.054010219  0.053101918            5 
 3281000   0.73285298   -3.8484185    2122.0865  0.053898368  0.053091237            5 
 3282000   0.72854125   -3.8622755    2129.8037  0.054077893   0.05308055            5 
 3283000   0.71524472    -3.871291    2118.7183  0.053780036  0.053069833            7 
 3284000   0.73787241   -3.9018026     2126.176  0.053952903  0.053059028           11 
 3285000   0.73239668    -3.883426    2116.1286  0.053681597  0.053048269            8 
 3286000   0.73097821   -3.8440315     2127.078   0.05394294   0.05303747            7 
 3287000   0.71437649   -3.8742652    2127.0979  0.053927034  0.053026784            7 
 3288000   0.72457989   -3.8453656    2129.2851  0.053966067  0.053016158            4 
 3289000    0.7261799   -3.8720672    2127.4404  0.053902918  0.053005495            8 
 3290000   0.72679917    -3.856601    2125.6276  0.053840619  0.052994721            6 
 3291000   0.71336232   -3.8808561    2126.6429  0.053849966   0.05298408           16 
 3292000   0.73159576   -3.8688577    2125.8024  0.053812333  0.052973237            7 
 3293000   0.71258273   -3.8761543    2130.2774  0.053909238  0.052962487            3 
 3294000   0.72444617    -3.872401    2120.1222   0.05363596  0.052951714            5 
 3295000   0.73697732   -3.8654508    2122.1779  0.053671671  0.052940841            6 
 3296000   0.72762887   -3.8487306    2129.6138   0.05384339  0.052930058            7 
 3297000   0.73381613   -3.8768886    2126.3509  0.053744587  0.052919265            5 
 3298000   0.75311216   -3.8950178    2120.9748  0.053592451  0.052908488            6 
 3299000   0.71279665   -3.8871339    2126.8389  0.053724332  0.052897502            6 
 3300000   0.72022589   -3.8510576    2128.9813  0.053762154  0.052886815            4 
 3301000   0.73678905   -3.8681305    2124.3288  0.053628416  0.052876211            7 
 3302000    0.7304298   -3.8566408    2134.5148   0.05386924  0.052865532            7 
 3303000   0.73818031   -3.8761546    2130.7212  0.053757222   0.05285481            4 
 3304000   0.71093075   -3.8500901    2124.1436  0.053575051  0.052844048            4 
 3305000   0.73409913   -3.8734359    2133.9634   0.05380644  0.052833263            5 
 3306000   0.71567346   -3.8529556    2132.1902  0.053745467  0.052822586            9 
 3307000   0.72649189   -3.8985848    2127.2304  0.053604234  0.052811809            5 
 3308000   0.73057121   -3.8805934    2125.1998  0.053536874  0.052801013            3 
 3309000   0.72034785   -3.8898067    2123.6582  0.053481873   0.05279019            4 
 3310000   0.71412132   -3.8739361    2127.2642    0.0535565  0.052779456            6 
 3311000   0.73230468   -3.8639314    2126.8825  0.053530719  0.052768725            3 
 3312000   0.72347942   -3.8785706    2134.2002  0.053698677  0.052757994            2 
 3313000   0.71829539   -3.8390003    2131.4951  0.053614426   0.05274728            3 
 3314000   0.72456581    -3.879529    2130.4587  0.053572187  0.052736595            3 
 3315000    0.7241203   -3.8598268    2133.8344  0.053640885  0.052725904            4 
 3316000   0.71564581   -3.8769153    2129.2951  0.053510632  0.052715223            3 
 3317000   0.71935985   -3.9005387    2131.3329  0.053545697  0.052704538            4 
 3318000   0.71754193   -3.8422972    2134.5322   0.05360991  0.052693863            4 
 3319000   0.70386538   -3.8833853    2135.3529  0.053614365  0.052683177            9 
 3320000   0.71476138   -3.8572261    2135.8412  0.053610471  0.052672544            8 
 3321000   0.71308741   -3.8855847    2133.9256   0.05354626  0.052661862            4 
 3322000   0.72203772   -3.8688194    2138.3736  0.053641722  0.052651335            8 
 3323000   0.71653309   -3.8983899    2130.9814    0.0534402    0.0526407            5 
 3324000   0.71370143   -3.8800504    2133.3746  0.053484121  0.052630078            8 
 3325000   0.71619013   -3.8890787    2128.5888  0.053348089  0.052619478            5 
 3326000   0.73143269   -3.8860492     2128.971  0.053341627  0.052608904            4 
 3327000   0.71164972   -3.8670282    2137.2439   0.05353281  0.052598288            9 
 3328000   0.70986317   -3.8891717    2136.6369  0.053501526  0.052587727            4 
 3329000   0.70651503   -3.8719717    2148.7618  0.053788971  0.052577229            7 
 3330000    0.7336838   -3.8814253    2136.3275  0.053461649  0.052566773            4 
 3331000   0.71099585   -3.8799547    2141.2745   0.05356936  0.052556249            5 
 3332000   0.72296499   -3.8734802    2131.4407   0.05330734  0.052545595            6 
 3333000   0.72102758   -3.8653339     2136.861  0.053426868  0.052535045            9 
 3334000   0.71076649   -3.8694201    2142.3995  0.053549278  0.052524471            3 
 3335000   0.73757932   -3.8877073    2134.3367  0.053331752  0.052513932            5 
 3336000   0.71363714   -3.8845963    2136.6504   0.05337356  0.052503376            3 
 3337000    0.7074958   -3.8754297    2146.0401  0.053592051  0.052492968            2 
 3338000   0.72042448   -3.8632471    2140.9674  0.053449355  0.052482455            6 
 3339000   0.71565236   -3.8984809    2136.2077  0.053314557  0.052471964            5 
 3340000   0.70347903   -3.8791361    2140.0494  0.053394446  0.052461471            5 
 3341000   0.72606358   -3.8765865    2143.7966   0.05347193  0.052451087           17 
 3342000    0.7159287   -3.8760244    2134.7234  0.053229688  0.052440604            4 
 3343000   0.72012796   -3.8768937    2138.1525  0.053299243  0.052430152            6 
 3344000   0.72279987   -3.8782813    2146.1157  0.053481751   0.05241975            7 
 3345000   0.72265935   -3.9088697    2139.9349  0.053311782  0.052409326            7 
 3346000   0.71097448   -3.8929251    2145.4128  0.053432278  0.052398849            3 
 3347000   0.71843031   -3.8876237    2144.8527  0.053402367  0.052388491            5 
 3348000   0.70649406   -3.8782782     2140.148  0.053269315  0.052378142            6 
 3349000   0.73724252   -3.8919007    2146.0383  0.053399978  0.052367809            4 
 3350000   0.72097133   -3.9126364    2143.0848  0.053310567  0.052357388            5 
 3351000   0.71602591   -3.8971005    2142.5941  0.053282456   0.05234693            5 
 3352000   0.70816493   -3.8940583    2142.2457  0.053257899  0.052336558           14 
 3353000    0.7224639   -3.8846883    2144.0891   0.05328783  0.052326103            5 
 3354000   0.70917337   -3.9005005    2141.0181  0.053195641  0.052315638           14 
 3355000    0.7059889   -3.8971904    2148.8263  0.053373729  0.052305274            5 
 3356000   0.71424151   -3.8873513    2150.0266  0.053387629  0.052294848            7 
 3357000   0.72231486   -3.8840304    2147.1123  0.053299383  0.052284476            7 
 3358000   0.70783749   -3.8796074     2149.439  0.053341251  0.052274084            5 
 3359000   0.71884724   -3.8646431      2148.31  0.053297361  0.052263709           10 
 3360000   0.70902568   -3.8759985    2150.7202  0.053341274   0.05225336            6 
 3361000   0.71937998   -3.9015902    2145.8345  0.053204266  0.052243031            4 
 3362000   0.73313481   -3.8609073    2152.1077  0.053343936  0.052232737            7 
 3363000   0.70994821   -3.9000531    2150.0775  0.053277765  0.052222415            2 
 3364000   0.71350754   -3.8768356    2143.9879  0.053111076  0.052212055            4 
 3365000   0.72246097   -3.9073654       2150.2  0.053249134  0.052201606            4 
 3366000   0.71098744    -3.872933    2150.8101  0.053248417  0.052191161            5 
 3367000   0.71302199   -3.8651259    2151.1545  0.053241127   0.05218079            3 
 3368000    0.7076486   -3.8840067    2148.9082  0.053169738  0.052170411           11 
 3369000    0.7144796   -3.8677257    2151.5592  0.053219532  0.052160073            3 
 3370000   0.71241254   -3.8634286    2152.3954  0.053224415  0.052149711            4 
 3371000    0.7266541   -3.8930788    2147.9232  0.053098073  0.052139254            7 
 3372000   0.69637051   -3.8986884    2147.6098  0.053074581  0.052128758            7 
 3373000   0.71199217   -3.8793318    2147.0131  0.053044104    0.0521183            7 
 3374000   0.70564089   -3.8980177    2145.7288  0.052996661  0.052107864            5 
 3375000   0.69424018   -3.8807669    2150.3102  0.053094079  0.052097417            3 
 3376000   0.74738199   -3.8859607    2156.9878  0.053243181  0.052087022            3 
 3377000   0.70521816    -3.906905    2154.3207    0.0531616  0.052076644            8 
 3378000   0.69741725   -3.8811955    2154.2452  0.053144002  0.052066244            5 
 3379000   0.70706019   -3.8953056    2150.6571  0.053039783  0.052055862           10 
 3380000     0.686911   -3.9014769    2149.8936  0.053005266  0.052045356            8 
 3381000   0.71651436   -3.8957004    2155.5812  0.053129774  0.052034913            3 
 3382000   0.69304821   -3.8926898    2152.5419  0.053039175  0.052024406            8 
 3383000   0.71282896   -3.8636544    2150.7077  0.052978316  0.052014024           16 
 3384000   0.70858217   -3.9081512    2150.1802   0.05294967  0.052003566            4 
 3385000   0.72422998    -3.894162    2152.7749  0.052997906   0.05199303           11 
 3386000   0.72032249   -3.9010706    2144.4141  0.052776484  0.051982599            8 
 3387000   0.72963844   -3.8952413    2152.6069  0.052962476  0.051972076            3 
 3388000   0.70438815   -3.9033372    2156.8165  0.053050387  0.051961634            6 
 3389000   0.71880354   -3.8967041    2152.9182  0.052938877  0.051951231            6 
 3390000   0.71424083    -3.919143    2154.2706  0.052956504  0.051940718            5 
 3391000   0.70101437   -3.8960185    2151.5053   0.05287293  0.051930161            6 
 3392000    0.7170159    -3.901807    2151.2981  0.052852252  0.051919619            5 
 3393000   0.71389552   -3.9089474    2154.8205  0.052923187  0.051909103            5 
 3394000   0.71239737   -3.8795025    2151.6434  0.052829587  0.051898528            7 
 3395000   0.70048549   -3.9195948    2146.4563  0.052686704  0.051887951            8 
 3396000   0.71849025   -3.9191121    2148.3145  0.052716787  0.051877383            5 
 3397000   0.72016293   -3.8963717    2152.3761  0.052800905  0.051866883            8 
 3398000   0.69612215   -3.9016275    2155.0278  0.052850396  0.051856344            8 
 3399000   0.70623825   -3.8869123    2148.1534  0.052666309  0.051845853            4 
 3400000   0.71585751   -3.8881483    2154.5171  0.052806791   0.05183536            9 
 3401000   0.70341706   -3.8783499    2155.9666  0.052826782  0.051824882            8 
 3402000    0.7130631   -3.9214703     2157.328  0.052844602  0.051814373            6 
 3403000   0.69711185   -3.9100265    2149.3897  0.052634677   0.05180384            5 
 3404000   0.72768344   -3.8936918    2148.6267  0.052600536  0.051793405            4 
 3405000   0.69304229   -3.9221657    2152.3977  0.052677378   0.05178287           11 
 3406000   0.71051858   -3.9010017    2150.1739  0.052607503  0.051772464            8 
 3407000   0.71483248   -3.9089093    2149.8507  0.052584156  0.051761942            4 
 3408000   0.70799029   -3.8940531    2150.4627  0.052583693  0.051751395            4 
 3409000    0.6949405   -3.8896991    2150.6048  0.052571742  0.051740845            7 
 3410000   0.70761055   -3.9030548    2158.3786  0.052746301  0.051730322            9 
 3411000   0.69933862   -3.9029191    2150.2808     0.052533  0.051719735            4 
 3412000   0.70223136   -3.9278472    2147.4894  0.052449429  0.051709207           11 
 3413000   0.70542199   -3.9020164    2161.8909  0.052785695  0.051698625            5 
 3414000   0.71574274    -3.895172    2159.0532  0.052700966  0.051688108           10 
 3415000   0.70376221   -3.9034642    2144.8524  0.052339004  0.051677477            3 
 3416000   0.71638045    -3.901324    2149.5704  0.052438779  0.051666919            5 
 3417000   0.70414704   -3.9010044    2151.9249  0.052480852   0.05165629            7 
 3418000   0.72014577   -3.9249028    2154.6125  0.052531024  0.051645773            4 
 3419000    0.6781846    -3.891796    2157.8755  0.052595192  0.051635128            7 
 3420000   0.71270969   -3.9039621    2152.0176  0.052437075  0.051624554            5 
 3421000   0.71322093   -3.9019614    2152.2747   0.05242801  0.051613981            6 
 3422000    0.7014124   -3.9241273    2157.6609  0.052543856  0.051603346           15 
 3423000   0.70325949   -3.9042116    2158.9086  0.052558881  0.051592739           13 
 3424000   0.70807394   -3.9011638    2154.2582   0.05243035  0.051582121            6 
 3425000   0.69568774   -3.9080823    2153.0712  0.052386162  0.051571563            7 
 3426000   0.71114487   -3.8933289     2161.177  0.052568033  0.051561088           11 
 3427000   0.70757679   -3.9026749     2162.363  0.052581534  0.051550635            4 
 3428000   0.70953514   -3.9244518    2159.9323  0.052507106  0.051540236            7 
 3429000   0.69731838   -3.8807186    2161.1291  0.052520877  0.051529765            8 
 3430000   0.71623995   -3.9126747    2161.2356  0.052508153   0.05151926            4 
 3431000   0.69159743   -3.9175636    2157.6964  0.052406888  0.051508783            5 
 3432000   0.69206009   -3.9309255    2152.1478  0.052256891  0.051498228           10 
 3433000   0.70956753    -3.910598    2160.1006  0.052434716  0.051487709            4 
 3434000   0.70193811   -3.9072737    2161.9994  0.052465525  0.051477288            9 
 3435000   0.70846201   -3.9053395    2153.4958  0.052243953  0.051466904            3 
 3436000   0.70395295   -3.9311791    2161.4455  0.052421555  0.051456411            3 
 3437000   0.69755082   -3.9309037    2155.0512  0.052251266   0.05144581            8 
 3438000   0.69138424   -3.9321474    2156.5865  0.052273282  0.051435197            8 
 3439000   0.70428977   -3.9175692    2157.3379  0.052276289  0.051424623           10 
 3440000   0.69531337    -3.898617    2160.9296  0.052348102  0.051414133            3 
 3441000    0.6930414   -3.9052329    2161.4808  0.052346238  0.051403691            5 
 3442000   0.70312145   -3.9245666    2154.5248  0.052162618   0.05139312            7 
 3443000   0.70458064   -3.9380685    2158.0873  0.052233693   0.05138249            4 
 3444000   0.69161715   -3.9154333    2166.4972  0.052422018  0.051371945            4 
 3445000   0.68157262   -3.9001549    2165.1769  0.052374864  0.051361371            4 
 3446000   0.70141781   -3.9050497    2156.0655  0.052139328  0.051350743           11 
 3447000   0.69816253   -3.9276304    2161.6363   0.05225888   0.05134014            5 
 3448000    0.6947232   -3.8905552    2155.6238  0.052098411   0.05132956           18 
 3449000   0.71823626   -3.9188082    2161.9568  0.052236319  0.051318989            4 
 3450000   0.71250293   -3.9314153    2156.9032  0.052099111  0.051308363            4 
 3451000   0.68420176   -3.9194207    2160.4867  0.052170546  0.051297778            5 
 3452000   0.70241197   -3.9085574    2159.2552  0.052125704  0.051287135            4 
 3453000   0.68949015   -3.9192442    2166.2395  0.052279165  0.051276599            7 
 3454000   0.70150707   -3.9370199    2165.7286  0.052251703  0.051266078            5 
 3455000   0.68859005   -3.9254968    2160.6489  0.052114058  0.051255515            5 
 3456000    0.6787484   -3.9348915    2164.6485  0.052195421  0.051244991            3 
 3457000   0.69625692   -3.9195625    2166.4719  0.052224278  0.051234469            5 
 3458000   0.70600517    -3.908418     2156.443  0.051967491  0.051224071           12 
 3459000   0.71260976    -3.915057    2154.0648  0.051895173  0.051213585           10 
 3460000   0.71189874   -3.9095073    2168.9685  0.052239127  0.051203092            5 
 3461000   0.68890682   -3.9015612    2159.9464    0.0520068  0.051192704            8 
 3462000     0.713176   -3.9200517    2162.2665  0.052047625  0.051182265            6 
 3463000   0.70359227   -3.9180631    2162.1286  0.052029277  0.051171863            6 
 3464000    0.7133493   -3.9174944    2161.4549   0.05199805  0.051161418            4 
 3465000    0.6888605   -3.9220118    2162.5181  0.052008612  0.051150869            5 
 3466000   0.70326913   -3.9099432     2171.261  0.052203812  0.051140396            8 
 3467000   0.69796252   -3.9094025    2160.9299  0.051940436  0.051129996            7 
 3468000   0.68931263   -3.8907858    2166.9465  0.052070032  0.051119536           12 
 3469000   0.68641972   -3.9258392    2161.6489  0.051927763  0.051109092            3 
 3470000   0.69588946   -3.9201621    2168.5054  0.052077459  0.051098564            6 
 3471000   0.69514531   -3.9154236    2166.9999  0.052026311  0.051088061            7 
 3472000   0.70214248   -3.9257347    2161.7854  0.051886171  0.051077627            6 
 3473000   0.68893326   -3.9136346    2162.1742  0.051880559  0.051067142            6 
 3474000     0.687923   -3.9119131    2164.6022  0.051923867  0.051056648            5 
 3475000   0.69311444   -3.9187695    2162.4371  0.051857004  0.051046167           13 
 3476000   0.70935775   -3.9247916    2170.7939   0.05204243  0.051035665            8 
 3477000    0.6943251   -3.9030449    2167.1052  0.051939056  0.051025174            7 
 3478000   0.70437191   -3.9284486    2163.7374   0.05184343  0.051014785            5 
 3479000   0.70442658   -3.9096161    2165.8905  0.051880103  0.051004276            2 
 3480000   0.69397172   -3.9475324    2166.6293  0.051882885  0.050993706            8 
 3481000   0.68222644   -3.9597717    2162.2518  0.051763185  0.050982992            7 
 3482000   0.69867402   -3.9161357    2167.7351  0.051879549  0.050972383           14 
 3483000   0.69227586   -3.9133841    2163.4988  0.051763297  0.050961866            6 
 3484000   0.67916411   -3.9278489    2162.5112  0.051724817  0.050951317           12 
 3485000   0.69994441   -3.9133378    2165.8233  0.051789176  0.050940759            4 
 3486000   0.68795832   -3.9353456    2167.0772  0.051804294  0.050930203            6 
 3487000   0.68116507   -3.9205195    2168.2883   0.05181838  0.050919636            5 
 3488000   0.70305876   -3.9234045    2169.3312   0.05182844  0.050909076            4 
 3489000   0.69598131   -3.9076887    2167.8537  0.051778295  0.050898533            3 
 3490000   0.70190318    -3.931953    2162.2126  0.051628764  0.050888063            3 
 3491000   0.69435998   -3.9454702      2166.84  0.051724435   0.05087746            8 
 3492000   0.68935635   -3.9337044    2167.6672  0.051729362   0.05086692           16 
 3493000   0.69228063   -3.9441703    2163.7658  0.051621476  0.050856283           10 
 3494000   0.69720818    -3.920532    2171.0043  0.051779342  0.050845699           20 
 3495000   0.67833895   -3.9362435    2173.2651  0.051818434  0.050835111           10 
 3496000   0.69726849   -3.9213603    2165.8683  0.051627295  0.050824565            3 
 3497000   0.69806595   -3.9282743    2169.4044  0.051696796  0.050814048           12 
 3498000   0.69321147   -3.9235489    2165.9764  0.051600354  0.050803448            7 
 3499000   0.69794967   -3.9439595    2170.4168  0.051691359  0.050792829           12 
 3500000   0.68026949     -3.92951    2169.5023  0.051654817  0.050782325           10 
 3501000   0.70157191   -3.9419847    2172.4234  0.051709592  0.050771779           10 
 3502000   0.68879128    -3.924238    2167.3479  0.051574051  0.050761177            4 
 3503000   0.68895747    -3.937386     2172.508  0.051682081  0.050750566            3 
 3504000   0.68855223   -3.9338952    2169.7899  0.051602689  0.050739975            7 
 3505000   0.69183588   -3.9408128    2166.7951  0.051516765   0.05072932            3 
 3506000   0.69041815   -3.9237001    2165.6732  0.051475404  0.050718751            7 
 3507000   0.69009223   -3.9457441    2170.9597  0.051586344  0.050708151            8 
 3508000   0.68800633   -3.9059327    2165.2563  0.051436152  0.050697598            4 
 3509000   0.69792712    -3.950224    2165.4252  0.051425507  0.050687071           12 
 3510000   0.70420455   -3.9330001    2172.7566  0.051584916  0.050676414            7 
 3511000   0.69006468   -3.9135999    2167.5785  0.051447321  0.050665846            6 
 3512000   0.69565376   -3.9089099    2173.1815  0.051565621  0.050655208           14 
 3513000   0.70233743   -3.9261029    2169.6668  0.051467567  0.050644652            8 
 3514000   0.68711262   -3.9374423     2167.429  0.051399853   0.05063407            8 
 3515000    0.6853417   -3.9518226    2170.2884  0.051453019  0.050623435            9 
 3516000   0.69069602   -3.9434463    2170.8813  0.051452438  0.050612839            6 
 3517000   0.70357876   -3.9376901    2173.6922  0.051504413  0.050602271            9 
 3518000    0.6960101   -3.9436045    2169.7201  0.051395681  0.050591703            4 
 3519000   0.68197219   -3.9287505    2173.4885  0.051470316  0.050581094            4 
 3520000   0.67888105    -3.949509    2173.0883   0.05144622  0.050570475            6 
 3521000   0.68810197    -3.923072    2162.9179    0.0511909  0.050559811            5 
 3522000   0.68725936   -3.9164138    2173.0293  0.051415608   0.05054921            7 
 3523000   0.69649808   -3.9342068    2171.1718  0.051357078  0.050538552            8 
 3524000   0.68670601   -3.9289627    2169.8027  0.051310129  0.050527963            6 
 3525000   0.68980081   -3.9333171    2169.6226  0.051291315  0.050517322            6 
 3526000   0.69869581   -3.9248267    2169.2058  0.051266918  0.050506713            5 
 3527000   0.68938889   -3.9407019    2165.4305  0.051163181  0.050496142            5 
 3528000   0.69096278   -3.9451666    2170.2709  0.051263011  0.050485517            5 
 3529000   0.68389972   -3.9464815    2171.3042  0.051272888  0.050474967            5 
 3530000   0.68873512   -3.9341338    2169.0508  0.051205166  0.050464334            9 
 3531000     0.689231   -3.9592865    2174.2729  0.051313907  0.050453772            6 
 3532000   0.68413281   -3.9274085     2181.165   0.05146199  0.050443144           10 
 3533000   0.67837681   -3.9306512    2171.8898   0.05122865  0.050432579            5 
 3534000   0.69979092   -3.9476551     2170.111  0.051172209  0.050421914            7 
 3535000    0.6811087   -3.9382251    2173.3946  0.051235138  0.050411304           10 
 3536000   0.67598611   -3.9255175    2175.6743  0.051274376  0.050400644            6 
 3537000   0.69035067   -3.9259892    2176.6726    0.0512834  0.050389914            7 
 3538000   0.68253841   -3.9497635    2173.4973  0.051194114  0.050379228           10 
 3539000   0.68874037   -3.9228475    2176.9839  0.051261747  0.050368568            6 
 3540000   0.66984061   -3.9494007    2175.2444  0.051206318  0.050357899            5 
 3541000   0.70434739   -3.9457186    2182.0743  0.051352591  0.050347287            2 
 3542000   0.69026065   -3.9203622    2174.0854  0.051150138    0.0503367            4 
 3543000   0.67553201   -3.9589315    2174.4412  0.051144068  0.050326121            6 
 3544000   0.69604163   -3.9220466    2173.2154  0.051100813  0.050315538            7 
 3545000    0.6600039   -3.9432846     2173.438   0.05109163   0.05030489            7 
 3546000   0.69543345   -3.9523746    2172.6875  0.051059586  0.050294254            7 
 3547000   0.69312658   -3.9559944    2165.8906  0.050885505   0.05028361            8 
 3548000   0.68115899   -3.9617302    2169.8297  0.050963681   0.05027282           10 
 3549000   0.68857174   -3.9273767    2179.9481  0.051186909   0.05026227            5 
 3550000   0.68057643   -3.9528989    2173.3036  0.051016517   0.05025167            5 
 3551000   0.68167179   -3.9459423    2184.2245  0.051258436   0.05024108            4 
 3552000   0.67357341     -3.98038    2178.0181  0.051098399  0.050230464           10 
 3553000   0.68420077   -3.9515554    2175.3324  0.051021024  0.050219824            7 
 3554000    0.6908194   -3.9521386    2172.5488  0.050941398  0.050209185            6 
 3555000    0.6773518   -3.9479565     2177.234  0.051036896  0.050198491            7 
 3556000   0.69641273   -3.9202187    2179.4608  0.051074729   0.05018784            8 
 3557000   0.68919718   -3.9283521    2175.6035  0.050970001  0.050177133            9 
 3558000   0.68197149   -3.9710763    2175.8055  0.050960407  0.050166435            9 
 3559000   0.67622107   -3.9261267    2178.3967  0.051006759  0.050155766            7 
 3560000   0.68045818    -3.942961    2175.3709  0.050921603  0.050145113            6 
 3561000    0.6937424   -3.9266595    2174.8126  0.050894239  0.050134428            5 
 3562000   0.69540919   -3.9485647    2175.2249  0.050889597  0.050123687            8 
 3563000   0.68075096    -3.940604    2178.2961  0.050947144  0.050112865            6 
 3564000   0.66617298   -3.9343467    2180.0662  0.050974237  0.050102126            9 
 3565000   0.68700985   -3.9530618    2177.4285  0.050898283  0.050091372            6 
 3566000   0.69505286   -3.9262515    2178.0124  0.050897654  0.050080527           10 
 3567000   0.66333025    -3.949178    2176.5293  0.050848736  0.050069747            5 
 3568000   0.69018078   -3.9496574    2172.1089  0.050731243  0.050058973            3 
 3569000   0.67771886   -3.9689197    2172.1894  0.050718908  0.050048203           15 
 3570000   0.68184721    -3.953334    2180.6618  0.050902469  0.050037391            7 
 3571000    0.6837126   -3.9568705    2171.5528  0.050675646  0.050026621            8 
 3572000   0.68420057   -3.9444778    2176.4285  0.050775208  0.050015862            3 
 3573000   0.68255862   -3.9522347    2178.2123    0.0508026  0.050005114            7 
 3574000   0.70115858   -3.9257918     2179.523  0.050818947  0.049994409            5 
 3575000    0.6655717   -3.9360099    2173.7989  0.050671302  0.049983745            7 
 3576000    0.7023661   -3.9410968    2180.5129  0.050813592  0.049972996            7 
 3577000   0.69027805   -3.9215311    2177.8389   0.05073709  0.049962314            5 
 3578000   0.67638419   -3.9338919    2178.2118  0.050731596    0.0499517            7 
 3579000   0.68473833   -3.9418224    2176.7334  0.050682999  0.049941105            5 
 3580000   0.67905649   -3.9212164    2176.9519  0.050673926  0.049930487            4 
 3581000   0.69356616   -3.9474195    2181.1317  0.050757043  0.049919745            8 
 3582000   0.67884363   -3.9366722    2176.9183  0.050644852  0.049909072            7 
 3583000   0.67969543   -3.9478375     2176.267  0.050615569  0.049898339            6 
 3584000    0.6848992   -3.9557928    2176.4968  0.050606789  0.049887609            7 
 3585000   0.68071386   -3.9693074     2170.056  0.050442958  0.049876934            7 
 3586000   0.66834742   -3.9490943    2176.5663  0.050580179  0.049866264            8 
 3587000   0.67686444   -3.9665506    2176.0944  0.050555117  0.049855514            7 
 3588000   0.67984741   -3.9637867    2176.7458  0.050556155  0.049844741            6 
 3589000   0.68476819   -3.9439365    2180.9079  0.050638709  0.049834087            5 
 3590000   0.67330994   -3.9598928    2177.9862  0.050556784  0.049823341            4 
 3591000   0.68305196   -3.9323718    2177.1169  0.050522532  0.049812677            7 
 3592000   0.66715417   -3.9553164    2180.6098    0.0505895  0.049802005            7 
 3593000   0.67135715   -3.9599398    2182.8515  0.050627413  0.049791312            8 
 3594000   0.66841154   -3.9475076    2184.9947  0.050663019  0.049780617           11 
 3595000   0.67350698   -3.9298142    2182.1179  0.050582241  0.049769946            3 
 3596000   0.67029945   -3.9486826    2181.0278  0.050542913  0.049759343            8 
 3597000   0.67180402   -3.9810911    2179.5651  0.050494975  0.049748584            7 
 3598000   0.67863271    -3.945846    2181.8633   0.05053417  0.049737902            6 
 3599000   0.69300188   -3.9674777    2175.2084  0.050366036  0.049727148            4 
 3600000   0.67647297   -3.9647175    2178.5181  0.050428659  0.049716449            7 
 3601000   0.66963845   -3.9456665    2187.1147  0.050613596  0.049705778            6 
 3602000   0.68257807   -3.9681745    2175.0614  0.050320687  0.049695109            4 
 3603000   0.66576843   -3.9584318    2175.3385  0.050313131  0.049684387            8 
 3604000   0.67150747   -3.9855219    2178.9486  0.050382643  0.049673681           14 
 3605000   0.66299399   -3.9667717    2180.7752  0.050410892  0.049662981            4 
 3606000   0.67366638   -3.9678902    2175.9886  0.050286295  0.049652268            5 
 3607000   0.65951469   -3.9652709    2180.7428  0.050382191  0.049641572            6 
 3608000   0.66277022   -3.9605153    2183.8694  0.050440442  0.049630822            6 
 3609000   0.67811898   -3.9718848    2179.4621    0.0503247  0.049620198           12 
 3610000   0.68374889   -3.9533666    2181.9588  0.050368394  0.049609617            7 
 3611000   0.67680345   -3.9568548    2188.2761  0.050500233  0.049598945            6 
 3612000   0.68156023   -3.9465126    2183.1224  0.050367351  0.049588264           10 
 3613000   0.69108253   -3.9809011    2186.1449  0.050423121  0.049577657            6 
 3614000   0.68138908   -3.9776703    2186.4719   0.05041671  0.049567012            3 
 3615000   0.67093524    -3.957938    2186.9774  0.050414417    0.0495564           10 
 3616000   0.68073296   -3.9533993    2188.6476  0.050438966  0.049545865            6 
 3617000   0.66300257   -3.9703354    2181.7344  0.050265746  0.049535219            6 
 3618000   0.67992563   -3.9443475    2186.6141  0.050364245   0.04952453           11 
 3619000   0.66768253   -3.9601832    2183.4599    0.0502777  0.049513905            8 
 3620000   0.65618572   -3.9667701    2184.1505  0.050279707  0.049503194            8 
 3621000   0.67461966   -3.9684481    2176.0625  0.050079686  0.049492455           14 
 3622000   0.67463698    -3.974288    2176.4898   0.05007569  0.049481688           10 
 3623000   0.69569999    -3.966278    2186.1286  0.050283573  0.049471037            6 
 3624000   0.67646058   -3.9829098    2183.9045  0.050218556  0.049460269            6 
 3625000   0.68835415   -3.9476892    2186.6556  0.050267945  0.049449561            6 
 3626000   0.67339605   -3.9676393    2183.2083  0.050174855  0.049438915            8 
 3627000   0.66870199   -3.9550716    2187.5095  0.050259845   0.04942819            7 
 3628000   0.68484482   -3.9577679    2179.8868  0.050070902  0.049417549            3 
 3629000   0.66377536   -3.9648955     2184.023  0.050152085  0.049406832            4 
 3630000    0.6551222    -3.933859    2182.6621  0.050107028  0.049396121            8 
 3631000   0.67767662   -3.9497532    2183.8431  0.050120331  0.049385469            6 
 3632000   0.67174352   -3.9873357    2181.9632  0.050063398  0.049374742           11 
 3633000   0.67620903   -3.9459773    2182.0609   0.05005186  0.049363981            5 
 3634000   0.66093457   -3.9441721    2186.9958  0.050151251  0.049353169            8 
 3635000   0.67673503   -3.9776304    2182.5164  0.050034763  0.049342365            6 
 3636000   0.66474789   -3.9735359    2190.7034   0.05020864   0.04933163            8 
 3637000   0.66161443   -3.9803693    2181.6231  0.049986781  0.049320847           11 
 3638000   0.67971905   -3.9789245     2181.073  0.049960441  0.049310074            9 
 3639000   0.65431313   -3.9786472    2183.1001  0.049993131  0.049299288           13 
 3640000   0.65793905   -3.9861303    2185.4755  0.050033779  0.049288464           11 
 3641000   0.67877633   -3.9674993    2187.4106  0.050064328  0.049277712           10 
 3642000   0.66387446   -3.9843574    2176.8629  0.049809238  0.049266878            5 
 3643000   0.66985819   -3.9491656    2186.1561  0.050008145  0.049256147            6 
 3644000   0.65166918   -3.9500204    2187.3775  0.050022353  0.049245387            8 
 3645000   0.67264629   -3.9677506    2188.4041  0.050032101   0.04923465            4 
 3646000   0.66711936   -3.9376563    2197.6076  0.050228734  0.049223869            4 
 3647000   0.68421182   -3.9714655    2185.6356  0.049941404  0.049213079            7 
 3648000   0.68111455    -3.982905    2183.8924  0.049887893  0.049202325           10 
 3649000   0.67286687   -3.9545587    2186.2911     0.049929  0.049191591            5 
 3650000   0.67160171   -3.9622574    2189.2761  0.049983473   0.04918088           12 
 3651000   0.65183075   -3.9648318    2184.4819  0.049860355  0.049170133           14 
 3652000   0.66062663   -3.9555955    2191.9151  0.050016317  0.049159451            4 
 3653000   0.65466654   -3.9628283    2187.8921  0.049910852  0.049148762            6 
 3654000   0.67455841    -3.961977    2190.2931  0.049951949  0.049138095           13 
 3655000   0.65984357    -3.948654    2189.8404  0.049927962  0.049127302            5 
 3656000   0.66750646   -3.9487141    2189.6947  0.049910983  0.049116576            5 
 3657000    0.6567939   -3.9728273    2186.2932  0.049819825  0.049105878            8 
 3658000   0.66245426   -3.9868495    2184.5948  0.049767514  0.049095072           15 
 3659000   0.66379492   -3.9816217    2183.5887  0.049730999  0.049084292            8 
 3660000   0.67060224   -3.9706649    2179.4115  0.049622302  0.049073429            7 
 3661000   0.68161248     -3.98169     2184.931  0.049734385  0.049062644            8 
 3662000   0.67775486    -3.980927    2186.8656  0.049764828  0.049051851           11 
 3663000   0.65663675   -3.9945482    2188.3184  0.049784293  0.049041088           13 
 3664000   0.66170317   -3.9758613    2179.1187  0.049561471  0.049030286            7 
 3665000   0.65975353   -3.9971226    2187.8621  0.049746751  0.049019473            9 
 3666000   0.66700288   -3.9671253    2183.6538  0.049637521  0.049008715            8 
 3667000   0.65297385   -3.9489123    2184.8025  0.049650088  0.048997967            3 
 3668000   0.66737786    -3.963074    2190.0648  0.049756107   0.04898712            7 
 3669000   0.66686805   -3.9991972    2183.4175  0.049591568  0.048976298            8 
 3670000   0.66489876   -3.9640042    2185.5511  0.049626501  0.048965418            4 
 3671000   0.65363384   -4.0086681    2185.0263  0.049601069  0.048954617            6 
 3672000   0.66748903   -3.9461703    2195.9347  0.049835119  0.048943917            6 
 3673000   0.66877031   -3.9582845    2189.4641  0.049674746  0.048933233            3 
 3674000   0.65582647   -3.9790083    2195.9381  0.049808068  0.048922466            8 
 3675000   0.67689003   -3.9632244    2185.8565  0.049565906  0.048911739            4 
 3676000    0.6657394   -3.9691728    2190.1894  0.049650648  0.048901066            4 
 3677000   0.66310681   -3.9767084    2195.9358  0.049767378   0.04889031            7 
 3678000   0.66158055   -3.9733053     2188.008  0.049574226  0.048879595            8 
 3679000   0.65790708    -3.963129     2195.037  0.049719966  0.048868933           12 
 3680000   0.65773145   -3.9640978    2192.7934  0.049655648  0.048858254           10 
 3681000   0.65390076   -3.9795169    2194.9076  0.049690021  0.048847621            9 
 3682000   0.65798849   -4.0004765    2191.9575  0.049609758  0.048836853            5 
 3683000   0.64959385   -3.9777382    2189.1357   0.04953244  0.048826177            8 
 3684000   0.66636957   -3.9756263    2194.4543  0.049639302  0.048815423            9 
 3685000   0.66498722   -3.9942758    2191.5502  0.049560158  0.048804661           14 
 3686000   0.65320084   -3.9846326     2186.375  0.049429711  0.048793914            8 
 3687000   0.65469548   -3.9876611    2182.6228  0.049331498  0.048783135            8 
 3688000   0.66593354   -3.9579828    2193.9554  0.049574192  0.048772428            7 
 3689000   0.65173209   -3.9602977    2192.5873  0.049529847  0.048761632           18 
 3690000   0.66175009   -3.9792127    2194.6633  0.049563309  0.048750802            5 
 3691000    0.6707291   -3.9891058    2190.0225  0.049445103  0.048740051            4 
 3692000    0.6646579   -3.9929161    2188.2644  0.049392028  0.048729205            5 
 3693000    0.6538711   -3.9793952    2193.4901  0.049496572  0.048718446            7 
 3694000   0.66157606   -3.9697327    2193.2735  0.049478288   0.04870768            5 
 3695000   0.65349985   -4.0018028    2187.5295  0.049335353  0.048696914           12 
 3696000   0.66717423   -3.9813991    2189.3993  0.049364161  0.048686087            9 
 3697000   0.66144559   -3.9839226    2190.2218  0.049369349  0.048675275            5 
 3698000   0.65378921   -3.9651526    2198.8542  0.049550527  0.048664524            4 
 3699000   0.67415588   -3.9734638    2193.3244  0.049412552  0.048653741            6 
 3700000   0.65510947   -3.9905049     2194.903  0.049434752  0.048642928            9 
 3701000   0.66787812   -3.9599647    2191.2194  0.049338454  0.048632179           12 
 3702000   0.65419717   -3.9764995    2192.5198  0.049354397  0.048621486            5 
 3703000   0.64220775    -3.981762    2191.3165  0.049313991  0.048610732            3 
 3704000   0.66351632   -3.9667906    2192.5773  0.049329042  0.048599992            6 
 3705000   0.65941767   -4.0166842    2187.7421  0.049206975  0.048589248            5 
 3706000   0.66483758   -3.9856516    2190.5452  0.049256727  0.048578524            6 
 3707000   0.65025557   -3.9888277    2193.0348  0.049299407   0.04856782            6 
 3708000    0.6620005   -3.9644608    2194.2878   0.04931427  0.048557159            4 
 3709000   0.64975738   -3.9700862     2193.917  0.049292645  0.048546481            4 
 3710000   0.65359805   -3.9890886    2193.3978  0.049267696  0.048535789            5 
 3711000    0.6714491   -3.9743744     2194.332  0.049275398  0.048524993            5 
 3712000   0.65658003    -3.992204    2188.6671  0.049134948  0.048514165            9 
 3713000   0.63779633   -3.9775612    2198.2949  0.049337798  0.048503479            5 
 3714000   0.66929565   -3.9968124    2194.5217  0.049239851  0.048492738            9 
 3715000   0.64710586   -3.9780615    2192.4817  0.049180838   0.04848205            6 
 3716000   0.65922057    -3.990145    2190.9127  0.049132416  0.048471385            5 
 3717000   0.66290181   -3.9911205    2195.6548  0.049225514  0.048460661           10 
 3718000   0.65965124   -3.9846814    2198.6632  0.049279703  0.048450004            7 
 3719000     0.662023   -3.9817894    2193.9424   0.04916067  0.048439307            3 
 3720000   0.65786256   -4.0011053    2195.8355  0.049189863  0.048428615            5 
 3721000   0.65898605    -3.989428    2198.5805  0.049238119  0.048417907            4 
 3722000   0.65390079   -3.9937473    2198.6211  0.049225798  0.048407293            6 
 3723000   0.64637743   -4.0088602    2192.1965  0.049068773  0.048396594            5 
 3724000   0.65829877    -3.988809    2194.4101  0.049105132   0.04838585            4 
 3725000   0.65523354   -3.9942396    2195.9973  0.049127457  0.048375247            5 
 3726000   0.65696868   -4.0108818    2199.8549  0.049200548  0.048364588           16 
 3727000   0.66113021   -3.9837539    2198.0873  0.049147824  0.048353912            7 
 3728000   0.66685499   -4.0158711    2200.5519  0.049189732  0.048343189           14 
 3729000   0.65685771   -4.0020426    2198.3355  0.049127011   0.04833251            8 
 3730000   0.65098455   -4.0053876    2192.1289  0.048975176  0.048321861            9 
 3731000   0.66036081   -4.0024562    2199.5977  0.049128869   0.04831115            7 
 3732000   0.66235787   -4.0043486    2197.3325  0.049065125  0.048300406           19 
 3733000   0.65723981   -4.0040313    2196.3011  0.049028956  0.048289713            7 
 3734000   0.64547861   -4.0006485    2204.6691  0.049202577  0.048279065           10 
 3735000   0.65136191   -4.0017955    2193.1348  0.048932057  0.048268376            8 
 3736000   0.65123462   -3.9898554    2200.3133  0.049079079  0.048257672            6 
 3737000   0.64981567   -3.9962859    2203.2202  0.049130768  0.048246988            5 
 3738000   0.64409209   -4.0249323    2196.4283   0.04896621  0.048236288            4 
 3739000   0.65878052   -3.9871966    2202.7952  0.049095017  0.048225601           13 
 3740000    0.6475157   -3.9907125    2201.7937  0.049059574  0.048214982           10 
 3741000   0.66084408    -4.008884    2199.2337  0.048989435  0.048204346            7 
 3742000   0.64005833   -4.0025808    2196.4701  0.048914798  0.048193698           13 
 3743000   0.66518502    -4.010027    2201.9742  0.049024272  0.048183034            7 
 3744000   0.64324224   -4.0247353    2201.7103  0.049005305  0.048172419            8 
 3745000   0.65711112   -3.9698902    2201.9421  0.048997376  0.048161781            8 
 3746000   0.64979275   -3.9951788    2197.8353  0.048892936   0.04815111            7 
 3747000   0.65401386   -3.9908279    2198.1928  0.048887838   0.04814043            6 
 3748000   0.65033846   -4.0015208    2196.8923  0.048845879  0.048129725            4 
 3749000   0.65200523   -4.0071409    2199.7612  0.048896622  0.048119069            4 
 3750000   0.64830083   -4.0060805    2198.5074  0.048855719   0.04810833            7 
 3751000   0.64843537    -4.013991    2195.3673  0.048772935  0.048097558           11 
 3752000   0.65092835   -3.9943428    2200.0117  0.048863089  0.048086896            8 
 3753000   0.66552947   -3.9835662    2206.4688  0.048993445   0.04807629            8 
 3754000    0.6482709   -3.9821499    2199.4681  0.048824989  0.048065693            9 
 3755000   0.65823328   -3.9897181    2196.7879  0.048752505   0.04805505            8 
 3756000   0.65497523   -3.9991301    2200.8816  0.048830352  0.048044379           21 
 3757000   0.66424732   -3.9827154    2205.1697  0.048912468  0.048033706            9 
 3758000   0.65633724   -4.0042306    2193.7071  0.048645269   0.04802308           10 
 3759000   0.65820472   -3.9804575    2199.9132  0.048769911  0.048012357            6 
 3760000   0.65259043    -4.005731    2195.7481  0.048664631  0.048001612           13 
 3761000   0.66129287   -3.9942547     2201.142  0.048771205  0.047990932            5 
 3762000   0.66191826   -4.0106352    2200.0997  0.048735151  0.047980249            5 
 3763000   0.65656947   -4.0057896    2200.3877  0.048728579  0.047969542           14 
 3764000   0.64953976   -4.0365001      2195.57  0.048608971  0.047958826            6 
 3765000    0.6437748   -4.0124565    2192.4378  0.048526732  0.047948088            7 
 3766000   0.64737948   -4.0093875    2197.3332  0.048622173  0.047937355            7 
 3767000   0.65174754   -4.0089432    2200.6747  0.048683185  0.047926655           10 
 3768000   0.64217387   -3.9754517    2193.2483  0.048506021  0.047915881           14 
 3769000    0.6565099   -4.0226289    2196.8223  0.048572174  0.047905156            7 
 3770000   0.65510744   -4.0013707    2203.8086  0.048713719  0.047894453            6 
 3771000   0.63584785   -3.9832508    2197.2091   0.04855496  0.047883791           15 
 3772000   0.63988372   -3.9988058    2200.2859  0.048610063  0.047873155            8 
 3773000   0.63376601   -4.0400428    2193.8303  0.048454596  0.047862469           24 
 3774000   0.64563176   -4.0161403     2197.393  0.048520424  0.047851751            6 
 3775000   0.64135228    -4.015946    2203.5548  0.048643593   0.04784117            7 
 3776000   0.65538158   -3.9976396     2205.471  0.048673001  0.047830527            5 
 3777000   0.65387044   -4.0160598    2196.9436  0.048471971  0.047819936           16 
 3778000    0.6491729   -4.0074573    2202.6908  0.048585909   0.04780927            5 
 3779000   0.66033836   -4.0268171    2204.3424  0.048609473  0.047798717            7 
 3780000   0.65216556   -4.0036815    2210.2677  0.048727242  0.047788146            7 
 3781000   0.65460768   -4.0153167      2204.23  0.048581283  0.047777559            8 
 3782000    0.6337499   -4.0403131    2194.5997  0.048356243  0.047766905            5 
 3783000    0.6649598   -4.0150006    2201.9712  0.048505842   0.04775632            7 
 3784000   0.64701402   -4.0096465    2208.2749  0.048631847  0.047745781           10 
 3785000   0.62999163   -4.0030197    2201.3208  0.048465892  0.047735233            4 
 3786000   0.65545341   -4.0280184    2211.1496  0.048669431  0.047724682           11 
 3787000   0.64428331   -4.0122608    2205.1575  0.048524723  0.047714102            3 
 3788000   0.63545852   -4.0081667    2211.3744  0.048648681  0.047703642            7 
 3789000   0.65980644   -4.0043182    2212.6468  0.048663825   0.04769315           11 
 3790000   0.65163493    -4.001099    2208.4523  0.048558758  0.047682711            7 
 3791000     0.646806   -4.0041138     2210.774  0.048596985  0.047672214            6 
 3792000   0.65192694   -4.0361104    2206.4957  0.048490147  0.047661648            5 
 3793000   0.64373257   -4.0064285    2205.7922  0.048461908  0.047651065            9 
 3794000    0.6540525   -4.0045344    2205.9576  0.048452768  0.047640544           17 
 3795000   0.65587434   -4.0153769    2201.0759  0.048332804  0.047629975           16 
 3796000   0.65399578   -3.9938202    2206.8284  0.048446357  0.047619407           11 
 3797000   0.64416197   -3.9956082    2213.3391  0.048576488  0.047608959            5 
 3798000   0.62700792   -4.0301342    2205.3198  0.048387745  0.047598474           13 
 3799000   0.63125622    -4.015068    2209.7149  0.048471415  0.047587928           12 
 3800000   0.63521202   -4.0230569    2206.2831  0.048383402  0.047577389           11 
 3801000   0.64615817   -4.0262608    2209.2279  0.048435234  0.047566817            6 
 3802000   0.64253744   -3.9926649      2213.79  0.048522489  0.047556273            6 
 3803000   0.63167881   -4.0276642    2212.4513  0.048480394  0.047545722            7 
 3804000   0.63147889   -4.0075901    2212.4887  0.048468469   0.04753512            4 
 3805000   0.65706322   -4.0314268    2204.3577  0.048277655  0.047524505            6 
 3806000    0.6447529   -4.0262518     2208.968  0.048365914  0.047513895            6 
 3807000   0.64217746   -3.9993448    2211.4126  0.048406719  0.047503387            4 
 3808000   0.64606875   -4.0066043    2209.7167  0.048356896  0.047492832            8 
 3809000   0.62412921   -4.0172314     2212.587  0.048406996  0.047482367           10 
 3810000   0.63298652    -4.022852    2207.8256  0.048290149  0.047471799            8 
 3811000   0.64577355   -4.0218995    2207.2415  0.048264706  0.047461346            7 
 3812000   0.62806488   -4.0252885    2211.6472  0.048348356  0.047450853            6 
 3813000   0.64788293   -4.0000553    2213.2973  0.048371738  0.047440398            4 
 3814000   0.64182385   -4.0281604    2213.7701  0.048369386  0.047429903            6 
 3815000   0.63386913   -4.0301109     2214.076  0.048363391   0.04741946           15 
 3816000   0.63195586   -4.0473256    2210.5265  0.048273203  0.047408923            8 
 3817000    0.6282738   -4.0364793    2208.1795  0.048209316  0.047398388            8 
 3818000   0.62567772   -4.0213214    2212.9991  0.048301883  0.047387894            5 
 3819000   0.64489051    -4.021465    2204.9339  0.048113248  0.047377417           11 
 3820000   0.63034001   -4.0343733     2211.207    0.0482375  0.047366865            5 
 3821000   0.63259296   -4.0305023    2209.4354  0.048186237  0.047356328            8 
 3822000   0.61850962   -4.0017957    2211.4646  0.048217874  0.047345874            8 
 3823000   0.64340118   -4.0317781     2209.983  0.048172966  0.047335422            5 
 3824000   0.65047221   -3.9867387    2212.8033  0.048221829  0.047324937            7 
 3825000   0.63185681   -4.0047116    2210.9539  0.048168931  0.047314436            7 
 3826000   0.64573504   -4.0366063    2211.9905  0.048178918  0.047303924           17 
 3827000   0.63296878   -4.0420618    2214.8443  0.048228471  0.047293402            7 
 3828000   0.64103481   -4.0215107    2210.5653  0.048122721  0.047282894            7 
 3829000   0.64309067   -4.0279088    2207.5618  0.048044784  0.047272421           12 
 3830000   0.63734344   -4.0056554    2213.7324  0.048166502  0.047261963            8 
 3831000   0.64538109    -4.029706    2215.1272  0.048184268    0.0472515            8 
 3832000   0.63878012    -4.026837    2210.7906  0.048077387  0.047240946           11 
 3833000   0.64487273   -4.0057252    2212.5971   0.04810412  0.047230503            9 
 3834000   0.63801382   -4.0227758    2207.5081  0.047980963  0.047219974            9 
 3835000   0.64469814   -4.0120142    2214.4883  0.048120128  0.047209436            8 
 3836000   0.63682504   -4.0346664    2215.2547  0.048124233  0.047198926            5 
 3837000   0.63644886   -4.0302571    2213.7086  0.048078112  0.047188469            7 
 3838000    0.6403297   -4.0245124    2218.0991  0.048160916  0.047178001            5 
 3839000   0.64530008   -4.0220297    2213.6862  0.048052578    0.0471676            9 
 3840000   0.63931148   -4.0146704    2211.5982  0.047994753  0.047157048            7 
 3841000   0.64892351   -4.0288059    2213.3797  0.048020909  0.047146513            6 
 3842000   0.63812478   -4.0038649     2212.524   0.04798985  0.047136057            3 
 3843000   0.63008387   -4.0272201     2216.286  0.048058937  0.047125515            6 
 3844000   0.64265097   -4.0080806    2210.1754  0.047913966  0.047115034            6 
 3845000   0.64890886    -4.040411    2213.0967  0.047964819  0.047104521            6 
 3846000   0.64397426   -4.0302965    2215.6158  0.048006929   0.04709408            9 
 3847000   0.64847882    -4.004448    2215.1376  0.047984091  0.047083663            7 
 3848000   0.63984217    -4.015405    2211.2511  0.047887456  0.047073277           11 
 3849000   0.62978314   -4.0229709    2213.9642  0.047933754  0.047062836            6 
 3850000    0.6419663   -4.0311797    2214.5469  0.047933916  0.047052441            7 
 3851000   0.64130444   -4.0335742    2217.2351   0.04797964  0.047041955            4 
 3852000   0.64371347   -4.0187445    2218.2599  0.047989354  0.047031543            7 
 3853000   0.64444204   -4.0358412     2216.794  0.047945194  0.047021143            7 
 3854000   0.62897775   -4.0546624    2208.7288  0.047758365  0.047010677            6 
 3855000   0.63434117   -4.0091617    2215.7949  0.047898722   0.04700026            9 
 3856000   0.63288627   -4.0244498    2216.6694  0.047905199  0.046989812           15 
 3857000   0.63615749    -4.045006     2211.258  0.047775862  0.046979433            4 
 3858000   0.64532051   -4.0227557     2213.375  0.047809206  0.046969004            9 
 3859000   0.63547106   -4.0222508    2212.8238  0.047784913  0.046958551            6 
 3860000   0.63496795   -4.0330049     2213.562  0.047788471  0.046948097            8 
 3861000    0.6363192   -4.0485288    2214.8498  0.047803888  0.046937598            8 
 3862000   0.62489331     -4.01145    2216.3564  0.047824019  0.046927154            3 
 3863000   0.64152487   -4.0312068    2220.0947  0.047892284   0.04691671           10 
 3864000   0.62127169   -4.0410609    2210.5045  0.047673061  0.046906291            4 
 3865000    0.6284523   -4.0239435    2211.8649  0.047690057  0.046895896           20 
 3866000   0.62853309   -4.0152646    2217.3932  0.047796888  0.046885501            9 
 3867000   0.61005335   -4.0533762    2218.0237  0.047798114  0.046875087            5 
 3868000   0.63723686   -4.0381053    2210.3936  0.047621372  0.046864677            5 
 3869000   0.62904916   -4.0396756    2216.6322  0.047743436  0.046854263            7 
 3870000   0.63167755   -4.0382397    2220.1641  0.047807151  0.046843891            9 
 3871000   0.63036558   -4.0250113    2217.2349  0.047731743  0.046833497           13 
 3872000   0.61896279    -4.050478    2220.6135  0.047792129  0.046823118           12 
 3873000   0.61169012   -4.0356552    2219.9985  0.047766558  0.046812736            6 
 3874000   0.61837612   -4.0347887    2215.9511  0.047667163  0.046802347            9 
 3875000   0.63209269   -4.0236537    2218.1313  0.047701748  0.046791956           10 
 3876000   0.63504131   -4.0497878    2222.5163  0.047783719  0.046781586           16 
 3877000   0.63520007   -4.0525298    2216.7341  0.047647109  0.046771214            4 
 3878000   0.64103914   -4.0289535     2222.076  0.047749612  0.046760845            5 
 3879000   0.63135403   -4.0206651    2217.2073  0.047632708  0.046750455            8 
 3880000   0.64077672   -4.0480858    2212.8804    0.0475275  0.046740009            8 
 3881000   0.62176016   -4.0578052    2219.5886  0.047659294  0.046729574            8 
 3882000   0.64437595   -4.0406518    2222.7656  0.047715215  0.046719228            9 
 3883000    0.6223163   -4.0329006    2224.7621  0.047745775  0.046708862            5 
 3884000   0.62961477   -4.0426022    2221.9243  0.047672595  0.046698475            9 
 3885000    0.6291117   -4.0439671    2219.6164  0.047610819  0.046688084            8 
 3886000   0.63877979   -4.0361179    2220.5295  0.047618148  0.046677733            9 
 3887000   0.63331692   -4.0633044    2218.6537  0.047565682  0.046667353            8 
 3888000   0.63604049    -4.034822    2220.1106  0.047584674  0.046656892            8 
 3889000   0.62872947   -4.0532855    2220.6629  0.047584274  0.046646479           16 
 3890000   0.63560218   -4.0294833    2219.7768   0.04755306  0.046636081           13 
 3891000    0.6156856   -4.0365907    2217.8729  0.047500062  0.046625661           16 
 3892000   0.61719978   -4.0433345    2214.4867  0.047415353  0.046615149            8 
 3893000     0.632758   -4.0474669    2210.0252  0.047307672  0.046604706            5 
 3894000   0.61424841   -4.0233098    2224.3312  0.047601678  0.046594311            6 
 3895000   0.61783727   -4.0382065    2222.2299  0.047544499  0.046583856            4 
 3896000   0.62643688   -4.0411598    2218.2071  0.047446251  0.046573509           13 
 3897000    0.6394987   -4.0454095    2217.0928  0.047410247  0.046563073           11 
 3898000   0.63208343   -4.0424448    2216.3707  0.047382647  0.046552667            4 
 3899000   0.63956025   -4.0705386    2216.2438  0.047367781  0.046542299            7 
 3900000    0.6398382   -4.0485303    2224.8419  0.047539356  0.046531894            6 
 3901000   0.61964756   -4.0761667    2220.9374  0.047443762  0.046521505            7 
 3902000   0.61491803   -4.0390417    2220.0637  0.047412945  0.046511127            5 
 3903000   0.62394078   -4.0554185      2221.96  0.047441284  0.046500752            5 
 3904000   0.62039231   -4.0289249    2222.1735   0.04743369  0.046490404            3 
 3905000   0.62019865   -4.0264564    2224.4694  0.047470538  0.046480103           13 
 3906000   0.62811197   -4.0530259    2220.1742  0.047366748  0.046469783            6 
 3907000   0.61768229   -4.0310783    2224.2537  0.047441637  0.046459452            9 
 3908000   0.62670547    -4.050735    2217.6634  0.047288968  0.046448997            7 
 3909000   0.62305184   -4.0563736    2218.2986   0.04729041  0.046438546            8 
 3910000   0.63266508   -4.0414595    2226.2799  0.047448421  0.046428189            8 
 3911000   0.62931714   -4.0384677    2224.3939  0.047396103  0.046417893            4 
 3912000   0.62568087    -4.037606    2225.5562  0.047408746  0.046407606            7 
 3913000   0.62446705   -4.0480942    2218.0283  0.047236314  0.046397283            9 
 3914000   0.62544827   -4.0383533    2219.3997  0.047253443  0.046386915            7 
 3915000   0.62222937    -4.047076    2226.1734  0.047385556   0.04637656           11 
 3916000   0.61993889   -4.0386043    2221.3726  0.047271292  0.046366237            7 
 3917000   0.62839929    -4.034475    2222.7513  0.047288557  0.046355893            5 
 3918000    0.6240053   -4.0533951    2222.3164  0.047267237  0.046345604            4 
 3919000   0.63783181   -4.0307495    2218.6289  0.047176765  0.046335233            4 
 3920000   0.61587601   -4.0636897    2225.8425  0.047318079  0.046324857            5 
 3921000   0.61639925   -4.0570156    2222.7547  0.047240387  0.046314515           16 
 3922000   0.61992788   -4.0754173    2220.8736  0.047188374  0.046304136            5 
 3923000   0.64582546   -4.0505831    2219.7913  0.047153354  0.046293678            4 
 3924000   0.62999208   -4.0373752    2221.5406  0.047178488  0.046283213           13 
 3925000    0.6320115   -4.0539982    2219.6027  0.047125323  0.046272827            9 
 3926000   0.62328842   -4.0625855    2220.2648  0.047127373   0.04626245            9 
 3927000   0.61930173   -4.0270511    2226.6093  0.047250006  0.046252074           12 
 3928000   0.61404272   -4.0503385    2221.8797  0.047137638  0.046241678            8 
 3929000   0.62136263   -4.0541338    2218.1701  0.047046961  0.046231216            7 
 3930000   0.62708926   -4.0311367    2217.6686  0.047024355  0.046220756            5 
 3931000    0.6226965   -4.0386804    2219.2666  0.047046268  0.046210349            8 
 3932000   0.62303641    -4.033853    2225.2421  0.047160947   0.04619994           11 
 3933000   0.61912354   -4.0558551    2217.4899    0.0469847  0.046189531            5 
 3934000   0.63010024   -4.0525694    2220.0845  0.047027718  0.046179165           18 
 3935000   0.62086526   -4.0499641    2210.4985   0.04681276   0.04616875            8 
 3936000   0.63030365   -4.0633978     2218.068  0.046961129  0.046158361            6 
 3937000   0.63394241    -4.062068    2222.8202  0.047049789  0.046147935           23 
 3938000   0.62307137   -4.0599112    2221.4649  0.047009161  0.046137595           31 
 3939000   0.61719791   -4.0671272    2222.9294  0.047028208  0.046127232           12 
 3940000   0.61252465   -4.0522919    2217.8745   0.04690936  0.046116856           11 
 3941000   0.63202515     -4.08339    2221.9727  0.046984113  0.046106471           19 
 3942000   0.61350795   -4.0625841    2226.6309  0.047070667  0.046096066           12 
 3943000   0.61109789    -4.050307    2221.7254  0.046955055  0.046085693            4 
 3944000   0.61905992   -4.0639273    2229.0249  0.047097381  0.046075312            9 
 3945000   0.62265798   -4.0534749    2225.6002    0.0470131  0.046064894            9 
 3946000   0.62234379   -4.0605108    2232.7558  0.047152303  0.046054546            9 
 3947000   0.63581722   -4.0527028    2225.1967  0.046980759   0.04604422           11 
 3948000   0.62362922   -4.0556941    2217.9126  0.046815109  0.046033846            9 
 3949000   0.63326195   -4.0545814    2224.3111  0.046938278  0.046023469            9 
 3950000   0.61196187     -4.04894    2222.8502  0.046895573  0.046013101            5 
 3951000   0.60929184   -4.0351042    2223.6151  0.046899837  0.046002765            5 
 3952000   0.62246101   -4.0467554     2229.656   0.04701535  0.045992441            9 
 3953000   0.61806035    -4.071153    2226.5577  0.046938142  0.045982033           10 
 3954000   0.62177596   -4.0749867    2224.6066   0.04688515  0.045971645            7 
 3955000    0.6242466    -4.046955    2228.7916  0.046961474   0.04596133           10 
 3956000   0.62856605   -4.0580766    2222.6954  0.046821188  0.045950947            8 
 3957000   0.62946162   -4.0788316    2220.4973  0.046763064  0.045940593           11 
 3958000    0.6366859   -4.0691539    2219.6327  0.046733045  0.045930192            4 
 3959000   0.60747789   -4.0640404    2227.8965  0.046895185  0.045919788            8 
 3960000   0.61055583   -4.0487022    2225.0495  0.046823432  0.045909451            6 
 3961000   0.63710462   -4.0720476    2225.1114  0.046812914  0.045899169           11 
 3962000   0.62816241   -4.0775863    2221.9505  0.046734615  0.045888784           19 
 3963000   0.61852166   -4.0589772    2222.4529  0.046733385  0.045878372            9 
 3964000   0.61505884   -4.0509152     2225.622   0.04678822  0.045868033           14 
 3965000   0.61735219   -4.0777023    2225.1849  0.046767232  0.045857738            7 
 3966000   0.61301823     -4.05842    2227.9498  0.046813535  0.045847389            5 
 3967000   0.60133936   -4.0709066    2226.9929  0.046781634  0.045836997            9 
 3968000   0.61600718   -4.0614631    2225.2823  0.046733919  0.045826669            9 
 3969000    0.6238751   -4.0621135    2225.1957  0.046720327  0.045816333           13 
 3970000   0.61384386    -4.056104    2222.9462  0.046661339  0.045806047           12 
 3971000   0.62526703   -4.0612995    2226.6179  0.046726642  0.045795738            8 
 3972000   0.60905318   -4.0294926    2230.7691  0.046801971  0.045785433            7 
 3973000   0.60712612   -4.0635788     2229.492  0.046763402  0.045775111            7 
 3974000   0.60486824   -4.0611565    2230.1081  0.046764555  0.045764817            9 
 3975000   0.61701872   -4.0564611    2227.4583  0.046697239  0.045754509           13 
 3976000   0.61385502   -4.0574559    2226.7087  0.046669783   0.04574418            8 
 3977000   0.61503289   -4.0646611    2225.6931  0.046636767   0.04573389            8 
 3978000   0.60814631   -4.0779644    2230.7876  0.046731767  0.045723582           12 
 3979000    0.6023321   -4.0624025    2231.1983  0.046728623  0.045713231            6 
 3980000   0.61346353   -4.0808091    2224.8965  0.046584935   0.04570295            7 
 3981000   0.61081229   -4.0740615     2227.723  0.046632399  0.045692611            5 
 3982000   0.60663257   -4.0590567    2233.8129  0.046748135  0.045682307           17 
 3983000   0.61723687   -4.0743923    2227.3998  0.046602222  0.045671957           11 
 3984000   0.62394881   -4.0888103    2226.7169   0.04657624  0.045661627           11 
 3985000   0.61294435   -4.0618784    2230.4613  0.046642854  0.045651314            9 
 3986000   0.62810953   -4.0717121      2223.07  0.046476627  0.045641012           14 
 3987000   0.61836311   -4.0689645    2225.6073  0.046518002  0.045630745            6 
 3988000   0.61464536   -4.0528908    2233.6465  0.046674325  0.045620478            8 
 3989000    0.6019516   -4.0817966    2228.2089  0.046549028  0.045610233           11 
 3990000   0.61302866   -4.0699387    2230.5499  0.046586254   0.04559987           14 
 3991000   0.61095879   -4.0767967    2226.7543   0.04649533   0.04558957           11 
 3992000   0.60748604    -4.088627    2223.3997  0.046413655  0.045579226           10 
 3993000   0.61058532   -4.0725053    2229.5864  0.046531146  0.045568894            8 
 3994000   0.62445774   -4.0682801    2228.6596  0.046500159  0.045558622            4 
 3995000   0.62344887   -4.0509005    2227.8011   0.04647061  0.045548319           10 
 3996000   0.62655085   -4.0502755    2233.1394  0.046570309  0.045538086            6 
 3997000   0.60255689    -4.073609    2231.2041  0.046518308  0.045527818           15 
 3998000   0.60868569   -4.0809375    2225.8862  0.046395827  0.045517498            9 
 3999000   0.60663995     -4.10945    2229.3116  0.046455605  0.045507153            5 
 4000000   0.60866876   -4.0552024    2234.6565  0.046555343  0.045496842            8 
 4001000   0.62312119   -4.0760394    2230.2161  0.046451223   0.04548656            4 
 4002000    0.6329084   -4.0705015    2233.4707  0.046507385  0.045476306           12 
 4003000   0.61698467   -4.0622551    2233.7703  0.046502005  0.045466054           12 
 4004000   0.61654034   -4.0632568    2232.3431  0.046460688  0.045455782            8 
 4005000   0.61176265    -4.071497    2230.7304   0.04641553  0.045445534           11 
 4006000   0.62003349   -4.0835415    2231.6976  0.046424063  0.045435242            4 
 4007000   0.59794727   -4.0715759    2236.7174  0.046516874  0.045424994            3 
 4008000   0.61085281   -4.0572817    2233.3197  0.046434625  0.045414758           10 
 4009000   0.60544668   -4.0679956    2229.5792   0.04634529  0.045404479           12 
 4010000   0.60618496   -4.0936407    2227.8241  0.046297259  0.045394216           13 
 4011000   0.61912392   -4.0848456    2234.5348   0.04642514  0.045383863            9 
 4012000    0.6025989   -4.0998633    2231.0193  0.046340547  0.045373559            9 
 4013000   0.60354291   -4.0830019    2224.7112  0.046198006  0.045363267            7 
 4014000   0.61335899   -4.0691035    2229.5544  0.046287046  0.045352963           11 
 4015000   0.61621714   -4.0744399    2231.1808  0.046309274  0.045342663            9 
 4016000    0.6047431   -4.0706119    2232.6499  0.046328226  0.045332365           12 
 4017000   0.62102883   -4.0605584    2228.5854  0.046232375  0.045322123            7 
 4018000   0.60481825    -4.085547     2231.822  0.046287996  0.045311854            6 
 4019000   0.60901783   -4.0812242    2227.9404  0.046195993   0.04530155            9 
 4020000   0.61155917   -4.0717967    2233.6998  0.046303892  0.045291234           13 
 4021000   0.61450333   -4.0591159    2229.7103  0.046209698  0.045280928            7 
 4022000   0.60559141   -4.0660513    2224.9383  0.046099334  0.045270606           12 
 4023000   0.61196093   -4.0897516    2229.7511  0.046187569  0.045260222           25 
 4024000   0.61223727   -4.0736759    2237.5924  0.046338478  0.045249888            7 
 4025000   0.60778519   -4.0732266    2229.4769  0.046158941  0.045239564           17 
 4026000   0.60778528   -4.0809562    2225.3274  0.046061588  0.045229198           10 
 4027000   0.61296515   -4.1129675    2223.9644  0.046021943  0.045218823            9 
 4028000   0.60457127   -4.0727988    2228.8618  0.046111837  0.045208483            4 
 4029000   0.61049692   -4.0915259    2223.5736  0.045991016  0.045198091           14 
 4030000   0.61495659   -4.0919742    2228.9552  0.046090885  0.045187653            9 
 4031000   0.61336049   -4.0695498    2227.3218  0.046045684  0.045177264           10 
 4032000   0.62883846   -4.0674031    2233.6573  0.046165205  0.045166907           10 
 4033000   0.60088095   -4.0911873    2221.2571  0.045897534  0.045156477            7 
 4034000   0.61135027   -4.0672659    2229.4993  0.046056422  0.045146098            5 
 4035000   0.59335656   -4.0928764    2233.9815  0.046137577  0.045135782            9 
 4036000   0.60978376   -4.0856397    2232.3273   0.04609199  0.045125482           13 
 4037000   0.58723581    -4.078315    2228.4428  0.046000388  0.045115193           17 
 4038000   0.61140579   -4.0838425    2225.4425  0.045927078  0.045104802            9 
 4039000   0.60301267   -4.0877647    2229.2342  0.045993938  0.045094475           11 
 4040000   0.61956758   -4.0851918    2227.8728  0.045954473  0.045084091           16 
 4041000   0.60715931   -4.0901423    2231.1795  0.046011291  0.045073702            5 
 4042000   0.61840034   -4.0779865    2231.3063  0.046002522  0.045063327            7 
 4043000   0.61694487   -4.0855356    2227.0663   0.04590375   0.04505299           12 
 4044000   0.60111794   -4.0830253    2231.5374  0.045984532  0.045042609           12 
 4045000    0.6036253   -4.0867041    2231.6155  0.045974774   0.04503226           12 
 4046000   0.60596593   -4.0728359    2235.9375  0.046052428  0.045021956           12 
 4047000   0.58975133   -4.0665731    2234.9784    0.0460213  0.045011668            6 
 4048000   0.61788082   -4.0791862    2230.1027  0.045909558  0.045001399            6 
 4049000   0.59632165   -4.0921081    2231.0877  0.045918492  0.044991114           18 
 4050000   0.60082008    -4.090039    2230.3413  0.045891797  0.044980824           10 
 4051000   0.61433329   -4.0957056    2230.4398  0.045882494  0.044970567            8 
 4052000   0.60131006   -4.0931005    2232.9856  0.045923528  0.044960237           23 
 4053000   0.60206631   -4.0797308    2232.0313  0.045892575  0.044950008            7 
 4054000   0.59435674    -4.080066    2232.6314   0.04589359  0.044939778            8 
 4055000   0.60935221   -4.0691501     2236.891  0.045969812   0.04492957           16 
 4056000   0.59688568   -4.1028864    2228.5306  0.045786707  0.044919323            4 
 4057000   0.58830372   -4.1088677    2233.3345  0.045874095  0.044909029           12 
 4058000   0.59995563    -4.084972    2240.7636  0.046015352  0.044898794           18 
 4059000   0.59765854   -4.0908017    2235.4109  0.045894122  0.044888588           10 
 4060000   0.59886586   -4.0721192    2236.9324  0.045914047   0.04487839            6 
 4061000   0.59225426   -4.0824331    2237.1825  0.045907874   0.04486815           14 
 4062000   0.58837101   -4.0943001    2232.1242  0.045792799  0.044857966           12 
 4063000   0.59305784   -4.1003343    2232.4653  0.045788525  0.044847711           10 
 4064000   0.59120218    -4.117358     2235.945  0.045848611  0.044837497            8 
 4065000   0.59356152   -4.0941848    2238.4856  0.045889414  0.044827257           11 
 4066000   0.59635277   -4.0958955    2232.7876  0.045761347  0.044817057            6 
 4067000   0.60493493   -4.1123776    2235.5035  0.045805742  0.044806864           20 
 4068000   0.58768938   -4.0800746    2236.6703  0.045818385  0.044796637           10 
 4069000   0.60853713   -4.0750352    2239.6682  0.045868522  0.044786407            8 
 4070000   0.60697196    -4.093799    2233.7388  0.045735848  0.044776208            8 
 4071000   0.60882512   -4.0977123    2237.9288  0.045810382  0.044765961            9 
 4072000   0.60417248    -4.093585    2233.3672  0.045705779  0.044755762            6 
 4073000   0.60886109   -4.1044663    2232.9803  0.045686642  0.044745564            5 
 4074000   0.61911078   -4.0967458    2237.1123  0.045759947  0.044735313           17 
 4075000   0.60389991   -4.0983067    2235.2344  0.045710314  0.044725094            7 
 4076000   0.60512831   -4.1091507     2235.909  0.045712893  0.044714955           10 
 4077000   0.59509899   -4.1057592    2234.6819  0.045676599  0.044704719            9 
 4078000   0.59915612   -4.0898129    2240.1542  0.045777224  0.044694563           14 
 4079000   0.58468817   -4.0967057    2239.6829  0.045756371  0.044684357            8 
 4080000   0.60656433   -4.0965492    2232.4624   0.04559768  0.044674169           11 
 4081000   0.60090935   -4.1031579    2238.3447  0.045706621  0.044663975            8 
 4082000   0.59556963   -4.0959569    2237.5065  0.045678313  0.044653772           22 
 4083000   0.58756445   -4.1059572    2229.8399  0.045510652  0.044643521           12 
 4084000    0.6040183   -4.1020757    2237.5291  0.045656406  0.044633293           12 
 4085000   0.59112467   -4.1059075    2236.7869  0.045630088  0.044623019           20 
 4086000   0.59863023   -4.1010052     2232.726  0.045536099  0.044612726            8 
 4087000   0.59756837   -4.0964459    2237.1385  0.045614928  0.044602465           17 
 4088000   0.60045171   -4.0851147    2235.2332   0.04556493  0.044592239            9 
 4089000   0.60145465   -4.1037895    2237.6805  0.045603661  0.044582034            8 
 4090000   0.59727247   -4.0948856    2237.3414  0.045585602  0.044571813           16 
 4091000   0.60777614   -4.1053187    2236.0029  0.045547195  0.044561616            9 
 4092000   0.60186003   -4.0796743    2239.8938  0.045615303  0.044551425            5 
 4093000   0.59397274   -4.0871445    2242.9367  0.045666112  0.044541281           10 
 4094000   0.60889947    -4.101379    2238.7187    0.0455691  0.044531169            7 
 4095000   0.61008804   -4.1071774    2240.0029  0.045584104  0.044521053           19 
 4096000   0.58735634   -4.0864835    2242.6506  0.045626844  0.044510922            6 
 4097000   0.58649149   -4.1092205    2242.7268  0.045617257  0.044500862            8 
 4098000   0.60069515   -4.0973937    2242.8572  0.045608776  0.044490794            6 
 4099000    0.6029842   -4.1098921    2242.4962   0.04559031  0.044480735           10 
 4100000   0.58206862   -4.1006351    2241.4899  0.045558738  0.044470619            8 
 4101000   0.59542751   -4.1154667    2234.7428  0.045410525  0.044460536           12 
 4102000   0.60160228   -4.1013204    2236.0272  0.045425548   0.04445043           10 
 4103000   0.59742352   -4.0964688     2245.846  0.045613901  0.044440296            6 
 4104000   0.60007256   -4.1135438    2232.1092  0.045323855  0.044430153           14 
 4105000   0.60647481   -4.0796734    2244.0833  0.045555893  0.044419988           14 
 4106000   0.58976865   -4.1177716    2243.5554  0.045534085  0.044409828           14 
 4107000   0.59864936     -4.10517    2237.6241  0.045402647  0.044399675            9 
 4108000    0.5856262   -4.0855015    2245.3209   0.04554773  0.044389594            7 
 4109000   0.59666007   -4.1021456    2240.4907  0.045438685  0.044379505           10 
 4110000   0.58525184   -4.1264916    2238.1715  0.045380606  0.044369377            6 
 4111000   0.58191648   -4.1041716    2238.7042  0.045380366  0.044359244            4 
 4112000   0.59012687   -4.1048707    2241.7699   0.04543146  0.044349119           16 
 4113000   0.58416525   -4.1040461    2239.5584  0.045375606  0.044338997            8 
 4114000   0.58285502   -4.1169343    2239.9006  0.045371507  0.044328828            5 
 4115000   0.58479432   -4.1114982    2241.0373  0.045383501  0.044318645           15 
 4116000   0.59941631   -4.1227015    2239.4062  0.045339452  0.044308447           14 
 4117000   0.60795363   -4.1060862    2245.5745  0.045453293  0.044298343           11 
 4118000   0.59768213   -4.1051474    2243.0465  0.045391098  0.044288223           14 
 4119000   0.60037372    -4.125733    2237.5217  0.045268304  0.044278072           17 
 4120000   0.59018134   -4.0992959    2243.4978  0.045378191  0.044267918           10 
 4121000    0.6047449   -4.1052475    2239.4882    0.0452861  0.044257778            6 
 4122000   0.58864203   -4.1051487    2240.0933  0.045287345  0.044247669           22 
 4123000    0.5786347   -4.1301706    2233.4027  0.045141133  0.044237512           18 
 4124000   0.59268194   -4.1090404    2242.0548   0.04530502   0.04422736           11 
 4125000   0.58526734   -4.1043082    2242.0228   0.04529339  0.044217262           10 
 4126000   0.59634496   -4.1121372    2242.5805  0.045293676  0.044207159           21 
 4127000   0.59100751   -4.1056575    2250.0914  0.045434364  0.044197109           18 
 4128000    0.5902644   -4.1203388    2241.8336  0.045256653  0.044187063            8 
 4129000   0.59219187   -4.1205442    2242.2816  0.045254735  0.044176986            8 
 4130000   0.58468678   -4.1131177    2243.1637  0.045261576  0.044166918            7 
 4131000   0.59078966    -4.108429    2237.4174    0.0451347  0.044156828            6 
 4132000    0.5897951   -4.1096259    2245.1624  0.045279977  0.044146747           21 
 4133000    0.5890273   -4.1272928     2241.257  0.045190277  0.044136621            9 
 4134000   0.59369437   -4.0940402    2247.2871  0.045300901  0.044126466           12 
 4135000   0.59618078   -4.1112621    2237.2024  0.045086708  0.044116365           13 
 4136000    0.5828334    -4.114461    2245.9816  0.045252691   0.04410625            7 
 4137000   0.60217132    -4.126653    2239.4569  0.045110323  0.044096116            9 
 4138000   0.58606713   -4.1267202    2238.4336  0.045078814  0.044085919            9 
 4139000   0.58962776   -4.1215938    2238.5376  0.045070018  0.044075725           16 
 4140000   0.59072083    -4.098212    2245.6381  0.045202056  0.044065628            7 
 4141000   0.58988658   -4.1093733    2247.2054  0.045222681  0.044055547           25 
 4142000   0.59168499   -4.1131257     2244.892  0.045165218   0.04404546           14 
 4143000   0.58837116   -4.1266466     2239.814  0.045052177  0.044035361           19 
 4144000   0.60116732   -4.1322185    2241.5714  0.045076645  0.044025291            9 
 4145000   0.58515743    -4.115837    2236.8479  0.044970806  0.044015147           12 
 4146000   0.58912419   -4.1164229    2235.0785  0.044924394   0.04400503           13 
 4147000   0.59853805   -4.1173963    2242.1079  0.045054817  0.043994899           10 
 4148000   0.58882766   -4.1255763    2239.8633  0.044998861  0.043984782            5 
 4149000    0.5871996   -4.1290743    2240.8551  0.045007935  0.043974702            9 
 4150000   0.58250573   -4.1069244    2248.5508  0.045151622  0.043964653            9 
 4151000   0.59580131    -4.110899    2242.8918  0.045027138  0.043954613            8 
 4152000   0.58013067   -4.0997519    2244.8781   0.04505616  0.043944599           10 
 4153000   0.59566048   -4.1142071    2247.4292    0.0450965  0.043934621            7 
 4154000   0.59928851   -4.1136238    2244.7699  0.045032296  0.043924607            6 
 4155000   0.58795346   -4.1430151      2242.76  0.044981146  0.043914579           12 
 4156000   0.58416437     -4.11521    2243.8513  0.044992206  0.043904577           13 
 4157000   0.57989402   -4.1417366    2243.5707  0.044975758  0.043894489           11 
 4158000   0.58115641   -4.1140214    2249.0246  0.045074247  0.043884419            7 
 4159000   0.57434464   -4.1194614     2242.595   0.04493458   0.04387438            3 
 4160000    0.5891213   -4.1109466    2236.4385   0.04480045  0.043864322            9 
 4161000   0.59805125   -4.1483407    2245.1458  0.044964066  0.043854267           17 
 4162000    0.6009504   -4.1226426    2243.8727  0.044927772  0.043844204            5 
 4163000   0.58175677   -4.1249087    2244.3618  0.044926771  0.043834105           10 
 4164000   0.58365937   -4.1176901    2246.6138  0.044961051  0.043824032           10 
 4165000   0.58882469   -4.1176596    2246.9494  0.044956971   0.04381399            7 
 4166000   0.60009446    -4.149312    2245.5294  0.044917775  0.043803942           12 
 4167000   0.59581934   -4.1431042    2235.6705  0.044709833  0.043793849           18 
 4168000   0.57872394   -4.1332902    2243.0855  0.044847358  0.043783807            9 
 4169000   0.58825983   -4.1452346    2243.6643   0.04484817  0.043773786            9 
 4170000   0.57576051    -4.121338    2244.2701  0.044849522  0.043763736            9 
 4171000   0.58788533   -4.0987434    2244.1889  0.044837147  0.043753698            9 
 4172000   0.59141705   -4.1325919    2237.9687  0.044702155  0.043743611           11 
 4173000   0.57985034   -4.1202223    2246.8003  0.044867807  0.043733549           12 
 4174000   0.59530042   -4.1365394     2247.649  0.044874002   0.04372356            8 
 4175000   0.58046704   -4.1228228     2243.245   0.04477535  0.043713516           14 
 4176000   0.58041408   -4.1427867     2249.762  0.044894676  0.043703492           10 
 4177000   0.57342841   -4.1334504    2244.6808  0.044782556   0.04369346            9 
 4178000   0.59009333   -4.1384211    2240.7617  0.044693668  0.043683412           12 
 4179000   0.58276366   -4.1210655    2246.6449  0.044800288  0.043673405           13 
 4180000   0.58281972   -4.1228244     2251.727   0.04489089  0.043663404           17 
 4181000   0.58181268   -4.1117498     2250.873   0.04486313  0.043653366           13 
 4182000    0.5698783   -4.1193099    2243.5395  0.044706271  0.043643358           23 
 4183000   0.58953706   -4.1277232    2242.9197  0.044683235   0.04363334            4 
 4184000   0.57193837    -4.141939    2245.6192  0.044726323  0.043623318            9 
 4185000   0.56332773   -4.1092509    2247.0276   0.04474368   0.04361332            9 
 4186000   0.57717826   -4.1280023    2245.2754  0.044698108   0.04360332           21 
 4187000   0.58316204   -4.1270558    2246.5799  0.044713397  0.043593322           15 
 4188000   0.58507608   -4.1350052    2245.2572    0.0446764  0.043583344           10 
 4189000   0.57272799   -4.1209047    2246.4798  0.044690057  0.043573358            8 
 4190000   0.58820786   -4.1394207    2248.1255  0.044712122  0.043563376            6 
 4191000   0.59230126   -4.1358993    2247.2701  0.044684445  0.043553395           13 
 4192000   0.57538368   -4.1453206    2248.2231   0.04469273  0.043543404            7 
 4193000   0.59205088    -4.124052    2249.9308  0.044716012  0.043533418           13 
 4194000   0.59304904   -4.1415354    2237.6472  0.044461279  0.043523408           12 
 4195000   0.58381688    -4.141169    2248.2819  0.044661936  0.043513447           10 
 4196000   0.58504529   -4.1316172    2243.1857  0.044550081  0.043503429           19 
 4197000   0.57018125   -4.1180466     2245.389  0.044583214  0.043493416           25 
 4198000   0.58032252   -4.1481068    2237.4923  0.044415838   0.04348335           16 
 4199000   0.58339452   -4.1485366      2246.74  0.044588791  0.043473332           10 
 4200000   0.58431316    -4.125773    2246.7489  0.044578352  0.043463295           13 
 4201000   0.59272906    -4.100914    2245.3594  0.044540177  0.043453311            6 
 4202000   0.57707282   -4.1399502    2241.0727  0.044444564  0.043443275            7 
 4203000   0.57407781   -4.1486588     2241.836  0.044449123  0.043433223           11 
 4204000   0.57482318   -4.1477489    2244.7162  0.044495643  0.043423115           24 
 4205000   0.57824993   -4.1494711    2240.9756  0.044410931  0.043413032            9 
 4206000   0.59045333   -4.1422099    2249.2505  0.044564322  0.043402977           17 
 4207000   0.57638392   -4.1479544    2247.8477  0.044525943  0.043392996            9 
 4208000   0.56241517   -4.1300322    2242.7691  0.044414787  0.043382939            9 
 4209000   0.57762146   -4.1537358    2243.3655  0.044416044  0.043372869            7 
 4210000   0.57474191   -4.1472627    2239.9074  0.044337042  0.043362819            9 
 4211000    0.5761173   -4.1366662    2244.1735  0.044410938  0.043352641            8 
 4212000   0.56519964   -4.1497948    2248.2967  0.044481969  0.043342499           11 
 4213000   0.56796075   -4.1460204    2244.0869  0.044388142  0.043332345            8 
 4214000   0.57710422   -4.1381902    2246.6216  0.044427732   0.04332228           10 
 4215000    0.5842865   -4.1488369    2244.0716  0.044366777  0.043312203            5 
 4216000   0.57251734    -4.144926    2240.0388  0.044276542  0.043302143            8 
 4217000   0.58526588   -4.1383132    2245.4669  0.044373308  0.043292076           12 
 4218000   0.57925456   -4.1317215    2243.9331  0.044332485  0.043282014            8 
 4219000   0.57560442   -4.1188096    2251.4451  0.044470354  0.043272009           24 
 4220000    0.5775546   -4.1355635    2237.8023  0.044190409  0.043261977           14 
 4221000   0.57506309   -4.1405712    2241.7156  0.044257198  0.043251905            6 
 4222000   0.58493489     -4.14929    2246.6341  0.044343797   0.04324185            8 
 4223000   0.57535754   -4.1522884    2247.9065  0.044358404  0.043231746            9 
 4224000   0.57398814   -4.1368756    2245.4176    0.0442988  0.043221659           16 
 4225000   0.58558341   -4.1499138    2241.0605  0.044202376  0.043211562           15 
 4226000   0.57128513   -4.1405593    2244.9696  0.044269002  0.043201466           10 
 4227000   0.57426863   -4.1525371    2245.8169  0.044275232  0.043191411           12 
 4228000     0.565043    -4.143215    2246.4798  0.044277826  0.043181383           13 
 4229000   0.57240731   -4.1486266    2244.5033  0.044228408   0.04317139            5 
 4230000    0.5804486   -4.1543938    2243.9419  0.044206894  0.043161356           14 
 4231000   0.58419525      -4.1576    2248.3087  0.044282453  0.043151371            8 
 4232000   0.56469475   -4.1518832    2243.2592  0.044172557  0.043141299           15 
 4233000   0.56205344   -4.1490274    2249.9925  0.044294678  0.043131236            6 
 4234000   0.57576708   -4.1347334    2250.5295  0.044294787  0.043121257           16 
 4235000   0.57528914   -4.1428939    2244.3574  0.044162878  0.043111254           12 
 4236000   0.57556647    -4.126773     2247.991  0.044223934  0.043101272           12 
 4237000   0.57132958   -4.1564878    2246.7005  0.044188115  0.043091299           21 
 4238000   0.58150787   -4.1311154    2245.8063  0.044160105  0.043081276           10 
 4239000   0.56620664   -4.1279523    2249.5099  0.044222495  0.043071252           14 
 4240000   0.57229601   -4.1476974    2249.2047  0.044206068  0.043061225           13 
 4241000   0.56698397   -4.1583531    2249.3911  0.044199306  0.043051204            5 
 4242000    0.5556236   -4.1292614    2251.5932  0.044232146  0.043041216            4 
 4243000   0.56798623   -4.1520957    2250.9454     0.044209  0.043031284            6 
 4244000   0.56992129   -4.1289444    2251.2378  0.044204325   0.04302129           13 
 4245000   0.58217787   -4.1659585    2245.5394  0.044082046  0.043011312            8 
 4246000   0.57941593   -4.1613346    2244.9545  0.044060184  0.043001327           12 
 4247000   0.57200425   -4.1397138     2242.984  0.044011145  0.042991271           11 
 4248000   0.58819444   -4.1662959    2249.4791  0.044128199  0.042981225           14 
 4249000   0.57624213   -4.1433744    2248.1376  0.044091503  0.042971234           11 
 4250000   0.56038585    -4.139972    2249.8251  0.044114219  0.042961299            6 
 4251000   0.57633634   -4.1376487     2255.043  0.044206129  0.042951353            9 
 4252000   0.57541646   -4.1569549    2248.5265  0.044068016  0.042941461            8 
 4253000   0.57852806   -4.1568272    2249.6377  0.044079428  0.042931541           13 
 4254000   0.57702139    -4.158595    2250.1062  0.044078244  0.042921582           12 
 4255000    0.5685877   -4.1417199    2252.8879  0.044122364  0.042911677           12 
 4256000   0.57282734   -4.1512014    2247.0603  0.043997892  0.042901725            9 
 4257000   0.57425301   -4.1641206    2241.8075  0.043884729  0.042891785           18 
 4258000   0.57777444    -4.143287    2252.3045   0.04407986  0.042881839           17 
 4259000   0.57832986   -4.1505491    2248.5561  0.043996166  0.042871928           24 
 4260000   0.55860544   -4.1538951    2248.5916  0.043986534  0.042861973           16 
 4261000   0.57479856    -4.169091      2247.71  0.043958969   0.04285199            9 
 4262000   0.56416926    -4.150205     2248.888  0.043971688  0.042842034            8 
 4263000   0.58165062   -4.1737233    2248.7214  0.043958116  0.042832084            9 
 4264000    0.5767561   -4.1476933    2248.9819  0.043952898  0.042822154            5 
 4265000    0.5766283   -4.1517016    2250.2677  0.043967716  0.042812265           11 
 4266000   0.57354086   -4.1605974    2247.0152  0.043893875  0.042802354            9 
 4267000   0.57914647   -4.1617445    2250.5296  0.043952223  0.042792491           12 
 4268000   0.56817822    -4.158611    2256.5033  0.044058561  0.042782619            4 
 4269000   0.58224121   -4.1586306    2243.5877  0.043796122   0.04277271            7 
 4270000   0.55949738   -4.1829584    2246.2818  0.043838443   0.04276273           11 
 4271000   0.57562785     -4.14706    2249.8466  0.043897734    0.0427528            8 
 4272000   0.57361575   -4.1555107    2256.9092  0.044025226  0.042742939            8 
 4273000   0.55120021     -4.13195    2253.3933  0.043946355  0.042733057           10 
 4274000   0.57881646   -4.1385559    2253.3096  0.043934442   0.04272319           15 
 4275000   0.56714005    -4.160881     2250.422  0.043867876  0.042713338           16 
 4276000   0.55597682   -4.1316997    2252.3973  0.043896111  0.042703501           15 
 4277000   0.57917778    -4.161713      2252.82  0.043894084   0.04269365           13 
 4278000   0.56975551   -4.1418293    2257.1538  0.043968245  0.042683817            7 
 4279000   0.55779134   -4.1452686    2258.9129  0.043992227  0.042673998           11 
 4280000   0.55986663   -4.1544633    2256.0619  0.043926439  0.042664168            9 
 4281000   0.56522407   -4.1640807    2255.3007   0.04390136  0.042654344           20 
 4282000   0.56570611   -4.1671779    2249.2727  0.043773795  0.042644519           12 
 4283000   0.55937772   -4.1649153    2248.7029  0.043752489  0.042634636           13 
 4284000    0.5759177   -4.1565155      2250.94  0.043785791  0.042624761           13 
 4285000   0.56733547   -4.1501256    2254.8598  0.043851805  0.042614939            9 
 4286000   0.55696894   -4.1687891     2258.942  0.043920944  0.042605126           11 
 4287000    0.5660819   -4.1689097     2251.125  0.043758747  0.042595314           24 
 4288000   0.57456915   -4.1517567    2251.1497  0.043749023  0.042585473           17 
 4289000   0.56900244   -4.1613177    2252.3106  0.043761378  0.042575649           18 
 4290000   0.56484306   -4.1482325    2254.5267  0.043794225  0.042565873            7 
 4291000    0.5793935   -4.1602799    2255.9465  0.043811592  0.042556043           20 
 4292000   0.57088434    -4.160919    2250.7856  0.043701181  0.042546182           15 
 4293000   0.55953872   -4.1644794    2249.8602  0.043673037  0.042536297           32 
 4294000   0.57024794   -4.1652821     2251.636   0.04369733  0.042526371           10 
 4295000   0.57156755   -4.1672415    2251.3499  0.043681604  0.042516521           10 
 4296000   0.57396654   -4.1695073    2254.3343  0.043729327  0.042506631           17 
 4297000   0.57212637   -4.1532174    2251.2706  0.043659735  0.042496783            9 
 4298000    0.5658509   -4.1702288    2253.0222  0.043683539  0.042486918           13 
 4299000   0.56302554   -4.1570376    2255.1247  0.043714132  0.042477163           23 
 4300000   0.56350505   -4.1710453    2252.8369   0.04365963  0.042467366           11 
 4301000   0.54656564   -4.1832916    2250.4695  0.043603609    0.0424575           13 
 4302000   0.58502157   -4.1558352    2248.7876  0.043560893   0.04244763            6 
 4303000    0.5592046   -4.1571638    2256.2791  0.043695853  0.042437763            8 
 4304000   0.55505328   -4.1684138    2254.1697   0.04364486  0.042427929           16 
 4305000     0.572133   -4.1754354    2253.2661   0.04361723  0.042418091            9 
 4306000   0.57773559   -4.1603387    2251.8803  0.043580281  0.042408258            8 
 4307000    0.5620182   -4.1699661    2251.8676  0.043569917  0.042398387           18 
 4308000   0.54557764   -4.1756328    2254.0408  0.043601842   0.04238858           10 
 4309000   0.56082073   -4.1772629    2250.1093  0.043515689  0.042378745           12 
 4310000   0.56511533   -4.1620537    2257.5214  0.043648906  0.042368948           17 
 4311000    0.5579662   -4.1597953    2251.8894  0.043529912  0.042359098           14 
 4312000   0.55166804   -4.1662672    2254.0729  0.043562014  0.042349276           19 
 4313000   0.55203057   -4.1713999    2252.5119  0.043521753  0.042339413           16 
 4314000   0.57052547   -4.1700984    2252.4774  0.043510999  0.042329572           13 
 4315000   0.57120492   -4.1567894     2260.259  0.043651198  0.042319803           12 
 4316000   0.56643702   -4.1739095    2255.1045   0.04354156   0.04230999           10 
 4317000   0.55276041   -4.1644193    2254.6968  0.043523604  0.042300143            7 
 4318000   0.56280468   -4.1600607    2258.6193  0.043589226  0.042290335           24 
 4319000   0.55911021   -4.1807144    2253.7131   0.04348447  0.042280512           12 
 4320000   0.55400528   -4.1517506    2253.6567  0.043473315  0.042270718           10 
 4321000   0.56463293   -4.1683828    2251.9374  0.043430098   0.04226086           13 
 4322000   0.56446269   -4.1765901    2250.7956  0.043398033   0.04225101            9 
 4323000    0.5592596   -4.1860804    2246.1744  0.043298914  0.042241091           22 
 4324000   0.56660894   -4.1828112    2254.2094  0.043443751  0.042231204           19 
 4325000   0.56973143    -4.180252    2258.9167  0.043524407  0.042221317           12 
 4326000   0.57377738   -4.1759109    2256.0634  0.043459382  0.042211495            4 
 4327000   0.55405979   -4.1636055    2255.4723  0.043437953  0.042201676            9 
 4328000   0.55878343   -4.1789694    2249.7131  0.043317026  0.042191839           10 
 4329000   0.55343456   -4.1816154    2252.2392  0.043355648  0.042182017           16 
 4330000   0.56427727   -4.1724509    2254.0619  0.043380714  0.042172198           11 
 4331000   0.55540497   -4.1517398    2255.7125  0.043402457  0.042162378           12 
 4332000   0.54866811   -4.1543685    2252.6693  0.043333897  0.042152565            7 
 4333000   0.54887785    -4.170109    2255.5912  0.043380091  0.042142725           34 
 4334000   0.55288464   -4.1709139    2252.2732  0.043306284  0.042132942           22 
 4335000   0.55077441   -4.1592411    2258.0045  0.043406468  0.042123134           10 
 4336000   0.56299532   -4.1819558    2254.7631  0.043334162  0.042113332           16 
 4337000   0.56488379    -4.167004    2253.0233  0.043290741  0.042103547            8 
 4338000   0.56852248   -4.1839307    2252.0783  0.043262608  0.042093763           15 
 4339000   0.55432644   -4.1943846    2258.2427  0.043371029  0.042083971            6 
 4340000   0.55637134    -4.192499    2258.3553  0.043363197  0.042074214           10 
 4341000   0.56044045    -4.170587    2260.2202  0.043389008  0.042064419           14 
 4342000   0.55613848   -4.1687604    2255.0698  0.043280166   0.04205467           15 
 4343000   0.55268639   -4.1870284    2255.1332  0.043271417  0.042044865           10 
 4344000   0.55376006   -4.1779297    2258.1386   0.04331911  0.042035079            5 
 4345000   0.55719647   -4.1577545    2260.6965  0.043358199  0.042025349            7 
 4346000   0.56071019   -4.1779214    2260.9171  0.043352452  0.042015625           12 
 4347000   0.55220891   -4.1633726    2260.4513   0.04333355  0.042005869            6 
 4348000   0.55171809   -4.1659569    2255.2938  0.043224736  0.041996143           12 
 4349000    0.5516866   -4.1884765    2254.8261  0.043205834  0.041986413           11 
 4350000   0.55573333   -4.1719703    2257.7612  0.043252131  0.041976639           11 
 4351000   0.56027078   -4.1766128    2253.4046  0.043158749  0.041966883           17 
 4352000   0.55161875   -4.1656898     2252.072  0.043123316  0.041957159           17 
 4353000   0.56027164   -4.1876569    2257.6634   0.04322045  0.041947427           16 
 4354000   0.56017372   -4.1850477    2254.5044  0.043150061  0.041937616           18 
 4355000    0.5487932    -4.178607    2257.7037  0.043201373  0.041927901           20 
 4356000   0.55725748   -4.1854354    2260.8934  0.043252475  0.041918174           15 
 4357000   0.56144111     -4.16681      2261.02  0.043244969  0.041908429            9 
 4358000   0.55516536   -4.1824445    2262.5641  0.043264572  0.041898713           10 
 4359000   0.55153323   -4.1820831    2254.5091  0.043100656  0.041888991           17 
 4360000   0.54836397   -4.1725246    2255.9943  0.043119157  0.041879287            8 
 4361000   0.56142204   -4.1728595     2265.492   0.04329076  0.041869554           17 
 4362000   0.55517411   -4.1870301    2257.5298  0.043128721  0.041859819            6 
 4363000   0.54707571   -4.1923909    2254.0652  0.043052662  0.041850091           10 
 4364000   0.56046997   -4.1913551    2256.2277   0.04308409  0.041840338           45 
 4365000   0.54562105   -4.1814151    2251.8523  0.042990689  0.041830584           12 
 4366000   0.56297228   -4.1811378    2257.3731  0.043086217   0.04182085           11 
 4367000   0.54756094   -4.2025371     2253.407  0.043000669  0.041811084           15 
 4368000   0.55037061   -4.1845809    2255.3258   0.04302743  0.041801346           12 
 4369000   0.54951307   -4.1864635    2254.2674  0.042997395  0.041791591            8 
 4370000    0.5547308   -4.1930807    2254.9198  0.042999997   0.04178182           11 
 4371000   0.56502975   -4.1783865    2255.9243  0.043009309  0.041772073           13 
 4372000   0.55750312   -4.1895443    2255.9468  0.042999901   0.04176236            5 
 4373000   0.55583922   -4.1927979    2252.5585    0.0429255  0.041752581           29 
 4374000    0.5583062   -4.1841195    2254.8474  0.042959293  0.041742808           12 
 4375000   0.54904018   -4.1987732    2253.1703  0.042917529   0.04173305           13 
 4376000   0.56263533   -4.1783656    2256.4944  0.042971025  0.041723283            9 
 4377000   0.54706316   -4.1824314    2257.7298  0.042984727  0.041713526           12 
 4378000   0.55657686   -4.1876796    2259.5836  0.043010195  0.041703787           10 
 4379000   0.54858585   -4.1808954     2258.294  0.042975832  0.041694051            6 
 4380000   0.56210669   -4.1888059     2255.887  0.042920225  0.041684268           12 
 4381000    0.5457548   -4.1893577    2256.7986  0.042927767  0.041674461            4 
 4382000   0.56269517   -4.1866463    2257.0339  0.042922447  0.041664649            8 
 4383000   0.55859229   -4.1709893    2255.6985  0.042887263    0.0416549           27 
 4384000   0.54743365   -4.2013557    2255.7853  0.042879131  0.041645169            9 
 4385000   0.54824208   -4.1871845    2256.6709  0.042886182  0.041635395           17 
 4386000   0.54288428   -4.1937046    2261.6115  0.042970274  0.041625659           17 
 4387000   0.55262219   -4.1906372    2257.0365  0.042873574  0.041615883           18 
 4388000   0.55591217   -4.1932603     2253.836  0.042803023  0.041606091            5 
 4389000   0.56037384   -4.1938872    2253.5716   0.04278825  0.041596289           20 
 4390000   0.55552163   -4.1901706    2250.9776  0.042729264  0.041586492           25 
 4391000   0.55862926   -4.1972741    2253.0826  0.042759481  0.041576668           17 
 4392000   0.56149675   -4.1972077    2254.0332  0.042767783  0.041566891           17 
 4393000   0.55634939   -4.1939412    2260.6237  0.042883066  0.041557159            8 
 4394000   0.55534118   -4.1958437     2253.137  0.042731319  0.041547381            9 
 4395000   0.55514348   -4.2087176    2255.4468  0.042765393  0.041537633           16 
 4396000   0.54504659    -4.189208    2258.7662  0.042818589  0.041527857           13 
 4397000   0.55195835   -4.2033655    2255.0059  0.042737584  0.041518096            9 
 4398000    0.5508796   -4.1943422    2260.9609  0.042840701  0.041508316           13 
 4399000   0.54874797   -4.2044172    2246.7055  0.042560913  0.041498515           27 
 4400000   0.54094388   -4.2075702    2250.4378  0.042621929  0.041488698            8 
 4401000   0.55265352   -4.1931597    2266.9353  0.042924625  0.041478946           14 
 4402000    0.5535319   -4.1786823    2257.2975  0.042732422  0.041469217            5 
 4403000   0.53296988   -4.1820938    2262.4365  0.042819981  0.041459492           14 
 4404000   0.56707015   -4.1931423    2256.9735  0.042706886   0.04144979           25 
 4405000   0.55062235   -4.2156811    2249.6964  0.042559523  0.041440033           23 
 4406000   0.55598418   -4.2081181    2257.3837  0.042695259   0.04143027           15 
 4407000   0.55152837    -4.192481    2260.9023  0.042752105  0.041420536            8 
 4408000   0.54740615   -4.2168079    2256.1381  0.042652339  0.041410755           17 
 4409000    0.5528649   -4.2001897    2254.3932  0.042609684  0.041401029           35 
 4410000   0.55122916   -4.1937309    2256.3602  0.042637193  0.041391313            8 
 4411000   0.55702292   -4.2000326    2254.2792  0.042588211  0.041381624           16 
 4412000   0.54855398     -4.19036    2255.2816  0.042597492   0.04137191            8 
 4413000   0.54914383    -4.188578    2251.8251  0.042522568  0.041362133           16 
 4414000   0.55203494    -4.194029    2262.0364  0.042705717  0.041352419           10 
 4415000   0.55315992   -4.2146366    2260.4167  0.042665473   0.04134267           15 
 4416000   0.53746212   -4.2136511    2253.0674  0.042517123  0.041332939           21 
 4417000   0.54796834   -4.1797782    2258.8169  0.042615971  0.041323242           11 
 4418000   0.54142416   -4.2084498    2255.5343  0.042544408  0.041313542            9 
 4419000   0.55815558   -4.2156201    2257.6385  0.042574461   0.04130381            9 
 4420000   0.54564201   -4.1898783    2261.4206  0.042636135  0.041294053            8 
 4421000   0.54150428   -4.1952397    2255.9231  0.042522866  0.041284316           23 
 4422000   0.53325182   -4.1980734    2255.7848  0.042510644  0.041274613           30 
 4423000   0.54309536   -4.1969162      2253.25  0.042453275  0.041264876           14 
 4424000   0.54594228   -4.1879383    2255.7027  0.042489878  0.041255151           13 
 4425000   0.53979767   -4.1978244    2259.6947  0.042555455  0.041245478           19 
 4426000   0.54667432   -4.1987228    2262.9899  0.042607883  0.041235781           42 
 4427000   0.53826802   -4.2192321    2254.2247  0.042433264  0.041226049           39 
 4428000   0.54780019   -4.1954012    2254.6111  0.042430952  0.041216292           12 
 4429000   0.55197367   -4.1967808    2260.3069   0.04252854  0.041206594           26 
 4430000   0.55317209   -4.1993142    2260.7366  0.042527024  0.041196917           27 
 4431000   0.54290311   -4.1995654    2256.7942  0.042443283  0.041187263           12 
 4432000   0.54175549   -4.2035951    2257.1118  0.042439677  0.041177624            6 
 4433000   0.54290022   -4.2167815    2257.3211  0.042434038  0.041167946           26 
 4434000   0.53951517   -4.2059189    2260.5146  0.042484488  0.041158286           21 
 4435000   0.54420565   -4.2190796    2261.6651  0.042496525  0.041148618           17 
 4436000   0.55063561   -4.2055813    2260.9349  0.042473229  0.041138951           14 
 4437000   0.53571458   -4.1975983    2258.5663  0.042419171  0.041129342           16 
 4438000   0.54118836   -4.2100888    2261.7195  0.042468821  0.041119677            4 
 4439000   0.54813364    -4.193943    2260.2235  0.042431168  0.041110038           21 
 4440000   0.54361912    -4.176637    2256.0795  0.042343835  0.041100417           34 
 4441000   0.54430612   -4.2180387    2262.3177  0.042451357  0.041090788            8 
 4442000   0.53302254   -4.2079564    2259.7047   0.04239278  0.041081121           15 
 4443000   0.54021028   -4.2141372    2257.3591  0.042339243  0.041071441            8 
 4444000   0.54266406   -4.2128333    2254.1465  0.042269475  0.041061739           21 
 4445000   0.54787217    -4.213369    2257.8422   0.04232925  0.041051984           16 
 4446000   0.53357502   -4.2314518    2256.8199  0.042300567  0.041042281           19 
 4447000   0.54481796   -4.2191858    2259.3352  0.042338191  0.041032571           16 
 4448000   0.54305188   -4.2227738    2255.3909  0.042254776  0.041022839           17 
 4449000   0.53371375   -4.2051055    2256.7763  0.042271227  0.041013119           14 
 4450000   0.53680832   -4.2381102    2254.7055   0.04222295   0.04100343           11 
 4451000   0.53396147   -4.2191554    2257.0308  0.042256998  0.040993726            9 
 4452000   0.53641041    -4.216114    2260.3929  0.042310439  0.040984062            8 
 4453000    0.5422028   -4.2264953     2259.725  0.042288438  0.040974412            6 
 4454000   0.53743871   -4.2155012     2257.339  0.042234303  0.040964719           16 
 4455000   0.53889125   -4.2299535    2260.4182   0.04228242  0.040955032           17 
 4456000   0.53125026    -4.203271    2258.9279  0.042245061  0.040945387           19 
 4457000   0.53893167   -4.2087568    2255.9103  0.042179162  0.040935761            7 
 4458000   0.52719217   -4.2093469    2263.3594  0.042308946  0.040926116           21 
 4459000   0.53038968   -4.2052204    2259.3023  0.042223635  0.040916415            8 
 4460000   0.54245291   -4.2365182    2259.8657  0.042224695  0.040906767           15 
 4461000   0.53711657     -4.22457    2255.9884    0.0421428  0.040897047           11 
 4462000   0.53637741   -4.2132538    2259.0854  0.042191196  0.040887359           13 
 4463000   0.53750778   -4.2280805     2256.836  0.042139741  0.040877683           39 
 4464000   0.53670508    -4.198156     2260.492  0.042198552  0.040868005           12 
 4465000   0.54012058    -4.233665    2259.3619  0.042168009  0.040858368           10 
 4466000   0.53809529   -4.2184093    2261.1819  0.042192527  0.040848737            9 
 4467000   0.53558545   -4.2386789    2259.5276   0.04215222  0.040839071           12 
 4468000   0.53504371   -4.2231052    2265.4045  0.042252397  0.040829393            9 
 4469000   0.53084338   -4.2058534    2260.9669  0.042160193  0.040819728           16 
 4470000   0.53473815   -4.2208001    2254.8134  0.042036044  0.040810067           18 
 4471000   0.54174749   -4.2178751    2255.7781  0.042044623  0.040800449            9 
 4472000    0.5417253   -4.2122493    2256.6811  0.042052049  0.040790844           16 
 4473000   0.53475041   -4.2095628    2260.0109  0.042104682  0.040781251            5 
 4474000    0.5435134   -4.2228562    2261.1035  0.042115621  0.040771604            9 
 4475000   0.53492546   -4.2066304    2257.0823  0.042031327  0.040761927           12 
 4476000   0.51522148    -4.226819    2255.5343  0.041993117  0.040752272           56 
 4477000   0.54026055   -4.2141269    2253.0631  0.041937739  0.040742544           19 
 4478000   0.54675581   -4.2141671    2258.6976  0.042033229  0.040732886           17 
 4479000   0.53308389   -4.2288701    2261.2076  0.042070545  0.040723246           14 
 4480000   0.54488599    -4.202181    2257.3055   0.04198857  0.040713631           20 
 4481000    0.5426139   -4.2294182    2261.6941  0.042060813  0.040704037           11 
 4482000   0.54666789   -4.2165443    2261.0476  0.042039409  0.040694413            9 
 4483000   0.53004071   -4.2180646    2254.5749  0.041909713  0.040684762           15 
 4484000   0.53105235   -4.2335355    2259.5363  0.041992571  0.040675142           14 
 4485000   0.53650199   -4.2242732    2256.6813  0.041930162  0.040665482            9 
 4486000   0.52395351   -4.2345922    2258.4308  0.041953314   0.04065581           11 
 4487000   0.52546568   -4.2251627    2259.7863  0.041969139   0.04064616           14 
 4488000   0.54076758   -4.2134394    2263.6333  0.042031218  0.040636493           18 
 4489000   0.52788988   -4.2176959    2253.4075  0.041832025  0.040626852           13 
 4490000   0.53544843   -4.2178796    2260.5107  0.041954542  0.040617225           19 
 4491000   0.53728126   -4.2188042    2257.0304  0.041880621  0.040607647           11 
 4492000    0.5240575   -4.2278729    2257.6648  0.041883066  0.040598013            8 
 4493000   0.53448996   -4.2081656    2265.4259  0.042017692  0.040588385            9 
 4494000    0.5384718   -4.2470352    2261.0236  0.041926709  0.040578742           12 
 4495000   0.54025744    -4.230106     2264.284  0.041977828  0.040569135           13 
 4496000   0.53415068   -4.2027254    2260.4983  0.041898323   0.04055953            9 
 4497000   0.53277582   -4.2232753    2259.9916  0.041879616  0.040549939           12 
 4498000   0.52453123   -4.2098033     2257.541  0.041824905  0.040540293           19 
 4499000   0.53024598   -4.2110361    2259.2745  0.041847716  0.040530705           14 
 4500000   0.52962673    -4.254377    2264.0676  0.041927177  0.040521076           13 
 4501000      0.52658    -4.220373    2255.5239  0.041759681  0.040511482           20 
 4502000   0.52662639   -4.2218348    2259.8574  0.041830621  0.040501884           18 
 4503000   0.54208791   -4.2201177    2256.4976  0.041759154  0.040492273           24 
 4504000   0.52712331   -4.2237454    2261.2226  0.041837304  0.040482714           12 
 4505000   0.52852202   -4.2328416     2258.475  0.041777193  0.040473094            8 
 4506000   0.53861185   -4.2280308    2260.7729  0.041810418  0.040463489           14 
 4507000   0.53409389   -4.2278175     2256.409  0.041720454  0.040453881           16 
 4508000   0.54328009   -4.2464059    2257.9747  0.041740142   0.04044426           13 
 4509000   0.53048549   -4.2418195     2264.496  0.041851409   0.04043466           13 
 4510000   0.52363734   -4.2435335    2261.4028  0.041784975  0.040425072           17 
 4511000   0.53009321    -4.245466    2261.4248  0.041776117  0.040415473           12 
 4512000   0.52937812   -4.2131915    2260.0515  0.041741495  0.040405926           15 
 4513000   0.53931882   -4.2162614    2263.2708   0.04179169  0.040396371           29 
 4514000   0.52325734   -4.2351039    2257.9603  0.041684395  0.040386792           19 
 4515000   0.52786474   -4.2417205    2262.8522  0.041765452  0.040377186           35 
 4516000   0.51836272   -4.2452027    2259.5905  0.041696016   0.04036755            8 
 4517000   0.53127369   -4.2361405    2260.8369   0.04170978  0.040357945           12 
 4518000   0.53705496   -4.2471405    2258.8761  0.041664382   0.04034833            5 
 4519000   0.53788975   -4.2360952    2258.1778  0.041642284  0.040338747           10 
 4520000   0.53168786   -4.2416639    2264.1966  0.041744038  0.040329148           17 
 4521000   0.53088505    -4.254481    2263.5427   0.04172275  0.040319517           10 
 4522000   0.52240569    -4.237037    2258.9708  0.041629272  0.040309907            7 
 4523000   0.52507484    -4.234669    2262.5808  0.041686579  0.040300355           11 
 4524000   0.53210568   -4.2358382    2256.2756  0.041561221  0.040290777           10 
 4525000   0.51935434   -4.2063096     2254.457  0.041518545  0.040281182            6 
 4526000   0.53810738   -4.2487663    2256.6606  0.041549944  0.040271628           11 
 4527000   0.53622006   -4.2394793    2261.2827   0.04162585  0.040262081           11 
 4528000   0.51018028   -4.2322622    2259.1959  0.041578253  0.040252448           21 
 4529000   0.51258595   -4.2410827    2255.6139  0.041503162   0.04024283           13 
 4530000   0.52118799   -4.2213187    2259.6846  0.041568886  0.040233209           18 
 4531000   0.51996619   -4.2385685    2258.3901  0.041535902  0.040223581           10 
 4532000   0.52159578   -4.2306332    2259.5148  0.041547418  0.040213948           19 
 4533000   0.52170073   -4.2544679    2257.3243  0.041497984   0.04020431           23 
 4534000   0.52721496   -4.2344316    2255.2007  0.041449799  0.040194667           22 
 4535000    0.5294983   -4.2394976     2255.116  0.041439104  0.040185018           24 
 4536000   0.52156373   -4.2588594    2255.2115  0.041431722  0.040175373           12 
 4537000    0.5148228   -4.2366466    2254.2059  0.041404121  0.040165731           14 
 4538000   0.52563857   -4.2505013    2250.8912  0.041334127  0.040156108           21 
 4539000   0.53018587   -4.2438455    2256.4109  0.041426358  0.040146482            8 
 4540000     0.525088   -4.2361205    2256.3344  0.041415829  0.040136865           35 
 4541000   0.51872071   -4.2187131    2261.3794  0.041499292  0.040127276            9 
 4542000   0.53428249   -4.2247343    2255.8208   0.04138817  0.040117729           10 
 4543000   0.53067115   -4.2447542    2259.8546  0.041453052  0.040108186           11 
 4544000   0.53753657   -4.2308236    2266.1718  0.041559782  0.040098627            6 
 4545000   0.50994306   -4.2438131    2260.2098  0.041441323  0.040089078           15 
 4546000   0.52437001   -4.2559759    2258.5725  0.041402195  0.040079475           16 
 4547000   0.52865047   -4.2483559    2263.2147  0.041478167   0.04006988           18 
 4548000   0.52347311   -4.2587236    2257.4356  0.041363156  0.040060279           16 
 4549000   0.52726674   -4.2419656    2258.4797   0.04137319  0.040050647           17 
 4550000   0.51474041    -4.228521    2264.1959  0.041468789  0.040041014           13 
 4551000   0.52429784   -4.2285835    2262.2556  0.041424149  0.040031439           12 
 4552000   0.52647846   -4.2417103    2252.6813  0.041239773  0.040021845           10 
 4553000   0.51710618     -4.24229    2257.0076  0.041309897  0.040012272           11 
 4554000   0.52123707   -4.2558456     2253.344  0.041233788  0.040002654            8 
 4555000   0.51843126   -4.2492743    2257.6423  0.041303373  0.039993039            8 
 4556000    0.5240923   -4.2437424    2260.2745  0.041342452  0.039983444           17 
 4557000   0.52024044   -4.2231006     2261.998  0.041364897  0.039973857            8 
 4558000   0.52130578   -4.2386669    2254.6638   0.04122173  0.039964249            5 
 4559000   0.51990022   -4.2261773    2262.0375  0.041347473  0.039954646            5 
 4560000   0.52455269   -4.2392157    2258.0604  0.041265724  0.039945063           18 
 4561000   0.52045157   -4.2417673    2257.7493  0.041250992  0.039935494           13 
 4562000   0.51894053   -4.2428389    2259.4679  0.041273343  0.039925907            6 
 4563000   0.52368875   -4.2361062    2261.2829  0.041297445  0.039916305           15 
 4564000   0.53817311   -4.2556934     2252.521  0.041128415  0.039906718           30 
 4565000   0.52004489   -4.2358919    2259.3803  0.041244621  0.039897115            8 
 4566000   0.52382581   -4.2289769    2256.9561  0.041191344  0.039887526           14 
 4567000   0.51312777   -4.2471655    2256.8632  0.041180629  0.039877921            7 
 4568000   0.51678546   -4.2682429    2256.5109  0.041165187  0.039868324           17 
 4569000   0.52270993    -4.267332    2255.4552  0.041136923  0.039858716           44 
 4570000   0.52353785   -4.2398847    2259.8686    0.0412084  0.039849111           31 
 4571000   0.51709266   -4.2503154    2259.8126  0.041198363  0.039839549           17 
 4572000   0.52338278   -4.2646745    2254.5729  0.041093848  0.039830005           24 
 4573000   0.52066867   -4.2759008    2257.2757  0.041134115  0.039820382           22 
 4574000   0.51977399    -4.252246    2258.6015  0.041149277  0.039810802           70 
 4575000   0.53071991   -4.2706237    2259.3399  0.041153732  0.039801175           20 
 4576000   0.53041171   -4.2437386    2250.9406  0.040991779  0.039791544           19 
 4577000   0.51504823   -4.2741906    2254.1793   0.04104179  0.039781921           38 
 4578000   0.52793062   -4.2434238    2263.6894  0.041205939  0.039772319           28 
 4579000   0.50906241   -4.2569118     2257.176  0.041078401  0.039762722           22 
 4580000    0.5176771   -4.2595291    2260.8435  0.041136163  0.039753131           10 
 4581000   0.50518415   -4.2377832    2259.9652  0.041111206  0.039743564           29 
 4582000   0.50860483   -4.2390197    2257.9138  0.041064924  0.039734005           15 
 4583000   0.51064421   -4.2498674    2256.5096  0.041030431  0.039724467           33 
 4584000   0.52061494    -4.240331    2250.4403  0.040911146  0.039714903           11 
 4585000   0.51314709   -4.2847195    2258.9944  0.041057696  0.039705306           52 
 4586000   0.51897218   -4.2588219    2259.8173  0.041063696    0.0396957           19 
 4587000   0.51806279   -4.2657398    2252.9997  0.040930886   0.03968616           10 
 4588000   0.51741717   -4.2582134    2257.1462  0.040997279  0.039676608           13 
 4589000   0.51862418   -4.2625061    2255.5868  0.040960028  0.039667058           20 
 4590000   0.51058193   -4.2389015    2259.8252  0.041028053  0.039657528            9 
 4591000    0.5100199    -4.270784    2257.7215  0.040980932  0.039647955           30 
 4592000   0.52582648   -4.2553628    2258.7213  0.040990152  0.039638386           52 
 4593000   0.51399017   -4.2573337    2253.4113  0.040884884  0.039628817           19 
 4594000   0.51893957   -4.2584954    2254.0953  0.040888393  0.039619233           21 
 4595000   0.52105447   -4.2545712    2254.1743  0.040880926   0.03960965           17 
 4596000   0.52616688   -4.2929993    2250.1924  0.040799832  0.039600046           49 
 4597000   0.51985666   -4.2691658    2257.3916  0.040921463  0.039590464           20 
 4598000   0.52641676   -4.2610432     2255.185  0.040872571  0.039580867           18 
 4599000   0.51670553   -4.2417333    2259.0861  0.040934372  0.039571365            9 
 4600000   0.51894535   -4.2498548    2258.9265  0.040922581  0.039561838           10 
 4601000   0.51222441   -4.2586192    2262.2557  0.040973986  0.039552304           19 
 4602000   0.51245409   -4.2626415    2260.1513  0.040926975  0.039542758           17 
 4603000   0.50604836   -4.2658836    2262.0411  0.040952297  0.039533239           24 
 4604000   0.52111602   -4.2668063      2252.91  0.040778128  0.039523724           21 
 4605000   0.51374096   -4.2531357    2257.4828  0.040852023  0.039514191           10 
 4606000   0.52374196   -4.2555617    2255.4317  0.040806046  0.039504662           23 
 4607000   0.50982498   -4.2607385    2258.1706   0.04084673    0.0394951            8 
 4608000   0.50765388   -4.2582806    2255.4369  0.040788427  0.039485528           18 
 4609000   0.51195867   -4.2668981    2255.3721  0.040778407   0.03947596           10 
 4610000   0.50458822   -4.2592093    2251.6489  0.040702257  0.039466373           36 
 4611000   0.51644224   -4.2507239    2254.6438  0.040747556  0.039456791           12 
 4612000   0.50687713   -4.2436649    2255.7292  0.040758334  0.039447209           12 
 4613000   0.51531408   -4.2710257    2254.4195  0.040725837  0.039437604           12 
 4614000   0.51810025   -4.2590639    2257.0374  0.040764293  0.039428017           28 
 4615000   0.52895349   -4.2520664    2256.8612  0.040752279  0.039418471           12 
 4616000   0.51667247   -4.2434675    2260.3736   0.04080686  0.039408985            9 
 4617000   0.52426557      -4.2602    2261.4932  0.040818229  0.039399539           34 
 4618000   0.51777185   -4.2590787    2258.8597  0.040761869  0.039389995           19 
 4619000   0.50982743   -4.2594439    2252.5287  0.040638824  0.039380428           17 
 4620000   0.51834534   -4.2631298    2264.0679  0.040838165  0.039370884           45 
 4621000   0.49884227   -4.2588812    2256.0788  0.040685255  0.039361335           34 
 4622000   0.52352061   -4.2666869    2249.7685   0.04056268  0.039351765           40 
 4623000   0.50952499   -4.2601478    2259.7267   0.04073341  0.039342202           14 
 4624000   0.51486494   -4.2728799    2255.3281  0.040645331  0.039332653           15 
 4625000   0.51802669   -4.2466158    2260.2515  0.040725253  0.039323149           20 
 4626000    0.5150655   -4.2635955    2250.6288  0.040543103  0.039313628           15 
 4627000   0.50958288   -4.2550624    2252.2701  0.040563901  0.039304065           14 
 4628000   0.52212753   -4.2668391    2257.2564  0.040644921  0.039294549            9 
 4629000   0.50775381    -4.257355     2257.613  0.040642561  0.039284979           25 
 4630000    0.5092236   -4.2717485    2252.6164  0.040543852  0.039275405           27 
 4631000   0.51105491   -4.2712884    2253.1858  0.040545344   0.03926585           14 
 4632000   0.50228678   -4.2541044    2257.9091  0.040621565  0.039256315           20 
 4633000   0.51134093   -4.2673536    2253.4541  0.040532666  0.039246807           16 
 4634000   0.50629912   -4.2639343    2256.4072  0.040577025  0.039237273           20 
 4635000    0.5140229   -4.2669853    2254.8475  0.040540228  0.039227764           19 
 4636000   0.51085149   -4.2628877      2263.43  0.040685756  0.039218257            8 
 4637000   0.51334761   -4.2646727    2259.3322   0.04060334  0.039208783           20 
 4638000   0.51386539   -4.2600685    2253.1764  0.040483981  0.039199295           16 
 4639000   0.50298583   -4.2650768    2254.2669  0.040494843  0.039189795           20 
 4640000   0.49660848   -4.2640657    2256.7449  0.040530619  0.039180227           25 
 4641000   0.52099826   -4.2585567    2254.9501  0.040489659  0.039170718           15 
 4642000   0.49803111   -4.2712016    2254.8871  0.040479806  0.039161203           33 
 4643000    0.5030593   -4.2686934    2259.5721  0.040555174  0.039151689           10 
 4644000   0.49431419   -4.2707968     2257.095  0.040501991  0.039142204           15 
 4645000   0.51781586   -4.2542156    2261.1012  0.040565146  0.039132709           12 
 4646000   0.51990913   -4.2591836    2253.9423  0.040428007  0.039123243           13 
 4647000   0.50699781   -4.2923508    2256.9453   0.04047316  0.039113774           11 
 4648000   0.49767848   -4.2819664     2254.236  0.040415878   0.03910427           19 
 4649000    0.5173943   -4.2863434     2256.733  0.040451942  0.039094751           48 
 4650000   0.50199271    -4.255233    2254.3189   0.04039998  0.039085254           15 
 4651000   0.50798641    -4.288331    2262.1416  0.040531456  0.039075768           15 
 4652000   0.50177819   -4.2633063    2258.8081  0.040463029   0.03906631            6 
 4653000   0.50296958    -4.274145     2259.173  0.040460867   0.03905683           16 
 4654000   0.49702632    -4.289569    2256.0779  0.040396754  0.039047326           17 
 4655000   0.50391646   -4.2874498    2254.7354  0.040364042  0.039037817           45 
 4656000   0.51065018   -4.2742184    2255.7067  0.040372757  0.039028271           36 
 4657000   0.50802602   -4.2813927    2254.5377   0.04034317  0.039018759           12 
 4658000   0.49324182   -4.2763459    2261.7825  0.040464121  0.039009279           11 
 4659000   0.49336268   -4.2713172    2259.3946  0.040412725  0.038999841            6 
 4660000   0.49742599   -4.2832831    2254.9557  0.040324673  0.038990397           16 
 4661000   0.51511294   -4.2691529    2256.7931  0.040348872  0.038980942            8 
 4662000   0.49871617    -4.283614    2264.0091  0.040469203  0.038971516           20 
 4663000   0.49790179   -4.2762634    2256.7071  0.040330029  0.038962052           14 
 4664000   0.50383014   -4.2701525    2248.9021  0.040181927  0.038952546           22 
 4665000   0.50723665   -4.2713194    2261.1346  0.040391829  0.038943076           17 
 4666000   0.51630362   -4.2758107    2255.5074  0.040282672  0.038933614           19 
 4667000   0.49890274   -4.2802517    2259.5188  0.040345668  0.038924163           21 
 4668000   0.51299306   -4.2709386     2257.638  0.040303449  0.038914685            8 
 4669000   0.49967761   -4.2702492    2260.9229  0.040353446  0.038905238           14 
 4670000    0.5113737   -4.2715223    2259.0726  0.040311788  0.038895783           15 
 4671000   0.49713227   -4.2850333    2257.3195  0.040271882  0.038886335           30 
 4672000   0.50650422    -4.274395    2257.4354  0.040265329  0.038876904           17 
 4673000   0.50358166   -4.2762341    2260.6101  0.040313327  0.038867476           11 
 4674000   0.50776446   -4.2744933    2257.6891  0.040252623  0.038858051           27 
 4675000   0.51587751   -4.2631139    2257.0663  0.040232911  0.038848625           18 
 4676000   0.50837349   -4.2649943    2256.5568  0.040215226  0.038839173           21 
 4677000   0.50546066   -4.2827284    2256.2802    0.0402017  0.038829754           31 
 4678000   0.50879727   -4.2654552     2261.916  0.040293501  0.038820322           42 
 4679000   0.50225898   -4.2671392    2258.4993  0.040224039  0.038810888           24 
 4680000   0.50918935   -4.2805977    2260.8883  0.040257982   0.03880145           18 
 4681000   0.51102254   -4.2865216    2258.7942  0.040212102  0.038792015           23 
 4682000   0.51081373   -4.2920919    2256.3819  0.040160577   0.03878259           15 
 4683000   0.49006231   -4.2790156    2256.1259  0.040147447  0.038773159           24 
 4684000   0.50604537   -4.2675614    2255.5851  0.040129254  0.038763723           12 
 4685000   0.49687105   -4.2850208    2256.2425  0.040132382  0.038754271           22 
 4686000   0.50664075   -4.2649609    2256.8914  0.040135357  0.038744823            7 
 4687000   0.48555338   -4.2835659    2258.6655  0.040158338  0.038735358           13 
 4688000   0.49855101   -4.2875687    2258.8106   0.04015235  0.038725856           10 
 4689000   0.50944344   -4.2775252    2255.2376  0.040080287  0.038716372           17 
 4690000    0.5063909   -4.2763099    2252.2119   0.04001798  0.038706924           15 
 4691000   0.50694482    -4.274531    2258.7177  0.040125021   0.03869752           11 
 4692000   0.50178527   -4.2836475    2259.7583  0.040134952  0.038688121           19 
 4693000   0.49678378   -4.2777997    2257.8386  0.040092312  0.038678681           26 
 4694000   0.51171562   -4.2829615     2252.669  0.039991993  0.038669257           28 
 4695000   0.50011415   -4.2863954     2257.018  0.040060667  0.038659787           17 
 4696000   0.50272154   -4.2887445    2254.0494  0.039999457  0.038650333           25 
 4697000   0.50392677   -4.2878695    2253.1158  0.039974376  0.038640887            9 
 4698000   0.51146165   -4.3081652    2255.2553   0.04000382  0.038631449           10 
 4699000    0.5041632   -4.2912921    2258.2059  0.040047633  0.038622029           20 
 4700000   0.49370356   -4.2910477    2257.5414   0.04002733  0.038612627           26 
 4701000   0.50415719   -4.2840275    2258.6557  0.040038568  0.038603214           12 
 4702000   0.50448846   -4.2924605    2257.0428  0.040001467  0.038593768            9 
 4703000   0.49172702   -4.2975477      2256.55   0.03998423  0.038584289           29 
 4704000   0.49312972   -4.2921385    2260.3491  0.040043032  0.038574843           12 
 4705000   0.48454909   -4.2992662    2258.3134  0.039998466  0.038565434           15 
 4706000   0.50149435   -4.2887423     2260.807  0.040034123  0.038556048           20 
 4707000   0.49921312   -4.2963352    2253.4308  0.039895029  0.038546633            8 
 4708000   0.49512152   -4.3062002    2256.2178  0.039935885  0.038537197            7 
 4709000    0.4903832   -4.2846477    2258.2071  0.039962609  0.038527797           22 
 4710000   0.50008355    -4.298719    2255.5354  0.039906855  0.038518347           13 
 4711000   0.48822681   -4.2955042    2251.2024  0.039821736  0.038508903           14 
 4712000   0.49249922   -4.3131033     2255.235  0.039884603  0.038499459           16 
 4713000    0.4902755   -4.3138088    2256.5769  0.039899867  0.038490019           46 
 4714000   0.49916866   -4.2856101    2259.8811  0.039949815  0.038480608           23 
 4715000   0.49854325   -4.3157818    2255.9723  0.039872257  0.038471196           10 
 4716000   0.50190602   -4.2897151    2256.4096  0.039871529  0.038461774           18 
 4717000   0.48780417   -4.2924497    2252.3593  0.039791521  0.038452359           20 
 4718000   0.49900766   -4.2900681    2257.6433  0.039876419  0.038442979           19 
 4719000   0.49230857   -4.3008363    2260.1306  0.039911892    0.0384336           13 
 4720000   0.49358957   -4.2930055    2255.2578  0.039817404  0.038424205           40 
 4721000   0.50670717   -4.2853718    2260.3705  0.039899218  0.038414822           50 
 4722000   0.48918373   -4.2814656     2251.409  0.039732617  0.038405403           34 
 4723000   0.48977495   -4.3105563    2254.8028  0.039784085   0.03839599           49 
 4724000   0.49717925   -4.3035153    2255.8754  0.039794584  0.038386544           13 
 4725000   0.48560878   -4.3095058    2256.3576  0.039794666  0.038377104            8 
 4726000   0.49861567   -4.3053844    2253.3688  0.039733546  0.038367696            6 
 4727000   0.49430429   -4.3017507    2256.9484  0.039788246  0.038358285           21 
 4728000   0.49610506   -4.3016316    2259.5144  0.039825057  0.038348891            7 
 4729000   0.50201682   -4.3016468    2254.0023  0.039719501  0.038339514           10 
 4730000   0.48799956   -4.2870371     2255.417   0.03973603  0.038330142           10 
 4731000   0.48344747   -4.2953793    2261.3136  0.039831495  0.038320783           12 
 4732000   0.49231953   -4.2873377    2259.0842  0.039783816  0.038311413           12 
 4733000   0.49078648   -4.2995425    2258.8541  0.039771359  0.038302055           19 
 4734000    0.4849677   -4.3049967    2257.0163  0.039730607    0.0382927           25 
 4735000   0.49068616    -4.303037    2258.7518  0.039752759  0.038283307           37 
 4736000   0.50120982   -4.2829116    2258.7477  0.039744293  0.038273946           20 
 4737000    0.4872338   -4.3020195    2258.2886  0.039727827  0.038264604           23 
 4738000   0.49297546    -4.284656    2258.5285  0.039723662  0.038255239           26 
 4739000   0.48319654    -4.296126    2254.3035  0.039640985  0.038245876           12 
 4740000   0.48648494   -4.3146713    2256.6996  0.039674747  0.038236537           23 
 4741000   0.49890858   -4.2932966    2255.5166  0.039645584  0.038227182           10 
 4742000   0.48446308   -4.3076005    2259.4337   0.03970606  0.038217833           13 
 4743000   0.50540268   -4.3026302    2258.5646  0.039682419  0.038208464           17 
 4744000   0.48334468   -4.3025178    2256.6925   0.03964117  0.038199085           18 
 4745000   0.48889346   -4.3207847    2255.9038  0.039618964  0.038189673           13 
 4746000   0.49572747   -4.2978333    2250.8137  0.039521241  0.038180279           30 
 4747000   0.49134731   -4.2885652    2255.3423  0.039592415  0.038170908           30 
 4748000   0.49107561   -4.3049669    2253.6444  0.039554276  0.038161551           28 
 4749000   0.47678584   -4.3013576    2263.8074  0.039724282  0.038152197           20 
 4750000   0.50034794   -4.3182618    2259.2321  0.039635651  0.038142852           23 
 4751000   0.47909286   -4.3025268    2254.1687  0.039538496  0.038133473           21 
 4752000   0.48922391   -4.3196079    2262.2401  0.039671719  0.038124109           38 
 4753000   0.48484173   -4.3157694    2251.4212  0.039473687  0.038114757           18 
 4754000   0.48190299   -4.3056169    2253.7916  0.039506934   0.03810536           36 
 4755000   0.50257961   -4.3110516    2256.8678  0.039552538   0.03809602           44 
 4756000   0.49063783   -4.3057326    2257.7566  0.039559794  0.038086648           22 
 4757000   0.49427948   -4.3244045     2253.188  0.039471446  0.038077272           52 
 4758000   0.48496469   -4.3094222     2256.725  0.039525098  0.038067891           32 
 4759000   0.48994825   -4.3133065    2256.9821  0.039521294  0.038058547           35 
 4760000   0.48986225   -4.3228188    2262.4737  0.039609133  0.038049196           16 
 4761000   0.49425454   -4.3130245    2255.3355  0.039475872  0.038039869           24 
 4762000   0.48867409    -4.317225    2261.8671  0.039581882  0.038030533           16 
 4763000   0.48815646    -4.303331    2256.3607  0.039477232  0.038021228           12 
 4764000   0.49368888   -4.2967753    2257.3364  0.039486014  0.038011886           36 
 4765000   0.48766817   -4.3225988    2259.4745  0.039515119  0.038002544           20 
 4766000   0.48824922   -4.3164362     2258.289    0.0394861  0.037993201           43 
 4767000   0.49303509   -4.3098045    2253.3292  0.039391113  0.037983852           16 
 4768000   0.47985785   -4.3225776    2257.5679  0.039456934  0.037974521           20 
 4769000   0.49107199   -4.3175791    2256.7439  0.039434261  0.037965184           20 
 4770000   0.48414815   -4.3289814     2255.337  0.039401415  0.037955862           17 
 4771000   0.48005022   -4.3280134    2255.3292  0.039393019   0.03794653           17 
 4772000   0.49591509   -4.3232985    2260.6415  0.039477533  0.037937221           19 
 4773000   0.49036747   -4.2838587    2255.8072  0.039384859  0.037927935            8 
 4774000   0.48274114   -4.3003041    2254.0215  0.039345439   0.03791863           18 
 4775000   0.48411629   -4.3150123    2256.3368  0.039377605  0.037909314           12 
 4776000   0.48107604   -4.3416102    2250.8131  0.039272981  0.037899974           17 
 4777000   0.47654666   -4.3288704    2253.7183  0.039315439  0.037890613           15 
 4778000    0.4919635   -4.3156742    2254.0569  0.039313117   0.03788126           18 
 4779000   0.48920011   -4.3199048    2248.3865  0.039206014  0.037871908           10 
 4780000   0.49371539   -4.3190354    2254.3145  0.039301159  0.037862563           29 
 4781000   0.48364216   -4.3060566    2255.2417  0.039309101  0.037853231           16 
 4782000   0.46333742   -4.3123745    2258.4598  0.039356961  0.037843934           15 
 4783000   0.47925143   -4.3030417    2258.6903  0.039352748  0.037834644           16 
 4784000   0.48976323   -4.3294047    2253.4038  0.039252435  0.037825344           23 
 4785000    0.4766918   -4.3279455    2259.1863  0.039344937  0.037816046           24 
 4786000   0.48210736   -4.3016494    2251.5916  0.039204479  0.037806725           20 
 4787000   0.47791488   -4.3079796    2256.9977    0.0392904  0.037797432           13 
 4788000   0.47800913   -4.3163309    2258.5232  0.039308745   0.03778816           12 
 4789000   0.48391057   -4.3264979    2257.4159  0.039281267  0.037778892           26 
 4790000    0.4766371   -4.3136016    2253.9286  0.039212397  0.037769606           12 
 4791000   0.48413894   -4.3010896    2258.1234  0.039277176  0.037760328           17 
 4792000   0.48575976   -4.3324282    2254.7739  0.039210732  0.037751046           11 
 4793000   0.49620052   -4.3350631    2255.1711  0.039209457  0.037741738           21 
 4794000   0.48442764   -4.3294749    2252.6479  0.039157417  0.037732425           20 
 4795000   0.47413499   -4.3423751    2255.7173  0.039202595  0.037723076           26 
 4796000   0.47646474   -4.3226739    2254.8315  0.039179029  0.037713739           18 
 4797000   0.49431393   -4.3210502    2257.4498  0.039216347   0.03770444           26 
 4798000   0.48767955   -4.3117188     2260.988  0.039269626  0.037695166           19 
 4799000    0.4790311    -4.336575    2252.7787  0.039118891  0.037685855           30 
 4800000   0.47967787   -4.3152605    2252.6556  0.039108604  0.037676549           22 
 4801000   0.47786832   -4.3215642    2258.8308  0.039207643  0.037667257           27 
 4802000   0.48024629   -4.3237358    2260.1761  0.039222825  0.037657957           11 
 4803000   0.47054901   -4.3349481    2255.2108   0.03912851   0.03764867           25 
 4804000   0.47382056   -4.3168328    2258.2558  0.039173186  0.037639379           22 
 4805000   0.47481585   -4.3291415    2256.9995  0.039143244  0.037630059           20 
 4806000   0.48577162   -4.3176598    2253.1363  0.039068114  0.037620754           19 
 4807000   0.47990062   -4.3209325    2256.4881  0.039118094  0.037611452           18 
 4808000   0.48195006   -4.3201316    2255.3196  0.039089705   0.03760216            8 
 4809000   0.47603477   -4.3221422    2258.3648  0.039134346   0.03759287           17 
 4810000   0.48069371   -4.3342256     2256.695   0.03909728  0.037583601           20 
 4811000   0.48527222   -4.3185571    2259.2809  0.039133945  0.037574339           51 
 4812000   0.48442871   -4.3287184    2258.3077  0.039108959  0.037565083           35 
 4813000   0.47595511    -4.305076    2254.2091  0.039029869  0.037555825           54 
 4814000   0.47730423   -4.3438661     2257.797   0.03908387  0.037546563           91 
 4815000   0.47426599   -4.3242789    2257.3991  0.039068867  0.037537294          102 
 4816000   0.48948125    -4.339725    2254.2963  0.039007066  0.037528031           68 
 4817000   0.48685726   -4.3215705     2253.649  0.038987768  0.037518755           94 
 4818000   0.47451236   -4.3194305    2256.9239  0.039036321  0.037509476          116 
 4819000   0.48089047    -4.321134    2254.8417  0.038992213  0.037500221          117 
 4820000   0.46994997   -4.3363577    2254.4069  0.038976607  0.037490967           73 
 4821000   0.47993044   -4.3426486    2253.8421  0.038958758  0.037481694           54 
 4822000   0.48593961   -4.3404178     2249.292  0.038872045  0.037472412           40 
 4823000   0.48282276   -4.3340122    2251.0067  0.038893612  0.037463129           26 
 4824000   0.48464983   -4.3226074    2258.5206   0.03901535  0.037453865           84 
 4825000   0.48577671   -4.3420012    2257.7824  0.038994514  0.037444603           59 
 4826000   0.47642532   -4.3393281    2254.1066  0.038922963  0.037435323           89 
 4827000   0.48342692   -4.3479735    2250.7527  0.038856997  0.037426012           75 
 4828000   0.47155922   -4.3331117    2251.2924  0.038858264  0.037416733           25 
 4829000   0.48651622    -4.330019    2255.5695  0.038924026  0.037407484           48 
 4830000   0.48136352   -4.3166533    2264.5394  0.039070729  0.037398242           25 
 4831000   0.48631669   -4.3233146     2255.764  0.038911268  0.037388994           30 
 4832000   0.47755691   -4.3263477    2257.9259  0.038940498  0.037379744           28 
 4833000   0.47949794   -4.3254124    2258.5061  0.038942447  0.037370504           15 
 4834000   0.48466993   -4.3319709    2255.3178  0.038879427  0.037361246           11 
 4835000   0.47576763   -4.3334946    2253.4686  0.038839514     0.037352           12 
 4836000   0.47486218   -4.3301377    2253.1082  0.038825272  0.037342766           74 
 4837000   0.48203061   -4.3344416    2253.0361  0.038816003  0.037333527          122 
 4838000   0.47600038   -4.3374311    2259.0546  0.038911647  0.037324294           67 
 4839000   0.47747375   -4.3461531    2255.5708  0.038843612  0.037315052          100 
 4840000   0.48854168   -4.3276936    2252.2295  0.038778056  0.037305808           88 
 4841000   0.47685506   -4.3363207    2257.3766  0.038858648  0.037296569           73 
 4842000   0.48092348   -4.3362909    2257.5409  0.038853451   0.03728734           27 
 4843000   0.47576294   -4.3534508    2256.4673  0.038826954  0.037278119           37 
 4844000   0.47929719    -4.322783    2253.3988  0.038766151  0.037268901           18 
 4845000   0.47007538   -4.3539531    2252.7703  0.038747339  0.037259657           31 
 4846000   0.48046233   -4.3466782     2253.971  0.038759992  0.037250396           27 
 4847000   0.49151919   -4.3421216     2253.377  0.038741782  0.037241148           24 
 4848000   0.47465081   -4.3217976      2253.28  0.038732123  0.037231917            9 
 4849000   0.47897426    -4.342527    2250.7224  0.038680182  0.037222682           15 
 4850000   0.48186428   -4.3468343    2253.7968   0.03872503  0.037213464           16 
 4851000   0.48053736   -4.3454039    2249.6663  0.038646091  0.037204221           17 
 4852000   0.47522726   -4.3460304    2258.6074  0.038791691  0.037194993           19 
 4853000   0.46887968   -4.3507563    2255.5218  0.038730713  0.037185751           12 
 4854000   0.48098842   -4.3528616    2253.4128  0.038686526  0.037176501           12 
 4855000   0.47395611   -4.3433665    2247.8244  0.038582636  0.037167261           13 
 4856000   0.47685998   -4.3331256    2252.1217  0.038648437  0.037158019           13 
 4857000   0.46561335   -4.3710989    2253.0259  0.038655993  0.037148796           31 
 4858000   0.47497512   -4.3490662     2248.045  0.038562595  0.037139546           27 
 4859000   0.46352959   -4.3629965    2251.9937   0.03862238  0.037130305           21 
 4860000   0.47435667   -4.3537309    2254.9115  0.038664463  0.037121087           20 
 4861000   0.47441871   -4.3151339    2254.7428  0.038653617   0.03711188           50 
 4862000   0.47359189   -4.3411666    2253.4028  0.038622699  0.037102694           28 
 4863000   0.47329695   -4.3432711    2251.0621  0.038574647  0.037093468           27 
 4864000   0.47371237   -4.3433077    2254.8924   0.03863234  0.037084271           10 
 4865000   0.47964778    -4.355623    2250.3241  0.038546148  0.037075059           25 
 4866000   0.48256506   -4.3435214    2256.9068  0.038650958  0.037065857           45 
 4867000   0.46889626   -4.3447367    2254.4323  0.038600648  0.037056672           17 
 4868000   0.46599471   -4.3424434    2259.8057  0.038684705  0.037047499           36 
 4869000   0.47478617   -4.3468031    2254.9552  0.038593742  0.037038365           48 
 4870000   0.46984833   -4.3267415    2251.4891  0.038526507  0.037029228           51 
 4871000     0.468463   -4.3604864    2258.8802  0.038645046  0.037020041           34 
 4872000   0.47483193   -4.3419447     2255.101  0.038572471  0.037010864           11 
 4873000   0.47619698   -4.3446217    2257.0222  0.038597411  0.037001678           31 
 4874000   0.47412562   -4.3564596    2252.9344  0.038519601  0.036992504           35 
 4875000   0.47366017   -4.3430012    2256.4317  0.038571481  0.036983298           39 
 4876000   0.47467198   -4.3543069    2257.4976  0.038581789   0.03697411           13 
 4877000   0.48073181   -4.3536072    2254.9571  0.038530468  0.036964896           16 
 4878000   0.47036015   -4.3499583    2256.6943  0.038552247  0.036955711            9 
 4879000   0.47132272   -4.3434722    2252.2621  0.038468644  0.036946508           15 
 4880000   0.48144562   -4.3399121    2254.3269  0.038496019  0.036937332           29 
 4881000   0.48019681   -4.3587838    2252.4837  0.038456663  0.036928128           33 
 4882000   0.47224853   -4.3584543    2249.4597  0.038397168  0.036918919           34 
 4883000    0.4708837   -4.3415621       2255.2  0.038487268  0.036909717           46 
 4884000   0.47827114   -4.3616901    2252.9993  0.038441838  0.036900508           23 
 4885000   0.47386964   -4.3586295    2251.0762  0.038401164  0.036891323           25 
 4886000   0.47024693   -4.3594164    2256.5683  0.038486974  0.036882133           20 
 4887000   0.47795526   -4.3624456    2256.8332  0.038483617   0.03687293           29 
 4888000   0.46918648   -4.3577429    2247.0633   0.03830918  0.036863745           64 
 4889000   0.46730375   -4.3535149    2255.3375  0.038442379  0.036854542           46 
 4890000   0.46792918   -4.3687488    2255.9852  0.038445555  0.036845354           24 
 4891000    0.4617417   -4.3464372    2250.5982  0.038345912  0.036836192           24 
 4892000   0.45780901   -4.3628904    2257.1061  0.038448932  0.036827008           35 
 4893000   0.46973239   -4.3681027    2254.7737   0.03840135  0.036817847           19 
 4894000     0.469701   -4.3516913    2251.9365  0.038345193  0.036808703           47 
 4895000   0.46336286   -4.3512531    2254.8842  0.038387542  0.036799558           18 
 4896000   0.47833155   -4.3537999    2253.1296  0.038349836  0.036790428           28 
 4897000   0.47723166   -4.3448204    2256.1496  0.038393397    0.0367813           74 
 4898000   0.47142418   -4.3429874    2255.3087  0.038371252  0.036772176           24 
 4899000   0.46460488   -4.3555304    2255.2609  0.038362607  0.036763072           55 
 4900000   0.46831724   -4.3561046     2254.886  0.038348402  0.036753953           29 
 4901000   0.47122649   -4.3348083    2256.5335  0.038368589  0.036744839           43 
 4902000    0.4704472   -4.3467969    2257.0256  0.038369128  0.036735723           53 
 4903000   0.46523924   -4.3435797    2253.2766  0.038297583  0.036726593           37 
 4904000   0.46707425   -4.3494568    2257.2333  0.038357009  0.036717466           42 
 4905000   0.46526036   -4.3657474    2249.8974  0.038224557  0.036708302           43 
 4906000   0.47210572   -4.3406913    2255.7618  0.038316377  0.036699161           22 
 4907000   0.45743669   -4.3495796    2254.9552  0.038294872  0.036690046           19 
 4908000   0.46528561   -4.3513869    2253.0963  0.038255506  0.036680939           33 
 4909000   0.47100391   -4.3454096    2251.7623  0.038225068  0.036671856           23 
 4910000   0.47664991   -4.3402653    2257.1992  0.038309558   0.03666276           31 
 4911000   0.46900161   -4.3656591    2259.8163  0.038346167  0.036653643           54 
 4912000   0.47426294   -4.3665925      2252.03  0.038206263  0.036644498           43 
 4913000   0.46015567   -4.3663419    2252.3506  0.038203925  0.036635354           46 
 4914000   0.45770039   -4.3487969    2250.4708  0.038164272  0.036626223           59 
 4915000   0.46631751   -4.3470551    2252.3257  0.038187957  0.036617115           22 
 4916000   0.46511657   -4.3656952    2247.1619  0.038092655  0.036607967           89 
 4917000   0.47233385   -4.3721534    2251.3389    0.0381557  0.036598824           35 
 4918000   0.47246446    -4.366219    2255.6736  0.038221391  0.036589677           63 
 4919000   0.45550759   -4.3457343    2250.9008  0.038132765  0.036580547           84 
 4920000   0.44513715   -4.3787304    2248.1346   0.03807816  0.036571377           48 
 4921000   0.46446553   -4.3621153    2251.7964  0.038132433  0.036562203           72 
 4922000   0.46911072   -4.3794551    2255.1155  0.038180879  0.036553032           99 
 4923000   0.46205424   -4.3599288    2251.5382   0.03811257  0.036543872           51 
 4924000    0.4656544   -4.3689814    2252.8181  0.038126491   0.03653471           58 
 4925000   0.46843717   -4.3681561    2252.8506    0.0381193  0.036525583           80 
 4926000   0.45510405   -4.3628542    2257.7416  0.038194302  0.036516435          101 
 4927000   0.45224211   -4.3694881    2246.9669  0.038004311  0.036507288           81 
 4928000   0.45632873   -4.3784962    2255.6899  0.038144107  0.036498157          116 
 4929000   0.45544045   -4.3719725    2249.0908  0.038024798  0.036488972          218 
 4930000   0.46448929   -4.3730087    2250.9906  0.038049199   0.03647978          156 
 4931000   0.46529864   -4.3617643    2243.4864  0.037914662  0.036470581          148 
 4932000   0.47201273   -4.3862404    2248.8332  0.037997316  0.036461382          117 
 4933000   0.45579288   -4.3645548    2251.2624   0.03803065  0.036452212          120 
 4934000   0.46933542   -4.3910441    2248.0625  0.037968897  0.036443048          124 
 4935000   0.45469245   -4.3687153    2248.8115  0.037973851  0.036433902           89 
 4936000    0.4658105    -4.362994    2247.7532  0.037948291  0.036424744           99 
 4937000   0.45314615   -4.3690831    2244.6004  0.037887388  0.036415577          146 
 4938000   0.46806615   -4.3887344    2246.0996  0.037905016  0.036406397          133 
 4939000    0.4569882   -4.3774688    2248.2482  0.037933594  0.036397204          142 
 4940000   0.45377439   -4.3683334    2252.0787  0.037990532  0.036388033          179 
 4941000   0.45506664   -4.3918605    2249.9707   0.03794729  0.036378886          239 
 4942000    0.4761723   -4.3772832    2247.7733  0.037902558  0.036369713          183 
 4943000   0.45822048   -4.3803421    2249.3932    0.0379222  0.036360588          217 
 4944000   0.45969357   -4.3751311    2246.9641  0.037873586  0.036351476          216 
 4945000   0.45472703   -4.3756109    2249.4908  0.037908507  0.036342353          164 
 4946000   0.46153273   -4.3735834    2252.8463  0.037957378  0.036333223          148 
 4947000   0.45852967   -4.3965446    2247.2593  0.037855591  0.036324089          155 
 4948000   0.46030714   -4.3653739    2253.5922  0.037954599  0.036314968          151 
 4949000   0.45084854   -4.3652876    2247.7531  0.037848607  0.036305849          115 
 4950000   0.45791682   -4.3702079    2253.1892  0.037932478  0.036296718          162 
 4951000   0.45322523   -4.3819556    2247.4931  0.037828943  0.036287592          115 
 4952000   0.46107602   -4.3690187    2251.1136   0.03788223  0.036278459          132 
 4953000   0.45987925   -4.3894107    2249.5096  0.037847593  0.036269337          147 
 4954000   0.44804906   -4.3912326    2248.5526  0.037823857   0.03626019          148 
 4955000   0.45566055     -4.38562    2256.0215  0.037941834  0.036251088          203 
 4956000   0.46506631   -4.3897552    2247.7764  0.037795541  0.036241987           60 
 4957000    0.4581759    -4.370751    2249.7237  0.037820653  0.036232895           69 
 4958000   0.46510555   -4.3791881     2253.278  0.037872765  0.036223798          127 
 4959000   0.46963423   -4.3947829    2253.4577  0.037868147  0.036214693           85 
 4960000   0.45655283   -4.3703645    2251.1627  0.037821954  0.036205611           35 
 4961000   0.45696846   -4.3750157    2246.3484  0.037733461  0.036196529           64 
 4962000   0.44319323    -4.375974    2251.1947  0.037807247  0.036187442           53 
 4963000   0.45653747   -4.3742634    2254.2276  0.037850553  0.036178347           79 
 4964000   0.45462461   -4.3828102    2249.8539  0.037769506  0.036169244           83 
 4965000    0.4630228   -4.3752304    2249.3037  0.037752664  0.036160129           97 
 4966000   0.46075227   -4.3725144    2252.6243  0.037800784  0.036151042           72 
 4967000   0.45142026   -4.3717764     2250.251  0.037753355   0.03614194           88 
 4968000   0.46526792     -4.38298     2249.278  0.037729435  0.036132842          130 
 4969000   0.45294934     -4.37117    2244.2359  0.037637283  0.036123745          125 
 4970000    0.4562605   -4.3885969    2251.7794  0.037756193  0.036114639          113 
 4971000   0.46279617   -4.4038202    2249.2596  0.037706358  0.036105531          249 
 4972000   0.45197454   -4.3925791    2246.1138  0.037646048  0.036096407          156 
 4973000   0.44299461   -4.3848763    2247.6131  0.037663601  0.036087286          157 
 4974000   0.45482453   -4.3913331    2252.3956  0.037736155  0.036078163          166 
 4975000   0.45550927   -4.3908152    2243.9422  0.037586971  0.036069019          305 
 4976000   0.45272976   -4.3961899     2241.525  0.037538938  0.036059894          119 
 4977000   0.45923122   -4.3811708    2244.5497  0.037582039  0.036050775          250 
 4978000   0.45199631   -4.4027216    2244.5058  0.037573755  0.036041652          323 
 4979000    0.4585793   -4.3892519    2248.2747  0.037629288  0.036032526          244 
 4980000   0.45263954   -4.3988574    2245.7257  0.037579078  0.036023408          230 
 4981000   0.45426816   -4.4070964    2246.6799  0.037587498  0.036014292          184 
 4982000   0.45853304   -4.3816145    2247.2082  0.037588789  0.036005192          244 
 4983000   0.44835292   -4.4009964    2246.2506  0.037565233  0.035996073          219 
 4984000   0.44548916    -4.395559    2248.0212    0.0375873  0.035986968          335 
 4985000   0.45330962   -4.3877509     2246.428  0.037553126  0.035977885          240 
 4986000   0.45031204   -4.3947644    2251.1882  0.037625154  0.035968802          282 
 4987000   0.44449149   -4.3896999    2246.1865   0.03753403  0.035959699          319 
 4988000   0.46147743   -4.3923246    2250.9392  0.037605908    0.0359506          285 
 4989000   0.46229639   -4.3934963     2242.367  0.037455185  0.035941486          305 
 4990000   0.45949999   -4.3955712    2246.0949  0.037509934  0.035932402          385 
 4991000    0.4538473   -4.3964519    2246.6179  0.037511151  0.035923291          293 
 4992000   0.45535532   -4.3813236    2252.0482  0.037594288  0.035914204          250 
 4993000   0.44101197   -4.3991584    2245.6537  0.037480034  0.035905135          245 
 4994000   0.45167308    -4.392378    2244.9398  0.037460617  0.035896054          198 
 4995000   0.44704188   -4.3956542    2247.0081  0.037487622   0.03588696          232 
 4996000   0.43807268   -4.3884928    2247.5955  0.037489917  0.035877866          207 
 4997000   0.44670832   -4.3954243    2246.5016  0.037464172  0.035868774          289 
 4998000   0.44883909   -4.4093267    2248.9603   0.03749767  0.035859695          183 
 4999000    0.4479192   -4.3983301    2248.2511  0.037478348  0.035850636          209 
 5000000    0.4592496    -4.392753     2249.883  0.037498049  0.035841561          172 
 5001000   0.44969094   -4.3873411     2244.067  0.037393638  0.035832498          110 
 5002000   0.45062154    -4.416224    2247.9051  0.037450104  0.035823442          135 
 5003000   0.43989633   -4.3965207    2249.7556  0.037473442  0.035814369          137 
 5004000   0.45353989   -4.4001615    2242.7888  0.037349934  0.035805292          101 
 5005000   0.45011897   -4.3834364    2246.5028  0.037404309  0.035796202          109 
 5006000     0.452495   -4.3930182    2241.4359  0.037312491  0.035787143          103 
 5007000   0.45065352   -4.3852683    2249.8073  0.037444366  0.035778082          137 
 5008000   0.44534633   -4.3930618    2246.2206  0.037377207  0.035769013          171 
 5009000   0.44946669   -4.3901908    2248.0608   0.03740036   0.03575997          153 
 5010000     0.450182   -4.3946436    2249.6098   0.03741866  0.035750937           87 
 5011000   0.44644355   -4.3993496    2248.0892  0.037385904  0.035741908          138 
 5012000   0.44476181   -4.3998051    2247.3472  0.037366108  0.035732884           71 
Loop time of 12329 on 48 procs for 5000000 steps with 4000 atoms

Performance: 70078.542 tau/day, 405.547 timesteps/s
99.4% CPU use with 48 MPI tasks x no OpenMP threads

MPI task timing breakdown:
Section |  min time  |  avg time  |  max time  |%varavg| %total
---------------------------------------------------------------
Pair    | 812.76     | 886.99     | 953.67     |  94.5 |  7.19
Neigh   | 83.097     | 86.067     | 89.606     |  17.8 |  0.70
Comm    | 785.2      | 850.97     | 913.47     | 101.7 |  6.90
Output  | 14.145     | 14.149     | 14.228     |   0.3 |  0.11
Modify  | 10354      | 10379      | 10400      |  11.7 | 84.18
Other   |            | 112.2      |            |       |  0.91

Nlocal:        83.3333 ave          90 max          76 min
Histogram: 1 1 9 6 3 11 3 9 3 2
Nghost:        2239.92 ave        2264 max        2218 min
Histogram: 2 1 7 10 7 6 9 4 0 2
Neighs:        14993.6 ave       16669 max       12813 min
Histogram: 1 0 1 8 9 8 10 3 4 4
FullNghs:      29985.3 ave       32861 max       26971 min
Histogram: 1 1 5 10 5 9 5 6 5 1

Total # of neighbors = 1439293
Ave neighs/atom = 359.82325
Neighbor list builds = 270646
Dangerous builds = 0

#clear
#
#next RN
#
#jump SELF
Total wall time: 3:25:32
