
units lj                  # Use reduced LJ style units
atom_style atomic         # Uncharged point particles
atom_modify map hash      # Needed for indexing of clusters etc
                          # Used to be able to find where atoms are in relation to each other.

lattice fcc 1.0 spacing 1 1 1
Lattice spacing in x,y,z = 1.5874011 1.5874011 1.5874011
region box block 0 10 0 10 0 10 units lattice
create_box 2 box
Created orthogonal box = (0.0000000 0.0000000 0.0000000) to (15.874011 15.874011 15.874011)
  3 by 4 by 4 MPI processor grid
create_atoms 1 box
Created 4000 atoms
  using lattice units in orthogonal box = (0.0000000 0.0000000 0.0000000) to (15.874011 15.874011 15.874011)
  create_atoms CPU = 0.002 seconds
set type 1 type/fraction 2 0.7 78393
Setting atom values ...
  2825 settings made for type/fraction
mass 1 1.0
mass 2 1.0
pair_style lj/cut  3.5
pair_modify tail  yes
pair_coeff 1  1  1.0  1.0   # Intearaction between 1 and 1 set with epsilon = 1 and sigma = 1
pair_coeff 1  2  1.5  0.8
pair_coeff 2  2  0.5  0.88

write_data data.0
System init for write_data ...
Neighbor list info ...
  update every 1 steps, delay 10 steps, check yes
  max neighbors/atom: 2000, page size: 100000
  master list distance cutoff = 3.8
  ghost atom cutoff = 3.8
  binsize = 1.9, bins = 9 9 9
  1 neighbor lists, perpetual/occasional/extra = 1 0 0
  (1) pair lj/cut, perpetual
      attributes: half, newton on
      pair build: half/bin/atomonly/newton
      stencil: half/bin/3d
      bin: standard
WARNING: Not all mixed pair coeffs generated from mixing. Use write_data with 'pair ij' option to store all pair coeffs. (../write_data.cpp:312)


#############################
#   M E L T   S Y S T E M   #
#############################

velocity all create 2.4 9580093 mom yes dist gaussian # Assign velocities
                                                    # Temperature 2.4, random number seed, zero linear momentum
                                                                                # Gaussian distribution

timestep 0.002   # simulation timestep
thermo 1000       # output thermodynamic data every 1000 steps bf 100

# Define a fix  in this case with index 1 applied to all
# particles in the simulation. This fix is for simulations
# in the anisotropic NPT ensemble. Note that we use the MTK
# correction.
fix 1 all npt temp 2.4 2.4 0.1 iso 5.68 5.68 0.5 mtk yes tchain 5 pchain 5 # Use NPT ensemble
                                                                         # Set temperature and pressure and damping
                                                                         # Numbers of thermostats in chain and in barostat
run 10000          # run for 10000 steps
Per MPI rank memory allocation (min/avg/max) = 3.642 | 3.644 | 3.648 Mbytes
Step Temp E_pair E_mol TotEng Press Volume 
       0          2.4   -4.1690742            0  -0.56997417    -3.744831         4000 
    1000    2.3998634   -3.7822159            0  -0.18332081    5.2945772    3703.0283 
    2000    2.4232095   -3.8498365            0  -0.21593105    5.5629379    3638.2928 
    3000    2.3901611    -3.769754            0  -0.18540858    5.7474386    3668.3856 
    4000    2.4729527   -3.7591127            0 -0.050611069     5.511259    3691.7007 
    5000    2.4081062    -3.790327            0  -0.17907074    5.8732727    3632.0532 
    6000    2.3676495   -3.8114288            0  -0.26084239    5.5943231    3653.3816 
    7000    2.4609567   -3.8685968            0  -0.17808451     5.671616    3617.5913 
    8000    2.3699275   -3.7993172            0  -0.24531463    5.3180581    3675.3579 
    9000    2.4295983   -3.8336068            0  -0.19012045    5.2377344    3679.5425 
   10000    2.4158199   -3.7842844            0  -0.16146053    5.9656756    3647.1809 
Loop time of 2.64951 on 48 procs for 10000 steps with 4000 atoms

Performance: 652195.316 tau/day, 3774.278 timesteps/s
99.6% CPU use with 48 MPI tasks x no OpenMP threads

MPI task timing breakdown:
Section |  min time  |  avg time  |  max time  |%varavg| %total
---------------------------------------------------------------
Pair    | 1.2027     | 1.2558     | 1.3477     |   2.6 | 47.40
Neigh   | 0.21783    | 0.22315    | 0.23512    |   0.8 |  8.42
Comm    | 0.81692    | 0.88636    | 0.94048    |   3.5 | 33.45
Output  | 0.00024582 | 0.00025159 | 0.00031623 |   0.0 |  0.01
Modify  | 0.22319    | 0.26842    | 0.30775    |   5.0 | 10.13
Other   |            | 0.01553    |            |       |  0.59

Nlocal:        83.3333 ave          93 max          74 min
Histogram: 2 5 1 8 7 9 9 5 0 2
Nghost:        1752.02 ave        1790 max        1735 min
Histogram: 11 10 6 7 4 1 4 1 2 2
Neighs:        10476.5 ave       12243 max        8965 min
Histogram: 3 3 4 6 10 12 4 3 2 1

Total # of neighbors = 502874
Ave neighs/atom = 125.71850
Neighbor list builds = 907
Dangerous builds = 217

# Equilibrate just above the melting temperature to avoid step fn in T

fix 1 all npt temp 1.25 1.25 0.1 iso 5.68 5.68 0.5 mtk yes tchain 5 pchain 5
run 2000
Per MPI rank memory allocation (min/avg/max) = 3.644 | 3.646 | 3.649 Mbytes
Step Temp E_pair E_mol TotEng Press Volume 
   10000    2.4158199   -3.7842844            0  -0.16146053    5.9656756    3647.1809 
   11000    1.2313372   -5.5641768            0   -3.7176326    5.8252833    2794.3141 
   12000    1.2299552   -5.6469992            0   -3.8025277    5.4899738    2779.1694 
Loop time of 0.662157 on 48 procs for 2000 steps with 4000 atoms

Performance: 521930.637 tau/day, 3020.432 timesteps/s
99.7% CPU use with 48 MPI tasks x no OpenMP threads

MPI task timing breakdown:
Section |  min time  |  avg time  |  max time  |%varavg| %total
---------------------------------------------------------------
Pair    | 0.29613    | 0.32215    | 0.37232    |   2.3 | 48.65
Neigh   | 0.041694   | 0.043826   | 0.049731   |   0.6 |  6.62
Comm    | 0.19259    | 0.24784    | 0.2811     |   3.1 | 37.43
Output  | 5.1213e-05 | 5.3369e-05 | 6.7729e-05 |   0.0 |  0.01
Modify  | 0.038152   | 0.043421   | 0.047733   |   1.5 |  6.56
Other   |            | 0.004865   |            |       |  0.73

Nlocal:        83.3333 ave          90 max          76 min
Histogram: 1 4 4 5 7 8 6 9 1 3
Nghost:        2099.83 ave        2123 max        2073 min
Histogram: 1 6 3 3 9 6 5 4 5 6
Neighs:        13736.4 ave       15358 max       12294 min
Histogram: 3 3 6 4 11 8 5 5 1 2

Total # of neighbors = 659346
Ave neighs/atom = 164.83650
Neighbor list builds = 143
Dangerous builds = 11

#############################
# L I N E A R  Q U E N C H  #
#############################

# Define solid atoms. This closely follows ten Wolde  Ruiz-Montero and Frenkel  Faraday Discuss  1996  104  93-110
# Compute components of the per-atom q6 vector
compute q6 all orientorder/atom degrees 1 6 components 6 nnn NULL cutoff 1.3 # compute the Q6 parameter.
                                                                             # Use all neighbours within 1.3 unit cell.

# get number of connections
compute coord_number all coord/atom orientorder q6 0.5

# An atom is solid if it has 8 or more connections (of a possible 14)
variable is_solid atom c_coord_number>=8
group solid dynamic all var is_solid    # Must be dynamic to update
dynamic group solid defined

# do clustering
compute cluster solid cluster/atom 1.3 # Create a cluster where all atoms within are solid and max 1.3 units from another member

# define chunks one chunk per cluster
compute clus_chunks solid chunk/atom c_cluster nchunk every compress yes  # Says which atoms are in which chunk

# count the size of each chunk
compute size_chunks solid property/chunk clus_chunks count


# Find the maximum entry in the vector of chunk sizes
variable max_n equal max(c_size_chunks)


# Thermo style which includes this variable
# thermo_style custom step temp pe vol v_max_n

thermo ${N}  # Print the thermo information every 100 steps
thermo 1000  

# Reset the npt fix at a lower temperature (below freezing)
fix 1  all npt temp  ${temp} ${temp}  0.1  iso  5.68  5.68  0.5  mtk yes tchain  5  pchain  5
fix 1  all npt temp  0.45 ${temp}  0.1  iso  5.68  5.68  0.5  mtk yes tchain  5  pchain  5
fix 1  all npt temp  0.45 0.45  0.1  iso  5.68  5.68  0.5  mtk yes tchain  5  pchain  5

dump dmp2 all dcd ${N} traj.dcd
dump dmp2 all dcd 1000 traj.dcd


compute msd all msd com yes
variable twopoint equal c_msd[4]/6/(step*dt+1.0e-6)
fix 9 all vector 10 c_msd[4]
variable fit equal slope(f_9)/6/(10*dt)
thermo_style custom step temp pe c_msd[4] v_twopoint v_fit v_max_n

fix 1 all npt temp 1.25 ${temp} 0.1 iso 5.68 5.68 0.5 mtk yes tchain 5 pchain 5
fix 1 all npt temp 1.25 0.45 0.1 iso 5.68 5.68 0.5 mtk yes tchain 5 pchain 5
run 500000 # 5000000  # Run for this many steps
Neighbor list info ...
  update every 1 steps, delay 10 steps, check yes
  max neighbors/atom: 2000, page size: 100000
  master list distance cutoff = 3.8
  ghost atom cutoff = 3.8
  binsize = 1.9, bins = 8 8 8
  4 neighbor lists, perpetual/occasional/extra = 1 3 0
  (1) pair lj/cut, perpetual
      attributes: half, newton on
      pair build: half/bin/atomonly/newton
      stencil: half/bin/3d
      bin: standard
  (2) compute orientorder/atom, occasional
      attributes: full, newton on
      pair build: full/bin/atomonly
      stencil: full/bin/3d
      bin: standard
  (3) compute coord/atom, occasional
      attributes: full, newton on
      pair build: full/bin/atomonly
      stencil: full/bin/3d
      bin: standard
  (4) compute cluster/atom, occasional
      attributes: full, newton on
      pair build: full/bin/atomonly
      stencil: full/bin/3d
      bin: standard
Per MPI rank memory allocation (min/avg/max) = 9.843 | 9.849 | 9.855 Mbytes
Step Temp PotEng c_msd[4] v_twopoint v_fit v_max_n 
   12000    1.2299552   -5.6469992 2.6079742e-30 1.8110931e-32 8.3333333e+20            2 
   13000    1.2384341   -5.6255767   0.60925037  0.003905451  0.050525734            6 
   14000    1.2534652   -5.6243771    1.1993439 0.0071389518  0.049772833            2 
   15000    1.2552582   -5.5815589    1.7860511  0.009922506  0.049391211            1 
   16000    1.2411868   -5.7000965    2.3911448  0.012453879  0.049905614            2 
   17000    1.2556229   -5.6369724    3.0523654  0.014962575  0.050538114            2 
   18000    1.2576469   -5.6466263    3.7402158  0.017315814  0.051254034            1 
   19000    1.2597675   -5.6549661     4.433342  0.019444482  0.052155653            2 
   20000    1.2397485   -5.6345059    5.0664414  0.021110172  0.052825059            2 
   21000    1.2389384   -5.6374624    5.7061525  0.022643462  0.053205591            3 
   22000    1.2276187   -5.6539614    6.2621222  0.023720159  0.053144087            2 
   23000    1.2543836   -5.6310008     6.748249  0.024450177   0.05262582            1 
   24000    1.2157635   -5.6729995    7.3098473  0.025381414  0.052019986            2 
   25000    1.2219679    -5.670904    7.8456261  0.026152087  0.051522696            3 
   26000    1.2454663   -5.6571043    8.4003948  0.026924342  0.051053773            3 
   27000    1.2462044    -5.711293    8.9919173  0.027752831  0.050657214            1 
   28000    1.2409793   -5.6954999    9.5013165  0.028277727  0.050243054            2 
   29000     1.213584   -5.6755748    10.027066  0.028813407  0.049840465            3 
   30000    1.1929365   -5.6751607    10.560067   0.02933352  0.049427148            1 
   31000    1.1935096   -5.6864523     11.19064  0.030082366  0.049156718            1 
   32000    1.2378028    -5.684935    11.803311  0.030737788  0.048945111            1 
   33000    1.2028392   -5.6816835    12.322497  0.031117415  0.048780022            4 
   34000     1.196846   -5.7021625    12.985565  0.031827365   0.04868366            2 
   35000    1.2261177   -5.6902751    13.583894  0.032342603  0.048632156            4 
   36000    1.2023417   -5.6840904    14.065896  0.032559945  0.048588018            2 
   37000     1.228238   -5.7414274    14.538415  0.032744177  0.048447171            2 
   38000    1.1864535   -5.7219751    15.076862  0.033063293  0.048310116            2 
   39000    1.2379269   -5.7328405    15.487447  0.033092835  0.048119856            3 
   40000    1.2167416   -5.7172655    16.040922  0.033418588  0.047887948            1 
   41000    1.2214967   -5.7603326    16.580505  0.033700213   0.04770299            2 
   42000    1.1958521   -5.6760747    17.229745  0.034186002  0.047563067            3 
   43000    1.1889076   -5.7316446    17.756246  0.034411329  0.047455876            3 
   44000    1.1972105   -5.7273777    18.483812  0.035007219  0.047405374            1 
   45000    1.1684048   -5.7561985    18.885882  0.034973854  0.047347457            4 
   46000    1.2133307   -5.7525309    19.472265  0.035275843  0.047290425            1 
   47000       1.1946   -5.7441428    19.817449   0.03513732  0.047180002            4 
   48000    1.1766131   -5.7638264    20.343045  0.035317787  0.047060479            4 
   49000    1.1724919   -5.7563382    20.832561  0.035429525  0.046924156            2 
   50000    1.1925778   -5.7393547     21.28319  0.035471983  0.046781232            2 
   51000    1.1906767   -5.7162274    21.947541  0.035861994  0.046642073            2 
   52000     1.175751   -5.7351158    22.409989  0.035913444  0.046515607            2 
   53000    1.1907212   -5.7738276    22.875454  0.035967694  0.046378553            3 
   54000    1.1642726   -5.7820352    23.064862  0.035593922  0.046213621            2 
   55000    1.1787354   -5.7749275     23.66837  0.035861166  0.046025054            2 
   56000    1.1876393   -5.7706113    24.061237  0.035805412  0.045844831            5 
   57000    1.1664295   -5.8085225    24.427918   0.03571333   0.04565313            3 
   58000    1.1844756   -5.7939692    25.084732  0.036041282  0.045470426            4 
   59000    1.1637508   -5.8163379    25.513154  0.036035527  0.045310191            2 
   60000    1.1693132   -5.7964226     25.98465  0.036089791  0.045162806            2 
   61000    1.1668081   -5.7870105    26.673838  0.036439669  0.045033005            5 
   62000    1.1628421   -5.7661144     27.14005  0.036478561  0.044917638            3 
   63000    1.1527416   -5.7363909    27.741908  0.036695646    0.0448188            5 
   64000    1.1581392   -5.8072666    28.124552  0.036620511  0.044719826            4 
   65000    1.1221657   -5.8283825    28.685582  0.036776387  0.044630641            4 
   66000    1.1491797   -5.8037903    29.210383  0.036881796  0.044531752            3 
   67000    1.1492841   -5.8119513    29.668334  0.036900913  0.044453275            3 
   68000    1.1648024   -5.8436534    30.003268  0.036768711  0.044373071            3 
   69000    1.1668945   -5.7830456    30.587356  0.036941251  0.044283283            2 
   70000    1.1698265   -5.8205585    30.884364    0.0367671  0.044177839            1 
   71000    1.1400617   -5.8065261    31.429463  0.036889041  0.044071029            2 
   72000    1.1518227   -5.7855825    32.011456  0.037050296  0.043967245            3 
   73000     1.146787   -5.8533287    32.334525  0.036911557  0.043873744            4 
   74000    1.1483392   -5.8515995    32.832326   0.03697334  0.043784773            4 
   75000    1.1481669   -5.8387543    33.500073  0.037222303  0.043699639            3 
   76000    1.1486972   -5.8352074    33.814836  0.037077671  0.043618749            3 
   77000    1.1740812    -5.841237    34.183469  0.036995096  0.043526623            2 
   78000    1.1489815   -5.7898811    34.888078  0.037273588    0.0434424            4 
   79000    1.1186395   -5.8436846    35.315927  0.037253087  0.043362087            5 
   80000    1.1580469   -5.8595195     35.78058  0.037271437  0.043286888            4 
   81000    1.1315162   -5.8456391    36.297387   0.03734299   0.04321501            5 
   82000    1.1316509     -5.88012    36.585866  0.037180757   0.04313235            2 
   83000    1.1358925   -5.8783304    37.226854  0.037376359  0.043049908            4 
   84000    1.1634545   -5.9156285    37.505313  0.037207651  0.042972806            6 
   85000      1.11912   -5.8798713    37.984748  0.037239949  0.042892942            2 
   86000    1.1499561   -5.8733124    38.357804  0.037168414  0.042814352            3 
   87000    1.1112688   -5.8846215    38.894291  0.037255068  0.042737796            2 
   88000    1.1440767   -5.8891087    39.421633  0.037331092  0.042653969            5 
   89000    1.1016969   -5.8809137    39.775027  0.037242534  0.042580431            3 
   90000    1.1396839   -5.9100018    40.180267  0.037203951  0.042510461            2 
   91000    1.1366582   -5.9225502    40.658039  0.037232636  0.042434769            3 
   92000    1.1403663   -5.8460173    41.146525  0.037270403  0.042358549            3 
   93000    1.1094806   -5.8787759    41.366109  0.037066406  0.042280723            4 
   94000    1.1169998   -5.9043148    41.910842  0.037155001  0.042199242            3 
   95000    1.1420632    -5.924654    42.324868  0.037127077    0.0421185            3 
   96000    1.1222638   -5.9175744    42.678786  0.037047557  0.042038545            4 
   97000    1.1122183   -5.9094166     43.17902  0.037095378  0.041956199            4 
   98000    1.1208351   -5.9089294    43.997358  0.037412719  0.041880773            1 
   99000    1.1340274   -5.9429543    44.163537  0.037174695  0.041813954            2 
  100000    1.0857481   -5.9014338     44.60011  0.037166758  0.041744537            4 
  101000    1.0903108   -5.9377244    44.995101  0.037124671  0.041675133            6 
  102000    1.0857437    -5.958802    45.521309  0.037190612  0.041603525            2 
  103000    1.0946347   -5.9342494    45.451722  0.036773238   0.04152195            2 
  104000    1.1226623   -5.9448073    45.885076  0.036766888   0.04143407            3 
  105000    1.1156075   -5.9420229    46.320624    0.0367624  0.041340349            2 
  106000    1.1040409   -5.9796434     46.66601  0.036687114  0.041246464            2 
  107000    1.0998657    -5.949799     47.27586  0.036819206  0.041156376            4 
  108000     1.123901   -5.9715958    47.425428  0.036593695  0.041067145            1 
  109000    1.0905978   -5.9628984    47.662516  0.036439232  0.040964469            5 
  110000    1.1155108   -5.9787727    48.008232  0.036369872  0.040859251            9 
  111000    1.0950543   -5.9678144    48.370478  0.036314172  0.040751595            3 
  112000    1.0918925   -5.9949938    48.707532  0.036240723  0.040645558            2 
  113000    1.1118687    -5.961553    49.051998   0.03617404  0.040542279            3 
  114000    1.0827282   -5.9988909    49.295551   0.03603476  0.040440276            2 
  115000    1.0858878   -5.9677427    50.001998  0.036233332  0.040339098            3 
  116000    1.0874814   -5.9652842    49.871307  0.035827088  0.040227075            3 
  117000    1.0782781   -6.0266932    49.928047  0.035561287  0.040110434            4 
  118000    1.0468695   -5.9804849    50.505858  0.035667979  0.039987811            4 
  119000    1.0729639   -5.9783389    50.806189  0.035578563   0.03986789            2 
  120000    1.0724576    -6.018368    50.911069  0.035354909  0.039744115            4 
  121000    1.0777409   -5.9913387    51.330697  0.035351719  0.039619879            4 
  122000    1.0800762   -6.0222223    51.736202  0.035338936  0.039500555            5 
  123000    1.0984309   -6.0280697    52.094368  0.035294287  0.039385149            2 
  124000    1.0479055     -5.99961    52.611759  0.035357365  0.039272476            8 
  125000    1.0676044   -6.0240696    52.940929  0.035293952  0.039159998            2 
  126000    1.0598662   -6.0427522    53.164923  0.035161986  0.039047753            4 
  127000     1.051382   -6.0432044    53.741635   0.03526354  0.038937204            3 
  128000    1.0465024   -6.0386214    53.923793  0.035106636   0.03883152            2 
  129000    1.0836047   -6.0151649    54.530153  0.035226197  0.038728459            2 
  130000    1.0735976   -6.0382507    54.614949  0.035009583  0.038627062            4 
  131000    1.0446296   -6.0639094    54.758406  0.034833592  0.038519624            3 
  132000     1.040391   -6.0296133    55.206679  0.034852701  0.038410229            4 
  133000    1.0184778   -6.0441418    55.308006  0.034654139  0.038297866            1 
  134000    1.0741402   -6.0639969    55.590486  0.034571197  0.038183159            3 
  135000    1.0683384   -6.0604242    56.256125  0.034726003  0.038070951            6 
  136000    1.0657739   -6.0362417    56.431179  0.034577928  0.037960773            3 
  137000    1.0326608   -6.1022365    56.532475   0.03438715  0.037853794            3 
  138000    1.0474982   -6.0618741    57.151322  0.034511668  0.037748787            6 
  139000    1.0451373   -6.0949655    57.633482  0.034552447  0.037651448            6 
  140000    1.0371956   -6.0591422    58.389523  0.034755668  0.037561757            2 
  141000    1.0282865    -6.163608    58.461096  0.034551475  0.037475201            3 
  142000    1.0524498   -6.1164746    58.873193  0.034549996   0.03739033            5 
  143000    1.0483414    -6.142676    59.116985  0.034450457  0.037304484            2 
  144000     1.026417   -6.0585695    59.539464  0.034455708  0.037217276            6 
  145000    1.0394598   -6.1383473     59.70048  0.034310621  0.037128134            3 
  146000    1.0592948   -6.0798091    60.037359  0.034267899  0.037039959            6 
  147000    1.0346341   -6.0719853    60.504375  0.034299532  0.036952324            1 
  148000    1.0356424   -6.1619346    60.388897  0.034002757  0.036860844            3 
  149000    1.0806882   -6.0926314     60.83653  0.034024905  0.036766113            4 
  150000    1.0514677   -6.1158317    61.252839  0.034029355  0.036676465            3 
  151000    1.0303207   -6.1189686    61.227158  0.033789822  0.036584571            2 
  152000    1.0251347   -6.1090644    61.818103  0.033891504  0.036493696            4 
  153000    1.0120038   -6.1382611    62.055712  0.033799407  0.036407181            2 
  154000    1.0252832   -6.1561052    62.324901  0.033725596  0.036320866            2 
  155000    1.0087853   -6.1371383    62.588888   0.03364994  0.036229859            4 
  156000    1.0142474   -6.1533484    63.052224  0.033681743  0.036140313            4 
  157000    1.0256809   -6.1470893    63.103315  0.033494329   0.03605183            3 
  158000    1.0132085   -6.1713027    63.651018  0.033571212  0.035967418            4 
  159000    1.0238072   -6.1683648    63.841866  0.033460097  0.035881713            7 
  160000   0.99104137     -6.18708    64.029542   0.03334872   0.03579478            2 
  161000    1.0107663   -6.1822817    64.160521  0.033209379  0.035706084            6 
  162000   0.99816875   -6.1780849    64.715014  0.033289616  0.035618352            4 
  163000    1.0109817   -6.1972444    64.741339  0.033098844   0.03552866            3 
  164000    1.0081467   -6.1669707    65.262626  0.033161903  0.035437478            6 
  165000    1.0063974   -6.1842297    65.322124  0.032990971  0.035349265            5 
  166000    1.0269746   -6.1510018    65.856927  0.033060706  0.035262531            3 
  167000   0.99588756   -6.2031779    66.189297  0.033028591  0.035176911            4 
  168000   0.98886329   -6.2143856    66.391585  0.032932334  0.035089558            2 
  169000    1.0181224   -6.1744946    66.587622  0.032834133  0.035004857            4 
  170000    1.0133278   -6.2461138     66.52862  0.032612068  0.034916852            4 
  171000   0.98941002   -6.2065139    66.907533   0.03260601  0.034827947            7 
  172000   0.98568655    -6.219897    67.255798  0.032585173  0.034740881            4 
  173000   0.99620553   -6.2024147     67.63869  0.032581257  0.034656228            3 
  174000   0.99741258   -6.2414204     67.91017  0.032524028  0.034571001            5 
  175000   0.98106865   -6.1856539    68.099201  0.032428191  0.034486164            4 
  176000   0.99464992   -6.1960551    68.590026  0.032476338   0.03440208            4 
  177000   0.97970643   -6.2257245    68.903344  0.032440369   0.03431998            8 
  178000   0.99002414   -6.2292152    69.124334  0.032361579  0.034239031            3 
  179000    1.0250104   -6.2419894    69.170497   0.03220228  0.034153226            6 
  180000   0.99341742   -6.2043514    69.410028  0.032134272  0.034067434            2 
  181000    1.0023714   -6.2425689    69.624143  0.032055315  0.033983459            7 
  182000    1.0004944   -6.2429113    70.273918  0.032176702  0.033899434            5 
  183000   0.98323979   -6.2472039    70.132882  0.031936649  0.033816727            2 
  184000   0.97095055   -6.2654469    70.448945  0.031906225   0.03373105            1 
  185000   0.97101863   -6.3077234    70.348827  0.031688661  0.033647383            3 
  186000   0.98137465   -6.2236912    70.882217  0.031757266  0.033561893            2 
  187000   0.97484651   -6.2184104    71.221317  0.031738555  0.033478794            5 
  188000   0.95327984   -6.2466284    71.438712  0.031666096  0.033396409            3 
  189000   0.97680894   -6.2836918    71.694969  0.031611538  0.033313109            5 
  190000   0.95988263   -6.3198711    71.845581  0.031511219  0.033233177            8 
  191000   0.97855583   -6.2654357    72.316241  0.031551589  0.033154825            4 
  192000   0.96339182   -6.3119062     72.49703  0.031465725  0.033077508            3 
  193000   0.95413332   -6.3003736    72.948866  0.031497783  0.033002183            6 
  194000   0.97569149   -6.2899061    73.181012  0.031435143  0.032925586            5 
  195000   0.96296603   -6.3127943     73.60136  0.031453573  0.032850712            3 
  196000   0.95071485    -6.278036    73.801433   0.03137816  0.032775671            3 
  197000   0.95967369   -6.3084766    73.855714  0.031241842  0.032701979            2 
  198000   0.93344933   -6.2828655    74.302131  0.031271941  0.032627684            5 
  199000   0.95077603   -6.3114478    74.560338  0.031222922  0.032554942            4 
  200000   0.96467309   -6.3217514    74.479503  0.031033126  0.032480353            4 
  201000   0.95008065    -6.291407     74.72364   0.03097995  0.032404014            8 
  202000   0.93861882   -6.3508503     74.67539  0.030806679  0.032325292            4 
  203000    0.9520537    -6.296511    75.271803  0.030899755  0.032246032            8 
  204000   0.95313594   -6.3401639    75.462692  0.030826263  0.032168857            6 
  205000     0.968153   -6.3387272    75.588551  0.030727053  0.032093208            6 
  206000   0.93646749   -6.3406148    75.562762   0.03056746  0.032015895            2 
  207000   0.93938673   -6.3317832    75.945435  0.030573847  0.031939031            4 
  208000   0.95234189   -6.3475119    76.290534  0.030565118  0.031863418            3 
  209000   0.92256185    -6.365641    76.610395  0.030546409  0.031788039            8 
  210000   0.91159689   -6.3805371    76.660548  0.030420852  0.031712501            8 
  211000   0.92068147   -6.3770449     76.85238  0.030352441  0.031635479            5 
  212000   0.94694722   -6.3940635    76.937216  0.030242616  0.031560602            4 
  213000   0.92049139   -6.3523162    77.512502  0.030325705  0.031484031            4 
  214000   0.91687604   -6.3617185    77.507854  0.030182186  0.031409608            6 
  215000   0.90852606   -6.3531313    77.499681  0.030038636   0.03133245            4 
  216000   0.93252217   -6.3896908    77.428836  0.029872236  0.031255104            5 
  217000   0.91283599   -6.4064563    77.401038  0.029723901  0.031176589            3 
  218000   0.92720904   -6.3779047    77.857978  0.029762224  0.031096321            3 
  219000   0.93051955   -6.3643777     78.42539  0.029842233  0.031018066            5 
  220000   0.90661036   -6.4256313     78.33763  0.029673344  0.030943315            5 
  221000   0.93104306   -6.4087408    78.596565  0.029636714  0.030866626            4 
  222000   0.90943113   -6.3834806     78.73109  0.029553712  0.030789873            7 
  223000   0.91694769   -6.4071822    78.976061  0.029512728  0.030713133            4 
  224000   0.90386359   -6.4228828    79.142594  0.029442929  0.030635531            2 
  225000   0.91098305    -6.417464    79.614608  0.029486892  0.030558221           10 
  226000   0.91142936   -6.4126995    79.501869  0.029314848  0.030482794            5 
  227000   0.88713855   -6.4441679    79.472556  0.029174947  0.030405356            3 
  228000   0.89167669   -6.4348656    79.730904  0.029141412  0.030327697            3 
  229000   0.90038162   -6.4138867    79.813183  0.029044098  0.030250548           17 
  230000   0.90169984   -6.4417915    79.804692  0.028914743  0.030173115            5 
  231000   0.88435655   -6.4584732    80.319359  0.028975238  0.030095383           10 
  232000   0.90371813   -6.4527573    80.399661  0.028879188  0.030019577            5 
  233000   0.91198462   -6.4274388    80.922552  0.028942257  0.029944285            5 
  234000   0.88715602   -6.4715856    81.083811  0.028876001  0.029870208            5 
  235000   0.91879879   -6.4737311    81.237777  0.028807722  0.029796596            4 
  236000   0.87038439   -6.4397013    81.602965  0.028814606  0.029723106            5 
  237000   0.89325384   -6.4561111    81.519169  0.028663562  0.029650461            4 
  238000   0.89782184   -6.4334035    81.879967  0.028669456  0.029576268            4 
  239000   0.92589949   -6.4785613    81.839614   0.02853543  0.029503791            4 
  240000   0.88687602   -6.4647204    82.040684  0.028486349  0.029431634            4 
  241000   0.89787888   -6.4641549    82.433608  0.028504014  0.029358081            4 
  242000   0.86874052   -6.4829082    82.375428  0.028366194  0.029284439            9 
  243000   0.88555635   -6.4964368    82.447125  0.028274048  0.029209936            6 
  244000   0.86701958   -6.4649451    82.708509  0.028247442  0.029136371            8 
  245000   0.85917234   -6.4825493    82.766974  0.028152032  0.029063146            3 
  246000   0.87407094    -6.492527     82.90197  0.028083323  0.028989945            8 
  247000   0.87999117   -6.5150947     82.77977  0.027928397  0.028915578            5 
  248000   0.86290989   -6.5278715    82.986896  0.027885382   0.02884094            8 
  249000   0.88364508   -6.5190257    83.349256  0.027894664  0.028765962            4 
  250000   0.87082045   -6.5621323    83.285052  0.027761684  0.028690386            4 
  251000   0.86020042    -6.504017    83.458967   0.02770882  0.028615499            2 
  252000   0.87664961   -6.5343139    83.878728  0.027737675  0.028541375            5 
  253000   0.86037156    -6.497021    83.911433  0.027638812  0.028468958            6 
  254000   0.87996622    -6.538126    84.013353  0.027563436  0.028395564           11 
  255000   0.86606102   -6.5343884    84.166057  0.027505247  0.028322731            5 
  256000   0.86636145   -6.5350155    84.186471   0.02740445  0.028249997            3 
  257000   0.84699745   -6.5456925    84.328782  0.027343963  0.028176668            6 
  258000   0.85038878   -6.5553835    84.599759  0.027325504   0.02810293            5 
  259000   0.86610316   -6.5751004    84.442167  0.027169294  0.028029133            8 
  260000   0.83385768    -6.561514    84.878671  0.027204702  0.027955952            9 
  261000   0.83883617   -6.5694571    84.752741  0.027060262  0.027882507            8 
  262000   0.85160807   -6.5437578    84.956845  0.027021897  0.027809194            9 
  263000   0.86008811   -6.5251789    85.469007  0.027081434  0.027737032           13 
  264000    0.8646279   -6.5694863    85.231012  0.026903728  0.027666063            6 
  265000   0.84498208   -6.5874966    85.544654  0.026900834  0.027593541           10 
  266000    0.8461463    -6.576669    85.485297  0.026781108  0.027520998            5 
  267000   0.85952451   -6.5970219    85.650281  0.026732297   0.02744882            5 
  268000   0.86163784   -6.6345955     85.45231  0.026570992  0.027375688            7 
  269000   0.85127719   -6.5761956    85.865671   0.02660027  0.027303243           12 
  270000    0.8226601   -6.6194273     85.65935  0.026438071  0.027230797            8 
  271000    0.8305261   -6.6287809    85.962765  0.026433815  0.027158278           10 
  272000   0.83296789   -6.6168936     86.09243  0.026376357  0.027084966            9 
  273000   0.82577862   -6.6135526    86.037842  0.026263077  0.027011871            7 
  274000   0.82972933   -6.6452499    86.187025  0.026212599  0.026938281            9 
  275000   0.82745872   -6.6475942    86.036092  0.026071543  0.026864544            6 
  276000   0.83973618   -6.6343018    86.120632  0.026002606  0.026789685           10 
  277000   0.82279131   -6.6351477    86.048855  0.025887141  0.026714544           11 
  278000   0.81366522   -6.6210313     86.41911  0.025905009  0.026638966           10 
  279000   0.80614338   -6.6411299    86.363545  0.025795563  0.026563615           11 
  280000   0.83172566    -6.650366    86.306587  0.025686484  0.026487087            5 
  281000   0.82328024   -6.6437099    86.817106  0.025746473  0.026411052           11 
  282000   0.80749779   -6.6764982    86.287098  0.025498551  0.026335617           12 
  283000   0.82112302   -6.6729998    86.671325  0.025521591  0.026259801            7 
  284000   0.82577794   -6.6872657    86.894492   0.02549721  0.026184758            3 
  285000   0.82320555   -6.6365316    86.893925   0.02540758  0.026110294            5 
  286000    0.8092993   -6.6542704    87.078269  0.025372456  0.026036621            9 
  287000   0.81785786   -6.6676583    87.035446  0.025271616  0.025962145            8 
  288000   0.81011613   -6.6879117    87.085173  0.025198256  0.025887419            8 
  289000   0.80372472   -6.6647657    87.220222  0.025150006  0.025812597            7 
  290000   0.80740344   -6.6966729    87.264577  0.025076028  0.025738258            8 
  291000   0.80034806   -6.7086842    87.298923  0.024999692  0.025663819            6 
  292000   0.77541814   -6.7007674    87.250096  0.024900141  0.025589449            7 
  293000   0.81316353   -6.7220611    87.606262  0.024916457  0.025515472           16 
  294000   0.80340126    -6.692275    87.754955  0.024873853  0.025443156           11 
  295000   0.81333941   -6.7356541    87.673828  0.024766618  0.025369594            7 
  296000   0.77736985   -6.7207185    87.589484  0.024659202  0.025295612            3 
  297000   0.80259049   -6.7295222    87.526421   0.02455848  0.025221653            5 
  298000   0.79446988   -6.7420396    87.690948  0.024522077  0.025147627            7 
  299000   0.80181568   -6.7407607    87.788452  0.024467239  0.025073333            9 
  300000   0.77723509   -6.7079477    87.744183  0.024373384  0.024998581           10 
  301000    0.8010982   -6.7437824    87.556637  0.024240486  0.024923452            8 
  302000   0.78623642   -6.7581266    87.370057  0.024108735  0.024847064            6 
  303000   0.78038183   -6.7625337    87.904762  0.024176227   0.02477122            8 
  304000   0.76467108   -6.7731347    87.536671  0.023995798  0.024695611            8 
  305000    0.7957227   -6.7476771    87.870967  0.024008461  0.024620094            6 
  306000   0.78225699   -6.7787532    87.922132  0.023943936  0.024545453            8 
  307000   0.76360555   -6.7338916    88.172028  0.023933775  0.024471311           11 
  308000   0.78431765   -6.7802721     87.96915  0.023801177  0.024397742           12 
  309000   0.74959295   -6.7992587    87.804478   0.02367974  0.024323036           24 
  310000   0.78316508   -6.7789374     88.11135  0.023685847  0.024248646            5 
  311000   0.76806535     -6.78165    88.254269  0.023647982  0.024174683            6 
  312000   0.77660804   -6.7748965    88.331229  0.023592743  0.024100719            9 
  313000   0.77359147   -6.7936272    88.511282  0.023565304  0.024027181           11 
  314000    0.7588403   -6.7954053    88.428146  0.023468191  0.023954047           18 
  315000    0.7599958   -6.8038642    88.330444  0.023367842  0.023880585           19 
  316000   0.76570021   -6.8008555    88.375317  0.023305727  0.023807136           13 
  317000   0.76844651   -6.8093766    88.749211  0.023330497  0.023734947           11 
  318000   0.75762135   -6.7919951    88.921501   0.02330228  0.023662947            7 
  319000    0.7748429    -6.836334    88.714555  0.023175171  0.023590951           12 
  320000   0.75719416     -6.83067    88.585205  0.023069064  0.023518592           19 
  321000   0.75548407   -6.8451115     88.54549  0.022986887  0.023445998           15 
  322000   0.74712793   -6.8263572    88.874795  0.023000723  0.023373903            7 
  323000   0.74623926   -6.8176844    88.861472  0.022926076  0.023302196            7 
  324000   0.75317986   -6.8161266    88.701938  0.022814284  0.023230609           21 
  325000   0.75321004   -6.8591371     89.01848  0.022825251  0.023159544           10 
  326000   0.74385049   -6.8494413    89.016859  0.022754821  0.023087864           13 
  327000   0.73073667   -6.8738023    88.732163  0.022612682    0.0230165           11 
  328000   0.76112448   -6.8610437    89.010103  0.022614355  0.022945238           17 
  329000   0.74392411   -6.8771913    88.944409  0.022528979  0.022874129            7 
  330000   0.74667299   -6.8778611    89.116518  0.022504171   0.02280286            9 
  331000   0.72470273   -6.8855105    88.920814  0.022386912  0.022731121            6 
  332000   0.73068063   -6.8908117     88.71068  0.022266737   0.02265921            9 
  333000   0.72826753   -6.9034103    88.707973  0.022199192  0.022587359           12 
  334000   0.74415219   -6.8728399    89.152733  0.022243696  0.022515781           17 
  335000   0.74329813   -6.8920472    89.119225  0.022168961  0.022444446           16 
  336000   0.72765903   -6.9143942    89.119721  0.022103105  0.022373491           20 
  337000   0.70683304   -6.8882652    89.143585  0.022043419  0.022302468            6 
  338000   0.74248428   -6.9014864    89.281798  0.022012278  0.022231886           20 
  339000   0.72575536   -6.8823737    89.063524  0.021893688  0.022161656           16 
  340000   0.72733131   -6.8887359    89.211295  0.021865513  0.022091465           12 
  341000   0.73974907   -6.9194285    88.961272  0.021740291  0.022021197           13 
  342000    0.7227726   -6.9422856    89.170523   0.02172771  0.021950953           13 
  343000   0.71736343   -6.9139042    89.012392  0.021625946   0.02188075           17 
  344000   0.72828057   -6.9684349    89.041969  0.021570244  0.021810293           12 
  345000   0.71243328   -6.9307746    89.142851   0.02153209  0.021740145           43 
  346000   0.70609465   -6.9316669       89.196  0.021482659  0.021670164           12 
  347000   0.71385391   -6.9213659    89.305645  0.021447081  0.021600678           10 
  348000   0.72872442   -6.9383125    89.165564  0.021351907  0.021531182            9 
  349000   0.72566326   -6.9303563    89.409266  0.021348917  0.021461436           25 
  350000   0.71215259    -6.970993    88.979906  0.021185692  0.021391738            9 
  351000   0.71102697   -6.9780489    89.092559  0.021152079  0.021322509           18 
  352000   0.70124511   -6.9544175    89.057182  0.021083613  0.021253178           15 
  353000   0.71666686   -6.9982582    89.261747  0.021072178  0.021184313           20 
  354000   0.68829255   -6.9653028    89.401965   0.02104566  0.021115789           40 
  355000   0.69857095   -6.9804854    89.085217  0.020912023  0.021047138           10 
  356000   0.68539842   -6.9627944    89.026703  0.020839584  0.020978678           12 
  357000    0.7058719   -6.9838103     89.19258   0.02081993   0.02091034           13 
  358000   0.70288916   -6.9864531    89.387153  0.020807065  0.020842099           13 
  359000   0.68603899   -6.9968448    89.127669  0.020688874   0.02077403           16 
  360000   0.69375567   -7.0043266    89.124474  0.020630665  0.020706022           20 
  361000   0.68697668   -7.0146244    89.154044  0.020580342  0.020637654            8 
  362000   0.68565086   -7.0363696    89.079454   0.02050632  0.020569861           21 
  363000   0.69342814   -6.9893796    89.303151  0.020501182  0.020502346           13 
  364000   0.68837619   -7.0460607    89.158662  0.020411782  0.020435233           24 
  365000   0.69932814   -7.0348379    89.028743  0.020326197  0.020368061           39 
  366000   0.67907005   -7.0275193    89.079539  0.020282227  0.020301022           22 
  367000   0.67701809   -7.0642855    89.077783  0.020226563  0.020234054           23 
  368000    0.6956113   -7.0467492    89.231096  0.020206317  0.020167019           20 
  369000   0.67998041   -7.0418823    89.143856  0.020131855  0.020100475           47 
  370000   0.68081639   -7.0702899    89.312506  0.020115429  0.020033924           15 
  371000   0.67344498   -7.0625922    89.356318  0.020071051  0.019967908           44 
  372000   0.66851694   -7.0967003    89.120099   0.01996418  0.019902269           38 
  373000    0.6639548   -7.0763304     89.26632  0.019943324  0.019836545           54 
  374000   0.65421296   -7.0673003    89.344402  0.019907398  0.019770985           32 
  375000    0.6692225   -7.0851079    89.322511  0.019849447   0.01970585           26 
  376000   0.65902704   -7.0521939    89.362896  0.019805606  0.019640887           16 
  377000    0.6613503   -7.0780169    89.363943  0.019753303  0.019576145           44 
  378000   0.66078066   -7.0869395    89.335771  0.019694835  0.019511632           20 
  379000   0.66609986    -7.076873    89.223702  0.019618228  0.019447007           27 
  380000   0.67012199   -7.1101828    89.388774  0.019602801  0.019382428           29 
  381000   0.65196002   -7.1016959    89.374777  0.019548289  0.019318234           29 
  382000   0.65194668    -7.088639    89.254503  0.019470878   0.01925429           23 
  383000   0.65933127   -7.1366982     89.12174  0.019391153  0.019190476           22 
  384000   0.65087403   -7.1115642    89.577272  0.019439512  0.019127048           30 
  385000   0.64924902   -7.1136577    89.311178  0.019331424  0.019063958           27 
  386000   0.64954675   -7.1404442    89.101844  0.019236149  0.019000959           22 
  387000   0.66009446   -7.1392845    89.170387  0.019201203  0.018937638           26 
  388000   0.64660223   -7.1430121    89.040855  0.019123895  0.018874782           38 
  389000   0.64086847   -7.1630345    89.131182  0.019094083  0.018812001           52 
  390000   0.63487171   -7.1530577     89.06774  0.019031568  0.018749164           55 
  391000    0.6409363   -7.1703818    89.100103  0.018989792  0.018686616           48 
  392000   0.64350847   -7.1594952    89.093994   0.01894005  0.018624295           46 
  393000   0.65767427   -7.1769042    89.029868  0.018878259  0.018562393           60 
  394000    0.6417261   -7.1554996    89.238733   0.01887452  0.018500618           30 
  395000    0.6544621    -7.153594    89.106312    0.0187988   0.01843924           22 
  396000   0.64664526   -7.1479249    89.513357  0.018836986   0.01837793           17 
  397000   0.64187167   -7.1648933    89.410434  0.018767933  0.018317041           31 
  398000   0.63470758   -7.1578072    89.372643  0.018712865  0.018256235           27 
  399000   0.63748898   -7.1907896    89.033645  0.018595164  0.018195638           26 
  400000   0.62996943   -7.1737108    89.246641   0.01859305  0.018135061           62 
  401000   0.63428108   -7.2008473    89.126957  0.018521811  0.018074478           31 
  402000   0.63279272   -7.1968547    89.328174  0.018517449   0.01801423           35 
  403000   0.61221628   -7.2021562    89.162061  0.018437151  0.017954095           36 
  404000    0.6223793   -7.2100913    89.129807  0.018384861  0.017894112           43 
  405000   0.61705704   -7.2169712    89.084278  0.018330098  0.017834376           55 
  406000   0.62041183   -7.2294673    89.007585  0.018269209  0.017774685           55 
  407000   0.62761789    -7.213601    88.853246   0.01819272  0.017715145           40 
  408000   0.60593447   -7.2030573    89.068849  0.018192167  0.017655792           67 
  409000   0.61776342   -7.2080384    89.220616   0.01817861  0.017596576           55 
  410000   0.60323029   -7.2293831    89.072365  0.018104139  0.017537584          102 
  411000   0.61346191    -7.234303    88.926913  0.018030599  0.017478796           39 
  412000   0.59991285   -7.2234452       88.938  0.017989078  0.017420041           35 
  413000   0.61335514   -7.2598473    88.766027  0.017910821  0.017361518           71 
  414000   0.60974489   -7.2281936     89.02043  0.017918766  0.017302998          163 
  415000   0.59795934    -7.250229    88.844902  0.017840342  0.017244953           65 
  416000   0.61540471   -7.2240452    89.091333  0.017846822  0.017187137           63 
  417000     0.591853   -7.2442657    88.925331  0.017770849  0.017129731           43 
  418000   0.60848106   -7.2667176    88.951404  0.017733533  0.017072218           55 
  419000   0.61089133   -7.2733863    88.738419   0.01764885  0.017014961          141 
  420000   0.59936141   -7.2863282    88.774444  0.017613977  0.016957922          103 
  421000   0.59360877   -7.2802944    88.882325  0.017593493     0.016901          222 
  422000   0.58633824   -7.2569133    89.030643  0.017581091   0.01684435           66 
  423000   0.58487253   -7.2872146    88.860358  0.017505981  0.016787856           85 
  424000   0.58814399    -7.265441     88.89367   0.01747124  0.016731704           83 
  425000    0.5864022   -7.2780215    88.926969  0.017436661  0.016675764           60 
  426000   0.58749846   -7.2898501    88.941379  0.017398548  0.016619915           76 
  427000   0.59404998   -7.2721221    88.802038  0.017330609  0.016564154           90 
  428000   0.57503156   -7.3022008    88.844424  0.017298369  0.016508739          230 
  429000   0.59086544   -7.3034261    88.893729  0.017267624  0.016453566           68 
  430000   0.58946687   -7.3025521    89.062503  0.017260175  0.016398703           78 
  431000   0.57580129   -7.2955764    88.781209   0.01716574  0.016343872           52 
  432000   0.57454162   -7.2987173    88.820213  0.017133529  0.016289087          139 
  433000   0.57227623   -7.3415924    88.557342  0.017043368  0.016234368           72 
  434000   0.56714413   -7.3440604    88.518254  0.016996593  0.016179747          101 
  435000   0.56202609   -7.3429792    88.655145  0.016983744  0.016125369           92 
  436000   0.57617518   -7.3131708    88.648792  0.016943576  0.016071188          153 
  437000   0.57039677   -7.3345498    88.424406  0.016862015   0.01601723          131 
  438000   0.55880949   -7.3301812    88.842824  0.016903125  0.015963483          120 
  439000   0.55922063   -7.3703012    88.663385  0.016830559  0.015909976           92 
  440000    0.5541019   -7.3352408    88.720448  0.016803115  0.015856612          247 
  441000   0.55632119   -7.3350074    88.585769  0.016739563  0.015803441           66 
  442000   0.54954511   -7.3387166    88.491992  0.016684011    0.0157504           85 
  443000   0.55731916   -7.3380406    88.485359  0.016645101  0.015697578          214 
  444000   0.55157505   -7.3403817    88.421768  0.016595677  0.015644938          239 
  445000   0.56653599   -7.3585508    88.727515  0.016615639  0.015592599          136 
  446000   0.55791115   -7.3645531    88.576741  0.016550213  0.015540444          116 
  447000   0.55309132    -7.360151    88.515412  0.016501755  0.015488533          137 
  448000   0.55966413   -7.3682614    88.514957  0.016464836  0.015436697          181 
  449000   0.55456988   -7.3748195    88.537175  0.016432289  0.015385063          123 
  450000   0.54323677   -7.3594094      88.5786  0.016403444  0.015333685           67 
  451000    0.5444244   -7.3713709    88.337854  0.016322589  0.015282565           88 
  452000   0.54344922   -7.3627149    88.546816  0.016325003  0.015231542          107 
  453000   0.54553683   -7.3764235    88.543062  0.016288275  0.015180755          113 
  454000   0.53530437   -7.3899191    88.363304  0.016219402  0.015130017           82 
  455000   0.55485744   -7.3920845    88.466639  0.016202681  0.015079585           73 
  456000   0.54278122   -7.3821082    88.454768   0.01616498  0.015029339           82 
  457000   0.54875152   -7.3923375    88.522045  0.016141875  0.014979342           91 
  458000   0.52887097   -7.4125513    88.262009  0.016059317  0.014929528           73 
  459000   0.53375709   -7.3869712    88.539278  0.016074669   0.01487984          263 
  460000   0.55356403   -7.4069116    88.344855  0.016004503  0.014830377          141 
  461000   0.53122553   -7.4243497    88.236886  0.015950269   0.01478105          148 
  462000   0.53385707   -7.4190411    88.388503  0.015943092  0.014732047          432 
  463000   0.53760258   -7.4188323    88.309112  0.015894369  0.014683122           96 
  464000   0.52638593   -7.4281826    88.215465  0.015843295  0.014634295          108 
  465000   0.52710247    -7.422066    88.298333  0.015824074  0.014585778          218 
  466000   0.52189078    -7.405537    88.236343  0.015779031  0.014537295          322 
  467000   0.51858752     -7.41708    88.134584  0.015727085  0.014489082           73 
  468000   0.50986325   -7.4071735    88.236286  0.015711589  0.014440982          239 
  469000   0.51801035   -7.4282614    88.292769  0.015688125  0.014393113          240 
  470000   0.50989066   -7.4545793    88.157301  0.015630727  0.014345438          332 
  471000   0.51468302   -7.4343868    88.173925  0.015600482  0.014297926          214 
  472000   0.51163917   -7.4313828    88.314938  0.015592327  0.014250599          299 
  473000    0.5050888   -7.4397022    88.209026  0.015540702  0.014203457          231 
  474000   0.50720601   -7.4556689    88.269913   0.01551862  0.014156516          192 
  475000   0.52235011   -7.4366294    88.247837  0.015482077  0.014109767          182 
  476000   0.50427958   -7.4429252    88.174961  0.015436793  0.014063211          110 
  477000   0.50604739   -7.4425896    88.212034  0.015410907  0.014016839          211 
  478000   0.50106161   -7.4558534    88.258829  0.015386825  0.013970571          290 
  479000   0.50846972   -7.4614833    88.101869  0.015327395  0.013924487          161 
  480000   0.51358309   -7.4703963    88.167713  0.015306895  0.013878618          182 
  481000   0.49669769   -7.4811174    88.011893  0.015248076  0.013832917          169 
  482000    0.5045065   -7.4710289    88.098875  0.015231479  0.013787471          239 
  483000   0.50130318   -7.4666403    88.122582  0.015204034  0.013742177          173 
  484000   0.49883998   -7.4632055    88.154384  0.015178096  0.013697161          335 
  485000   0.50448072   -7.4579556    88.202703  0.015155104  0.013652241          254 
  486000     0.487588   -7.4696831    88.103882  0.015106976  0.013607544          150 
  487000   0.49036587   -7.4568302    88.158003  0.015085216  0.013562995          354 
  488000   0.49252941   -7.4874939    87.913865  0.015012614  0.013518599          152 
  489000   0.47870089   -7.4836139    87.881439  0.014976387   0.01347437          198 
  490000   0.48262716   -7.4629803    88.009128  0.014967539  0.013430251          233 
  491000   0.48873526   -7.4960415    87.916475   0.01492133  0.013386361          128 
  492000   0.48203209   -7.4811944    87.913124  0.014890434  0.013342483          321 
  493000   0.46963978   -7.4924491    87.942837  0.014865253  0.013298798          288 
  494000   0.48174831   -7.4905218    87.798267  0.014810774  0.013255319          112 
  495000   0.48558044   -7.4979414    87.849081  0.014789407  0.013212045          221 
  496000   0.47274985   -7.5221353    87.862478  0.014761841  0.013168831          124 
  497000    0.4683844   -7.4908939    87.843545  0.014728965  0.013125803          252 
  498000   0.46866274   -7.5040018    87.801445  0.014692343  0.013083011          147 
  499000   0.47245291     -7.50858    87.821258  0.014666209  0.013040401          135 
  500000    0.4786329    -7.507435    87.915005  0.014652501  0.012998018          107 
  501000   0.45804775   -7.5056142    87.807466  0.014605367  0.012955736          149 
  502000   0.46648988   -7.4997241    87.869135   0.01458651  0.012913655          165 
  503000    0.4664197   -7.5238604     87.96474   0.01457335  0.012871754          282 
  504000   0.45551542   -7.5247103     87.76927  0.014512115   0.01283006          212 
  505000   0.45449642   -7.5242744    87.914877  0.014507405  0.012788495          128 
  506000    0.4594935   -7.5247575    87.729519  0.014448208    0.0127471          172 
  507000   0.46209169   -7.5399341    87.893825  0.014446717  0.012705903          199 
  508000   0.45909746    -7.523443    87.717546  0.014389361  0.012664829          195 
  509000   0.46512543   -7.5351634      87.7458  0.014365717  0.012623927          243 
  510000   0.44778264   -7.5408412    87.762275  0.014340241  0.012583168          174 
  511000   0.44695021   -7.5524677    87.890097  0.014333023   0.01254258          109 
  512000   0.44899054   -7.5414988    87.665858  0.014268531   0.01250211          393 
Loop time of 1300.29 on 48 procs for 500000 steps with 4000 atoms

Performance: 66446.616 tau/day, 384.529 timesteps/s
99.4% CPU use with 48 MPI tasks x no OpenMP threads

MPI task timing breakdown:
Section |  min time  |  avg time  |  max time  |%varavg| %total
---------------------------------------------------------------
Pair    | 92.001     | 100.56     | 110.91     |  38.8 |  7.73
Neigh   | 9.0077     | 9.3797     | 9.7389     |   5.9 |  0.72
Comm    | 85.465     | 94.665     | 102.85     |  38.9 |  7.28
Output  | 0.93588    | 0.93669    | 0.96378    |   0.4 |  0.07
Modify  | 1078.3     | 1082       | 1085       |   4.4 | 83.21
Other   |            | 12.71      |            |       |  0.98

Nlocal:        83.3333 ave          91 max          77 min
Histogram: 3 0 11 5 7 10 7 3 1 1
Nghost:        2423.25 ave        2436 max        2410 min
Histogram: 2 5 4 4 5 11 7 6 1 3
Neighs:        16729.1 ave       19810 max       14026 min
Histogram: 2 2 6 9 9 6 7 4 2 1
FullNghs:      33458.2 ave       36672 max       30747 min
Histogram: 3 1 7 7 11 5 9 3 1 1

Total # of neighbors = 1605995
Ave neighs/atom = 401.49875
Neighbor list builds = 26723
Dangerous builds = 0

#clear
#
#next RN
#
#jump SELF
Total wall time: 0:21:43
