
units lj                  # Use reduced LJ style units
atom_style atomic         # Uncharged point particles
atom_modify map hash      # Needed for indexing of clusters etc
                          # Used to be able to find where atoms are in relation to each other.

lattice fcc 1.0 spacing 1 1 1
Lattice spacing in x,y,z = 1.5874011 1.5874011 1.5874011
region box block 0 10 0 10 0 10 units lattice
create_box 2 box
Created orthogonal box = (0.0000000 0.0000000 0.0000000) to (15.874011 15.874011 15.874011)
  3 by 4 by 4 MPI processor grid
create_atoms 1 box
Created 4000 atoms
  using lattice units in orthogonal box = (0.0000000 0.0000000 0.0000000) to (15.874011 15.874011 15.874011)
  create_atoms CPU = 0.002 seconds
set type 1 type/fraction 2 0.16 78393
Setting atom values ...
  677 settings made for type/fraction
mass 1 1.0
mass 2 1.0
pair_style lj/cut  3.5
pair_modify tail  yes
pair_coeff 1  1  1.0  1.0   # Intearaction between 1 and 1 set with epsilon = 1 and sigma = 1
pair_coeff 1  2  1.5  0.8
pair_coeff 2  2  0.5  0.88

write_data data.0
System init for write_data ...
Neighbor list info ...
  update every 1 steps, delay 10 steps, check yes
  max neighbors/atom: 2000, page size: 100000
  master list distance cutoff = 3.8
  ghost atom cutoff = 3.8
  binsize = 1.9, bins = 9 9 9
  1 neighbor lists, perpetual/occasional/extra = 1 0 0
  (1) pair lj/cut, perpetual
      attributes: half, newton on
      pair build: half/bin/atomonly/newton
      stencil: half/bin/3d
      bin: standard
WARNING: Not all mixed pair coeffs generated from mixing. Use write_data with 'pair ij' option to store all pair coeffs. (../write_data.cpp:312)


#############################
#   M E L T   S Y S T E M   #
#############################

velocity all create 2.4 6583654 mom yes dist gaussian # Assign velocities
                                                    # Temperature 2.4, random number seed, zero linear momentum
                                                                                # Gaussian distribution

timestep 0.002   # simulation timestep
thermo 1000       # output thermodynamic data every 1000 steps bf 100

# Define a fix  in this case with index 1 applied to all
# particles in the simulation. This fix is for simulations
# in the anisotropic NPT ensemble. Note that we use the MTK
# correction.
fix 1 all npt temp 2.4 2.4 0.1 iso 5.68 5.68 0.5 mtk yes tchain 5 pchain 5 # Use NPT ensemble
                                                                         # Set temperature and pressure and damping
                                                                         # Numbers of thermostats in chain and in barostat
run 10000          # run for 10000 steps
Per MPI rank memory allocation (min/avg/max) = 3.642 | 3.644 | 3.648 Mbytes
Step Temp E_pair E_mol TotEng Press Volume 
       0          2.4   -7.2871769            0   -3.6880769   -3.4159639         4000 
    1000    2.3627241   -4.7516706            0   -1.2084705    5.6125178    4614.1704 
    2000    2.3928012   -4.7194498            0   -1.1311452    6.1975202    4570.8086 
    3000    2.4585378   -4.7091666            0   -1.0222819    5.6812506    4636.7203 
    4000    2.3805778   -4.7001248            0   -1.1301509     5.755543    4618.2674 
    5000     2.371247   -4.7276437            0   -1.1716624    5.6558371     4628.236 
    6000    2.3739096   -4.7369691            0    -1.176995    5.6967562    4603.8733 
    7000    2.4142769     -4.78518            0     -1.16467    5.3874316    4627.1143 
    8000    2.4249232    -4.766271            0   -1.1297955     5.781648    4596.3913 
    9000    2.3811262   -4.8226751            0   -1.2518788    5.6628554    4578.4168 
   10000    2.4193202   -4.8084375            0   -1.1803645    5.8499991    4565.3171 
Loop time of 2.28306 on 48 procs for 10000 steps with 4000 atoms

Performance: 756877.827 tau/day, 4380.080 timesteps/s
99.6% CPU use with 48 MPI tasks x no OpenMP threads

MPI task timing breakdown:
Section |  min time  |  avg time  |  max time  |%varavg| %total
---------------------------------------------------------------
Pair    | 0.95916    | 1.0165     | 1.1805     |   4.1 | 44.52
Neigh   | 0.19413    | 0.20386    | 0.23096    |   1.3 |  8.93
Comm    | 0.61516    | 0.79371    | 0.87931    |   5.5 | 34.77
Output  | 0.00024922 | 0.00025348 | 0.00032245 |   0.0 |  0.01
Modify  | 0.20592    | 0.25378    | 0.29247    |   4.6 | 11.12
Other   |            | 0.01495    |            |       |  0.65

Nlocal:        83.3333 ave          91 max          75 min
Histogram: 1 5 2 7 7 7 8 6 2 3
Nghost:        1501.44 ave        1529 max        1479 min
Histogram: 2 3 6 9 9 8 4 3 2 2
Neighs:        8353.10 ave        9634 max        7384 min
Histogram: 4 2 6 4 15 8 3 5 0 1

Total # of neighbors = 400949
Ave neighs/atom = 100.23725
Neighbor list builds = 905
Dangerous builds = 180

# Equilibrate just above the melting temperature to avoid step fn in T

fix 1 all npt temp 1.25 1.25 0.1 iso 5.68 5.68 0.5 mtk yes tchain 5 pchain 5
run 2000
Per MPI rank memory allocation (min/avg/max) = 3.642 | 3.644 | 3.649 Mbytes
Step Temp E_pair E_mol TotEng Press Volume 
   10000    2.4193202   -4.8084375            0   -1.1803645    5.8499991    4565.3171 
   11000    1.2339784   -6.4378844            0   -4.5873796    5.5586619    3773.3279 
   12000     1.214033   -6.3939487            0   -4.5733545     5.928172    3765.9704 
Loop time of 0.500508 on 48 procs for 2000 steps with 4000 atoms

Performance: 690498.533 tau/day, 3995.941 timesteps/s
99.6% CPU use with 48 MPI tasks x no OpenMP threads

MPI task timing breakdown:
Section |  min time  |  avg time  |  max time  |%varavg| %total
---------------------------------------------------------------
Pair    | 0.22149    | 0.24154    | 0.27277    |   2.0 | 48.26
Neigh   | 0.033074   | 0.035033   | 0.038282   |   0.5 |  7.00
Comm    | 0.13914    | 0.17022    | 0.19601    |   2.7 | 34.01
Output  | 5.2042e-05 | 5.3634e-05 | 6.8923e-05 |   0.0 |  0.01
Modify  | 0.043069   | 0.049111   | 0.063472   |   2.2 |  9.81
Other   |            | 0.00455    |            |       |  0.91

Nlocal:        83.3333 ave          89 max          71 min
Histogram: 1 0 0 1 1 10 14 9 8 4
Nghost:        1705.15 ave        1722 max        1683 min
Histogram: 2 0 0 8 9 11 5 4 7 2
Neighs:        10133.1 ave       10891 max        8732 min
Histogram: 1 0 1 3 5 11 8 5 8 6

Total # of neighbors = 486387
Ave neighs/atom = 121.59675
Neighbor list builds = 144
Dangerous builds = 10

#############################
# L I N E A R  Q U E N C H  #
#############################

# Define solid atoms. This closely follows ten Wolde  Ruiz-Montero and Frenkel  Faraday Discuss  1996  104  93-110
# Compute components of the per-atom q6 vector
compute q6 all orientorder/atom degrees 1 6 components 6 nnn NULL cutoff 1.3 # compute the Q6 parameter.
                                                                             # Use all neighbours within 1.3 unit cell.

# get number of connections
compute coord_number all coord/atom orientorder q6 0.5

# An atom is solid if it has 8 or more connections (of a possible 14)
variable is_solid atom c_coord_number>=8
group solid dynamic all var is_solid    # Must be dynamic to update
dynamic group solid defined

# do clustering
compute cluster solid cluster/atom 1.3 # Create a cluster where all atoms within are solid and max 1.3 units from another member

# define chunks one chunk per cluster
compute clus_chunks solid chunk/atom c_cluster nchunk every compress yes  # Says which atoms are in which chunk

# count the size of each chunk
compute size_chunks solid property/chunk clus_chunks count


# Find the maximum entry in the vector of chunk sizes
variable max_n equal max(c_size_chunks)


# Thermo style which includes this variable
# thermo_style custom step temp pe vol v_max_n

thermo ${N}  # Print the thermo information every 100 steps
thermo 1000  

# Reset the npt fix at a lower temperature (below freezing)
fix 1  all npt temp  ${temp} ${temp}  0.1  iso  5.68  5.68  0.5  mtk yes tchain  5  pchain  5
fix 1  all npt temp  0.45 ${temp}  0.1  iso  5.68  5.68  0.5  mtk yes tchain  5  pchain  5
fix 1  all npt temp  0.45 0.45  0.1  iso  5.68  5.68  0.5  mtk yes tchain  5  pchain  5

dump dmp2 all dcd ${N} traj.dcd
dump dmp2 all dcd 1000 traj.dcd


compute msd all msd com yes
variable twopoint equal c_msd[4]/6/(step*dt+1.0e-6)
fix 9 all vector 10 c_msd[4]
variable fit equal slope(f_9)/6/(10*dt)
thermo_style custom step temp pe c_msd[4] v_twopoint v_fit v_max_n

fix 1 all npt temp 1.25 ${temp} 0.1 iso 5.68 5.68 0.5 mtk yes tchain 5 pchain 5
fix 1 all npt temp 1.25 0.45 0.1 iso 5.68 5.68 0.5 mtk yes tchain 5 pchain 5
run 500000 # 5000000  # Run for this many steps
Neighbor list info ...
  update every 1 steps, delay 10 steps, check yes
  max neighbors/atom: 2000, page size: 100000
  master list distance cutoff = 3.8
  ghost atom cutoff = 3.8
  binsize = 1.9, bins = 9 9 9
  4 neighbor lists, perpetual/occasional/extra = 1 3 0
  (1) pair lj/cut, perpetual
      attributes: half, newton on
      pair build: half/bin/atomonly/newton
      stencil: half/bin/3d
      bin: standard
  (2) compute orientorder/atom, occasional
      attributes: full, newton on
      pair build: full/bin/atomonly
      stencil: full/bin/3d
      bin: standard
  (3) compute coord/atom, occasional
      attributes: full, newton on
      pair build: full/bin/atomonly
      stencil: full/bin/3d
      bin: standard
  (4) compute cluster/atom, occasional
      attributes: full, newton on
      pair build: full/bin/atomonly
      stencil: full/bin/3d
      bin: standard
Per MPI rank memory allocation (min/avg/max) = 9.764 | 9.769 | 9.773 Mbytes
Step Temp PotEng c_msd[4] v_twopoint v_fit v_max_n 
   12000     1.214033   -6.3939487 3.4090624e-30 2.3674043e-32 8.3333333e+20            3 
   13000     1.243851   -6.4321693   0.57103465 0.0036604784   0.04805568            1 
   14000    1.2363502   -6.4672317    1.1236089 0.0066881478  0.045997963            2 
   15000    1.2678096   -6.4235496    1.7015466 0.0094530364  0.046819146            3 
   16000    1.2636842    -6.452313    2.2371005  0.011651565  0.046966676            2 
   17000    1.2643951   -6.4407913    2.7614988  0.013536758  0.046292878            1 
   18000    1.2142981    -6.458846    3.3002677  0.015279017  0.045913129            2 
   19000    1.2466645   -6.4426518    3.7746106  0.016555309  0.045104287            2 
   20000    1.2220981   -6.4503702    4.3095261  0.017956358  0.044757097            1 
   21000    1.2299591   -6.4359751    4.8943289  0.019421939  0.044607056            2 
   22000    1.2343395   -6.4537238     5.433477  0.020581352  0.044630183            3 
   23000    1.2538885   -6.4686195    5.9774584  0.021657458  0.044758644            3 
   24000    1.2080907    -6.455893    6.5658633  0.022798136  0.044970917            1 
   25000    1.2494956   -6.4451193    7.0686692   0.02356223   0.04506517            1 
   26000     1.242382   -6.4967483    7.5641815  0.024244171  0.045076735            1 
   27000    1.2072138    -6.425583    8.0675177  0.024899746  0.044909597            2 
   28000    1.2038134    -6.510652    8.6031011  0.025604467  0.044816197            1 
   29000    1.2101895   -6.4727885    9.1618903  0.026327271  0.044754607            1 
   30000    1.2295385   -6.4823788    9.7988938  0.027219149  0.044797435            3 
   31000    1.2150479   -6.4716073    10.236114  0.027516435   0.04481835            2 
   32000    1.2141793   -6.5088175    10.708475  0.027886653  0.044731074            1 
   33000    1.2271874   -6.5342649    11.105038  0.028043025  0.044561282            1 
   34000    1.2087662   -6.4686504    11.491665  0.028165846  0.044274411            1 
   35000    1.2148064   -6.5248563    12.054928  0.028702209  0.043996327            4 
   36000    1.2076979   -6.4746019    12.574917  0.029108604  0.043841952            5 
   37000    1.2281444   -6.4974274    13.082725  0.029465597  0.043681722            2 
   38000    1.2206985   -6.4972426    13.539606  0.029692119  0.043553071            2 
   39000    1.2120421   -6.4663756    13.964088  0.029837794  0.043378048            2 
   40000    1.2177882   -6.5139265    14.374458  0.029946787  0.043153493            2 
   41000      1.17357   -6.5286334    14.791625  0.030064277  0.042919049            3 
   42000    1.1859261   -6.5514126    15.212372  0.030183277  0.042685206            2 
   43000    1.2072168   -6.5274815    15.737266  0.030498577  0.042477013            3 
   44000    1.2263568    -6.542989    16.081113  0.030456652  0.042281828            3 
   45000    1.1856319   -6.5252724    16.547215   0.03064299  0.042090808            4 
   46000    1.2142619   -6.5529343    17.031814  0.030854736  0.041910306            2 
   47000    1.1920805    -6.538786    17.379571  0.030814842  0.041713343            1 
   48000     1.177982   -6.5204729    18.080614  0.031389955  0.041559716            1 
   49000    1.1979665   -6.5818754     18.38491  0.031266854   0.04142905            2 
   50000    1.1944838   -6.5355999    18.736911  0.031228184   0.04127179            7 
   51000    1.1847032   -6.5586088    19.082621  0.031180753  0.041070633            3 
   52000    1.1796188   -6.5155014    19.481263  0.031219973   0.04086108            3 
   53000    1.1828762   -6.5191567    20.183367  0.031734853  0.040712707            3 
   54000    1.1860395   -6.5614937    20.733507  0.031996153  0.040604378            1 
   55000     1.161972   -6.5630268    20.995565  0.031811461  0.040512012            2 
   56000    1.1991095   -6.5792312    21.506598  0.032003866  0.040383281            2 
   57000    1.1468258   -6.5841709    21.753764  0.031803749  0.040249469            3 
   58000     1.220146   -6.5084882     22.10971  0.031766825  0.040089726            2 
   59000    1.1599834   -6.5884833    22.575076    0.0318857  0.039941877            1 
   60000    1.1344085   -6.5969282    23.211399  0.032238054  0.039814619            1 
   61000    1.1430783   -6.6155673    23.617585  0.032264461  0.039718307            2 
   62000    1.1596795   -6.5771408    24.249758  0.032593761   0.03965292            4 
   63000    1.1866411   -6.5653235     24.72968  0.032711216  0.039599715            2 
   64000     1.186338    -6.610368    24.980219  0.032526326  0.039529032            2 
   65000    1.1505506   -6.5518452    25.475216  0.032660533  0.039455134            1 
   66000    1.1638988   -6.6149478    25.827633  0.032610648  0.039381522            1 
   67000    1.1818112   -6.5932259    26.342893  0.032764793  0.039318493            2 
   68000    1.1903046   -6.6168334    26.792842  0.032834365  0.039259324            3 
   69000    1.1674914    -6.624333    27.169079  0.032812898  0.039198007            2 
   70000    1.1718363   -6.5822677    27.737416  0.033020733  0.039133215            3 
   71000    1.1719458   -6.5616635    28.188874  0.033085533  0.039088152            3 
   72000    1.1343523   -6.6147933    28.591948  0.033092532   0.03904066            1 
   73000    1.1666454    -6.641046    29.041092  0.033151931  0.038986854            2 
   74000    1.1719199   -6.6130605    29.520613  0.033243933  0.038934732            5 
   75000    1.1429381   -6.6239685    29.952941  0.033281045  0.038892451            3 
   76000    1.1477899   -6.6056219    30.457943  0.033396867  0.038851428            3 
   77000    1.1306469   -6.5882527    31.098745   0.03365665  0.038825485            2 
   78000    1.1553299   -6.6505722    31.357136  0.033501214  0.038805717            3 
   79000    1.1534238   -6.6294206    31.689725  0.033427979   0.03876745            3 
   80000    1.1399773   -6.6537219     31.91261  0.033242302   0.03871081            2 
   81000    1.1359673   -6.6620718    32.328675  0.033259953  0.038645916            1 
   82000    1.1277712   -6.6073587    32.982049  0.033518343  0.038593856            4 
   83000    1.1141063   -6.6263325    33.335319  0.033469196  0.038547505            2 
   84000    1.1340282   -6.6278852    33.879124  0.033610242  0.038506201            3 
   85000    1.1417831    -6.643547    34.258601  0.033586863  0.038461095            6 
   86000    1.1385023   -6.6760702    34.632582  0.033558704  0.038412814            3 
   87000    1.1377352   -6.6748148    34.888694  0.033418289  0.038354274            4 
   88000    1.1287494   -6.6295237    35.712458  0.033818616  0.038310619            3 
   89000    1.1230284     -6.68894    35.938162  0.033649964  0.038263966            2 
   90000    1.1213064    -6.662761    36.045216    0.0333752  0.038210736            3 
   91000    1.1281886   -6.6431231    36.690549  0.033599404  0.038156121            3 
   92000    1.1456854   -6.6609098    36.969803   0.03348714  0.038099407            4 
   93000    1.1062396   -6.6824397    37.221536   0.03335263  0.038027874            3 
   94000    1.1204706   -6.6686547    37.567761  0.033304753  0.037957212            1 
   95000    1.1225084   -6.6621827    38.177859   0.03348935  0.037891647            2 
   96000    1.1222173   -6.6797759     38.28268  0.033231493  0.037823592            4 
   97000    1.1191917   -6.6374194    38.750768  0.033291038  0.037754798            2 
   98000     1.112344   -6.6714188    39.015828  0.033176725  0.037679236            3 
   99000    1.1287573   -6.6800183    39.324418  0.033101361  0.037598752            2 
  100000    1.1228854   -6.6737173     39.74423  0.033120191  0.037519726            2 
  101000    1.1044764   -6.7175721    40.257474  0.033215738  0.037441621            2 
  102000    1.1040282   -6.6847488    40.497331  0.033086055  0.037368696            1 
  103000    1.1243055   -6.6886398    40.884594  0.033078151  0.037288751            3 
  104000    1.1237828   -6.6804527    41.216436   0.03302599  0.037206577            1 
  105000     1.109258   -6.7191416    41.519882  0.032952287  0.037125253            3 
  106000     1.142969   -6.7458655     41.80137  0.032862712  0.037042755           11 
  107000    1.0922581   -6.7375633    42.180291  0.032850694  0.036956832            7 
  108000    1.0811961   -6.7178705    42.474307  0.032773385  0.036869761            1 
  109000    1.0781418   -6.7576935    42.692071  0.032639198  0.036783447            3 
  110000    1.1068717     -6.76403    43.136919  0.032679484  0.036697688            3 
  111000    1.0899219   -6.7427884    43.629023  0.032754522  0.036621285            3 
  112000    1.0740861   -6.7340475    44.088466  0.032803918  0.036551646            2 
  113000    1.0952703   -6.7615026    44.513409  0.032826997  0.036485418            2 
  114000     1.110166   -6.7364927    44.656249  0.032643457  0.036410714            2 
  115000    1.0664389    -6.734068    44.991468  0.032602513   0.03633346            5 
  116000    1.0896246   -6.7122583    45.532585  0.032710191  0.036256715            3 
  117000    1.0829987   -6.7356836    45.645982  0.032511383  0.036180176            2 
  118000    1.0756102   -6.7564681    46.073616  0.032537864  0.036100787            4 
  119000    1.0856176   -6.7482949    46.385862  0.032483096  0.036023481            2 
  120000    1.0617832   -6.7473776     46.79265  0.032494896  0.035947747            2 
  121000    1.0792169   -6.7748354    47.329306  0.032595941  0.035875908            5 
  122000    1.0745163   -6.7581845    47.572551  0.032494912  0.035805006            5 
  123000    1.0840656   -6.7285393    47.932044  0.032474284  0.035731107            5 
  124000      1.05721   -6.7802131    48.121169  0.032339495  0.035656077            3 
  125000     1.065468   -6.7746457    48.826447  0.032550964  0.035587079            5 
  126000    1.0527157   -6.7416745    49.118247  0.032485613  0.035524622            2 
  127000    1.0473395   -6.7640319    49.421963  0.032429109  0.035462674            3 
  128000    1.0695531   -6.7699218    49.492058  0.032221392  0.035395629            2 
  129000    1.0644653   -6.7895623    49.841581  0.032197404  0.035319677            4 
  130000    1.0856645   -6.7771553    50.355816  0.032279369  0.035247855            3 
  131000    1.0584145   -6.8513203    50.927683  0.032396745  0.035184768            2 
  132000    1.0370571   -6.7772706    51.054933   0.03223165  0.035123342            6 
  133000    1.0438741   -6.8060143    51.546241  0.032297143  0.035064237            3 
  134000    1.0686298    -6.769696    52.035751  0.032360541  0.035008092            2 
  135000    1.0526166   -6.8196518    52.195801   0.03221963  0.034954115            2 
  136000    1.0405749   -6.8117958      52.6608  0.032267647  0.034898007            2 
  137000    1.0477299   -6.8033098    53.025502  0.032253955  0.034840218            2 
  138000    1.0380039   -6.8437127    53.196031  0.032123207  0.034781733            2 
  139000    1.0724634   -6.8563774    53.369249  0.031995953  0.034720349            4 
  140000    1.0432655   -6.8261995    54.010112  0.032148876  0.034661791            4 
  141000    1.0744192   -6.8211407    54.277497  0.032078899  0.034602505            1 
  142000    1.0224864   -6.8075361    54.467991  0.031964783  0.034542836            7 
  143000     1.031343   -6.8172174    54.817497  0.031944928  0.034484701            3 
  144000    1.0258792   -6.8165028     55.28956  0.031996273  0.034427015            4 
  145000    1.0333319   -6.8344191    55.741749  0.032035488  0.034370518            2 
  146000    1.0451599   -6.8580857    56.051691  0.031992974  0.034317207            3 
  147000    1.0326352    -6.814111    56.186423  0.031851714  0.034261734            9 
  148000      1.03037   -6.8105686    56.235244  0.031663989  0.034199866            4 
  149000    1.0303183   -6.8662829    56.398076  0.031542548  0.034134175            3 
  150000    1.0210871   -6.8514709     57.03322  0.031685122  0.034070148            3 
  151000    1.0578382   -6.8774601    57.178518  0.031555473  0.034007795            2 
  152000    1.0380968   -6.8187906    57.678732  0.031622112  0.033945541            3 
  153000    1.0269929   -6.8486666    57.869279  0.031519215  0.033884216            4 
  154000    1.0208603   -6.8617959    58.106142  0.031442718   0.03382611            3 
  155000     1.029743   -6.8478159    58.639863  0.031526808   0.03376701            2 
  156000    1.0139255   -6.8415863    59.076269  0.031557836  0.033708706            3 
  157000    1.0322273   -6.8593452    59.264712  0.031456854  0.033650722            1 
  158000    1.0191162   -6.9023783    59.508155  0.031386158  0.033592262            6 
  159000    1.0089375   -6.9021138    59.841629  0.031363537  0.033532301            2 
  160000    1.0117374   -6.8699434    60.310507  0.031411722  0.033476996            2 
  161000    1.0002524   -6.8942099    60.629245  0.031381597  0.033423431            5 
  162000    1.0255966   -6.8735133    60.895395  0.031324792  0.033369475            4 
  163000    1.0111087   -6.8986383    60.950723  0.031160901   0.03331231            4 
  164000    1.0240336    -6.885577    61.348158  0.031172845  0.033254452            2 
  165000    1.0070362   -6.8873107    61.460336  0.031040573  0.033194214            4 
  166000   0.99605761   -6.8931015    61.515445  0.030881248  0.033130797            4 
  167000     1.005967   -6.8597428    61.854604  0.030865571  0.033065614            4 
  168000   0.98434011   -6.8891151     62.09445  0.030800818  0.032996412            3 
  169000    1.0095762   -6.9267641    62.065829  0.030604452  0.032925555            3 
  170000    1.0089765   -6.9496911    61.939709  0.030362602  0.032853783            3 
  171000    1.0120203   -6.9343019    62.396739  0.030407767  0.032779073            1 
  172000   0.98343101   -6.9158459    62.629734  0.030343863  0.032705722            2 
  173000   0.98046413   -6.9546118     62.95682  0.030326021  0.032633691            6 
  174000   0.98222329   -6.9223614    63.311195  0.030321453  0.032563984            2 
  175000   0.97313543   -6.9518615    63.580151  0.030276263  0.032493268            5 
  176000      1.00409   -6.8854671    63.932654  0.030271143  0.032421852            3 
  177000    1.0124485   -6.9350067    63.905886  0.030087517  0.032349638            4 
  178000   0.99211487    -6.925601     64.33036   0.03011721  0.032277377            3 
  179000   0.95793925   -6.9497819    64.440243  0.030000113  0.032205244            4 
  180000   0.97572003   -6.9282749    64.868379  0.030031657  0.032134505            4 
  181000   0.98972034   -6.9101311    65.118397  0.029980846  0.032064756            4 
  182000   0.96077211   -6.9793459    65.418846  0.029953684  0.031995705            3 
  183000   0.97029781    -6.967418    65.784161  0.029956357  0.031925883            2 
  184000   0.97326916   -6.9498754    65.736083  0.029771777  0.031855762            2 
  185000   0.95633216   -6.9528969     66.09218  0.029771252  0.031785384            5 
  186000   0.96147572   -6.9707734    66.126879  0.029626738  0.031712795            3 
  187000   0.98387508   -6.9809503     66.51027  0.029639158  0.031638895            5 
  188000    0.9637267   -6.9752521     66.30788  0.029391791  0.031563018            2 
  189000   0.95914848   -6.9817652    66.690707  0.029405074  0.031487781            3 
  190000   0.96336986   -6.9927426     66.92045  0.029351075   0.03141321            3 
  191000   0.97048912   -6.9136196    67.542475  0.029468794  0.031342098            2 
  192000   0.96538541   -6.9591954    67.902811  0.029471706  0.031274244            3 
  193000   0.97434823   -7.0092597    67.956886  0.029342351  0.031206212            5 
  194000   0.96691917    -7.042397    68.271926  0.029326429  0.031137963            4 
  195000   0.96034434   -6.9942582    68.577106  0.029306455  0.031070098            2 
  196000   0.95123506   -7.0278742    68.779698  0.029243069  0.031002615            3 
  197000   0.96526408    -6.987181    69.046402  0.029207446  0.030935679            6 
  198000   0.94952722   -7.0039483     69.14866  0.029102971   0.03086832            4 
  199000   0.93430117   -6.9790672    69.134072  0.028950616  0.030799638            5 
  200000   0.95007812   -6.9958711    69.653397  0.029022249  0.030732461            5 
  201000   0.95820532   -7.0040527    69.795262  0.028936676  0.030664125            9 
  202000    0.9470941   -6.9943264    69.737217  0.028769479   0.03059332            6 
  203000   0.95186398   -7.0261688    69.830037  0.028665861   0.03052084            7 
  204000   0.94209795   -7.0432702    70.069047  0.028622977  0.030447338           12 
  205000   0.94423341    -6.985914    70.162912  0.028521509  0.030373829            4 
  206000   0.94654355   -7.0316807    70.275905  0.028428764  0.030299909            3 
  207000   0.92386877   -7.0180105     70.69721  0.028461034  0.030226484            3 
  208000   0.95385122    -7.027989    70.756923  0.028348126  0.030151619            4 
  209000   0.91374448   -7.0880803    70.855801  0.028251914   0.03007583            4 
  210000     0.936237   -7.0365991    70.911964  0.028139668  0.029999948            3 
  211000   0.91239686   -7.0681361    71.025574  0.028051174  0.029924645            6 
  212000   0.94129464   -7.0668715    71.196691   0.02798612  0.029847654            6 
  213000   0.92489733   -7.0135404    71.580123  0.028004743  0.029772055            4 
  214000   0.93112122   -7.0684138    71.661906  0.027905727  0.029696496            2 
  215000   0.92800433   -7.0930728    71.793475  0.027826928  0.029618633            4 
  216000   0.91215422   -7.0400386    72.209246  0.027858505  0.029542311            4 
  217000   0.91479294   -7.0411121    72.176101  0.027717397  0.029466888            4 
  218000    0.9035744   -7.1038941    72.160715  0.027584371  0.029390072            7 
  219000   0.92478563   -7.0642516    72.289193  0.027507303  0.029312056            7 
  220000    0.9231152   -7.0643599    72.494459  0.027460022  0.029234022            2 
  221000   0.92067863   -7.1125279    72.548448  0.027356127  0.029155696            4 
  222000   0.90694441   -7.0778789    72.793191  0.027324771  0.029078113            3 
  223000   0.89672946   -7.1097358    72.846976  0.027222338  0.028999944            3 
  224000   0.92758189   -7.0955687    72.889227  0.027116528   0.02892087           11 
  225000   0.90016351   -7.0533962    73.290364  0.027144579  0.028843131            3 
  226000   0.92006981    -7.117815    73.377965  0.027056772   0.02876592            4 
  227000   0.91777965   -7.1093353    73.213017  0.026877025  0.028686933            3 
  228000   0.89758759   -7.0934194    73.286129  0.026785866  0.028607156            3 
  229000   0.88959965   -7.1211249    73.503156  0.026747873   0.02852583            5 
  230000    0.8904143   -7.1121762    73.506161  0.026632667  0.028443397            3 
  231000   0.88963556   -7.1305595    73.407524  0.026481791  0.028361086            2 
  232000    0.8877136   -7.0921456    73.435289  0.026377618  0.028276723            5 
  233000   0.88819862   -7.1268384    73.772252  0.026384925  0.028192471            4 
  234000   0.89213246   -7.1316574    73.705246  0.026248307  0.028108128            4 
  235000   0.90517828   -7.1262784    73.740411  0.026149082  0.028022372            3 
  236000   0.90297966   -7.1445985     73.63681  0.026001698   0.02793626            3 
  237000   0.88217907   -7.1664541    73.999335  0.026019457  0.027849538            5 
  238000   0.87206499   -7.1301954     73.99399   0.02590826  0.027762949           12 
  239000   0.89700823   -7.1853912    74.162653  0.025858665  0.027676595            8 
  240000    0.8993617   -7.1551409    74.149732  0.025746435  0.027590962            3 
  241000   0.87930517   -7.1639974    74.399525  0.025725977  0.027504737            4 
  242000   0.88223921   -7.1271317    74.251135  0.025568572  0.027417764            4 
  243000   0.86617866   -7.1497697    74.460197  0.025535047  0.027330829            2 
  244000   0.87709875   -7.1594967    74.654767  0.025496847  0.027242944            4 
  245000   0.88227688   -7.1638204    74.405004  0.025307824  0.027155954            5 
  246000   0.86226151   -7.1642499    74.572734  0.025261766  0.027068343            3 
  247000   0.86642524   -7.1845677    74.735959  0.025214561  0.026982119            5 
  248000   0.87005018   -7.1730492    74.791935  0.025131699  0.026895565            5 
  249000   0.86926702   -7.1776809    74.906734  0.025069188  0.026809276            6 
  250000     0.867283   -7.1739388    75.292024  0.025097341  0.026724234            5 
  251000   0.88592199   -7.1979337    75.307941  0.025002636  0.026639394            3 
  252000   0.86700437   -7.1988229    75.569375  0.024989873  0.026555887            5 
  253000   0.87944506   -7.1798048    75.634092  0.024912415  0.026472615            3 
  254000   0.87450815   -7.2067897    75.978193  0.024927229  0.026390453            3 
  255000   0.88400094   -7.1911941      76.2277  0.024911013  0.026309522            5 
  256000   0.84554128   -7.1716617    76.053815  0.024757101  0.026228902            7 
  257000    0.8635458   -7.1999464    76.275316  0.024732593   0.02614846            6 
  258000   0.85724947   -7.1973824    76.406265  0.024679026  0.026068262            4 
  259000   0.86628941   -7.1968564    76.535964  0.024625471  0.025989478            6 
  260000   0.85801259   -7.2077801     76.39807  0.024486561  0.025910501            3 
  261000   0.85580934   -7.2210806    76.653991  0.024474454  0.025830244            4 
  262000   0.83848639   -7.2462486     76.79061  0.024424494  0.025750279            3 
  263000   0.86053026   -7.2376276    76.718586  0.024308804  0.025670304            2 
  264000   0.85155357   -7.2069264    77.079768  0.024330735  0.025590624            4 
  265000   0.84144918   -7.2506771    76.987334  0.024209853  0.025512007            4 
  266000   0.84394051   -7.2177666    77.260794  0.024204509  0.025433348            5 
  267000   0.84045778   -7.2526528     77.40865  0.024160003  0.025354638            5 
  268000   0.84039269   -7.2387477    77.534811  0.024109083  0.025277178            4 
  269000   0.82950027   -7.2520735    77.713121  0.024074697   0.02520007            6 
  270000   0.83199931   -7.2621825     77.56035  0.023938379  0.025123787           11 
  271000   0.84075645   -7.2627149    77.530965   0.02384101  0.025046685            6 
  272000   0.82824466   -7.2612462    77.836399  0.023846936  0.024970214            5 
  273000   0.82485575    -7.267001    78.001022  0.023809836  0.024894625            3 
  274000     0.824475   -7.2723698    77.970955  0.023713794  0.024818985            4 
  275000     0.835021   -7.2508532    78.031789  0.023645997  0.024743452            4 
  276000   0.83658689   -7.2909448    78.362318   0.02366012  0.024667787            5 
  277000   0.81345769   -7.2642073    78.430668  0.023595267  0.024593422            8 
  278000   0.81486339     -7.23074    78.565415  0.023550784  0.024519269            3 
  279000   0.81575666   -7.2518868    78.427312  0.023425123  0.024444363            4 
  280000    0.8195604   -7.2819941    78.515343  0.023367661  0.024369653            4 
  281000   0.82529386   -7.3139087    78.517691  0.023285199  0.024294591            7 
  282000   0.81188234   -7.2967103    78.724217  0.023263657   0.02421941            5 
  283000   0.80157736   -7.2711652    78.854016  0.023219675  0.024145047            4 
  284000   0.82545896   -7.2950474    78.896982  0.023150523  0.024071438            2 
  285000   0.81631795   -7.3007542    79.029531   0.02310805  0.023998139            4 
  286000   0.78929466   -7.3291686    78.958924  0.023006679  0.023924724            5 
  287000   0.79943192   -7.3031097    79.158131  0.022984359  0.023851415            3 
  288000   0.80844974   -7.3289446    79.052469  0.022873978  0.023778522            5 
  289000   0.80414255   -7.3068782     79.35371  0.022881693  0.023706053            3 
  290000   0.81157921   -7.3227034    79.260804  0.022776093  0.023633521           12 
  291000    0.7953643   -7.3340883    79.375203  0.022730585  0.023561348           10 
  292000   0.80338572   -7.3131081    79.747692  0.022759044  0.023489817            5 
  293000   0.80945163   -7.3323523    79.827372  0.022704031  0.023418614            5 
  294000   0.78886458   -7.3445773    79.794435   0.02261747  0.023347662            4 
  295000   0.80039502   -7.3549452    79.672607  0.022506386  0.023276815            9 
  296000   0.80969548   -7.3391279    79.696431  0.022437058  0.023206029            4 
  297000   0.79853313   -7.3593035    79.934455  0.022428298  0.023135326            7 
  298000   0.78619088   -7.3412926    79.882196  0.022338422  0.023064425            4 
  299000   0.79584406   -7.3594067     79.77861  0.022234841  0.022993705           10 
  300000   0.78974437   -7.3687335    79.925274  0.022201465  0.022922616           10 
  301000    0.7864804   -7.3628358     79.84414  0.022105244  0.022851724            8 
  302000   0.79168947   -7.3474336    80.055249  0.022090301  0.022780881            5 
  303000   0.79328396   -7.3748152    80.160269  0.022046279  0.022711036            9 
  304000   0.77318767   -7.3687944    80.413402  0.022043148  0.022642016            6 
  305000   0.77909435   -7.3414829    80.725743  0.022056214  0.022573417            5 
  306000   0.78061125   -7.3637047    80.415386  0.021899615  0.022504668            4 
  307000   0.78453246    -7.379752     80.43142  0.021832633  0.022435377            5 
  308000   0.78451455   -7.3885472    80.343538   0.02173797  0.022366192            5 
  309000   0.77767562   -7.4062391    80.747669   0.02177661  0.022297026            3 
  310000   0.78946563   -7.3873379    80.664858  0.021684102  0.022228352            3 
  311000   0.76656633   -7.3915547    80.763051  0.021640689  0.022160137            3 
  312000   0.78539429   -7.3973345    80.942344  0.021619216  0.022092342            3 
  313000   0.77066791   -7.4145623    80.850904    0.0215258  0.022024423            7 
  314000   0.76615456   -7.4010632     80.99043  0.021494275  0.021956763            8 
  315000   0.76322118   -7.4329191    80.998572  0.021428194  0.021889563            5 
  316000   0.77794754   -7.4274176    81.292145  0.021437802  0.021822791            3 
  317000   0.77103709   -7.4069797    81.129243  0.021327351  0.021756305           11 
  318000   0.78961336   -7.4136759    81.085626  0.021248854  0.021690001           11 
  319000    0.7511225   -7.4208392    81.259895  0.021227768  0.021624009            9 
  320000   0.77823633   -7.4292753    81.221372  0.021151399  0.021557924            6 
  321000   0.75986806   -7.4257254    81.184331  0.021075891  0.021492084            3 
  322000   0.75156539    -7.421283    81.477405  0.021086285  0.021426423            5 
  323000   0.73639197   -7.4344421    81.596357  0.021051692  0.021360859            6 
  324000   0.76151779   -7.4170569    81.521985  0.020967589  0.021295557            8 
  325000   0.74842791   -7.4654882    81.636445  0.020932422  0.021230246           13 
  326000   0.74528009   -7.4215901      81.7553  0.020898594   0.02116573           11 
  327000    0.7466776   -7.4459692    81.593542  0.020793461  0.021101595            6 
  328000   0.74421841   -7.4693289     81.73304  0.020765508  0.021037519            9 
  329000    0.7297106   -7.4589937    81.901294  0.020745009  0.020973666            4 
  330000   0.73358704   -7.4394746    81.807863  0.020658551  0.020910092            6 
  331000   0.74188261   -7.4537465    81.987826  0.020641447  0.020846441            6 
  332000   0.74515248   -7.4731402    81.958628  0.020571945  0.020783155            6 
  333000   0.71696562   -7.4602447    82.055371  0.020534377  0.020720264            6 
  334000   0.74469608   -7.4787021    81.960858  0.020449316  0.020657351            7 
  335000   0.73956881   -7.4866603    81.881128   0.02036844  0.020594545            8 
  336000   0.74326652   -7.4714049     82.25102  0.020399559  0.020531895            4 
  337000   0.73313509   -7.4794142    82.054714  0.020290483  0.020469374            4 
  338000   0.72389577   -7.4922242    82.092023  0.020239651  0.020407021            6 
  339000   0.72635837   -7.4971396    82.389618  0.020253102  0.020345177            4 
  340000   0.72220754   -7.5020938    82.430651  0.020203591  0.020283754            4 
  341000   0.72395336   -7.4794592    82.333528  0.020120608  0.020222675            6 
  342000    0.7220093   -7.5014916    82.335119  0.020062163  0.020161767            4 
  343000   0.72081107   -7.5068936    82.447037  0.020030864  0.020100753            7 
  344000    0.7261823   -7.5044985    82.668857   0.02002637  0.020039852            8 
  345000   0.70640516   -7.5294897    82.447913  0.019914955   0.01997905            7 
  346000   0.70463493   -7.5355488    82.430312  0.019853158   0.01991809            7 
  347000    0.7126339   -7.5414722     82.51516  0.019816321  0.019857494            4 
  348000   0.71048638   -7.5469666    82.619347  0.019784326  0.019797046            5 
  349000   0.71076094   -7.5209788    82.645428  0.019733865  0.019736925            5 
  350000   0.70422857     -7.56675    82.572165  0.019660039  0.019676559            9 
  351000   0.71512029   -7.5589606    82.521166   0.01959192  0.019616464           21 
  352000   0.69909665    -7.524085    82.916682  0.019629896  0.019556856            9 
  353000   0.69816124   -7.5288894    82.831726  0.019554232  0.019497827            8 
  354000   0.70732884   -7.5417066    83.032905  0.019546352  0.019439163           14 
  355000    0.6989674   -7.5595258    82.849406  0.019448217  0.019381239            7 
  356000   0.69922662   -7.5376502    83.070524  0.019445347  0.019322897           14 
  357000   0.69577714   -7.5648177     83.07122  0.019391041  0.019264796            7 
  358000   0.68284291   -7.5569871    83.212552  0.019369775  0.019207188           13 
  359000    0.6805245   -7.5761767    83.201791  0.019313322  0.019149937           10 
  360000   0.69201276   -7.5532504    83.218108  0.019263451  0.019092579            5 
  361000   0.69525295    -7.561106    83.289598  0.019226592  0.019035501            7 
  362000   0.67367726   -7.5910425    83.297287   0.01917525  0.018978547            4 
  363000   0.68421692   -7.5763206    83.366327  0.019138275  0.018921904            7 
  364000   0.69051076   -7.5713689    83.422645  0.019098591  0.018865271           12 
  365000   0.68927897   -7.5916633    83.299579  0.019018169  0.018808723           10 
  366000   0.68155811   -7.5850199    83.339721  0.018975346  0.018752079            8 
  367000   0.67502948   -7.6146334    83.246918   0.01890257   0.01869534            5 
  368000   0.67303508    -7.579658    83.322092  0.018868227   0.01863918            4 
  369000   0.67569982   -7.6064439    83.304384  0.018813095  0.018582986            8 
  370000   0.66285844   -7.5880255    83.369282  0.018776865  0.018527127            9 
  371000   0.67453569   -7.5901565    83.360638  0.018724312  0.018471137            5 
  372000    0.6763688   -7.5928818    83.498545  0.018704871  0.018415641            5 
  373000   0.66226332   -7.6385694    83.363213  0.018624489  0.018360088            8 
  374000   0.66888063   -7.6337098    83.377995  0.018577985  0.018304611            4 
  375000   0.67425006   -7.6193056     83.35439  0.018523198  0.018249232            6 
  376000   0.66588142   -7.5972791    83.393477  0.018482597  0.018193765            4 
  377000   0.66990976   -7.6180411    83.395551   0.01843403  0.018138417            7 
  378000    0.6725346   -7.6277663    83.313542  0.018367183  0.018083175            7 
  379000   0.65926674   -7.6512102    83.502095  0.018360179  0.018028025            5 
  380000   0.67420786   -7.6387453    83.485812  0.018308292  0.017973093            7 
  381000   0.64850747   -7.6382341    83.504533  0.018264334  0.017918049            6 
  382000   0.65421002   -7.6360025    83.524515   0.01822088   0.01786335           15 
  383000   0.65033757    -7.627148    83.386837   0.01814335  0.017808846            5 
  384000   0.65922027   -7.6493144    83.476659  0.018115594  0.017754556            8 
  385000    0.6427525   -7.6602935    83.656701  0.018107511  0.017700465            6 
  386000   0.66299968   -7.6544188    83.582905  0.018044669  0.017646669            5 
  387000   0.63726013   -7.6863105    83.658048  0.018014222  0.017592951            9 
  388000   0.64522949   -7.6669434    83.526003  0.017939434  0.017539451            3 
  389000   0.64601999   -7.6694189    83.812467  0.017954684   0.01748592            3 
  390000   0.65151175   -7.6811089    83.777004  0.017901069  0.017432507            3 
  391000   0.63806807   -7.6681268    83.427985    0.0177809  0.017379235            6 
  392000    0.6445758   -7.6913276    83.579259    0.0177677  0.017325845            7 
  393000   0.63990883   -7.6952889    83.574454   0.01772147  0.017272579            6 
  394000   0.64116116   -7.6612431    83.535594  0.017668273  0.017219552            3 
  395000   0.64691726   -7.6843997    83.745325   0.01766779  0.017166791            5 
  396000   0.64019717   -7.6845925    83.671165  0.017607568   0.01711407            7 
  397000   0.61247487   -7.6943134    83.586988  0.017545547  0.017061511            9 
  398000   0.64694983   -7.7104107    83.619138  0.017508195  0.017008948           13 
  399000   0.65888266   -7.6982672    83.592479  0.017458747  0.016956594            7 
  400000   0.64060194   -7.6952932    83.351457  0.017364887  0.016904193           11 
  401000    0.6304633   -7.7251434    83.454788  0.017343056  0.016851895           10 
  402000   0.62479899   -7.7240934    83.434711  0.017295753  0.016799716            6 
  403000   0.62002954   -7.7205605      83.4649  0.017259078   0.01674762           11 
  404000   0.61128069   -7.7055134    83.550117  0.017233935  0.016695774            7 
  405000   0.61464829    -7.750114    83.621521  0.017206074  0.016644107            7 
  406000   0.62520236   -7.7254992    83.636798   0.01716683  0.016592449            6 
  407000   0.62092868    -7.731275    83.604772  0.017118094  0.016541268            8 
  408000    0.6080564   -7.7280132    83.494283  0.017053571  0.016489886           10 
  409000   0.60520086   -7.7207794    83.465253   0.01700596  0.016438663           17 
  410000   0.60861004   -7.7425318    83.509605  0.016973497   0.01638782            8 
  411000   0.62561535   -7.7472724    83.651687  0.016961007  0.016337254           12 
  412000   0.60988257   -7.7264261     83.60008  0.016909401   0.01628675            9 
  413000   0.60967119   -7.7403831    83.677601    0.0168841  0.016236541           12 
  414000   0.59033767   -7.7524204    83.717879  0.016851425  0.016186467           21 
  415000   0.61019122   -7.7737786    83.470231  0.016761091  0.016136393            7 
  416000   0.60381956   -7.7784446    83.675117  0.016761842   0.01608645           16 
  417000   0.59235433   -7.7690057    83.553542  0.016697351  0.016036471            6 
  418000   0.58521414   -7.7700046    83.575921  0.016661866   0.01598679           11 
  419000   0.60459439    -7.775524    83.563867  0.016619703  0.015937298           11 
  420000   0.58998135   -7.7578581    83.531099  0.016573631  0.015887935           10 
  421000   0.59667706   -7.7747494    83.445162  0.016517253   0.01583866            9 
  422000   0.58387767   -7.7877741    83.555405  0.016499883  0.015789605           20 
  423000   0.59198261   -7.7658455    83.551011   0.01646001  0.015740817           10 
  424000   0.58114781    -7.783087    83.477126  0.016406668  0.015692228           10 
  425000   0.59259534   -7.8010874    83.639635  0.016399928  0.015643566           12 
  426000   0.59610875   -7.7950513    83.617288  0.016357059  0.015595158           21 
  427000   0.59719496   -7.7569567    83.560853  0.016307739  0.015546905           17 
  428000     0.588992   -7.7773457    83.523911  0.016262444  0.015498707            8 
  429000   0.57831915    -7.791569    83.545194   0.01622867  0.015450603           20 
  430000   0.57977331   -7.7986257    83.445389  0.016171587  0.015402705           12 
  431000   0.57179871   -7.7803278    83.609174  0.016165733  0.015354854            9 
  432000     0.594318   -7.8057902    83.425902  0.016092959  0.015307099            7 
  433000   0.58300504   -7.8097346    83.283626  0.016028412  0.015259505            7 
  434000   0.56906291   -7.8057459    83.272345  0.015989314  0.015211832            5 
  435000   0.58560269   -7.8057804    83.393971  0.015975856   0.01516441            8 
  436000   0.57570861   -7.8168658    83.525958  0.015964442   0.01511728            6 
  437000   0.57842839   -7.8233586    83.448166  0.015913075  0.015070357            5 
  438000   0.57551867   -7.8307235    83.416118  0.015870646  0.015023409            5 
  439000   0.56877853   -7.8247997    83.402194  0.015831851  0.014976534            6 
  440000   0.55519215   -7.8371851    83.331307  0.015782444  0.014929932            6 
  441000   0.56865077   -7.8214779    83.487019  0.015776081  0.014883504            9 
  442000   0.55794614   -7.8544244    83.260341  0.015697651  0.014837323            9 
  443000   0.57098577   -7.8341001    83.449724  0.015697841  0.014791198            5 
  444000   0.56064935   -7.8318913    83.345183  0.015642865  0.014745276            8 
  445000   0.54821004   -7.8398502    83.372813  0.015612886   0.01469956            7 
  446000   0.56210052   -7.8549535    83.213243  0.015548065  0.014653805           10 
  447000    0.5665274   -7.8487689    83.228258  0.015516081   0.01460832           10 
  448000   0.56033983   -7.8677144    83.279336  0.015490948  0.014562901            7 
  449000   0.55388597   -7.8586426    83.382035  0.015475508  0.014517576            7 
  450000   0.55319834   -7.8368935    83.318221    0.0154293  0.014472426            8 
  451000    0.5432712   -7.8708676    83.408066   0.01541169  0.014427403            8 
  452000   0.54361588   -7.8633458    83.280113  0.015354003    0.0143826           12 
  453000   0.54220564   -7.8823169    83.407284  0.015343503  0.014337946            8 
  454000    0.5381526   -7.8633155    83.318554   0.01529342  0.014293413            9 
  455000   0.53570329   -7.8627946    83.288394  0.015254285  0.014249056            9 
  456000   0.55937349   -7.8780964    83.423131  0.015245455  0.014204843           11 
  457000   0.53799015    -7.887927    83.302705  0.015190136  0.014160786            9 
  458000   0.53478955   -7.8921721    83.438441  0.015181667  0.014116936           12 
  459000   0.54249327   -7.8674468    83.297291  0.015122965  0.014073201           11 
  460000   0.52427753   -7.8800615    83.281001  0.015087138  0.014029526            9 
  461000   0.53665138   -7.8974512    83.343428  0.015065696   0.01398601           22 
  462000   0.53204018    -7.897708    83.400735  0.015043423  0.013942668            8 
  463000   0.52803843   -7.8912675    83.333002   0.01499874  0.013899491            8 
  464000   0.52974384   -7.9184906    83.183892  0.014939636  0.013856311            7 
  465000   0.53084759   -7.8971781    82.980968  0.014871141  0.013813332           14 
  466000   0.51326675   -7.9094952    83.232046  0.014884128  0.013770582            8 
  467000    0.5321767   -7.9144858    83.235533  0.014852879   0.01372792            7 
  468000   0.51924747   -7.8967052    83.180383  0.014811322  0.013685455           11 
  469000   0.52422837   -7.9151236    83.183234  0.014780248  0.013643114           11 
  470000   0.50479231   -7.9125719     83.13255  0.014739814  0.013600886           18 
  471000    0.5178411   -7.9217866    83.071291  0.014697681  0.013558825            7 
  472000   0.52135258   -7.9268062    83.246477  0.014697471  0.013516984            7 
  473000   0.50837115   -7.9286646    83.182037  0.014655045  0.013475282            8 
  474000    0.5110789   -7.9283576    83.234842  0.014633411  0.013433607           10 
  475000   0.50321943   -7.9219151    83.184226  0.014593724  0.013392014            9 
  476000   0.50573856   -7.9400544    83.359558   0.01459376   0.01335068           11 
  477000   0.50783863   -7.9461552    83.153176   0.01452711  0.013309455            9 
  478000   0.50698229   -7.9291776    83.139311  0.014494301  0.013268401           10 
  479000   0.48870038   -7.9250284    83.261078  0.014485226  0.013227449            7 
  480000   0.48943175   -7.9599671    83.097404  0.014426633  0.013186706           11 
  481000   0.49222825   -7.9405377    83.131968  0.014402628  0.013146011            8 
  482000   0.50023119   -7.9535804    83.148076  0.014375532  0.013105534            8 
  483000   0.50261803   -7.9535411    83.147369  0.014345647  0.013065064            8 
  484000   0.49304363   -7.9492977    83.088125  0.014305807   0.01302486            7 
  485000   0.49945611   -7.9616409    83.194751  0.014294631   0.01298479           10 
  486000   0.48205104   -7.9551522    82.978178  0.014228083  0.012944872           12 
  487000   0.49237416   -7.9576677    83.006398  0.014203696  0.012905107            9 
  488000   0.49053393   -7.9622588    83.100674  0.014190689  0.012865414           11 
  489000   0.48665416   -7.9839284    83.104116  0.014162256  0.012825839           12 
  490000   0.49418619   -7.9693907    83.052338  0.014124547  0.012786449            4 
  491000   0.48702216   -7.9774023    82.990044  0.014085208  0.012747078           10 
  492000   0.47270409   -7.9729679    82.957202  0.014051017  0.012707895            8 
  493000   0.48617643   -7.9944432    83.000108  0.014029768  0.012668871           15 
  494000   0.47823577   -7.9838144    83.081726  0.014015136  0.012629931           16 
  495000   0.47853262   -7.9842661     83.07923  0.013986402  0.012591153           14 
  496000    0.4702898   -7.9858051    82.981263  0.013941744  0.012552503            7 
  497000    0.4773426   -8.0040166    82.939398  0.013906673  0.012513975           12 
  498000   0.46906384   -7.9898348    82.949927   0.01388051  0.012475487           10 
  499000   0.46459825    -7.993264     82.98085  0.013857857  0.012437199            8 
  500000   0.46753549   -8.0014088    82.780387  0.013796731  0.012399112            7 
  501000   0.47416135   -8.0072551    82.768046   0.01376714  0.012361179           24 
  502000    0.4623164   -7.9919369    82.903481  0.013762198  0.012323374           10 
  503000   0.48276192   -8.0110237    82.922559  0.013737999  0.012285715           10 
  504000   0.47051588   -8.0000415    82.724369  0.013677971  0.012248193           10 
  505000   0.45758442   -7.9989951    82.961279   0.01368998  0.012210803           11 
  506000   0.45514313   -8.0109442    82.781342  0.013633291  0.012173598           14 
  507000   0.46678171   -8.0111915     82.96059  0.013635863  0.012136487            8 
  508000   0.45801045   -8.0114043    82.758445   0.01357586  0.012099577            9 
  509000   0.45683474   -8.0239035    82.896427  0.013571779   0.01206277           13 
  510000   0.45707288   -8.0130527    82.755301  0.013522108  0.012026081            8 
  511000    0.4511392   -8.0266952    82.854932  0.013511894  0.011989577           14 
  512000    0.4572479   -8.0229857    82.805381  0.013477438  0.011953163           13 
Loop time of 1122.37 on 48 procs for 500000 steps with 4000 atoms

Performance: 76979.947 tau/day, 445.486 timesteps/s
99.4% CPU use with 48 MPI tasks x no OpenMP threads

MPI task timing breakdown:
Section |  min time  |  avg time  |  max time  |%varavg| %total
---------------------------------------------------------------
Pair    | 70.225     | 74.364     | 79.53      |  23.8 |  6.63
Neigh   | 7.0612     | 7.3899     | 7.7987     |   5.9 |  0.66
Comm    | 63.417     | 69.969     | 74.785     |  31.9 |  6.23
Output  | 0.80442    | 0.8049     | 0.81495    |   0.2 |  0.07
Modify  | 954.27     | 958.44     | 963.44     |   6.2 | 85.39
Other   |            | 11.4       |            |       |  1.02

Nlocal:        83.3333 ave          90 max          76 min
Histogram: 2 0 8 4 3 15 1 11 2 2
Nghost:        1878.35 ave        1902 max        1856 min
Histogram: 3 3 8 5 4 6 10 4 3 2
Neighs:        11766.5 ave       13114 max       10200 min
Histogram: 1 2 3 9 10 5 5 4 6 3
FullNghs:      23532.5 ave       25756 max       20922 min
Histogram: 1 1 3 7 9 11 4 7 3 2

Total # of neighbors = 1129561
Ave neighs/atom = 282.39025
Neighbor list builds = 26917
Dangerous builds = 0

#clear
#
#next RN
#
#jump SELF
Total wall time: 0:18:45
