
units lj                  # Use reduced LJ style units
atom_style atomic         # Uncharged point particles
atom_modify map hash      # Needed for indexing of clusters etc
                          # Used to be able to find where atoms are in relation to each other.

lattice fcc 1.0 spacing 1 1 1
Lattice spacing in x,y,z = 1.5874011 1.5874011 1.5874011
region box block 0 10 0 10 0 10 units lattice
create_box 2 box
Created orthogonal box = (0.0000000 0.0000000 0.0000000) to (15.874011 15.874011 15.874011)
  3 by 4 by 4 MPI processor grid
create_atoms 1 box
Created 4000 atoms
  using lattice units in orthogonal box = (0.0000000 0.0000000 0.0000000) to (15.874011 15.874011 15.874011)
  create_atoms CPU = 0.003 seconds
set type 1 type/fraction 2 0.1 78393
Setting atom values ...
  435 settings made for type/fraction
mass 1 1.0
mass 2 1.0
pair_style lj/cut  3.5
pair_modify tail  yes
pair_coeff 1  1  1.0  1.0   # Intearaction between 1 and 1 set with epsilon = 1 and sigma = 1
pair_coeff 1  2  1.5  0.8
pair_coeff 2  2  0.5  0.88

write_data data.0
System init for write_data ...
Neighbor list info ...
  update every 1 steps, delay 10 steps, check yes
  max neighbors/atom: 2000, page size: 100000
  master list distance cutoff = 3.8
  ghost atom cutoff = 3.8
  binsize = 1.9, bins = 9 9 9
  1 neighbor lists, perpetual/occasional/extra = 1 0 0
  (1) pair lj/cut, perpetual
      attributes: half, newton on
      pair build: half/bin/atomonly/newton
      stencil: half/bin/3d
      bin: standard
WARNING: Not all mixed pair coeffs generated from mixing. Use write_data with 'pair ij' option to store all pair coeffs. (../write_data.cpp:312)


#############################
#   M E L T   S Y S T E M   #
#############################

velocity all create 2.4 6583654 mom yes dist gaussian # Assign velocities
                                                    # Temperature 2.4, random number seed, zero linear momentum
                                                                                # Gaussian distribution

timestep 0.002   # simulation timestep
thermo 1000       # output thermodynamic data every 1000 steps bf 100

# Define a fix  in this case with index 1 applied to all
# particles in the simulation. This fix is for simulations
# in the anisotropic NPT ensemble. Note that we use the MTK
# correction.
fix 1 all npt temp 2.4 2.4 0.1 iso 5.68 5.68 0.5 mtk yes tchain 5 pchain 5 # Use NPT ensemble
                                                                         # Set temperature and pressure and damping
                                                                         # Numbers of thermostats in chain and in barostat
run 10000          # run for 10000 steps
Per MPI rank memory allocation (min/avg/max) = 3.642 | 3.644 | 3.648 Mbytes
Step Temp E_pair E_mol TotEng Press Volume 
       0          2.4   -7.6732445            0   -4.0741445   -3.0506691         4000 
    1000     2.359519   -4.6294458            0   -1.0910522    5.8263983    4801.3271 
    2000    2.3930762   -4.6157411            0   -1.0270241    5.5340423    4845.0367 
    3000    2.4338904   -4.6071985            0  -0.95727552    5.8213906    4817.4469 
    4000    2.4498428   -4.5797648            0   -0.9059193    5.6640109    4859.0721 
    5000    2.3643276   -4.5831459            0    -1.037541    5.6192882    4849.7892 
    6000    2.3645199   -4.6080055            0   -1.0621124    5.6655168    4824.2254 
    7000    2.3436064   -4.6329671            0   -1.1184363    5.5577798    4824.4174 
    8000    2.3667375   -4.6040627            0    -1.054844    5.6596767    4839.3681 
    9000    2.3931468   -4.6051656            0   -1.0163428    5.6399388    4840.9253 
   10000    2.4142595   -4.6140577            0  -0.99357374    5.8008316    4830.5553 
Loop time of 2.17836 on 48 procs for 10000 steps with 4000 atoms

Performance: 793257.691 tau/day, 4590.612 timesteps/s
99.6% CPU use with 48 MPI tasks x no OpenMP threads

MPI task timing breakdown:
Section |  min time  |  avg time  |  max time  |%varavg| %total
---------------------------------------------------------------
Pair    | 0.90052    | 0.96689    | 1.1517     |   3.9 | 44.39
Neigh   | 0.18768    | 0.19874    | 0.22928    |   1.4 |  9.12
Comm    | 0.55763    | 0.76382    | 0.83825    |   5.6 | 35.06
Output  | 0.00024401 | 0.00025033 | 0.00031582 |   0.0 |  0.01
Modify  | 0.2042     | 0.23425    | 0.27176    |   3.9 | 10.75
Other   |            | 0.01441    |            |       |  0.66

Nlocal:        83.3333 ave          93 max          75 min
Histogram: 2 2 8 7 4 14 6 2 1 2
Nghost:        1447.42 ave        1471 max        1428 min
Histogram: 3 4 4 9 6 9 8 4 0 1
Neighs:        7886.00 ave        8869 max        6856 min
Histogram: 1 3 5 5 12 6 7 3 4 2

Total # of neighbors = 378528
Ave neighs/atom = 94.632000
Neighbor list builds = 906
Dangerous builds = 206

# Equilibrate just above the melting temperature to avoid step fn in T

fix 1 all npt temp 1.25 1.25 0.1 iso 5.68 5.68 0.5 mtk yes tchain 5 pchain 5
run 2000
Per MPI rank memory allocation (min/avg/max) = 3.642 | 3.644 | 3.648 Mbytes
Step Temp E_pair E_mol TotEng Press Volume 
   10000    2.4142595   -4.6140577            0  -0.99357374    5.8008316    4830.5553 
   11000    1.2648478   -6.1831624            0    -4.286365    5.7359186    3982.9616 
   12000    1.2391806    -6.185502            0   -4.3271958     5.768787     3979.777 
Loop time of 0.489505 on 48 procs for 2000 steps with 4000 atoms

Performance: 706019.236 tau/day, 4085.759 timesteps/s
99.6% CPU use with 48 MPI tasks x no OpenMP threads

MPI task timing breakdown:
Section |  min time  |  avg time  |  max time  |%varavg| %total
---------------------------------------------------------------
Pair    | 0.21029    | 0.22765    | 0.27646    |   2.2 | 46.51
Neigh   | 0.032661   | 0.033875   | 0.039059   |   0.6 |  6.92
Comm    | 0.1272     | 0.16983    | 0.19579    |   3.3 | 34.70
Output  | 5.0461e-05 | 5.2475e-05 | 6.6126e-05 |   0.0 |  0.01
Modify  | 0.038913   | 0.053589   | 0.068933   |   4.1 | 10.95
Other   |            | 0.004502   |            |       |  0.92

Nlocal:        83.3333 ave          93 max          74 min
Histogram: 1 1 2 6 14 16 3 4 0 1
Nghost:        1645.48 ave        1676 max        1623 min
Histogram: 3 4 7 7 10 8 6 2 0 1
Neighs:        9581.69 ave       10953 max        8216 min
Histogram: 1 2 1 8 14 10 7 2 2 1

Total # of neighbors = 459921
Ave neighs/atom = 114.98025
Neighbor list builds = 144
Dangerous builds = 10

#############################
# L I N E A R  Q U E N C H  #
#############################

# Define solid atoms. This closely follows ten Wolde  Ruiz-Montero and Frenkel  Faraday Discuss  1996  104  93-110
# Compute components of the per-atom q6 vector
compute q6 all orientorder/atom degrees 1 6 components 6 nnn NULL cutoff 1.3 # compute the Q6 parameter.
                                                                             # Use all neighbours within 1.3 unit cell.

# get number of connections
compute coord_number all coord/atom orientorder q6 0.5

# An atom is solid if it has 8 or more connections (of a possible 14)
variable is_solid atom c_coord_number>=8
group solid dynamic all var is_solid    # Must be dynamic to update
dynamic group solid defined

# do clustering
compute cluster solid cluster/atom 1.3 # Create a cluster where all atoms within are solid and max 1.3 units from another member

# define chunks one chunk per cluster
compute clus_chunks solid chunk/atom c_cluster nchunk every compress yes  # Says which atoms are in which chunk

# count the size of each chunk
compute size_chunks solid property/chunk clus_chunks count


# Find the maximum entry in the vector of chunk sizes
variable max_n equal max(c_size_chunks)


# Thermo style which includes this variable
# thermo_style custom step temp pe vol v_max_n

thermo ${N}  # Print the thermo information every 100 steps
thermo 1000  

# Reset the npt fix at a lower temperature (below freezing)
fix 1  all npt temp  ${temp} ${temp}  0.1  iso  5.68  5.68  0.5  mtk yes tchain  5  pchain  5
fix 1  all npt temp  0.45 ${temp}  0.1  iso  5.68  5.68  0.5  mtk yes tchain  5  pchain  5
fix 1  all npt temp  0.45 0.45  0.1  iso  5.68  5.68  0.5  mtk yes tchain  5  pchain  5

dump dmp2 all dcd ${N} traj.dcd
dump dmp2 all dcd 1000 traj.dcd


compute msd all msd com yes
variable twopoint equal c_msd[4]/6/(step*dt+1.0e-6)
fix 9 all vector 10 c_msd[4]
variable fit equal slope(f_9)/6/(10*dt)
thermo_style custom step temp pe c_msd[4] v_twopoint v_fit v_max_n

fix 1 all npt temp 1.25 ${temp} 0.1 iso 5.68 5.68 0.5 mtk yes tchain 5 pchain 5
fix 1 all npt temp 1.25 0.45 0.1 iso 5.68 5.68 0.5 mtk yes tchain 5 pchain 5
run 500000 # 5000000  # Run for this many steps
Neighbor list info ...
  update every 1 steps, delay 10 steps, check yes
  max neighbors/atom: 2000, page size: 100000
  master list distance cutoff = 3.8
  ghost atom cutoff = 3.8
  binsize = 1.9, bins = 9 9 9
  4 neighbor lists, perpetual/occasional/extra = 1 3 0
  (1) pair lj/cut, perpetual
      attributes: half, newton on
      pair build: half/bin/atomonly/newton
      stencil: half/bin/3d
      bin: standard
  (2) compute orientorder/atom, occasional
      attributes: full, newton on
      pair build: full/bin/atomonly
      stencil: full/bin/3d
      bin: standard
  (3) compute coord/atom, occasional
      attributes: full, newton on
      pair build: full/bin/atomonly
      stencil: full/bin/3d
      bin: standard
  (4) compute cluster/atom, occasional
      attributes: full, newton on
      pair build: full/bin/atomonly
      stencil: full/bin/3d
      bin: standard
Per MPI rank memory allocation (min/avg/max) = 9.751 | 9.755 | 9.760 Mbytes
Step Temp PotEng c_msd[4] v_twopoint v_fit v_max_n 
   12000    1.2391806    -6.185502            0            0 8.3333333e+20            2 
   13000    1.2806854   -6.2434316   0.53772473 0.0034469532  0.043997269            3 
   14000    1.2296802   -6.2218197    1.0797395 0.0064270205  0.044652735            2 
   15000    1.2251891    -6.251416    1.5942467 0.0088569257  0.043988013            5 
   16000    1.2558585   -6.2484928    2.1189293   0.01103609  0.043707334            2 
   17000    1.2319766   -6.2345495    2.7204918  0.013335744  0.044217725            2 
   18000    1.2235032   -6.2346157    3.2611582  0.015097954  0.044792958            1 
   19000    1.2414833   -6.2516482       3.7666  0.016520175  0.045003571            2 
   20000    1.2205325   -6.2263656    4.3017834  0.017924097  0.044915294            3 
   21000    1.2478624   -6.2346301    4.9987487  0.019836304   0.04520761            2 
   22000     1.221301   -6.2701119    5.6487065  0.021396615  0.046047846            6 
   23000    1.2167798   -6.2511036    6.2821614  0.022761454  0.046870246            3 
   24000    1.2298825   -6.2464274    6.9188608  0.024023822  0.047545117            2 
   25000    1.2437513   -6.2222928    7.3973889  0.024657963  0.047864743            2 
   26000    1.2482084    -6.264243    7.8686648  0.025220079    0.0477801            3 
   27000    1.1890146     -6.28795    8.3800964  0.025864495   0.04757575            2 
   28000    1.2090152   -6.2747739    8.8664956  0.026388379  0.047457443            8 
   29000    1.2160258   -6.2555923    9.3468635  0.026858803  0.047175651           11 
   30000    1.2154123   -6.2329332    9.8326081    0.0273128  0.046849996            2 
   31000    1.2417939   -6.2429758    10.382173  0.027909067  0.046555597            2 
   32000    1.2074677   -6.2554076    10.837489  0.028222628  0.046313456            4 
   33000    1.2261633   -6.2871601      11.3149  0.028572981  0.046018421            2 
   34000    1.2000227    -6.281867    11.855124  0.029056676  0.045755464            3 
   35000    1.2196049   -6.2615314    12.381851  0.029480597  0.045495664            5 
   36000    1.1955679   -6.2660569     12.88307   0.02982192  0.045265004            3 
   37000    1.1999856   -6.2853626    13.416454  0.030217239  0.045074005            3 
   38000    1.2301003   -6.3353305    13.857073  0.030388317  0.044889586            1 
   39000    1.2131428   -6.3109218    14.330629  0.030621002  0.044699823            2 
   40000    1.1934984   -6.3029011    15.012824  0.031276717  0.044544745            5 
   41000    1.2339014   -6.3119783    15.499115  0.031502265  0.044440844            3 
   42000    1.2008709   -6.2972498    15.918614  0.031584552  0.044340095            3 
   43000    1.1737205   -6.3230918    16.337164   0.03166117  0.044189868            2 
   44000    1.1960407   -6.3262652    16.905543  0.032018073  0.044064884            2 
   45000    1.1998574   -6.3380991    17.509718  0.032425403  0.043998227            4 
   46000    1.2043422   -6.3293393    17.978151  0.032569114  0.043928181            2 
   47000    1.1911521    -6.313023    18.405932  0.032634631  0.043842426            2 
   48000    1.1890092   -6.3247629    18.648964  0.032376674  0.043699585            8 
   49000    1.1911727   -6.3050994    18.993916  0.032302578  0.043502582            4 
   50000    1.1893524   -6.3517295    19.357723  0.032262872  0.043269832            2 
   51000    1.2011075   -6.2925181    19.880757  0.032484897  0.043052634            3 
   52000    1.1804864   -6.3031622    20.448042  0.032769297  0.042859485            4 
   53000    1.1648034    -6.329672    20.861808  0.032801585  0.042679477            3 
   54000    1.1843711   -6.3164954    21.331742  0.032919354  0.042520982            5 
   55000    1.1857763   -6.3134879    21.964275  0.033279204  0.042389771            3 
   56000    1.1575165    -6.307267    22.430753  0.033379097  0.042288601            2 
   57000    1.1907119   -6.3553991    22.948184  0.033549977  0.042209652            3 
   58000     1.181728   -6.3392593    23.322376  0.033509161  0.042130674            2 
   59000    1.1638396   -6.3608991    23.871415  0.033716688  0.042047901            4 
   60000    1.1855191   -6.3563704    24.271916  0.033710994  0.041959519            2 
   61000    1.1653551   -6.3347784    24.765825  0.033833095  0.041866642            1 
   62000    1.1775941   -6.3796085    25.177524  0.033840758  0.041782266            3 
   63000    1.1648994   -6.3320607    25.704606  0.034000802   0.04170029            2 
   64000    1.1554862    -6.344599    26.040063  0.033906332  0.041618142            3 
   65000    1.1905501   -6.3610911    26.500707  0.033975265  0.041515012            3 
   66000    1.1928564   -6.3930173    26.951663  0.034029878  0.041422016            2 
   67000     1.159289   -6.3773064    27.417468  0.034101328  0.041327906            2 
   68000    1.1485288   -6.3811527    27.696368  0.033941627  0.041225204            3 
   69000    1.1621069   -6.4027513    28.194724  0.034051599  0.041133287            2 
   70000    1.1488303   -6.3677847    28.663534  0.034123254  0.041041524            3 
   71000    1.1611734   -6.3827197    29.273071  0.034358064  0.040960362            2 
   72000    1.1435948   -6.4061415    29.810708  0.034503134  0.040899052            7 
   73000    1.1560378   -6.3491878    30.340872  0.034635698  0.040837163            1 
   74000    1.1730611   -6.4014209    30.727899   0.03460349  0.040779575            6 
   75000     1.162768   -6.3947186    30.979927  0.034422141  0.040713271            3 
   76000    1.1292806   -6.4143119    31.174197  0.034182233  0.040628288            6 
   77000    1.1571937   -6.3943667    31.610411  0.034210401  0.040521212            2 
   78000    1.1423034   -6.3787501    32.140601  0.034338249   0.04042483            3 
   79000    1.1896618   -6.4232892    32.564013  0.034350224  0.040340427            5 
   80000    1.1472292    -6.422275    32.929997   0.03430208  0.040256255            6 
   81000    1.1468203   -6.4227024     33.16172  0.034116995  0.040162642            2 
   82000    1.1511314   -6.3938885    33.570931  0.034116799  0.040058709            2 
   83000    1.1286012   -6.4250953    34.002976  0.034139534  0.039953146            3 
   84000    1.1368986   -6.4535389    34.414543  0.034141412  0.039852871            3 
   85000    1.1201755   -6.4438966    34.868703  0.034185003   0.03975491            6 
   86000    1.1185135   -6.4450949    35.415117  0.034316974  0.039670202            3 
   87000    1.1052529    -6.420039    35.859598  0.034348273  0.039591614            2 
   88000    1.1352375   -6.4601325    36.356132  0.034428155  0.039515487            5 
   89000    1.1583894   -6.4360758    36.755884  0.034415622  0.039444507            3 
   90000    1.1088686   -6.4422403    36.937232   0.03420114  0.039361119            4 
   91000    1.1169005   -6.4485354    37.239646  0.034102239  0.039263272            6 
   92000    1.1298466   -6.4590168    37.484974   0.03395378  0.039159804            3 
   93000    1.1062956   -6.4726348    37.908205  0.033967925  0.039055186            3 
   94000    1.1159587   -6.4309181    38.289266  0.033944384  0.038950806            3 
   95000    1.1069612   -6.4506983    38.571432  0.033834589  0.038848489            3 
   96000    1.1232531   -6.4811827      38.9518  0.033812326  0.038742413            9 
   97000     1.105452   -6.4513559    39.210344  0.033685863  0.038632634            8 
   98000    1.1155792   -6.4486399    39.643886  0.033710787  0.038530638            4 
   99000    1.0918395   -6.4711287    40.197255  0.033836073   0.03843252            2 
  100000    1.1024064   -6.4648708    40.655227  0.033879355  0.038342535            4 
  101000    1.1110913   -6.4585449    41.074832  0.033890125  0.038252436            4 
  102000    1.1415911   -6.5007101    41.177254  0.033641547  0.038157769            3 
  103000    1.0945762   -6.4529397    41.811575  0.033828135  0.038066016            3 
  104000    1.1299961   -6.4828964    42.112864  0.033744282  0.037980303            2 
  105000    1.1277264   -6.5060239    42.662213  0.033858899  0.037904384            2 
  106000     1.095488   -6.5070808    42.850804  0.033687739  0.037824192            3 
  107000    1.0815647   -6.5065143    43.106365  0.033571936  0.037740115            3 
  108000    1.0959136   -6.4750389    43.567814   0.03361714  0.037650573            5 
  109000    1.0995264   -6.5217021    43.842961  0.033519083  0.037565312            3 
  110000    1.0733076   -6.5085196    44.305001  0.033564394  0.037484777            1 
  111000    1.0820658   -6.5109751    44.807755  0.033639456  0.037404875            3 
  112000     1.075183   -6.4811466    45.264721  0.033679108  0.037330979            4 
  113000    1.0828973   -6.5522387    45.485246  0.033543692  0.037253699            4 
  114000    1.1032777   -6.4893025    46.027252  0.033645652  0.037182229            3 
  115000    1.0661065   -6.4896627    46.522485  0.033711946  0.037113484            3 
  116000    1.0974596   -6.5507224    46.711698  0.033557254  0.037043465            3 
  117000    1.1004614   -6.5381601    47.166447  0.033594335  0.036972062            8 
  118000    1.0796343   -6.5293391    47.255554  0.033372566  0.036897611            3 
  119000    1.0939221   -6.5286073    47.992083  0.033607901  0.036828997            3 
  120000    1.0755072   -6.5572623    48.348125  0.033575086  0.036765414            3 
  121000    1.0680573   -6.5377156    48.684731  0.033529429  0.036701912            4 
  122000    1.0971383   -6.5558345    48.934486  0.033425195  0.036640192            5 
  123000     1.062624   -6.5111524    49.294577   0.03339741  0.036576325            3 
  124000    1.0790786   -6.5419204    49.682156  0.033388545  0.036510385            3 
  125000    1.0834017   -6.5115038    50.020626  0.033347084   0.03644728            4 
  126000    1.0703443   -6.5324753    50.313125  0.033275876  0.036378517            3 
  127000     1.056815   -6.5189837    50.834193   0.03335577   0.03631214            9 
  128000     1.071647   -6.5398652    51.086974  0.033259748  0.036250695            5 
  129000    1.0727921   -6.5358464    51.647622  0.033364097  0.036188503            4 
  130000    1.0482197   -6.5790086    51.854145  0.033239836   0.03612733            4 
  131000     1.061875   -6.5990432    51.963606  0.033055729  0.036061618            3 
  132000    1.0506982   -6.5548149    52.401507   0.03308176  0.035994984            3 
  133000    1.0753551   -6.5722802    52.565326  0.032935668  0.035921636            5 
  134000    1.0546901   -6.5641116    52.829566  0.032854207  0.035848105            5 
  135000    1.0615307   -6.6085388    52.984121  0.032706247  0.035775968            3 
  136000    1.0429383   -6.5983936    53.439545  0.032744819  0.035701309            2 
  137000    1.0531629   -6.5834891    53.775992  0.032710457  0.035624606            2 
  138000    1.0709117   -6.5825444    53.891897  0.032543416  0.035542176            4 
  139000    1.0160581   -6.5943587    54.224213  0.032508521  0.035459143            5 
  140000    1.0461099   -6.6324759    54.329198  0.032338808  0.035375504            3 
  141000    1.0382344   -6.5695136    54.812395  0.032395032  0.035291635            8 
  142000     1.036925    -6.589512    55.113144  0.032343394  0.035210798            3 
  143000    1.0751527     -6.60031    55.305529  0.032229329  0.035127305            3 
  144000    1.0258561   -6.5818575    55.486726  0.032110373  0.035039078            5 
  145000    1.0531382   -6.5873984    55.749046  0.032039682  0.034953646            3 
  146000     1.033608   -6.6167279    55.988626  0.031956978  0.034865782            5 
  147000    1.0055903   -6.5886096    56.434031  0.031992081  0.034779675            3 
  148000    1.0302438   -6.6255999     56.41743  0.031766571  0.034693636            3 
  149000    1.0263013   -6.5941908    56.886872  0.031815924  0.034605839            3 
  150000    1.0332962   -6.5891912    57.153256  0.031751809  0.034517697            3 
  151000     1.026601   -6.6075348    57.591181  0.031783212  0.034435176            5 
  152000    1.0546961   -6.6433988    57.708034  0.031638177  0.034352411            4 
  153000    1.0177841   -6.6201284    58.100488  0.031645146  0.034268911            5 
  154000    1.0329822   -6.6520822    58.394765  0.031598899  0.034186223            3 
  155000    1.0346903   -6.5948238    58.464681  0.031432624  0.034104135            3 
  156000    1.0074377    -6.681157    58.618141  0.031313109  0.034018902            2 
  157000    1.0273082   -6.6507128    59.010898  0.031322132  0.033932571            3 
  158000    1.0091545    -6.650875    58.961045  0.031097597  0.033843659            4 
  159000     1.008157   -6.6216475    59.391384   0.03112756  0.033753537            4 
  160000    1.0065163   -6.6433246    59.505399  0.030992395  0.033662611            3 
  161000    1.0242048   -6.6617472    59.893601  0.031000828  0.033571684            3 
  162000   0.97502807    -6.677811    60.062685  0.030896443  0.033482365            4 
  163000    1.0080912   -6.6849065    60.244071  0.030799627  0.033393923            3 
  164000    1.0179297    -6.656439    60.470513  0.030726886  0.033302937            3 
  165000   0.99247646   -6.6603262    60.794861  0.030704475  0.033211384            4 
  166000    1.0095923   -6.6906503    61.053996  0.030649596  0.033121249            6 
  167000   0.99750342   -6.6791811     61.28969  0.030583678   0.03303212            4 
  168000   0.99731323   -6.6597469    61.565697   0.03053854  0.032945202            3 
  169000   0.98366044   -6.7050522    61.962896  0.030553696  0.032860961            6 
  170000   0.99153351   -6.6930093    62.049182  0.030416266  0.032774155            8 
  171000   0.99323323    -6.711898    62.097746  0.030262059  0.032687034            6 
  172000    1.0036097   -6.7087027    62.756372  0.030405219  0.032600295            4 
  173000   0.99402496   -6.7048154    62.833968  0.030266844  0.032517661            5 
  174000   0.98229619   -6.7218547    62.928237  0.030138044  0.032430923            3 
  175000   0.99140693   -6.7097106    63.277936  0.030132351  0.032346972            6 
  176000   0.97884111   -6.7157384    63.259506  0.029952418  0.032260375            8 
  177000   0.98388771   -6.7236628    63.609419  0.029947937  0.032172851            3 
  178000   0.99026754   -6.7084201    63.895386   0.02991357  0.032086358            6 
  179000   0.94888235   -6.7125437    64.300324  0.029934974  0.032004712            4 
  180000   0.97183747   -6.7230264    64.587492  0.029901617  0.031921765            5 
  181000   0.97052602   -6.7171894    64.938832  0.029898173  0.031840431            4 
  182000    0.9712012   -6.7304511    65.089035  0.029802672  0.031759741            4 
  183000   0.96969376   -6.7153587    65.072108  0.029632107  0.031677965            3 
  184000   0.97006618   -6.7184079    65.440328  0.029637829  0.031597361            6 
  185000   0.98900928   -6.7290813    65.618656  0.029557953  0.031516261            2 
  186000   0.97971941   -6.7331241    66.223944  0.029670226  0.031435969            1 
  187000   0.98360515   -6.7237414    66.271204  0.029532622  0.031357366            6 
  188000   0.95734229   -6.7673074    66.282958  0.029380744  0.031278398            4 
  189000   0.98089142   -6.7159617    66.649206  0.029386775  0.031198795            3 
  190000   0.95529642   -6.7701576    66.982989  0.029378504  0.031119056            3 
  191000    0.9978466   -6.7407895    67.253687  0.029342795  0.031041271            5 
  192000   0.95810003   -6.7686378    67.285419  0.029203741  0.030964779            3 
  193000   0.95033402   -6.7727994    67.558556  0.029170361   0.03088779            6 
  194000    0.9708493   -6.7202202    67.691993  0.029077316  0.030809769            2 
  195000    0.9319519   -6.7612529    68.035606  0.029075045   0.03073122            4 
  196000   0.95879592   -6.7457444    68.137415  0.028969989  0.030652853            4 
  197000   0.96760156   -6.7296015    68.551769   0.02899821  0.030576885            3 
  198000    0.9592169   -6.7797738    68.791646  0.028952713  0.030501145            3 
  199000   0.95034545   -6.7782622    68.874503  0.028841919  0.030424853            4 
  200000   0.92756701   -6.7843895    68.798396  0.028665998  0.030347762            5 
  201000   0.92616805   -6.7467355    69.203749  0.028691438  0.030270791            5 
  202000   0.93996737   -6.7957363    69.370162  0.028618054  0.030192737            5 
  203000   0.93572402   -6.7839046    69.777977   0.02864449  0.030116194            4 
  204000   0.95629934   -6.7836344    69.740866  0.028488916  0.030041987            3 
  205000   0.95481409   -6.7894505     70.23328  0.028550114   0.02996866            4 
  206000   0.92567602   -6.7981407     70.37091  0.028467197  0.029894913            3 
  207000   0.95454353   -6.8235778    70.293244  0.028298408   0.02982117            6 
  208000   0.94178222   -6.8086902     70.59634   0.02828379  0.029745968            5 
  209000   0.94022308   -6.8136658    70.535131  0.028124055  0.029669929            6 
  210000   0.94928751   -6.7670537    70.989933  0.028170608  0.029593677            5 
  211000   0.92102702    -6.778043    70.993217  0.028038395  0.029516941            8 
  212000   0.92548915   -6.8166644    71.039599  0.027924371  0.029439634            3 
  213000   0.91254187   -6.8370456    71.200754   0.02785632  0.029362152            4 
  214000   0.94287541    -6.819333    71.287622  0.027759977  0.029284365            4 
  215000   0.90931921   -6.8286686    71.589333  0.027747804  0.029206428            5 
  216000   0.92603944   -6.8309471    71.499317  0.027584613    0.0291271            4 
  217000   0.93021807   -6.8671954     71.61123  0.027500472  0.029046525            5 
  218000   0.92276068    -6.853037    71.814966  0.027452204  0.028965825            5 
  219000    0.9348577   -6.8297952    72.128067  0.027445992  0.028885264           11 
  220000   0.91531762   -6.8490688    72.295835  0.027384786  0.028805901            7 
  221000   0.92796338    -6.856105    72.497951  0.027337086  0.028726827            7 
  222000   0.91866225   -6.8833003    72.518323  0.027221593  0.028647895            5 
  223000    0.9084954   -6.8438859    72.446603  0.027072721   0.02856896            8 
  224000   0.89120482   -6.8381474     72.92619  0.027130279  0.028489338            5 
  225000   0.90607817   -6.8690026    73.036164  0.027050431  0.028409419            8 
  226000   0.92890558    -6.877903    72.993589   0.02691504  0.028330428            4 
  227000    0.9276466   -6.8612011    73.051321  0.026817666  0.028249889            6 
  228000   0.88546333   -6.8655724    73.367982  0.026815783  0.028169151            8 
  229000   0.91289363   -6.8670965    73.457466  0.026731247  0.028089122            9 
  230000   0.90252627   -6.8984492    73.488607  0.026626307  0.028008618            8 
  231000   0.88276419   -6.8692417    73.648066  0.026568566  0.027929078            5 
  232000   0.89206146   -6.8828712    73.727729  0.026482661  0.027849519            5 
  233000   0.87421006    -6.874576    73.953001  0.026449571  0.027769152            6 
  234000   0.89767589   -6.9009304     73.81313  0.026286727  0.027687779            4 
  235000   0.90977307    -6.883285    73.863922   0.02619288  0.027606685            9 
  236000   0.89751243   -6.8819277    74.052925  0.026148632  0.027525728            4 
  237000   0.89916577    -6.887002    74.129469  0.026065214   0.02744525            2 
  238000   0.89020996   -6.8968273    74.549722  0.026102844  0.027365342            6 
  239000   0.87170427   -6.8971522    74.736064    0.0260586  0.027286378            5 
  240000   0.87618509   -6.8959969    74.810965  0.025976029  0.027207439            8 
  241000   0.88423878    -6.900718    74.790251  0.025861082   0.02712794            5 
  242000   0.88362783   -6.8715728    74.884206  0.025786572  0.027048086            6 
  243000   0.88535285   -6.9161717    74.998174  0.025719538  0.026968488            7 
  244000   0.85933037   -6.9241875    75.335687  0.025729401  0.026889564            5 
  245000   0.86974018   -6.9212732    75.445578  0.025661761  0.026810864            3 
  246000   0.88916722   -6.9230192    75.354416  0.025526564  0.026732754            7 
  247000   0.87662309   -6.9308022    75.729272  0.025549687  0.026654493            9 
  248000   0.86431585   -6.9123513     75.76598  0.025458998  0.026577576            7 
  249000   0.88258073   -6.9612538    75.768232  0.025357507  0.026500308           22 
  250000     0.876691   -6.9317012    76.107825  0.025369275  0.026424103           13 
  251000   0.84787508   -6.9671818    75.931083  0.025209523  0.026346654           16 
  252000   0.88113436   -6.9817759    76.094656  0.025163577   0.02626865            6 
  253000   0.83445712   -6.9601545    76.398697  0.025164261  0.026192089            7 
  254000   0.86844922   -6.9485077    76.867039  0.025218845  0.026117036            6 
  255000   0.84991466   -6.9375686    76.708942  0.025068282  0.026041769           14 
  256000   0.86046203     -6.97382    76.721306  0.024974383  0.025966779            8 
  257000   0.86966785   -6.9843878    77.027893  0.024976619  0.025891727            3 
  258000   0.84560919     -6.96261     77.10871  0.024905914  0.025816929            5 
  259000   0.84104978   -6.9718428    77.200819  0.024839388  0.025741787           11 
  260000    0.8360953   -6.9672741    77.428874  0.024816947  0.025666607            3 
  261000   0.85779503   -6.9842424    77.247786  0.024664044  0.025592133            7 
  262000   0.85071337   -6.9835412    77.253696  0.024571786  0.025516129           11 
  263000   0.84769616   -6.9846774     77.47792  0.024549404  0.025441627            8 
  264000    0.8339946    -6.982122    77.785458  0.024553491  0.025367731           15 
  265000   0.86619568    -6.970378    78.158225  0.024578058  0.025294539           11 
  266000     0.828682   -6.9661802    78.408184  0.024563967  0.025222894            6 
  267000   0.83878934   -6.9980938    78.284543  0.024433378  0.025151472            7 
  268000   0.84599604   -6.9799936    78.321878  0.024353818  0.025080864            9 
  269000   0.82603949   -7.0059145    78.530082  0.024327782  0.025009892            6 
  270000     0.848759    -6.999208    78.467863  0.024218476  0.024939096            5 
  271000   0.84366294   -7.0235817    78.398468   0.02410777  0.024867263           10 
  272000    0.8528926   -7.0103767    78.709494  0.024114428  0.024796042            4 
  273000   0.82447119   -7.0196464    78.810685  0.024056986  0.024724451            5 
  274000   0.83143579   -7.0367052    78.727175  0.023943788  0.024652059           10 
  275000   0.82703142   -7.0069442    78.897201  0.023908243  0.024580258            9 
  276000   0.81782786    -7.033221    78.855166  0.023808927  0.024508269            7 
  277000   0.81596902   -7.0190751    79.054632  0.023782982  0.024436707            6 
  278000   0.81046864     -7.03474    79.157471  0.023728259  0.024366107            7 
  279000   0.83315315   -7.0317706    79.231395  0.023665291  0.024294776            5 
  280000   0.82151103   -7.0586066    79.008974  0.023514576  0.024223533            8 
  281000   0.80105315   -7.0288451    79.363235  0.023535953  0.024152934            9 
  282000   0.80968604   -7.0320485    79.668928  0.023542827  0.024082682           11 
  283000   0.82825626   -7.0452345    79.519267  0.023415567  0.024012295            3 
  284000   0.82146404   -7.0423898    79.896603  0.023443839  0.023942217            5 
  285000   0.79669159   -7.0712626     79.65031  0.023289564  0.023872591            6 
  286000   0.82621399   -7.0756113    79.675599  0.023215501  0.023802546            9 
  287000   0.80682636   -7.0494873    79.777857  0.023164302  0.023732357            4 
  288000   0.82228684   -7.0454332    79.861019  0.023107934  0.023662338           12 
  289000   0.79475663   -7.0535716    79.900696  0.023039416   0.02359261            6 
  290000   0.79581102   -7.0689459    80.116514  0.023021987  0.023522903           14 
  291000   0.81391237   -7.1000237    80.097337  0.022937382  0.023452913           13 
  292000   0.79790683   -7.0945335    79.875582  0.022795543  0.023382428           11 
  293000   0.80195177    -7.075367    80.254693  0.022825567  0.023312494           10 
  294000   0.78916389   -7.0820179    80.346187  0.022773862  0.023243311           17 
  295000   0.79603213   -7.0738396    80.267504  0.022674436   0.02317383            5 
  296000   0.77623413   -7.0913089     80.37828   0.02262902  0.023104412           12 
  297000   0.79613238   -7.1010771    80.477103  0.022580556  0.023035424           10 
  298000   0.77194366   -7.0814561    80.733858  0.022576582  0.022966572           10 
  299000   0.78900741   -7.0921338    80.592254  0.022461609  0.022898385            7 
  300000   0.78653931   -7.1118489    80.451526  0.022347646  0.022830493           17 
  301000   0.78396913   -7.1292043     80.54038  0.022298001  0.022762079           13 
  302000   0.79623345   -7.0879812    80.855568  0.022311139  0.022693936            8 
  303000    0.7882798   -7.0855793    80.970525  0.022269121  0.022626151            9 
  304000   0.78440329   -7.1087742    80.977875  0.022197882  0.022558118           10 
  305000   0.80365262   -7.1160047    80.964057  0.022121327  0.022490443           11 
  306000   0.77965665   -7.1111897    81.008183  0.022061052  0.022422863           17 
  307000   0.78473792   -7.1335758    80.931012  0.021968244  0.022355388           15 
  308000   0.77532954   -7.1419759    81.059685  0.021931733  0.022288016           11 
  309000   0.75795547   -7.1495555    81.306271  0.021927257  0.022221487            5 
  310000   0.77840225    -7.137899    81.440475  0.021892601  0.022155887            8 
  311000   0.78069761   -7.1351723    81.460721  0.021827632  0.022090129            6 
  312000    0.7564309   -7.1724965    81.449494  0.021754673  0.022024268           10 
  313000   0.77732189   -7.1535533    81.547894  0.021711367  0.021958449           15 
  314000   0.76915819   -7.1670854    81.601848  0.021656541  0.021893373           24 
  315000    0.7601882   -7.1660174    81.576012  0.021580955  0.021828431            5 
  316000   0.77125834   -7.1404093    81.768194  0.021563342  0.021763885            4 
  317000   0.75734334   -7.1498664    81.945139  0.021541835   0.02169905            5 
  318000   0.74560516   -7.1317727    81.872299  0.021455005  0.021634699           14 
  319000   0.76630703   -7.1714653    81.660677  0.021332465   0.02156976           12 
  320000   0.76342165   -7.1532939    81.847677  0.021314499  0.021504625            4 
  321000   0.75139359   -7.1844366    81.850817  0.021248914  0.021439963            6 
  322000   0.74672211   -7.2164938      81.8245  0.021176113  0.021375095            8 
  323000   0.74023556   -7.1961821    82.183507  0.021203175  0.021310815            9 
  324000   0.73985008   -7.1891849    82.013961  0.021094126  0.021246836           17 
  325000      0.73866   -7.1582454    82.167074   0.02106848  0.021182731           11 
  326000    0.7517607   -7.1919165    82.153802  0.021000461  0.021118537           27 
  327000    0.7483758   -7.1783297    82.173929  0.020941368  0.021054723           12 
  328000   0.74603921   -7.2142065    82.292925  0.020907755  0.020990835            7 
  329000   0.73674489   -7.2037404    82.046322  0.020781743  0.020927096           14 
  330000   0.73465113   -7.2219959    82.250432  0.020770311  0.020863425            8 
  331000   0.72719031    -7.192719    82.512931  0.020773648  0.020800314           13 
  332000   0.74526461   -7.2076881    82.542477  0.020718493   0.02073758            8 
  333000   0.74815364   -7.2105553    82.537536  0.020655039  0.020675037            9 
  334000   0.74005174   -7.1833507    82.647801  0.020620709  0.020612556           15 
  335000   0.74073779   -7.2177894    82.621507  0.020552614   0.02055056            8 
  336000   0.73120727   -7.2224651    82.621937  0.020491552  0.020488751           10 
  337000   0.74075272   -7.2184551    82.664253   0.02044121  0.020427203           11 
  338000   0.73781474   -7.2276247      82.5699   0.02035747    0.0203656           16 
  339000   0.71849345   -7.2228439    82.626268  0.020311275  0.020304172            9 
  340000   0.71667454     -7.22071    82.791356  0.020291999  0.020242866            7 
  341000   0.72992109   -7.2685127    82.851952    0.0202473  0.020181976           23 
  342000     0.719315   -7.2527282    82.897711  0.020199247  0.020121209            9 
  343000   0.70548678   -7.2491972    82.917398   0.02014514  0.020060439           15 
  344000   0.72260977   -7.2433999     82.97611  0.020100802  0.019999847           18 
  345000   0.71394957   -7.2777085    82.902252  0.020024699  0.019939394           11 
  346000   0.72238432   -7.2786479    82.888476  0.019963506  0.019878494           12 
  347000   0.70819799   -7.2693358     82.84196  0.019894803   0.01981786           21 
  348000   0.71569522   -7.2777735    82.899867  0.019851501  0.019757591           25 
  349000   0.69787974   -7.2705514    82.890704  0.019792432  0.019697654           15 
  350000   0.71036165    -7.264169    83.171714  0.019802789  0.019638296            8 
  351000   0.70340726   -7.2399588    83.159742  0.019743528  0.019579238            8 
  352000   0.71700832   -7.2839785    83.221164   0.01970198  0.019520285            7 
  353000   0.70459514   -7.2693588    83.225373  0.019647161  0.019461297           11 
  354000   0.71934178   -7.2628135    83.335395   0.01961756  0.019402619            8 
  355000   0.70639892   -7.2722667     83.18887  0.019527904    0.0193437           14 
  356000   0.72002737   -7.2923216    83.243957  0.019485945  0.019285155           28 
  357000   0.70143009   -7.2650119    83.289985  0.019442107  0.019226831           21 
  358000   0.70288595   -7.3155768    83.177216  0.019361549  0.019168526           29 
  359000   0.68814292   -7.2928055    83.226937  0.019319159   0.01911011           27 
  360000   0.69555178   -7.3218365    83.138345  0.019244987  0.019051589           26 
  361000   0.70418452    -7.305101    83.196371  0.019205072  0.018993225           12 
  362000   0.68150823   -7.3128171    83.503337  0.019222684  0.018934835           12 
  363000   0.68330813   -7.3397135    83.116408  0.019080902  0.018876273           11 
  364000   0.68410348   -7.3269135    83.176287   0.01904219  0.018817739           16 
  365000   0.68944547   -7.3315774    83.284682  0.019014768  0.018759565           14 
  366000   0.68666027   -7.3202545    83.330266  0.018973193  0.018701694           12 
  367000   0.67651111   -7.3250924    83.230469  0.018898835  0.018644019            8 
  368000   0.67488692   -7.3164665     83.32424  0.018868714  0.018586627            8 
  369000   0.68699207   -7.3290222    83.504864   0.01885837  0.018529369           15 
  370000   0.67893418   -7.3481907     83.48531  0.018802998  0.018471993            9 
  371000    0.6780262    -7.350503    83.281617  0.018706563  0.018414581            9 
  372000   0.68133178   -7.3524064    83.252443  0.018649741  0.018357114           16 
  373000   0.66349974   -7.3494409    83.439873  0.018641616  0.018300097            8 
  374000   0.67607713   -7.3589586    83.568518  0.018620436  0.018243556            7 
  375000   0.67457015   -7.3754129    83.355247  0.018523388    0.0181871           15 
  376000   0.66817765   -7.3627047    83.628879  0.018534769  0.018130902           16 
  377000   0.67230875   -7.3478613    83.566737  0.018471869  0.018074946           19 
  378000   0.66041304     -7.39167    83.493253  0.018406802  0.018019373           12 
  379000   0.67050856   -7.3701045    83.796847  0.018424988  0.017963712           10 
  380000   0.66428835   -7.3676749    83.653367  0.018345037   0.01790815           14 
  381000   0.66355318   -7.3752288    83.625053  0.018290694  0.017852907           13 
  382000   0.65616889   -7.4014706    83.695195  0.018258114   0.01779771           13 
  383000   0.64635521   -7.3988281    83.568223  0.018182816  0.017742334           12 
  384000   0.63692335   -7.3935817    83.640707  0.018151195  0.017687309           20 
  385000    0.6481944    -7.383135     83.63141  0.018102037  0.017632582            8 
  386000   0.64011778   -7.4023471    83.615405  0.018051685  0.017577889           17 
  387000   0.63400318   -7.4144749    83.683703  0.018019747  0.017523432           10 
  388000   0.65291092   -7.4035561     83.66263  0.017968778  0.017468853           13 
  389000   0.65056494   -7.4121306    83.513671  0.017890675   0.01741439           38 
  390000   0.64811248   -7.4004374    83.777854  0.017901251  0.017360008           18 
  391000   0.64538365   -7.4152645    83.618373  0.017821478  0.017305814           20 
  392000   0.64895102   -7.4121543    83.545611  0.017760547  0.017251757           20 
  393000   0.65425688   -7.4206145    83.557119  0.017717795  0.017197925           10 
  394000    0.6440728   -7.4364609    83.696713   0.01770235  0.017144324           21 
  395000   0.63064852   -7.4202826    83.622596  0.017641898  0.017090836           12 
  396000    0.6358809   -7.4394033    83.625054  0.017597865  0.017037552           22 
  397000   0.62834163   -7.4279742    83.777249  0.017585485  0.016984563           36 
  398000   0.62454342   -7.4347442    83.801193  0.017546313  0.016931778           20 
  399000   0.63574754   -7.4659618    83.663506  0.017473581  0.016879053           39 
  400000   0.63915893   -7.4581305    83.650685  0.017427226  0.016826556           21 
  401000   0.62824585   -7.4564654    83.708132  0.017395705  0.016774159           47 
  402000   0.62835676    -7.447264    83.540887  0.017317763   0.01672202           28 
  403000   0.63121439   -7.4649467    83.761034  0.017320313  0.016669939           25 
  404000    0.6161824   -7.4772044    83.721458  0.017269278  0.016618014           11 
  405000   0.63953216   -7.4483136    83.955182  0.017274729  0.016566503           28 
  406000   0.60865803   -7.4619069    83.787329  0.017197728  0.016515196           13 
  407000   0.61636908   -7.4657514    83.630577  0.017123378  0.016464031           10 
  408000   0.61476388   -7.4808199    83.716768  0.017099013  0.016412863           19 
  409000   0.62649058   -7.4702416    83.769447   0.01706794   0.01636169           23 
  410000   0.61433723   -7.4872755    83.728501  0.017017988  0.016310642           44 
  411000   0.62023819   -7.4832626    83.829515  0.016997063  0.016259615           21 
  412000   0.62099755   -7.4751256     83.75685   0.01694111  0.016208932           14 
  413000   0.61548137   -7.4970983    83.779054  0.016904571  0.016158547           18 
  414000   0.61104027   -7.4939179    83.868701  0.016881784   0.01610819           18 
  415000   0.60189538   -7.5084325    83.749691  0.016817207  0.016058036           26 
  416000   0.60895239   -7.4884042    83.733057  0.016773449  0.016008037           15 
  417000   0.60950755   -7.4964393    83.601874  0.016707009  0.015958083           21 
  418000   0.59568408   -7.4892638    83.579768  0.016662633  0.015908241           18 
  419000   0.60460041   -7.4900184    83.937141  0.016693942  0.015858567           25 
  420000   0.60494805   -7.5179437    83.709583  0.016609044  0.015809075           51 
  421000    0.5918881   -7.5396241    83.528271  0.016533704   0.01575947           39 
  422000   0.58862551   -7.5281451    83.464911  0.016482012  0.015709844           38 
  423000   0.59462764   -7.5171931    83.723911  0.016494072  0.015660579           39 
  424000   0.59388965   -7.5149178    83.822527  0.016474553  0.015611409           18 
  425000   0.59631964   -7.5341384    83.604481  0.016393035  0.015562609           26 
  426000   0.59559322   -7.5469231    83.688759   0.01637104  0.015513879           22 
  427000   0.59100153   -7.5340832    83.622262  0.016319723   0.01546519           20 
  428000   0.58797376   -7.5647975    83.513761  0.016260467  0.015416517           24 
  429000   0.59460517   -7.5547993    83.524993  0.016224746  0.015367915           27 
  430000   0.59295087   -7.5333098    83.718222  0.016224462  0.015319528           39 
  431000   0.59027548   -7.5673432    83.557343  0.016155712   0.01527127           22 
  432000   0.58765689    -7.566822    83.438574  0.016095404  0.015223184           47 
  433000   0.59192614   -7.5667831    83.439794  0.016058467  0.015175303           32 
  434000    0.5810887   -7.5534077    83.470635  0.016027388  0.015127528           35 
  435000   0.57028265   -7.5605395    83.611636  0.016017555  0.015079953           43 
  436000   0.56423814   -7.5469114    83.507125  0.015960842  0.015032503           43 
  437000   0.58197048   -7.5506305    83.510283   0.01592492  0.014985241           29 
  438000   0.57053346   -7.5849833    83.529189  0.015892159  0.014938105           29 
  439000   0.56536616   -7.5709251    83.511704  0.015852639  0.014890972           24 
  440000   0.55389696   -7.5873135    83.559548  0.015825672  0.014844029           69 
  441000   0.55788489   -7.5577661    83.481828    0.0157751  0.014797305           50 
  442000   0.56306403   -7.6047283    83.376952  0.015719636  0.014750657           40 
  443000   0.56533444   -7.5793664     83.39286  0.015687144  0.014704131           60 
  444000   0.55238821   -7.5914323    83.530557  0.015677657  0.014657812           57 
  445000   0.56032815   -7.5893724    83.311639  0.015601431  0.014611594           65 
  446000   0.55102511   -7.6022687    83.326007  0.015569134   0.01456547           62 
  447000   0.55207518   -7.5910356    83.336573  0.015536274  0.014519469           71 
  448000   0.54927349   -7.5994355    83.338314  0.015501918  0.014473635           54 
  449000   0.54797524   -7.6036038    83.439548  0.015486182  0.014428027           33 
  450000   0.53895925   -7.5875053    83.336092   0.01543261  0.014382553           28 
  451000   0.54242818   -7.6194744     83.33594  0.015398363  0.014337208           65 
  452000   0.54333245   -7.6110265    83.274055  0.015352886  0.014291981           54 
  453000   0.54070016   -7.6228403    83.318086  0.015327094  0.014246961           34 
  454000   0.54846995   -7.6186988    83.388786  0.015306312  0.014202089           25 
  455000   0.55198195   -7.6217455    83.553501  0.015302839  0.014157421           29 
  456000   0.52744367    -7.609805    83.168744  0.015198966  0.014112878           41 
  457000    0.5429572   -7.6378563    83.368189  0.015202077  0.014068464           35 
  458000   0.53861237   -7.6478779    83.375512  0.015170217   0.01402428           48 
  459000   0.53847398   -7.6457173    83.294528  0.015122463  0.013980146           34 
  460000   0.52813858   -7.6467131    83.198096  0.015072119   0.01393607           59 
  461000   0.53304022   -7.6367943    83.275718  0.015053456  0.013892248           43 
  462000    0.5296839    -7.634933    83.231375  0.015012874  0.013848499           40 
  463000   0.53566881   -7.6307902      83.2916  0.014991289  0.013804873           44 
  464000   0.53451633    -7.640101    83.312226  0.014962684  0.013761385           40 
  465000   0.52464619   -7.6335135    83.095251  0.014891622  0.013717943           43 
  466000   0.52237915   -7.6335072    83.176405  0.014874178  0.013674752           29 
  467000   0.52861422   -7.6501142    83.316623  0.014867349  0.013631656           68 
  468000    0.5212726   -7.6359557     83.15363  0.014806558  0.013588739           50 
  469000    0.5146743   -7.6561436    83.145414  0.014773528  0.013546033           30 
  470000   0.51092013   -7.6599157    83.052007  0.014725533  0.013503457          134 
  471000    0.5284945   -7.6609103    82.993148  0.014683855   0.01346097           31 
  472000   0.51261094   -7.6543924    83.171232  0.014684186   0.01341853           26 
  473000   0.51215098   -7.6722181    83.000345  0.014623035  0.013376342           43 
  474000   0.50248853   -7.6723155    83.044278  0.014599908  0.013334198           29 
  475000    0.5091962   -7.6763339    83.059874  0.014571908   0.01329225           39 
  476000   0.50041117   -7.6690618    83.128671  0.014553339  0.013250506           55 
  477000   0.50617026   -7.6772752    82.970817  0.014495251  0.013208891           30 
  478000   0.50345541   -7.6898876    83.031975  0.014475588  0.013167396           28 
  479000   0.49849131   -7.6954137    83.034148  0.014445746  0.013126136           38 
  480000   0.48977054   -7.6857399    82.967314  0.014404048   0.01308502           24 
  481000    0.4987337   -7.6874327    83.118732  0.014400335  0.013044037           36 
  482000   0.50932225   -7.6702512    83.155105  0.014376747  0.013003287           45 
  483000   0.48771196   -7.6921091    83.200416  0.014354799  0.012962658           84 
  484000   0.49243328   -7.7018969    82.984449  0.014287956  0.012922191           42 
  485000   0.48340267   -7.6973372    82.960504  0.014254382  0.012881808           51 
  486000    0.4966512    -7.696999     82.91583  0.014217392  0.012841563           40 
  487000   0.48498737   -7.7119681    82.987854  0.014200523  0.012801456           41 
  488000   0.48393375   -7.7012573    82.803151  0.014139882  0.012761463           78 
  489000   0.49530909   -7.7158417    83.020545  0.014148014  0.012721675           44 
  490000   0.48477703   -7.7008465    82.821462  0.014085283  0.012682006           44 
  491000   0.48598005   -7.7125377    82.884422  0.014067281  0.012642474           67 
  492000   0.49710624   -7.7275632    82.889483  0.014039546  0.012603064           56 
  493000   0.48138956   -7.7254499    82.922996  0.014016734  0.012563792           62 
  494000   0.46692821   -7.7293433    82.780316  0.013964291  0.012524675          117 
  495000   0.47514527   -7.7092564    82.844974  0.013946965  0.012485649           67 
  496000   0.46567818   -7.7288274    82.887793  0.013926041  0.012446815           82 
  497000   0.46864363     -7.72216     82.84486  0.013890822  0.012408088           57 
  498000    0.4717359   -7.7197332    82.761485  0.013848977  0.012369464           52 
  499000    0.4692934   -7.7353659     82.92216  0.013848056  0.012331032           91 
  500000   0.46085968   -7.7386232    82.881481   0.01381358  0.012292765           74 
  501000   0.47378582   -7.7280261    82.884149  0.013786452  0.012254653          105 
  502000   0.46442958   -7.7467439    82.870238   0.01375668  0.012216636           70 
  503000   0.46895667   -7.7391085    82.801063   0.01371787  0.012178762           64 
  504000   0.47215576   -7.7434493    82.861154  0.013700588   0.01214101           59 
  505000   0.47577937   -7.7524991    82.791299   0.01366193  0.012103414           76 
  506000   0.46854575   -7.7394313    82.681354  0.013616824  0.012065973           69 
  507000   0.45798589   -7.7457008    82.718411  0.013596057  0.012028632           63 
  508000   0.45460601   -7.7573788    82.802955  0.013583162  0.011991394          180 
  509000   0.45123293   -7.7726574     82.73727  0.013545722  0.011954278           70 
  510000   0.45351642   -7.7737315    82.597522  0.013496327  0.011917289           99 
  511000   0.45172938   -7.7569166    82.643643  0.013477437   0.01188048           85 
  512000   0.45395209   -7.7543689    82.660374  0.013453837  0.011843771          107 
Loop time of 1093.02 on 48 procs for 500000 steps with 4000 atoms

Performance: 79046.718 tau/day, 457.446 timesteps/s
99.4% CPU use with 48 MPI tasks x no OpenMP threads

MPI task timing breakdown:
Section |  min time  |  avg time  |  max time  |%varavg| %total
---------------------------------------------------------------
Pair    | 68.086     | 71.189     | 74.517     |  18.3 |  6.51
Neigh   | 6.7939     | 6.9643     | 7.1383     |   2.6 |  0.64
Comm    | 57.96      | 63.578     | 68.522     |  28.2 |  5.82
Output  | 0.80062    | 0.80117    | 0.80997    |   0.1 |  0.07
Modify  | 934.63     | 938.63     | 943.63     |   6.8 | 85.87
Other   |            | 11.86      |            |       |  1.09

Nlocal:        83.3333 ave          90 max          78 min
Histogram: 6 4 7 2 5 12 4 4 1 3
Nghost:        1813.42 ave        1833 max        1788 min
Histogram: 1 0 5 1 14 6 6 9 3 3
Neighs:        11189.2 ave       12168 max        9944 min
Histogram: 1 1 6 5 6 10 4 7 2 6
FullNghs:      22376.9 ave       24510 max       20772 min
Histogram: 6 6 3 6 7 9 5 3 0 3

Total # of neighbors = 1074090
Ave neighs/atom = 268.52250
Neighbor list builds = 26921
Dangerous builds = 0

#clear
#
#next RN
#
#jump SELF
Total wall time: 0:18:15
