
units lj                  # Use reduced LJ style units
atom_style atomic         # Uncharged point particles
atom_modify map hash      # Needed for indexing of clusters etc
                          # Used to be able to find where atoms are in relation to each other.

lattice fcc 1.0 spacing 1 1 1
Lattice spacing in x,y,z = 1.5874011 1.5874011 1.5874011
region box block 0 10 0 10 0 10 units lattice
create_box 2 box
Created orthogonal box = (0.0000000 0.0000000 0.0000000) to (15.874011 15.874011 15.874011)
  3 by 4 by 4 MPI processor grid
create_atoms 1 box
Created 4000 atoms
  using lattice units in orthogonal box = (0.0000000 0.0000000 0.0000000) to (15.874011 15.874011 15.874011)
  create_atoms CPU = 0.002 seconds
set type 1 type/fraction 2 0.75 78393
Setting atom values ...
  3002 settings made for type/fraction
mass 1 1.0
mass 2 1.0
pair_style lj/cut  3.5
pair_modify tail  yes
pair_coeff 1  1  1.0  1.0   # Intearaction between 1 and 1 set with epsilon = 1 and sigma = 1
pair_coeff 1  2  1.5  0.8
pair_coeff 2  2  0.5  0.88

write_data data.0
System init for write_data ...
Neighbor list info ...
  update every 1 steps, delay 10 steps, check yes
  max neighbors/atom: 2000, page size: 100000
  master list distance cutoff = 3.8
  ghost atom cutoff = 3.8
  binsize = 1.9, bins = 9 9 9
  1 neighbor lists, perpetual/occasional/extra = 1 0 0
  (1) pair lj/cut, perpetual
      attributes: half, newton on
      pair build: half/bin/atomonly/newton
      stencil: half/bin/3d
      bin: standard
WARNING: Not all mixed pair coeffs generated from mixing. Use write_data with 'pair ij' option to store all pair coeffs. (../write_data.cpp:312)


#############################
#   M E L T   S Y S T E M   #
#############################

velocity all create 2.4 5300450 mom yes dist gaussian # Assign velocities
                                                    # Temperature 2.4, random number seed, zero linear momentum
                                                                                # Gaussian distribution

timestep 0.002   # simulation timestep
thermo 1000       # output thermodynamic data every 1000 steps bf 100

# Define a fix  in this case with index 1 applied to all
# particles in the simulation. This fix is for simulations
# in the anisotropic NPT ensemble. Note that we use the MTK
# correction.
fix 1 all npt temp 2.4 2.4 0.1 iso 5.68 5.68 0.5 mtk yes tchain 5 pchain 5 # Use NPT ensemble
                                                                         # Set temperature and pressure and damping
                                                                         # Numbers of thermostats in chain and in barostat
run 10000          # run for 10000 steps
Per MPI rank memory allocation (min/avg/max) = 3.642 | 3.644 | 3.648 Mbytes
Step Temp E_pair E_mol TotEng Press Volume 
       0          2.4    -3.937065            0  -0.33796495   -3.5201857         4000 
    1000    2.4059861   -3.4045569            0   0.20352001    5.8935578    3713.5159 
    2000    2.4324849   -3.4184304            0    0.2293848    5.4955349    3757.7325 
    3000    2.3817642   -3.3937676            0   0.17798555    5.6809041     3740.615 
    4000    2.3700374   -3.4405031            0   0.11366422    5.6294463    3717.5634 
    5000    2.4005175     -3.46496            0   0.13491605    5.9036604    3681.9321 
    6000    2.4327956   -3.4108833            0    0.2373978    5.9010454    3717.1168 
    7000    2.3579942   -3.4144443            0   0.12166274    5.9444626    3697.7991 
    8000    2.4049401   -3.4524486            0   0.15405962    5.5325896    3722.2421 
    9000    2.4048518    -3.438681            0   0.16769479    5.7702049    3706.8461 
   10000    2.3863929   -3.3908658            0    0.1878286    5.6514961    3755.7919 
Loop time of 2.60316 on 48 procs for 10000 steps with 4000 atoms

Performance: 663807.894 tau/day, 3841.481 timesteps/s
99.6% CPU use with 48 MPI tasks x no OpenMP threads

MPI task timing breakdown:
Section |  min time  |  avg time  |  max time  |%varavg| %total
---------------------------------------------------------------
Pair    | 1.1683     | 1.24       | 1.3356     |   2.8 | 47.63
Neigh   | 0.21415    | 0.22095    | 0.2408     |   1.0 |  8.49
Comm    | 0.7735     | 0.87608    | 0.93642    |   3.9 | 33.65
Output  | 0.00024525 | 0.00024928 | 0.00031255 |   0.0 |  0.01
Modify  | 0.21628    | 0.2504     | 0.28176    |   4.1 |  9.62
Other   |            | 0.01548    |            |       |  0.59

Nlocal:        83.3333 ave          94 max          71 min
Histogram: 3 0 2 8 6 6 17 1 3 2
Nghost:        1705.94 ave        1740 max        1655 min
Histogram: 1 1 1 6 7 4 10 10 6 2
Neighs:        10169.3 ave       11518 max        8332 min
Histogram: 1 2 3 4 6 6 10 8 5 3

Total # of neighbors = 488125
Ave neighs/atom = 122.03125
Neighbor list builds = 902
Dangerous builds = 182

# Equilibrate just above the melting temperature to avoid step fn in T

fix 1 all npt temp 1.25 1.25 0.1 iso 5.68 5.68 0.5 mtk yes tchain 5 pchain 5
run 2000
Per MPI rank memory allocation (min/avg/max) = 3.644 | 3.646 | 3.649 Mbytes
Step Temp E_pair E_mol TotEng Press Volume 
   10000    2.3863929   -3.3908658            0    0.1878286    5.6514961    3755.7919 
   11000    1.2413312   -5.0578487            0   -3.1963173    5.8735556    2841.9658 
   12000    1.2389083   -5.0767054            0   -3.2188075    5.2603142    2858.0369 
Loop time of 0.650649 on 48 procs for 2000 steps with 4000 atoms

Performance: 531161.594 tau/day, 3073.852 timesteps/s
99.6% CPU use with 48 MPI tasks x no OpenMP threads

MPI task timing breakdown:
Section |  min time  |  avg time  |  max time  |%varavg| %total
---------------------------------------------------------------
Pair    | 0.29685    | 0.31799    | 0.35311    |   1.8 | 48.87
Neigh   | 0.042062   | 0.043909   | 0.048857   |   0.5 |  6.75
Comm    | 0.20549    | 0.23955    | 0.26845    |   2.3 | 36.82
Output  | 5.1859e-05 | 5.3393e-05 | 6.8836e-05 |   0.0 |  0.01
Modify  | 0.038301   | 0.04435    | 0.048433   |   1.5 |  6.82
Other   |            | 0.004796   |            |       |  0.74

Nlocal:        83.3333 ave          91 max          77 min
Histogram: 2 2 8 9 8 9 3 4 1 2
Nghost:        2060.85 ave        2088 max        2036 min
Histogram: 7 2 5 4 7 7 6 4 3 3
Neighs:        13357.4 ave       15414 max       12143 min
Histogram: 5 4 9 10 10 4 3 0 1 2

Total # of neighbors = 641156
Ave neighs/atom = 160.28900
Neighbor list builds = 145
Dangerous builds = 11

#############################
# L I N E A R  Q U E N C H  #
#############################

# Define solid atoms. This closely follows ten Wolde  Ruiz-Montero and Frenkel  Faraday Discuss  1996  104  93-110
# Compute components of the per-atom q6 vector
compute q6 all orientorder/atom degrees 1 6 components 6 nnn NULL cutoff 1.3 # compute the Q6 parameter.
                                                                             # Use all neighbours within 1.3 unit cell.

# get number of connections
compute coord_number all coord/atom orientorder q6 0.5

# An atom is solid if it has 8 or more connections (of a possible 14)
variable is_solid atom c_coord_number>=8
group solid dynamic all var is_solid    # Must be dynamic to update
dynamic group solid defined

# do clustering
compute cluster solid cluster/atom 1.3 # Create a cluster where all atoms within are solid and max 1.3 units from another member

# define chunks one chunk per cluster
compute clus_chunks solid chunk/atom c_cluster nchunk every compress yes  # Says which atoms are in which chunk

# count the size of each chunk
compute size_chunks solid property/chunk clus_chunks count


# Find the maximum entry in the vector of chunk sizes
variable max_n equal max(c_size_chunks)


# Thermo style which includes this variable
# thermo_style custom step temp pe vol v_max_n

thermo ${N}  # Print the thermo information every 100 steps
thermo 1000  

# Reset the npt fix at a lower temperature (below freezing)
fix 1  all npt temp  ${temp} ${temp}  0.1  iso  5.68  5.68  0.5  mtk yes tchain  5  pchain  5
fix 1  all npt temp  0.45 ${temp}  0.1  iso  5.68  5.68  0.5  mtk yes tchain  5  pchain  5
fix 1  all npt temp  0.45 0.45  0.1  iso  5.68  5.68  0.5  mtk yes tchain  5  pchain  5

dump dmp2 all dcd ${N} traj.dcd
dump dmp2 all dcd 1000 traj.dcd


compute msd all msd com yes
variable twopoint equal c_msd[4]/6/(step*dt+1.0e-6)
fix 9 all vector 10 c_msd[4]
variable fit equal slope(f_9)/6/(10*dt)
thermo_style custom step temp pe c_msd[4] v_twopoint v_fit v_max_n

fix 1 all npt temp 1.25 ${temp} 0.1 iso 5.68 5.68 0.5 mtk yes tchain 5 pchain 5
fix 1 all npt temp 1.25 0.45 0.1 iso 5.68 5.68 0.5 mtk yes tchain 5 pchain 5
run 2000000 # 5000000  # Run for this many steps
Neighbor list info ...
  update every 1 steps, delay 10 steps, check yes
  max neighbors/atom: 2000, page size: 100000
  master list distance cutoff = 3.8
  ghost atom cutoff = 3.8
  binsize = 1.9, bins = 8 8 8
  4 neighbor lists, perpetual/occasional/extra = 1 3 0
  (1) pair lj/cut, perpetual
      attributes: half, newton on
      pair build: half/bin/atomonly/newton
      stencil: half/bin/3d
      bin: standard
  (2) compute orientorder/atom, occasional
      attributes: full, newton on
      pair build: full/bin/atomonly
      stencil: full/bin/3d
      bin: standard
  (3) compute coord/atom, occasional
      attributes: full, newton on
      pair build: full/bin/atomonly
      stencil: full/bin/3d
      bin: standard
  (4) compute cluster/atom, occasional
      attributes: full, newton on
      pair build: full/bin/atomonly
      stencil: full/bin/3d
      bin: standard
Per MPI rank memory allocation (min/avg/max) = 9.838 | 9.844 | 9.849 Mbytes
Step Temp PotEng c_msd[4] v_twopoint v_fit v_max_n 
   12000    1.2389083   -5.0767054 8.4084684e-30 5.8392139e-32 8.3333333e+20            1 
   13000    1.2090609   -5.1014321   0.67245585 0.0043106143  0.055040648            3 
   14000     1.274832   -5.1548691    1.3451409  0.008006791  0.055276497            2 
   15000    1.2364268   -5.1196466    2.0982127  0.011656737  0.057559891            1 
   16000    1.2557366   -5.0907091    2.8236085  0.014706294  0.059214158            2 
   17000     1.291933   -5.0971803    3.5292351  0.017300172  0.059538439            3 
   18000    1.2358228   -5.0706218    4.2805641  0.019817426  0.059776934            2 
   19000    1.2248591   -5.1022723    4.9539467  0.021727836  0.059917694            1 
   20000    1.2453334   -5.0716606    5.6309218  0.023462174  0.059573366            2 
   21000      1.25334   -5.0880916    6.4241637  0.025492712  0.059460057            2 
   22000    1.2487321   -5.1072101    7.1396667  0.027044191  0.059681604            2 
   23000    1.2583222   -5.0983093    7.8539396  0.028456302  0.059834883            2 
   24000    1.2276743   -5.0675793     8.546186  0.029674256  0.059773072            3 
   25000    1.2476169   -5.1334208    9.2990491   0.03099683  0.059745388            3 
   26000     1.246161   -5.1424025    10.034075  0.032160497  0.059819828            3 
   27000    1.2354247   -5.1343591    10.637708  0.032832432  0.059803904            2 
   28000    1.2465277   -5.1299827     11.31837  0.033685626  0.059641917            3 
   29000    1.2526732   -5.1423588    11.981601  0.034429888  0.059473296            2 
   30000    1.2078247   -5.1187161    12.777727  0.035493685  0.059228831            1 
   31000    1.2181933   -5.1457778    13.519321  0.036342261    0.0593152            3 
   32000    1.2240458   -5.1197361    14.221936  0.037036291  0.059327548            2 
   33000    1.2463098   -5.0950423    14.838108  0.037469968  0.059246265            1 
   34000    1.2342047   -5.1134822    15.373236    0.0376795  0.059051727            2 
   35000    1.2509986   -5.0742435     16.09175  0.038313691  0.058859075            3 
   36000    1.2471919   -5.1086489    16.763427  0.038804228  0.058656617            2 
   37000    1.2535622   -5.0736126    17.418115  0.039229988  0.058485975            5 
   38000    1.2516358   -5.1157416    18.065719  0.039617803  0.058331626            2 
   39000    1.2566212    -5.100389    18.846043  0.040269322  0.058217663            3 
   40000    1.2540881   -5.0947162    19.555499  0.040740622  0.058131481            4 
   41000    1.2493894   -5.1504178    20.275357  0.041210075  0.058135765            3 
   42000    1.2357605   -5.0705773    21.400218  0.042460749  0.058211387            3 
   43000     1.236217   -5.1206815    21.794583  0.042237564  0.058227941            2 
   44000    1.2211132   -5.1037532    22.570099  0.042746399  0.058261595            1 
   45000    1.2490778   -5.0776288    23.347768  0.043236607   0.05831325            3 
   46000     1.232707   -5.1097179    24.094966  0.043650301  0.058393523            3 
   47000    1.2217194   -5.1593646    24.737272  0.043860411   0.05850408            2 
   48000    1.2279425   -5.1330183    25.525546  0.044315183  0.058590151            3 
   49000    1.2395094   -5.0970711    26.158398   0.04448707  0.058636647            2 
   50000    1.2465188   -5.1238412    26.769952  0.044616586  0.058655187            1 
   51000    1.2405988   -5.1507577    27.461093  0.044871067  0.058636127            2 
   52000    1.2472154   -5.1459045    27.997643  0.044868018  0.058614726            4 
   53000    1.2312201   -5.1464171    28.713585  0.045147145  0.058569888            4 
   54000    1.2413836   -5.1353082    29.234008   0.04511421  0.058531453            7 
   55000    1.2292793   -5.1518199     30.01888  0.045483151  0.058469901            1 
   56000    1.2071473   -5.1388173    30.538869  0.045444746  0.058398221            1 
   57000    1.2569311   -5.1202595    31.458995  0.045992682  0.058325047            1 
   58000    1.2272106   -5.1583121    32.048474  0.046046658  0.058276758            3 
   59000    1.2400059   -5.1497519    32.781275  0.046301235  0.058242671            3 
   60000    1.2164066   -5.1601548     33.22762  0.046149472  0.058192308            2 
   61000    1.2050504    -5.145142    34.078201  0.046554919  0.058133337            2 
   62000    1.2008298    -5.137201    34.571117  0.046466555  0.058073336            3 
   63000    1.2628815   -5.1465904    35.342541  0.046749392  0.058006913            2 
   64000    1.2093834   -5.1756921    35.928002  0.046781252  0.057952298            2 
   65000    1.2407603   -5.1313524    36.980339  0.047410691   0.05793336            6 
   66000    1.2330881   -5.1422563    37.750846  0.047665209  0.057929164            2 
   67000    1.2122484   -5.1149558     38.42042  0.047786592  0.057943684            2 
   68000    1.2252722   -5.1480634    39.340321  0.048211178  0.057962915            1 
   69000    1.2172912   -5.1687226    39.834841  0.048109711  0.057995542            2 
   70000    1.2127294   -5.1692394    40.399735  0.048094923  0.057996421            3 
   71000    1.2120655   -5.1431627     40.94969  0.048063016  0.057965966            1 
   72000    1.2188645   -5.1403677    41.565347   0.04810804   0.05793573            2 
   73000    1.2100323   -5.1391107    42.358415  0.048354355  0.057894433            3 
   74000    1.2176965   -5.1444943    43.218284  0.048669239    0.0578852            4 
   75000    1.2096157   -5.1704848    43.572415  0.048413794  0.057866554            4 
   76000    1.1869781   -5.1825176    44.155195  0.048415783  0.057818217            2 
   77000    1.2451624   -5.1406828    44.691037  0.048366923  0.057767297            3 
   78000    1.2396402   -5.1487957    45.493657  0.048604334  0.057712171            3 
   79000    1.2183388   -5.1108129     46.04711  0.048572901  0.057648731            1 
   80000    1.2533998   -5.1852182    46.246981  0.048173938  0.057574056            3 
   81000    1.1959644   -5.1477116    46.846897  0.048196395  0.057479163            3 
   82000    1.2273928   -5.1530573    47.695669  0.048471208  0.057384425            3 
   83000    1.2131054   -5.1058845    48.317238  0.048511282  0.057293357            1 
   84000    1.2099857   -5.1356811    48.817842  0.048430399   0.05718816            2 
   85000    1.2087121   -5.1346681    49.377641  0.048409452  0.057091239            2 
   86000    1.2349608   -5.1179156    50.014686  0.048463843  0.056997206            2 
   87000    1.2237007   -5.1918114    50.604473  0.048471717  0.056911729            1 
   88000    1.2271306   -5.1743141    51.484625  0.048754379  0.056839069            1 
   89000    1.2068353   -5.1721715    52.532181  0.049187435  0.056795728            3 
   90000    1.2219246   -5.1772531     53.16654  0.049228278  0.056758235            3 
   91000    1.2203626   -5.1488802    53.856235  0.049318896   0.05673326            3 
   92000    1.2438065   -5.1388139    54.893016  0.049721934  0.056718556            3 
   93000    1.2213392   -5.1298186     55.64013  0.049856747  0.056716649            2 
   94000    1.2030933   -5.1559985    56.495429    0.0500846  0.056717268            2 
   95000    1.1954388   -5.1649058    57.041465  0.050036373  0.056734915            2 
   96000    1.2487066    -5.139503    58.111159  0.050443714  0.056761011            3 
   97000    1.2387619   -5.2008585     58.33232  0.050113677  0.056771418            2 
   98000    1.2041367   -5.1477462    59.044405  0.050207827  0.056770822            3 
   99000    1.1971523     -5.15385    59.437573  0.050031627  0.056761003            1 
  100000    1.2098836   -5.1843511    59.803544  0.049836286  0.056737687            4 
  101000    1.2114136   -5.1754035    60.692812  0.050076578  0.056712676            5 
  102000    1.2231806   -5.1738466     61.15202  0.049960801  0.056686949            2 
  103000    1.2059847   -5.1814592    62.116541  0.050256101  0.056666627            8 
  104000    1.2140968   -5.1796086    62.554925  0.050124139  0.056643599            2 
  105000    1.2265641   -5.1210616    63.168424   0.05013367  0.056619425            4 
  106000    1.2433083   -5.1483242    64.015963  0.050327015  0.056594539            3 
  107000    1.2351857   -5.1443008    64.526919   0.05025461  0.056566019            4 
  108000    1.2330153   -5.2050428    65.187479   0.05029898  0.056545568            3 
  109000    1.2240436   -5.1896647    65.608572  0.050159459  0.056511575            2 
  110000    1.2200193   -5.1633674    66.230448  0.050174581  0.056476856            3 
  111000    1.2178514   -5.1671928     66.76829  0.050126344  0.056448898            5 
  112000    1.2006811   -5.1913408    67.410837  0.050156872  0.056415243            2 
  113000     1.213121   -5.1573457    68.214661  0.050305797  0.056376583            4 
  114000    1.2053559   -5.1389427     68.46424  0.050046958  0.056328701            4 
  115000    1.1961764   -5.2136581    69.520848  0.050377426   0.05628295            1 
  116000    1.2005801   -5.1934648    69.966774  0.050263487  0.056241052            1 
  117000    1.1873307   -5.1800517    70.772623  0.050407851  0.056199601            1 
  118000    1.2177121   -5.1733213    71.600596  0.050565392  0.056165628            2 
  119000    1.1886981   -5.1902688     71.95037  0.050385413   0.05613218            3 
  120000     1.180004   -5.2581068    72.363055  0.050252121  0.056094759            1 
  121000    1.1905472   -5.2010283    73.165407  0.050389399   0.05606021            3 
  122000    1.2168997   -5.1468025    73.985826  0.050536766  0.056025259            4 
  123000    1.2233074    -5.169265    74.410295  0.050413479   0.05598867            1 
  124000    1.2059753   -5.1292941    75.087767  0.050462209  0.055950197            4 
  125000    1.1982062   -5.1693134    75.584277  0.050389518  0.055911024            2 
  126000    1.2164343   -5.2310097    75.993363  0.050260161  0.055860017            1 
  127000    1.2089962   -5.2302977    76.645672  0.050292436  0.055812776            2 
  128000    1.2026685   -5.1906171    77.491353  0.050450099  0.055771772            2 
  129000    1.2181873   -5.1914217     78.03491  0.050410148  0.055718731            2 
  130000    1.2162711   -5.1547137    78.702948  0.050450607  0.055673514            1 
  131000     1.203858   -5.1646414    79.216848  0.050392397  0.055626268            2 
  132000    1.1920059   -5.1703853    79.857538  0.050415112  0.055582576            2 
  133000    1.2145838   -5.1944379    80.290374  0.050307252  0.055534338            1 
  134000    1.2121206   -5.1808071    80.717996  0.050197758  0.055481764            1 
  135000    1.2150629   -5.1734284    81.442865  0.050273373  0.055439989            3 
  136000    1.2022185   -5.2358475    81.866039  0.050163014  0.055396072            2 
  137000    1.2177772   -5.1917565    82.596528  0.050241197  0.055351169            2 
  138000    1.2010248   -5.1875248    83.198513  0.050240648  0.055303322            3 
  139000    1.1891547   -5.2087383    83.800254   0.05023996  0.055251722            2 
  140000    1.1931682   -5.2479812     84.16195  0.050096399  0.055202892            2 
  141000     1.214992   -5.2176463    84.911502  0.050184103  0.055157562            1 
  142000    1.2300358   -5.1908378    85.222619  0.050013274  0.055104712            4 
  143000    1.2188239   -5.1724916    85.929641  0.050075548  0.055044771            3 
  144000    1.1993939   -5.2014588    86.364235  0.049979303  0.054987561            1 
  145000    1.1872362   -5.1880505    87.337069  0.050193718  0.054936714            4 
  146000    1.1837572     -5.19996    87.721326   0.05006925  0.054885547            2 
  147000    1.2052664   -5.1902135     88.23615  0.050020493   0.05483219            2 
  148000    1.1974762   -5.2336624    88.864021  0.050036048  0.054773609            2 
  149000    1.1994479   -5.2242886    88.779835  0.049653151  0.054713445            1 
  150000    1.1981125   -5.2352339    89.176749  0.049542638  0.054652805            5 
  151000    1.1878872   -5.2370081    89.673561   0.04948872  0.054585154            3 
  152000    1.2123548   -5.2029506     90.45383  0.049590915  0.054515956            2 
  153000    1.1772422   -5.2075367    91.065321  0.049599848  0.054452902            2 
  154000    1.2134536   -5.2496839     91.48679  0.049505839  0.054391715            3 
  155000    1.1949353   -5.2167864    92.310701  0.049629409  0.054325369            2 
  156000     1.213568   -5.1853828    92.507214  0.049416247  0.054259033            1 
  157000    1.2226999   -5.1789458     93.54162  0.049650541  0.054194695            5 
  158000    1.2190561    -5.210346    94.209599  0.049688607   0.05413659            2 
  159000    1.1831295    -5.195978    95.019524  0.049800589  0.054084275            2 
  160000    1.2050317   -5.1947465    95.898957  0.049947373  0.054031976            1 
  161000    1.2058151   -5.1938517     96.32124  0.049855714  0.053980698            2 
  162000    1.1988479   -5.2000764    97.038357   0.04991685  0.053931955            4 
  163000    1.1639349   -5.2236406    97.417467  0.049804431  0.053884311            3 
  164000    1.1691723   -5.2206293    97.773772  0.049681795  0.053837104            1 
  165000    1.2006985    -5.201831    98.629388  0.049812822   0.05379194            4 
  166000    1.1787337   -5.2285242    99.083037   0.04974048  0.053748747            3 
  167000    1.1859706   -5.2420934    99.560547  0.049680912  0.053702323            3 
  168000    1.1862281   -5.2034849    100.14126  0.049673246   0.05365193            2 
  169000    1.2121421    -5.230799    100.37547  0.049494806  0.053600952            2 
  170000    1.1924693    -5.226223     101.0819  0.049549952  0.053550753            2 
  171000    1.1447392   -5.2496145    101.19117  0.049313438  0.053497444            2 
  172000    1.2015382   -5.2174687    102.08159  0.049458133  0.053447202            2 
  173000      1.20933   -5.2094641    102.68992  0.049465278  0.053397599            3 
  174000    1.2193125   -5.1933065    103.66381  0.049647417  0.053351546            4 
  175000     1.193528   -5.2322983    104.50762  0.049765534  0.053306273            3 
  176000    1.2005892   -5.2059504    105.03943   0.04973458  0.053264089            1 
  177000    1.1955685    -5.249006    105.38716  0.049617309  0.053222585            2 
  178000    1.1874274    -5.227194    106.60633  0.049909332  0.053182949            3 
  179000     1.175216   -5.2219653    106.92876  0.049780614   0.05314797            2 
  180000     1.158773   -5.2117885    107.67696  0.049850443  0.053109757            5 
  181000    1.1795997   -5.2541372    107.71749  0.049593686  0.053077722            3 
  182000    1.1854211     -5.23921    108.53458  0.049695319  0.053043485            5 
  183000    1.1917789    -5.242738    109.23425  0.049742373  0.053011887            1 
  184000    1.1915569    -5.217903    109.73649  0.049699499  0.052979124            5 
  185000    1.1796155   -5.2321002     110.4357  0.049745809  0.052945789            5 
  186000    1.1843265   -5.2040198    111.11091  0.049780873  0.052910937            2 
  187000     1.180025   -5.2542836    111.11231  0.049515291  0.052871381            3 
  188000    1.1791052    -5.271859    111.44431  0.049399075  0.052832856            3 
  189000    1.1813478   -5.2797247    112.09026  0.049422514  0.052792708            2 
  190000     1.162749   -5.2054513    113.64969  0.049846356  0.052758842            2 
  191000    1.1656829   -5.2448595    113.87891  0.049685386  0.052727463            4 
  192000    1.1724878   -5.2134932    114.70527  0.049785275  0.052696715            2 
  193000    1.1604227   -5.2450099    114.95839  0.049636609  0.052664515            2 
  194000    1.1652815   -5.2264711    115.47037  0.049600673  0.052634551            3 
  195000    1.1786808   -5.2172923    116.48572  0.049780224  0.052606074            3 
  196000     1.156279   -5.2028308    117.50864  0.049961158  0.052580223            2 
  197000    1.1903903   -5.2297997    117.73059  0.049801433  0.052553631            3 
  198000    1.1879394   -5.2470682    118.08577  0.049699399  0.052528773            5 
  199000    1.1880945   -5.2405701     118.7826  0.049741457  0.052505038            2 
  200000    1.1630627   -5.2612421    119.06517  0.049610487  0.052477533            1 
  201000    1.1503398   -5.2618223    119.76705  0.049654665  0.052447983            3 
  202000    1.1433572    -5.224228    120.09265  0.049543173  0.052417878            3 
  203000    1.1920895   -5.2614898    120.97109  0.049659727  0.052388347            3 
  204000    1.1422931   -5.2528698    121.33751  0.049565975  0.052358896            2 
  205000    1.1561106   -5.2766184    121.60051  0.049431103  0.052326162            2 
  206000    1.1654438    -5.233059    122.96447  0.049742909  0.052294462            4 
  207000    1.1592498   -5.2520989    122.63914  0.049371633  0.052264093            2 
  208000     1.191653   -5.2588232    123.33129  0.049411576  0.052234522            5 
  209000    1.1613544   -5.2449389    124.33012  0.049573414  0.052203987            1 
  210000    1.1814211   -5.2283652    124.74672  0.049502666  0.052174143            5 
  211000    1.1937594   -5.2560093    125.30084  0.049486905  0.052140999            2 
  212000    1.1491184   -5.2430376    125.97258  0.049517524  0.052108834            3 
  213000    1.1792825   -5.2396683    126.36995  0.049440513  0.052077973            4 
  214000    1.1841587   -5.2807484    126.94089   0.04943181  0.052048134            2 
  215000    1.1386482   -5.2620219     127.5874  0.049452482  0.052019719            3 
  216000    1.1426403    -5.264507    127.88233  0.049337318  0.051990226            3 
  217000    1.1441797   -5.2676465    128.40247  0.049309704  0.051957901            3 
  218000    1.1936417   -5.2580646    129.33164    0.0494387  0.051925966            5 
  219000    1.1746772   -5.2424623    129.44821   0.04925731  0.051894527            2 
  220000    1.1643529   -5.2720981    130.19972  0.049318076  0.051863665            6 
  221000    1.1664892   -5.2519511    130.53531  0.049221459  0.051828131            2 
  222000    1.1473144    -5.303472    130.64048  0.049039218  0.051792703            1 
  223000    1.1448054   -5.2951775    131.58865  0.049173636  0.051756333            2 
  224000     1.170133   -5.2867413    131.78507  0.049027183  0.051724325            2 
  225000    1.1508542   -5.2327987    132.66461  0.049135041  0.051687772            2 
  226000    1.1756799   -5.2156039    132.69408  0.048928494  0.051651497            3 
  227000    1.1514409   -5.2897253     133.4222  0.048980251  0.051611732            2 
  228000    1.1638353   -5.2985169    133.50409  0.048795355  0.051571434            4 
  229000    1.1586773   -5.3179607    133.76983  0.048678977     0.051532            1 
  230000    1.1654395   -5.2924086    135.13306  0.048961253  0.051495106            3 
  231000    1.1604946   -5.2665416    135.10976  0.048740895   0.05146123            1 
  232000    1.1837637   -5.2363201    136.77319  0.049128301  0.051428969            1 
  233000    1.1677621   -5.2512998    137.32011  0.049113057   0.05140019            2 
  234000    1.1417514   -5.2958628    137.40234  0.048932456   0.05137182            3 
  235000    1.1934517    -5.291995    138.46761  0.049101991  0.051343415            4 
  236000    1.1560974   -5.2733446    139.55062  0.049276348  0.051318506            2 
  237000    1.1719879   -5.3063714     138.5898  0.048730591  0.051289609            2 
  238000    1.1672896   -5.2386793      139.762  0.048936276  0.051257069            1 
  239000    1.1598004   -5.2928874    139.76475   0.04873248  0.051222309            3 
  240000    1.1553264   -5.2879407    139.97438  0.048602215  0.051187049            3 
  241000    1.1481373   -5.2757996    140.51594  0.048587807   0.05114759            3 
  242000    1.1733981   -5.2881474    141.22063  0.048629693   0.05111065            3 
  243000    1.1439409   -5.2723082    141.40407  0.048492479  0.051071318            4 
  244000    1.1660007    -5.270545    141.85701  0.048448431  0.051030927            2 
  245000     1.157539   -5.2888249    142.31032   0.04840487  0.050989215            3 
  246000    1.1669156   -5.2635017    143.01952  0.048448346  0.050949327            1 
  247000    1.1680515   -5.2938055    143.18423  0.048307769  0.050909071            2 
  248000    1.1409584   -5.2837286    143.84901   0.04833636  0.050869746            3 
  249000    1.1616906    -5.262794    145.00695   0.04852977   0.05083077            2 
  250000    1.1705926   -5.2970854    145.27194  0.048423981   0.05079437            3 
  251000    1.1737177   -5.2983203    145.97425  0.048464225  0.050760237            4 
  252000    1.1434115   -5.2953869    147.14868  0.048660279  0.050728895            3 
  253000    1.1472332   -5.2887708    146.84351  0.048367427  0.050696866            4 
  254000    1.1538557   -5.2748627    148.17152  0.048612705  0.050665119            3 
  255000    1.1647942   -5.2856691    148.33969  0.048477023  0.050633418            3 
  256000    1.1368032   -5.2784133    148.77596  0.048429674  0.050603661            3 
  257000    1.1523434   -5.2938616    149.62217  0.048515621  0.050572999            6 
  258000    1.0975969   -5.3292356    149.66909  0.048342728  0.050541473            5 
  259000    1.1401949   -5.2731525    150.26456   0.04834767     0.050509            3 
  260000    1.1589854   -5.2863651    151.18607  0.048457074  0.050478001            2 
  261000    1.1664822   -5.2673634    151.88765  0.048495417  0.050449681            1 
  262000     1.172988   -5.3172016    151.72353  0.048258119  0.050420957            3 
  263000    1.1476011   -5.3210275    151.95154  0.048146877  0.050390675            2 
  264000    1.1568384   -5.3165261    153.06743  0.048316739  0.050358338            3 
  265000     1.130486   -5.3049147    153.33665  0.048219072  0.050323716            3 
  266000    1.1432139   -5.2778143    153.69415  0.048149796  0.050292153            4 
  267000    1.1316601   -5.2844429    153.81766  0.048008009  0.050259826            7 
  268000    1.1586018   -5.3275808    155.41506  0.048325579  0.050228011            1 
  269000    1.1571268   -5.2737171    156.50834  0.048484616  0.050198862            2 
  270000    1.1430906   -5.3014438    155.75899  0.048073761  0.050169327            2 
  271000    1.1667642   -5.3270486    156.75124  0.048201487  0.050141123            5 
  272000    1.1625553   -5.3188875    157.21128  0.048165221  0.050112153            4 
  273000    1.1327788   -5.3300446    157.07396  0.047946875  0.050080292            3 
  274000    1.1438273   -5.3154742    157.74993  0.047977474  0.050049979            2 
  275000    1.1438732   -5.3260665    158.46971  0.048021125  0.050019598            3 
  276000     1.148695   -5.3042626     159.3807  0.048122193  0.049991369            3 
  277000    1.1542448   -5.3140531    159.47871  0.047977951   0.04996112            5 
  278000    1.1498309    -5.281362    160.38609  0.048077366  0.049929342            3 
  279000    1.1726893    -5.306568    160.11323  0.047823546  0.049896209            3 
  280000    1.1423906   -5.3068586    160.69392   0.04782557  0.049862593            3 
  281000    1.1341429   -5.3280218    161.99534  0.048041323  0.049830445            2 
  282000    1.1091202    -5.291226    162.32104  0.047967211  0.049799814            2 
  283000     1.156549   -5.3104529    162.69319  0.047907301  0.049769915            1 
  284000    1.1313825   -5.2772124    164.17943  0.048174714  0.049743133            6 
  285000    1.1419365   -5.3080753    164.17987  0.048005811  0.049715598            4 
  286000    1.1275781   -5.3055267    165.33442  0.048174366  0.049689179            2 
  287000      1.16288   -5.3385672    165.54779  0.048068463  0.049666262            6 
  288000    1.1247782   -5.3266165    166.86655  0.048283146  0.049644118            1 
  289000    1.1411763   -5.3225324    166.86001  0.048114191  0.049624784            3 
  290000    1.1269892   -5.3126676    167.88136   0.04824177  0.049603475            2 
  291000    1.1581614   -5.3130712    168.94118  0.048379491  0.049583597            2 
  292000    1.1420248   -5.2988433    168.95098  0.048216603  0.049562766            1 
  293000    1.1342229   -5.3038596    169.57925   0.04823073  0.049540133            2 
  294000    1.1335211   -5.3240172    170.22685   0.04825024  0.049518387            3 
  295000    1.1296225   -5.3252687    169.81587  0.047970584  0.049493714            3 
  296000    1.1392486   -5.3202866    170.47246  0.047993371  0.049469092            3 
  297000    1.1385592   -5.3209783    170.79757  0.047922999  0.049443956            3 
  298000    1.1395342   -5.3087947    171.37656  0.047924094  0.049420141            5 
  299000    1.1604576   -5.3280736    172.67975   0.04812702  0.049397557            2 
  300000    1.1520637   -5.3114054    173.50455  0.048195708  0.049376339            2 
  301000    1.1509172   -5.3412641      173.511  0.048037375   0.04935613            3 
  302000    1.1181329   -5.3016831     173.8406  0.047969261  0.049335539            2 
  303000    1.1328082    -5.308577      174.314  0.047941144  0.049311542            3 
  304000    1.1329736   -5.3010409    175.32716  0.048061173  0.049288439            2 
  305000    1.1215812   -5.3128116     175.2489  0.047882214  0.049265049            2 
  306000    1.1159805     -5.35008    175.55108  0.047808027  0.049242653            2 
  307000    1.1307592   -5.3536442      175.567  0.047656622  0.049219784            3 
  308000    1.1173023   -5.3370881    176.76848  0.047826968  0.049195626            3 
  309000     1.127401   -5.3434529    177.19954   0.04778844  0.049172442            2 
  310000    1.1378748   -5.2960034    178.11618  0.047880694  0.049149517            2 
  311000    1.1221909   -5.3434139    177.65725  0.047603765  0.049126061            3 
  312000    1.1259569    -5.329701    179.17727  0.047857177  0.049101587            2 
  313000    1.1158792   -5.3398407    178.57993  0.047545242  0.049078733            1 
  314000    1.1151477   -5.3308396    179.48735  0.047634646  0.049054732            5 
  315000    1.1423769   -5.3024515    180.56087  0.047767426  0.049032129            2 
  316000    1.1455308   -5.3245278     181.0185  0.047736946  0.049010103            2 
  317000    1.1158235   -5.3747621    181.21778  0.047638742  0.048987768            3 
  318000    1.1400989   -5.3760673    182.11705  0.047724594  0.048965819            3 
  319000    1.1344634   -5.3122899    183.02177   0.04781133  0.048943482            3 
  320000    1.1272858   -5.3835916    182.60084  0.047552302  0.048920066            4 
  321000     1.108166   -5.2875431    183.68705   0.04768615  0.048897687            4 
  322000    1.1313135   -5.3621034    183.77599  0.047561075  0.048874223            4 
  323000    1.1119731    -5.352898    185.17152   0.04777387  0.048851698            4 
  324000    1.1247031   -5.3497285    184.48935  0.047450966  0.048829246            4 
  325000    1.1225809   -5.3401252    184.90346  0.047411143  0.048807948            4 
  326000    1.1263118   -5.3262244    186.12188  0.047577168  0.048786401            2 
  327000    1.1288788   -5.3810281    186.22883  0.047458927  0.048764398            3 
  328000    1.1462912   -5.3577352    186.68569  0.047430308  0.048741915            2 
  329000    1.1188468   -5.3403253    187.54067  0.047502702  0.048720702            3 
  330000    1.1387926   -5.3840205    186.62944  0.047128647  0.048698119            2 
  331000    1.1323692   -5.3817579    188.69917  0.047507344   0.04867392            3 
  332000    1.0971149      -5.3335    188.99394  0.047438238   0.04865116            3 
  333000    1.1382959   -5.3382698    189.19998  0.047347342  0.048629821            2 
  334000    1.1229844   -5.3599689     189.4908  0.047278145  0.048607657            3 
  335000    1.1285225   -5.3859643    189.22525  0.047070957  0.048582562            2 
  336000    1.1101865   -5.3554653    190.39449  0.047220855  0.048558869            3 
  337000    1.1134045   -5.3471275    191.01558  0.047234318  0.048536684            2 
  338000    1.1489419   -5.3206121    192.17167  0.047379603  0.048514548            2 
  339000    1.1053583   -5.3503755    192.63859  0.047354619  0.048491203            3 
  340000    1.1290441   -5.3493786    192.54961  0.047193531   0.04846807            4 
  341000    1.1016021   -5.3250037    193.02294  0.047170806  0.048444268            2 
  342000    1.0933066   -5.3465401    192.96941  0.047019836  0.048420793            1 
  343000    1.1318651   -5.3847472    194.22494   0.04718779  0.048395102            3 
  344000    1.1271501   -5.3484357    193.84318  0.046958133  0.048370106            2 
  345000    1.1124199   -5.3855319    194.37669  0.046950891  0.048344937            2 
  346000      1.11358   -5.3709387    195.43085  0.047069088  0.048320846            2 
  347000      1.11099   -5.3879827    195.96774  0.047062379  0.048296262            3 
  348000    1.1007309   -5.3436442    196.42735    0.0470372  0.048273344            4 
  349000    1.1482825     -5.36748    196.66985  0.046960327  0.048249022            2 
  350000    1.1273563   -5.3688675    197.15093  0.046940697  0.048225032            1 
  351000    1.0998373   -5.3736457     197.0828  0.046790789  0.048199123            3 
  352000    1.1143395   -5.3727151    198.43195   0.04697726  0.048173188            3 
  353000    1.1334939   -5.4027074    197.48842   0.04662144  0.048146241            3 
  354000    1.1167368    -5.351096    198.99558  0.046844535  0.048119536            4 
  355000    1.0900966      -5.3488    200.04419  0.046958731  0.048094751            2 
  356000    1.1076387   -5.3715972    200.07883  0.046834932  0.048068386            3 
  357000    1.1281559   -5.3578655    200.55879  0.046815778  0.048041225            2 
  358000    1.1017345   -5.4326624    199.15843  0.046359038  0.048013516            1 
  359000    1.0988686   -5.3845964    200.58507  0.046561066  0.047983848            5 
  360000    1.1166755   -5.3885186    200.86554  0.046496653  0.047954486            6 
  361000    1.0880062   -5.3655183    200.80081  0.046352911  0.047924912            5 
  362000    1.0999261   -5.3777042    202.06828  0.046516639  0.047896388            5 
  363000    1.1131825   -5.3786172    202.48371  0.046483863  0.047868118            6 
  364000    1.1083111   -5.4192579    202.23557  0.046299353  0.047839839            2 
  365000     1.098185   -5.3772319    204.32431  0.046649386  0.047812317            4 
  366000    1.1137291    -5.412381    203.92995  0.046432137  0.047785965            3 
  367000     1.127606   -5.3864081    205.01296  0.046551535   0.04775972            3 
  368000    1.0876969   -5.3852755    205.34267    0.0464997  0.047735406            4 
  369000    1.0831889   -5.3827073    206.50419  0.046635995  0.047712256            3 
  370000    1.1000817    -5.363153    207.31776  0.046693188  0.047688703            2 
  371000    1.1128153   -5.3651265     207.3369  0.046571632  0.047664902            3 
  372000    1.0820208   -5.3949638    207.28813  0.046435513  0.047639383            3 
  373000    1.1100799   -5.3539169    209.38534  0.046779567  0.047616088            2 
  374000    1.1262615   -5.3799562    209.73659  0.046732752  0.047595067            3 
  375000    1.1024166   -5.3645555    209.76174   0.04661372  0.047574835            2 
  376000     1.121699   -5.3871659    210.48237  0.046649462  0.047554439            2 
  377000    1.0897578   -5.3718405    211.57876  0.046768073  0.047534649            3 
  378000    1.1037681   -5.3744773    211.87291  0.046709195  0.047516238            3 
  379000    1.1169961   -5.3799168    213.13636  0.046863755  0.047496401            9 
  380000    1.1084331   -5.3822925    212.78262  0.046662854  0.047476896            3 
  381000    1.0983086   -5.3800342     212.7357  0.046530118  0.047456509            6 
  382000    1.1136076   -5.3697213    212.66519  0.046392929  0.047433569            5 
  383000    1.0934793   -5.3968208     212.2783   0.04618762  0.047410509            2 
  384000    1.0674579   -5.4036992    212.86847  0.046195414  0.047386195            5 
  385000    1.0817227   -5.4246075    213.42016  0.046194839  0.047360836            4 
  386000    1.1063451   -5.3946573    213.87283   0.04617289  0.047336556            7 
  387000    1.0894888    -5.437868    213.09788   0.04588671  0.047310704            3 
  388000    1.0864099   -5.4277749    214.53979  0.046078134  0.047284474            2 
  389000    1.0826237   -5.3487487    215.33055   0.04612908  0.047259676            4 
  390000     1.111665   -5.4026066     215.9842   0.04615047  0.047235008            6 
  391000    1.0741846   -5.4063439    215.63237  0.045957452  0.047208851            3 
  392000    1.0888899    -5.426736    216.32446  0.045987342  0.047183213            3 
  393000    1.1033293   -5.3653964    217.34225  0.046086143  0.047156724            2 
  394000    1.1010593   -5.3840833    217.28163  0.045956352  0.047131914            2 
  395000    1.0798198   -5.3617371     217.9946  0.045990421  0.047107164           11 
  396000    1.1210502    -5.399284    218.67811  0.046018121  0.047080759            5 
  397000    1.1013686   -5.4122189    218.75739  0.045918848  0.047053632            2 
  398000    1.0813838   -5.4013753    218.92924  0.045839456  0.047025528            2 
  399000    1.0981193    -5.437979    218.67505   0.04567148  0.046997619            2 
  400000      1.11016   -5.4101648    219.82462  0.045796796  0.046971357            3 
  401000    1.0847669   -5.3597279    220.96366  0.045919298  0.046945323            4 
  402000    1.0851427   -5.4069656    220.24947   0.04565702  0.046919429            5 
  403000    1.0672983   -5.3746973    222.06836  0.045919842  0.046893485            3 
  404000    1.1028588   -5.4206761    221.86501  0.045764235  0.046868726            3 
  405000    1.1032152   -5.4311047    222.27425  0.045735442  0.046844145            3 
  406000    1.0957083   -5.3888982    223.03585  0.045779116  0.046818958            7 
  407000    1.0867966    -5.424949    224.01216  0.045866535  0.046795551            7 
  408000     1.104446   -5.4093274    224.81452  0.045917998   0.04677189            3 
  409000    1.1043962    -5.400433    223.87527  0.045614359  0.046747869            4 
  410000    1.0951497   -5.4236588    224.51379  0.045632885  0.046722924            2 
  411000    1.0890734   -5.3800962      225.649  0.045752028  0.046698527            3 
  412000    1.1128785   -5.4418107    224.90016  0.045489515  0.046674102            5 
  413000    1.0773556    -5.391645    227.15522  0.045834387  0.046649848            3 
  414000    1.0914153    -5.389562    227.16973  0.045726597  0.046625898            2 
  415000    1.0802554   -5.4263093    227.50157  0.045683045  0.046602715            3 
  416000     1.091687   -5.4233129    228.15911  0.045704949  0.046579071            1 
  417000    1.0797204   -5.4402773    228.05562  0.045574664  0.046555189            3 
  418000    1.0990678   -5.4121359    228.27603  0.045509575  0.046531751            4 
  419000    1.1074435    -5.380566    229.86514  0.045717012   0.04650797            3 
  420000    1.0757865   -5.3814355    229.68335  0.045572094  0.046484187            3 
  421000    1.0923908    -5.411901    230.24373  0.045574768  0.046459578            7 
  422000    1.0980052   -5.4150409    230.34098  0.045485975  0.046435743            2 
  423000    1.0442093    -5.444789    230.49912  0.045409598  0.046411063            3 
  424000    1.1023074   -5.4084345    231.88594  0.045575067  0.046385961            2 
  425000    1.0864676   -5.4339266    231.16293  0.045326065  0.046361536            2 
  426000    1.0931868    -5.445709    231.97273  0.045378078  0.046335872            3 
  427000    1.0853461   -5.4493344     232.3419  0.045343852  0.046310801            3 
  428000    1.0825421   -5.4335379      233.258  0.045416278  0.046285312            7 
  429000    1.0788337   -5.4310618    233.67717  0.045391836  0.046262792            3 
  430000    1.0722591   -5.4177974    233.78738  0.045307632  0.046239422            4 
  431000    1.0713405   -5.4244989    234.37555  0.045316232  0.046214693            3 
  432000    1.0838244   -5.4461588    234.39627   0.04521533   0.04619019            4 
  433000    1.0807793   -5.4164695    235.59422  0.045341459  0.046165079            3 
  434000    1.0843742   -5.4391944     234.8809  0.045100019  0.046140282            5 
  435000    1.0657124    -5.416531    236.02119  0.045214788  0.046116453            2 
  436000    1.0657563   -5.4270243    236.29882  0.045164148  0.046091835            3 
  437000    1.0814336   -5.4382722    235.59852  0.044927253  0.046066591            5 
  438000    1.1075559   -5.4393344    236.39654  0.044976511  0.046041072            5 
  439000    1.0883432   -5.4448875    237.36535  0.045057962    0.0460162            3 
  440000    1.0602925   -5.4634178    237.09772  0.044904872  0.045991263            4 
  441000    1.0655034    -5.444288    238.23975  0.045018849  0.045965804            3 
  442000    1.0655183   -5.4604518    238.43213  0.044953268  0.045940567            5 
  443000    1.0669992   -5.4329891    239.18261  0.044992966   0.04591535            2 
  444000    1.0675371   -5.4374032    239.61816  0.044973379  0.045891849            3 
  445000    1.0834566     -5.43039    240.66483   0.04506832  0.045867787            2 
  446000    1.0904963   -5.4521261    240.52232  0.044940643   0.04584233            2 
  447000      1.06325   -5.4230421    241.39194  0.045002227  0.045817971            1 
  448000    1.0652516   -5.4936172    240.53673  0.044742696  0.045793391            2 
  449000    1.0618563   -5.4369863    241.67708  0.044854692  0.045768423            5 
  450000     1.089241   -5.4383416    241.75313  0.044769099  0.045743863            4 
  451000    1.0773638   -5.4749261    242.45809  0.044800091  0.045718832            3 
  452000    1.0569216   -5.4620511    243.07179  0.044814121  0.045693105            3 
  453000    1.0560911   -5.4448204    244.42281  0.044963725  0.045668688            3 
  454000    1.0698633   -5.4729503    242.69453  0.044547454  0.045645087            4 
  455000    1.0913126    -5.432909    244.51486  0.044782941  0.045622014            5 
  456000    1.0458413   -5.4340732     245.5099  0.044866575  0.045599003            1 
  457000    1.0838368   -5.4375144    245.76298  0.044814547  0.045575224            4 
  458000    1.0872883   -5.4955054    245.38368  0.044647686  0.045551429            3 
  459000    1.0711213   -5.4806486    245.50029  0.044571585    0.0455276            3 
  460000    1.0671997   -5.4814619    246.53347   0.04466186  0.045505217            6 
  461000    1.0653553   -5.4785118    247.53077  0.044745258  0.045482222            3 
  462000    1.0760623   -5.4396355    248.29138  0.044785603  0.045459073            3 
  463000    1.0805883   -5.4682188    247.65008  0.044573448  0.045434939            3 
  464000    1.0640075   -5.4794894    248.82081  0.044687646  0.045411169            4 
  465000    1.0659628   -5.4822637    248.74359  0.044577703   0.04538949            4 
  466000    1.0850877   -5.4408207    249.70078  0.044653215  0.045366925            2 
  467000    1.0693832   -5.4650134    250.63079  0.044723553  0.045344792            2 
  468000    1.0365524   -5.4595145     250.8406  0.044665348   0.04532212            4 
  469000    1.0638025   -5.4647927    251.45532  0.044679339  0.045299153            3 
  470000    1.0620599   -5.5089296    251.85482   0.04465511  0.045277018            3 
  471000    1.0755457   -5.4588858     252.1646   0.04461511  0.045255247            5 
  472000    1.0522452    -5.448523    252.63572  0.044603765  0.045232898            5 
  473000    1.0728638   -5.4857862     252.7024  0.044521211   0.04521046            3 
  474000    1.0733916   -5.5106639    253.01465  0.044482182  0.045188444            4 
  475000    1.0647673   -5.4604214    254.58205  0.044663517  0.045166459            4 
  476000    1.0472136   -5.4611573    254.43973   0.04454477  0.045144594            3 
  477000    1.0819907   -5.4808047    253.77012  0.044334403  0.045121968            2 
  478000    1.0687123   -5.4871442    255.92087  0.044616609  0.045099399            2 
  479000    1.0691564   -5.4615663    254.98052  0.044359868  0.045077221            3 
  480000    1.0966886   -5.4933998    255.46884  0.044352229  0.045054199            3 
  481000    1.0444195   -5.5039028     255.1241  0.044200294  0.045031165            2 
  482000    1.0607094   -5.4695191     256.4345  0.044335149  0.045007901            4 
  483000    1.0667484   -5.4779315    255.85445  0.044143279  0.044984217            3 
  484000    1.0495148   -5.4900992    256.43909  0.044152736  0.044960362           11 
  485000    1.0659886   -5.4617988    257.04995  0.044166659  0.044937285            3 
  486000    1.0382091    -5.470527    257.88401  0.044218794  0.044913855           10 
  487000    1.0534729   -5.4905631    257.82152  0.044117303    0.0448902            5 
  488000    1.0399497   -5.4776859    258.18599  0.044089137  0.044866324            4 
  489000     1.081462   -5.4666204    258.75946  0.044096704  0.044843362            5 
  490000    1.0400798   -5.4937227    259.43043  0.044120822  0.044820799            2 
  491000    1.0704414   -5.5011199    260.01131   0.04412955   0.04479862            2 
  492000    1.0642093   -5.4735324    261.40177  0.044275368  0.044775987            2 
  493000    1.0540712   -5.5141065    260.64168  0.044057079   0.04475365            3 
  494000    1.0532438   -5.4997146    260.44831  0.043935274    0.0447311            6 
  495000    1.0402328   -5.5031123    261.98534  0.044105276  0.044708436            4 
  496000    1.0342213   -5.5045729    262.51695  0.044105671  0.044685619            3 
  497000    1.0741518   -5.5401929    261.50151  0.043846664  0.044662046            6 
  498000    1.0720587   -5.4819323    262.12337  0.043862679  0.044638327            2 
  499000    1.0473317   -5.4911579    262.67519  0.043866931  0.044615048            3 
  500000    1.0549099    -5.490407    263.83364  0.043972273  0.044592052            4 
  501000    1.0504604   -5.5018291    262.99458   0.04374494  0.044568408            4 
  502000    1.0434184   -5.4721555    264.56995  0.043919314  0.044545183            2 
  503000    1.0442651   -5.4686167    265.34767  0.043960846  0.044522612            1 
  504000    1.0571519     -5.51476     264.9251  0.043803753  0.044499372            3 
  505000    1.0340063   -5.5200147    263.56366  0.043492353  0.044475485            2 
  506000    1.0681264   -5.5019972    265.06722  0.043654022  0.044451006            2 
  507000    1.0628385   -5.4886443    266.23943   0.04376059  0.044426849            4 
  508000    1.0471769   -5.4531361    265.76012   0.04359582   0.04440238            2 
  509000    1.0501388   -5.4837419    266.57338  0.043643317  0.044377733            3 
  510000    1.0534917   -5.5323458    266.62679  0.043566469  0.044352301            2 
  511000    1.0528335   -5.5129784    265.82435  0.043350351  0.044327215            3 
  512000    1.0399788    -5.490159    267.62912  0.043559426  0.044303269            6 
  513000    1.0365515   -5.5247019    268.05502    0.0435437  0.044279036            2 
  514000    1.0348476   -5.4772846    269.02014  0.043615457  0.044255837            3 
  515000    1.0469388   -5.5338888    269.73017  0.043645659  0.044233325            2 
  516000    1.0275498    -5.498632    270.34802  0.043660855  0.044211057            7 
  517000    1.0418037   -5.4858822     271.2419  0.043720487   0.04418946            4 
  518000    1.0547597   -5.5182163    272.14329  0.043781095  0.044168906           13 
  519000    1.0477921     -5.52402    272.00114  0.043673914  0.044147865            8 
  520000     1.047447   -5.4775743    273.39787  0.043813761  0.044127543            2 
  521000    1.0393341   -5.5053905    273.41158  0.043731858  0.044107379            2 
  522000    1.0524983   -5.5260716    273.57291  0.043673836  0.044087114            3 
  523000    1.0436294   -5.5204289    273.12933   0.04351965  0.044067184            3 
  524000    1.0409473   -5.5110958     273.8701  0.043554404  0.044046458            2 
  525000    1.0211426   -5.5361853    273.55215  0.043420976  0.044025587            2 
  526000    1.0404551   -5.5088239     274.3937  0.043471752  0.044004461            5 
  527000    1.0625229   -5.5004892    274.21028  0.043360259  0.043983771            4 
  528000    1.0485832   -5.5010384    275.64015  0.043503812  0.043962153            5 
  529000    1.0549102   -5.5312083    275.48401  0.043396978  0.043940849            2 
  530000    1.0419948   -5.5152644    276.16314  0.043421877  0.043918854            6 
  531000    1.0548588   -5.4882491    275.45129  0.043228388  0.043895955            6 
  532000    1.0674233   -5.5042146    275.77375  0.043197643  0.043873273            1 
  533000    1.0473367   -5.4856655    276.92418  0.043296463  0.043850367            3 
  534000    1.0396259   -5.5287486    276.52015  0.043152333  0.043827494            4 
  535000    1.0533387   -5.5252843    277.70906  0.043256863  0.043805242            3 
  536000    1.0450755   -5.5208847    279.31653  0.043426077   0.04378481            2 
  537000    1.0528259   -5.5579073    278.02651  0.043145021  0.043763901            6 
  538000    1.0290566   -5.5110834    279.69681  0.043323545  0.043742889            3 
  539000    1.0184035   -5.5170642    279.81795  0.043261897  0.043722359            2 
  540000    1.0198141   -5.5349031    280.42261  0.043275094  0.043701898            6 
  541000    1.0471776   -5.5425811    280.97664  0.043280443  0.043682139            3 
  542000    1.0382037   -5.5449207    280.24514  0.043088121  0.043661752            2 
  543000    1.0420958   -5.4966033    282.68023  0.043382479  0.043641647            5 
  544000    1.0322606   -5.4999825    282.33174  0.043249347  0.043621553            3 
  545000    1.0779329   -5.5793869    282.90909   0.04325827  0.043601005            2 
  546000    1.0250909   -5.5664927     283.1056  0.043209036  0.043580723            2 
  547000    1.0337601   -5.5652289    283.11543   0.04313154  0.043560581            5 
  548000     1.042272   -5.5569047    284.30405  0.043233584  0.043540387            2 
  549000    1.0406146   -5.5098537    285.25564  0.043299278  0.043522106            2 
  550000    1.0315429   -5.5366162    285.66509   0.04328259  0.043503036            3 
  551000    1.0497517    -5.552553    285.66048  0.043203339  0.043484171            3 
  552000    1.0392996   -5.5250858    285.62389  0.043119549  0.043465398            2 
  553000     1.056154   -5.5395465    286.86417  0.043228477  0.043446412            6 
  554000    1.0509654   -5.5448423    287.02682  0.043174912  0.043426984            2 
  555000    1.0306854    -5.507493    286.89788   0.04307776   0.04340818            4 
  556000    1.0383224   -5.5223525    288.90734  0.043301459  0.043389527            4 
  557000    1.0523843   -5.5164347    288.10248  0.043103303   0.04337063            3 
  558000    1.0326457   -5.5655666    287.92339  0.042999312  0.043351634            6 
  559000    1.0331533   -5.5735404    288.54361   0.04301485   0.04333182            2 
  560000    1.0097517   -5.5678438    288.14941  0.042879377  0.043311716            2 
  561000    1.0216828   -5.5499491    287.72015  0.042739178  0.043291297            3 
  562000    1.0404297   -5.5450409    289.56401  0.042936538  0.043270544            3 
  563000     1.041468   -5.5055248    290.40358  0.042984544  0.043250978            4 
  564000     1.027259   -5.5401438    290.50569  0.042923418  0.043231307            3 
  565000     1.022124    -5.551562    291.48797  0.042992327  0.043212007            4 
  566000    1.0283061   -5.5477827    292.33201  0.043040637  0.043193183            2 
  567000    1.0291198   -5.5620502    292.53667  0.042994807  0.043174498            4 
  568000    1.0250059   -5.5612848    291.78662   0.04280907  0.043156686            3 
  569000    1.0375536   -5.5549871    292.52443   0.04284189  0.043138258            3 
  570000    1.0309527   -5.4950108    295.51186  0.043203488  0.043119614            3 
  571000    1.0252972   -5.5496779    294.86925  0.043034041  0.043101624            4 
  572000    1.0071202   -5.5716881    294.62102  0.042922642  0.043082673            4 
  573000    1.0345045   -5.5892046    293.61057  0.042700781  0.043063341            9 
  574000    1.0070941   -5.5655412    294.09686  0.042696989  0.043043829            3 
  575000    1.0157161   -5.5313725     295.4198  0.042814464  0.043024987            5 
  576000     1.036387   -5.5254417    296.47441   0.04289271  0.043006205            2 
  577000    1.0417931   -5.5534843    296.69583   0.04285035  0.042987307            3 
  578000    1.0487941   -5.5407342    296.73883  0.042782415  0.042967802            2 
  579000    1.0365542   -5.5823646    296.46506  0.042669122  0.042948565            3 
  580000    1.0438803   -5.5599047    296.19809  0.042557197  0.042929144            4 
  581000   0.99331343   -5.5305035    297.32097  0.042645004  0.042909552            9 
  582000      1.03065   -5.5636342    296.73648  0.042488041  0.042889293            2 
  583000   0.99476449   -5.5764774    296.19986   0.04233846  0.042868679            2 
  584000     1.016252   -5.5713695    298.13364  0.042541901  0.042847934            5 
  585000    1.0186263   -5.5505506    297.53612  0.042384063  0.042827273            3 
  586000    1.0315156   -5.5391142     297.9928  0.042376678  0.042806988            4 
  587000    1.0105433   -5.5464716    299.00864    0.0424487  0.042786634            6 
  588000    1.0263104   -5.5918922    299.01929  0.042378018  0.042765562            4 
  589000    1.0237827   -5.5608135     299.3117  0.042347439  0.042744786            2 
  590000   0.99574642   -5.5700182    300.18643  0.042399214  0.042724482            2 
  591000    1.0307809   -5.5576572    300.10801  0.042316415  0.042704519           11 
  592000    1.0106073    -5.557214    300.92558  0.042360019  0.042684051            5 
  593000    1.0177952   -5.5783281    300.83899  0.042276417  0.042664539            5 
  594000    1.0023089   -5.5683563    301.55755  0.042306054  0.042644847            2 
  595000     1.002258   -5.5617489    301.39294  0.042211897  0.042625332            2 
  596000     1.019098    -5.545028    302.37797    0.0422788  0.042604167            4 
  597000    1.0290784   -5.5739129    302.33384   0.04220182  0.042582866            6 
  598000    1.0251208   -5.5157817    302.90257  0.042210503  0.042562361            4 
  599000    1.0103584   -5.5747844    301.94359  0.042006621  0.042541276            7 
  600000    1.0066635   -5.5954861    301.91561  0.041932723  0.042519687            5 
  601000    1.0044019   -5.5613787    303.15394  0.042034656  0.042497521            4 
  602000    1.0130252   -5.6075429    302.85679  0.041923698  0.042475648            8 
  603000    1.0042524   -5.6051507    302.82556  0.041849856  0.042453062            7 
  604000    1.0005952   -5.5830704    304.01206  0.041944268  0.042430833            5 
  605000    1.0315948    -5.589221    303.53353  0.041809026  0.042408466            5 
  606000   0.99577287    -5.579953    304.33669   0.04185048  0.042386332            2 
  607000    1.0026311   -5.5741613    305.46988  0.041937107   0.04236486            7 
  608000     1.052274   -5.6044486    304.85585  0.041783971  0.042342951            5 
  609000     1.007144   -5.5740928    305.38521  0.041787795  0.042320975            1 
  610000    1.0335431   -5.6086873    304.91446  0.041654981  0.042298567            6 
  611000    1.0199773   -5.5957952    305.64911  0.041687003  0.042276552            6 
  612000    1.0106243   -5.6374434    306.60437  0.041748961  0.042254169            5 
  613000    1.0004053   -5.5687475    307.85791  0.041851266  0.042232229            2 
  614000   0.98731793   -5.5942168    307.60491  0.041748766  0.042210383            2 
  615000   0.99581967   -5.6007462    306.85154  0.041578799  0.042188223            2 
  616000    1.0028102   -5.5979139    309.06778  0.041811117   0.04216627            3 
  617000   0.99304599   -5.6103882    308.53827  0.041671836  0.042144978            3 
  618000    1.0093294    -5.606518    309.20396  0.041694169  0.042123581            6 
  619000   0.99614973   -5.6489403       308.86  0.041580507  0.042102266            5 
  620000   0.99827575   -5.5953918    310.52259  0.041736908  0.042081068            4 
  621000    1.0114635    -5.589436    311.29256  0.041773021  0.042060107            6 
  622000    1.0067911   -5.6012568    310.60705  0.041614021  0.042038933            3 
  623000    1.0086882   -5.5912986    311.74829  0.041699878  0.042017904            3 
  624000    1.0098613   -5.5867434    312.20402  0.041693913  0.041996906            2 
  625000    1.0045461   -5.6176585     311.1127  0.041481693  0.041975645           12 
  626000    1.0113573   -5.6113368      311.918   0.04152263  0.041953934            2 
  627000    1.0001537   -5.6134887    312.75454   0.04156759   0.04193252            2 
  628000    1.0197998   -5.5527697    313.94507  0.041659378  0.041910795            3 
  629000   0.99826404   -5.5722758    314.01284  0.041602125  0.041890243            2 
  630000    1.0058011   -5.5814235    313.45083   0.04146175  0.041869333            5 
  631000    1.0100589   -5.6007525    313.56553  0.041411189  0.041848091            3 
  632000    1.0083251    -5.615968    314.31846  0.041444945  0.041826894            3 
  633000   0.99899927   -5.6061869    315.00512  0.041469868  0.041805821            4 
  634000    1.0114292   -5.5974916    314.12065  0.041288203  0.041784652            2 
  635000   0.99992132   -5.6421323     314.3857  0.041257966    0.0417634            3 
  636000    1.0041306   -5.6032047    315.30419  0.041313442  0.041741422            7 
  637000    1.0079876   -5.6007612    315.07455  0.041218543  0.041719862            6 
  638000   0.99439233   -5.6215757    315.60045   0.04122263  0.041697947            4 
  639000   0.97851051   -5.6039714    315.99182  0.041209157  0.041676144            2 
  640000    1.0204064   -5.6286673    315.36917  0.041063694  0.041654095            2 
  641000    1.0144821   -5.6170059    316.91845  0.041201047  0.041631728            2 
  642000    1.0188689   -5.5938565    317.52658  0.041215807  0.041609391            5 
  643000   0.98794213   -5.6224147    318.01788  0.041215381  0.041587783            4 
  644000   0.99305183    -5.602509     317.4703  0.041080526  0.041565855            2 
  645000   0.99426252   -5.6121948    317.45343  0.041014656  0.041543418            2 
  646000   0.99648343   -5.5913077    318.05412  0.041028654  0.041521378            4 
  647000     1.011534   -5.6307261    318.22745  0.040987564   0.04149926            5 
  648000   0.98720934    -5.630083    319.02807  0.041027272  0.041477097            3 
  649000    0.9849009    -5.615163    318.51252  0.040897858  0.041454746            3 
  650000    1.0034553   -5.6152262    319.49637  0.040961073  0.041432218            2 
  651000   0.98991947   -5.6267015    319.06111  0.040842436  0.041409671            8 
  652000    1.0053034   -5.6007962    320.92305  0.041017772  0.041387445            2 
  653000    1.0016229   -5.5977739    319.44158  0.040765898  0.041364755            4 
  654000   0.98164804   -5.6140891    321.01761  0.040904385  0.041341631            5 
  655000   0.99079112   -5.6139088    319.28571  0.040621592  0.041318146            3 
  656000   0.98918743   -5.5988524    321.15906  0.040797645  0.041295302            2 
  657000    1.0158663   -5.5978154    322.09039  0.040853676  0.041272816            5 
  658000   0.98928354   -5.6531716    321.50572  0.040717543  0.041250374            6 
  659000   0.98421537   -5.6233013    322.28151  0.040753858  0.041227884            6 
  660000   0.98815576   -5.6170442    323.41051   0.04083466  0.041206131            2 
  661000    0.9935228    -5.630965    323.38715  0.040769938  0.041185259            2 
  662000   0.98314825   -5.6033606    324.00826  0.040786538  0.041163609            6 
  663000    1.0050781   -5.6241428     324.7667   0.04082035   0.04114216            2 
  664000    0.9935223   -5.6179624    325.72257  0.040878837  0.041120872            3 
  665000   0.97690836   -5.6106669    326.20718  0.040878092   0.04110024            8 
  666000   0.99056376   -5.6341947     325.9096  0.040779479  0.041079282            8 
  667000   0.97270501    -5.654497    325.17179  0.040626161  0.041057868            5 
  668000   0.98066602   -5.6708699    325.53392  0.040610519  0.041036228            5 
  669000   0.98849153   -5.6677432     326.2327  0.040636859  0.041014714            3 
  670000    1.0021877   -5.6428956    327.53383  0.040738039  0.040993453            3 
  671000   0.98299695   -5.6512995     327.3421  0.040653515  0.040972951            6 
  672000   0.96920912   -5.6530287    327.38628  0.040598497  0.040952175            4 
  673000   0.99418946   -5.6744621    328.33824  0.040656047  0.040931865            3 
  674000    1.0063718   -5.6762931    328.95873  0.040672444  0.040911361            2 
  675000     1.002471    -5.648732    328.69366  0.040579465  0.040891399            8 
  676000   0.99281603   -5.6086384    330.58321  0.040752368  0.040871637            7 
  677000   0.98944691   -5.6593468    328.87116  0.040481433  0.040851818            4 
  678000   0.96600674   -5.6446556    330.05265  0.040566943   0.04083161            1 
  679000   0.98742325   -5.6728853    330.11549  0.040514911  0.040811538            6 
  680000   0.97908478   -5.6341246    331.21024   0.04058949  0.040791928            3 
  681000   0.99749388   -5.6533238    332.14059  0.040643733  0.040772276            2 
  682000   0.97415275   -5.6446769    332.42876   0.04061935  0.040752494            4 
  683000   0.99325854   -5.6611194    331.72505  0.040474017   0.04073343            4 
  684000   0.98045252   -5.6326231    333.21291  0.040596115  0.040713752            4 
  685000   0.97946037   -5.6652162    332.06943  0.040397741  0.040693835            3 
  686000   0.97767335    -5.657063    332.82161  0.040430225  0.040674178            2 
  687000   0.97372479   -5.6385962    333.34348  0.040434677  0.040653724            6 
  688000   0.98121885   -5.6058496    334.48963  0.040514732  0.040633932            4 
  689000   0.98900125   -5.6699036    333.17395  0.040296801  0.040614195            5 
  690000   0.97394735   -5.6458516    334.98525  0.040457155  0.040594314            2 
  691000   0.98761387   -5.6939251    333.88961  0.040266475   0.04057405            3 
  692000   0.98951249   -5.6338954    335.16715  0.040362132  0.040554131            4 
  693000   0.97761461   -5.6671404    335.39544  0.040331342   0.04053385           16 
  694000   0.97242487   -5.6610281    335.28423  0.040259873  0.040513316            3 
  695000   0.98133398   -5.6733963    335.35141  0.040210002  0.040492123            4 
  696000   0.97659532   -5.6550582     335.7087  0.040195007  0.040471441            2 
  697000   0.95373512   -5.6689211    337.38652  0.040337938  0.040451162            4 
  698000   0.96035522   -5.6811328    336.17411    0.0401354  0.040431126            5 
  699000    0.9576967   -5.6423209     337.6118   0.04024938   0.04041172            9 
  700000    1.0039563   -5.6824344    337.22105  0.040145364  0.040392087            8 
  701000   0.97053561   -5.6661935     337.6856  0.040143319  0.040372566            4 
  702000     0.990508   -5.6399889     339.2262  0.040269016  0.040352776            5 
  703000     0.962655     -5.63767      340.298  0.040338786  0.040333425            6 
  704000   0.95249799   -5.7020942    338.40024  0.040056847  0.040314051            3 
  705000   0.96035654   -5.6552563    339.65118  0.040147894  0.040294183            8 
  706000   0.97901523   -5.6735852    339.58732   0.04008349  0.040273971            3 
  707000   0.98608402   -5.6525878    340.33564  0.040114998  0.040254115            8 
  708000   0.97176341    -5.663589    340.87075  0.040121322  0.040234203            5 
  709000   0.97632742   -5.6794906    340.68736  0.040043179  0.040214172            4 
  710000   0.96284727   -5.6662532      340.886  0.040010094  0.040194747            3 
  711000   0.97252857   -5.6908706    342.07915  0.040093665  0.040175588            6 
  712000   0.99077435   -5.6934295    342.06814  0.040036065  0.040156503            3 
  713000   0.96073837   -5.6700262    342.82007  0.040067797  0.040137294            6 
  714000    0.9572452   -5.6926044    343.26498  0.040063606  0.040117738            6 
  715000   0.95185303    -5.706236    343.50557  0.040035615  0.040098027            3 
  716000   0.96291768   -5.6643008    343.08891  0.039931205  0.040078614            3 
  717000   0.97272264    -5.698439    343.61442   0.03993659  0.040058819            3 
  718000   0.96824723   -5.6698689    343.44985  0.039861867  0.040038964            5 
  719000   0.96028477   -5.7018491    344.08614  0.039880174  0.040018965           10 
  720000    0.9622877   -5.6759725    343.08499  0.039708911  0.039998215            2 
  721000   0.97373346   -5.6847301    344.31906  0.039796471  0.039978043            4 
  722000   0.95656201   -5.6610091    344.50248  0.039762521  0.039958578            3 
  723000   0.95457348   -5.6898402    345.52003  0.039824807  0.039938678            5 
  724000   0.98098316   -5.6927238    345.62435  0.039781808  0.039918728            7 
  725000   0.95859864   -5.7543828    343.76162   0.03951283  0.039898239            7 
  726000   0.94973452   -5.7027136    345.36269  0.039642182  0.039877907            4 
  727000   0.95320118   -5.7028141    345.54007  0.039607986  0.039857806            3 
  728000   0.95144779   -5.6517537    347.08934  0.039730922  0.039837732            4 
  729000   0.95065633   -5.7044727    345.63738  0.039510446  0.039817202            5 
  730000   0.95879055    -5.668175    347.56068  0.039675877  0.039796557            5 
  731000   0.95770674   -5.7139826    346.12513  0.039457949  0.039776255            4 
  732000   0.96456699   -5.6941502    347.34398  0.039542803  0.039755714            8 
  733000   0.96794314   -5.7099293    347.96767  0.039559762  0.039735813            4 
  734000   0.94263285    -5.673708    348.79696  0.039600019  0.039716053            5 
  735000   0.95935792   -5.6869427    349.64879   0.03964272  0.039696475            5 
  736000   0.95002941   -5.6864744    349.52102  0.039574391  0.039676691            4 
  737000   0.95941977   -5.6881704    350.06994  0.039582761   0.03965734            3 
  738000   0.97751179   -5.6731328    351.34237  0.039672806  0.039637796            3 
  739000   0.96427019    -5.670782    350.89191  0.039568325  0.039618718            2 
  740000   0.95745145   -5.6890759    351.96381  0.039635565  0.039600217            2 
  741000   0.95380073   -5.6916839    352.16006  0.039604145  0.039581488            6 
  742000   0.95782664   -5.7120987    352.00953  0.039533864  0.039562707            5 
  743000   0.97460949   -5.7118785    352.68732  0.039556675  0.039543459            3 
  744000   0.95979724   -5.7161425    352.01082  0.039427736  0.039524349            4 
  745000   0.96412461   -5.6925133    352.96814  0.039481894  0.039505008            6 
  746000   0.96668245   -5.7044729     353.7501   0.03951632  0.039485793            5 
  747000   0.95929872   -5.6771085    354.80634  0.039581251  0.039466964            3 
  748000   0.95718996   -5.7623933      351.931  0.039207999  0.039447873            3 
  749000   0.95910284   -5.7414001    353.37677  0.039316508  0.039428458            3 
  750000   0.95956514   -5.7158448    353.81659  0.039312955  0.039409468            7 
  751000   0.94277902    -5.740823    353.71308  0.039249121  0.039390414            8 
  752000   0.94976019   -5.6973062    356.00375   0.03945077  0.039371723            3 
  753000   0.96561869   -5.7052478    355.27614  0.039317856  0.039353096            5 
  754000   0.95534608   -5.6968299    356.56863  0.039408558  0.039334199            7 
  755000    0.9396685   -5.7237861    353.89983  0.039061791  0.039315625            3 
  756000   0.94138556   -5.7194574    354.36927  0.039061868  0.039296787            3 
  757000   0.96555023   -5.7122292    356.55157  0.039250503  0.039277868            9 
  758000   0.96136566   -5.7016628    356.99911  0.039247924  0.039258879            5 
  759000   0.94756216   -5.6971817    356.94646  0.039190433  0.039239929            9 
  760000   0.94144977   -5.6987812    357.03177   0.03914822  0.039220889            3 
  761000   0.95176078   -5.6828686    359.18448   0.03933251  0.039202293            3 
  762000   0.96271805   -5.7273783    358.20683  0.039173976  0.039183892            2 
  763000   0.96132411   -5.7115631    358.89986  0.039198324  0.039165633            6 
  764000   0.93966428   -5.7340865    358.77073  0.039132933    0.0391476            3 
  765000   0.96313086   -5.7126493    359.95118  0.039210368  0.039129375            8 
  766000   0.94499742   -5.7331923    358.96519  0.039051914  0.039111531            3 
  767000   0.94237525   -5.7095788    361.32372  0.039257249  0.039093272            6 
  768000   0.94087316   -5.6966605    360.66932  0.039135126  0.039074902            3 
  769000   0.94358077   -5.7175039     360.6105  0.039077861  0.039056539            4 
  770000   0.96207296   -5.7493274    360.29256  0.038992701   0.03903824            3 
  771000   0.93958792   -5.7730641    360.63624  0.038979274   0.03901935            5 
  772000   0.94951813   -5.7472595    361.33243  0.039003932  0.039001296            3 
  773000    0.9625867   -5.7153764    362.46034  0.039075069  0.038982512            7 
  774000   0.94936095   -5.7191269    362.20557  0.038997155  0.038964092            5 
  775000   0.94439227   -5.6697553    363.20642  0.039054453   0.03894558            4 
  776000   0.95256437   -5.7638285    362.28878  0.038905582  0.038927565            8 
  777000   0.93766676   -5.7302929     362.6094  0.038889897  0.038909152            4 
  778000   0.93366538   -5.7357892    362.75167  0.038855148  0.038890345            7 
  779000   0.94271881    -5.739172    364.03164  0.038942195  0.038871684            3 
  780000   0.92854084   -5.7354434    364.21723  0.038912097  0.038852711            6 
  781000   0.93251606   -5.7215688    364.25815   0.03886664  0.038834205            4 
  782000   0.95454529   -5.7214806    364.97295  0.038893111  0.038815979            6 
  783000   0.94853744   -5.7798237    364.54382  0.038797767  0.038797577           11 
  784000   0.93241158   -5.7332951    364.51558  0.038745278  0.038778729            3 
  785000   0.94831887   -5.7197196    365.21586  0.038770261  0.038760276            7 
  786000   0.94055347   -5.7657364    365.28146  0.038727891  0.038741914            5 
  787000   0.94540882   -5.7567361    365.50229  0.038702064   0.03872313            5 
  788000   0.92350843   -5.7271005    365.62259  0.038665671  0.038704375            2 
  789000   0.93592907   -5.7320513    366.47019  0.038706188  0.038685409            3 
  790000    0.9255697    -5.724312    367.00727  0.038713847  0.038666222            2 
  791000   0.95953249   -5.7259663    366.45694  0.038606926  0.038647278            7 
  792000   0.95566645    -5.736847    365.35532  0.038442269  0.038627852            3 
  793000   0.94182672   -5.7530379    366.28749  0.038491749  0.038608816            4 
  794000   0.92993718    -5.782703      365.472  0.038357683  0.038589096            3 
  795000   0.95607537   -5.7852857    366.35194   0.03840167  0.038569211            3 
  796000   0.94739866   -5.7388889    367.93501  0.038519159  0.038549807            4 
  797000   0.92045808   -5.7569436    367.93875  0.038471221  0.038530448            4 
  798000   0.93368591    -5.736734    367.14917  0.038340556  0.038511028            2 
  799000   0.94360999   -5.7533985    368.19393  0.038401536   0.03849134            7 
  800000   0.94249579   -5.7348355    368.08214  0.038341889   0.03847128            3 
  801000   0.93469351   -5.7206845    367.81739  0.038266479  0.038451024            6 
  802000   0.93637518   -5.7264321    367.89143  0.038226458  0.038431058           10 
  803000   0.93096428   -5.7567417    368.15581  0.038206289  0.038410908            7 
  804000   0.93604862    -5.753669    367.21604  0.038061364   0.03839002            4 
  805000   0.93737181   -5.7404388    368.03851  0.038099224  0.038369436            4 
  806000   0.94507577   -5.7797933    368.89255  0.038140255  0.038348689            2 
  807000   0.92911226    -5.757934    368.33366   0.03803528  0.038327786            4 
  808000   0.90234925   -5.7584685    369.35423  0.038093464  0.038307001            6 
  809000   0.91822412   -5.7700945    369.14173  0.038024488  0.038285627            7 
  810000   0.95268133   -5.7354263    369.83272  0.038048634  0.038264315            4 
  811000   0.91852029   -5.7573647    369.47805  0.037965274   0.03824353            5 
  812000   0.93836491   -5.7795677    368.40616  0.037808514  0.038222705           14 
  813000   0.93742592     -5.79678    368.45897  0.037767422  0.038201185           10 
  814000   0.93574709   -5.7968411    369.77889  0.037856152  0.038180149            5 
  815000   0.92147443   -5.7285912    371.37161  0.037972558  0.038159288            3 
  816000   0.92282873    -5.744468    370.17951   0.03780428  0.038138775            5 
  817000   0.93638044   -5.7492185    370.65555  0.037806563  0.038117524            6 
  818000   0.91992804   -5.7772109    370.32288  0.037726455  0.038096088            4 
  819000   0.91650464   -5.7945384     369.6555  0.037612485  0.038074504            5 
  820000    0.9448096   -5.8090981    369.92687  0.037594194  0.038053459            6 
  821000   0.93424633   -5.7621633    371.25575  0.037683287  0.038031614            5 
  822000    0.9454424   -5.7891561    370.45474  0.037556239  0.038010132            3 
  823000   0.91500246   -5.7631277    372.27799  0.037695219  0.037988792            4 
  824000   0.90823567   -5.7687687    373.11361  0.037733981  0.037967334            2 
  825000   0.92230292   -5.7907274    371.60171  0.037535526  0.037945768            7 
  826000    0.9247861    -5.781312    372.79222  0.037610192  0.037924405            4 
  827000   0.91274961   -5.7984546    373.30197  0.037616079  0.037903289            4 
  828000   0.91576623   -5.7844392    373.33844   0.03757432  0.037882168            3 
  829000   0.91389088   -5.7627942    371.93133  0.037387548  0.037861118            6 
  830000   0.91062975   -5.7940216    373.98236   0.03754843  0.037839975            5 
  831000   0.93491134   -5.8165339    374.23715  0.037528796  0.037818691            4 
  832000    0.9006235   -5.7981712    373.86337  0.037446251  0.037797298            9 
  833000   0.91246607   -5.8210712    374.10484  0.037425454  0.037776075            4 
  834000   0.91598531   -5.7768768    374.91229   0.03746126  0.037754716            5 
  835000   0.92074333   -5.7959229     374.3786  0.037363133  0.037733214            3 
  836000   0.90945994   -5.7947496    375.41868  0.037422117  0.037711952            3 
  837000   0.92051259    -5.796678    375.79241  0.037414616  0.037690585            2 
  838000   0.90828178   -5.7949011    376.20021  0.037410522  0.037669288            8 
  839000   0.91339008   -5.8100062    376.68972  0.037414553   0.03764789            4 
  840000   0.92589774   -5.8081355    376.48459  0.037349662   0.03762634            5 
  841000   0.92775509   -5.8090881    375.81964  0.037239362  0.037605067            4 
  842000   0.93244184   -5.8001018    375.72968  0.037186231  0.037583632            4 
  843000   0.90303478   -5.7979321    377.45279  0.037312454   0.03756205            4 
  844000   0.92113793   -5.8190351    375.96581  0.037121427  0.037540379            4 
  845000   0.91720065   -5.7873511    377.68896  0.037247432  0.037519136            3 
  846000     0.899951   -5.8161951    377.61632  0.037196249  0.037497765            2 
  847000   0.89580006   -5.7832809    378.14236  0.037204089  0.037476501            3 
  848000    0.9338311   -5.8201909    377.49257  0.037096361  0.037455184            6 
  849000   0.89027457   -5.8035989    377.42852   0.03704638  0.037433864            5 
  850000   0.92597219   -5.7689196    379.36311  0.037192461  0.037412338            6 
  851000   0.92164653   -5.7929779    378.81139  0.037094731  0.037391122            3 
  852000   0.91324063   -5.8072227    378.46352  0.037017167  0.037369612            3 
  853000   0.90669247   -5.7911585    379.30308  0.037055791  0.037348324            3 
  854000   0.93172852   -5.7759542    380.53155  0.037132274  0.037327151            2 
  855000   0.89620937   -5.8104348    380.06403  0.037043278   0.03730614            4 
  856000    0.9259879   -5.8202557    378.95094  0.036891641  0.037284848            3 
  857000   0.91256091    -5.788436    379.35052  0.036887449   0.03726335            2 
  858000   0.89284513   -5.7834702    380.57817  0.036963691  0.037241538            6 
  859000   0.90127961   -5.8357762    380.58098  0.036920933  0.037220326            3 
  860000    0.9012222   -5.8288558    380.32354  0.036853057  0.037198415           13 
  861000   0.91102981   -5.8262852      380.622  0.036839141  0.037176504            2 
  862000   0.90692493   -5.7820341    382.05269  0.036934715  0.037155226            6 
  863000   0.88732211    -5.788899    381.82243  0.036869682  0.037133957            6 
  864000   0.91697349   -5.8255915    381.81731  0.036826515  0.037112649            5 
  865000   0.93286222   -5.8352697    380.85716  0.036691441  0.037091332            7 
  866000   0.90143832   -5.8336598    383.11774  0.036866603  0.037069799           11 
  867000   0.90731467   -5.8382873    381.77178  0.036694712  0.037048814            7 
  868000   0.91421774   -5.8220603    382.23875  0.036697268  0.037027854            9 
  869000   0.90162635   -5.7995217    383.52111  0.036778012   0.03700707            6 
  870000   0.92313208   -5.8380447    382.44871  0.036633018  0.036986089            5 
  871000   0.91452223   -5.8298463    384.06201  0.036745313  0.036964828            3 
  872000   0.91069284   -5.8389398    383.09069  0.036610349  0.036943721            6 
  873000   0.92124286   -5.8266591    383.83598  0.036639555  0.036922446            6 
  874000   0.91100303   -5.8389793    383.21565  0.036538487  0.036901081            6 
  875000    0.9219756   -5.8570926    383.56566  0.036530063  0.036879408           11 
  876000   0.92476156   -5.8274154    384.34986  0.036562962  0.036857914            5 
  877000   0.89449264   -5.8550499    384.72398  0.036556821  0.036836384            6 
  878000   0.90547946   -5.8238375    384.44864  0.036489051  0.036815156            3 
  879000   0.90706118   -5.8094783    383.80509  0.036386528  0.036793713            4 
  880000   0.89888085   -5.8856877    383.70875  0.036336055  0.036772192            8 
  881000   0.93476002   -5.8382594    385.57605  0.036471438  0.036750543            6 
  882000   0.90699094   -5.8240572     385.6435   0.03643646  0.036728988            5 
  883000   0.91270548   -5.8182173    386.07497  0.036435916  0.036707596            6 
  884000   0.91618204   -5.8102255    386.28749  0.036414733  0.036686175            3 
  885000   0.88514813   -5.8653744    385.00712  0.036253025  0.036664488            7 
  886000    0.8869799   -5.8196141    385.40213   0.03624926  0.036643083            2 
  887000   0.91259689   -5.8569083    386.45155  0.036306985   0.03662137            5 
  888000   0.88348544   -5.8687773    386.03493  0.036227002  0.036599904            2 
  889000   0.90532301   -5.8449331     386.3381   0.03621467    0.0365782            8 
  890000    0.9134109   -5.8740529    386.64138  0.036202377  0.036556583            6 
  891000   0.89271677    -5.866409    387.16064   0.03621031  0.036534852            7 
  892000   0.90066538    -5.859581    387.34397  0.036186843  0.036513286            6 
  893000   0.87770802   -5.8182453    387.62891   0.03617291  0.036491659            5 
  894000   0.89949201    -5.855853     388.3963   0.03620398  0.036470124            4 
  895000    0.8915671   -5.8339704    387.73305  0.036101773  0.036448645            4 
  896000   0.89738704   -5.8164656    389.88076  0.036261231  0.036427419            5 
  897000   0.88159354   -5.8240785    388.66923  0.036108252  0.036406283            5 
  898000   0.91349792   -5.8298553    389.46919  0.036142279  0.036385164            7 
  899000   0.90661508   -5.8341921    390.28293  0.036177506   0.03636383           16 
  900000   0.89641067   -5.8730217    388.20059  0.035944499  0.036342132            8 
  901000   0.90492622   -5.8433399    389.44959  0.036020125  0.036320708            6 
  902000   0.89766073   -5.8752427    390.10816  0.036041035  0.036299506            5 
  903000   0.91101054   -5.8724435    390.07961  0.035998488  0.036278177            5 
  904000   0.89454389   -5.8418828    390.26847  0.035976075  0.036256764            8 
  905000   0.88923229   -5.8440566    390.65234  0.035971671  0.036235142            3 
  906000   0.88041557   -5.8873756    389.65105  0.035839869  0.036213534            4 
  907000    0.8969265    -5.858269    391.07732  0.035931396  0.036191847            7 
  908000     0.890036   -5.8437485    392.54043  0.036026104  0.036170593           12 
  909000   0.91753071   -5.8581252    391.99456  0.035936428  0.036149769            6 
  910000   0.89648469   -5.8609544    392.81134  0.035971734  0.036128799            4 
  911000   0.89669792   -5.8319439    392.42159  0.035896596  0.036107926            6 
  912000   0.88876997   -5.8539766    392.31951  0.035847908  0.036087047            4 
  913000    0.8832226   -5.8175123    392.34472  0.035810945  0.036066097            4 
  914000   0.89042588   -5.8739896     391.2793  0.035674626   0.03604479            5 
  915000   0.87113567   -5.8322814    393.28246  0.035818075  0.036023756            5 
  916000   0.89795421   -5.8609622    392.76755  0.035732128  0.036002455            3 
  917000   0.89060798   -5.8785253     392.4209  0.035661659  0.035980825            3 
  918000   0.89641403   -5.8768442    393.52559  0.035723093  0.035959534            6 
  919000   0.88488952   -5.8744298    393.74788  0.035704378  0.035938156            4 
  920000   0.89010793   -5.8625569    393.26307  0.035621655  0.035916585            9 
  921000   0.88786112    -5.877335    393.85896  0.035636894  0.035895223            5 
  922000   0.87761818   -5.8723331    394.15803  0.035625274   0.03587368           11 
  923000   0.88216302   -5.8552789    395.38714  0.035697647  0.035852387            6 
  924000   0.88298382   -5.8936685    393.91995  0.035526691  0.035831031           12 
  925000   0.91471514   -5.8533504    394.48459  0.035539153  0.035809724            4 
  926000   0.86322756   -5.9002725    394.83325   0.03553215  0.035787987            7 
  927000   0.89659147   -5.8893906    395.69969  0.035571709  0.035766491            5 
  928000   0.88378639   -5.8677288     394.2429  0.035402559  0.035745195            3 
  929000   0.86843279   -5.8828017     395.0976  0.035441119  0.035724101            7 
  930000   0.88843861   -5.8511922    396.77077  0.035552937  0.035702962            3 
  931000   0.87522842   -5.9065748    395.40029  0.035392078  0.035681919            7 
  932000   0.88114577   -5.8859973     395.7515  0.035385506  0.035660634            2 
  933000   0.86959987    -5.856935    395.57969  0.035332234    0.0356394            4 
  934000   0.89090598   -5.8686394    396.53348  0.035379504  0.035618136            8 
  935000   0.89059964   -5.8907337    396.55047  0.035343179  0.035596755           11 
  936000   0.88765261   -5.8795153    396.54648  0.035305064  0.035575499            5 
  937000   0.89814132   -5.8710061    397.43159  0.035346104  0.035554415            6 
  938000   0.84851112   -5.9120831    397.84253   0.03534493  0.035533368            6 
  939000   0.88423272   -5.9105963    397.02799  0.035235001  0.035512419            3 
  940000   0.88504867   -5.8990059    397.75642  0.035262094  0.035491023           12 
  941000   0.88302396   -5.9106592    397.81547   0.03522985  0.035469624            8 
  942000   0.87859516   -5.8622032    398.71458   0.03527199  0.035448402            4 
  943000   0.87847804     -5.89105    397.05381  0.035087823    0.0354272           10 
  944000   0.88170516   -5.8989276    398.11384   0.03514423  0.035405899            9 
  945000   0.89245739   -5.8755421     399.1121   0.03519507  0.035384556            7 
  946000   0.88317741   -5.8853193    398.65585  0.035117676   0.03536338            5 
  947000   0.88497023   -5.8860233    400.07948  0.035205867  0.035342253            3 
  948000   0.87224064   -5.8675241    398.96433  0.035070704  0.035321016            4 
  949000   0.87580277   -5.8981524    399.02126  0.035038748  0.035299615            9 
  950000    0.8705607   -5.8902496    400.09375  0.035095943  0.035278227           10 
  951000   0.87273908    -5.910277    399.36076  0.034994809  0.035256883           12 
  952000   0.87437613   -5.9308392    400.23507  0.035034583  0.035235465            4 
  953000   0.86976042   -5.8731013    400.87182  0.035053499  0.035214428            5 
  954000   0.85024246   -5.9032475    399.87164  0.034929389  0.035193231            4 
  955000    0.8576938   -5.9157621    400.17361  0.034919163  0.035171842            7 
  956000   0.85039554     -5.86179    401.58081  0.035005301  0.035150527            6 
  957000   0.87635407   -5.8740723    401.18581  0.034934327  0.035129243            8 
  958000   0.87226368   -5.8936455    400.83432  0.034867286  0.035108089            4 
  959000   0.88300669   -5.9221054      401.709  0.034906935  0.035086756            5 
  960000   0.87951072   -5.9061991    401.79253  0.034877824  0.035065591            6 
  961000   0.88611651   -5.9244865     401.0761  0.034779405  0.035044377           14 
  962000   0.86283107    -5.894964    401.73471  0.034800304  0.035023021            4 
  963000   0.86634221   -5.9174128    402.35676  0.034817996  0.035001726           19 
  964000   0.87970551   -5.9291446    400.59706   0.03462976  0.034980088            4 
  965000   0.86054231   -5.9087429    401.33488  0.034657589  0.034958451            5 
  966000   0.88767223    -5.900779    401.93631  0.034673594  0.034936859            5 
  967000   0.87528385   -5.9329088    401.18386  0.034572894  0.034915291            6 
  968000   0.85820668   -5.9296803    401.92446  0.034600935  0.034893912            3 
  969000    0.8592858   -5.9268528     401.4101  0.034520992  0.034872373            5 
  970000   0.87342896   -5.9189895    402.50648  0.034579595  0.034850581            5 
  971000   0.84381887   -5.9064016    402.95876  0.034582798  0.034828723            3 
  972000   0.88678406   -5.9028576    402.26491  0.034487732  0.034807144            4 
  973000   0.88173272   -5.9201408    402.07449  0.034435979  0.034785819            4 
  974000   0.86798838   -5.9368116    403.25944  0.034502005  0.034764056            4 
  975000   0.85853746   -5.9376757    402.26282  0.034381437  0.034742423            7 
  976000   0.83740427   -5.9338646    403.63161  0.034463082  0.034720938            4 
  977000   0.87656848   -5.9361061    403.12843  0.034384888  0.034699456            6 
  978000   0.86720117   -5.9377481    403.41696  0.034374315  0.034677788            6 
  979000   0.85207584   -5.9593758    402.61675  0.034271089  0.034655963           11 
  980000   0.84524325   -5.9239027    403.35007  0.034298475  0.034633839            8 
  981000    0.8674227   -5.8976994    402.84724  0.034220798  0.034611814            3 
  982000    0.8797476   -5.9229403     405.2155  0.034386923  0.034589991            3 
  983000   0.87798003   -5.9097525    404.42807  0.034285188  0.034568209            7 
  984000   0.85912256   -5.9470334    404.51279  0.034257519  0.034546323            9 
  985000   0.86399957   -5.8851467    405.94401  0.034343825   0.03452468            5 
  986000   0.85868288    -5.901699    405.54536  0.034275301  0.034503093            3 
  987000   0.87134412    -5.915091    405.14747   0.03420698  0.034481469            6 
  988000   0.85651648   -5.9090766    405.72651  0.034221197  0.034459912            5 
  989000   0.85434717   -5.9240804    406.67742  0.034266719  0.034438007            8 
  990000   0.85466435   -5.9334127     405.4852  0.034131751   0.03441619            4 
  991000   0.85612926   -5.9396161    404.84179  0.034043205  0.034394362            6 
  992000   0.86062298   -5.9248422    405.31639  0.034048756  0.034372137            4 
  993000   0.85557092   -5.9407137    405.29884  0.034012994  0.034350005            8 
  994000    0.8542301   -5.9236067    405.24804  0.033974517  0.034328074            3 
  995000   0.86933179   -5.9496335    405.37892  0.033951333  0.034306098            4 
  996000   0.86621219   -5.9099303    407.04444  0.034056596   0.03428446            7 
  997000   0.87186599   -5.9176788     406.2192  0.033953461  0.034262866            4 
  998000   0.84898629   -5.9857936    405.34258  0.033846241  0.034241223            4 
  999000    0.8633618    -5.942824     406.7695   0.03393139  0.034219562            9 
 1000000   0.85233695   -5.9481031    407.22399  0.033935332  0.034197844            5 
 1001000   0.84905485   -5.9614859    406.78763  0.033865104   0.03417604           12 
 1002000   0.85776775   -5.9467574    406.67471  0.033821915  0.034154414           13 
 1003000    0.8568112   -5.9298853    407.62167  0.033866872  0.034132999            9 
 1004000   0.85566602   -5.9587373    406.55682  0.033744756   0.03411141            8 
 1005000   0.84921489   -5.9322457    408.37739  0.033862138  0.034089649            3 
 1006000    0.8516106   -5.9672157    407.93831  0.033792107  0.034068169           11 
 1007000   0.84399132   -5.9424554    408.40871  0.033797477  0.034046658            4 
 1008000   0.85391298   -5.9626328    408.51732  0.033772927   0.03402484            4 
 1009000   0.85138452   -5.9315727    408.78732  0.033761754  0.034003211            6 
 1010000   0.82867218   -5.9781636    408.78499  0.033728135  0.033981517            6 
 1011000   0.88058213   -5.9540876    409.14604  0.033724533  0.033959847            4 
 1012000   0.85709698   -5.9350119    407.83888  0.033583571  0.033938483            6 
 1013000   0.84416895   -5.9401949    410.17193  0.033742344  0.033917391           10 
 1014000    0.8425569   -5.9465688     410.4511   0.03373201  0.033895981            5 
 1015000    0.8526903   -5.9520526    410.03797  0.033664858   0.03387464            8 
 1016000   0.85817543    -5.950829    411.25305  0.033731386   0.03385318            5 
 1017000   0.84871319   -5.9261312    410.38778  0.033627318  0.033831745            4 
 1018000   0.84186515   -5.9534634    410.37058  0.033592876  0.033810162            5 
 1019000   0.85755459   -5.9946419    409.98101  0.033528051  0.033788462            6 
 1020000   0.83890209   -5.9748219    410.14485  0.033508566  0.033766878            4 
 1021000     0.856135    -5.938982    410.27173  0.033486103   0.03374514            3 
 1022000   0.85600466    -5.970226    409.77615  0.033412928  0.033723229            6 
 1023000   0.86835663   -5.9462021    410.52753  0.033441474  0.033701284            7 
 1024000   0.85115292   -5.9482312    411.52785  0.033490222  0.033679625            5 
 1025000   0.84660852    -6.003201    409.67001  0.033306505  0.033657811            6 
 1026000   0.83366839    -5.992215    410.85203  0.033370048  0.033636072            5 
 1027000   0.82546958   -5.9696315    411.36329   0.03337904  0.033614329            5 
 1028000   0.83259814   -5.9989209    410.12361  0.033246077  0.033592541           11 
 1029000   0.84337593   -5.9552528    411.81919  0.033351084  0.033570667            7 
 1030000   0.85053305   -5.9581168    411.17621  0.033266683  0.033549029            4 
 1031000   0.85398167   -5.9668944    410.68783  0.033194942  0.033527173            8 
 1032000   0.83759066   -6.0003574    410.29415  0.033130988  0.033505296            6 
 1033000    0.8454996   -5.9839984    410.44859  0.033111374  0.033483315            7 
 1034000   0.84952807   -5.9652402    411.71018  0.033181027  0.033461447           15 
 1035000   0.83792776   -5.9739446    411.31792  0.033117385  0.033439398           10 
 1036000   0.83547079   -5.9751655    411.95375  0.033136563  0.033417168           10 
 1037000   0.85034667   -5.9688352    411.62505  0.033078195   0.03339487            5 
 1038000   0.82787899   -5.9697141    411.81296  0.033061413  0.033372818            5 
 1039000   0.84563524   -5.9736166    411.34412  0.032991989   0.03335095            4 
 1040000   0.82801046   -5.9920491    411.79368  0.032996288  0.033329033           10 
 1041000   0.84453966   -5.9747851    412.97077  0.033058819  0.033307165            7 
 1042000   0.84225701   -5.9823174    411.82946  0.032935817  0.033285369            4 
 1043000   0.82832637   -5.9610781     414.1492  0.033089581  0.033263531            7 
 1044000   0.82913123   -5.9834894    413.86916  0.033035533  0.033241767            5 
 1045000   0.82020159   -5.9783682    413.43286  0.032969127  0.033220057            6 
 1046000    0.8132325   -5.9751274    414.56972  0.033028181  0.033198337            4 
 1047000   0.84046619   -5.9735674    414.11291  0.032960276  0.033176933            7 
 1048000   0.83316273   -5.9690654    415.48746  0.033038125  0.033155567            8 
 1049000   0.83058715   -5.9574471     413.9635  0.032885566  0.033134002            8 
 1050000   0.82653325   -5.9399618    414.28385  0.032879671  0.033112513           13 
 1051000    0.8496245   -5.9637081    414.33337  0.032852313   0.03309089            4 
 1052000   0.83030037   -5.9884093     414.2473  0.032814266  0.033069424           10 
 1053000   0.83998297   -5.9820524    413.03247  0.032686963   0.03304751            4 
 1054000   0.82591323   -5.9816145    415.44932  0.032847037  0.033025693            7 
 1055000   0.82063786    -5.987753    415.08872  0.032787419  0.033003992            7 
 1056000   0.84226201   -6.0246013    414.48166  0.032708464   0.03298231            5 
 1057000   0.83020891   -6.0039617    414.07737  0.032645645  0.032960643            9 
 1058000    0.8193207   -6.0030793    414.98982  0.032686659  0.032938914            7 
 1059000   0.83198678      -6.0132    415.10923  0.032665189  0.032917073            9 
 1060000   0.83426757   -6.0422716    414.25437  0.032567168  0.032895311            5 
 1061000   0.82688968   -6.0048795    415.99711  0.032673351  0.032873474            5 
 1062000   0.83230986   -5.9938615    415.40504  0.032596127  0.032851708           10 
 1063000   0.84057199   -5.9757579    416.50201  0.032651459  0.032829942            9 
 1064000    0.8326334   -6.0281312    414.80668  0.032487991  0.032808226            7 
 1065000   0.84991718   -6.0197202    414.67312  0.032447036  0.032786325            7 
 1066000    0.8199601   -6.0363069    415.80473   0.03250506   0.03276446            7 
 1067000   0.84676813   -5.9983767    415.87253  0.032479892  0.032742812            4 
 1068000   0.84161157   -6.0132626    416.25523  0.032479341  0.032721129            6 
 1069000   0.83414035    -6.019809    416.42239  0.032461988  0.032699301            5 
 1070000   0.83003581   -6.0315671    415.73931  0.032378451  0.032677306            6 
 1071000   0.83857149    -6.028181    416.95121  0.032442516  0.032655541            5 
 1072000   0.82252441   -6.0151937    416.13618  0.032348895   0.03263374            6 
 1073000   0.82449941   -6.0262248    415.73627  0.032287688  0.032612001            6 
 1074000   0.82710486   -6.0290415    416.67444  0.032330419   0.03259032            9 
 1075000   0.83204262   -6.0310134    416.87466  0.032315865  0.032568323            6 
 1076000   0.82401433   -6.0375241    416.72417  0.032274177  0.032546465            9 
 1077000   0.81467475   -6.0213248    417.07956  0.032271708  0.032524624            6 
 1078000   0.83749296   -6.0427399    416.36197  0.032186299  0.032502602            9 
 1079000    0.8226157   -6.0190535    415.90807  0.032121414  0.032480713            6 
 1080000   0.83738576   -5.9889458    417.90576  0.032245815  0.032458794           12 
 1081000    0.8337046   -6.0083116    417.61048  0.032193222  0.032436927            6 
 1082000   0.81535808   -6.0079873    416.98481  0.032115281  0.032414907            4 
 1083000    0.8086981   -6.0665139    415.79907  0.031994388  0.032392873            8 
 1084000   0.84051552   -6.0261044    417.34411  0.032083649  0.032370775            9 
 1085000    0.7931075   -6.0332414    416.98848  0.032026765  0.032348659            6 
 1086000    0.8278551   -6.0196915    417.81496  0.032060694  0.032326541            3 
 1087000   0.81222251    -6.049989    416.01282   0.03189304  0.032304414            7 
 1088000   0.80837281    -6.027818    416.05149  0.031866689  0.032282217            9 
 1089000   0.79461976   -6.0418537    419.22746  0.032080461  0.032260252            4 
 1090000   0.83556662   -6.0280202    417.77409  0.031939915  0.032238225            5 
 1091000   0.81282385   -6.0138367    417.71202  0.031905898  0.032216127            4 
 1092000   0.82035261   -6.0092094    418.97071  0.031972735   0.03219425            3 
 1093000   0.82642866   -6.0283859     418.4985   0.03190748  0.032172203            8 
 1094000    0.8201574   -6.0135056    418.58064  0.031884571   0.03215029            2 
 1095000    0.8186157   -6.0172255    418.11696  0.031820164  0.032128477           12 
 1096000   0.81879236   -6.0860475    417.97521  0.031780353   0.03210658           12 
 1097000   0.82350683   -6.0567909    418.55545  0.031795461  0.032084459            8 
 1098000   0.81309143   -6.0371012    419.02319  0.031802003  0.032062754            4 
 1099000   0.82281516   -6.0304393    420.79492   0.03190741   0.03204101            4 
 1100000   0.81091438   -6.0346798    420.34578  0.031844377  0.032019432            3 
 1101000   0.83649045   -6.0437704    419.44086  0.031746962  0.031997786            5 
 1102000   0.80008008   -6.0329603    420.64067  0.031808883  0.031976318            9 
 1103000    0.8186591   -6.0584663    419.41308  0.031687298  0.031954713           10 
 1104000   0.80991877   -6.0273965    420.36703  0.031730603  0.031933213            8 
 1105000   0.83008885    -6.029115    419.77718  0.031657404  0.031911493            9 
 1106000    0.8110263   -6.0605577    419.95224  0.031641971  0.031889663           14 
 1107000   0.79755952   -6.0762887    419.41913  0.031573256   0.03186792            7 
 1108000   0.80527647   -6.0664099    420.08916  0.031595154  0.031846099           12 
 1109000   0.81884423   -6.0690255    418.92138  0.031478913  0.031824148           11 
 1110000    0.8014511   -6.0993956    419.92479  0.031525885  0.031802149           10 
 1111000   0.81591815   -6.0615168    419.52953  0.031467861  0.031780205           10 
 1112000   0.81685909   -6.0482788    419.87393  0.031465372    0.0317583           11 
 1113000   0.79750992   -6.0650535    420.53662  0.031486719  0.031736362            4 
 1114000   0.83183309   -6.0571468    420.52073  0.031457266   0.03171468            4 
 1115000   0.81392035   -6.0562621    421.42123  0.031496355  0.031692833            5 
 1116000   0.80415247   -6.0788474    420.73069  0.031416569  0.031671223            7 
 1117000   0.81307823      -6.0862    420.78571  0.031392547  0.031649676           10 
 1118000   0.82443425    -6.032011    422.80825  0.031515224     0.031628            9 
 1119000   0.80377102   -6.0554576    421.59691  0.031396851  0.031606517            7 
 1120000   0.82081945   -6.0907094    422.76774  0.031455933  0.031584942            7 
 1121000   0.80087499   -6.0447537    421.87457  0.031361475  0.031563234            3 
 1122000   0.79287784    -6.082053    419.93689  0.031189608  0.031541321            6 
 1123000   0.82142742    -6.068856    420.16165  0.031178513  0.031519287            5 
 1124000   0.79194776   -6.0672668    421.52143  0.031251589  0.031497443            8 
 1125000     0.804262   -6.0453382    421.65417  0.031233642  0.031475825           10 
 1126000   0.79682307   -6.0948509    422.17991  0.031244812  0.031454157            6 
 1127000   0.78959382   -6.0490492    423.27416     0.031298   0.03143269           14 
 1128000    0.8088028   -6.0545648    423.05005  0.031253698  0.031411198           10 
 1129000    0.8002026   -6.0796779     421.5356  0.031114231  0.031389781            2 
 1130000   0.80654235   -6.0628798    423.17444  0.031207555  0.031368269            7 
 1131000   0.78702181   -6.0462761    423.56603  0.031208815  0.031346776            7 
 1132000   0.82752984   -6.0622137    422.27674  0.031086333  0.031325149            5 
 1133000   0.80370395   -6.0647859    423.84969  0.031174587  0.031303523            5 
 1134000   0.79839356   -6.0768709    423.21931  0.031100772  0.031281823           12 
 1135000   0.79603429     -6.09273    422.76861   0.03104028  0.031260163            9 
 1136000   0.80045531   -6.0986546    421.80726  0.030942434  0.031238344            8 
 1137000   0.80880514   -6.0969313    422.53223  0.030968355   0.03121656           11 
 1138000   0.79824582   -6.0864436    423.64106  0.031022339   0.03119486           14 
 1139000   0.81227177   -6.1061866    422.70836  0.030926862  0.031173108           15 
 1140000   0.79014509   -6.0917014    423.76327  0.030976847  0.031151316           14 
 1141000   0.81753771   -6.0509521    423.92708  0.030961662  0.031129644            7 
 1142000   0.80654743   -6.0598702    424.42619  0.030970971  0.031107969           18 
 1143000   0.79024568   -6.0633695    424.84299  0.030974263  0.031086369           10 
 1144000   0.79924059   -6.0901206    424.01243  0.030886686  0.031064823            8 
 1145000   0.80931947   -6.0872314    424.10564  0.030866495  0.031043092            8 
 1146000   0.78315578   -6.0977418    424.48349  0.030867037  0.031021651           18 
 1147000   0.80931247   -6.0823184    423.41266  0.030762326  0.031000163            5 
 1148000   0.80630791   -6.0574533    425.72352  0.030903275  0.030978846            5 
 1149000   0.80273208   -6.1184388    423.47416   0.03071324  0.030957227           15 
 1150000   0.81702785   -6.0827495    425.13635  0.030806982  0.030935826            6 
 1151000   0.78795049   -6.1381181     424.5481  0.030737627  0.030914452            4 
 1152000   0.81467478   -6.0845043    425.11744   0.03075213  0.030893093            6 
 1153000   0.79216541    -6.111305    424.75678  0.030699391  0.030871818           10 
 1154000   0.79646098   -6.1000587    425.69663  0.030740658  0.030850447            7 
 1155000   0.78443217   -6.1115875    425.16307  0.030675546  0.030828908            7 
 1156000    0.8011789   -6.0933104    424.67775  0.030614024  0.030807415           10 
 1157000    0.8075774   -6.0673719    426.62528  0.030727836  0.030785959            8 
 1158000   0.78746329   -6.1045644    425.48916  0.030619542  0.030764707            7 
 1159000   0.77001969   -6.0626332    427.05251   0.03070553  0.030743568            9 
 1160000   0.78958139   -6.1226427    426.61127  0.030647361  0.030722397           15 
 1161000   0.78326075   -6.1266028    427.04543  0.030652127  0.030701252            9 
 1162000   0.79120901   -6.1224865    427.39811  0.030651041  0.030680138           14 
 1163000   0.79326816   -6.0723514    426.69688   0.03057444  0.030659094           10 
 1164000    0.7876338   -6.1298479    426.26137  0.030516994  0.030638097           17 
 1165000   0.79234315   -6.1049603    427.68368  0.030592538   0.03061707           10 
 1166000   0.77142773   -6.1182998    427.50125  0.030553262  0.030596019           16 
 1167000   0.78464155   -6.1278197    426.19052  0.030433485  0.030574976           15 
 1168000   0.78271011   -6.1334932    427.00069  0.030465232  0.030553935           10 
 1169000   0.78331344   -6.1158074     428.2404  0.030527545  0.030533029            7 
 1170000   0.80590255   -6.1154858    427.20918  0.030428004  0.030512316            6 
 1171000    0.7881013   -6.1243195    428.37356  0.030484882  0.030491511            5 
 1172000   0.80006214   -6.0862672    429.26749  0.030522432  0.030470783            7 
 1173000   0.78401297   -6.1243641    429.05161  0.030481075  0.030449994            7 
 1174000   0.79150463   -6.0969022    428.10965  0.030388249  0.030429212           19 
 1175000   0.77262981   -6.1291405    428.84715  0.030414692  0.030408619            7 
 1176000   0.78112232   -6.1104978    428.75695  0.030382437   0.03038787           14 
 1177000   0.78036132   -6.0861084    429.38747  0.030401265  0.030367186           10 
 1178000   0.80219233   -6.1190201    429.15104  0.030358732  0.030346422            5 
 1179000   0.76941553   -6.1098069    429.36016  0.030347764  0.030325756            6 
 1180000   0.77428345    -6.094987    428.49987  0.030261291   0.03030506            5 
 1181000   0.76849715   -6.1239858    428.50549  0.030236063  0.030284355            7 
 1182000   0.77310217   -6.1201575    428.73696  0.030226802  0.030263674            8 
 1183000   0.77761903   -6.0836328    430.30689   0.03031184  0.030242995            6 
 1184000   0.77191037   -6.1049137     428.9721  0.030192293   0.03022217           13 
 1185000   0.77525747   -6.1004192    429.07247  0.030173873   0.03020145            7 
 1186000   0.79076331   -6.1225203    429.27853  0.030162909  0.030180734           14 
 1187000   0.78010641   -6.0977805     429.6486  0.030163479  0.030159936            5 
 1188000   0.77851309   -6.1239646    428.01631   0.03002359  0.030139164           27 
 1189000   0.78063848   -6.1150175    428.62764  0.030041186  0.030118301           11 
 1190000   0.75984016   -6.1444828    428.42654  0.030001858  0.030097453            4 
 1191000   0.78734523   -6.1185589    428.94272  0.030012785   0.03007652            6 
 1192000   0.76197108   -6.1474476    428.58309  0.029962464  0.030055443           12 
 1193000   0.78321928   -6.1303066    428.99293  0.029965977  0.030034523            6 
 1194000   0.77993829   -6.1415052    428.86786  0.029932151  0.030013461            4 
 1195000   0.78195554   -6.1484223    429.85234  0.029975756  0.029992577           10 
 1196000    0.7883651   -6.1277914    430.66938  0.030007621  0.029971683           11 
 1197000   0.77958022   -6.1234159    430.33799  0.029959482  0.029950949            7 
 1198000   0.78803811   -6.1382591     429.9998  0.029910949  0.029930169            9 
 1199000    0.7743105   -6.1181029     428.9208  0.029811009  0.029909285            7 
 1200000   0.77940448   -6.1147512    430.79545   0.02991635  0.029888483            4 
 1201000   0.78104056   -6.1478824    429.90101  0.029829379  0.029867652           13 
 1202000   0.77447121   -6.1357932    431.33913  0.029904266  0.029846832            5 
 1203000   0.80403283   -6.1341261    431.26231  0.029874086  0.029825981           15 
 1204000   0.77310334   -6.1233857    430.77171  0.029815318  0.029805243           12 
 1205000   0.78269401   -6.1561084    429.41264  0.029696586  0.029784399            3 
 1206000   0.80779501   -6.1559871    430.48574  0.029746113  0.029763659           11 
 1207000   0.77137438   -6.1495606    431.13141  0.029766046  0.029742956            8 
 1208000    0.7798538   -6.1430369    430.70039  0.029711671  0.029722352           11 
 1209000   0.77236924   -6.1592601    430.65114  0.029683702   0.02970162            8 
 1210000   0.79100161   -6.1583448     430.6474  0.029658912  0.029680822            7 
 1211000   0.76008265   -6.1683571    431.76176  0.029711104  0.029660185            4 
 1212000   0.77520147   -6.1465311    432.44065  0.029733268  0.029639557            5 
 1213000    0.7670935   -6.1437278    431.80791  0.029665286  0.029618934            8 
 1214000   0.78154545    -6.161045    431.13934  0.029594957  0.029598381            7 
 1215000   0.77662266   -6.1497717    431.76121  0.029613252  0.029577771           16 
 1216000   0.76436262   -6.1595354    431.79545  0.029591245  0.029557254           10 
 1217000   0.77039774   -6.1649084    432.07605  0.029586144  0.029536689           11 
 1218000    0.7557052   -6.1728722    432.71052  0.029605263  0.029516268           11 
 1219000   0.75989152   -6.1255116    432.89958  0.029593901  0.029496028           10 
 1220000   0.76331537   -6.1433126    433.20956  0.029590817  0.029475817            9 
 1221000   0.77817373   -6.1591559    432.53064  0.029520246  0.029455486            9 
 1222000   0.75357695   -6.1252891    433.18627  0.029540799    0.0294352            6 
 1223000   0.76049603   -6.1670841    433.61108   0.02954559  0.029415005           15 
 1224000   0.75973187   -6.1872935     432.0469  0.029414958  0.029394837            7 
 1225000   0.76712476   -6.1734888    432.78721  0.029441307  0.029374686           11 
 1226000    0.7772139    -6.171799    432.93335  0.029427226  0.029354419            7 
 1227000   0.76099359   -6.1687735    432.40079  0.029367073  0.029334036            8 
 1228000   0.75420161   -6.1761839    432.06488  0.029320364  0.029313492           11 
 1229000   0.75688055   -6.1813871    433.33358  0.029382532  0.029292992            5 
 1230000   0.77352357     -6.15531    432.21909  0.029283136  0.029272626           11 
 1231000   0.75940771   -6.1869157    432.85156  0.029302163  0.029252274           11 
 1232000   0.73900274   -6.1833999    434.79011  0.029409504   0.02923201            7 
 1233000   0.76831472   -6.1886102    433.60455  0.029305525  0.029211738           11 
 1234000   0.75476998   -6.1561515    433.49414  0.029274321  0.029191669            6 
 1235000   0.75396699   -6.1451393    434.42152  0.029313193    0.0291716            6 
 1236000   0.75175773    -6.154917     433.8816  0.029253074  0.029151641           11 
 1237000    0.7629444   -6.1690683    435.01436  0.029305737  0.029131881           12 
 1238000   0.75470731   -6.1688389    435.74731  0.029331402  0.029111953            6 
 1239000   0.76239122   -6.1637383    433.96038  0.029187542  0.029091876            7 
 1240000   0.76469607   -6.1808071    434.78013  0.029219095  0.029071754            7 
 1241000   0.75680809   -6.2128126    433.09639  0.029082487  0.029051758            7 
 1242000   0.75726522   -6.1630279    434.69064  0.029166039  0.029031732           11 
 1243000   0.77747763   -6.1563718    435.53047  0.029198878   0.02901193            6 
 1244000   0.76784588   -6.1917377    435.38251  0.029165495  0.028992193            6 
 1245000   0.74668902   -6.1777896    434.35907  0.029073566  0.028972277            8 
 1246000   0.73724758    -6.196396    435.14807  0.029103001  0.028952362            6 
 1247000   0.74726068    -6.194049    433.99546  0.029002637  0.028932494           11 
 1248000   0.76432454   -6.2023682    435.41842  0.029074414  0.028912675           14 
 1249000   0.75198528   -6.1774257    435.69151  0.029069356  0.028892827            6 
 1250000   0.74546515   -6.1677608    434.70323  0.028980215  0.028872831            6 
 1251000    0.7521533   -6.2149948    434.28043  0.028928886  0.028852882            8 
 1252000   0.74880026   -6.1555949    434.75239  0.028937193  0.028833087            9 
 1253000   0.74629444   -6.1859907    435.35712  0.028954318  0.028813213           11 
 1254000   0.74787014   -6.2017423    436.40558  0.029000903  0.028793263           11 
 1255000   0.75471352   -6.2072744    436.06938   0.02895547  0.028773408           11 
 1256000   0.73933268   -6.1850168    435.80962  0.028915182   0.02875365           10 
 1257000   0.74406149   -6.1922113    435.82193  0.028892994   0.02873378            8 
 1258000   0.76304441   -6.1891915    436.89759  0.028941282  0.028713808            7 
 1259000   0.74003023   -6.2129056    435.76004  0.028842999   0.02869392           10 
 1260000   0.76636947   -6.1844568    436.24665  0.028852292  0.028674242            8 
 1261000   0.74538667   -6.1652542    436.15603  0.028823423  0.028654569            6 
 1262000   0.74381595   -6.2001656    436.56985  0.028827909   0.02863484            5 
 1263000   0.74171729   -6.2055382    436.34274  0.028790099  0.028614887            8 
 1264000   0.74146253   -6.2109303    436.49951  0.028777658  0.028594996           16 
 1265000   0.74475522   -6.2000029     436.2588  0.028739051  0.028575188            6 
 1266000   0.74664694   -6.1752535    438.33969  0.028853324  0.028555554            5 
 1267000   0.74706433   -6.1923415    436.74524   0.02872568  0.028536018            7 
 1268000   0.74752192   -6.2161391    437.70761  0.028766273  0.028516422           10 
 1269000   0.73401888   -6.2298427    437.48144  0.028728753  0.028496637            8 
 1270000   0.74323533   -6.1984648     436.4109  0.028635886  0.028476955           13 
 1271000   0.76422872   -6.2166505    437.61996  0.028692628  0.028457359           10 
 1272000   0.74059312   -6.1788046     438.1541  0.028705064  0.028437873            5 
 1273000   0.73384617   -6.2135415    437.40413   0.02863342  0.028418262            8 
 1274000   0.74164327   -6.1854039    436.55776  0.028555583  0.028398656            8 
 1275000   0.75359874   -6.1741115    437.41702  0.028589348  0.028379183            6 
 1276000   0.75418186   -6.2106287    437.81757  0.028593101  0.028359554           13 
 1277000   0.74721358   -6.2288912    438.01541  0.028583621  0.028339992            8 
 1278000   0.74639711    -6.207649    438.71454  0.028606843  0.028320329           13 
 1279000    0.7389287   -6.2589582    437.27014  0.028490366  0.028300576            7 
 1280000   0.74321697    -6.222181    437.73462  0.028498348  0.028280793           12 
 1281000   0.74226231   -6.2169691    437.90982  0.028487498  0.028261055            7 
 1282000   0.74988975   -6.2182024    436.97145   0.02840428  0.028241334            9 
 1283000   0.73307032   -6.2066982    437.51776  0.028417625  0.028221641           15 
 1284000   0.72773417   -6.2066883    439.04558  0.028494651  0.028202054            9 
 1285000   0.72804457    -6.206712    438.63989  0.028446167   0.02818257            4 
 1286000   0.73431774   -6.2028928     438.7868  0.028433567  0.028163133            7 
 1287000   0.74311057   -6.2244158    437.94271  0.028356819  0.028143692            9 
 1288000   0.74444303   -6.2343133     438.0636  0.028342624  0.028124093           11 
 1289000   0.70969368   -6.2539813     437.5878  0.028289876  0.028104407           10 
 1290000   0.73329382   -6.2419092    438.19222  0.028306991  0.028084807           13 
 1291000   0.74748573    -6.233805     438.9317  0.028332798   0.02806535            7 
 1292000   0.74455453   -6.1836492    439.34972   0.02833783  0.028046083           13 
 1293000   0.73512428    -6.246694    439.22917  0.028308144  0.028026774            7 
 1294000   0.74052221   -6.2056406     440.5168  0.028369191  0.028007492           14 
 1295000   0.73679947   -6.2449791    439.91121  0.028308315  0.027988169            7 
 1296000   0.72610046   -6.2245907    439.20584  0.028241116  0.027968802           15 
 1297000   0.74924087   -6.2407932    440.34164  0.028292318  0.027949364            7 
 1298000   0.72300676   -6.2276938    440.23327  0.028263564  0.027929997            8 
 1299000   0.73786473    -6.223274    440.03105  0.028228833  0.027910612           13 
 1300000   0.75035729   -6.2506136    439.31328  0.028161108  0.027891447           10 
 1301000   0.72085798   -6.2381391    439.64519  0.028160722  0.027872149           17 
 1302000   0.72841286   -6.2590995    438.83609  0.028087307  0.027852779           12 
 1303000   0.75094197   -6.2491871    438.82613  0.028065114  0.027833401           15 
 1304000   0.74533845   -6.2354777    440.66363  0.028161019  0.027814102           33 
 1305000   0.73914088   -6.2220801     439.6462   0.02807447  0.027794903            8 
 1306000   0.73454886   -6.2311034    440.01836   0.02807672   0.02777566           13 
 1307000   0.71855502   -6.2548203    440.14726  0.028063457  0.027756362            5 
 1308000   0.73858707   -6.2243891    441.32638  0.028117124   0.02773711            9 
 1309000   0.72400151   -6.2259386    440.85653  0.028065733  0.027718047            6 
 1310000   0.73893389    -6.220283    441.72122  0.028099314  0.027699056            8 
 1311000   0.73009093   -6.2334251    440.63669  0.028008943  0.027680081           18 
 1312000   0.73386775   -6.2168046    441.93177  0.028069853  0.027661125           22 
 1313000    0.7496257   -6.2413587    441.13946  0.027998189  0.027642148            9 
 1314000   0.72623375   -6.2288859    440.41398  0.027930872  0.027623115           11 
 1315000   0.72925037   -6.2444402    441.02298  0.027948224  0.027603882            8 
 1316000   0.72608497   -6.2684024    441.15249  0.027935188  0.027584735            6 
 1317000   0.72911843   -6.2815506    440.35021  0.027863213  0.027565492           21 
 1318000   0.73963764   -6.2667493    440.23888  0.027835033  0.027546182            8 
 1319000   0.74552248   -6.2813206    440.23488  0.027813677  0.027526993           23 
 1320000   0.70451145   -6.2687514     439.4078  0.027740392  0.027507749           14 
 1321000   0.73044936   -6.2703807    441.70874  0.027864543  0.027488602            7 
 1322000   0.72657125   -6.2583222    440.78036  0.027784944  0.027469604            7 
 1323000   0.72346515   -6.2453194    441.92741  0.027836194  0.027450616            8 
 1324000   0.72616633   -6.2711392    440.73874  0.027740354  0.027431793           12 
 1325000    0.7374909   -6.2654807    440.42858  0.027699911   0.02741286           13 
 1326000   0.71846532   -6.2561015     441.3272  0.027735495  0.027393817           15 
 1327000   0.72900045   -6.2771203    440.83772  0.027683856  0.027374795           14 
 1328000   0.72713416   -6.2577349    441.16944  0.027683825  0.027355692            5 
 1329000   0.72016271   -6.2610145    439.97965   0.02758839  0.027336568            4 
 1330000   0.72236934   -6.2767754    440.68972  0.027612138  0.027317357           13 
 1331000   0.71796362   -6.2605313    441.52999  0.027644001  0.027298068            6 
 1332000   0.73791883   -6.2810435    440.96992  0.027588208  0.027278889           12 
 1333000    0.7181879   -6.2631705    441.26356  0.027585869  0.027259687           16 
 1334000   0.73061915   -6.2890218    440.84523  0.027539057  0.027240369            5 
 1335000   0.70415185   -6.2539182    440.33652  0.027486674  0.027221097           21 
 1336000   0.70848677   -6.2931131    440.69588  0.027488515  0.027201821           14 
 1337000   0.70502351   -6.2680383    441.93245  0.027545029  0.027182648            7 
 1338000     0.722956   -6.2730944    441.22773  0.027480551   0.02716351           10 
 1339000   0.71692466   -6.2667618    441.65382  0.027486546  0.027144318           19 
 1340000   0.72145334   -6.2826298    441.33372  0.027446127  0.027125117            5 
 1341000   0.71523191   -6.2752411    441.83085  0.027456553  0.027105977            7 
 1342000   0.73287232   -6.2538058    440.77885  0.027370768  0.027086866            8 
 1343000   0.71887975   -6.2834711    441.18634  0.027375673  0.027067845           19 
 1344000   0.72134004   -6.2757567    440.93665  0.027339822  0.027048826           18 
 1345000   0.72970668   -6.3017334    440.89191  0.027316723  0.027029682            8 
 1346000   0.72033338   -6.2875584    441.35787  0.027325277  0.027010363            5 
 1347000   0.72237562   -6.2879861    441.99986  0.027344708  0.026991145            7 
 1348000   0.70537826   -6.3055658    440.64087   0.02724041  0.026971877           15 
 1349000   0.71963507   -6.2787142    440.99383  0.027242021  0.026952615           14 
 1350000   0.72045155   -6.2895691    441.52722  0.027254766  0.026933441           11 
 1351000   0.70564845   -6.2725453    442.94334  0.027321943  0.026914406           12 
 1352000   0.70242517   -6.3040389    441.37292  0.027204938  0.026895313           23 
 1353000   0.69776229   -6.3153115    441.91579  0.027218267  0.026876137            8 
 1354000   0.70780146   -6.2735923     441.4539  0.027169738  0.026856938            6 
 1355000   0.71267698   -6.3332819    441.21297  0.027134869  0.026837779            9 
 1356000   0.71962189   -6.3280065    441.42198  0.027127703  0.026818585           10 
 1357000   0.70337301    -6.273859     442.2716  0.027159887  0.026799504           11 
 1358000   0.71460949   -6.2793576    441.82304  0.027112361  0.026780479           11 
 1359000   0.71559989   -6.3110207    442.03129  0.027105181  0.026761452           12 
 1360000    0.7024836   -6.2899965     442.9221  0.027139834  0.026742401            7 
 1361000   0.70315282   -6.3098601    441.77854  0.027049874  0.026723439           15 
 1362000   0.71776356   -6.3133501    442.33366  0.027063978  0.026704505           15 
 1363000   0.71520341   -6.3004767    442.96143  0.027082503  0.026685551           17 
 1364000   0.70613905   -6.3116222     442.1231  0.027011431  0.026666685           17 
 1365000   0.71450378   -6.3237376    442.34577  0.027005236  0.026647836           21 
 1366000   0.70250549   -6.3194947    442.63152  0.027002899  0.026629007            9 
 1367000   0.70397636   -6.3310823    443.40259  0.027030151  0.026610078           20 
 1368000   0.71082077   -6.2909612    443.03749  0.026988151   0.02659115           25 
 1369000   0.69985909   -6.2872412    443.47506  0.026995073  0.026572227           23 
 1370000   0.69589424   -6.2872394    443.36437  0.026968635  0.026553434           10 
 1371000   0.70828577   -6.2893674    443.95025  0.026984576  0.026534596           14 
 1372000   0.70650459   -6.2920577    445.14474   0.02703746  0.026515891           15 
 1373000   0.71071971   -6.3164421    443.75823  0.026933614  0.026497162           15 
 1374000   0.70337375   -6.3326987    442.82281  0.026857278  0.026478368            8 
 1375000   0.70567459   -6.3290843    443.08389  0.026853569  0.026459561           11 
 1376000   0.70117871   -6.3049388    444.14443  0.026898282  0.026440848           14 
 1377000   0.72023973   -6.3168541    444.12312  0.026877458   0.02642218           11 
 1378000   0.70044775   -6.3203396    443.90034  0.026844481  0.026403494           10 
 1379000   0.71327191    -6.308419    444.45369  0.026858453  0.026384892           14 
 1380000   0.70146113    -6.303808    443.31212  0.026770055  0.026366412           11 
 1381000   0.70694559   -6.2874962    444.55963  0.026825949  0.026347955            8 
 1382000   0.70034914   -6.2923866    444.85856  0.026824563  0.026329453           10 
 1383000   0.69511511    -6.332261     443.7794  0.026740142  0.026310925           15 
 1384000    0.7158044   -6.3355089    444.11318  0.026740919    0.0262923           19 
 1385000   0.69012497   -6.3372564    443.44985    0.0266817  0.026273657            7 
 1386000   0.70304821   -6.3306417    444.21013  0.026708161  0.026255046           19 
 1387000    0.6977988   -6.3305497    445.23178  0.026750287  0.026236473           10 
 1388000    0.7089891   -6.3323383    445.11957  0.026724277  0.026217965           12 
 1389000   0.68316596   -6.3365182    444.59295  0.026673443  0.026199476           16 
 1390000   0.70259052   -6.3248022    444.74115  0.026663138  0.026180988           13 
 1391000   0.69501981   -6.3305306    443.54092  0.026572066  0.026162439           13 
 1392000   0.69907031   -6.3453756    445.23946  0.026654661  0.026143778           24 
 1393000   0.70469643   -6.3531207    443.69014  0.026542842  0.026125227           13 
 1394000   0.69750738   -6.3425321    443.60926  0.026518966  0.026106675           10 
 1395000   0.71507507    -6.352374    444.82598  0.026572639  0.026088098           18 
 1396000    0.6814991   -6.3460293    443.58871  0.026479746  0.026069575           12 
 1397000   0.69455379   -6.3372137    444.16676  0.026495273  0.026051023           25 
 1398000   0.67577254   -6.3549985    444.04799  0.026469241  0.026032462           11 
 1399000    0.6914346   -6.3365922    444.55823  0.026480714  0.026013901           28 
 1400000   0.69144112   -6.3756922    443.89342  0.026422228  0.025995364           12 
 1401000   0.69535719   -6.3824433    444.26558  0.026425505  0.025976874            7 
 1402000   0.69043037   -6.3442373    444.14582  0.026399538  0.025958336           17 
 1403000   0.69441998   -6.3518235    444.90334  0.026425715  0.025939875           11 
 1404000   0.69584001   -6.3567367    445.27513   0.02642896   0.02592153           25 
 1405000   0.67904154   -6.3353869    444.42103  0.026359491  0.025903099           14 
 1406000   0.69670191    -6.359092    444.24927  0.026330564  0.025884673           13 
 1407000   0.68691661   -6.3412844    445.21984  0.026369334  0.025866219           12 
 1408000   0.70279566   -6.3460912    444.81142  0.026326434  0.025847813           16 
 1409000   0.68933002   -6.3626875    445.57962  0.026353183  0.025829424           16 
 1410000   0.68684443   -6.3769172    445.56973  0.026333909  0.025811092           25 
 1411000   0.69270567    -6.356743    445.02331  0.026282974   0.02579278           19 
 1412000   0.69576671   -6.3607265    444.74809  0.026248117  0.025774448            6 
 1413000   0.69119784   -6.3415976    446.53327  0.026334824   0.02575619           16 
 1414000   0.69375229   -6.3707927    444.62797  0.026203911   0.02573795           18 
 1415000   0.69309888   -6.3559613    445.94764  0.026263112  0.025719734            9 
 1416000   0.70100175   -6.3550655    446.77153  0.026293051  0.025701663            8 
 1417000   0.67392672   -6.3202196     445.8988  0.026223171  0.025683599           10 
 1418000   0.69031713   -6.3623019    446.57259  0.026244275   0.02566548            8 
 1419000   0.68460848   -6.3668929    446.40642  0.026216022  0.025647352           13 
 1420000    0.6749332   -6.3796685      446.207  0.026185857  0.025629229           17 
 1421000   0.70026077   -6.3491696    446.16572  0.026165008   0.02561099           21 
 1422000   0.68579667   -6.3730525    446.29996  0.026154475  0.025592809           11 
 1423000   0.68464158   -6.3601988    445.76259  0.026104626  0.025574614           13 
 1424000   0.68717668   -6.3768949    445.25582  0.026056637  0.025556437           14 
 1425000   0.68343884    -6.334201    446.06511  0.026085679   0.02553842            8 
 1426000   0.68927975   -6.3384371     447.1742    0.0261322  0.025520364            5 
 1427000   0.68503415   -6.3357893    447.54833  0.026135735  0.025502371           18 
 1428000   0.67586695   -6.3116575    446.32092  0.026045805  0.025484343           10 
 1429000    0.6850861    -6.346199     445.8914  0.026002531  0.025466298            8 
 1430000    0.6854452   -6.3406099    446.17979  0.026001153  0.025448274           11 
 1431000   0.68055781   -6.3226309     447.2403  0.026044741  0.025430244           10 
 1432000   0.67855597   -6.3654157    446.87727  0.026005428  0.025412318           15 
 1433000    0.6751642    -6.368847    446.40028  0.025959542  0.025394331           16 
 1434000    0.6751584   -6.3548317     446.6459  0.025955713  0.025376259           10 
 1435000   0.68321108   -6.4081421    445.67443   0.02588121  0.025358143           18 
 1436000   0.67716809   -6.3672856    446.11228  0.025888595  0.025340089           14 
 1437000   0.67640264   -6.3828465    445.97903  0.025862853  0.025322025           13 
 1438000   0.68141979   -6.4204131    445.11067  0.025794545  0.025303861            8 
 1439000   0.69441059   -6.3974873    445.55783  0.025802515  0.025285655           18 
 1440000   0.68964256   -6.4067379    445.13774  0.025760286  0.025267475           24 
 1441000   0.67486835   -6.3942537    445.50319  0.025763543  0.025249329           30 
 1442000   0.69025957   -6.3885872    446.12916  0.025781852  0.025231267           17 
 1443000   0.68593549   -6.3651343    447.07653  0.025818695  0.025213247           14 
 1444000   0.67850598   -6.3771767    446.87485  0.025789176  0.025195339           13 
 1445000   0.67552724   -6.3889659    445.23728   0.02567689  0.025177319           26 
 1446000   0.68469468   -6.3858243    447.13817  0.025768682  0.025159351           45 
 1447000   0.68577718   -6.3866052     446.2372  0.025698987   0.02514148           35 
 1448000   0.68088587    -6.394845     446.4839  0.025695436  0.025123618           10 
 1449000   0.69049297   -6.3943721    447.05719  0.025710674  0.025105669           21 
 1450000   0.67552365   -6.3822911    447.42696  0.025714193  0.025087836           23 
 1451000   0.67723608   -6.3756167    448.11217  0.025735824  0.025070104           13 
 1452000    0.6734153   -6.3825108    447.37218   0.02567563  0.025052389           45 
 1453000   0.67799181   -6.3853914    448.20259  0.025705585  0.025034679           32 
 1454000   0.67590824     -6.41226    447.25726  0.025633727  0.025016852           14 
 1455000   0.67474748   -6.4150745    446.61719   0.02557945  0.024999005           14 
 1456000   0.66527647   -6.3892792    446.83374  0.025574276  0.024981152           23 
 1457000   0.68078398   -6.4035001    447.13794  0.025574122  0.024963285           15 
 1458000   0.66007548    -6.411398    447.53058  0.025579023  0.024945364            7 
 1459000   0.65870843   -6.4314337     447.0455  0.025533785  0.024927471           20 
 1460000   0.67131013   -6.3836136     447.4002  0.025536541  0.024909654           14 
 1461000   0.67069308   -6.4000974    446.55187  0.025470675  0.024891872           11 
 1462000   0.67540838   -6.4169657    447.14076   0.02548682  0.024874081           32 
 1463000   0.67770702    -6.381844    447.90936  0.025513178  0.024856317           19 
 1464000    0.6757079   -6.3829285    447.69132   0.02548334  0.024838619           14 
 1465000   0.66202759   -6.4136098    447.58407  0.025459845  0.024820906           20 
 1466000   0.66410651   -6.3999334    448.09689  0.025471628  0.024803166           13 
 1467000   0.68383321   -6.4043371    447.43816  0.025416846  0.024785464           10 
 1468000   0.66344119   -6.4072512    448.17865  0.025441567  0.024767842           23 
 1469000    0.6739308     -6.42792    447.65117  0.025394326  0.024750062            9 
 1470000    0.6658209   -6.4244664     447.6987  0.025379745  0.024732342           16 
 1471000   0.66657719   -6.4364629    446.98563  0.025322095  0.024714605           20 
 1472000    0.6627365   -6.4208385    447.72098  0.025346523  0.024696861           10 
 1473000     0.680346   -6.4277296    446.88256  0.025281883    0.0246791           10 
 1474000   0.65154552   -6.4183313    447.46408  0.025297607  0.024661416           10 
 1475000   0.67466034   -6.4171951    447.41111  0.025277464   0.02464367           22 
 1476000   0.67364998   -6.4241984    446.59395  0.025214202  0.024625901           13 
 1477000   0.67121125   -6.4220565    446.10947  0.025169796  0.024608065           16 
 1478000   0.66785536   -6.3760959    447.70737   0.02524286  0.024590308           20 
 1479000   0.66531093   -6.4210342    446.88291  0.025179339  0.024572631           22 
 1480000    0.6788367   -6.4251078    448.29135   0.02524163  0.024554979           17 
 1481000   0.67892559   -6.4022788     448.0928  0.025213415  0.024537373           12 
 1482000   0.64062706   -6.4393516    447.49568  0.025162825  0.024519724           14 
 1483000     0.653657   -6.4348827    446.88248    0.0251114  0.024502074           28 
 1484000   0.66835259   -6.4363181    447.24314  0.025114731  0.024484471           19 
 1485000   0.66542667   -6.4417213    446.73427  0.025069263  0.024466925           24 
 1486000   0.65176989   -6.4225335    448.33839   0.02514235  0.024449285           24 
 1487000   0.67109159    -6.417992    447.79065  0.025094746  0.024431719           32 
 1488000   0.66536097   -6.4289535    446.97621   0.02503227  0.024414172           12 
 1489000   0.66751683   -6.4158746      448.236  0.025085964  0.024396708           18 
 1490000   0.64062224   -6.4329969    448.45977  0.025081643  0.024379223           10 
 1491000    0.6394905   -6.4368805    447.95441  0.025036576  0.024361719           20 
 1492000   0.65973324   -6.4442052    448.26499  0.025037142  0.024344223           22 
 1493000   0.65778185    -6.444915    448.04639  0.025008171  0.024326689           11 
 1494000   0.66594963   -6.4320084    447.28656   0.02494905  0.024309185           20 
 1495000   0.65383064   -6.4704888    447.65162   0.02495271  0.024291704           45 
 1496000   0.64998401   -6.4511119    447.93655  0.024951902  0.024274144           19 
 1497000    0.6589548   -6.4211029    448.38536  0.024960218  0.024256699           22 
 1498000   0.66009528   -6.4380271    447.49034  0.024893766  0.024239341           10 
 1499000   0.64857737   -6.4528971    448.15585  0.024914156  0.024221893           15 
 1500000   0.65944933   -6.4414935    447.12954   0.02484053   0.02420434           20 
 1501000    0.6587147   -6.4526337    447.91126  0.024867381  0.024186847           12 
 1502000    0.6662907   -6.4693171    447.07267  0.024804298  0.024169407           41 
 1503000    0.6573831   -6.4314165    447.71547  0.024823435  0.024151935           13 
 1504000    0.6464164   -6.4683499      447.238  0.024780474   0.02413439           20 
 1505000   0.65649738   -6.4827594     446.4153  0.024718455  0.024116809           10 
 1506000   0.64404414   -6.4616268    447.68987  0.024772569  0.024099208           17 
 1507000   0.65793126   -6.4807106    446.93719  0.024714509  0.024081693           12 
 1508000   0.66544482   -6.4392748    447.47242  0.024727698  0.024064171           29 
 1509000   0.64852591   -6.4618375    446.79958  0.024674154   0.02404665           17 
 1510000   0.66045442    -6.442424    446.85417  0.024660826  0.024029088           16 
 1511000   0.64593173   -6.4534759    447.97991  0.024706591  0.024011588           30 
 1512000   0.63979915    -6.435773    447.86639  0.024683994  0.023994121           31 
 1513000   0.65373693   -6.4533748    448.60626   0.02470843   0.02397669           33 
 1514000   0.65933119   -6.4528439    448.64811  0.024694414  0.023959313           47 
 1515000   0.65640944    -6.442556    447.17304  0.024596977  0.023942006           12 
 1516000   0.64907026   -6.4652833    447.53065   0.02460041  0.023924712           18 
 1517000   0.64379146   -6.4693055    446.82659  0.024545517  0.023907414            9 
 1518000   0.63497281   -6.4647425    448.00188  0.024593867  0.023890076           27 
 1519000   0.62827662   -6.4389877    448.49199  0.024604564  0.023872791           17 
 1520000   0.65334986   -6.4788761    448.57522  0.024592939  0.023855564           17 
 1521000   0.64155735   -6.4496354    447.95165  0.024542606  0.023838306           18 
 1522000   0.64101911   -6.4323832    448.67469  0.024566069  0.023821003           11 
 1523000   0.63676773   -6.4405586    449.22539  0.024580072  0.023803719           32 
 1524000   0.64080348   -6.4551443    446.82132  0.024432487  0.023786458           11 
 1525000   0.65079498   -6.4796813    447.65516  0.024462031  0.023769142           15 
 1526000   0.65045423    -6.455272    447.94064   0.02446159  0.023751776           15 
 1527000     0.652577   -6.4917427    447.46872  0.024419817  0.023734447           27 
 1528000   0.63590044   -6.4836191    447.41261  0.024400775   0.02371714           16 
 1529000   0.63624178   -6.4573871    447.37528  0.024382782  0.023699875            7 
 1530000   0.65482104   -6.4593059    447.55239  0.024376492   0.02368263           16 
 1531000    0.6186959   -6.4649381     448.4716  0.024410603  0.023665437           13 
 1532000   0.63631096      -6.4721    448.28099  0.024384301  0.023648263           15 
 1533000   0.64403911   -6.4944876    448.31782  0.024370397  0.023631032           15 
 1534000   0.64157394   -6.4620608     449.1204  0.024398109  0.023613872           11 
 1535000   0.64176091    -6.487641     448.1019  0.024326922   0.02359669           17 
 1536000   0.66481052   -6.4715596    448.18319  0.024315494  0.023579487           36 
 1537000   0.64684843   -6.4744715     448.1584   0.02429833  0.023562272           16 
 1538000   0.63982882   -6.4958099    448.01703  0.024274872  0.023545075           11 
 1539000   0.63811469   -6.4831944     447.6718  0.024240405  0.023527871           17 
 1540000   0.64983807   -6.4926088    448.44307    0.0242664  0.023510715           17 
 1541000   0.63197175   -6.4707036    448.60445   0.02425938  0.023493641           15 
 1542000   0.63264903   -6.4910965    447.78754  0.024199499  0.023476503           24 
 1543000   0.63350708   -6.4985202    448.55121   0.02422506  0.023459264           25 
 1544000   0.63617572   -6.5293115    448.47868  0.024205456  0.023441974           19 
 1545000   0.64521327   -6.4996344    448.29624  0.024179948  0.023424719           30 
 1546000   0.64151492   -6.5099854    448.19284  0.024158734  0.023407482           21 
 1547000   0.64152377    -6.509044    448.47799  0.024158478  0.023390288           21 
 1548000    0.6462909   -6.4900925    447.99854  0.024117062  0.023373099           29 
 1549000   0.63451091   -6.5125202    447.23291  0.024060303  0.023355895           14 
 1550000   0.64509729   -6.5195827    447.63147  0.024066208  0.023338747           12 
 1551000   0.62943715   -6.5140978    447.56786  0.024047274  0.023321588           24 
 1552000   0.63085246   -6.4946268     447.8889  0.024049017  0.023304529           62 
 1553000   0.62846189   -6.4867873    449.45013  0.024117307  0.023287525           25 
 1554000   0.61545462   -6.5015588    448.25015  0.024037438  0.023270512           50 
 1555000    0.6367943   -6.5229316    448.94528  0.024059232   0.02325354           28 
 1556000   0.63972037   -6.5162737    448.03193  0.023994855  0.023236547           29 
 1557000   0.63085542   -6.5148459    448.42663  0.024000569  0.023219544           16 
 1558000   0.63058418   -6.5169711      447.346  0.023927364  0.023202497           26 
 1559000   0.62618859   -6.5201708    447.73187  0.023932642  0.023185449           24 
 1560000   0.63879038   -6.5164065    447.25793  0.023891984  0.023168382           23 
 1561000   0.62116701   -6.5296852    447.79909  0.023905568   0.02315139           38 
 1562000    0.6441208   -6.5069391    448.14702  0.023908825  0.023134326           38 
 1563000   0.61620082   -6.5110376      447.711  0.023870282  0.023117289           30 
 1564000   0.64490913   -6.5320366    446.54871   0.02379309  0.023100205           17 
 1565000   0.62749074   -6.5266158    447.63319  0.023835633  0.023083129           41 
 1566000   0.61802413   -6.5423992    446.06522  0.023736974  0.023066028           23 
 1567000   0.62102961   -6.5034463    448.24096  0.023837532  0.023049031           23 
 1568000   0.61929532    -6.516847    447.87811  0.023803046  0.023032084           23 
 1569000   0.62646251    -6.526814    448.00566  0.023794649  0.023015123           20 
 1570000   0.63196254   -6.5372251    448.11497  0.023785296  0.022998135           25 
 1571000   0.61915602   -6.5102393    448.58054  0.023794852   0.02298116           46 
 1572000   0.62900572   -6.5087208    448.08764  0.023753585  0.022964166           26 
 1573000   0.62904896   -6.5093104    448.54354  0.023762637  0.022947193           43 
 1574000   0.62913843   -6.5171099    448.52942  0.023746793  0.022930224           21 
 1575000   0.62692323   -6.5232935    448.69743  0.023740605  0.022913223           20 
 1576000   0.62914983   -6.5392307    447.80716  0.023678467  0.022896284           29 
 1577000   0.61353185    -6.538462    447.28633   0.02363593  0.022879332           25 
 1578000   0.62043106   -6.5321292    447.15707  0.023614125  0.022862416           21 
 1579000   0.62015185   -6.5296086    448.22635  0.023655602  0.022845501           68 
 1580000   0.62282747   -6.5462907    447.80895  0.023618616  0.022828635           14 
 1581000   0.63082725   -6.5011837    448.39586  0.023634612  0.022811786           20 
 1582000   0.61972673   -6.5475423    447.23287  0.023558411  0.022794957           14 
 1583000   0.62701427   -6.5748494    447.71595  0.023568959  0.022778107           24 
 1584000   0.63679671    -6.545428    447.88716  0.023563087  0.022761274           14 
 1585000   0.61667978   -6.5402773    447.94832  0.023551436  0.022744462           14 
 1586000   0.62921467   -6.5427077    447.63255  0.023519995  0.022727619           30 
 1587000   0.60957744   -6.5526313    448.01605  0.023525312  0.022710794           24 
 1588000   0.62016823   -6.5451821    447.72238  0.023495087  0.022693977           24 
 1589000   0.61313669   -6.5411869    448.22593  0.023506709  0.022677151           42 
 1590000   0.62762709   -6.5669103    447.34188  0.023445591  0.022660291           41 
 1591000   0.62765723   -6.5498008    447.11452  0.023418946  0.022643479           27 
 1592000    0.6127846   -6.5537663    448.72183  0.023488371  0.022626627           36 
 1593000    0.5997237   -6.5365691    447.76342  0.023423489  0.022609823           29 
 1594000    0.5991514   -6.5348308    449.05094  0.023476105  0.022593063           22 
 1595000   0.61709183   -6.5405786    448.56632  0.023436067  0.022576295           26 
 1596000   0.61683262   -6.5532382     446.8989   0.02333432   0.02255953           45 
 1597000    0.6222949   -6.5511146    447.75489  0.023364375  0.022542729           24 
 1598000   0.60764639   -6.5603135    447.60698  0.023342041  0.022525899           49 
 1599000   0.62027652     -6.57883    446.70114  0.023280234  0.022509061           28 
 1600000   0.62385062   -6.5422942    447.71579  0.023318531  0.022492213           57 
 1601000   0.60798756   -6.5930895    447.80398  0.023308556  0.022475375           76 
 1602000   0.60617087   -6.5912837    445.51609  0.023174994  0.022458494           33 
 1603000   0.61830965    -6.586917    447.65276  0.023271613   0.02244163           31 
 1604000   0.60758937   -6.5560175    446.84858  0.023215325  0.022424771           25 
 1605000   0.61924809   -6.5737329     447.4555  0.023232373  0.022407961           29 
 1606000   0.61132052   -6.5506559      447.183  0.023203767  0.022391154           46 
 1607000   0.62492059   -6.5673919    446.86807  0.023172997    0.0223743           49 
 1608000   0.59331887   -6.5688326    446.75874   0.02315292  0.022357447           70 
 1609000   0.62379817   -6.5925777    446.40378  0.023120146   0.02234056           73 
 1610000   0.61751929   -6.5673354    446.17088  0.023093731  0.022323742           33 
 1611000    0.5919868   -6.5760607    448.20069  0.023184393  0.022306951           22 
 1612000   0.61929037   -6.5657056    446.91303  0.023103444  0.022290145           60 
 1613000   0.61324763   -6.5818854    446.60351   0.02307313   0.02227335           45 
 1614000   0.62170929   -6.5948003    446.93507  0.023075954   0.02225665           41 
 1615000   0.60246225   -6.5605274    447.95791  0.023114443      0.02224           42 
 1616000   0.60835834   -6.5770544    447.41256  0.023072017   0.02222336           44 
 1617000   0.61125117   -6.5574807    447.26975  0.023050389  0.022206653           30 
 1618000   0.59546414    -6.575759    447.83588  0.023065301  0.022189987           24 
 1619000   0.60689547   -6.5663812    446.88496  0.023002108   0.02217335           26 
 1620000   0.61859779    -6.583316    447.61771  0.023025602  0.022156741           15 
 1621000   0.59113468   -6.5573933    447.77195  0.023019327  0.022140169           26 
 1622000   0.60219043   -6.5766534    448.24792  0.023029589  0.022123696           37 
 1623000   0.60273502   -6.5606041    448.26202  0.023016124  0.022107204           31 
 1624000   0.61561084   -6.5607667    447.58346  0.022967132  0.022090718           40 
 1625000   0.59344247   -6.5880774    447.27816  0.022937341  0.022074222           90 
 1626000   0.60285721    -6.554765     447.8832  0.022954243  0.022057738           39 
 1627000   0.60268922   -6.5812346    447.83162  0.022937493  0.022041291           60 
 1628000   0.60225981   -6.5799668    448.15248  0.022939828  0.022024785           95 
 1629000   0.59527795   -6.5574205    448.51225   0.02294415  0.022008338           51 
 1630000   0.60661638   -6.5684027    447.23685   0.02286487  0.021991884           54 
 1631000   0.59197977   -6.5844634    447.21463  0.022849715  0.021975382           79 
 1632000   0.59846952   -6.5860653    448.84689  0.022919061  0.021958885           39 
 1633000   0.60905864   -6.5789521    447.08831  0.022815284  0.021942422           32 
 1634000   0.60579744   -6.5788419    447.71936  0.022833505  0.021926012           23 
 1635000   0.60628448   -6.5828111    447.27283   0.02279678  0.021909608          136 
 1636000   0.59408567   -6.6052991    446.35253  0.022735968  0.021893172           28 
 1637000    0.6056364   -6.6089937    447.26931  0.022768749  0.021876736           42 
 1638000   0.59421955   -6.6122334    446.60834  0.022721222  0.021860327           54 
 1639000   0.59896889   -6.6124078    445.74246  0.022663334  0.021843875          116 
 1640000   0.61657224    -6.615438    447.37708  0.022732575   0.02182744          113 
 1641000   0.60381194   -6.6018854    447.04219  0.022701716  0.021811023           72 
 1642000   0.59605542   -6.5906991    446.60886  0.022665898  0.021794586           58 
 1643000   0.59003382   -6.5931905    446.95837   0.02266983   0.02177815           34 
 1644000   0.59864484   -6.6085469    446.25427   0.02262035  0.021761754           71 
 1645000   0.59518688    -6.607314    447.08583  0.022648725  0.021745361           63 
 1646000   0.60732608   -6.6217877    447.26708  0.022644141  0.021728987           59 
 1647000    0.6083747   -6.6278455    446.25172  0.022579018  0.021712599           43 
 1648000   0.60695837   -6.5987032    446.50466  0.022578108  0.021696215           32 
 1649000   0.59452691   -6.6061168    446.77652  0.022578154  0.021679808           37 
 1650000   0.59691029   -6.6059814    447.42001   0.02259697  0.021663416           36 
 1651000   0.58774013   -6.6172608    446.67388  0.022545623  0.021647037          126 
 1652000   0.58372887   -6.5989309    446.71654  0.022534127  0.021630683          132 
 1653000   0.59017124   -6.6210461    446.26036  0.022497497  0.021614223           71 
 1654000   0.58393584   -6.6076219    446.51535  0.022496743  0.021597832          112 
 1655000   0.58109712   -6.6292151    447.10431  0.022512805  0.021581473           99 
 1656000   0.60273634   -6.6379827    447.29771  0.022508943  0.021565141           69 
 1657000   0.59698374   -6.6150466     447.4889  0.022504974  0.021548872          178 
 1658000   0.59886862   -6.6119927    447.04791  0.022469235  0.021532571          184 
 1659000   0.59790025    -6.610044    446.90821  0.022448675   0.02151624          172 
 1660000   0.59886449   -6.6265467    446.44787  0.022412041  0.021499909           87 
 1661000   0.58625565   -6.6251171    445.99841  0.022375999  0.021483613           88 
 1662000   0.60299098   -6.6186166    446.17322  0.022371301  0.021467289          142 
 1663000   0.57503008   -6.6243205      446.312  0.022364803  0.021451016           86 
 1664000   0.59941428   -6.6218634    446.51213  0.022361385  0.021434767           77 
 1665000   0.60632375   -6.6282079     446.1841  0.022331537  0.021418477           90 
 1666000    0.5844213   -6.6170559    445.75878  0.022296858   0.02140217           94 
 1667000   0.58928414   -6.6184971    446.37807  0.022314441  0.021385864          108 
 1668000   0.59057376   -6.6294564    446.85554  0.022324917  0.021369627           41 
 1669000   0.58632718   -6.6115716    445.75713  0.022256697   0.02135341           52 
 1670000   0.59235372   -6.6384297    446.12539  0.022261746  0.021337192          109 
 1671000   0.59205583   -6.6388903    445.82306  0.022233346  0.021321012           81 
 1672000   0.59336488   -6.6358385    445.66914  0.022212377  0.021304823           59 
 1673000   0.58725702   -6.6343845    446.12572  0.022221843   0.02128864          103 
 1674000   0.58464215   -6.6386998    446.65432  0.022234882  0.021272499           73 
 1675000   0.59272705   -6.6672351    446.25794  0.022201887  0.021256338           84 
 1676000   0.58363533    -6.654609     446.6795  0.022209601  0.021240192           45 
 1677000   0.57423367   -6.6340774    445.90266  0.022157755  0.021224037           96 
 1678000   0.58613176     -6.65906    446.54415  0.022176408  0.021207906           93 
 1679000   0.58078936   -6.6520948    446.45129  0.022158591  0.021191744          236 
 1680000   0.57963951   -6.6480742    446.21381  0.022133621  0.021175618          139 
 1681000   0.57140834   -6.6546731    445.37644  0.022078943  0.021159526          169 
 1682000   0.59487258   -6.6326599    447.48659  0.022170362  0.021143424          231 
 1683000   0.57502504    -6.648306    446.46658  0.022106683  0.021127301          240 
 1684000   0.57870407   -6.6618355    446.46632  0.022093543   0.02111119          295 
 1685000   0.58308132   -6.6414414    446.91482  0.022102612  0.021095095          122 
 1686000   0.58028144   -6.6402338    446.38525  0.022063328  0.021079081          189 
 1687000   0.58224887   -6.6584874     446.8857   0.02207497  0.021063059          318 
 1688000   0.56939077   -6.6596745    445.06623  0.021972069  0.021047049           82 
 1689000   0.58112775   -6.6637063    446.69605  0.022039474     0.021031          206 
 1690000   0.58677557   -6.6712521    446.00588    0.0219924  0.021014992          207 
 1691000   0.58341599   -6.6823631    445.05867  0.021932716  0.020998988           62 
 1692000   0.57755443   -6.6626791    446.07627  0.021969871  0.020982962          270 
 1693000   0.57726237   -6.6613053     446.1736  0.021961685  0.020966958          200 
 1694000   0.57642744   -6.6664107    445.48124  0.021914661  0.020950987          226 
 1695000   0.57412979   -6.6685588    446.70596  0.021961945  0.020935052          219 
 1696000   0.58109602   -6.6741576    446.38282  0.021933118   0.02091908          268 
 1697000   0.57611153   -6.6431603    446.45293  0.021923636  0.020903112          245 
 1698000   0.59065448    -6.663601    445.27001   0.02185267  0.020887176          139 
 1699000   0.57193427   -6.6765913     445.7862  0.021865127  0.020871154          199 
 1700000    0.5726207   -6.6776186    445.62911  0.021844564  0.020855159          195 
 1701000   0.57118055   -6.6722402    445.18287   0.02180986  0.020839173          216 
 1702000   0.59008654   -6.6782114    445.48934  0.021812052  0.020823179          308 
 1703000   0.57117644   -6.6715144    444.37188  0.021744563  0.020807173          101 
 1704000   0.58535966   -6.6884102    445.68784  0.021796158  0.020791157          176 
 1705000   0.58420953   -6.6799227    445.10945  0.021755105  0.020775209          172 
 1706000   0.58174415   -6.6781853    445.19367  0.021746467  0.020759261          185 
 1707000   0.57343333    -6.687853    444.76482  0.021712791  0.020743327          102 
 1708000   0.57413866    -6.677662     445.3837  0.021730274   0.02072742           52 
 1709000   0.57952491   -6.6980086     445.1141  0.021704413  0.020711498           41 
 1710000   0.58781936   -6.6973458    444.96544  0.021684476  0.020695586          254 
 1711000    0.5688999   -6.7003374    444.80002  0.021663746  0.020679694           92 
 1712000   0.57978661   -6.6838882    445.21662   0.02167137  0.020663845           46 
 1713000   0.57121725   -6.6821029    445.34009  0.021664725   0.02064802           64 
 1714000   0.56587663   -6.6742113    444.96039  0.021633625  0.020632206          167 
 1715000   0.56964597   -6.6847547    445.22251  0.021633747  0.020616434          144 
 1716000    0.5776624   -6.6879967    445.55034   0.02163706  0.020600639          206 
 1717000   0.57177492   -6.7057964    445.46432  0.021620284  0.020584827           90 
 1718000   0.57216372   -6.7043575    445.23268  0.021596463  0.020569001          216 
 1719000   0.56929854   -6.7087492    445.93082  0.021617744  0.020553197          101 
 1720000   0.58101635   -6.6846073    445.69154  0.021593582  0.020537447          140 
 1721000   0.55880901   -6.6612026    446.60997  0.021625507  0.020521748          261 
 1722000   0.55109191   -6.6785523    445.61324  0.021564713  0.020506069          203 
 1723000   0.56900611   -6.7000637    445.01274  0.021523155  0.020490367           81 
 1724000   0.56313701   -6.6856351    445.51256   0.02153483  0.020474666           80 
 1725000   0.56023825   -6.7061909    445.05385  0.021500186  0.020458972          145 
 1726000    0.5616141   -6.6856416    444.74624  0.021472878  0.020443307          184 
 1727000    0.5619385   -6.6945898      445.738    0.0215083  0.020427643           79 
 1728000   0.57340641   -6.7138685    443.68805  0.021396993  0.020411975          117 
 1729000   0.56839773   -6.6986069    445.14363  0.021454773  0.020396305          128 
 1730000   0.56633175   -6.6954079    446.32306  0.021499184  0.020380654          163 
 1731000   0.56546877   -6.7082816    445.43736  0.021444125  0.020365008          190 
 1732000    0.5613118   -6.7087445    445.27194  0.021423785  0.020349411          160 
 1733000   0.55896561   -6.6984497     445.6203  0.021428174  0.020333833          115 
 1734000   0.55736585   -6.6906129    445.52729  0.021411346  0.020318232          173 
 1735000   0.55688862   -6.7057704    445.33108  0.021389581  0.020302664          179 
 1736000   0.54910701   -6.6978997    445.45476  0.021383197  0.020287106          151 
 1737000    0.5680213   -6.6889793    445.08107  0.021352959  0.020271566          137 
 1738000   0.56041785   -6.6855252    445.66757  0.021368794  0.020256038          177 
 1739000   0.57383225   -6.7009769    445.25007  0.021336499  0.020240511           88 
 1740000   0.56404518   -6.6843622    446.71839  0.021394559  0.020224999           63 
 1741000     0.560815   -6.6976353    446.31339  0.021362885  0.020209515           67 
 1742000   0.55104704   -6.6891392    446.07693   0.02133931  0.020194068           86 
 1743000   0.55269094   -6.7069725    445.69816  0.021308958  0.020178594          214 
 1744000   0.56325407   -6.7032388    446.13278  0.021317507  0.020163125           97 
 1745000   0.54576916   -6.7202287    445.01854  0.021252079  0.020147648          111 
 1746000   0.55890644   -6.6889479     446.2398  0.021298196  0.020132228           56 
 1747000   0.54942838   -6.7197099    445.53087  0.021252188  0.020116801           89 
 1748000   0.54721321   -6.7049673    444.99174  0.021214328  0.020101369          115 
 1749000   0.55167832   -6.7160793    445.21637  0.021212901  0.020085937           91 
 1750000   0.55031246   -6.7221969    445.94557  0.021235503  0.020070527           82 
 1751000   0.55107299   -6.7256123    444.98817  0.021177811  0.020055162          113 
 1752000   0.55021104    -6.702879    445.72608  0.021200822  0.020039805          182 
 1753000   0.54565793    -6.701129    445.59595  0.021182542  0.020024502           44 
 1754000   0.54526232   -6.7190465    444.92712  0.021138689  0.020009225          104 
 1755000   0.54923375   -6.7157845    445.67178  0.021162003   0.01999391          100 
 1756000   0.54904686   -6.7263178     446.3913  0.021184097  0.019978627          120 
 1757000   0.55907903   -6.7137603    445.34951  0.021122629  0.019963303          282 
 1758000   0.55216397   -6.6907601    444.89917  0.021089267  0.019947995          146 
 1759000   0.55588698   -6.7048349    446.10418  0.021134365  0.019932766          226 
 1760000   0.54755278   -6.6994621    445.23483  0.021081195  0.019917548          141 
 1761000   0.55573667    -6.725429    444.98345  0.021057328  0.019902297          188 
 1762000   0.55170629   -6.7224607    445.54753  0.021072055  0.019887063          105 
 1763000   0.55561195   -6.7475737    443.90683   0.02098255  0.019871863          126 
 1764000   0.55524641   -6.7423831    445.35225  0.021038939   0.01985665          216 
 1765000   0.55082527   -6.7062096    446.01901  0.021058499  0.019841442          124 
 1766000   0.55082475   -6.7265442    445.12083  0.021004192  0.019826238          207 
 1767000   0.54005863   -6.7217971    445.58531   0.02101421  0.019811037          152 
 1768000    0.5532678   -6.7142263    445.53909  0.021000145  0.019795875          326 
 1769000   0.56194806   -6.7094169    444.55847   0.02094208  0.019780692          204 
 1770000   0.55331238    -6.714386    445.30875  0.020965572  0.019765499          220 
 1771000   0.54381994    -6.736405    445.47656   0.02096163  0.019750331          262 
 1772000    0.5456545   -6.7455257    445.21637  0.020937564  0.019735158          216 
 1773000    0.5356565   -6.7318929    445.10039  0.020920304  0.019720018          236 
 1774000   0.54245922    -6.735167     445.3503  0.020920251  0.019704895          186 
 1775000   0.53789423   -6.7285468    444.39644  0.020863683  0.019689759          128 
 1776000   0.54244245   -6.7493862    444.56298   0.02085975  0.019674636          274 
 1777000    0.5391033   -6.7408269    445.23461  0.020879507  0.019659511          208 
 1778000   0.53954879   -6.7400785    444.70725  0.020843047  0.019644401          251 
 1779000   0.54408196   -6.7410953     444.2678  0.020810746  0.019629335          358 
 1780000   0.55372826   -6.7365041    444.70114  0.020819342   0.01961427          348 
 1781000   0.54525845   -6.7470747    444.15697   0.02078219  0.019599179          293 
 1782000   0.54582564    -6.757402    444.55453   0.02078912  0.019584098          433 
 1783000   0.54500738   -6.7394302    444.54566  0.020777045  0.019569026          294 
 1784000   0.54423206   -6.7259854    444.62385  0.020769051  0.019553949          271 
 1785000   0.55305669   -6.7236605    445.06868  0.020778183  0.019538903          212 
 1786000   0.54797179   -6.7592728    443.52613  0.020694575  0.019523864          278 
 1787000   0.53296703   -6.7497695    443.68491  0.020690399  0.019508813          436 
 1788000   0.54616526   -6.7522112    444.40299  0.020712294  0.019493781          322 
 1789000   0.52369902   -6.7526355     444.2526  0.020693712  0.019478732          376 
 1790000   0.53916334   -6.7698179    444.20205  0.020679798   0.01946372          234 
 1791000   0.52696337    -6.764003    444.49774  0.020682009  0.019448711          371 
 1792000   0.54029097   -6.7711288    443.53103  0.020625513  0.019433738          281 
 1793000   0.53896629   -6.7797279    443.79689  0.020626366  0.019418724          292 
 1794000   0.54320245   -6.7620345    444.41611  0.020643632  0.019403731          413 
 1795000   0.53965166    -6.760444    444.62818  0.020641977  0.019388793          324 
 1796000   0.52899028   -6.7568998    444.35044  0.020617596  0.019373829          279 
 1797000   0.53523618   -6.7864943    443.77215  0.020579306  0.019358869          249 
 1798000   0.54016916   -6.7635868    443.28052  0.020545074  0.019343907          370 
 1799000   0.54046928   -6.7575331    444.10083  0.020571652  0.019328948          247 
 1800000   0.54233673   -6.7553797    444.79814  0.020592507  0.019314004          388 
 1801000   0.53536437   -6.7618549    444.24022  0.020555257  0.019299095          238 
 1802000   0.53772331   -6.7652296    443.31579    0.0205011  0.019284198          191 
 1803000    0.5386444   -6.7639962    443.34471  0.020491066  0.019269299          416 
 1804000   0.53393832   -6.7765945    444.24526  0.020521307  0.019254427          435 
 1805000    0.5337222   -6.7779787    444.66939  0.020529519  0.019239575          370 
 1806000   0.53781756    -6.754018    444.55982  0.020513096   0.01922473          285 
 1807000   0.53472726   -6.7713708    443.95744  0.020473964   0.01920987          382 
 1808000      0.52756   -6.7691395    443.68164  0.020449928  0.019195029          202 
 1809000   0.52372923   -6.7995163    442.19009  0.020369914  0.019180186          437 
 1810000   0.52416398   -6.7662261    443.41001  0.020414825  0.019165387          229 
 1811000   0.51687224   -6.7860593    443.62149  0.020413284  0.019150583          191 
 1812000   0.52765338    -6.765299    444.42527  0.020438984  0.019135791          225 
 1813000   0.54229491   -6.7846396    442.99668  0.020362046  0.019120979          332 
 1814000   0.52824474   -6.7767749    443.05297  0.020353407  0.019106173          256 
 1815000   0.53271067   -6.7804234    443.52183   0.02036372  0.019091355          289 
 1816000   0.53876193    -6.776552    443.13791  0.020334889  0.019076574          255 
 1817000   0.52459199   -6.7548162    443.29514  0.020330909  0.019061797          389 
 1818000   0.51411941   -6.8078642    442.50765  0.020283629  0.019047022          391 
 1819000    0.5294893    -6.802648    443.48974   0.02031747  0.019032271          446 
 1820000   0.52348546   -6.7928369    442.98826  0.020283345  0.019017542          470 
 1821000   0.53790509    -6.792166    442.96853  0.020271304  0.019002831          403 
 1822000    0.5312949   -6.7809509    442.75519   0.02025042  0.018988112          534 
 1823000   0.54134973   -6.7904931    442.74613  0.020238898  0.018973424          368 
 1824000   0.52594288   -6.7869681    442.47915  0.020215604  0.018958786          418 
 1825000   0.52781542   -6.7948498    443.64829  0.020257913  0.018944149          400 
 1826000   0.52559349   -6.8008809     443.8028   0.02025387   0.01892952          184 
 1827000   0.52054374   -6.7994591    443.66803  0.020236637  0.018914905          304 
 1828000   0.51816033   -6.7910591    443.75838  0.020229686  0.018900311          482 
 1829000    0.5240928   -6.8084302    443.34355  0.020199724  0.018885693          425 
 1830000   0.51992089   -6.8057457    444.00215  0.020218677  0.018871087          479 
 1831000   0.51971334   -6.7910138    443.50852  0.020185168  0.018856497          405 
 1832000   0.51302414   -6.7988141    443.66531  0.020181282  0.018841915          563 
 1833000   0.52061896   -6.8118585     443.2108  0.020149609  0.018827332          507 
 1834000   0.51303871   -6.8188825     444.0687  0.020177603  0.018812797          287 
 1835000   0.51494126   -6.8009361    443.55805  0.020143417  0.018798238          502 
 1836000    0.5261895   -6.8169258    443.24423  0.020118202  0.018783698          547 
 1837000   0.51178304   -6.8008512    443.11429  0.020101356  0.018769142          494 
 1838000   0.52062051   -6.8034801    443.00001  0.020085238  0.018754609          595 
 1839000   0.51460335   -6.8274062    442.71152  0.020061243  0.018740076          617 
 1840000   0.52400071   -6.8022008    442.91953  0.020059761  0.018725553          472 
 1841000   0.51711551   -6.8091094     443.1855  0.020060905  0.018711056          483 
 1842000    0.5211625   -6.8011088    443.03728  0.020043308  0.018696581          534 
 1843000   0.50748679   -6.8103018      443.606  0.020058148   0.01868208          414 
 1844000   0.51551177   -6.7982268    442.75007   0.02000859  0.018667604          578 
 1845000    0.5174285   -6.8150139    442.75524  0.019997979  0.018653149          511 
 1846000   0.51324389   -6.8262501    442.29337  0.019966295  0.018638698          540 
 1847000   0.51028334    -6.799028    441.78215   0.01993242  0.018624253          632 
 1848000   0.51051233   -6.8133124     442.9909  0.019976141  0.018609858          551 
 1849000   0.50912291      -6.8131    443.01017  0.019966206  0.018595459          506 
 1850000   0.51860777   -6.8127434    442.11648  0.019915157  0.018581053          511 
 1851000    0.5159765   -6.8186041    442.43807  0.019918876  0.018566667          657 
 1852000   0.51196492   -6.8090218     442.9068  0.019929212  0.018552302          607 
 1853000   0.51303347   -6.8191545    442.44364  0.019897627  0.018537907          612 
 1854000    0.5153229   -6.8194158    442.66457  0.019896825  0.018523551          563 
 1855000   0.49847147   -6.7997136    443.47714  0.019922603  0.018509226          621 
 1856000   0.50572409   -6.8038693    442.75245   0.01987933   0.01849493          668 
 1857000   0.50327281   -6.8132917    442.37892  0.019851863   0.01848063          623 
 1858000   0.50644855   -6.8129863    442.80581  0.019860325  0.018466362          607 
 1859000   0.50478643   -6.8120085    442.44212  0.019833339  0.018452072          567 
 1860000   0.51262098   -6.8301048    442.97843  0.019846704  0.018437829          500 
 1861000   0.51069027   -6.8292503    441.86566  0.019786211  0.018423585          591 
 1862000   0.50143123   -6.8198329    442.43151  0.019800909  0.018409345          493 
 1863000   0.50561196   -6.8214103     442.7025  0.019802402  0.018395131          503 
 1864000   0.50590555   -6.8210332    442.75334  0.019794051   0.01838092          577 
 1865000   0.50398745   -6.8061465    443.21119  0.019803896  0.018366746          567 
 1866000   0.49799277   -6.8267687    443.79786  0.019819483  0.018352588          566 
 1867000   0.51283905   -6.8202965     443.2496  0.019784396  0.018338393          643 
 1868000    0.5115981    -6.843087    443.03361  0.019764169  0.018324203          593 
 1869000   0.49015228   -6.8229391    443.19255  0.019760681  0.018310032          573 
 1870000   0.50422248    -6.822858    443.41066  0.019759833  0.018295879          569 
 1871000   0.50321461   -6.8250631    443.58513  0.019757043  0.018281767          558 
 1872000   0.51099809   -6.8266892    442.55207  0.019700502  0.018267628          558 
 1873000   0.51291565   -6.8485338    442.69982  0.019696557  0.018253503          314 
 1874000   0.49663123     -6.82766    442.57508    0.0196805  0.018239387          498 
 1875000   0.50472075   -6.8331991    442.70298  0.019675688  0.018225274          509 
 1876000   0.49553831   -6.8300456    441.57259  0.019614987   0.01821118          565 
 1877000   0.49973661   -6.8451999    442.51554  0.019646401  0.018197105          564 
 1878000   0.51250519   -6.8411869    441.99814  0.019612981   0.01818302          660 
 1879000   0.51528046    -6.843316    442.06759  0.019605623  0.018168958          692 
 1880000   0.50092131   -6.8453665     441.8253  0.019584455  0.018154861          624 
 1881000   0.49401277   -6.8327278    442.60252  0.019608476   0.01814079          651 
 1882000    0.5066582   -6.8460502    441.66487  0.019556539  0.018126734          699 
 1883000   0.50897593   -6.8517291    442.72039  0.019592866  0.018112706          656 
 1884000   0.49344219   -6.8502342     442.3381  0.019565556  0.018098679          638 
 1885000   0.50023178   -6.8374235      442.326  0.019554642   0.01808467          716 
 1886000    0.5022576   -6.8520747    441.87839  0.019524496   0.01807065          716 
 1887000   0.49984146    -6.850474    442.48398  0.019540893  0.018056653          672 
 1888000   0.50985016   -6.8549723    442.29992  0.019522419  0.018042661          689 
 1889000   0.49630105   -6.8621088    442.12881  0.019504535  0.018028688          699 
 1890000   0.49647227   -6.8625639    441.43126  0.019463459   0.01801472          754 
 1891000   0.49162233   -6.8583291    442.11893  0.019483471  0.018000765          785 
 1892000   0.48811286   -6.8568504    441.81788  0.019459914  0.017986813          782 
 1893000   0.49186067   -6.8460553    441.76436  0.019447278  0.017972862          770 
 1894000   0.50204435   -6.8499331    441.86556  0.019441462  0.017958915          709 
 1895000   0.49708577   -6.8687881    441.90083  0.019432754  0.017945024          769 
 1896000   0.49252382   -6.8655486    442.03807  0.019428537  0.017931094          714 
 1897000   0.48776431    -6.844892    441.38404  0.019389564  0.017917193          803 
 1898000   0.49959371   -6.8536391    441.57792  0.019387861  0.017903299          772 
 1899000   0.49515184   -6.8588278     442.5183  0.019418918  0.017889429          758 
 1900000   0.49114445   -6.8589086    441.62515  0.019369524  0.017875578          692 
 1901000   0.50936895   -6.8617639    441.81904  0.019367834  0.017861721          834 
 1902000   0.47862675    -6.858774    441.54311  0.019345562  0.017847886          737 
 1903000   0.49103052   -6.8489889    441.94131  0.019352833  0.017834067          784 
 1904000   0.49529199   -6.8608571    441.46762  0.019321937  0.017820272          790 
 1905000   0.48854164   -6.8654318    440.67304  0.019277036  0.017806467          824 
 1906000   0.49066295   -6.8729899    441.74993  0.019314005  0.017792686          753 
 1907000   0.48832444   -6.8621237    441.08007  0.019274605  0.017778914          847 
 1908000   0.49457899   -6.8673841     441.8375  0.019297585  0.017765146          719 
 1909000    0.4941759   -6.8679962    442.11101  0.019299415  0.017751383          782 
 1910000   0.49856362   -6.8794641    441.36273  0.019256663   0.01773765          800 
 1911000   0.50202581    -6.854355     440.8515  0.019224294  0.017723913          809 
 1912000   0.49035713   -6.8777421    441.51871  0.019243319  0.017710187          782 
 1913000   0.49417319   -6.8648578    442.03653  0.019255817  0.017696459          779 
 1914000   0.48057536   -6.8835559    441.45825  0.019220578  0.017682768          802 
 1915000   0.48509604   -6.8704636     441.2016  0.019199373  0.017669068          843 
 1916000   0.49080665   -6.8654848    440.97691   0.01917958  0.017655385          861 
 1917000   0.49397569   -6.8814108    441.05897  0.019173142   0.01764173          895 
 1918000   0.48274203   -6.8754679    440.84086   0.01915367   0.01762808          898 
 1919000   0.48658154   -6.8725663    441.79211  0.019184997  0.017614447          828 
 1920000   0.47621848   -6.8634977    441.60004  0.019166668  0.017600826          826 
 1921000   0.46830128   -6.8910309    441.18637  0.019138746  0.017587202          877 
 1922000   0.48483904   -6.8688054    441.44153  0.019139851  0.017573586          836 
 1923000   0.48849867   -6.8744709    441.42207  0.019129055  0.017560003          841 
 1924000   0.50056025   -6.8961786    441.36337   0.01911657   0.01754641          867 
 1925000   0.48325975   -6.8754581    441.30582  0.019104148  0.017532847          912 
 1926000   0.48790106   -6.8859119    440.86395   0.01907511   0.01751928          915 
 1927000   0.46554166   -6.8904175    441.07086  0.019074159  0.017505705          751 
 1928000   0.48534982   -6.8831413    441.50452   0.01908301  0.017492142          897 
 1929000   0.48140071   -6.9085098    440.93385  0.019048464  0.017478596          909 
 1930000   0.47473594   -6.8891859    440.99762  0.019041348  0.017465037          830 
 1931000   0.48236286   -6.8887573      440.966  0.019030123  0.017451488          978 
 1932000   0.48325769   -6.8950843    440.45758  0.018998343  0.017437954          849 
 1933000   0.48456724   -6.9033865    440.86623  0.019006132  0.017424423          843 
 1934000   0.48221364   -6.8939817     440.3573  0.018974375  0.017410913          890 
 1935000   0.47536922   -6.8710935    441.14569  0.018998522  0.017397412          878 
 1936000   0.48235621   -6.8877819    440.90524  0.018978359  0.017383945          911 
 1937000    0.4797809    -6.903718     440.6716   0.01895851  0.017370489          852 
 1938000   0.45993877   -6.9071087     440.6438  0.018947532  0.017357017          872 
 1939000   0.48322057   -6.8950976    439.55577  0.018890999  0.017343564          961 
 1940000   0.47497004   -6.8938088    440.62505  0.018927193  0.017330137          768 
 1941000   0.47980717   -6.9061681    440.85547  0.018927334   0.01731672          876 
 1942000   0.47064972    -6.898421    441.04555  0.018925744  0.017303316          852 
 1943000   0.48162647   -6.9043914    440.96674  0.018912624  0.017289903          792 
 1944000   0.47075464   -6.8985164    440.01817  0.018862233  0.017276522          818 
 1945000   0.47715694   -6.8953621    440.40724  0.018869205  0.017263155          859 
 1946000   0.47714233   -6.8991108      440.716   0.01887273  0.017249769          865 
 1947000   0.46932563   -6.8959011    440.26315  0.018843655  0.017236398          889 
 1948000    0.4781339   -6.8901517    441.35443  0.018880665  0.017223066          753 
 1949000   0.47714715   -6.9053207    440.51938  0.018835274  0.017209747          831 
 1950000   0.47647814   -6.8973935    440.53576  0.018826315  0.017196428          870 
 1951000   0.46388403   -6.9089783    441.19651  0.018844888  0.017183114          891 
 1952000   0.47456929   -6.9116816    441.12754  0.018832289  0.017169812          902 
 1953000   0.46823935   -6.9047022      440.284  0.018786653  0.017156539          832 
 1954000   0.46571657   -6.9049858    440.40043  0.018782004  0.017143256          905 
 1955000   0.47817731    -6.909065    440.76636  0.018787995  0.017129978          826 
 1956000    0.4738589   -6.9033388     441.1267  0.018793741  0.017116715          813 
 1957000   0.46961735   -6.9156646     440.6301  0.018762992  0.017103472          818 
 1958000   0.47638903   -6.9139853    440.35499    0.0187417  0.017090234          827 
 1959000   0.47690507   -6.8942051    440.00919  0.018717423  0.017077022          815 
 1960000   0.47896486   -6.9006086    440.48306  0.018728021   0.01706382          894 
 1961000   0.47520727   -6.9019846     440.5103  0.018719628  0.017050624          853 
 1962000   0.46802132   -6.9110274    440.70291  0.018718268   0.01703745          893 
 1963000   0.47845374   -6.9088272    440.23586  0.018688906   0.01702427          845 
 1964000   0.47336007   -6.9167748    440.42498  0.018687414  0.017011098          829 
 1965000    0.4677051   -6.9055186    439.98269  0.018659147  0.016997939          908 
 1966000   0.47683722   -6.9177536    440.10923   0.01865502  0.016984805          829 
 1967000   0.47314451   -6.9046723     441.4987  0.018704402   0.01697168          868 
 1968000   0.46717258   -6.9075906    439.98148  0.018630652  0.016958556          870 
 1969000   0.45896496   -6.9190473    439.95673  0.018620142  0.016945449          943 
 1970000   0.46543287   -6.9091928    440.33198  0.018626564  0.016932351          935 
 1971000   0.46635401    -6.905358    440.69142  0.018632311  0.016919262          911 
 1972000   0.46585793    -6.930531    440.08319   0.01859716  0.016906182          940 
 1973000   0.46059935   -6.9224478      440.222  0.018593597  0.016893115         1023 
 1974000   0.47091572   -6.9119548    440.19447  0.018583015  0.016880049          952 
 1975000   0.46982973   -6.9303433    440.15834  0.018572082  0.016866991          899 
 1976000   0.46344649   -6.9179544    440.14944  0.018562308  0.016853956          919 
 1977000   0.46171809   -6.9348053    439.79941  0.018538164  0.016840927         1027 
 1978000   0.46557234   -6.9089242    439.31231  0.018508271  0.016827917          914 
 1979000   0.46009714   -6.9241604    439.75201  0.018517433  0.016814914         1026 
 1980000    0.4549983   -6.9290379    440.15822  0.018525178  0.016801917          975 
 1981000   0.45641773   -6.9187588     439.7737  0.018499651  0.016788928          963 
 1982000   0.45247597   -6.9323098     439.8345  0.018492873   0.01677596         1016 
 1983000   0.46135706   -6.9230765    439.92336  0.018487282  0.016762988         1004 
 1984000   0.46666108   -6.9266005    439.59174  0.018464035  0.016750025         1058 
 1985000   0.46569525   -6.9208615    439.88082  0.018466869  0.016737076         1060 
 1986000   0.45452379   -6.9356081    439.86412   0.01845687  0.016724146          960 
 1987000   0.45668415   -6.9415983    439.33313  0.018425311  0.016711227          973 
 1988000   0.45176117   -6.9390641    439.65867  0.018429689  0.016698308         1019 
 1989000   0.45871677   -6.9408446    439.04993  0.018394919  0.016685391         1105 
 1990000   0.44765521   -6.9391366    439.86457   0.01841979  0.016672489         1075 
 1991000   0.45923745   -6.9482919    439.87743  0.018411076  0.016659588         1055 
 1992000    0.4595161   -6.9406967    439.68656  0.018393849  0.016646713         1078 
 1993000   0.45769201   -6.9344558     439.3523  0.018370643  0.016633826         1028 
 1994000   0.46310443   -6.9197583    439.30329  0.018359382  0.016620961          998 
 1995000   0.46507914   -6.9465046    439.38024  0.018353394  0.016608108         1020 
 1996000   0.45148783   -6.9387179    438.67373  0.018314702  0.016595262          968 
 1997000   0.46064219   -6.9333613    439.99242  0.018360558   0.01658245          960 
 1998000   0.45385928    -6.933151    439.25398   0.01832057  0.016569647         1014 
 1999000   0.46012393   -6.9448027    440.10104  0.018346717  0.016556851         1059 
 2000000   0.44729169   -6.9436277    440.06316  0.018335965  0.016544064          994 
 2001000   0.45165208   -6.9325831    439.57044  0.018306282  0.016531296         1005 
 2002000   0.45235989    -6.947642    439.05811  0.018275812  0.016518526         1022 
 2003000   0.45211506   -6.9330121    440.04041  0.018307556  0.016505786          935 
 2004000   0.45953741   -6.9345845    439.63655  0.018281627  0.016493061         1031 
 2005000   0.46359292   -6.9492415    439.98274  0.018286897  0.016480348         1078 
 2006000   0.45491759   -6.9250415    439.79843  0.018270124  0.016467658          991 
 2007000   0.45890668   -6.9559263    439.14584  0.018233925   0.01645498         1041 
 2008000   0.45030647   -6.9368509    440.18559  0.018267994  0.016442298         1047 
 2009000   0.44780102   -6.9329206    440.22575  0.018260567  0.016429618         1030 
 2010000   0.45868766   -6.9496523    439.08309  0.018204108  0.016416963         1043 
 2011000    0.4468831   -6.9346881    439.04567  0.018193505   0.01640431         1027 
 2012000   0.44695885   -6.9469659    439.60524  0.018207639  0.016391666         1081 
Loop time of 5172.91 on 48 procs for 2000000 steps with 4000 atoms

Performance: 66809.540 tau/day, 386.629 timesteps/s
99.4% CPU use with 48 MPI tasks x no OpenMP threads

MPI task timing breakdown:
Section |  min time  |  avg time  |  max time  |%varavg| %total
---------------------------------------------------------------
Pair    | 379.66     | 400.75     | 427.54     |  57.7 |  7.75
Neigh   | 35.788     | 36.941     | 38.639     |  11.4 |  0.71
Comm    | 335.06     | 364.44     | 387.63     |  65.8 |  7.05
Output  | 4.72       | 4.7224     | 4.7684     |   0.3 |  0.09
Modify  | 4302.5     | 4316.5     | 4328.7     |  10.1 | 83.44
Other   |            | 49.52      |            |       |  0.96

Nlocal:        83.3333 ave          89 max          77 min
Histogram: 1 1 7 8 6 7 5 4 4 5
Nghost:        2402.40 ave        2422 max        2388 min
Histogram: 5 1 9 11 4 7 6 2 1 2
Neighs:        16601.5 ave       18948 max       13871 min
Histogram: 1 2 6 7 6 7 5 4 6 4
FullNghs:      33201.4 ave       35875 max       30677 min
Histogram: 1 2 8 14 1 6 4 6 4 2

Total # of neighbors = 1593667
Ave neighs/atom = 398.41675
Neighbor list builds = 107128
Dangerous builds = 0

#clear
#
#next RN
#
#jump SELF
Total wall time: 1:26:16
