
units lj                  # Use reduced LJ style units
atom_style atomic         # Uncharged point particles
atom_modify map hash      # Needed for indexing of clusters etc
                          # Used to be able to find where atoms are in relation to each other.

lattice fcc 1.0 spacing 1 1 1
Lattice spacing in x,y,z = 1.5874011 1.5874011 1.5874011
region box block 0 10 0 10 0 10 units lattice
create_box 2 box
Created orthogonal box = (0.0000000 0.0000000 0.0000000) to (15.874011 15.874011 15.874011)
  3 by 4 by 4 MPI processor grid
create_atoms 1 box
Created 4000 atoms
  using lattice units in orthogonal box = (0.0000000 0.0000000 0.0000000) to (15.874011 15.874011 15.874011)
  create_atoms CPU = 0.027 seconds
set type 1 type/fraction 2 0.91 78393
Setting atom values ...
  3634 settings made for type/fraction
mass 1 1.0
mass 2 1.0
pair_style lj/cut  3.5
pair_modify tail  yes
pair_coeff 1  1  1.0  1.0   # Intearaction between 1 and 1 set with epsilon = 1 and sigma = 1
pair_coeff 1  2  1.5  0.8
pair_coeff 2  2  0.5  0.88

write_data data.0
System init for write_data ...
Neighbor list info ...
  update every 1 steps, delay 10 steps, check yes
  max neighbors/atom: 2000, page size: 100000
  master list distance cutoff = 3.8
  ghost atom cutoff = 3.8
  binsize = 1.9, bins = 9 9 9
  1 neighbor lists, perpetual/occasional/extra = 1 0 0
  (1) pair lj/cut, perpetual
      attributes: half, newton on
      pair build: half/bin/atomonly/newton
      stencil: half/bin/3d
      bin: standard
WARNING: Not all mixed pair coeffs generated from mixing. Use write_data with 'pair ij' option to store all pair coeffs. (../write_data.cpp:312)


#############################
#   M E L T   S Y S T E M   #
#############################

velocity all create 2.4 3143649 mom yes dist gaussian # Assign velocities
                                                    # Temperature 2.4, random number seed, zero linear momentum
                                                                                # Gaussian distribution

timestep 0.002   # simulation timestep
thermo 1000       # output thermodynamic data every 1000 steps bf 100

# Define a fix  in this case with index 1 applied to all
# particles in the simulation. This fix is for simulations
# in the anisotropic NPT ensemble. Note that we use the MTK
# correction.
fix 1 all npt temp 2.4 2.4 0.1 iso 5.68 5.68 0.5 mtk yes tchain 5 pchain 5 # Use NPT ensemble
                                                                         # Set temperature and pressure and damping
                                                                         # Numbers of thermostats in chain and in barostat
run 10000          # run for 10000 steps
Per MPI rank memory allocation (min/avg/max) = 3.642 | 3.644 | 3.648 Mbytes
Step Temp E_pair E_mol TotEng Press Volume 
       0          2.4    -3.140535            0     0.458565   -2.4974117         4000 
    1000    2.4053693   -2.1558515            0    1.4513004    5.9120108    3983.6038 
    2000    2.3924866   -2.1497623            0    1.4380704    5.6121986    4034.4198 
    3000    2.4280084   -2.1961742            0     1.444928    5.5736894    4012.7703 
    4000    2.4243538    -2.197521            0    1.4381006    5.5078894    4024.7858 
    5000    2.4797964   -2.1857741            0    1.5329906    5.5701246    4030.4186 
    6000    2.4166025    -2.122298            0    1.5016996    5.5630182    4085.4621 
    7000    2.3700051    -2.197374            0    1.3567449    5.4568217    4036.0478 
    8000     2.374773   -2.1761837            0    1.3850852     5.655588    4007.2177 
    9000    2.4430106   -2.1212292            0    1.5423706    5.8110797    4039.3331 
   10000     2.369107   -2.1599885            0    1.3927836    5.2849166     4081.947 
Loop time of 2.66206 on 48 procs for 10000 steps with 4000 atoms

Performance: 649121.564 tau/day, 3756.491 timesteps/s
99.4% CPU use with 48 MPI tasks x no OpenMP threads

MPI task timing breakdown:
Section |  min time  |  avg time  |  max time  |%varavg| %total
---------------------------------------------------------------
Pair    | 1.0934     | 1.1553     | 1.2345     |   3.0 | 43.40
Neigh   | 0.20857    | 0.21575    | 0.22943    |   0.9 |  8.10
Comm    | 0.82271    | 0.90777    | 0.99965    |   4.3 | 34.10
Output  | 0.00027292 | 0.00028154 | 0.00048034 |   0.0 |  0.01
Modify  | 0.25225    | 0.31059    | 0.39763    |   5.9 | 11.67
Other   |            | 0.07235    |            |       |  2.72

Nlocal:        83.3333 ave          97 max          74 min
Histogram: 6 4 6 11 3 4 10 2 1 1
Nghost:        1622.54 ave        1658 max        1584 min
Histogram: 1 2 5 7 6 9 7 6 3 2
Neighs:        9347.40 ave       11526 max        8103 min
Histogram: 6 6 13 3 7 7 1 4 0 1

Total # of neighbors = 448675
Ave neighs/atom = 112.16875
Neighbor list builds = 908
Dangerous builds = 202

# Equilibrate just above the melting temperature to avoid step fn in T

fix 1 all npt temp 1.25 1.25 0.1 iso 5.68 5.68 0.5 mtk yes tchain 5 pchain 5
run 2000
Per MPI rank memory allocation (min/avg/max) = 3.643 | 3.645 | 3.649 Mbytes
Step Temp E_pair E_mol TotEng Press Volume 
   10000     2.369107   -2.1599885            0    1.3927836    5.2849166     4081.947 
   11000    1.2745298   -3.2066605            0   -1.2953438    5.9482432    3112.3323 
   12000    1.2513504   -3.1892802            0   -1.3127239    5.8015515    3136.9208 
Loop time of 0.616274 on 48 procs for 2000 steps with 4000 atoms

Performance: 560789.947 tau/day, 3245.312 timesteps/s
99.7% CPU use with 48 MPI tasks x no OpenMP threads

MPI task timing breakdown:
Section |  min time  |  avg time  |  max time  |%varavg| %total
---------------------------------------------------------------
Pair    | 0.26977    | 0.29298    | 0.32981    |   2.1 | 47.54
Neigh   | 0.040253   | 0.042574   | 0.048213   |   0.7 |  6.91
Comm    | 0.18823    | 0.22992    | 0.25435    |   2.8 | 37.31
Output  | 5.1335e-05 | 5.2522e-05 | 6.9305e-05 |   0.0 |  0.01
Modify  | 0.042581   | 0.045895   | 0.048106   |   0.7 |  7.45
Other   |            | 0.004851   |            |       |  0.79

Nlocal:        83.3333 ave          92 max          76 min
Histogram: 2 4 3 12 6 10 3 4 2 2
Nghost:        1936.52 ave        1976 max        1918 min
Histogram: 7 9 9 9 4 4 3 2 0 1
Neighs:        12167.8 ave       13645 max       10900 min
Histogram: 1 5 9 10 5 3 4 5 3 3

Total # of neighbors = 584054
Ave neighs/atom = 146.01350
Neighbor list builds = 146
Dangerous builds = 14

#############################
# L I N E A R  Q U E N C H  #
#############################

# Define solid atoms. This closely follows ten Wolde  Ruiz-Montero and Frenkel  Faraday Discuss  1996  104  93-110
# Compute components of the per-atom q6 vector
compute q6 all orientorder/atom degrees 1 6 components 6 nnn NULL cutoff 1.3 # compute the Q6 parameter.
                                                                             # Use all neighbours within 1.3 unit cell.

# get number of connections
compute coord_number all coord/atom orientorder q6 0.5

# An atom is solid if it has 8 or more connections (of a possible 14)
variable is_solid atom c_coord_number>=8
group solid dynamic all var is_solid    # Must be dynamic to update
dynamic group solid defined

# do clustering
compute cluster solid cluster/atom 1.3 # Create a cluster where all atoms within are solid and max 1.3 units from another member

# define chunks one chunk per cluster
compute clus_chunks solid chunk/atom c_cluster nchunk every compress yes  # Says which atoms are in which chunk

# count the size of each chunk
compute size_chunks solid property/chunk clus_chunks count


# Find the maximum entry in the vector of chunk sizes
variable max_n equal max(c_size_chunks)


# Thermo style which includes this variable
# thermo_style custom step temp pe vol v_max_n

thermo ${N}  # Print the thermo information every 100 steps
thermo 1000  

# Reset the npt fix at a lower temperature (below freezing)
fix 1  all npt temp  ${temp} ${temp}  0.1  iso  5.68  5.68  0.5  mtk yes tchain  5  pchain  5
fix 1  all npt temp  0.45 ${temp}  0.1  iso  5.68  5.68  0.5  mtk yes tchain  5  pchain  5
fix 1  all npt temp  0.45 0.45  0.1  iso  5.68  5.68  0.5  mtk yes tchain  5  pchain  5

dump dmp2 all dcd ${N} traj.dcd
dump dmp2 all dcd 1000 traj.dcd


compute msd all msd com yes
variable twopoint equal c_msd[4]/6/(step*dt+1.0e-6)
fix 9 all vector 10 c_msd[4]
variable fit equal slope(f_9)/6/(10*dt)
thermo_style custom step temp pe c_msd[4] v_twopoint v_fit v_max_n

fix 1 all npt temp 1.25 ${temp} 0.1 iso 5.68 5.68 0.5 mtk yes tchain 5 pchain 5
fix 1 all npt temp 1.25 0.45 0.1 iso 5.68 5.68 0.5 mtk yes tchain 5 pchain 5
run 2000000 # 5000000  # Run for this many steps
Neighbor list info ...
  update every 1 steps, delay 10 steps, check yes
  max neighbors/atom: 2000, page size: 100000
  master list distance cutoff = 3.8
  ghost atom cutoff = 3.8
  binsize = 1.9, bins = 8 8 8
  4 neighbor lists, perpetual/occasional/extra = 1 3 0
  (1) pair lj/cut, perpetual
      attributes: half, newton on
      pair build: half/bin/atomonly/newton
      stencil: half/bin/3d
      bin: standard
  (2) compute orientorder/atom, occasional
      attributes: full, newton on
      pair build: full/bin/atomonly
      stencil: full/bin/3d
      bin: standard
  (3) compute coord/atom, occasional
      attributes: full, newton on
      pair build: full/bin/atomonly
      stencil: full/bin/3d
      bin: standard
  (4) compute cluster/atom, occasional
      attributes: full, newton on
      pair build: full/bin/atomonly
      stencil: full/bin/3d
      bin: standard
Per MPI rank memory allocation (min/avg/max) = 9.822 | 9.826 | 9.830 Mbytes
Step Temp PotEng c_msd[4] v_twopoint v_fit v_max_n 
   12000    1.2513504   -3.1892802 1.033605e-30 7.1778122e-33 8.3333333e+20            3 
   13000    1.2734814   -3.2068213    1.0011396 0.0064175616  0.086405024            1 
   14000    1.2259416   -3.2266531    2.0729578  0.012339034  0.086759474            1 
   15000    1.2380977   -3.2116423    3.1344718  0.017413732  0.087850004            2 
   16000    1.2646446   -3.1904713     4.185567  0.021799827  0.087798766            2 
   17000    1.2539224   -3.1960416    5.2446028  0.025708837  0.088025166            2 
   18000    1.2450623    -3.192336    6.3285634  0.029298904  0.088094816            2 
   19000    1.2437306   -3.2058029    7.3948908  0.032433731   0.08816494            1 
   20000    1.2704135   -3.2233499    8.4682869  0.035284528  0.088265502            2 
   21000    1.2363838    -3.232604    9.6259662  0.038198278  0.088895444            2 
   22000    1.2560873   -3.2261158    10.782954  0.040844522  0.089618846            1 
   23000    1.2505482   -3.2267079    11.983118  0.043417094  0.090420962            1 
   24000    1.2204665     -3.23968    13.006925  0.045162932  0.090934466            1 
   25000    1.2539136   -3.2363938    14.152401   0.04717467   0.09116673            2 
   26000    1.2554047    -3.220034    15.252894  0.048887479  0.091324194            3 
   27000    1.2131432   -3.2066377    16.312099  0.050345985  0.091445356       -1e+20 
   28000    1.2665082   -3.2298895     17.41333  0.051825385  0.091438688            2 
   29000    1.2249629   -3.2028296    18.455817  0.053033957  0.091428266            1 
   30000    1.2434962   -3.2123779     19.35986  0.053777388  0.091266844            1 
   31000    1.2235133   -3.2063945    20.460009  0.055000023  0.091014521            1 
   32000    1.2252332   -3.2311172    21.548345   0.05611548  0.090760004            2 
   33000    1.2479329   -3.2443417    22.629513  0.057145235  0.090577742            1 
   34000    1.2262964   -3.1874308    23.602626  0.057849572  0.090462052            1 
   35000    1.2460639   -3.2624483    24.734778  0.058892327   0.09036219            1 
   36000    1.2145256   -3.2312508    26.159114  0.060553503  0.090442396            2 
   37000    1.2534835   -3.2313415    27.400739  0.061713375  0.090665164            1 
   38000    1.2412297   -3.2395711    28.290212  0.062039939  0.090891063            1 
   39000    1.2254174   -3.2617805    29.596924  0.063241289  0.091035966            1 
   40000    1.2245544   -3.2342801    30.682492  0.063921857  0.091215251            2 
   41000    1.2219159   -3.2384275    32.169184  0.065384519  0.091498867            1 
   42000    1.2413041   -3.2194227    33.346849  0.066164383  0.091798851            3 
   43000    1.2566031   -3.2354902    34.275678  0.066425732   0.09205874            1 
   44000    1.2205288   -3.2286205    35.749449  0.067707288  0.092292137            2 
   45000    1.2482319   -3.2536052     36.51619  0.067622573  0.092494146            1 
   46000    1.2278472   -3.2159648    37.770968  0.068425666  0.092610104            2 
   47000    1.2249172   -3.2255155    38.801508  0.068796999  0.092697707            2 
   48000     1.225363   -3.2466607    39.980885  0.069411258  0.092795293            2 
   49000    1.2444275   -3.2377138    41.625126   0.07079103  0.092979571            2 
   50000    1.2158784   -3.2619246    42.654823  0.071091371  0.093188825            2 
   51000    1.2267342   -3.2238206    43.544788  0.071151614  0.093327334            3 
   52000    1.2517676   -3.2602611    44.557553  0.071406335  0.093401471            2 
   53000    1.2303011   -3.2169385    45.796087  0.072006426  0.093451946            3 
   54000    1.2013541   -3.2642626     46.59441  0.071904953  0.093461125            3 
   55000    1.2398526    -3.245036    47.701812  0.072275472  0.093480453            3 
   56000    1.2427338   -3.2389009    48.841322  0.072680538  0.093520032       -1e+20 
   57000    1.2134452   -3.2334526    50.771332  0.074227092  0.093603777            1 
   58000    1.2271753   -3.2666539     51.45335  0.073927227  0.093678996            1 
   59000     1.199554   -3.2614909    52.852434   0.07465033  0.093758728            3 
   60000    1.2571819   -3.2463571    54.139592  0.075193877  0.093867221            1 
   61000    1.2296234   -3.2294885    55.187239  0.075392403  0.093998137            7 
   62000    1.2204771   -3.2140951    56.095906  0.075397723  0.094101886            2 
   63000    1.2169341   -3.2531826    57.651098  0.076258066  0.094195132            1 
   64000    1.2114154   -3.2253375    59.194673  0.077076396  0.094354031            3 
   65000    1.2271507    -3.235079     59.98622   0.07690541  0.094513557            1 
   66000    1.2428254    -3.205646    61.454494  0.077594057  0.094645645            2 
   67000     1.225998   -3.2371447    62.262776  0.077441264  0.094756415            3 
   68000    1.2391316   -3.2322109    63.988275  0.078417004  0.094868506            3 
   69000    1.2465554    -3.268927    64.684745  0.078121672  0.094937898            3 
   70000    1.2487872    -3.267355     65.35932  0.077808714  0.094976429            3 
   71000     1.244478    -3.237467    66.582512  0.078148488  0.095010185            2 
   72000     1.210167   -3.2472098    67.493916  0.078117958  0.094983243            2 
   73000    1.2372549   -3.2819689    68.421246  0.078106445  0.094948603            1 
   74000    1.2173568    -3.242264    69.523303  0.078292007  0.094910827            1 
   75000    1.2093138   -3.2656046     70.44962  0.078277355  0.094858133            1 
   76000    1.2255453   -3.2596278    71.359989  0.078245602  0.094784027            2 
   77000     1.205229   -3.2312942    72.135231  0.078068431  0.094681088            3 
   78000    1.2173088   -3.2466528    73.190604  0.078195089  0.094544502            2 
   79000     1.199054   -3.2437289    73.976895  0.078034699  0.094411114            1 
   80000    1.2308775   -3.2639991    74.830629  0.077948572  0.094269279            1 
   81000    1.2255963    -3.225916    76.320128   0.07851865  0.094141563            2 
   82000    1.2150669    -3.245287    77.110914  0.078364749  0.094026627            1 
   83000    1.2129758   -3.2562587    78.474075  0.078789231  0.093897944            1 
   84000    1.1970589   -3.2603585     78.89897  0.078272787   0.09374265            2 
   85000    1.2346866   -3.2495486    79.985822  0.078417472  0.093594911            2 
   86000    1.2080132   -3.2422299    80.759812  0.078255632  0.093443657            1 
   87000    1.2274733   -3.2609372    81.479831  0.078045814  0.093293899            2 
   88000    1.2086257   -3.2316963    82.876358  0.078481399  0.093142372            1 
   89000    1.1988912   -3.2397108    84.121371  0.078765328  0.092987643            2 
   90000    1.2337807   -3.2737779    84.661783   0.07839054  0.092827766            2 
   91000    1.1992136   -3.2625607    85.851631  0.078618709  0.092670059            2 
   92000    1.1945276   -3.2614706    86.514526  0.078364606  0.092511809            1 
   93000    1.2201254   -3.2534284     87.63289  0.078524095  0.092352035            2 
   94000    1.2404203   -3.2846694    88.398607  0.078367559  0.092206443            3 
   95000    1.2009982   -3.2481417    89.632532  0.078625028  0.092047373            2 
   96000    1.2279047   -3.2639576    90.317578  0.078400675  0.091890432            1 
   97000    1.2301312   -3.2600601    91.593871  0.078688892  0.091744906            1 
   98000     1.213501   -3.2680862    92.661208  0.078793544  0.091598701            2 
   99000    1.1891139   -3.2754561    93.531272  0.078730027  0.091458157            1 
  100000    1.2145461   -3.2609242    94.447262  0.078706051  0.091317705            2 
  101000    1.2047277   -3.2596721    95.598899  0.078876979  0.091172431            2 
  102000    1.2260123   -3.2571641    96.475528  0.078819875  0.091035354            1 
  103000    1.2009866   -3.2466474    97.354633  0.078765884  0.090890243            2 
  104000    1.1813451   -3.2716732    98.366664  0.078819442  0.090741601            4 
  105000    1.1836413   -3.2900767    99.065007  0.078623021  0.090589035            2 
  106000     1.228327   -3.2760088     100.1013  0.078695991  0.090440527            1 
  107000    1.1865607   -3.2817123     100.9501  0.078621576  0.090302389            2 
  108000    1.2203431   -3.2573621    102.12935  0.078803513  0.090165679            1 
  109000    1.1883696   -3.2449245    103.21316  0.078909143  0.090032888            1 
  110000    1.2113537   -3.2933759    103.93603  0.078739415   0.08991146            5 
  111000    1.2020344   -3.2717382    105.46554  0.079178333  0.089806619            4 
  112000    1.2100929   -3.2500763    106.96815  0.079589395  0.089717098            2 
  113000    1.2396995   -3.2763503    107.41007  0.079210965  0.089631332            1 
  114000     1.216963   -3.2893966    108.81141  0.079540502  0.089547293            1 
  115000     1.195383   -3.2989427    109.70926  0.079499462  0.089467231            3 
  116000    1.2100769   -3.3254052    110.79429  0.079593602  0.089395961            2 
  117000    1.2039363   -3.2693976     112.6754  0.080253132  0.089333336            1 
  118000    1.2290023   -3.3037072     113.6757  0.080279449  0.089274972            1 
  119000    1.2155083   -3.2416838    115.18262  0.080660098  0.089235395            3 
  120000    1.1827582   -3.2719787    116.06481  0.080600565  0.089198214            1 
  121000    1.2121052   -3.2438413    116.82327    0.0804568  0.089164702            2 
  122000    1.2133703   -3.2455833    119.12959  0.081372669  0.089128247            3 
  123000    1.2067544   -3.2654704    119.44565  0.080925238  0.089101108            2 
  124000    1.2046114   -3.2612663    119.96211    0.0806197  0.089069378            2 
  125000    1.1975405   -3.2802961    121.33722  0.080891481  0.089038607            3 
  126000    1.2158784   -3.2742683    122.01876  0.080700237   0.08901019            1 
  127000    1.1916189   -3.3196649    123.16297  0.080815598  0.088990937            1 
  128000    1.2241264   -3.2785109    123.67814   0.08051962   0.08896335            2 
  129000    1.2037251   -3.2670218     125.4763  0.081057041  0.088936715            2 
  130000    1.2182044   -3.2528265    126.29728  0.080959791  0.088913619            1 
  131000    1.1962878    -3.261719    127.79894  0.081297037  0.088896831            2 
  132000    1.2122917   -3.3058905    128.80703   0.08131757  0.088879301            1 
  133000    1.2131733   -3.3023939    129.43948  0.081102429  0.088865411            1 
  134000    1.2214454    -3.274355    131.01809  0.081478911   0.08884084            1 
  135000     1.206037   -3.2639095    131.92336  0.081434171  0.088810241            1 
  136000    1.2197719   -3.2497672    132.59079  0.081244356  0.088778836            2 
  137000    1.1874515   -3.3042046    133.66836  0.081306788  0.088745914            1 
  138000    1.1785199   -3.3035332    134.43236  0.081178961  0.088709718            2 
  139000    1.1973312   -3.2657365     134.8122  0.080822659  0.088676207            1 
  140000    1.2083228   -3.2894912    135.66699  0.080754158  0.088633688            2 
  141000    1.2036282   -3.2877854    137.23694  0.081109304  0.088592466            2 
  142000    1.1871739   -3.2869386    137.69796  0.080808664   0.08855409            4 
  143000    1.1918051   -3.2881009    138.93768  0.080966012    0.0885126            3 
  144000    1.1949842   -3.2995186    140.72142  0.081436005   0.08847304            2 
  145000    1.1875525   -3.3026906    142.32483  0.081795877  0.088442608            1 
  146000    1.2076922   -3.2995488    142.26225  0.081199916  0.088412128            1 
  147000    1.1974123   -3.3209951     143.5005   0.08134949  0.088380069            3 
  148000    1.1898803   -3.2626168    145.60831  0.081986658  0.088347408            2 
  149000    1.2024782   -3.2553072      146.659   0.08202405   0.08832997            3 
  150000    1.1785873   -3.2926941    147.28614  0.081825631  0.088316264            1 
  151000    1.2066136   -3.3191949     148.0991  0.081732392   0.08829641            1 
  152000    1.1951928   -3.2369659    149.39208  0.081903553  0.088268726            2 
  153000    1.1966044   -3.2986302     149.5243  0.081440249  0.088232394            1 
  154000    1.1978531   -3.2637692    150.83189  0.081618988  0.088196433            2 
  155000    1.1703375   -3.2886306    151.01846  0.081192721  0.088145137            2 
  156000    1.1993645   -3.2623495    152.27462   0.08134328  0.088098955            2 
  157000    1.1890198   -3.2890865    153.23711  0.081336043  0.088055177            2 
  158000     1.229862   -3.2862188     153.8147  0.081125894  0.088007686            1 
  159000      1.18384   -3.3026515    155.05768  0.081267126  0.087958575            1 
  160000    1.2162757   -3.2964305    155.94177  0.081219671  0.087912375            1 
  161000    1.2203342   -3.3015378    157.06402  0.081296074   0.08787089            1 
  162000    1.1927282   -3.2895511    157.73598  0.081139909  0.087827832            1 
  163000    1.1893328   -3.2787581    159.35688  0.081470798  0.087786516            1 
  164000    1.1823599   -3.2839711    161.75246  0.082191291  0.087747411            1 
  165000    1.1786607   -3.2866385    161.84266  0.081738716  0.087722048            1 
  166000    1.1838232   -3.2990754    163.06902  0.081861956  0.087703524            2 
  167000    1.1900057   -3.3347244    164.08654  0.081879512  0.087679675            2 
  168000    1.1955386   -3.3103171    164.12824  0.081412818  0.087650947            3 
  169000    1.1858771   -3.3207276    164.82823  0.081276248  0.087614235            1 
  170000    1.1745638   -3.2878282    165.65127  0.081201603  0.087569187            2 
  171000    1.1800991   -3.2963954    166.50729  0.081143903  0.087523567            1 
  172000    1.1673357   -3.2754218    167.94652  0.081369439  0.087482881            5 
  173000    1.1929611   -3.3168657    168.76844   0.08129501  0.087446889            2 
  174000     1.174198   -3.2954031    170.28027  0.081551853  0.087407577            2 
  175000    1.1995178     -3.26822    171.92088  0.081867086  0.087373675            1 
  176000    1.1870832   -3.3193737    173.18376  0.081999887  0.087349454            3 
  177000    1.2030846   -3.3347414    171.98742  0.080973363  0.087312842            1 
  178000    1.1808616   -3.3041733    172.88392  0.080938165   0.08727733            1 
  179000    1.2056724   -3.3309661    174.43856  0.081209759  0.087233499            2 
  180000    1.1765754   -3.2993105    175.52781  0.081262873  0.087193923            2 
  181000    1.1805172   -3.3078339    176.99126  0.081487688  0.087158831            3 
  182000    1.1817052   -3.3077212    177.07491  0.081078256  0.087123657            2 
  183000    1.1912743   -3.3181336    177.93586  0.081027257  0.087081641            4 
  184000    1.1763006   -3.2984987    180.56793  0.081778956  0.087040314            3 
  185000    1.1532076   -3.3148997     181.0304  0.081545227  0.087011039            2 
  186000    1.1855673   -3.2961945    181.80878  0.081455548  0.086976956            1 
  187000    1.1759344   -3.2964817    183.29593  0.081682678   0.08694815            2 
  188000    1.1822873   -3.3181063    184.03282  0.081574833  0.086920747            2 
  189000    1.1778378   -3.2655715    184.56449  0.081377641  0.086890497            2 
  190000    1.1761525   -3.3075378     185.4346  0.081330966  0.086859473            1 
  191000    1.1598002    -3.319815    186.86408  0.081528831  0.086821258            2 
  192000     1.184695   -3.3088926    187.74739  0.081487583  0.086782969            4 
  193000    1.1781974   -3.2927485    188.42236  0.081356805  0.086751481            3 
  194000    1.1658057   -3.3548847    189.24952  0.081292751  0.086722384            1 
  195000    1.1818849   -3.3312577    191.06314  0.081650912  0.086689019            2 
  196000     1.153022   -3.3095815    191.66913  0.081491976  0.086652228            2 
  197000    1.1746674   -3.2983753    193.55357  0.081875454  0.086618308            1 
  198000     1.176864   -3.3248606      193.231  0.081326178  0.086583032            4 
  199000    1.1817266   -3.2886453    194.44819  0.081427216  0.086543782            3 
  200000    1.1970696   -3.3252915    194.81779  0.081174078  0.086498281            2 
  201000    1.1905301   -3.3370754    195.50469  0.081055011  0.086454611            2 
  202000    1.1584609   -3.2914327    196.90943  0.081233265  0.086413482            1 
  203000    1.1823948   -3.2918993     198.6902  0.081564122  0.086377903            2 
  204000    1.1553502   -3.3055404     200.0473  0.081718669  0.086342876            2 
  205000    1.1841041   -3.3015388    201.13944  0.081763999  0.086316165            2 
  206000     1.170349   -3.3373533    200.74638  0.081208084  0.086287722            2 
  207000    1.1661069   -3.3364774    202.71232  0.081607214  0.086255662            4 
  208000    1.1861596   -3.2966432    203.40728  0.081493303  0.086226007            3 
  209000    1.1596514   -3.3301813     205.4941  0.081935447  0.086197046            3 
  210000    1.1803319   -3.3177126    205.48547  0.081541853  0.086170124            4 
  211000    1.1764122   -3.3123415    207.08962  0.081788949  0.086142591            1 
  212000    1.1586461   -3.3224738    207.88574  0.081716091  0.086115826            2 
  213000    1.1671074   -3.3251942    208.22818  0.081466424  0.086085379            7 
  214000    1.1726431   -3.3315684    209.50579   0.08158325  0.086049038            4 
  215000     1.179416   -3.3016381    210.36633  0.081537336  0.086018546            1 
  216000    1.1828362   -3.3090252    210.35202  0.081154328  0.085985659            2 
  217000    1.1572966   -3.3372788    212.35483  0.081549474  0.085955786            3 
  218000    1.1671949   -3.3515249    213.32393  0.081545846  0.085924101            2 
  219000    1.1825946   -3.3133822    214.53277  0.081633473  0.085898918            5 
  220000    1.1674943   -3.3173783    214.67999  0.081318179  0.085872197            1 
  221000    1.1711268   -3.3176411    216.34012  0.081576213  0.085842212            2 
  222000    1.1547576   -3.3313751    215.78888   0.08100183  0.085813781            1 
  223000    1.1679458   -3.3295751    218.74494   0.08174325  0.085780003            2 
  224000    1.1495986   -3.3280475     219.1378  0.081524481  0.085752056            2 
  225000    1.1987012   -3.3077233    221.30697  0.081965545  0.085725049            3 
  226000     1.183658    -3.297319    221.31185  0.081604665  0.085699204            1 
  227000    1.1656312    -3.333911    222.32208  0.081616035  0.085672759            2 
  228000    1.2111724   -3.3490141    222.48106  0.081316177  0.085646156            2 
  229000    1.1684542   -3.3588276    222.02752  0.080796039   0.08561799            4 
  230000    1.1450097   -3.3726615    225.73499  0.081788038  0.085591983            3 
  231000    1.1890107   -3.3856457    225.06049  0.081190652  0.085562833            2 
  232000    1.1720284   -3.3257741    226.74427  0.081445499  0.085535544            1 
  233000    1.1679578   -3.3143618    227.93709  0.081522563  0.085511941            1 
  234000    1.1527072   -3.3426529     228.8635  0.081504095  0.085485191            2 
  235000    1.1560682   -3.3078042    230.70779  0.081811271  0.085460867            5 
  236000    1.1455822   -3.3126524    230.38458  0.081350486  0.085435354            1 
  237000    1.1538297   -3.3581155    231.66922  0.081458937  0.085410727            2 
  238000    1.1532631    -3.308418    232.22889  0.081312638  0.085382135            2 
  239000    1.1561911   -3.3524409     232.8262  0.081180685  0.085353291            4 
  240000    1.1649313   -3.3167177    233.76557  0.081168602  0.085320348            2 
  241000    1.1641535   -3.3359523    235.12039  0.081300272  0.085286228            2 
  242000    1.1355895   -3.3451836    235.35307  0.081044445   0.08525341            2 
  243000      1.16022   -3.3233833    236.39078  0.081066797  0.085219832            4 
  244000    1.1390157    -3.337158    238.40537  0.081422599  0.085188932            1 
  245000     1.158167   -3.3655722    238.32454   0.08106277  0.085157576            1 
  246000    1.1613043   -3.3731712    239.93769  0.081279706  0.085128014            4 
  247000    1.1753051   -3.3779514    240.08821  0.081001419  0.085096866            1 
  248000    1.1635552   -3.3442416     241.6488  0.081199193  0.085065191            2 
  249000    1.1348524   -3.3065424    242.91244  0.081295997  0.085036025            4 
  250000    1.1648401   -3.3252757     243.0313  0.081010433  0.085003397            4 
  251000    1.1492912   -3.3450219    243.40842  0.080812887  0.084973539            2 
  252000    1.1596349   -3.3347969    245.07459  0.081043183  0.084941029            3 
  253000    1.1474472    -3.361041    246.43209  0.081169991  0.084912289            1 
  254000    1.1425848   -3.3380735    247.44043  0.081181245  0.084885235            3 
  255000    1.1568798   -3.3460982    248.45653  0.081194946  0.084859181            4 
  256000    1.1576014   -3.3313846    249.50087  0.081217732  0.084832116            2 
  257000    1.1484919   -3.3627969     250.7727  0.081314105  0.084802674            2 
  258000    1.1704748   -3.3527001     250.5341  0.080921866  0.084770924            2 
  259000    1.1337187   -3.3661187    251.01317  0.080763567  0.084745431            2 
  260000     1.141855   -3.3318971    253.34709  0.081200991  0.084718396            1 
  261000    1.1472083   -3.3212865    254.60551  0.081291671   0.08469533            2 
  262000     1.156573   -3.3585706    254.33787   0.08089627  0.084673037            2 
  263000    1.1885256   -3.3618309    255.92682  0.081092149  0.084647116            3 
  264000    1.1295441   -3.3628939    257.68558  0.081340145  0.084621181            4 
  265000    1.1335036   -3.3301083    257.98771  0.081128211  0.084597259            1 
  266000    1.1578852   -3.3531312    258.46479  0.080972678  0.084575193            2 
  267000    1.1522674   -3.3526098    261.61846    0.0816537  0.084554948            1 
  268000    1.1263034   -3.3505612    262.15689  0.081516447   0.08453629            4 
  269000    1.1481725   -3.3454697    263.54544  0.081643568  0.084519356            2 
  270000    1.1707218   -3.3557882    263.37815  0.081289551  0.084503818            2 
  271000     1.124332   -3.3316413    264.12718  0.081219921  0.084491247            1 
  272000    1.1381674   -3.3724939    265.77586  0.081426427  0.084481401            1 
  273000    1.1599477   -3.3890065     265.1973  0.080951556  0.084463732            1 
  274000    1.1377532   -3.3441721    268.31311  0.081603743  0.084444897            1 
  275000    1.1343026   -3.3541766    268.86039  0.081472846  0.084427299            7 
  276000    1.1426566   -3.3402675    269.73068  0.081440424   0.08440831            2 
  277000    1.1330464   -3.3337262    269.93286   0.08120724  0.084384957            1 
  278000     1.139684   -3.3463679    272.13367  0.081574842  0.084359626            2 
  279000    1.1417882   -3.3423578    272.48135  0.081386305  0.084335122            2 
  280000    1.1462774    -3.371974    272.30809  0.081044075  0.084311737            2 
  281000    1.1367214   -3.3616714    272.17772     0.080717  0.084286248            2 
  282000     1.152026   -3.3803518    273.92578  0.080947333  0.084263311            2 
  283000    1.1740036   -3.3556177    275.73772  0.081194851  0.084240556            2 
  284000    1.1676309   -3.3677014    275.38858  0.080806509  0.084213951            3 
  285000    1.1377642   -3.3730287    276.56133  0.080865884  0.084189311            1 
  286000    1.1489749   -3.3491449    278.28747  0.081086092  0.084165639            2 
  287000    1.1163244   -3.3849749    279.12447  0.081046595  0.084139826            2 
  288000     1.178245   -3.3849136    280.13442  0.081057414  0.084114864            3 
  289000    1.1263962   -3.3958313    279.73024  0.080660392   0.08409076            5 
  290000    1.1448845   -3.3677531    282.57204  0.081198862  0.084068215            2 
  291000    1.1634106   -3.3803948    281.19362  0.080525093  0.084044524            2 
  292000    1.1438402    -3.390453    281.84959  0.080436526  0.084017378            1 
  293000    1.1270767   -3.3494785    283.62949  0.080668228   0.08398795            2 
  294000    1.1334635   -3.3650408    284.76691  0.080716245  0.083955653            2 
  295000    1.1142806   -3.3434649    285.21458   0.08056909  0.083921893            3 
  296000    1.1220221   -3.4151407    283.36693  0.079776727  0.083882555            2 
  297000    1.1261553   -3.3439573     286.1721  0.080295201  0.083842528            2 
  298000    1.1503891   -3.3845875    285.75302  0.079908563  0.083801753            5 
  299000    1.1115355   -3.4048822    286.71514   0.07990946  0.083759425            2 
  300000    1.1443188    -3.371343    287.35924   0.07982201  0.083717471            2 
  301000    1.1412757   -3.3901419    289.61628  0.080181695  0.083676314            2 
  302000    1.1317559   -3.3778113    289.96448  0.080012274  0.083636997            1 
  303000    1.1360627   -3.3766229    291.18956  0.080085136  0.083599114            1 
  304000    1.1534443   -3.3887637    291.23541  0.079834267  0.083561496            1 
  305000    1.0980174   -3.3518725    293.29508  0.080135267   0.08352305            2 
  306000    1.1229735   -3.3715154    293.86533  0.080028684  0.083483158            7 
  307000    1.1388319   -3.3619409    295.27492  0.080150629  0.083443801            2 
  308000    1.1331974   -3.3706114    295.56953   0.07997011  0.083406807            3 
  309000    1.1366925   -3.3779727    296.58917  0.079986293  0.083371231            2 
  310000    1.1397691   -3.3500618    297.80129   0.08005411  0.083337957            2 
  311000    1.1523679   -3.3653969    298.49493  0.079982565  0.083303358            3 
  312000     1.116302   -3.3963598    300.09862  0.080154545  0.083271705            2 
  313000    1.1431039    -3.352352    300.96615  0.080129432  0.083240144            2 
  314000    1.1250849   -3.3786348    303.24754  0.080479707  0.083208631            1 
  315000     1.154329    -3.376955    301.93283  0.079876411  0.083177515            2 
  316000    1.1221055   -3.3701627     303.8158  0.080120201  0.083145831            3 
  317000    1.1152937   -3.3856798    304.20661  0.079970191  0.083115509            1 
  318000    1.1229091   -3.3896176    304.79513  0.079872938  0.083087522            1 
  319000    1.1579801   -3.3679797     305.7633   0.07987547  0.083053653            3 
  320000    1.1275004   -3.3856928    306.31348  0.079769136  0.083020839            1 
  321000    1.1149487   -3.3627934    307.23566  0.079760037  0.082986373            3 
  322000    1.1427373   -3.3645434    308.76573  0.079908315  0.082951221            3 
  323000    1.1231821   -3.3929471     309.0686  0.079739062  0.082915594            2 
  324000    1.1309039   -3.4006392    308.86125  0.079439621  0.082878985            7 
  325000    1.1274577   -3.3644599    310.49913  0.079615161  0.082840797            2 
  326000    1.1261522   -3.3826728    310.86236  0.079463793  0.082805037            3 
  327000    1.1097116   -3.3970052    311.37394  0.079351157  0.082767537            1 
  328000    1.1117941   -3.4016206    312.30475  0.079345718  0.082726848            2 
  329000    1.1194316   -3.3597092    314.72134  0.079716652  0.082685257            2 
  330000    1.1065029   -3.3662368    313.61045  0.079194558  0.082644584            2 
  331000    1.0971316   -3.4027543    312.93937  0.078786348  0.082600645            2 
  332000    1.1278789   -3.3598729    313.67221  0.078732985  0.082554686            2 
  333000    1.1335294   -3.3849946    313.98339  0.078574422  0.082508654            2 
  334000    1.1160242   -3.4038541    315.69882   0.07876717  0.082463924            3 
  335000    1.1269184    -3.338645    318.16211  0.079144803  0.082420302            3 
  336000    1.1142031   -3.3967298    318.20616  0.078920179  0.082377042            1 
  337000    1.1137099   -3.3831985    318.63966   0.07879319  0.082335067            1 
  338000    1.1197716   -3.3707449     319.8461  0.078857521  0.082293082            1 
  339000    1.1044064   -3.4001199    321.27218  0.078975462  0.082249389            2 
  340000    1.1349903   -3.4218392    320.35303    0.0785179  0.082205905            7 
  341000     1.110782   -3.3901077    323.85477  0.079143395   0.08216688            1 
  342000    1.1211515   -3.4035477    321.91532  0.078439406  0.082130517            3 
  343000     1.104065   -3.4192445    323.79824  0.078668182  0.082091016            1 
  344000    1.1093401   -3.3793035    325.67406   0.07889391  0.082049898            3 
  345000    1.1300466   -3.3938641    325.49825  0.078622767  0.082010865            3 
  346000    1.1323005   -3.3920152    328.34397  0.079080917  0.081972441            2 
  347000    1.1373772   -3.3657626     329.4086  0.079108694  0.081936114            2 
  348000    1.1313701   -3.3779542    329.62258  0.078932609  0.081899491            1 
  349000    1.1040952   -3.3712526    330.14164  0.078830381  0.081862863            2 
  350000    1.1256517   -3.4228905    329.70873  0.078502078   0.08182529            2 
  351000    1.1136348   -3.3993952    331.75513  0.078764276    0.0817877            3 
  352000    1.1150974    -3.364158    332.19119  0.078643748  0.081750444            3 
  353000    1.1476754   -3.3901209    333.80553  0.078802062   0.08171179            2 
  354000    1.1046655   -3.4013271    335.32941  0.078938186  0.081674386            3 
  355000    1.0780811   -3.3973861    336.38046  0.078962548  0.081637854            4 
  356000    1.1020451   -3.4104174    334.65733  0.078337391  0.081601752            2 
  357000    1.1199815   -3.4123284     336.9997   0.07866473  0.081565531            1 
  358000    1.1165026   -3.3984504    337.89811  0.078654123  0.081527917            3 
  359000    1.1014566    -3.428496    338.40524  0.078552749  0.081489823            2 
  360000     1.101636   -3.4194296    339.13629  0.078503772   0.08145457            4 
  361000    1.1120092   -3.3988824    339.42122  0.078352081  0.081417904            1 
  362000    1.0831277   -3.3737764    340.54293   0.07839386  0.081379018            4 
  363000    1.1160569    -3.388366    341.14418  0.078315926  0.081341347            2 
  364000     1.095427   -3.3789895    343.30658  0.078595828  0.081304941            2 
  365000    1.0860572   -3.4176183    342.63304  0.078226722  0.081269547            1 
  366000    1.1120963   -3.4218772    345.04727  0.078562674  0.081232512            3 
  367000    1.1401599   -3.3891829    347.39401  0.078881473   0.08120035            3 
  368000    1.1299173   -3.3977589    346.57674  0.078482052  0.081166015            1 
  369000    1.0684343   -3.4199092    347.02078  0.078369643  0.081130439            3 
  370000     1.074231   -3.3969927    349.70248  0.078761819  0.081097027            2 
  371000    1.1132553   -3.4106613    349.93642  0.078602071   0.08106351            1 
  372000    1.0982727   -3.4108925    349.97384  0.078399157  0.081028114            2 
  373000    1.0964103   -3.3827865    351.73464  0.078582358  0.080995424            1 
  374000    1.1088201   -3.4119016    353.53027  0.078772342  0.080962042            3 
  375000    1.0932227   -3.3977217    352.48073  0.078329051   0.08093276            9 
  376000    1.1035847   -3.3820536    355.96612  0.078893201  0.080904114            2 
  377000    1.1158519   -3.4174405    354.93817  0.078456713  0.080872516            1 
  378000    1.0968992   -3.4126162    356.60077   0.07861569  0.080840936            4 
  379000    1.1064774   -3.4186518    357.03786  0.078504366  0.080811397            4 
  380000    1.1191684   -3.4336924    359.11516  0.078753324  0.080782539            1 
  381000    1.0878776   -3.4085176    359.32237  0.078591944  0.080754256            3 
  382000    1.1029379   -3.4037194     359.8255  0.078495963  0.080725903            2 
  383000    1.1222644   -3.4208134     361.2433  0.078599499  0.080698528            2 
  384000    1.1111495   -3.4248217    362.29565  0.078623188  0.080669421            1 
  385000    1.0717788   -3.4257158    361.37857  0.078220469  0.080640094            1 
  386000    1.0894736    -3.434803    362.81587  0.078328125  0.080607641            3 
  387000    1.0848695   -3.4108774    361.74678  0.077895517  0.080574252            2 
  388000     1.095764    -3.409107    362.98241  0.077960139  0.080539168            1 
  389000    1.0936081   -3.4276767    363.79057  0.077932856  0.080501537            1 
  390000    1.0889329   -3.4088423    364.47514  0.077879304  0.080464535            2 
  391000     1.100487   -3.4499895    363.93369  0.077564725  0.080425507            1 
  392000     1.104236   -3.3986748    367.13642  0.078047708  0.080386961            2 
  393000    1.0904281   -3.4208654    364.44448  0.077278303  0.080346702            2 
  394000     1.113068   -3.3814258    368.40147  0.077919093  0.080306651            2 
  395000    1.0883857    -3.419698     367.8831  0.077612469  0.080268483            2 
  396000    1.0785081   -3.4273328    367.80878  0.077400838  0.080230036            3 
  397000    1.1015688   -3.4078491    368.02328  0.077250899  0.080190264            2 
  398000    1.0917861   -3.4355666    370.33376  0.077540569  0.080153726            3 
  399000     1.091656   -3.3991127    371.48934  0.077587581  0.080118483            2 
  400000    1.0952329   -3.4191885    372.66501  0.077638544  0.080083867            2 
  401000    1.1007069   -3.4367366    374.08163  0.077739324  0.080049244            3 
  402000    1.1038037   -3.4194208    374.63606  0.077660875  0.080013652            3 
  403000    1.0895315   -3.4003574    375.20186  0.077585165  0.079977388            2 
  404000    1.0901655    -3.417793    376.91514  0.077746522  0.079943825            1 
  405000    1.0922653    -3.431892    378.12159  0.077802797  0.079911044            3 
  406000    1.0900507   -3.4116423     376.8268  0.077345403  0.079876101            2 
  407000    1.0901985    -3.406145    381.09787  0.078029867  0.079844138            3 
  408000    1.0953241   -3.4440135    379.24096  0.077459346  0.079811026            2 
  409000    1.0857714   -3.4341426    379.12234   0.07724579  0.079775514            1 
  410000    1.0899101   -3.4326554    380.96513  0.077431936  0.079742727            2 
  411000    1.0877903   -3.4289886    381.55772  0.077363691   0.07970863            1 
  412000    1.1016149   -3.4375012    382.90365  0.077448149  0.079674277            2 
  413000    1.0718839   -3.4246261    382.44997  0.077169081  0.079638742            2 
  414000    1.0909876     -3.43086    383.80663  0.077255762  0.079602085            2 
  415000    1.0867657   -3.4623079    383.46828  0.077001662  0.079565238            2 
  416000    1.0997042   -3.4161665    385.29668  0.077182829  0.079526331            2 
  417000     1.076966   -3.4561313    386.02906  0.077144097  0.079490566            2 
  418000    1.0979388   -3.4302755    386.06189  0.076966087   0.07945525            4 
  419000    1.0848719   -3.4300051    389.50308  0.077466801  0.079421216            2 
  420000     1.084754   -3.4513244     389.1521  0.077212718  0.079390346            3 
  421000    1.0738781   -3.4045923    390.42252  0.077280783   0.07935843            2 
  422000    1.0785911   -3.4193371    393.35025  0.077675799  0.079327547            2 
  423000    1.0737032   -3.4382959    392.15156   0.07725602  0.079297153            3 
  424000    1.0969871   -3.4292653     393.3483  0.077309022  0.079266769            2 
  425000    1.1145653   -3.4669271    393.17396  0.077092934  0.079234368            3 
  426000    1.0686525   -3.4348928    393.51576  0.076978827  0.079201906            5 
  427000    1.1108095   -3.4205432    394.79209  0.077047636  0.079169247            2 
  428000    1.0735947   -3.4200853    395.86399  0.077076321  0.079136615            2 
  429000     1.071491   -3.4736339    394.68313  0.076667275  0.079102011            3 
  430000    1.1100505   -3.4373835    396.19529  0.076782032  0.079066782            2 
  431000    1.0838703   -3.4633042    396.72384  0.076706078  0.079031552            5 
  432000    1.0718084   -3.4401349    397.80062  0.076736231  0.078996235            2 
  433000    1.0685944    -3.429345    399.32064  0.076851547  0.078961548            1 
  434000    1.0872129   -3.4463049    399.02997  0.076618658  0.078926368            3 
  435000    1.0882244    -3.445177    400.03159  0.076634403  0.078893717            1 
  436000    1.0787944   -3.4592135    400.32918  0.076515517  0.078861621            3 
  437000    1.0814628   -3.4151945    402.31799  0.076719678  0.078829954            4 
  438000    1.0593528   -3.4422913    402.67058  0.076611601  0.078796559            2 
  439000    1.0678296   -3.4511271    405.11307  0.076900734   0.07876284            2 
  440000    1.0899468   -3.4446979    404.24947  0.076562399  0.078729233            2 
  441000    1.0973558   -3.4604948    404.78248  0.076489508  0.078696356            4 
  442000    1.0839433   -3.4282384    406.88921  0.076713652  0.078664205            2 
  443000    1.0948115   -3.4303264    407.95002  0.076740034  0.078632221            6 
  444000    1.0811972   -3.4473291    408.12512   0.07660006  0.078599673            2 
  445000    1.0701435   -3.4182493    409.82671  0.076746575  0.078567518            4 
  446000    1.0546723     -3.45139    409.38363  0.076491709  0.078533388            2 
  447000    1.0633166   -3.4338688    409.40377  0.076324342  0.078499775            1 
  448000    1.0603508   -3.4476601    411.48716   0.07654151  0.078466182            2 
  449000    1.0890891   -3.4448201    410.92662  0.076267004  0.078431051            3 
  450000    1.0687919   -3.4872235    412.07525  0.076310231  0.078394781            2 
  451000    1.0910805   -3.4459636    412.50702  0.076220809  0.078359273            2 
  452000    1.0560872   -3.4294061    413.74618  0.076280638  0.078325188            3 
  453000    1.0884567   -3.4339335    413.66555  0.076097414  0.078289703            2 
  454000    1.0864012    -3.483075    413.78051  0.075950901  0.078253651            2 
  455000    1.0716501   -3.4516306     414.4895  0.075913827  0.078216035            3 
  456000    1.0713053    -3.441643    417.78023  0.076348727  0.078180782            3 
  457000    1.0753068   -3.4422953    416.39464  0.075929001  0.078144218            2 
  458000    1.0649645    -3.445187    417.50127  0.075964569  0.078107166            5 
  459000    1.0695017   -3.4193922    419.07537  0.076084852  0.078071125            4 
  460000    1.0862684   -3.4755696    418.24329  0.075768712  0.078035884            1 
  461000     1.058624   -3.4340517    420.74979  0.076057445  0.077999108            2 
  462000    1.0643625   -3.4425275     422.0663  0.076130285  0.077964448            4 
  463000    1.0464116   -3.4588174     420.5285  0.075689074  0.077926785            3 
  464000    1.0815285   -3.4612568    422.05773  0.075800598  0.077891964            2 
  465000    1.0799722   -3.4463771    422.14658   0.07565351  0.077855739            2 
  466000    1.0543847   -3.4453814    422.79877  0.075607792  0.077820087            2 
  467000    1.0654448   -3.4441419    425.20195  0.075874723  0.077783636            2 
  468000    1.0687943    -3.433493     425.5772  0.075779416  0.077749876            2 
  469000     1.062315   -3.4301851    425.92844  0.075680248  0.077713978            3 
  470000    1.0614389   -3.4510082    426.39796  0.075602475  0.077679374            3 
  471000    1.0753626   -3.4437782    428.51367   0.07581629  0.077645014            2 
  472000    1.0526227    -3.447374    429.78618  0.075880329  0.077611033            2 
  473000    1.0654628   -3.4845092    429.66562  0.075698664  0.077576465            2 
  474000    1.0724471    -3.458017    429.96864  0.075592237  0.077541389            2 
  475000    1.0636083   -3.4697501    430.68562  0.075558881  0.077506173            2 
  476000    1.0687787   -3.4282149    432.56964  0.075729978  0.077473517            3 
  477000    1.1014307    -3.462214     433.1675  0.075675663  0.077441208            3 
  478000    1.0926652   -3.4603885    436.03937   0.07601802  0.077409396            2 
  479000    1.0381077   -3.4868374    435.32291  0.075734675  0.077378582            3 
  480000    1.0771971   -3.4661145    435.89981   0.07567705  0.077348241            2 
  481000    1.0644661   -3.4691009    437.70942  0.075833233  0.077319442            2 
  482000    1.0628011   -3.4778174    437.58993  0.075655244  0.077289276            2 
  483000    1.0497433   -3.4485279    438.07152  0.075581697  0.077257979            3 
  484000    1.0602225   -3.4683772    437.99851  0.075412966  0.077226491            2 
  485000    1.0732994    -3.487449    437.36261  0.075148214  0.077194378            2 
  486000    1.0533908   -3.4799331    439.42253  0.075346798  0.077161381            3 
  487000    1.0853315   -3.4770978    439.39896   0.07518805  0.077128431            1 
  488000    1.0558081   -3.4713159    443.68801  0.075766395  0.077097081            2 
  489000    1.0489263   -3.4953165    440.95094  0.075145014  0.077065446            4 
  490000    1.0631532   -3.4370133    444.69437  0.075628294   0.07703396            1 
  491000    1.0554527   -3.5059586    445.16726  0.075554525  0.077006223            4 
  492000    1.0606173   -3.4504279    446.99006  0.075709698  0.076976625            2 
  493000    1.0519691    -3.491166     445.0396  0.075226437  0.076947684            2 
  494000    1.0614537   -3.4652637    447.25199  0.075447367  0.076917956            4 
  495000     1.048902   -3.4503475    448.16751  0.075449075  0.076889223            2 
  496000    1.0457861   -3.4787625    448.25009  0.075310834  0.076859724            2 
  497000    1.0628447    -3.487493    450.58399  0.075550635  0.076831876            2 
  498000    1.0663982    -3.490673     449.6797  0.075247607  0.076804223            1 
  499000    1.0634304   -3.4746466     451.5091  0.075402321  0.076777164            2 
  500000    1.0625438   -3.4976749     450.9685  0.075161416  0.076750143            2 
  501000    1.0602086   -3.5022822    453.40374  0.075416458  0.076724261            3 
  502000    1.0813117   -3.4369306     454.9435  0.075521829   0.07669772            3 
  503000    1.0438417   -3.4770231    454.44864  0.075289701  0.076672697            1 
  504000     1.063862   -3.4944556     456.2736  0.075442064  0.076646022            2 
  505000    1.0850222   -3.4969179    457.04699  0.075420296  0.076620854            3 
  506000    1.0567797   -3.4968748    458.81103  0.075561764  0.076596364            5 
  507000    1.0488972   -3.4729133    457.93418  0.075268603  0.076573835            1 
  508000    1.0497484   -3.5392853    457.02583  0.074971429  0.076548291            4 
  509000    1.0282753   -3.4994302    459.26312  0.075190426  0.076521097            3 
  510000    1.0532845   -3.4733599    462.22915  0.075527639  0.076496014            2 
  511000    1.0786495   -3.5018026    462.02436  0.075346439  0.076469782            3 
  512000    1.0263847   -3.4962927    460.70236  0.074984108  0.076445072            2 
  513000    1.0544461   -3.4612241    465.24486  0.075575839  0.076418095            2 
  514000    1.0650831   -3.5190034    464.21287  0.075261491   0.07639097            1 
  515000    1.0425164   -3.4645062    463.51877  0.075003036  0.076362809            4 
  516000      1.07119   -3.4779975    464.79937  0.075064498  0.076334652            2 
  517000    1.0340732   -3.4891506    463.87625  0.074770511  0.076305472            3 
  518000    1.0426198   -3.4931245    463.81418  0.074616181  0.076274972            3 
  519000    1.0390004   -3.4988536    465.49583  0.074742426  0.076245329            4 
  520000    1.0253482   -3.4823157    464.66397   0.07446538  0.076214433            1 
  521000    1.0297306   -3.4887109    469.00009  0.075016009  0.076185437            2 
  522000    1.0342647   -3.4728652    469.37177  0.074931636  0.076154252            3 
  523000    1.0373632   -3.4811633    467.95047  0.074561897  0.076123869            2 
  524000    1.0386106   -3.4613511    466.77763  0.074233083  0.076091728            4 
  525000    1.0571221    -3.524146    468.41154  0.074351038  0.076058463            1 
  526000    1.0495907   -3.4964832     470.7737  0.074583919  0.076026054            5 
  527000    1.0284559   -3.4790665    470.31056  0.074369159  0.075994436            5 
  528000    1.0663542   -3.4995629    470.62387  0.074277757  0.075962768            2 
  529000    1.0276123   -3.4772181    472.34416  0.074408342  0.075931383            2 
  530000    1.0252064   -3.4667439     472.9393  0.074361525  0.075900204            1 
  531000    1.0294429   -3.5185771    471.93754  0.074064272  0.075870409            5 
  532000     1.037108   -3.4891458    476.21011  0.074594315  0.075839552            3 
  533000    1.0434334   -3.4859343    475.76542  0.074384837  0.075808931            1 
  534000    1.0585701   -3.4988559     473.8935  0.073953418  0.075778913            3 
  535000    1.0342316   -3.4766434    477.93711  0.074445032  0.075748503            1 
  536000    1.0512839   -3.4627282    476.66103  0.074107746  0.075718725            6 
  537000    1.0399608   -3.4888368    478.95669  0.074325991  0.075688634            3 
  538000   0.99822786   -3.5099622     479.4725  0.074267735  0.075660003            1 
  539000    1.0400408   -3.4923066    480.42452  0.074277137   0.07563101            3 
  540000    1.0394307   -3.5105744    480.14499  0.074096449  0.075601827            2 
  541000    1.0321432   -3.5001069    483.56919  0.074486936  0.075573755            2 
  542000    1.0485044   -3.5271116    481.01668  0.073957054  0.075545697            1 
  543000    1.0074073   -3.5199891    481.56326  0.073904736  0.075515851            6 
  544000    1.0317387   -3.5021839     484.5971  0.074233625  0.075484099            3 
  545000     1.005963   -3.5034798    484.15216  0.074029382  0.075452616            3 
  546000    1.0277202   -3.5135926     483.6251  0.073813355  0.075420572            3 
  547000    1.0150999   -3.5225075     483.9725  0.073731337  0.075387726            3 
  548000    1.0350815   -3.5133455    486.23188  0.073940371  0.075355765            5 
  549000    1.0376062   -3.4630824    485.90251  0.073755693  0.075323131            5 
  550000    1.0422738   -3.5057429     484.3469  0.073385894  0.075290083            2 
  551000    1.0271541   -3.5082363    487.53913  0.073735501  0.075257269            2 
  552000    1.0451448   -3.5114029    489.13018  0.073842117  0.075223854            2 
  553000    1.0369508   -3.5116957    487.35656  0.073441313  0.075190877            3 
  554000    1.0462529   -3.5030591    488.77006  0.073521369  0.075159109            4 
  555000    1.0223952   -3.5132801    490.54071  0.073654761  0.075125952            3 
  556000    1.0212444   -3.5031422    491.19845  0.073620871  0.075092074            2 
  557000    1.0328083   -3.5349166    489.73175  0.073269263   0.07505864            5 
  558000    1.0170887   -3.5258716    491.73217  0.073436704  0.075025158            4 
  559000    1.0298742   -3.5100686    491.99722  0.073344845  0.074992419            3 
  560000    1.0272628   -3.5370061    492.61978  0.073306515  0.074960516            3 
  561000    1.0386544   -3.5349371    493.17887  0.073258893  0.074927611            4 
  562000     1.024765   -3.5286148    495.08743  0.073411541  0.074894683            3 
  563000    1.0345189   -3.5230362    495.51694  0.073344721  0.074861719            3 
  564000    1.0279345   -3.5138216    496.93945  0.073424859   0.07482821            4 
  565000    1.0346931   -3.5396204     499.7361   0.07370739  0.074795897            3 
  566000    1.0210162   -3.4963735    497.58489  0.073260437   0.07476497            1 
  567000    1.0283133   -3.5276926    498.84712  0.073316743  0.074732145            5 
  568000    1.0464164   -3.4885157    498.39688  0.073121608  0.074700858            3 
  569000    1.0400798   -3.5020198    498.12913  0.072953886  0.074670197            2 
  570000    1.0281669   -3.5347467     498.8286  0.072928158   0.07463775            3 
  571000    1.0034587   -3.4986555    499.92942  0.072961095  0.074605874            1 
  572000    1.0138772   -3.5153575    502.97969  0.073277926  0.074573784            3 
  573000    1.0472049   -3.5197696    501.65109  0.072956819  0.074541639            2 
  574000    1.0507702   -3.5016166     504.5918  0.073256649  0.074509996            2 
  575000    1.0286018   -3.5064256    501.95552  0.072747176  0.074477848            5 
  576000    1.0306527   -3.4923792    503.96364  0.072911406  0.074445272            3 
  577000     1.015651   -3.5413976    503.35557  0.072697222  0.074412703            4 
  578000    1.0189454   -3.5161209    504.92336  0.072797485  0.074379191            2 
  579000    1.0193562   -3.5133517     506.1583  0.072849496  0.074347134            5 
  580000    1.0120656   -3.5161992     505.0652  0.072566839  0.074314531            3 
  581000    1.0314647   -3.5380081    506.62482  0.072665637  0.074281557            4 
  582000    1.0244032   -3.5419206    508.24903  0.072773343  0.074248516            5 
  583000    1.0029556   -3.5359791    510.70524  0.072999606  0.074216926            6 
  584000     1.010518   -3.5423351     510.4574  0.072839241  0.074184795            2 
  585000    1.0103737   -3.5113028    509.84619  0.072627662  0.074153393            1 
  586000    1.0418438   -3.5291889    509.38435  0.072438048  0.074122484            3 
  587000    1.0015043   -3.5344136    511.84019  0.072663287  0.074089987            3 
  588000    1.0196062   -3.5326916    512.23853  0.072596164  0.074058111            2 
  589000    1.0132947   -3.5514018    513.54553  0.072657829  0.074026352            2 
  590000    1.0436427   -3.5556776    514.78659   0.07270997   0.07399499            1 
  591000    1.0125792   -3.5336554     513.9591  0.072470262  0.073963934            6 
  592000    1.0171026   -3.5434551    513.66896  0.072307004  0.073931263            2 
  593000     1.040588   -3.5131342    516.06355  0.072521578  0.073899553            3 
  594000    1.0258846   -3.5559213    516.78796  0.072501117   0.07386745            6 
  595000    1.0165969   -3.5523024    515.79806  0.072240625   0.07383498            2 
  596000    1.0241005   -3.5261628    517.00238  0.072287804  0.073802556            3 
  597000   0.99831948   -3.5289774    520.53831  0.072660289  0.073770435            3 
  598000    1.0145296   -3.5504359    520.61906  0.072550037  0.073739273            3 
  599000     1.023405   -3.5731164    517.72449  0.072026222  0.073707123            5 
  600000    1.0244572   -3.5542691     519.3823   0.07213643  0.073674609            1 
  601000    1.0174229   -3.5207802    519.71692  0.072062801  0.073641744            3 
  602000    1.0140992   -3.5277282    521.76393  0.072226457    0.0736095            3 
  603000   0.99488475     -3.54511    521.39471  0.072055654  0.073576468            3 
  604000    1.0246552   -3.5138262    523.23669  0.072190493  0.073544395            4 
  605000   0.99463311   -3.5415356    523.76991  0.072144616  0.073512083            5 
  606000    1.0399121   -3.5359199    524.02975  0.072061297  0.073479876            2 
  607000    1.0220231   -3.5344474    524.55059  0.072014084  0.073448396            2 
  608000    1.0196933   -3.5213246    527.69205  0.072326213  0.073417109            1 
  609000   0.99152235   -3.5161983    527.27251  0.072150043  0.073386833            3 
  610000   0.98170842    -3.502787    529.97942  0.072401561   0.07335641            3 
  611000    1.0006281   -3.5377297    528.81875  0.072124761  0.073326023            2 
  612000   0.99507327   -3.5280798    527.93348  0.071886368  0.073294444            4 
  613000    1.0114566   -3.5413773     528.9777  0.071911053  0.073263189            2 
  614000   0.99185802   -3.5244649    531.75939   0.07217147  0.073232374            5 
  615000    1.0361535   -3.5614116    528.65906  0.071634019  0.073200224            2 
  616000     1.008054   -3.5410376    531.95083  0.071963045   0.07317048            3 
  617000    1.0018908   -3.5482571    533.01762  0.071990494  0.073140625            4 
  618000    1.0006364    -3.512171    533.80514  0.071980197  0.073111656            2 
  619000    1.0065496   -3.5570017    537.04251  0.072299745  0.073083334            3 
  620000   0.98585474   -3.5404367    537.68519  0.072269514  0.073054101            2 
  621000    1.0192695       -3.532    535.85974  0.071908177  0.073024554            3 
  622000    1.0011243   -3.5456051    538.48741  0.072144616  0.072997062            2 
  623000     1.022688   -3.5449104    538.59126  0.072042705  0.072969786            9 
  624000    1.0033784   -3.5496342    540.51029  0.072183533  0.072942307            2 
  625000    1.0203675   -3.5560694    539.53244  0.071937658  0.072915443            2 
  626000    1.0269759     -3.55623    541.18229   0.07204237  0.072888369            5 
  627000    1.0165214   -3.5194185    541.57219  0.071979291  0.072861216            1 
  628000   0.99962217    -3.542848    542.42182  0.071977418  0.072834008            4 
  629000    1.0047034   -3.5713832    539.93454  0.071533458  0.072807285            2 
  630000   0.98484654   -3.5330814    544.82967  0.072067417  0.072779458            3 
  631000     1.001865   -3.5600361    545.37203  0.072024832  0.072752938            1 
  632000    1.0071819   -3.5709156    547.23667  0.072156734  0.072724732            2 
  633000    1.0056141   -3.5633679     546.3183  0.071921841  0.072697275            3 
  634000   0.99625292   -3.5681518    545.56699  0.071709647  0.072668551            2 
  635000     1.020907    -3.574748      545.406  0.071575591  0.072640035            2 
  636000   0.99101534    -3.545627    545.12004  0.071425582  0.072610767            3 
  637000    1.0194122   -3.5720567    546.80496  0.071533878  0.072581782            3 
  638000   0.99592553   -3.5711647    547.60853  0.071526714  0.072552017            4 
  639000    1.0032035   -3.5472921    549.36224  0.071643485  0.072522743            2 
  640000   0.99223637   -3.5569876    546.34949  0.071139256  0.072493571            2 
  641000    1.0028529     -3.55545    549.46529  0.071433345  0.072464343            4 
  642000   0.98573189   -3.5702517    550.42769     0.071447  0.072435965            2 
  643000   0.98786302   -3.5779017    551.03451  0.071414529   0.07240677            3 
  644000    1.0068206   -3.5745092    552.88191   0.07154269  0.072377886            3 
  645000   0.97963965   -3.5633387    554.05042  0.071582741  0.072347727            2 
  646000   0.97531929   -3.5882597    552.90706   0.07132444  0.072318487            1 
  647000   0.96392619   -3.5686952      551.865  0.071079985  0.072287977            2 
  648000   0.99834014   -3.5534739    553.24461  0.071147713  0.072258845            5 
  649000   0.98677319   -3.5702004    553.63928  0.071088763  0.072228948            4 
  650000   0.98797723   -3.5617746     554.8878  0.071139461  0.072199777            2 
  651000    1.0098499   -3.5817906    553.38418  0.070837709    0.0721706            1 
  652000   0.99030224   -3.5846797    555.96426  0.071058827  0.072141094            3 
  653000   0.99190059   -3.5544997    556.93193  0.071073498  0.072110679            1 
  654000    0.9914687   -3.5910793    555.68377  0.070805781  0.072080206            4 
  655000    1.0068474    -3.549192    556.31205  0.070777615  0.072049416            6 
  656000   0.97238567   -3.5642109    557.27411  0.070791934  0.072017317            1 
  657000   0.98749396   -3.5871165    557.47319  0.070709435  0.071985952            4 
  658000   0.98302505   -3.5634608     558.6209  0.070747328  0.071955368            3 
  659000    1.0080751    -3.585406    557.61587  0.070512882  0.071925293            3 
  660000   0.98515124   -3.5972296    559.02229  0.070583623  0.071894027            3 
  661000   0.98780059   -3.5769792    559.31964  0.070514327  0.071862872            5 
  662000    1.0009742   -3.5537708    563.02028   0.07087365  0.071832878            2 
  663000   0.97125843    -3.552676    563.86936  0.070873474   0.07180133            3 
  664000    1.0084065   -3.5634593    561.44135  0.070462017  0.071768809            3 
  665000   0.95763742   -3.5693305    565.07075   0.07081087  0.071738117            3 
  666000   0.99900968   -3.5768985    562.55348  0.070389574  0.071707081            1 
  667000    1.0056562   -3.5714976    565.11311  0.070603837  0.071675863            3 
  668000    0.9852262   -3.5762408    566.65349  0.070690305  0.071644232            3 
  669000   0.98807153   -3.5928568    565.37266  0.070425095  0.071610992            4 
  670000   0.96732522   -3.5634022     567.7404  0.070614478  0.071578966            1 
  671000   0.98262902   -3.5738386    567.16137  0.070437329  0.071548525            5 
  672000   0.97523433   -3.5767052     566.4015  0.070238281  0.071517818            2 
  673000   0.96779401   -3.5641132    568.57412  0.070402937  0.071486675            5 
  674000   0.97662397   -3.5876917    569.50375  0.070413421  0.071455368            4 
  675000   0.99861036   -3.5785612    570.05665  0.070377364  0.071423986            3 
  676000   0.96677809   -3.5714405     570.3921  0.070314608  0.071394038            4 
  677000    1.0007149   -3.5604458    571.13999  0.070302806    0.0713642            3 
  678000   0.97179497   -3.5699338    571.70249  0.070268251  0.071334226            2 
  679000   0.98654024   -3.5791562    573.87646  0.070431574  0.071303254            3 
  680000    1.0022468   -3.6072912    571.38804  0.070023045  0.071272748            4 
  681000   0.97366851   -3.5832118     572.5878  0.070067033  0.071242013            7 
  682000    0.9593628   -3.5745079    573.00436  0.070015196  0.071211124            3 
  683000   0.98334306   -3.6031164    573.26536  0.069944529  0.071179597            2 
  684000   0.97200845   -3.5882076    574.66653  0.070012978  0.071147465            2 
  685000   0.96506746   -3.5595433    576.15239  0.070091532  0.071116205            3 
  686000   0.96510136   -3.5855948    576.23758  0.069999706  0.071085383            2 
  687000   0.98136308    -3.588186      575.454  0.069802766  0.071054958            6 
  688000   0.97777764   -3.5726231    578.79788  0.070106333  0.071024854            5 
  689000   0.97190857   -3.5613693    579.42115  0.070079965  0.070994707            2 
  690000   0.96288308   -3.5790416    578.41311  0.069856655  0.070964433            3 
  691000     0.982876   -3.6153412    577.91408  0.069695378  0.070933086            3 
  692000   0.96029944    -3.617677    579.22082  0.069752026    0.0709023            5 
  693000   0.98164714   -3.5869924    579.73195  0.069712837  0.070870954            4 
  694000   0.99706334   -3.5773023    581.48122  0.069822433  0.070840555            2 
  695000   0.99485949   -3.5878027    581.15433  0.069682773  0.070809873            2 
  696000   0.96951398   -3.5939823    581.41756  0.069614172  0.070779139            2 
  697000   0.96919889   -3.6085425    582.11507  0.069597689  0.070747893            2 
  698000   0.98546178   -3.5782671    582.65462  0.069562395  0.070716112            3 
  699000   0.96297669   -3.5908686    584.02656  0.069626438  0.070684219            3 
  700000   0.97068304     -3.58472    582.31351  0.069323036  0.070652068            2 
  701000   0.99503602   -3.6172471    585.21298  0.069568828  0.070620546            2 
  702000    0.9678659   -3.5871456    583.76909  0.069298326  0.070588499            1 
  703000   0.96714545   -3.6101194    586.82101  0.069561523  0.070557036            3 
  704000   0.96758212    -3.595345    586.95753  0.069478874  0.070527043            3 
  705000   0.96665435   -3.6055753    586.27852  0.069300062  0.070495494            3 
  706000   0.99458417   -3.6021641    586.77928   0.06926101  0.070463727            5 
  707000   0.95793429    -3.602899    586.96937  0.069185451  0.070431951            4 
  708000   0.96785678   -3.5848551    590.43723  0.069495908  0.070400535            8 
  709000   0.96143017   -3.6139777    588.77382  0.069202377  0.070369709            3 
  710000   0.96803993    -3.596154    588.75786  0.069103035   0.07033803            3 
  711000   0.96168089   -3.6064247     589.8194  0.069130262    0.0703065            2 
  712000   0.95075669   -3.5786824    590.59401  0.069123831  0.070274701            5 
  713000   0.98087616   -3.6047196    589.92628  0.068948841  0.070242766            1 
  714000   0.96115346   -3.6082903    591.88519  0.069080905  0.070210847            4 
  715000   0.96802448   -3.5994677    590.50677  0.068823633  0.070178993            2 
  716000   0.98577786   -3.6007382    592.50733  0.068960351  0.070147408            4 
  717000   0.95171293   -3.6030702    590.90558  0.068678008  0.070114707            4 
  718000   0.98672066   -3.6058373    591.38821  0.068638372  0.070080685            4 
  719000   0.95918057   -3.5892763    593.13591  0.068745469  0.070046577            5 
  720000   0.98346112   -3.6414865    591.93744  0.068511278  0.070012118            4 
  721000    0.9527053   -3.6074044    591.68641  0.068387241   0.06997735            2 
  722000   0.96129459   -3.6098606    591.73021  0.068297577  0.069941942            3 
  723000   0.96047007   -3.6103379    595.30394  0.068615023  0.069907105            4 
  724000   0.98699028   -3.6073856    596.44506  0.068651595  0.069872369            5 
  725000   0.97023924   -3.6064294    593.53458  0.068222365  0.069838264            2 
  726000   0.96699528    -3.584836    596.98105  0.068523995  0.069803628            2 
  727000    0.9636142   -3.6208304    598.18582  0.068567838  0.069769786            2 
  728000   0.95788891   -3.6437269    595.01955  0.068111212  0.069734448            2 
  729000    0.9760215   -3.6054075    596.42181  0.068178076  0.069699491            3 
  730000    0.9677847    -3.591488    597.86202  0.068249089   0.06966424            3 
  731000   0.96692188   -3.6300751    594.84347  0.067811613  0.069628691            3 
  732000   0.97735351    -3.601657    598.81891  0.068171552  0.069593668            4 
  733000   0.95970162   -3.6066426    599.33232  0.068136917  0.069558733            2 
  734000   0.95033584   -3.6001974    601.87746  0.068333045  0.069523271            5 
  735000   0.98475984   -3.6068959    600.07665  0.068035902  0.069489148            2 
  736000   0.96417485   -3.5934538    600.86503  0.068032725  0.069454757            4 
  737000   0.96349675   -3.5793511    602.31674  0.068104561    0.0694209            1 
  738000   0.96256467   -3.6046954    600.83614  0.067845092  0.069386609            3 
  739000   0.95895776   -3.6048789    601.93432  0.067877122  0.069351699            4 
  740000   0.93232442   -3.6137761    601.51381  0.067738042  0.069316776            3 
  741000   0.96476432   -3.6111484    604.35509  0.067966159  0.069281394            5 
  742000   0.93498885   -3.6247474    604.34886  0.067873861  0.069246458            4 
  743000   0.96816674   -3.6252366    603.54393  0.067692231  0.069211348            9 
  744000   0.96172385   -3.6240833    604.96199  0.067760079  0.069175952            4 
  745000   0.99154568   -3.6267488    605.59317  0.067739728  0.069140194            2 
  746000   0.96549705   -3.6406459    605.15092  0.067599522  0.069105068            4 
  747000   0.95036522   -3.6259572    606.22256  0.067628576  0.069070425            2 
  748000   0.97610387   -3.6225858    610.21953  0.067983459  0.069036065            2 
  749000   0.94524257   -3.6612718    608.03267  0.067649385  0.069002266            2 
  750000    0.9559805   -3.6343344    611.18682  0.067909646   0.06896849            2 
  751000   0.96487664   -3.6332024    607.17917   0.06737452  0.068934783            2 
  752000   0.95264718   -3.6092018    610.27357  0.067627833  0.068901725            2 
  753000   0.95746222   -3.6178855    611.49526  0.067673225  0.068868371            4 
  754000   0.96846721   -3.6111108    612.87823  0.067736321  0.068835851            4 
  755000   0.94152541   -3.6200205    611.93595    0.0675426  0.068803678            5 
  756000   0.95905129   -3.6097288    614.94465  0.067784904  0.068771025            2 
  757000   0.96048704   -3.6067204    615.69727  0.067778211  0.068739077            1 
  758000   0.97000882   -3.6255056     614.4911  0.067556189  0.068707336            3 
  759000   0.96826351   -3.6290832    615.57412  0.067586091   0.06867513            2 
  760000    0.9741107   -3.6299752    616.12815  0.067557911   0.06864367            2 
  761000   0.95854589   -3.6354479    617.11335  0.067577021  0.068612176            3 
  762000   0.93968135    -3.633448    619.05394  0.067700562  0.068580428            4 
  763000   0.96118576   -3.6343325    620.58837   0.06777942  0.068548377            6 
  764000   0.95139465   -3.5958601    622.09363   0.06785489  0.068517361            4 
  765000   0.96215879   -3.6426738    621.48934  0.067700364  0.068486623            4 
  766000   0.97520426   -3.6335612    620.39871  0.067493332  0.068455653            2 
  767000   0.95122656   -3.6386751    622.64521  0.067649414  0.068424762            1 
  768000   0.96426129   -3.6183115    624.13186  0.067722642  0.068393346            3 
  769000   0.94994462   -3.6369104    621.92871  0.067395829  0.068362577            2 
  770000   0.94270551   -3.6282648    624.10453  0.067543781  0.068331655            2 
  771000   0.94145268   -3.6445128    623.53083  0.067394166  0.068299956            4 
  772000   0.93355561   -3.6414484    620.51749  0.066981594  0.068268912            7 
  773000   0.94197002   -3.6297891    625.90915  0.067476192  0.068237649            2 
  774000    0.9418246   -3.6710835    624.77085  0.067266457  0.068205907            5 
  775000     0.935844   -3.6429198    623.89607  0.067085599  0.068174844            2 
  776000    0.9442413   -3.6486914    626.35509  0.067263218  0.068143641            3 
  777000   0.92920089   -3.6316078    626.52465  0.067194836  0.068113102            6 
  778000   0.92611567   -3.6359524    627.08898  0.067168913  0.068082512            4 
  779000   0.94145666   -3.6309211    627.48845  0.067125422  0.068051332            2 
  780000   0.93369165   -3.6591926    629.16467  0.067218448  0.068020904            3 
  781000   0.94291108   -3.6387386    630.99103  0.067327254  0.067991378            2 
  782000   0.96214799   -3.6444879    631.48343   0.06729363  0.067960929            3 
  783000    0.9669569   -3.6643887    630.24867  0.067076274  0.067930878            6 
  784000   0.93476329   -3.6647547    632.45262  0.067224981  0.067900499            4 
  785000   0.95219989   -3.6330373    633.26314  0.067225386  0.067869816            3 
  786000   0.94797408   -3.6383928    632.48922  0.067057805   0.06783939            4 
  787000   0.92790698   -3.6626883    631.45393  0.066862974   0.06780772            4 
  788000   0.94595367   -3.6383173    632.75287   0.06691549  0.067776399            4 
  789000   0.94996763   -3.6485266    632.37351  0.066790612  0.067745323            2 
  790000   0.94126174   -3.6281203    633.97817  0.066875335  0.067714487            3 
  791000   0.94476637   -3.6581891    631.79705  0.066561004  0.067683504            1 
  792000   0.93483264    -3.654012    633.07851  0.066611796  0.067652533            1 
  793000   0.94714914   -3.6519627    636.88463  0.066927767  0.067621754            6 
  794000   0.94146294   -3.6633587    633.44399  0.066482367  0.067591145            5 
  795000   0.94199643   -3.6583445     635.7973  0.066645419  0.067560318            4 
  796000   0.95581048   -3.6210647    637.23404  0.066712106  0.067529819            4 
  797000   0.93199561   -3.6126153    639.08213  0.066821637  0.067499471            5 
  798000   0.92483637   -3.6858819    638.53905  0.066681187  0.067467984            2 
  799000   0.94512801   -3.6648851    636.93925  0.066430877  0.067436637            4 
  800000   0.93623858   -3.6602737     638.7039  0.066531656  0.067405397            3 
  801000   0.92936258   -3.6350568    636.92869  0.066263908  0.067374882            3 
  802000    0.9275001    -3.662255    640.48083  0.066550377  0.067343862            7 
  803000   0.95623884   -3.6774257    641.22111  0.066544324  0.067313301            4 
  804000   0.96477796   -3.6892932    639.81001    0.0663153  0.067282107            2 
  805000   0.91882021   -3.6458682    643.37467  0.066601933   0.06725082            2 
  806000   0.92183414     -3.65868    642.00989  0.066378194  0.067220104            2 
  807000   0.93959991   -3.6387736     643.3501  0.066434335  0.067189556            3 
  808000   0.92894174   -3.6635631    645.16339  0.066539128  0.067158873            5 
  809000   0.92341332   -3.6398315    644.75396  0.066414706  0.067128575            1 
  810000   0.93294041     -3.65306    645.44356  0.066403658  0.067098669            4 
  811000   0.94244291   -3.6042924    647.56832  0.066540107  0.067069347            2 
  812000    0.9272743   -3.6656107    647.22042  0.066422457  0.067039637            6 
  813000   0.92004023   -3.6620433    646.91868  0.066309828  0.067009264           14 
  814000   0.93022321   -3.6759687    646.98604  0.066235262  0.066979392            4 
  815000   0.91047733   -3.6460802    649.08629  0.066368741  0.066949018            4 
  816000   0.93964355   -3.6384112    647.90897  0.066167174  0.066918814            4 
  817000   0.91896087   -3.6734515    649.52724  0.066251249  0.066887592            4 
  818000   0.93074381   -3.6690723    648.25428  0.066040574  0.066857176            4 
  819000   0.91341663   -3.6689303    651.27059  0.066266849  0.066826659            2 
  820000   0.92054578   -3.6504676    650.03198   0.06606016  0.066795824            2 
  821000   0.91627762   -3.6758364    649.87347  0.065963608  0.066765759            3 
  822000    0.9361408   -3.6576324    649.70365  0.065866144  0.066734141            3 
  823000   0.92136492    -3.662367    650.42679  0.065859335  0.066702971            2 
  824000   0.93466641     -3.66494    649.13296   0.06564856  0.066671461            4 
  825000   0.91735181     -3.68459    649.49826  0.065605885  0.066640091            3 
  826000    0.9226713   -3.6726332    650.79636  0.065657422  0.066608262            2 
  827000   0.93510136   -3.6602382    651.72767  0.065671873  0.066576739            2 
  828000   0.93522009   -3.6406445    651.54691  0.065574367  0.066545282            4 
  829000    0.8967404   -3.6780629    653.08436  0.065649815   0.06651413            2 
  830000   0.92724894   -3.6792969    655.00581  0.065763635   0.06648241            2 
  831000   0.91786767   -3.6911969     652.0548  0.065388567  0.066450828            2 
  832000   0.91937915   -3.6895908     653.6764  0.065472396  0.066418984            3 
  833000   0.91872866    -3.697173    652.48587  0.065274697  0.066386978            4 
  834000   0.90759113   -3.6683887    655.38575  0.065486186  0.066354919            3 
  835000   0.90704581   -3.6854305    656.56388  0.065525337  0.066322832            3 
  836000   0.90796756   -3.6819374    656.88806  0.065479272  0.066291184            6 
  837000   0.94046393    -3.685281    658.23616  0.065535261  0.066259524            4 
  838000    0.9138984   -3.6739941    658.42206  0.065475543   0.06622768            4 
  839000   0.94542297   -3.6834442    659.31674  0.065486366  0.066196127            2 
  840000   0.93056384   -3.6766285     658.2342  0.065301012  0.066165054            5 
  841000   0.94120283   -3.7018659    660.57278  0.065455091  0.066134687            3 
  842000   0.91526116   -3.6908393    661.87603  0.065506337  0.066103886            3 
  843000   0.91598367   -3.6856919    659.47681   0.06519146  0.066073266            3 
  844000    0.9109261   -3.6749957     661.2715  0.065291419  0.066042565            7 
  845000   0.88964308    -3.699275    660.28713  0.065117074  0.066012141            3 
  846000    0.9343675   -3.6966294    665.72369   0.06557562  0.065981775            5 
  847000   0.92340678   -3.6723143    665.98782  0.065524185  0.065952006            5 
  848000   0.92358651   -3.6828371     664.2917  0.065280238   0.06592183            2 
  849000   0.91260392   -3.6626551    665.71049  0.065342608  0.065891294            7 
  850000   0.90438435   -3.6797757    664.58649  0.065155538  0.065861052            5 
  851000   0.88914641   -3.6931202    666.95393  0.065310804  0.065831165            2 
  852000    0.9268839    -3.683623    667.20676  0.065258877  0.065800875            3 
  853000   0.91889922   -3.6893412    665.29228  0.064995338  0.065770404            4 
  854000   0.89512923   -3.6839498    667.90086  0.065173776  0.065739702            4 
  855000   0.91613623   -3.6699903    667.42837  0.065051498  0.065709426            2 
  856000   0.92116257   -3.6999093    666.55041  0.064890032  0.065678477            4 
  857000   0.91576627   -3.6701836    669.78856  0.065129187  0.065648041            4 
  858000   0.89771273    -3.695492    666.27576  0.064712097   0.06561737            3 
  859000   0.90107022   -3.6697318    668.21717  0.064825104  0.065586503            3 
  860000   0.90861058   -3.6868003    669.69193  0.064892629  0.065556208            5 
  861000   0.91384063    -3.680345     668.6747  0.064718806  0.065525889            2 
  862000   0.91535953   -3.7033573    670.12277  0.064783717  0.065495389            4 
  863000   0.89671094    -3.726614    668.06289  0.064509743  0.065463979            6 
  864000   0.93706645   -3.7359757    668.85385  0.064511366  0.065432936            4 
  865000   0.91747405    -3.720922    669.36721  0.064486244  0.065401136            2 
  866000    0.8934318   -3.7093452    670.49715  0.064520511  0.065369915            3 
  867000   0.91908079    -3.697903    671.53291  0.064545647  0.065338783            2 
  868000   0.91090186   -3.6796907    672.96534  0.064608807  0.065308268            7 
  869000   0.90586659   -3.7012173    672.47399  0.064487341  0.065277778            3 
  870000     0.909138   -3.6954625    673.57793  0.064518958  0.065247075            2 
  871000   0.92136026   -3.7014137    674.16549  0.064501099  0.065216819            2 
  872000   0.90582413   -3.7185403    673.97025  0.064408472  0.065186559            3 
  873000   0.90700653   -3.6913479    676.78579  0.064603455  0.065156613            4 
  874000   0.89452038   -3.7221164    676.49453  0.064501767  0.065126293            3 
  875000   0.89941293   -3.7023614    678.00112  0.064571536  0.065096261            4 
  876000   0.91630107   -3.7150709    678.01838  0.064499465  0.065066412            6 
  877000   0.90763746   -3.7185587    676.12469   0.06424598  0.065035983            4 
  878000   0.90307575     -3.70265    678.67842  0.064415188  0.065005542            2 
  879000   0.89250879   -3.6849117    677.17995  0.064199843  0.064975149            2 
  880000   0.89410971   -3.6963952    678.67306  0.064268282  0.064943999            3 
  881000   0.90375115   -3.6961749    679.31679  0.064256223  0.064912903            3 
  882000   0.90536825   -3.7309019    676.81398  0.063946899  0.064881696            3 
  883000   0.89325436   -3.6958074    679.28881  0.064108041  0.064850869            3 
  884000   0.88909796   -3.6999742    679.97135  0.064099863   0.06481993            8 
  885000   0.87940776   -3.6992307    681.98292  0.064216848  0.064789001            3 
  886000   0.88536079   -3.7057475    682.50924  0.064193871  0.064758227            3 
  887000   0.88910262   -3.7373838    680.61106  0.063943166  0.064727133            4 
  888000   0.89495643   -3.7041539    681.77296  0.063980195  0.064696356            2 
  889000   0.90584609    -3.709123    685.31492  0.064240243  0.064665707            4 
  890000   0.90490484   -3.7210096    682.96185  0.063947738  0.064635517            2 
  891000   0.91845623   -3.7107193    683.71471  0.063946382  0.064604375            3 
  892000   0.90214251   -3.7055739    682.50115  0.063761318   0.06457381            2 
  893000   0.91761918   -3.6862948    686.55976   0.06406866  0.064543237            2 
  894000   0.89314345   -3.7315651    683.87795  0.063747012  0.064513035            5 
  895000   0.88836613   -3.7199135    686.34272  0.063905281  0.064482453            2 
  896000   0.88689061     -3.72182     683.5191  0.063571345   0.06445166            2 
  897000   0.88295445   -3.7150774    689.16285  0.064024791  0.064420957            3 
  898000   0.88298492   -3.6849483    686.41155  0.063698176  0.064390838            3 
  899000   0.91169374   -3.6898988    687.64591  0.063741742   0.06436042            5 
  900000   0.91522135   -3.7292558    686.16056  0.063533385   0.06433036            4 
  901000   0.87574103   -3.6979099    690.09564  0.063826826  0.064300235            5 
  902000   0.90714129   -3.7252747    688.79267  0.063635686  0.064270161            5 
  903000   0.88474416   -3.7085477    689.63537  0.063642983  0.064240958            4 
  904000   0.89950196    -3.715876    689.50699  0.063560748  0.064211489            3 
  905000    0.8942872   -3.7197469    689.67489  0.063505975  0.064181612            6 
  906000   0.89112175   -3.7234836    693.54917  0.063792234  0.064151566            5 
  907000   0.87630907   -3.7075304     691.8758  0.063568155  0.064122387            2 
  908000   0.89176751    -3.733422    692.97562  0.063599084  0.064092784            4 
  909000   0.89393791   -3.7327335     691.4763  0.063391667  0.064063414            3 
  910000   0.88639893   -3.7423746    693.67219  0.063523095  0.064034254            6 
  911000   0.89108764   -3.7013651    696.95291  0.063753468  0.064005101            3 
  912000   0.87503822   -3.7216475    696.10345  0.063605944  0.063976612            7 
  913000   0.88301727   -3.7451016    695.87472  0.063515399  0.063947679            7 
  914000   0.88015367   -3.7461258    696.16448  0.063472326  0.063918872            5 
  915000   0.91164606   -3.7296185    699.62759  0.063718359  0.063889607            2 
  916000   0.88628015   -3.7181597    698.44426  0.063541144  0.063860579            4 
  917000   0.88766092   -3.7254668     698.8479  0.063508533  0.063831449            2 
  918000   0.87406918   -3.7494161    698.42672  0.063401119  0.063802456            5 
  919000    0.8992547   -3.7122719    697.84041  0.063278963    0.0637737            2 
  920000   0.89771563    -3.735232    698.97498  0.063312951  0.063744428            4 
  921000   0.87735972   -3.7356793    700.20173  0.063355205  0.063715613            5 
  922000   0.87809388   -3.7292413    698.65999  0.063147143  0.063686592            2 
  923000    0.8599714   -3.7422787    698.03589  0.063022381  0.063657072            4 
  924000   0.87051043   -3.7018416    702.97546  0.063399662  0.063627516            3 
  925000   0.88345959   -3.7329352    696.65182  0.062761425  0.063597714            3 
  926000   0.89741139   -3.7317256    701.24633  0.063107121  0.063568132            2 
  927000   0.88145218   -3.7519659    701.50366  0.063062177  0.063538424            4 
  928000   0.88245476   -3.7464376    701.07861  0.062956054  0.063508265            4 
  929000   0.88322528   -3.7432565    699.74692   0.06276883  0.063478636           10 
  930000   0.87447168   -3.7407788    702.98383  0.062991382  0.063448744            3 
  931000   0.87354499   -3.7294876    702.19198  0.062852844  0.063418166            2 
  932000   0.86153541   -3.7450888    700.59893  0.062642966  0.063387734            2 
  933000   0.88088498   -3.7005209    703.47823  0.062832997   0.06335711            2 
  934000   0.86823309   -3.7362489    701.51197   0.06259029  0.063326471            4 
  935000   0.87848603   -3.7274154    701.84331   0.06255288  0.063295752            5 
  936000   0.88973803   -3.7391963    703.00683   0.06258964  0.063264679            3 
  937000    0.8890631   -3.7469476    703.39737  0.062557575  0.063233619            3 
  938000   0.87775408   -3.7364856    705.28144  0.062658266  0.063203203            3 
  939000   0.87160293   -3.7223358    703.06618  0.062394939   0.06317279            5 
  940000   0.91728541   -3.7470104    704.51569  0.062457065  0.063142637            6 
  941000   0.87798697    -3.721701    706.11768  0.062532561  0.063112624           13 
  942000   0.86623372   -3.7767102    705.63722  0.062423675  0.063082596            6 
  943000    0.8909458   -3.7436801    708.22116  0.062585822  0.063052795            3 
  944000   0.85852761   -3.7614407    706.53391  0.062370578   0.06302233            6 
  945000   0.88210831   -3.7560678    708.88595  0.062511989  0.062992191            5 
  946000   0.86167875   -3.7738879    706.19014  0.062208434  0.062962102            4 
  947000   0.86786892   -3.7390688    707.59315  0.062266205  0.062931601            3 
  948000   0.87848095   -3.7462671    710.36728  0.062444381  0.062901412            9 
  949000   0.87900907   -3.7335897     709.4578  0.062298718  0.062871468            4 
  950000   0.86843143   -3.7270562    710.67774  0.062340153  0.062841368            4 
  951000   0.86918596   -3.7472243    710.45271  0.062254881  0.062811624            6 
  952000   0.87633719   -3.7446536    713.53645  0.062459423  0.062781917            2 
  953000   0.86716888   -3.7623216    711.86052  0.062247335  0.062751978            5 
  954000   0.86515264   -3.7445413    713.82898  0.062354034  0.062722057            4 
  955000   0.86038689   -3.7441766    712.50401  0.062173124  0.062692374            3 
  956000   0.87256134   -3.7168085    714.31262  0.062265744  0.062663291            3 
  957000   0.88932833   -3.7654197    713.21458  0.062105066  0.062633369            7 
  958000   0.88899605    -3.752668    714.22066  0.062127754  0.062603682            5 
  959000    0.8773655   -3.7611404    715.90788  0.062209583  0.062574028            3 
  960000   0.87354112    -3.754765    716.98488  0.062238271  0.062544964            4 
  961000   0.86719244   -3.7744632    717.77963  0.062242424  0.062515411            5 
  962000   0.87869291    -3.751933    715.94043  0.062018402  0.062486279            2 
  963000   0.85927679    -3.773243     717.2114  0.062063984  0.062457485            2 
  964000    0.8604724   -3.7504223    717.34985  0.062011571    0.0624285            3 
  965000   0.87016185   -3.7617306    720.71672  0.062238059  0.062399582            2 
  966000   0.85484901   -3.7762694    719.33617  0.062054535  0.062370832            9 
  967000   0.86810049   -3.7779327    722.01301  0.062221045  0.062342384            4 
  968000   0.87979355   -3.7342422    723.60502   0.06229382  0.062314495            5 
  969000   0.85977845   -3.7782395     722.4907  0.062133703  0.062286613            6 
  970000   0.87619818   -3.7721206      723.728  0.062175945  0.062258395            2 
  971000   0.85094882   -3.7540408    723.49368  0.062091802   0.06223073            9 
  972000   0.84416622   -3.7448048    726.86069  0.062316589  0.062202821            8 
  973000   0.87071361   -3.7472342    723.95916  0.062004039  0.062175323            5 
  974000   0.86711249   -3.7617593    723.05472  0.061862998  0.062146919            4 
  975000   0.89615367   -3.7387404    723.31855  0.061822098  0.062118594            3 
  976000   0.85450169   -3.7687745    726.06108   0.06199292  0.062090503            4 
  977000   0.87964295   -3.7568813    723.08328  0.061675476   0.06206194            3 
  978000   0.86365047   -3.7946076    725.47066  0.061815837  0.062033508            5 
  979000   0.86698908   -3.7561575    727.25551  0.061904623  0.062005275            4 
  980000   0.85094643   -3.7590966    726.56892  0.061783072  0.061976917            5 
  981000   0.86845427   -3.7724717    724.76779  0.061567091  0.061948474            3 
  982000   0.85688908   -3.7658002    726.75622  0.061673134  0.061920355            4 
  983000   0.86367998   -3.7861361    725.59932  0.061512319  0.061891841            3 
  984000   0.85465782   -3.7698806    729.93122  0.061816668  0.061863277            8 
  985000   0.86050526   -3.7780452    727.32875  0.061533735   0.06183494            2 
  986000   0.87036484   -3.7844946    727.52048  0.061487532  0.061806473            4 
  987000   0.86520379   -3.7919838    727.80274  0.061449066  0.061778241            3 
  988000   0.84685626   -3.7635543    727.33841  0.061347707  0.061749932            5 
  989000   0.85470323   -3.7643895    729.24258  0.061446122  0.061721752            3 
  990000   0.85723554   -3.7705133    731.05912  0.061536963  0.061693609            3 
  991000   0.86851011   -3.7904388    728.50145  0.061259792  0.061665067            5 
  992000   0.86959101   -3.7524457     732.2803  0.061515482  0.061636838            2 
  993000   0.86389625   -3.7803191    730.45964  0.061300742  0.061608458            7 
  994000   0.86428432   -3.7670915     732.3333  0.061396152  0.061580376            3 
  995000   0.85032807   -3.7720743    731.04249  0.061226339  0.061552097            9 
  996000   0.85341381   -3.7689399    735.13473  0.061507256  0.061523886            2 
  997000   0.85299948   -3.7557974    735.62752  0.061486753  0.061495647            4 
  998000   0.87385698   -3.7770227    731.26715  0.061061051  0.061467227            3 
  999000   0.83531327   -3.7700503    732.83026  0.061130319  0.061438715            2 
 1000000   0.85469802   -3.7836772    732.08526  0.061007105  0.061410064            5 
 1001000   0.85108376   -3.7635915    736.01936  0.061273673  0.061381821            5 
 1002000   0.86230846   -3.7719448    736.46501  0.061249585  0.061353935            4 
 1003000   0.87228447   -3.7853528    735.20082  0.061083485  0.061325903            3 
 1004000   0.85721216   -3.7865191    738.94102  0.061333086  0.061297273            5 
 1005000   0.84245803   -3.7810378    737.65053  0.061165053  0.061269142            3 
 1006000   0.85329712   -3.7886389    737.14876  0.061062687  0.061240953            3 
 1007000   0.83364185   -3.7885876    736.92753  0.060983741  0.061213266            6 
 1008000    0.8613324   -3.8039703    738.69738  0.061069558  0.061185231            2 
 1009000    0.8469369   -3.7826368    739.37048  0.061064625   0.06115724            4 
 1010000   0.84489493   -3.8168821    736.42438  0.060761088  0.061129202            7 
 1011000   0.81964049   -3.7722431    742.47728  0.061199908  0.061100854            7 
 1012000   0.84438246    -3.800776    738.57784  0.060818333  0.061072779            4 
 1013000   0.84468199   -3.7570726    739.92453  0.060869079  0.061044679            3 
 1014000   0.86373052   -3.7693417    741.90523   0.06097183  0.061016084            5 
 1015000   0.84904924   -3.8159144    738.84906  0.060660842  0.060987638            6 
 1016000   0.85008394   -3.7887301    740.79225  0.060760519   0.06095927            4 
 1017000   0.83610102   -3.7752552    740.29047  0.060659658  0.060930815            5 
 1018000   0.84488617   -3.7991445    739.67277  0.060549507  0.060902914            6 
 1019000   0.86152796    -3.785531    741.78063  0.060662465  0.060874889            2 
 1020000   0.86098753   -3.8077663    740.56847   0.06050396  0.060846242            2 
 1021000   0.85291507    -3.790366    742.49419  0.060601876  0.060817434            3 
 1022000   0.84157377   -3.8086672    742.18281  0.060517189  0.060789082            3 
 1023000   0.85918309   -3.7817844    744.55007  0.060650869  0.060760796            7 
 1024000   0.85046057   -3.7898638    744.93958  0.060623338  0.060732356            3 
 1025000   0.84424301   -3.7836824    745.04039  0.060572389  0.060704186            6 
 1026000   0.85850467   -3.7938882    744.35465  0.060457655  0.060676294            3 
 1027000   0.83399548   -3.8095678     745.7578  0.060512642  0.060648206            2 
 1028000   0.84042551   -3.7806803    745.34181  0.060420056  0.060620011            3 
 1029000   0.85150163   -3.7804604    745.31638  0.060359279  0.060591629            4 
 1030000    0.8312121   -3.7840404    747.56342  0.060482477   0.06056363            2 
 1031000   0.85036789   -3.7889283    745.71027  0.060274028  0.060535558            4 
 1032000   0.84957885   -3.8195921    746.49276  0.060278808  0.060507116            6 
 1033000   0.86811621   -3.8163808    747.67116  0.060315518  0.060478619            3 
 1034000   0.83001973   -3.8136386     746.7866  0.060185896  0.060450449            3 
 1035000   0.85246174   -3.8060819    747.06136  0.060149868  0.060422038            3 
 1036000   0.84279967   -3.7887488    749.69044  0.060303285  0.060393719            3 
 1037000   0.83698008   -3.8372594    746.91421  0.060022035  0.060365035            5 
 1038000   0.85001754   -3.7831849    748.98141  0.060130171  0.060336434            3 
 1039000   0.84608984   -3.8200652    744.76931  0.059734465  0.060307471            3 
 1040000   0.85914969   -3.8044896    749.49585  0.060055757   0.06027821            3 
 1041000   0.84019444   -3.8193264    748.60888  0.059927064  0.060248924            7 
 1042000   0.83695054   -3.8268591     745.6973    0.0596367  0.060219675            3 
 1043000   0.83035228   -3.8008574    748.61667  0.059812773  0.060190158            4 
 1044000   0.81562161   -3.8387523    746.76423  0.059607617  0.060160981            2 
 1045000    0.8510418   -3.8010063    750.42313  0.059842355  0.060131552            4 
 1046000   0.84234625   -3.7985112    749.54839  0.059715455  0.060102021            3 
 1047000   0.81558674   -3.8204956    747.10152  0.059463668  0.060072423            4 
 1048000   0.83148501   -3.8230348    749.57752   0.05960381  0.060043366            4 
 1049000   0.84042764   -3.8419537    749.33456   0.05952769  0.060014215            4 
 1050000   0.82462958   -3.8105505    753.90912  0.059834057  0.059985062            3 
 1051000    0.8327248   -3.8106505    751.32055   0.05957188  0.059955682            4 
 1052000   0.83876569    -3.819781    751.84294  0.059556633  0.059926731            6 
 1053000   0.81743194   -3.8392423    752.31722  0.059537608   0.05989771            5 
 1054000   0.82922718   -3.7833307    751.52698  0.059418642  0.059868908            4 
 1055000   0.83164659   -3.8169177    754.46608  0.059594477  0.059839818            4 
 1056000   0.83168749   -3.8423224    750.06125   0.05919044  0.059810432            3 
 1057000   0.85047163   -3.8093542    754.14392  0.059456316  0.059781442            4 
 1058000   0.81643455   -3.8280178    752.16895  0.059244561  0.059752472            9 
 1059000   0.84360427    -3.823331    753.41298  0.059286511  0.059723176            4 
 1060000   0.84470112   -3.7958903    756.37118  0.059463143   0.05969387            5 
 1061000   0.80894238   -3.8257885    756.20769  0.059394258  0.059664702            4 
 1062000   0.81954093   -3.8050105    754.41335  0.059197532  0.059635877            6 
 1063000   0.82845157   -3.8421722    754.26279   0.05913004  0.059606916            5 
 1064000   0.84665743   -3.7982899    759.11684   0.05945464  0.059578338            4 
 1065000   0.83140344   -3.8052804    758.13079  0.059321658  0.059549968            2 
 1066000   0.82636293   -3.8230464    756.42694  0.059132813  0.059521791            6 
 1067000   0.81812247    -3.825164    760.18843  0.059371167  0.059493323            6 
 1068000   0.81571348   -3.8186727    759.55824  0.059266404  0.059464814            3 
 1069000    0.8285522   -3.8238644    755.47546  0.058892692  0.059435773            3 
 1070000    0.8298784    -3.834793    758.09337   0.05904154  0.059406451            5 
 1071000   0.84916199   -3.8065426    761.15413  0.059224567  0.059377464            3 
 1072000   0.84177146   -3.8366556    759.65641  0.059052893  0.059348775            5 
 1073000   0.82757471   -3.8344773    759.00602  0.058947345  0.059319984            6 
 1074000   0.83243034   -3.8325115    759.93534  0.058964567  0.059290991            3 
 1075000   0.83878976   -3.8531446     758.8659  0.058826814  0.059261677            3 
 1076000   0.82950452   -3.8284743    762.97366  0.059090277  0.059232396            4 
 1077000   0.82490703   -3.8175929    759.86217  0.058794658  0.059203452            5 
 1078000   0.83475716   -3.8313406    763.45306  0.059017707  0.059174475            3 
 1079000   0.81644361   -3.8295667     761.1902  0.058788245  0.059145905            5 
 1080000   0.80950114    -3.835894    763.40248  0.058904512  0.059116997            4 
 1081000   0.80474396   -3.8390192    760.03107  0.058590122  0.059087559            3 
 1082000   0.80287507   -3.8393125    765.90788  0.058988592  0.059058082            4 
 1083000    0.8224869   -3.8483668    763.89847  0.058779507  0.059029345           11 
 1084000   0.82735456   -3.8174138    764.40594  0.058764294  0.059000354            4 
 1085000   0.83017669   -3.8412847    763.26359  0.058622395  0.058971298            7 
 1086000   0.81333782   -3.8411003     764.3634  0.058652808  0.058942224            2 
 1087000   0.81610555   -3.8626934    765.03116  0.058650043  0.058913215            4 
 1088000   0.81904799   -3.8188396    766.36307  0.058698152  0.058884366            4 
 1089000   0.83496766   -3.8140755    762.76481  0.058368902  0.058855627            6 
 1090000   0.80523358   -3.8636119     765.3108      0.05851  0.058826559            3 
 1091000   0.83200946   -3.8017991    768.75069  0.058719118   0.05879825            5 
 1092000   0.80986083   -3.8214892    768.31254  0.058631909  0.058770253            8 
 1093000     0.798824   -3.8325062    769.09927  0.058638249  0.058742225            3 
 1094000   0.84594405   -3.8384593    767.78011  0.058484164   0.05871359            4 
 1095000   0.81953393   -3.8609896    768.19589  0.058462397  0.058685054           13 
 1096000   0.81019548   -3.8196675    768.08737  0.058400804  0.058657013            4 
 1097000   0.82703554   -3.8545858    769.14094  0.058427601  0.058628848            3 
 1098000   0.82397844   -3.8264331     769.6595  0.058413745   0.05860045            2 
 1099000    0.8286989   -3.8372719    769.24713  0.058329325  0.058572148            2 
 1100000   0.81821096   -3.8737634    767.00031  0.058106084  0.058543246            7 
 1101000   0.80604549   -3.8585914    768.12832  0.058138686  0.058514295            4 
 1102000   0.80639111   -3.8611647    771.22143   0.05831983  0.058485735            6 
 1103000   0.80636743    -3.857179    769.76499   0.05815692  0.058457009            5 
 1104000   0.81362429   -3.8548492    770.95889  0.058194361  0.058428498            6 
 1105000    0.7963855   -3.8417848    771.80166  0.058205253  0.058400148            3 
 1106000   0.82268328   -3.8465185    774.78479  0.058377395  0.058372273            3 
 1107000   0.80396157   -3.8178557     772.3163  0.058138836   0.05834424            2 
 1108000    0.8103977   -3.8463721    772.48471   0.05809903  0.058316256            5 
 1109000   0.81011103   -3.8611302    773.69621  0.058137678  0.058287662            4 
 1110000   0.80547631   -3.8343561    773.47739  0.058068873  0.058259165            3 
 1111000   0.80835393   -3.8507551    774.43624  0.058088527  0.058230451            8 
 1112000   0.80948113   -3.8394819     775.5355  0.058118668  0.058202175            6 
 1113000   0.80519909   -3.8741921    775.66531  0.058076169  0.058173874            3 
 1114000   0.82511615   -3.8141376    777.12517  0.058133242  0.058145392            4 
 1115000    0.8108941   -3.8544947     775.2487   0.05794086  0.058117035            7 
 1116000   0.83435471   -3.8574772    773.65697  0.057770085  0.058088359            5 
 1117000   0.78468472   -3.8542453    773.70466  0.057721923  0.058059693            4 
 1118000   0.81015032   -3.8427823    775.67808  0.057817388  0.058030955            4 
 1119000   0.80861341   -3.8620429    777.32251  0.057888182   0.05800216            5 
 1120000   0.80256837   -3.8622111    776.46778    0.0577729  0.057973213            4 
 1121000   0.82324278   -3.8628647    776.26929  0.057706608   0.05794463            4 
 1122000   0.80195282   -3.8473953    776.55597  0.057676469  0.057916131            3 
 1123000   0.79168163   -3.8509513    777.04563  0.057661444  0.057887267            5 
 1124000   0.79744767   -3.8786199    777.44177  0.057639514  0.057858201            5 
 1125000   0.79369119   -3.8361777    777.67261  0.057605378  0.057829247            6 
 1126000   0.81104952   -3.8568724    779.60874  0.057697509  0.057800764            3 
 1127000   0.78839968   -3.8671378    778.75295  0.057583034  0.057771947            2 
 1128000   0.82192891   -3.8670193    780.07693  0.057629797  0.057743356            5 
 1129000   0.78506644   -3.8677963     782.1501  0.057731776  0.057714775            5 
 1130000   0.80439266   -3.8824791    780.64788  0.057569903  0.057686621            3 
 1131000   0.78232225   -3.8852559    779.51499  0.057435528  0.057657545            3 
 1132000   0.81591109    -3.857842    780.78449  0.057478245  0.057628691            5 
 1133000   0.80372269   -3.8737887    782.05978  0.057521313  0.057600091            3 
 1134000   0.78514576    -3.863982    781.47938  0.057427938  0.057571507            3 
 1135000   0.80501643   -3.8507594     782.1412  0.057425933  0.057542654            2 
 1136000    0.7730846   -3.8819337    781.78056  0.057348926  0.057513799            2 
 1137000   0.77064937   -3.8593488    781.95145  0.057311012  0.057485092            6 
 1138000   0.80802035   -3.8573771    782.24559   0.05728219  0.057456611            8 
 1139000   0.80450694   -3.8657028    782.52236  0.057252148  0.057427803            4 
 1140000   0.82216803    -3.848399    781.37629   0.05711815  0.057399084            2 
 1141000    0.7990946   -3.8721115    781.87345  0.057104401   0.05737014            5 
 1142000   0.79575058   -3.8840761    782.01129  0.057064455  0.057341514            4 
 1143000   0.79850957    -3.872786    784.20809  0.057174693  0.057313081            3 
 1144000   0.80536964    -3.880977    783.49724  0.057072934   0.05728438            4 
 1145000   0.80849985    -3.887303    784.38007  0.057087341  0.057255835            4 
 1146000    0.8054899   -3.8664679    784.82635  0.057069979  0.057227234            3 
 1147000   0.79056101   -3.8844607    786.11163  0.057113603  0.057198712            4 
 1148000    0.7955379   -3.8613543    784.39378  0.056939154   0.05717039            3 
 1149000   0.81196261   -3.8751675    786.63257  0.057051971  0.057141854            3 
 1150000   0.78670325   -3.8772648    784.80993  0.056870285  0.057113253            8 
 1151000   0.80011495   -3.8846856    785.47482  0.056869014  0.057084628            8 
 1152000   0.77424137   -3.8593226    785.91254  0.056851312   0.05705619            4 
 1153000   0.79612222   -3.8856652    787.13024  0.056890015  0.057027504           10 
 1154000   0.77619451   -3.8616012    788.51044  0.056940384  0.056998754            7 
 1155000   0.78273349   -3.8753802    786.24368  0.056727538  0.056969944            3 
 1156000   0.79767189   -3.8904585    786.02384  0.056662618  0.056941273            6 
 1157000   0.78535629   -3.8419082    787.91576   0.05674991  0.056912781            3 
 1158000    0.7933465   -3.8904498    788.50804  0.056743526  0.056884234            2 
 1159000   0.77346365    -3.862726    788.40376  0.056687069  0.056855977            6 
 1160000   0.80528491    -3.892629    787.57137  0.056578403  0.056827336            9 
 1161000   0.77931212   -3.8889578    787.11579   0.05649697    0.0567985            6 
 1162000    0.7740234   -3.8765296    790.32871  0.056678765  0.056769771            4 
 1163000   0.78780935   -3.9038696    790.36386  0.056632549  0.056740963            2 
 1164000   0.78429822   -3.8729634    788.56656  0.056455223  0.056712231            5 
 1165000   0.79432105   -3.9008238    788.72778  0.056418296  0.056683318            4 
 1166000   0.79444611   -3.8847472    788.45714  0.056350567  0.056654645            5 
 1167000   0.78826352   -3.8847572     788.2275  0.056285882  0.056625541            4 
 1168000   0.78291935   -3.8950108     789.2864  0.056313242   0.05659638            4 
 1169000   0.77720039   -3.9087198    787.55374  0.056141555  0.056567021            5 
 1170000   0.77030229    -3.881165    790.31279  0.056290085  0.056537726            4 
 1171000   0.77291692   -3.8677193    788.11211  0.056085405  0.056508002            4 
 1172000   0.76453938   -3.9071524    790.36499  0.056197738  0.056478286            5 
 1173000   0.79364682   -3.9007538    789.18615  0.056066081  0.056448676            3 
 1174000   0.78741173   -3.8992287    787.43857  0.055894276  0.056418752            4 
 1175000   0.76832616   -3.8961491    788.84264  0.055946287  0.056389087            5 
 1176000   0.77600317   -3.8853089     787.7532  0.055821514  0.056359142            8 
 1177000   0.78495178    -3.848628    792.21054  0.056089673  0.056329761            2 
 1178000   0.78674707    -3.890794    788.86648  0.055805495  0.056300295            8 
 1179000   0.77166792    -3.907768    788.59728  0.055739135  0.056270442            4 
 1180000   0.77893426   -3.8972814    793.22719  0.056018869  0.056240866            6 
 1181000   0.78637548    -3.906984      792.671   0.05593219  0.056211336            4 
 1182000   0.78001292   -3.8926036    791.19428  0.055780758  0.056181632            3 
 1183000   0.79289684   -3.8920636    793.38072  0.055887625  0.056152218            6 
 1184000   0.78791978   -3.8811878    794.49587   0.05591891  0.056123021            4 
 1185000   0.78113065   -3.8917628    794.45613  0.055868926  0.056093602            5 
 1186000    0.7886613   -3.8946005    793.90606  0.055783169  0.056064198            7 
 1187000   0.79790405   -3.9017558    793.30069  0.055693674  0.056034924            5 
 1188000   0.77256318   -3.8920475    794.54632  0.055734169  0.056005517            3 
 1189000    0.7651435   -3.8955863    793.77027  0.055632904  0.055975975            5 
 1190000   0.76328544   -3.9258403    794.66926  0.055649108  0.055946556            3 
 1191000   0.78209467   -3.8976794    794.04594   0.05555877  0.055917311            4 
 1192000    0.7789653   -3.9018182    794.13205   0.05551818   0.05588837            7 
 1193000    0.7857282    -3.911094    796.36715  0.055627769  0.055858891            7 
 1194000   0.79241587   -3.8993534    795.67181   0.05553265    0.0558296            5 
 1195000    0.7707862    -3.924458    797.97859  0.055647042  0.055800493            3 
 1196000   0.77926614   -3.9006723    797.19719  0.055546069  0.055771343            4 
 1197000   0.75328957   -3.9077945     796.2747  0.055435443  0.055742148            5 
 1198000   0.77937601   -3.8841698    798.11205  0.055516976  0.055712546            4 
 1199000   0.77999403   -3.9252846    796.36204  0.055349043  0.055683194            4 
 1200000   0.76081435   -3.9059774    797.46329  0.055379395   0.05565375            3 
 1201000   0.77390284   -3.9144598    793.80883  0.055079713  0.055624423           10 
 1202000    0.7733879   -3.9133045    799.90111  0.055456261  0.055594876            2 
 1203000   0.77456612   -3.8801498    796.19755  0.055153613  0.055565635            6 
 1204000   0.76750627   -3.9352074    796.41523   0.05512287  0.055536327            8 
 1205000    0.7514506   -3.9171742    794.44063  0.054940569  0.055506373            6 
 1206000   0.78567365   -3.9018514    797.81512  0.055128187    0.0554765            4 
 1207000   0.77376551   -3.9065986    798.11731  0.055103377  0.055446754            5 
 1208000   0.77050979    -3.924576    799.57114  0.055158054   0.05541698            5 
 1209000    0.7892271    -3.944582    798.05067  0.055007628  0.055387009            3 
 1210000   0.76904474    -3.933045    800.56893  0.055135601  0.055357171            7 
 1211000   0.76833067   -3.9341281    796.68705  0.054822946  0.055327468            5 
 1212000   0.76977815   -3.9407259    796.46561  0.054762487  0.055297415            6 
 1213000   0.75433645   -3.9052935    795.17223  0.054628485   0.05526744            7 
 1214000   0.76285543   -3.9049429    797.54588  0.054746422   0.05523768            4 
 1215000   0.78572242   -3.9179668    799.81949  0.054857304   0.05520802            2 
 1216000    0.7684206   -3.9000339    798.46979  0.054719695  0.055178326            4 
 1217000    0.7670379   -3.9351612    801.75398  0.054899615  0.055148376            4 
 1218000   0.77531184   -3.8939575    800.06032  0.054738664  0.055118532           10 
 1219000   0.78426148   -3.9198634    799.49091  0.054654834  0.055088887            8 
 1220000    0.7767899   -3.9188197    800.44872  0.054675459   0.05505905            6 
 1221000   0.76301877   -3.9319933    801.52783  0.054704329  0.055029367            5 
 1222000   0.74934593   -3.9332317    800.20947  0.054569658  0.054999628            4 
 1223000   0.76826914    -3.909588    802.21021  0.054661366   0.05497013            8 
 1224000   0.77151694     -3.93046    800.76224  0.054518126  0.054940151            5 
 1225000   0.75423336   -3.9545254    801.79203  0.054543675  0.054910191            5 
 1226000   0.79281767   -3.9359926     802.8082  0.054568257  0.054880463            7 
 1227000   0.77177685    -3.929872    801.07323  0.054405951  0.054850798            4 
 1228000    0.7724542   -3.9044642    802.37129  0.054449735  0.054821201           10 
 1229000   0.75327892   -3.9576047    802.02841  0.054382181  0.054791421            3 
 1230000   0.77203046   -3.9164238    803.55369  0.054441307  0.054762145           12 
 1231000   0.75977283   -3.9286369    801.72046   0.05427298  0.054732607           10 
 1232000   0.74054435   -3.9337699    803.35017  0.054339162  0.054702736            4 
 1233000   0.75788959   -3.9241244    802.39041  0.054230225  0.054673047            4 
 1234000   0.75596609   -3.9214203     803.8615  0.054285623  0.054643297            8 
 1235000   0.76641237   -3.9199944    805.10489  0.054325566  0.054613208           10 
 1236000   0.74736599   -3.9636235    800.91215  0.053998931  0.054583354            8 
 1237000   0.76609318   -3.9674612    804.79472  0.054216837  0.054553322            8 
 1238000   0.76981271   -3.9252798    804.20458  0.054133319  0.054523351            5 
 1239000   0.76028792   -3.9179497    803.69366  0.054055263  0.054493376            4 
 1240000   0.76290374   -3.9571287    803.32587  0.053986953  0.054463483            3 
 1241000   0.75539802   -3.9466553    804.83025   0.05404447   0.05443358            9 
 1242000   0.74859048   -3.9363286    802.95002    0.0538748  0.054403456            9 
 1243000   0.74591184   -3.9714587    805.61709  0.054010263  0.054373585            4 
 1244000   0.76028953   -3.9328872    805.45187  0.053955779  0.054343742            5 
 1245000    0.7559115   -3.9516065       808.04  0.054085676  0.054314066            4 
 1246000   0.74377373   -3.9515756    805.37453     0.053864  0.054284067            8 
 1247000   0.76088411   -3.9249994    806.26097  0.053880043   0.05425419            6 
 1248000   0.75848442   -3.9634167       803.58  0.053657853  0.054224155            4 
 1249000   0.75961828   -3.9532406    805.76314  0.053760551  0.054194003            9 
 1250000   0.74472617   -3.9146872     808.6238  0.053908254  0.054164033            4 
 1251000   0.75504863   -3.9095404    807.71773  0.053804805  0.054134352            5 
 1252000   0.75670516   -3.9370518    805.02338  0.053582493  0.054104725            3 
 1253000   0.76917652   -3.9625368    804.52466  0.053506561  0.054074971            6 
 1254000   0.74648884    -3.977651    808.66027  0.053738721  0.054045145            3 
 1255000   0.75828993   -3.9314178    807.37718  0.053610702  0.054015385            5 
 1256000   0.74505752   -3.9282227     809.9945  0.053741673  0.053985755            5 
 1257000    0.7652919   -3.9557719    807.17496  0.053511997  0.053956013            4 
 1258000     0.747944   -3.9580209    809.40559  0.053617222  0.053926209            8 
 1259000    0.7637608   -3.9466526    809.27088  0.053565719  0.053896616            4 
 1260000    0.7397656   -3.9244591    809.34228  0.053527928  0.053866719            9 
 1261000   0.75337157   -3.9398894    811.41798  0.053622652  0.053837102            4 
 1262000   0.75670895   -3.9563493    808.75744   0.05340448  0.053807371            4 
 1263000   0.75528901     -3.98521    809.09163  0.053384246  0.053777671            4 
 1264000   0.75704326   -3.9765013    807.45716  0.053234253  0.053747558           18 
 1265000    0.7523896   -3.9482393    811.91091  0.053485567  0.053717454            6 
 1266000   0.75124122   -3.9581737      809.873  0.053309176  0.053687652            4 
 1267000   0.74974792   -3.9520618    810.20437  0.053288895   0.05365786            5 
 1268000   0.76300202   -3.9632789    809.30435   0.05318772  0.053628131            4 
 1269000   0.74874965   -3.9649653     810.9482  0.053253756  0.053598444            6 
 1270000    0.7601843   -3.9652957    808.03407  0.053020609  0.053568541            9 
 1271000   0.73796944   -3.9786348    811.08723  0.053179074  0.053538299            6 
 1272000   0.74953352   -3.9682628    811.75155  0.053180788  0.053508275            4 
 1273000    0.7510708   -3.9792235    808.46569  0.052923913  0.053478359            6 
 1274000   0.72880775   -3.9646427    810.27451  0.053000687  0.053448648            4 
 1275000   0.75626288   -3.9778851    812.69698   0.05311745  0.053418759            7 
 1276000    0.7266981   -3.9533102    810.25975   0.05291665  0.053388864            4 
 1277000   0.75538915   -3.9738935    809.99976  0.052858246  0.053358762            8 
 1278000   0.72779419   -3.9652374    810.30381  0.052836712  0.053328443           12 
 1279000   0.72062718   -3.9586941    810.85773  0.052831492  0.053298432            3 
 1280000    0.7351424   -3.9633282    815.60755   0.05309945  0.053268756            6 
 1281000   0.74545044   -3.9549117    813.83261  0.052942533  0.053238976           11 
 1282000   0.76155781   -3.9846245      813.073  0.052851859  0.053209268            3 
 1283000   0.73226858    -3.951063    811.46643  0.052706315  0.053179388            6 
 1284000   0.75584837   -3.9738946    811.57187   0.05267211  0.053149565            5 
 1285000   0.73432302   -3.9570886    813.12546  0.052731872  0.053119528            3 
 1286000   0.73865871   -4.0037845     813.8983  0.052740947  0.053089752            6 
 1287000   0.75287203   -3.9600231    811.92364  0.052572108  0.053059846            5 
 1288000   0.74061786   -3.9821796    814.23465  0.052680813  0.053030079            2 
 1289000   0.73844942   -3.9758272    813.61214  0.052599699  0.053000172            3 
 1290000   0.72401729   -3.9663808    813.83525  0.052573337  0.052970486            6 
 1291000   0.73297024   -3.9932005    814.89326  0.052600908  0.052940523            2 
 1292000   0.73569977   -3.9710073    813.98441  0.052501574   0.05291064           11 
 1293000   0.71993113   -3.9511403    815.09625  0.052532627  0.052880728            5 
 1294000   0.74315764   -3.9578593    814.38357  0.052446134  0.052850828            5 
 1295000   0.73489018   -3.9789539    819.00314  0.052702905  0.052821113            3 
 1296000   0.74474628   -3.9969493    815.36163  0.052428088  0.052791557            3 
 1297000   0.74374223   -3.9875512    814.24814  0.052316123  0.052761567            4 
 1298000   0.74378255   -3.9684838    816.06379  0.052392385  0.052731939            6 
 1299000   0.72856141   -3.9648565    816.54375  0.052382843  0.052702411            7 
 1300000   0.73796612   -3.9746795    815.86476  0.052299023  0.052672537            9 
 1301000   0.72344675   -3.9806818    815.09188  0.052209318  0.052642843            6 
 1302000    0.7425704   -3.9758399    816.84755  0.052281589  0.052613139            5 
 1303000   0.74337675    -3.943592    816.85375  0.052241862  0.052583538            8 
 1304000   0.74341626   -3.9748594    815.50192  0.052115409   0.05255379            3 
 1305000   0.72839851   -3.9722936    819.30382  0.052318252  0.052523808            4 
 1306000   0.73033123   -3.9879583    815.40912  0.052029678  0.052494031            6 
 1307000   0.73741549   -3.9780745    816.11501  0.052034877  0.052464174            3 
 1308000   0.73231705   -4.0103576    814.71605  0.051905967  0.052434423            5 
 1309000    0.7373382   -3.9705632    817.64371  0.052052694  0.052404481            4 
 1310000   0.72973656   -3.9796928    816.80384  0.051959532  0.052374674            5 
 1311000   0.73036239   -3.9796509    816.53871  0.051903045  0.052344792            5 
 1312000   0.73417206   -4.0033516    817.00707  0.051893234  0.052314912            7 
 1313000   0.71695047   -4.0173755    817.39734   0.05187848  0.052284814            4 
 1314000   0.74068872   -3.9833388    819.39122   0.05196545    0.0522547            5 
 1315000   0.73044411   -4.0129614    818.02833  0.051839565  0.052224774            4 
 1316000   0.72858564   -3.9788312    818.21031  0.051811696   0.05219485            8 
 1317000   0.72440817   -3.9685216    817.60924  0.051734323  0.052164877            4 
 1318000   0.72682747   -3.9871679    817.42453  0.051683392  0.052134853           13 
 1319000   0.73183415   -4.0074667    817.74563  0.051664495  0.052104852            6 
 1320000   0.71978702   -3.9947447    818.34199  0.051663005  0.052074991            7 
 1321000    0.7324258   -4.0164545    818.87937  0.051657795  0.052044651            4 
 1322000   0.73161854     -4.00499    820.61291  0.051727995  0.052014418            7 
 1323000   0.71964906     -4.00384    818.82845  0.051576496  0.051984697            4 
 1324000   0.72914241    -4.006965    818.24136  0.051500589  0.051954695            7 
 1325000   0.72839064   -4.0044367    821.79481  0.051685208  0.051924705            7 
 1326000   0.74056662   -4.0011233    819.58334  0.051507249  0.051894902            7 
 1327000   0.74003135   -4.0121867    818.78038  0.051418009  0.051864878            3 
 1328000    0.7287622   -4.0111673    821.97648  0.051579849  0.051835131            3 
 1329000   0.71924551   -3.9775692    820.94911  0.051476619  0.051805081            4 
 1330000   0.70665608   -3.9900956    822.91452   0.05156106   0.05177526            6 
 1331000   0.71065955   -4.0158374    819.64524  0.051317633   0.05174528           14 
 1332000   0.73334379   -3.9944851    824.30959   0.05157092  0.051715532            7 
 1333000   0.72006042   -4.0044815    820.80726  0.051313282  0.051686031            7 
 1334000   0.70372122   -3.9888399    822.58496  0.051385867  0.051656451            9 
 1335000   0.71017705   -3.9931002    823.24605  0.051388642  0.051626809            3 
 1336000   0.71979635   -4.0265854    820.61573  0.051186111  0.051597089            6 
 1337000   0.71406864     -4.01993    821.77786   0.05122026   0.05156724            7 
 1338000   0.71657255   -4.0048633    821.53267  0.051166709  0.051537556            6 
 1339000   0.71658782   -3.9824928    823.40444  0.051244986  0.051508041            6 
 1340000   0.71444498   -4.0225577    822.92685  0.051177043  0.051478312            9 
 1341000   0.71364343   -4.0075169    825.00544  0.051268049  0.051448915            5 
 1342000   0.73588073   -4.0347248    822.46385  0.051072023  0.051419445            5 
 1343000   0.72726434   -4.0315928    823.10803  0.051073966   0.05138991            8 
 1344000   0.70385598   -4.0260511    823.75878  0.051076313   0.05136042            4 
 1345000   0.71608619   -4.0088509    823.99118  0.051052737  0.051330855           16 
 1346000   0.71348858   -4.0110173    825.27083  0.051094033  0.051301295            8 
 1347000   0.71117139   -4.0146194    824.23241  0.050991859  0.051271662            9 
 1348000   0.71487868   -3.9818429    827.08351  0.051130286  0.051242367            9 
 1349000   0.71812038   -4.0092349    825.51662   0.05099559  0.051212929           10 
 1350000   0.71668722   -3.9966303    825.70777  0.050969616  0.051183741            7 
 1351000   0.73313478    -4.014774    825.38196  0.050911791  0.051154478           11 
 1352000   0.71066016   -4.0315661    827.06939  0.050978143  0.051125384            4 
 1353000    0.7097962    -4.025146    827.29327  0.050954254  0.051095944            6 
 1354000    0.6916217   -4.0534589    825.87846  0.050829546  0.051066617            6 
 1355000   0.73045472   -4.0284485    828.85282  0.050974958  0.051037231           10 
 1356000   0.70476935   -4.0287555    829.28785  0.050964101  0.051007946            8 
 1357000   0.72401097   -4.0078056    828.01112   0.05084814  0.050978816            8 
 1358000   0.71781994   -4.0134651    829.01557  0.050872335  0.050949751            6 
 1359000   0.71134138   -4.0174849    827.31666  0.050730725  0.050920613            4 
 1360000    0.7151764   -4.0411556    828.65044   0.05077515  0.050891499            4 
 1361000   0.71841417   -4.0335743    830.81214  0.050870202  0.050862659            8 
 1362000   0.71928202   -4.0375444    831.32386  0.050864161  0.050833759            5 
 1363000   0.71691995    -4.008671    830.13444  0.050754123  0.050804987            5 
 1364000   0.69778305   -4.0074704    829.73782  0.050692682  0.050776037            5 
 1365000    0.7098253   -4.0295711    830.02934  0.050673342  0.050747103            3 
 1366000   0.70396583   -4.0330574    828.49104  0.050542401   0.05071828            7 
 1367000   0.68937487   -4.0421185    829.50903  0.050567486  0.050689521            7 
 1368000   0.70944937   -4.0007834    830.98417  0.050620381  0.050660919            8 
 1369000   0.70667115   -4.0234699    829.34136  0.050483404  0.050632486            7 
 1370000   0.70885207   -4.0402383     831.5956  0.050583674  0.050603756            5 
 1371000   0.70754992   -4.0046172     832.1817  0.050582404  0.050575291            6 
 1372000   0.70870806    -4.033818    830.68289    0.0504545  0.050546801            8 
 1373000   0.70970483   -4.0138616    832.83892  0.050548611  0.050518477            2 
 1374000   0.70429334   -4.0224977    830.73218  0.050384048  0.050490054            8 
 1375000     0.699839   -4.0279575    833.54284  0.050517748  0.050461883            6 
 1376000   0.70399012   -4.0194315    833.98778  0.050507981  0.050433504           10 
 1377000   0.71066323   -4.0233274    835.19348  0.050544268  0.050405209            9 
 1378000   0.70477889   -4.0365548    834.02557   0.05043696  0.050377041            6 
 1379000   0.70638261     -4.01612     833.3149  0.050357439  0.050348698            7 
 1380000   0.69879785   -4.0494316     833.4811  0.050330984  0.050320452            5 
 1381000   0.70851875   -4.0289428      836.019  0.050447683  0.050292117            8 
 1382000   0.69986693   -4.0570825    834.47654  0.050318171  0.050263845            8 
 1383000   0.68401099   -4.0202471    835.08046  0.050318177  0.050235478            6 
 1384000   0.71878651   -4.0408716    835.50467  0.050307362   0.05020718            5 
 1385000   0.68567313    -4.048376    834.04538  0.050183236  0.050178853            6 
 1386000   0.70941126   -4.0419988    833.96012  0.050141902  0.050150605            9 
 1387000   0.70024246   -4.0478449    836.45082  0.050255397  0.050122639            6 
 1388000   0.70337887   -4.0305336    836.90871   0.05024668  0.050094571            5 
 1389000   0.69570168   -4.0428561     837.4181  0.050241067  0.050066594            6 
 1390000   0.68986136    -4.047438    837.37058  0.050202073  0.050038529            6 
 1391000   0.71051181    -4.045108    838.89798  0.050257487  0.050010723            5 
 1392000   0.70894311   -4.0395497    838.76785  0.050213593  0.049982824            8 
 1393000   0.71137945   -4.0600314    834.67656  0.049932793  0.049954769            5 
 1394000   0.67942287   -4.0451932    840.35096  0.050236189   0.04992692            6 
 1395000   0.67089165   -4.0556447    835.02196  0.049881837  0.049899095            6 
 1396000   0.69839369   -4.0700655     834.7445  0.049829543  0.049871218            3 
 1397000   0.70018302   -4.0580899    836.90174  0.049922557  0.049843472            5 
 1398000   0.68964184    -4.073704    837.95051  0.049949363  0.049815679           11 
 1399000   0.69657252    -4.083355    837.85268  0.049907832  0.049787729            3 
 1400000   0.67769114   -4.0608299    838.16034  0.049890497  0.049759781            7 
 1401000   0.69792784   -4.0478165    837.97393  0.049843798  0.049732031           14 
 1402000   0.69131503   -4.0360442    837.41095  0.049774783  0.049704356            7 
 1403000   0.69328136   -4.0466562    841.02232  0.049953809   0.04967656            6 
 1404000   0.69373743   -4.0477268    840.52451  0.049888682  0.049648914            7 
 1405000    0.6877022   -4.0651167    837.95269  0.049700634  0.049621043            8 
 1406000   0.69330974   -4.0506199    840.30961  0.049804979  0.049593368            6 
 1407000   0.69586696   -4.0634494    839.83256  0.049741326  0.049565679           10 
 1408000    0.6948667   -4.0838869    838.27357  0.049613729  0.049537793            5 
 1409000   0.68542455   -4.0869268    838.88464  0.049614658  0.049509946            5 
 1410000   0.69000308   -4.0573868    839.92162  0.049640757  0.049482015           17 
 1411000   0.70185719   -4.0711114    840.30419  0.049628171  0.049454226           15 
 1412000   0.70430386   -4.0657905    839.84863  0.049566137  0.049426597            6 
 1413000   0.69238359   -4.0464292    841.65991  0.049637881  0.049398948            6 
 1414000   0.69272559   -4.0749702    840.51195  0.049535122  0.049371344            9 
 1415000   0.68368548   -4.0784895    839.28281  0.049427727  0.049343573            9 
 1416000   0.68737452    -4.080382    839.65214  0.049414556  0.049315888            6 
 1417000   0.69007649   -4.0437037    842.25253  0.049532611  0.049288374           11 
 1418000   0.68688344    -4.062607    840.18471  0.049376158  0.049260822           13 
 1419000   0.68767042   -4.0335629    841.91715  0.049443103  0.049233487            5 
 1420000   0.68904816   -4.0420853    842.56918  0.049446548   0.04920625            8 
 1421000   0.68167131   -4.0804987     840.9699  0.049317963  0.049178706            6 
 1422000   0.69462781   -4.0586807    843.50491  0.049431839  0.049151304            6 
 1423000    0.6826647   -4.0878137     844.3695  0.049447734  0.049124085            9 
 1424000   0.69380494   -4.0886112    843.92209  0.049386826  0.049096886           11 
 1425000   0.68640841   -4.0858252    842.41605  0.049264097  0.049069799           15 
 1426000   0.69019805    -4.081566     842.7527  0.049249223  0.049042649            5 
 1427000   0.68545138   -4.0714699    845.57186  0.049379343  0.049015574            5 
 1428000    0.6810921   -4.0810658    845.63014  0.049348164  0.048988181            6 
 1429000    0.6712216   -4.0793604    845.33845   0.04929662  0.048960973            5 
 1430000   0.68907908   -4.0700885    843.17268  0.049135937  0.048933882            6 
 1431000   0.67287319   -4.0847516    844.70296  0.049190715  0.048906663           10 
 1432000   0.66577514   -4.0791274     843.6529  0.049095257  0.048879595            6 
 1433000   0.68553214   -4.0691134    844.92739  0.049135112  0.048852493            5 
 1434000   0.68245883   -4.0757715    847.48568  0.049249516  0.048825405            8 
 1435000   0.67198191   -4.0788984    843.95591  0.049010216  0.048798355            5 
 1436000   0.69280621   -4.0620915    846.95411  0.049150076  0.048771292            9 
 1437000    0.6720746   -4.0669557    844.78737  0.048990221  0.048744222            9 
 1438000   0.67219328   -4.0753756    847.31905  0.049102866  0.048716969           11 
 1439000   0.67189489   -4.0835026    846.78861  0.049038025  0.048690001            9 
 1440000    0.6810145   -4.0864073    847.85983  0.049065962  0.048662851            6 
 1441000   0.67452731   -4.0976423    845.58326  0.048900258  0.048635934            7 
 1442000   0.66259946   -4.0742578    845.99061  0.048889887  0.048608932            6 
 1443000   0.68031041   -4.0931312    847.68292  0.048953738  0.048582077            9 
 1444000    0.6746271   -4.0898582    846.08618  0.048827688  0.048554852            6 
 1445000    0.6704527   -4.0832602     848.0675   0.04890816  0.048527685            5 
 1446000   0.65893509   -4.0919519    845.76054  0.048741387  0.048500385            5 
 1447000   0.69111447   -4.0884363    844.97482  0.048662452  0.048473015           15 
 1448000   0.68105065   -4.1067417    845.91252  0.048682811  0.048445659            8 
 1449000   0.67318028   -4.0974143    847.34335  0.048731501  0.048418548            9 
 1450000   0.66553922   -4.0820233    846.74161  0.048663311  0.048391584            7 
 1451000   0.67214455   -4.0912912    847.69281  0.048684402  0.048364521           17 
 1452000   0.66331883   -4.0924786    845.83772  0.048544405  0.048337291            9 
 1453000    0.6786888   -4.1104472    848.62919  0.048671094  0.048310056           24 
 1454000   0.68384446   -4.0910633    846.74839  0.048529825  0.048282852            7 
 1455000   0.68929775   -4.0819958    847.98703  0.048567413   0.04825566            8 
 1456000   0.67199588   -4.0821306    849.78418  0.048636915  0.048228556            4 
 1457000   0.66525721   -4.0860043    845.99224  0.048386653  0.048201359            4 
 1458000   0.67842931   -4.0846056    850.77981  0.048627104  0.048174416            5 
 1459000   0.66346363   -4.1148803    848.44353  0.048460334  0.048147115            7 
 1460000   0.66728435   -4.0883077    848.32363  0.048420298  0.048119799            3 
 1461000   0.67741733   -4.0958353    844.27471  0.048156212  0.048092618            7 
 1462000   0.67023926   -4.1129803    848.33016  0.048354432  0.048065183            4 
 1463000   0.66664837   -4.1075227    849.72175  0.048400647  0.048037876            4 
 1464000   0.67074251   -4.0984889    847.84762  0.048260908  0.048010676            7 
 1465000   0.67301123   -4.0975449    849.59346  0.048327273  0.047983776            5 
 1466000   0.66670316   -4.0980399    848.73306  0.048245399  0.047956753            7 
 1467000   0.65829569   -4.1164716     849.1044  0.048233606  0.047929745            5 
 1468000   0.66454385   -4.0905445    850.32707  0.048270156  0.047902844            5 
 1469000   0.67516086   -4.0964517     852.2705  0.048347543  0.047875868            9 
 1470000   0.65219608   -4.1189445    849.36199  0.048149773  0.047848878            8 
 1471000   0.66338353   -4.1066826    847.94344  0.048036678   0.04782167            5 
 1472000   0.66067586   -4.0883083    849.34289   0.04808327  0.047794522           22 
 1473000   0.67229868   -4.1121077    850.81633  0.048133985  0.047767395            9 
 1474000   0.67890744   -4.1159567    850.56208  0.048086956  0.047740232            5 
 1475000   0.66386302   -4.1167166     847.7421  0.047895034  0.047712989            4 
 1476000   0.65814373   -4.1098852    849.86571  0.047982481  0.047685709            3 
 1477000   0.67089344   -4.1262768    850.24382  0.047971328  0.047658574            4 
 1478000   0.67512562   -4.1214237    848.22698  0.047825157  0.047631315           30 
 1479000   0.66531532   -4.1347733    849.41433  0.047859721  0.047604228            6 
 1480000   0.66379095   -4.1137908    850.78718  0.047904684  0.047576975            8 
 1481000   0.66815723   -4.1175909    850.62826  0.047863395  0.047549904            7 
 1482000     0.655362   -4.1143472    848.37887  0.047704615  0.047522929            6 
 1483000   0.64278713   -4.1068173    849.51665  0.047736382  0.047495969            4 
 1484000   0.65500917   -4.1252343    852.64434  0.047879848  0.047469138            7 
 1485000   0.66093132   -4.0990444    852.78502    0.0478555  0.047442166            7 
 1486000   0.66577022   -4.1202916    850.62793  0.047702329  0.047415203            8 
 1487000   0.65966044   -4.1300007    851.73623   0.04773236  0.047388244           10 
 1488000   0.65909942   -4.1185946    851.86788  0.047707655  0.047361271           14 
 1489000   0.66365302   -4.1337538    852.97091  0.047737347  0.047334385            8 
 1490000   0.65007068   -4.1366624    850.94969  0.047592265  0.047307209            6 
 1491000   0.66143025    -4.110439    851.26442  0.047577935  0.047280203            6 
 1492000   0.66235428   -4.1079449    851.96965  0.047585436  0.047253219            7 
 1493000   0.65880654    -4.123555    851.68305  0.047537567  0.047226309           15 
 1494000   0.65869244    -4.114978    853.79599  0.047623605  0.047199136            9 
 1495000   0.64527428   -4.0963099    852.73867  0.047532813  0.047172126            7 
 1496000   0.63942292   -4.1171627    851.21648  0.047416248  0.047145155            5 
 1497000   0.64503499    -4.121555    851.21345  0.047384405  0.047118001            5 
 1498000   0.64334761   -4.1172982    853.00926  0.047452673  0.047090962            9 
 1499000   0.65410401   -4.1389108    852.73767  0.047405919  0.047063968            9 
 1500000   0.65820617   -4.1288933    852.88753  0.047382641  0.047036972            3 
 1501000   0.65255001   -4.1469974    851.59656    0.0472794  0.047009902            7 
 1502000    0.6562977   -4.1451194    853.17673  0.047335593    0.0469829            9 
 1503000   0.65378813   -4.1275586    850.80474  0.047172585  0.046956024            4 
 1504000   0.65817634   -4.1628628     851.4089  0.047174695  0.046929071           14 
 1505000   0.65285959   -4.1213559    856.65369  0.047433759  0.046902295            5 
 1506000    0.6498294   -4.1444998    854.82862  0.047301274  0.046875685            9 
 1507000   0.64639367    -4.117443    854.80885  0.047268793   0.04684904           12 
 1508000   0.66438408   -4.1250638    854.30706  0.047209718  0.046822433            7 
 1509000   0.65055674   -4.1634842    853.35156  0.047125666  0.046795598            5 
 1510000    0.6498103   -4.1521663    850.71716  0.046949071  0.046768653           12 
 1511000   0.65270043   -4.1632432     854.9408  0.047150938  0.046741772            8 
 1512000   0.65932403   -4.1340853    855.83291  0.047168922  0.046715004           17 
 1513000   0.63966287   -4.1292197    857.31867  0.047219579  0.046688448           10 
 1514000   0.64277201   -4.1219915     856.2354  0.047128765  0.046661998           10 
 1515000   0.65672176   -4.1137483    857.32483  0.047157581  0.046635479            6 
 1516000   0.64887678   -4.1245861    855.20548  0.047009976  0.046609058           17 
 1517000   0.64716072   -4.1709433     855.5352    0.0469971  0.046582479            7 
 1518000   0.64633569   -4.1411743    856.37962  0.047012496  0.046555737            8 
 1519000   0.64658639   -4.1506458    857.88509  0.047064137  0.046529121           11 
 1520000   0.63004472   -4.1487527    855.59004  0.046907349  0.046502559           17 
 1521000   0.63304332   -4.1430173    855.44588  0.046868611  0.046475942            7 
 1522000   0.65601671   -4.1580015    856.25126  0.046881913  0.046449516            7 
 1523000    0.6429836   -4.1465002    856.99605  0.046891883  0.046423192            9 
 1524000   0.64006551   -4.1161127    858.04366  0.046918398  0.046396757            5 
 1525000   0.66092067   -4.1463692    856.81762  0.046820635  0.046370405            5 
 1526000   0.64472522   -4.1146857    856.95554  0.046797485  0.046343869            6 
 1527000   0.64302829   -4.1707888    857.71823   0.04680846  0.046317539            5 
 1528000   0.63081326   -4.1416974    856.79981  0.046727738  0.046291032            7 
 1529000    0.6418725   -4.1360849    855.42841  0.046622433  0.046264746            6 
 1530000   0.63633296   -4.1467241    857.42517  0.046700718   0.04623835            9 
 1531000   0.65076919   -4.1391905    857.11771  0.046653479  0.046211968            9 
 1532000   0.64423702   -4.1580448    857.61336  0.046649987  0.046185656            9 
 1533000   0.62000074   -4.1500883    857.51678  0.046614306  0.046159175           10 
 1534000   0.64257934   -4.1555093    860.37888    0.0467394  0.046132995           10 
 1535000   0.63909235   -4.1656172    857.04772  0.046528107   0.04610664           13 
 1536000   0.63627652   -4.1571907    857.11433  0.046501429  0.046080212           14 
 1537000    0.6430676   -4.1697183    858.64714   0.04655428  0.046053776            7 
 1538000   0.64101284   -4.1375262    860.00186  0.046597414  0.046027363            6 
 1539000   0.64304808   -4.1462673    857.81475  0.046448709  0.046001116            9 
 1540000   0.66007362   -4.1549317    857.01582  0.046375315  0.045974697            3 
 1541000   0.63185646    -4.184404    857.64053  0.046379003  0.045948115           18 
 1542000   0.63626566   -4.1489252    859.61569  0.046455668  0.045921615            7 
 1543000   0.64442273   -4.1518185     858.0953  0.046343449  0.045895252            5 
 1544000    0.6532892   -4.1334194    860.08619  0.046420887  0.045868988            6 
 1545000   0.64643966   -4.1711293    858.67468  0.046314708  0.045842783           20 
 1546000   0.63586391   -4.1441624    860.52951   0.04638473   0.04581642            8 
 1547000   0.62593182   -4.1584705    857.84307  0.046210034  0.045790067            9 
 1548000   0.63213996   -4.1675681    858.62042  0.046222029  0.045763616           14 
 1549000   0.64988518   -4.1646489     857.3728   0.04612507   0.04573714            8 
 1550000   0.63948688   -4.1736479    858.33143  0.046146851  0.045710592            7 
 1551000   0.63189303   -4.1550463    858.71267  0.046137582  0.045684088           12 
 1552000   0.63955383   -4.1565174    859.07303  0.046127203  0.045657661            8 
 1553000   0.60418196   -4.1937689    857.50111  0.046013153  0.045631059           12 
 1554000   0.64605288   -4.1749228    858.18999  0.046020484    0.0456045            6 
 1555000   0.63945931   -4.1679358    859.16026  0.046042886  0.045578026           10 
 1556000   0.62939787   -4.1914626    860.49688   0.04608488  0.045551748           10 
 1557000   0.64176473   -4.1670786    860.15163  0.046036803  0.045525473            2 
 1558000   0.64534238   -4.1620399    859.03948  0.045947769  0.045499254            6 
 1559000   0.61386422   -4.1639468    862.05778  0.046079633   0.04547292            7 
 1560000   0.62634762   -4.1666284    860.50495  0.045967145  0.045446812            6 
 1561000   0.61993945   -4.1973311    858.97956  0.045856265   0.04542043           11 
 1562000   0.62594687   -4.1873047    863.20429  0.046052299  0.045393958            8 
 1563000   0.62064205   -4.1702603    861.00282  0.045905461  0.045367448           16 
 1564000   0.62621411   -4.1719852    861.72086  0.045914368  0.045341044            7 
 1565000   0.62732655   -4.1740677    861.16252  0.045855299  0.045314812            9 
 1566000   0.63668537   -4.1494127    863.53656   0.04595235  0.045288602           10 
 1567000   0.62244365   -4.1996897    862.60228   0.04587334  0.045262474            8 
 1568000   0.62977838   -4.1729806    861.06191  0.045762219  0.045236332           13 
 1569000   0.62314469   -4.1825441    861.49755   0.04575619  0.045210044           11 
 1570000   0.62006246   -4.1616577    861.74076  0.045739956  0.045183862            8 
 1571000   0.62743244   -4.1701834    862.32072  0.045741604  0.045157766           11 
 1572000   0.62590014   -4.1757725    865.47711   0.04587983  0.045131673            9 
 1573000   0.63282148   -4.1749732     864.6532  0.045807014  0.045105586            8 
 1574000   0.61666133   -4.1677599    862.36708  0.045656876  0.045079563            8 
 1575000   0.62603038    -4.196023    859.70346  0.045486955  0.045053431           15 
 1576000   0.62249749   -4.1829009    862.29209  0.045594971  0.045027174           11 
 1577000    0.6290864   -4.1844013    860.60212  0.045476756  0.045001155            3 
 1578000   0.62505583    -4.201016    862.66858  0.045557065  0.044975026            8 
 1579000   0.63125264   -4.1905644    863.11541  0.045551795  0.044948896            6 
 1580000   0.60911746   -4.1931942    860.55586  0.045387967   0.04492285            7 
 1581000   0.60655051   -4.1749173    860.42067  0.045352133  0.044896679            9 
 1582000   0.62357759   -4.1903574    862.67541  0.045442236   0.04487053            7 
 1583000   0.61291798    -4.202863    862.07124  0.045381725  0.044844321           10 
 1584000     0.624291   -4.1870518    861.17595  0.045305974  0.044818068           10 
 1585000   0.62441783    -4.188049    863.65332   0.04540764  0.044791924            6 
 1586000   0.62346963   -4.1894776    862.60685  0.045324026   0.04476588           12 
 1587000   0.62661171   -4.1827663    863.30633  0.045332195  0.044739755            6 
 1588000    0.6261625   -4.1860505    863.52629  0.045315191  0.044713641           11 
 1589000   0.63447058   -4.1698484    865.16505  0.045372617  0.044687603           18 
 1590000   0.61405205   -4.1912102    863.90974  0.045278288    0.0446617            8 
 1591000   0.61210962   -4.1773335    864.08891  0.045259214  0.044635722            9 
 1592000   0.60228973   -4.2093205    864.06104  0.045229326  0.044609869            4 
 1593000   0.60310127   -4.2057508    864.00593   0.04519805  0.044583889            6 
 1594000   0.63088394   -4.1821248    865.07955  0.045225823  0.044557796           12 
 1595000   0.61820295   -4.1867592     865.9403   0.04524244  0.044531661            5 
 1596000   0.61902433   -4.2023046    861.78311   0.04499703  0.044505476           10 
 1597000   0.60221744   -4.1992599    862.61416  0.045012219  0.044479306            8 
 1598000   0.61036946   -4.2014297    862.68035  0.044987502  0.044453217            6 
 1599000   0.61418682   -4.2218156    862.35707   0.04494252  0.044427033           13 
 1600000   0.61715471   -4.2089831     862.1339  0.044902807  0.044400964           13 
 1601000   0.62992829   -4.2081258    864.32754  0.044988941  0.044375003           18 
 1602000   0.62083719   -4.2213255    864.36312  0.044962709  0.044348997            5 
 1603000   0.61012958    -4.218264    862.11986  0.044818042  0.044322913           10 
 1604000   0.61456125   -4.1955161    863.76311  0.044875473  0.044296815           12 
 1605000   0.60635979   -4.2082017    864.11844  0.044865963  0.044270747           10 
 1606000   0.61435099   -4.2305765    863.23431   0.04479215  0.044244779            9 
 1607000   0.60564477    -4.214696    862.99592  0.044751915  0.044218738           13 
 1608000   0.62260412   -4.2158267    863.81821  0.044766698  0.044192736            9 
 1609000    0.6211594   -4.2095705     861.2186  0.044604237    0.0441665            8 
 1610000   0.60005375   -4.2245245    859.86653  0.044506549  0.044140164            8 
 1611000   0.59373224     -4.21805    863.68512  0.044676449  0.044113945           15 
 1612000   0.60337932   -4.1993015    864.42618  0.044687044  0.044087802           10 
 1613000   0.60382883   -4.2204962    861.57953  0.044512272  0.044061658           12 
 1614000   0.60182857   -4.2299436    862.48082  0.044531228  0.044035585           22 
 1615000   0.60001018   -4.2090628    864.34472  0.044599831  0.044009515           21 
 1616000   0.61677075   -4.2007247    863.47231  0.044527244  0.043983541           15 
 1617000   0.61341996   -4.1970617    862.98656  0.044474673  0.043957494           12 
 1618000    0.5939383   -4.2196276     867.1591  0.044662088  0.043931491            8 
 1619000   0.60957635   -4.2220552    865.39732  0.044543819  0.043905504            6 
 1620000   0.60724237   -4.1994306    864.89689  0.044490581  0.043879586            5 
 1621000   0.60010868   -4.2095202    864.09596   0.04442196  0.043853607            6 
 1622000   0.61108666   -4.2230583    864.00487  0.044389892  0.043827628           10 
 1623000   0.61955772   -4.2439747    860.62079  0.044188786  0.043801582           10 
 1624000   0.60975166   -4.1961812    866.49957  0.044463237  0.043775516            8 
 1625000   0.60298345   -4.2178469    862.82113  0.044247237  0.043749539           12 
 1626000   0.60559112    -4.219197     865.3152  0.044347847  0.043723325           18 
 1627000   0.60838948    -4.216616    865.65306  0.044337895  0.043697327           16 
 1628000   0.59255958   -4.2138662    864.18656  0.044235594  0.043671169            6 
 1629000    0.6015881   -4.2374921    862.66474  0.044130589  0.043645015           18 
 1630000   0.59764435   -4.2344421    863.27605  0.044134767  0.043618863           18 
 1631000   0.60088675    -4.245564    864.77523  0.044184305   0.04359276            8 
 1632000   0.59523782   -4.2288571    865.06604  0.044172081  0.043566663           11 
 1633000   0.60336948   -4.2140554    867.28985  0.044258514  0.043540707            6 
 1634000   0.60583798   -4.2387929    864.90905  0.044110009  0.043514939           11 
 1635000   0.59930789   -4.2287413    863.06547  0.043989066  0.043488986            8 
 1636000   0.60946868   -4.2100051    864.66047  0.044043422  0.043462998            5 
 1637000   0.60628849    -4.234847    864.28724  0.043997518  0.043437077            9 
 1638000   0.59791698   -4.2399452    865.05179  0.044009554  0.043411246            8 
 1639000   0.59589451   -4.2460798    862.56117  0.043856069   0.04338517            8 
 1640000    0.5826449   -4.2383237    864.89517  0.043947925  0.043359201            3 
 1641000   0.59750806   -4.2323164    864.31237  0.043891548  0.043333222           13 
 1642000   0.59928144   -4.2266775    863.52239  0.043824725  0.043307331            4 
 1643000   0.60168757   -4.2483895    864.85426  0.043865605  0.043281411            8 
 1644000   0.59903082   -4.2305749    864.76373  0.043834333  0.043255443            8 
 1645000    0.5926659   -4.2369383     863.4565  0.043741464   0.04322938           15 
 1646000    0.5965088   -4.2319709    864.61497   0.04377354  0.043203302           15 
 1647000   0.59975134   -4.2447361    863.51909  0.043691514  0.043177155            3 
 1648000   0.58428617   -4.2485952    865.09998  0.043744942  0.043151018           11 
 1649000   0.60429168   -4.2391436    864.04027  0.043664861  0.043125053           14 
 1650000   0.60272907   -4.2557585     865.5749  0.043715904  0.043098958           15 
 1651000   0.58693151    -4.227142    866.23418  0.043722702     0.043073           14 
 1652000   0.60099221   -4.2346784    865.57508  0.043662988  0.043047076           16 
 1653000   0.59585924   -4.2094423    865.51427  0.043633508  0.043021346            9 
 1654000   0.58563347   -4.2394504    865.44512  0.043603644  0.042995544            6 
 1655000   0.58083901   -4.2474672     864.9523  0.043552483  0.042969784           10 
 1656000   0.59252221   -4.2427014    865.75141  0.043566395  0.042943988            7 
 1657000   0.60078318   -4.2203879    863.53486  0.043428629  0.042918258           11 
 1658000   0.60589127    -4.215869    867.80694  0.043617156  0.042892495            7 
 1659000   0.61025524   -4.2626779    865.91694  0.043495928  0.042866818           23 
 1660000   0.59385102   -4.2650681    864.30608  0.043388859  0.042840989            7 
 1661000   0.58328622   -4.2666913     865.5534  0.043425316  0.042815215           16 
 1662000   0.58835551   -4.2534822    865.51765  0.043397395   0.04278953           13 
 1663000   0.58430536   -4.2512774    867.81274  0.043486307  0.042763793           11 
 1664000   0.58751919    -4.253713    866.95929  0.043417432  0.042738121           15 
 1665000   0.59145531   -4.2395417    866.32836  0.043359778  0.042712538            8 
 1666000   0.59435071   -4.2457053    870.48184  0.043541509  0.042687013            7 
 1667000   0.59042411   -4.2454463    866.28541  0.043305609  0.042661432            8 
 1668000   0.58832272   -4.2672291    865.85649  0.043258218   0.04263589            6 
 1669000   0.59842834   -4.2366723    867.61955  0.043320329   0.04261046            8 
 1670000   0.58885922   -4.2365187    866.94125  0.043260542  0.042585045            8 
 1671000   0.57743108    -4.255713    866.65832  0.043220543  0.042559495           12 
 1672000   0.57921653   -4.2540971    867.50649  0.043236966  0.042534056           29 
 1673000   0.58937222   -4.2386555    867.84548  0.043228007  0.042508648           11 
 1674000   0.59730116   -4.2665498    865.61802  0.043091299  0.042483243            8 
 1675000   0.58749684   -4.2680598    870.38119  0.043302547  0.042457778            5 
 1676000   0.57663926   -4.2504213    867.92142  0.043154406  0.042432313           13 
 1677000   0.57488174   -4.2552466    866.23711  0.043044977   0.04240695            7 
 1678000   0.57620684   -4.2646994    868.41292   0.04312738   0.04238144            6 
 1679000   0.57504815   -4.2634806    868.37683  0.043099902  0.042355892           17 
 1680000   0.57816235   -4.2597494    866.77448  0.042994766  0.042330246           14 
 1681000   0.58724226   -4.2570987    869.19048  0.043088959  0.042304782           10 
 1682000     0.592456   -4.2644157    870.12963   0.04310987  0.042279456            8 
 1683000   0.58032431    -4.264289     868.8144  0.043019133  0.042254213            7 
 1684000   0.58399833   -4.2418188    868.18965  0.042962671  0.042228911            9 
 1685000   0.56600137   -4.2595151    869.55168  0.043004534  0.042203557           14 
 1686000   0.57818739     -4.27339    867.20612  0.042863094  0.042178143            8 
 1687000   0.57188676   -4.2730284    866.39579  0.042797658  0.042152681           13 
 1688000   0.59430738   -4.2660721    869.13541  0.042907554   0.04212725           18 
 1689000   0.58684893   -4.2911228    867.80114  0.042816318  0.042101895            9 
 1690000   0.58529079   -4.2700504    863.80181  0.042593778  0.042076539           11 
 1691000   0.58111109   -4.2517579    869.51136  0.042849959   0.04205107           13 
 1692000   0.59688388   -4.2591253    867.84497  0.042742561  0.042025691           12 
 1693000   0.57631996   -4.2837496    866.86509  0.042669083  0.042000171           19 
 1694000   0.57106621   -4.2761964    868.81573  0.042739853  0.041974603            7 
 1695000   0.58314151   -4.2728795    868.12357  0.042680608  0.041949146           11 
 1696000   0.58193772   -4.2742837    868.92108  0.042694629  0.041923697           13 
 1697000   0.58250033   -4.2833639     867.2689  0.042588337   0.04189824           10 
 1698000   0.57568991   -4.2841925    868.83352  0.042640043  0.041872869           13 
 1699000   0.58783701   -4.2773979    869.79258  0.042661987   0.04184757           11 
 1700000   0.58207651   -4.2691852     868.2944  0.042563451  0.041822182            4 
 1701000   0.57567021   -4.2941222    870.12075  0.042627903  0.041796927            9 
 1702000   0.57919035   -4.2627031    870.17628  0.042605576  0.041771729            5 
 1703000    0.5706407   -4.2752329    869.81634  0.042562945  0.041746455           29 
 1704000   0.57651079   -4.2856235     867.7437  0.042436605  0.041720929            8 
 1705000   0.57074249   -4.2631162    867.47177  0.042398425  0.041695484           17 
 1706000   0.56191331   -4.2967027    866.93512  0.042347358  0.041670034           12 
 1707000   0.56157455   -4.2985006    867.19526   0.04233525  0.041644587           18 
 1708000   0.57674937   -4.2799175    870.29421  0.042461661  0.041619272           13 
 1709000   0.57548623   -4.3020987    869.70365  0.042408019  0.041594118            9 
 1710000   0.56443395   -4.2799648    870.71781  0.042432642  0.041568841            8 
 1711000   0.56733752   -4.2978271    865.90346  0.042173361  0.041543472           17 
 1712000   0.56837828   -4.2884984     867.7641  0.042239296  0.041518122           16 
 1713000   0.56413375   -4.2845507    866.13718  0.042135492  0.041492779            8 
 1714000   0.55948808   -4.3145174    868.98629   0.04224943  0.041467372           14 
 1715000   0.56965066   -4.2957404    868.53837  0.042203031  0.041442106           14 
 1716000   0.57789211   -4.3072548    869.38011  0.042219314  0.041416861           28 
 1717000   0.56986046   -4.3197553     866.5824   0.04205894  0.041391633            6 
 1718000    0.5761017   -4.2979061    870.16711  0.042208339   0.04136649           10 
 1719000   0.58411493   -4.2829518    869.87446  0.042169598  0.041341371           17 
 1720000   0.57032555   -4.3052909    868.58751  0.042082728  0.041316266            8 
 1721000    0.5700072   -4.2923262    870.32216   0.04214227  0.041291282           18 
 1722000    0.5692011   -4.2947123    869.69554  0.042087473  0.041266298           10 
 1723000   0.55433236   -4.3095737    870.74434  0.042113772  0.041241253            8 
 1724000   0.55671737   -4.3164823    868.80176  0.041995445  0.041216243           13 
 1725000   0.56004428   -4.2942065    870.22268  0.042039743  0.041191164           11 
 1726000   0.57393154   -4.2823399    869.04879  0.041958709  0.041166215           17 
 1727000    0.5634114   -4.3133367    869.55154  0.041958673  0.041141104           15 
 1728000   0.56794602   -4.3051782    869.24464  0.041919591  0.041116051           14 
 1729000   0.56275265   -4.3159748    867.77185  0.041824361   0.04109092            8 
 1730000   0.56168134   -4.2992146    870.70615  0.041941529  0.041065903           26 
 1731000   0.55484268   -4.3067301    870.67705  0.041915899  0.041040865           38 
 1732000   0.54983414    -4.296265    870.00065  0.041859154  0.041015819           37 
 1733000   0.55993674    -4.332764    866.70843  0.041676689  0.040990674           20 
 1734000   0.56173245   -4.2948235    869.59957  0.041791598  0.040965484           14 
 1735000   0.55055727   -4.3052709    866.90536  0.041638105  0.040940326           10 
 1736000   0.56647164   -4.3179491    869.18319  0.041723463  0.040915337           11 
 1737000   0.55506068   -4.3087724    868.31289   0.04165769  0.040890329           17 
 1738000   0.56926894    -4.306688    870.11339  0.041720051  0.040865187            8 
 1739000   0.55506474   -4.3267845    871.16176  0.041746299  0.040840166           11 
 1740000   0.56172178   -4.3136324    870.22215  0.041677306   0.04081521           18 
 1741000   0.56404572    -4.302071    869.17319  0.041603159  0.040790221           12 
 1742000   0.55636311    -4.327444    869.64431  0.041601814   0.04076527           16 
 1743000   0.54684915   -4.2912173    869.18843   0.04155615  0.040740466            8 
 1744000   0.54734192   -4.3140361    869.70871  0.041557182  0.040715539           18 
 1745000   0.55239121   -4.3160345    867.72396  0.041438584  0.040690612           17 
 1746000   0.55106769   -4.3032276    869.40388   0.04149503  0.040665757           14 
 1747000   0.55601122    -4.310836    872.10081  0.041599924  0.040641037           20 
 1748000   0.57195178   -4.3070705    870.74805  0.041511635   0.04061627           12 
 1749000   0.55391732   -4.3287321    869.07784  0.041408321  0.040591474           18 
 1750000   0.55438051    -4.306675    871.05146  0.041478641  0.040566553           16 
 1751000   0.55451345   -4.3370156    868.97813  0.041356279  0.040541716           10 
 1752000   0.56574448   -4.3127572    869.98867   0.04138074  0.040516919            8 
 1753000   0.55925775   -4.3258789    871.05007   0.04140759  0.040492227           11 
 1754000   0.56287622   -4.3301841     870.2949  0.041348104  0.040467504           18 
 1755000   0.55988864   -4.3162098    869.42391  0.041283187  0.040442804           12 
 1756000   0.55259886   -4.3100184    869.46743  0.041261742  0.040418047           16 
 1757000   0.55615809   -4.3225491    870.16167  0.041271185  0.040393283           13 
 1758000   0.55022456    -4.305312    870.89153  0.041282306  0.040368557            9 
 1759000    0.5562984     -4.30372    869.11634  0.041174737  0.040343882            5 
 1760000   0.54631621   -4.3209834    869.25639  0.041157973  0.040319173           12 
 1761000   0.56172838   -4.3143803    871.98026  0.041263499  0.040294592            7 
 1762000   0.55899858   -4.3188994    871.87239  0.041234979  0.040269908           27 
 1763000   0.54902956   -4.3179434    869.71547  0.041109636  0.040245175           15 
 1764000   0.54606049    -4.314957    871.56531   0.04117372  0.040220528           10 
 1765000   0.54328646   -4.3438174    870.61889  0.041105708  0.040195912           14 
 1766000   0.55554999   -4.3263193    870.13735  0.041059709  0.040171303           13 
 1767000   0.55125625   -4.3270755    871.40389  0.041096203  0.040146611           11 
 1768000   0.53475188    -4.339169    870.69622  0.041039603  0.040121991           22 
 1769000   0.54282987   -4.3233775    871.44454  0.041051655  0.040097291           10 
 1770000   0.54282484   -4.3226484     870.1709  0.040968498  0.040072656           14 
 1771000   0.55494023   -4.2999431    871.24546  0.040995928  0.040048122            9 
 1772000   0.54103163   -4.3427576    870.79975  0.040951832  0.040023589           17 
 1773000   0.54314469   -4.3392931    870.25289  0.040903031  0.039999043           11 
 1774000   0.54446502   -4.3432685    871.98658  0.040961414  0.039974378            8 
 1775000   0.54276637   -4.3446749     869.3812  0.040816019   0.03994969           21 
 1776000   0.55241582   -4.3345269    870.16966  0.040830033  0.039925027           40 
 1777000   0.54353634    -4.347249    870.55756  0.040825247  0.039900454           50 
 1778000   0.52785971   -4.3498905    870.11196  0.040781401  0.039875866           31 
 1779000   0.54276473   -4.3429499    871.25207  0.040811883  0.039851268           22 
 1780000   0.54936881   -4.3450547    869.85228  0.040723421  0.039826534           14 
 1781000   0.54287708   -4.3580047     871.3316  0.040769773  0.039801901           12 
 1782000   0.53999548   -4.3363299    868.87243  0.040631894  0.039777268           16 
 1783000   0.55634965   -4.3319391    870.61678  0.040690633  0.039752779            5 
 1784000   0.55181648   -4.3364088    871.00819  0.040686107  0.039728343           13 
 1785000   0.54392438   -4.3224419    871.33082  0.040678376  0.039703958            7 
 1786000   0.54329168   -4.3406189    869.70093  0.040579551  0.039679548           12 
 1787000   0.53915383   -4.3397481    871.07105  0.040620736  0.039655117           11 
 1788000   0.54091347    -4.345166    869.93499  0.040545069  0.039630652           12 
 1789000   0.54581239   -4.3518072    869.58775   0.04050623  0.039606096           15 
 1790000   0.54104622   -4.3487396    867.93073  0.040406459  0.039581457           18 
 1791000    0.5477641   -4.3552247    871.96031   0.04057139  0.039556917           12 
 1792000   0.53229753   -4.3329914    871.59809  0.040531905  0.039532381           23 
 1793000   0.53864285   -4.3618234    869.99328  0.040434713  0.039507842           13 
 1794000   0.54443988   -4.3596218    867.96207  0.040317822  0.039483274           12 
 1795000   0.53914863   -4.3447107    871.97408  0.040481619  0.039458743           15 
 1796000   0.54502763    -4.364649    871.21805     0.040424  0.039434361            8 
 1797000   0.53229019   -4.3616433    869.03927  0.040300467  0.039409844           16 
 1798000   0.52462994   -4.3602358    870.64641   0.04035254  0.039385409           17 
 1799000   0.53155295   -4.3718996    870.23614  0.040311105  0.039360986           12 
 1800000   0.53077402   -4.3472998    871.56427  0.040350198  0.039336645           11 
 1801000    0.5298836   -4.3424226    870.79912  0.040292389  0.039312428           12 
 1802000   0.52950606   -4.3328265    870.72563  0.040266631  0.039288261           17 
 1803000   0.53235519   -4.3711164    871.76054  0.040292131  0.039264072           18 
 1804000   0.53085369   -4.3767156     871.6139  0.040263022  0.039239814           13 
 1805000   0.52070864   -4.3464964    871.38978  0.040230368  0.039215542           22 
 1806000   0.53306491   -4.3600802    872.03053  0.040237658  0.039191213           16 
 1807000   0.52900694   -4.3783552    871.22585  0.040178281  0.039166963           13 
 1808000   0.54026236   -4.3763894     871.8912  0.040186725  0.039142678            8 
 1809000   0.52927475   -4.3500885    873.21459  0.040225474  0.039118343           10 
 1810000   0.51693842   -4.3735675    869.19352  0.040018118  0.039094047           13 
 1811000   0.52160074   -4.3730539    872.19231   0.04013401  0.039069706           19 
 1812000   0.53991287   -4.3468965    873.06426  0.040151962  0.039045541           19 
 1813000   0.54231239   -4.3545869    872.52372   0.04010497  0.039021368            9 
 1814000   0.52146482   -4.3858152    871.14778  0.040019652  0.038997079           24 
 1815000   0.52804433   -4.3604424     868.6778  0.039884197  0.038972774           22 
 1816000    0.5162681   -4.3415542    871.35839  0.039985242  0.038948535           15 
 1817000   0.53092847   -4.3622446     871.3414  0.039962456  0.038924344           10 
 1818000   0.52987971   -4.3801469    869.24604  0.039844428  0.038900138           15 
 1819000     0.524361   -4.3682322    871.16084  0.039910246  0.038875872           15 
 1820000   0.53650682   -4.3819731    868.85464  0.039782722  0.038851533           11 
 1821000   0.52127041   -4.3515601    869.36549  0.039784253  0.038827242           12 
 1822000   0.53132366   -4.3682417    870.00516  0.039791674  0.038802971            7 
 1823000   0.52976833   -4.3619491    870.03851  0.039771371  0.038778722           17 
 1824000   0.52659912   -4.3645881    871.28718  0.039806615  0.038754438            9 
 1825000   0.51081304   -4.3727247    870.75591  0.039760544  0.038730243            6 
 1826000   0.52812009   -4.3658662    870.31099  0.039718464  0.038706035           13 
 1827000     0.524936   -4.3853022    871.47531  0.039749832  0.038681866           21 
 1828000   0.53211764   -4.3854908    872.51403  0.039775439   0.03865768           10 
 1829000   0.52606641   -4.3870894    870.29114  0.039652412   0.03863349            7 
 1830000    0.5146425   -4.3754711    869.69175  0.039603449  0.038609387           16 
 1831000    0.5187344    -4.369431    871.15634  0.039648477  0.038585312           20 
 1832000   0.51800644   -4.3703962    870.38671  0.039591826  0.038561227           21 
 1833000   0.52589528   -4.3801389    871.14432   0.03960467  0.038537101            8 
 1834000   0.51374658   -4.3827433    872.57125  0.039647912  0.038513069           11 
 1835000   0.51605466   -4.3642789    871.87518  0.039594695  0.038489086           10 
 1836000    0.5243352   -4.3576551    872.99825  0.039624104  0.038465185            9 
 1837000   0.52206732   -4.3779371    869.19973  0.039430218  0.038441147           20 
 1838000   0.49984653   -4.3971383    871.42328  0.039509579  0.038417078            8 
 1839000   0.52345298   -4.3763396    870.83121  0.039461266  0.038393028           11 
 1840000   0.52034493   -4.3808863     873.0365  0.039539697  0.038369021           14 
 1841000   0.52804616    -4.399647    871.95924  0.039469457  0.038345109           45 
 1842000   0.51577503   -4.4005632    870.78744  0.039395016  0.038321202           17 
 1843000   0.51350139   -4.4007344    870.45297  0.039358517  0.038297284           24 
 1844000   0.52502655   -4.3968528    872.76964  0.039441867  0.038273294           32 
 1845000   0.50503397   -4.3878287    871.40316   0.03935877  0.038249302           18 
 1846000   0.51646442    -4.379085    874.08474  0.039458502  0.038225392           14 
 1847000   0.51754146    -4.375614     871.1257  0.039303632  0.038201553           12 
 1848000   0.50869406   -4.3986674    869.60918  0.039213978  0.038177722           11 
 1849000   0.51102362   -4.3764835    871.60259  0.039282612  0.038153922           12 
 1850000   0.51564332   -4.3700337    869.98537   0.03918853  0.038130182           22 
 1851000   0.50892278   -4.3871816    871.80602  0.039249326  0.038106393            8 
 1852000   0.51629936   -4.3996386     872.8895  0.039276886  0.038082615           12 
 1853000   0.51061111   -4.4017287    872.19957  0.039224661  0.038058832            6 
 1854000   0.52564625   -4.4120589    871.40525  0.039167802  0.038035012           19 
 1855000   0.51187871   -4.3886137    871.51056  0.039151418  0.038011263           12 
 1856000   0.51891506   -4.3911652    871.87937  0.039146882  0.037987526           19 
 1857000   0.52483007   -4.4084255    870.90559  0.039082103  0.037963732            9 
 1858000   0.50590571   -4.3995193    871.41009  0.039083696  0.037939968           24 
 1859000   0.50453911   -4.3864799     871.9975  0.039089004  0.037916235           12 
 1860000    0.5100742   -4.4033017    870.86884  0.039017421  0.037892503            9 
 1861000   0.50714795   -4.4186298    869.67734  0.038943101  0.037868665           18 
 1862000   0.50846529   -4.4156036    869.14414  0.038898323  0.037844889           33 
 1863000   0.50792376   -4.4027406    870.81063  0.038951987  0.037821069           13 
 1864000   0.50432559   -4.4182841    871.07993   0.03894313  0.037797384           22 
 1865000   0.51939575   -4.3882944    870.12655  0.038879649  0.037773631           35 
 1866000   0.51533933   -4.4074205    870.66317  0.038882778  0.037749978           49 
 1867000   0.50221997   -4.4073404    871.35855   0.03889299  0.037726353           42 
 1868000     0.512093    -4.399162    872.67892  0.038931072   0.03770274           20 
 1869000   0.51099355   -4.4109648    870.39412   0.03880837  0.037679112           13 
 1870000   0.50941065   -4.4109562    872.37718  0.038875989  0.037655474           16 
 1871000   0.50875878   -4.3994552    870.63072  0.038777424  0.037631773           18 
 1872000   0.50925747   -4.4112849    870.81707  0.038765005  0.037608096           35 
 1873000   0.50005749   -4.4131254    871.61028    0.0387796  0.037584409           15 
 1874000   0.50438303   -4.4161652    870.73351  0.038719918  0.037560837           17 
 1875000   0.50542306   -4.4124964    872.63144  0.038783619  0.037537158           21 
 1876000   0.50338813   -4.4191018    870.66426  0.038675563  0.037513544           20 
 1877000   0.50705397   -4.4134084    870.19846  0.038634277  0.037489864           27 
 1878000   0.50112643   -4.4303443     867.9021  0.038511808  0.037466186           26 
 1879000   0.49574756   -4.4256573    868.86005  0.038533797  0.037442514           12 
 1880000   0.49593823   -4.4261152    871.12971  0.038613905  0.037418867           11 
 1881000   0.49735182   -4.4194524    871.61376  0.038614822  0.037395202           24 
 1882000   0.49364794   -4.4095049    871.03538  0.038568694  0.037371589            6 
 1883000   0.51153618   -4.4457473    870.75932  0.038535994  0.037348051           12 
 1884000   0.50500299   -4.4291344    870.83903  0.038519066  0.037324494           11 
 1885000   0.49855649   -4.4244374    871.13002  0.038511495  0.037300977           18 
 1886000   0.49698122   -4.4241575    870.87922  0.038479994  0.037277562           26 
 1887000   0.50831116   -4.4294711    872.37966  0.038525864  0.037254098           14 
 1888000   0.50578585   -4.4329918    869.48249  0.038377582  0.037230677            9 
 1889000   0.48315797   -4.4342707    870.94066  0.038421593  0.037207263           11 
 1890000   0.49273012   -4.4256927    872.61174  0.038474944  0.037183845           10 
 1891000   0.49753843   -4.4060813    873.18196  0.038479727  0.037160506           21 
 1892000   0.49619865   -4.4394823    871.01887  0.038364115  0.037137123           21 
 1893000   0.49246994   -4.4382267    870.54453  0.038322967  0.037113716           11 
 1894000   0.49888074   -4.4344404    872.56336  0.038391559  0.037090361           25 
 1895000   0.48926297    -4.461728    869.39761  0.038232085  0.037066914           20 
 1896000   0.49886547   -4.4391601    870.45976  0.038258604  0.037043455           15 
 1897000   0.49348089   -4.4279431    871.11989  0.038267435  0.037020023           10 
 1898000   0.48438336   -4.4329549    871.18121  0.038249965  0.036996628           12 
 1899000   0.49492322   -4.4353128    869.52279  0.038157047  0.036973227           15 
 1900000   0.48789258   -4.4320858    872.03489  0.038247144  0.036949861           15 
 1901000   0.49767698   -4.4503016    870.13695  0.038143826  0.036926467           13 
 1902000   0.50388788   -4.4555478    870.32294   0.03813192  0.036903005           11 
 1903000   0.48923207   -4.4358936    872.39221  0.038202496  0.036879625           15 
 1904000   0.48772334   -4.4244854     871.0289  0.038122764  0.036856259           12 
 1905000   0.49825555   -4.4215713    872.93385  0.038186083  0.036832983           17 
 1906000   0.49878429   -4.4172095    869.42683  0.038012716  0.036809665           10 
 1907000   0.49656793   -4.4541576    871.14932  0.038068053  0.036786323           36 
 1908000   0.48933098    -4.447228    869.63292  0.037981871  0.036762953           43 
 1909000    0.4944702    -4.437418    869.57534  0.037959461  0.036739506           35 
 1910000   0.49816806   -4.4438823    870.39339  0.037975279   0.03671615           14 
 1911000   0.48951668   -4.4396914    869.29468  0.037907495  0.036692755           17 
 1912000   0.48717465   -4.4438925    871.21671   0.03797144  0.036669401           17 
 1913000   0.47960664   -4.4350668    870.71647  0.037929799  0.036646061           22 
 1914000   0.48152095   -4.4680359    868.67006  0.037820884  0.036622652           33 
 1915000   0.49166594   -4.4488777    869.53308  0.037838689  0.036599188           42 
 1916000   0.48399912   -4.4593797    869.00486  0.037795966  0.036575746           26 
 1917000   0.49073598   -4.4633893    869.17739   0.03778375  0.036552299           21 
 1918000   0.49300283   -4.4582136    869.46658  0.037776616  0.036528886           47 
 1919000    0.4928085   -4.4687189    868.23993  0.037703662   0.03650547           12 
 1920000   0.49363293   -4.4621052    869.78808  0.037751219  0.036482061           20 
 1921000   0.48464925     -4.48158    868.96511  0.037695866  0.036458705           28 
 1922000   0.48571672   -4.4667402     870.8721  0.037758936  0.036435353           26 
 1923000   0.50018562   -4.4505398    869.92779  0.037698379  0.036412094           13 
 1924000   0.48655096   -4.4357465    870.83049  0.037717883  0.036388882           22 
 1925000   0.49046699    -4.439362    870.84784  0.037699041   0.03636567           19 
 1926000   0.48847609   -4.4518606    870.87701  0.037680729  0.036342546           24 
 1927000     0.480549   -4.4554611    870.77378  0.037656711   0.03631944           20 
 1928000   0.47904998   -4.4449347    870.60239  0.037629771  0.036296304           15 
 1929000   0.48752991   -4.4543066    867.89756  0.037493415  0.036273155           22 
 1930000   0.48703043      -4.4577    869.62517  0.037548583  0.036250022           18 
 1931000   0.47678858    -4.458311    869.97621  0.037544287  0.036226914           41 
 1932000   0.48209856    -4.470992    867.93203  0.037436682  0.036203739           14 
 1933000   0.48813717   -4.4553434    870.26917  0.037518071  0.036180569           38 
 1934000   0.48241622   -4.4624425    869.25224  0.037454854  0.036157491           10 
 1935000   0.47195287    -4.463872    870.20758   0.03747664  0.036134412            7 
 1936000    0.4811641   -4.4677322    869.81751  0.037440492  0.036111314           47 
 1937000   0.48974841   -4.4806986    869.18278  0.037393856  0.036088264           17 
 1938000   0.48156613   -4.4632076    871.51299  0.037474759  0.036065153           23 
 1939000    0.4868187   -4.4610221    870.86394  0.037427537  0.036042131           29 
 1940000   0.48046202   -4.4566517    868.58533  0.037310366  0.036019125           15 
 1941000    0.4768721   -4.4646865    871.08727   0.03739856  0.035996106           16 
 1942000   0.48711217   -4.4586795    870.57869  0.037357479  0.035973119           24 
 1943000   0.48678597    -4.450164     870.6804  0.037342614  0.035950143           19 
 1944000   0.47618738   -4.4604243    870.96878  0.037335767  0.035927161           12 
 1945000   0.48122055   -4.4924146    868.54274  0.037212628  0.035904172           12 
 1946000    0.4954994   -4.4596215    868.61364  0.037196541  0.035881206           21 
 1947000   0.47855234   -4.4752013     868.8891  0.037189227  0.035858278           21 
 1948000   0.48041355   -4.4759134    869.11005  0.037179588  0.035835313           17 
 1949000   0.46448305   -4.4764896    867.64923  0.037098052  0.035812351           31 
 1950000    0.4706425    -4.482903    870.80552  0.037213911  0.035789385           20 
 1951000   0.47504243   -4.4837726    869.12707  0.037123145  0.035766491           13 
 1952000   0.46765148    -4.494817     868.5554  0.037079722  0.035743586           32 
 1953000   0.48101975    -4.483052    869.50635  0.037101312  0.035720706           31 
 1954000   0.47025083   -4.4870828    869.12169   0.03706592  0.035697802           18 
 1955000   0.47469576   -4.4853373    867.66973   0.03698507  0.035674883           31 
 1956000   0.47719271   -4.4949487    869.21043  0.037031801  0.035651961           29 
 1957000    0.4705528    -4.497886    868.72823  0.036992345  0.035628995           41 
 1958000   0.46284639   -4.4932138    868.58345   0.03696729  0.035606092           23 
 1959000   0.47497637   -4.4897032    868.49046  0.036944464  0.035583228           22 
 1960000    0.4718025    -4.492933    869.26137  0.036958392  0.035560361           49 
 1961000   0.47088411   -4.4758688    870.51587  0.036992855  0.035537511           25 
 1962000   0.47178283   -4.5075957    867.62589  0.036851253  0.035514657           22 
 1963000   0.46616924   -4.4904183    867.98387  0.036847677  0.035491823           26 
 1964000   0.46997195   -4.4756631     867.4213  0.036805045  0.035468999           19 
 1965000   0.45915677   -4.4831198    869.94274  0.036893246  0.035446246           39 
 1966000   0.47705809   -4.4802848     869.2046  0.036843192  0.035423484           21 
 1967000   0.46503396   -4.4730562    870.11495   0.03686303  0.035400765           13 
 1968000   0.46544205   -4.4918565    868.22172  0.036764131   0.03537804           11 
 1969000   0.46750513   -4.4995686    866.86589  0.036688077   0.03535529           41 
 1970000   0.46470109   -4.4867486    868.94852  0.036757552  0.035332461           19 
 1971000   0.47453291    -4.488057    869.25515  0.036751867  0.035309724           17 
 1972000   0.47581493   -4.5051207    870.19055  0.036772758   0.03528702            8 
 1973000   0.47043832    -4.491975    867.18264  0.036627075  0.035264359           36 
 1974000   0.45853694   -4.4934221    869.22007  0.036694532  0.035241731           23 
 1975000   0.47372285   -4.4798119    868.70961  0.036654414  0.035219147           22 
 1976000   0.46078526   -4.4937114    869.97009  0.036689022  0.035196485           22 
 1977000   0.46382418   -4.5016457     867.7076  0.036575097   0.03517386           31 
 1978000    0.4713936   -4.5080771    868.69209  0.036598083  0.035151171           14 
 1979000    0.4610813   -4.5128373    868.42169  0.036568203  0.035128451           15 
 1980000   0.45821516   -4.5041926    869.26482   0.03658522    0.0351058           18 
 1981000   0.46410563   -4.5052894    867.93712    0.0365109  0.035083256           21 
 1982000   0.46967241   -4.5076157    868.46862  0.036514826  0.035060717           20 
 1983000   0.45415596   -4.5045595    869.91496  0.036557193  0.035038119           31 
 1984000   0.46704339   -4.5063766    867.79662  0.036449791  0.035015524           25 
 1985000   0.45442971   -4.5197589    867.86315  0.036434221   0.03499298           20 
 1986000    0.4643416   -4.5182418    869.97208  0.036504367  0.034970489           23 
 1987000   0.46628315   -4.5088147    869.33903  0.036459446     0.034948           42 
 1988000    0.4598448   -4.4945258    868.56627  0.036408714   0.03492555           35 
 1989000   0.47023442    -4.495705    869.12468  0.036413804  0.034903106           48 
 1990000   0.45930922   -4.5072189    867.50327  0.036327608  0.034880636           76 
 1991000   0.46117299   -4.5138791    868.50411  0.036351252  0.034858203           52 
 1992000   0.45947263   -4.5189716    867.55701  0.036293382  0.034835749           59 
 1993000   0.45266188   -4.5042642    869.90138  0.036373197  0.034813315           68 
 1994000    0.4578905   -4.5223844    868.16294  0.036282303  0.034790913          103 
 1995000   0.47117357    -4.534339    868.02332  0.036258284  0.034768481           45 
 1996000   0.46319785   -4.5321284    868.83862  0.036274158  0.034746013           53 
 1997000   0.44366968   -4.5239898    867.39601  0.036195794   0.03472361           49 
 1998000   0.45466516   -4.5137195    869.13061  0.036250025  0.034701195           36 
 1999000   0.44949432   -4.5142135    868.46173  0.036204007  0.034678765           26 
 2000000   0.44540057   -4.5080571    867.88959  0.036162066  0.034656421           17 
 2001000   0.45804879   -4.5201678    867.92137  0.036145318    0.0346341           15 
 2002000   0.44809666   -4.5157198    868.87647  0.036167019  0.034611777           34 
 2003000   0.44975724   -4.5320607     867.1344  0.036076485   0.03458943           48 
 2004000   0.44082571   -4.5395221    868.43749   0.03611267  0.034567075           32 
 2005000   0.44782827   -4.5227038    868.29528  0.036088748  0.034544728           72 
 2006000   0.45326022   -4.5340578    868.26441  0.036069475   0.03452249           69 
 2007000   0.44796528   -4.5229023    868.81044  0.036074175  0.034500206           47 
 2008000   0.45682882   -4.5180753    867.55619  0.036004158  0.034477943           25 
 2009000   0.45114183   -4.5366807    867.62365  0.035989035  0.034455696           37 
 2010000    0.4501822   -4.5096739    867.35391  0.035959946  0.034433419           18 
 2011000    0.4598892   -4.5317719    868.02062  0.035969692  0.034411177           36 
 2012000   0.45473124   -4.5428523    868.66842  0.035978646  0.034388943           32 
Loop time of 4936.45 on 48 procs for 2000000 steps with 4000 atoms

Performance: 70009.770 tau/day, 405.149 timesteps/s
99.4% CPU use with 48 MPI tasks x no OpenMP threads

MPI task timing breakdown:
Section |  min time  |  avg time  |  max time  |%varavg| %total
---------------------------------------------------------------
Pair    | 324.64     | 348.49     | 375.04     |  55.4 |  7.06
Neigh   | 33.458     | 34.746     | 36.632     |  12.0 |  0.70
Comm    | 309.48     | 335.77     | 366.64     |  65.3 |  6.80
Output  | 4.2039     | 4.2056     | 4.238      |   0.2 |  0.09
Modify  | 4154.7     | 4168.3     | 4185.2     |  11.3 | 84.44
Other   |            | 44.91      |            |       |  0.91

Nlocal:        83.3333 ave          90 max          74 min
Histogram: 1 1 1 4 4 14 12 4 5 2
Nghost:        2246.94 ave        2271 max        2223 min
Histogram: 1 5 5 5 8 8 5 6 3 2
Neighs:        15094.5 ave       16549 max       12601 min
Histogram: 1 0 0 6 3 9 8 10 8 3
FullNghs:      30189.0 ave       32757 max       26504 min
Histogram: 1 1 2 3 9 7 13 4 5 3

Total # of neighbors = 1449073
Ave neighs/atom = 362.26825
Neighbor list builds = 108151
Dangerous builds = 0

#clear
#
#next RN
#
#jump SELF
Total wall time: 1:22:20
