
units lj                  # Use reduced LJ style units
atom_style atomic         # Uncharged point particles
atom_modify map hash      # Needed for indexing of clusters etc
                          # Used to be able to find where atoms are in relation to each other.

lattice fcc 1.0 spacing 1 1 1
Lattice spacing in x,y,z = 1.5874011 1.5874011 1.5874011
region box block 0 10 0 10 0 10 units lattice
create_box 2 box
Created orthogonal box = (0.0000000 0.0000000 0.0000000) to (15.874011 15.874011 15.874011)
  3 by 4 by 4 MPI processor grid
create_atoms 1 box
Created 4000 atoms
  using lattice units in orthogonal box = (0.0000000 0.0000000 0.0000000) to (15.874011 15.874011 15.874011)
  create_atoms CPU = 0.003 seconds
set type 1 type/fraction 2 0.01 78393
Setting atom values ...
  36 settings made for type/fraction
mass 1 1.0
mass 2 1.0
pair_style lj/cut  3.5
pair_modify tail  yes
pair_coeff 1  1  1.0  1.0   # Intearaction between 1 and 1 set with epsilon = 1 and sigma = 1
pair_coeff 1  2  1.5  0.8
pair_coeff 2  2  0.5  0.88

write_data data.0
System init for write_data ...
Neighbor list info ...
  update every 1 steps, delay 10 steps, check yes
  max neighbors/atom: 2000, page size: 100000
  master list distance cutoff = 3.8
  ghost atom cutoff = 3.8
  binsize = 1.9, bins = 9 9 9
  1 neighbor lists, perpetual/occasional/extra = 1 0 0
  (1) pair lj/cut, perpetual
      attributes: half, newton on
      pair build: half/bin/atomonly/newton
      stencil: half/bin/3d
      bin: standard
WARNING: Not all mixed pair coeffs generated from mixing. Use write_data with 'pair ij' option to store all pair coeffs. (../write_data.cpp:312)


#############################
#   M E L T   S Y S T E M   #
#############################

velocity all create 2.4 2750902 mom yes dist gaussian # Assign velocities
                                                    # Temperature 2.4, random number seed, zero linear momentum
                                                                                # Gaussian distribution

timestep 0.002   # simulation timestep
thermo 1000       # output thermodynamic data every 1000 steps bf 100

# Define a fix  in this case with index 1 applied to all
# particles in the simulation. This fix is for simulations
# in the anisotropic NPT ensemble. Note that we use the MTK
# correction.
fix 1 all npt temp 2.4 2.4 0.1 iso 5.68 5.68 0.5 mtk yes tchain 5 pchain 5 # Use NPT ensemble
                                                                         # Set temperature and pressure and damping
                                                                         # Numbers of thermostats in chain and in barostat
run 10000          # run for 10000 steps
Per MPI rank memory allocation (min/avg/max) = 3.642 | 3.644 | 3.648 Mbytes
Step Temp E_pair E_mol TotEng Press Volume 
       0          2.4   -8.3261558            0   -4.7270558   -2.3168672         4000 
    1000    2.3760347   -4.4615843            0  -0.89842317    5.6453334     5145.636 
    2000      2.39971   -4.3945388            0  -0.79587375    5.8284766    5159.2845 
    3000    2.4139491   -4.4523801            0  -0.83236175    5.6164093    5169.1228 
    4000    2.4193229   -4.4161446            0  -0.78806747    5.6580479    5180.6475 
    5000    2.4384592   -4.3549431            0   -0.6981688    5.7162795    5208.7635 
    6000    2.3624269    -4.383211            0  -0.84045655    5.7319328    5186.3971 
    7000    2.4155359   -4.4351108            0  -0.81271275    5.4622994    5203.7332 
    8000    2.3697396   -4.3682259            0  -0.81450509     5.819297    5183.3561 
    9000    2.4441341   -4.3378607            0  -0.67257602    5.9041554    5196.1571 
   10000    2.4667684   -4.4037996            0  -0.70457205    5.6376178    5199.1998 
Loop time of 2.04887 on 48 procs for 10000 steps with 4000 atoms

Performance: 843390.413 tau/day, 4880.732 timesteps/s
99.7% CPU use with 48 MPI tasks x no OpenMP threads

MPI task timing breakdown:
Section |  min time  |  avg time  |  max time  |%varavg| %total
---------------------------------------------------------------
Pair    | 0.86506    | 0.91111    | 0.98072    |   2.8 | 44.47
Neigh   | 0.16577    | 0.17202    | 0.1842     |   0.9 |  8.40
Comm    | 0.65287    | 0.71772    | 0.79443    |   3.8 | 35.03
Output  | 0.00024179 | 0.00024618 | 0.0003109  |   0.0 |  0.01
Modify  | 0.20708    | 0.23361    | 0.25371    |   2.6 | 11.40
Other   |            | 0.01418    |            |       |  0.69

Nlocal:        83.3333 ave          88 max          76 min
Histogram: 2 2 3 3 2 11 3 8 8 6
Nghost:        1380.85 ave        1399 max        1366 min
Histogram: 3 5 5 8 8 6 6 3 3 1
Neighs:        7322.54 ave        8211 max        6418 min
Histogram: 1 2 7 6 5 6 13 5 2 1

Total # of neighbors = 351482
Ave neighs/atom = 87.870500
Neighbor list builds = 901
Dangerous builds = 191

# Equilibrate just above the melting temperature to avoid step fn in T

fix 1 all npt temp 1.25 1.25 0.1 iso 5.68 5.68 0.5 mtk yes tchain 5 pchain 5
run 2000
Per MPI rank memory allocation (min/avg/max) = 3.642 | 3.644 | 3.648 Mbytes
Step Temp E_pair E_mol TotEng Press Volume 
   10000    2.4667684   -4.4037996            0  -0.70457205    5.6376178    5199.1998 
   11000    1.2241739   -5.8850088            0   -4.0492071     5.664895    4305.2057 
   12000    1.3008755   -5.8937019            0   -3.9428765    5.5183367    4318.5155 
Loop time of 0.438712 on 48 procs for 2000 steps with 4000 atoms

Performance: 787760.072 tau/day, 4558.797 timesteps/s
99.7% CPU use with 48 MPI tasks x no OpenMP threads

MPI task timing breakdown:
Section |  min time  |  avg time  |  max time  |%varavg| %total
---------------------------------------------------------------
Pair    | 0.19355    | 0.20673    | 0.22294    |   1.3 | 47.12
Neigh   | 0.030532   | 0.031639   | 0.034058   |   0.4 |  7.21
Comm    | 0.13183    | 0.15017    | 0.16844    |   2.1 | 34.23
Output  | 4.7634e-05 | 4.8943e-05 | 6.1537e-05 |   0.0 |  0.01
Modify  | 0.040769   | 0.045885   | 0.051914   |   1.6 | 10.46
Other   |            | 0.004239   |            |       |  0.97

Nlocal:        83.3333 ave          90 max          74 min
Histogram: 1 3 1 5 4 11 6 7 8 2
Nghost:        1563.56 ave        1588 max        1550 min
Histogram: 3 10 8 11 2 6 6 1 0 1
Neighs:        8814.56 ave        9649 max        7710 min
Histogram: 1 3 2 5 8 5 9 8 3 4

Total # of neighbors = 423099
Ave neighs/atom = 105.77475
Neighbor list builds = 143
Dangerous builds = 6

#############################
# L I N E A R  Q U E N C H  #
#############################

# Define solid atoms. This closely follows ten Wolde  Ruiz-Montero and Frenkel  Faraday Discuss  1996  104  93-110
# Compute components of the per-atom q6 vector
compute q6 all orientorder/atom degrees 1 6 components 6 nnn NULL cutoff 1.3 # compute the Q6 parameter.
                                                                             # Use all neighbours within 1.3 unit cell.

# get number of connections
compute coord_number all coord/atom orientorder q6 0.5

# An atom is solid if it has 8 or more connections (of a possible 14)
variable is_solid atom c_coord_number>=8
group solid dynamic all var is_solid    # Must be dynamic to update
dynamic group solid defined

# do clustering
compute cluster solid cluster/atom 1.3 # Create a cluster where all atoms within are solid and max 1.3 units from another member

# define chunks one chunk per cluster
compute clus_chunks solid chunk/atom c_cluster nchunk every compress yes  # Says which atoms are in which chunk

# count the size of each chunk
compute size_chunks solid property/chunk clus_chunks count


# Find the maximum entry in the vector of chunk sizes
variable max_n equal max(c_size_chunks)


# Thermo style which includes this variable
# thermo_style custom step temp pe vol v_max_n

thermo ${N}  # Print the thermo information every 100 steps
thermo 1000  

# Reset the npt fix at a lower temperature (below freezing)
fix 1  all npt temp  ${temp} ${temp}  0.1  iso  5.68  5.68  0.5  mtk yes tchain  5  pchain  5
fix 1  all npt temp  0.45 ${temp}  0.1  iso  5.68  5.68  0.5  mtk yes tchain  5  pchain  5
fix 1  all npt temp  0.45 0.45  0.1  iso  5.68  5.68  0.5  mtk yes tchain  5  pchain  5

dump dmp2 all dcd ${N} traj.dcd
dump dmp2 all dcd 1000 traj.dcd


compute msd all msd com yes
variable twopoint equal c_msd[4]/6/(step*dt+1.0e-6)
fix 9 all vector 10 c_msd[4]
variable fit equal slope(f_9)/6/(10*dt)
thermo_style custom step temp pe c_msd[4] v_twopoint v_fit v_max_n

fix 1 all npt temp 1.25 ${temp} 0.1 iso 5.68 5.68 0.5 mtk yes tchain 5 pchain 5
fix 1 all npt temp 1.25 0.45 0.1 iso 5.68 5.68 0.5 mtk yes tchain 5 pchain 5
run 5000000 # 5000000  # Run for this many steps
Neighbor list info ...
  update every 1 steps, delay 10 steps, check yes
  max neighbors/atom: 2000, page size: 100000
  master list distance cutoff = 3.8
  ghost atom cutoff = 3.8
  binsize = 1.9, bins = 9 9 9
  4 neighbor lists, perpetual/occasional/extra = 1 3 0
  (1) pair lj/cut, perpetual
      attributes: half, newton on
      pair build: half/bin/atomonly/newton
      stencil: half/bin/3d
      bin: standard
  (2) compute orientorder/atom, occasional
      attributes: full, newton on
      pair build: full/bin/atomonly
      stencil: full/bin/3d
      bin: standard
  (3) compute coord/atom, occasional
      attributes: full, newton on
      pair build: full/bin/atomonly
      stencil: full/bin/3d
      bin: standard
  (4) compute cluster/atom, occasional
      attributes: full, newton on
      pair build: full/bin/atomonly
      stencil: full/bin/3d
      bin: standard
Per MPI rank memory allocation (min/avg/max) = 9.729 | 9.733 | 9.737 Mbytes
Step Temp PotEng c_msd[4] v_twopoint v_fit v_max_n 
   12000    1.3008755   -5.8937019 8.4408117e-31 5.8616745e-33 8.3333333e+20            4 
   13000    1.2440309   -5.8645495   0.56504451 0.0036220801  0.046393511            2 
   14000    1.2699081   -5.8614251    1.1317423 0.0067365612  0.046032849            2 
   15000    1.2383123   -5.8718364    1.7223469 0.0095685935  0.047392541            2 
   16000    1.2584639   -5.8703228    2.2658985  0.011801554  0.047486023            6 
   17000    1.2756099    -5.858824    2.8661527  0.014049768  0.047448023            2 
   18000    1.2453161   -5.8487355     3.441293  0.015931911  0.047482118            4 
   19000     1.255914   -5.8931813    3.9726706  0.017423994  0.047390542            3 
   20000    1.2632888   -5.8876723    4.4743518  0.018643132  0.047060298            4 
   21000    1.2325889   -5.8998083    4.9816142   0.01976831  0.046611383            2 
   22000    1.2451294   -5.8890128    5.5297938  0.020946188  0.046240295            2 
   23000    1.2494134   -5.8535949    6.0145032  0.021791678  0.045728399            3 
   24000    1.2465815   -5.8680552    6.6319405  0.023027571  0.045582765            2 
   25000    1.2637195   -5.8858316    7.2312327  0.024104109  0.045718383            5 
   26000    1.2872774   -5.8799227    7.7483628  0.024834496  0.045784936            4 
   27000    1.2412339   -5.8774536    8.3407824  0.025743155  0.045821465            2 
   28000     1.250871   -5.8675017     8.885552  0.026445095  0.045875202            3 
   29000    1.2598916   -5.8657519    9.4381943  0.027121248   0.04590099            3 
   30000    1.2629588   -5.8599312    10.020188  0.027833855  0.045944981            1 
   31000    1.2429453   -5.9023784     10.50623  0.028242553  0.045991761            4 
   32000    1.2249206   -5.9080766    11.003772  0.028655656  0.045943476            2 
   33000     1.267159   -5.8772727    11.450492  0.028915383  0.045753204            8 
   34000    1.2535145   -5.8894967    11.926883  0.029232555  0.045566367            3 
   35000    1.2643626   -5.8966943    12.384213   0.02948622  0.045380681            2 
   36000    1.2353968   -5.8763488    12.975444  0.030035749  0.045225089            3 
   37000    1.2523515   -5.8896295    13.522663  0.030456448  0.045085154            3 
   38000    1.2762203   -5.8650227    14.185259  0.031108023   0.04500595            3 
   39000    1.2337937   -5.9038886    14.764124  0.031547273  0.045024285            2 
   40000    1.2417626   -5.8933257    15.367038  0.032014663  0.045073073            3 
   41000     1.244871   -5.9026393    15.823943  0.032162485  0.045098056            3 
   42000    1.2656178   -5.8844704    16.374314  0.032488718  0.045112199            3 
   43000     1.269227   -5.8711159    16.912727  0.032776603   0.04513429            4 
   44000    1.2411467   -5.8922136    17.528169   0.03319729   0.04515785            3 
   45000    1.2540855   -5.8258216    18.059415  0.033443361  0.045180768            2 
   46000    1.2209199   -5.8866414    18.573959  0.033648476  0.045192708            3 
   47000    1.2492092   -5.9107281    19.179393  0.034006015  0.045197525            4 
   48000    1.2598555   -5.8888349    19.631025   0.03408164   0.04520066            5 
   49000    1.2706188   -5.8814404    20.109932  0.034200565  0.045192983            5 
   50000    1.2169379   -5.9183937    20.593182  0.034321969  0.045165081            4 
   51000    1.2464695   -5.8756064    21.104859  0.034485064  0.045125252            3 
   52000      1.24414   -5.9015583    21.727892  0.034820339   0.04510674            4 
   53000     1.252627   -5.8878681     22.22584  0.034946289  0.045084388            3 
   54000    1.2147377   -5.8850734    22.684271  0.035006591  0.045041059            4 
   55000     1.242179   -5.8952641    23.235016   0.03520457  0.045001947            2 
   56000    1.2382489   -5.9122799    23.813859  0.035437289  0.044972176            3 
   57000    1.2414261   -5.8829363    24.456749   0.03575548  0.044963348            4 
   58000    1.2317521   -5.8900603    25.051499  0.035993533   0.04499046            4 
   59000     1.226158   -5.8784873     25.50928  0.036030056  0.045005373            4 
   60000    1.2344756     -5.86397    26.315449  0.036549234  0.045028917            5 
   61000     1.241022   -5.8961116    26.860029  0.036694028  0.045073724            2 
   62000    1.2306436   -5.8908803    27.346364  0.036755865    0.0451199            1 
   63000    1.2536578   -5.8964541    27.972718  0.037000949  0.045164722            3 
   64000    1.2562845   -5.8874894    28.439582  0.037030705  0.045204157            5 
   65000    1.2454908   -5.8887535    29.048699  0.037241922  0.045252012            2 
   66000    1.2412066    -5.931502    29.464254  0.037202341  0.045283308            4 
   67000    1.2590565   -5.8981989    29.789357  0.037051438   0.04526739            3 
   68000     1.273769   -5.8823534    30.162614  0.036963988  0.045230533            2 
   69000    1.2590781   -5.8552187    30.651346  0.037018534  0.045169581            4 
   70000    1.2500484   -5.9469858    31.041819  0.036954546  0.045114465            3 
   71000    1.2393549   -5.8892246    31.661926  0.037161885  0.045051542            6 
   72000    1.2468461   -5.8936235    32.206053  0.037275524  0.045003348            2 
   73000    1.2515507   -5.8930572    32.921598  0.037581732   0.04497121            5 
   74000    1.2608338   -5.8736535    33.372865  0.037582055  0.044945361            2 
   75000    1.2093888   -5.8991203    33.985127  0.037761252  0.044920332            4 
   76000    1.2501001    -5.880381    34.627458  0.037968704  0.044906636            2 
   77000     1.238917   -5.8777754    35.141516  0.038031943  0.044900665            7 
   78000    1.2496568   -5.9335907    35.715594  0.038157686  0.044899249            2 
   79000    1.2349352   -5.8923852    36.436768  0.038435409  0.044909469            3 
   80000    1.2243201   -5.9257374    37.088532  0.038633887  0.044938899            2 
   81000    1.2405628   -5.8816792     37.48315  0.038562911  0.044962818            2 
   82000    1.2350357   -5.9016759    38.189742  0.038810713  0.044991896            8 
   83000    1.2381439   -5.9047448    38.650438  0.038805661  0.045009686            2 
   84000    1.2379341   -5.8987727    39.036349  0.038726536  0.045016794            7 
   85000    1.2072891   -5.8858785    39.384897  0.038612644  0.045019211            1 
   86000    1.2311618   -5.8863607    39.998335  0.038758076  0.045011203            2 
   87000     1.234272   -5.8749915    40.504991  0.038797884  0.045003375            3 
   88000    1.2455762   -5.9146544    41.266598  0.039078218  0.045010246            3 
   89000    1.2421249   -5.8959847    41.995865  0.039321971  0.045022184            2 
   90000    1.2249561   -5.9144489    42.386934  0.039247161  0.045030784            3 
   91000    1.2288504   -5.9039486    43.073027  0.039444163  0.045040915            7 
   92000    1.2365708   -5.8645848     43.47657  0.039380951  0.045055948            4 
   93000    1.2541754   -5.9007376    44.271865   0.03967013  0.045084103            4 
   94000    1.2186029   -5.8975424    44.770046  0.039689757  0.045112284            3 
   95000    1.2178251   -5.8817691    45.135835  0.039592837  0.045128479            6 
   96000    1.2163435   -5.8893175    45.597748  0.039581378  0.045141043            2 
   97000    1.2281179   -5.8883586    46.154851  0.039651934  0.045145439            7 
   98000     1.236011    -5.889603    46.841741  0.039831412  0.045152887            3 
   99000     1.259319   -5.8335236    47.481383  0.039967494  0.045167064            2 
  100000    1.2346355   -5.8571221    47.772589   0.03981049  0.045175149            2 
  101000     1.260985   -5.9053044    48.068532  0.039660505  0.045174536            2 
  102000    1.2372221   -5.8890728    48.686557  0.039776599  0.045161025            5 
  103000    1.2194861   -5.8839627    49.029581  0.039667945  0.045147096            3 
  104000    1.2305511   -5.8906857    49.681718  0.039809069  0.045130604            2 
  105000    1.2644993   -5.9084608    50.260245  0.039889083  0.045116932            7 
  106000    1.2370856    -5.869043    50.901177  0.040016648   0.04510691            2 
  107000    1.2389455   -5.8757935    51.116163  0.039810096  0.045091866            2 
  108000    1.2337648   -5.8932257    51.790322  0.039961668  0.045073238            3 
  109000    1.2264307   -5.9079447    52.266883   0.03995939  0.045055463            2 
  110000    1.2419733   -5.8960551    53.051214  0.040190314  0.045038235            4 
  111000    1.2525194   -5.9143326    53.203673  0.039942697  0.045022121            3 
  112000    1.2157161   -5.8669289    53.712545  0.039964691  0.045000189            2 
  113000    1.2353151   -5.8844708     54.25553  0.040011452   0.04498314            5 
  114000    1.2247353   -5.8808282    54.909413  0.040138459  0.044964298            3 
  115000     1.237181   -5.8790648    55.471041  0.040196406  0.044945736            2 
  116000    1.2384236   -5.8691344    55.848925  0.040121354  0.044931061            3 
  117000    1.2536421   -5.9012828    56.409319  0.040177577  0.044917869            5 
  118000    1.2429719    -5.913635    57.079584   0.04031044  0.044902837            1 
  119000    1.2398816   -5.8784566    57.726603  0.040424792  0.044896342            2 
  120000    1.2483153   -5.9402479    58.149025  0.040381267  0.044887872            3 
  121000    1.2503675   -5.9358454    58.639251  0.040385159  0.044875679            3 
  122000     1.254253    -5.911015     59.28077  0.040492329  0.044863486            4 
  123000     1.210834    -5.894537    59.605823  0.040383349  0.044847168            4 
  124000    1.2199328    -5.917996    60.109114   0.04039591   0.04483185            3 
  125000    1.2645301   -5.8857638    60.617661  0.040411774  0.044816858            3 
  126000    1.2060648   -5.8717276    61.048307  0.040375864  0.044803693            2 
  127000    1.2293246   -5.9178977    61.528307  0.040372905  0.044787923            8 
  128000    1.2586401   -5.9054623    62.256054  0.040531285  0.044767975            3 
  129000    1.2379325   -5.9126423    62.914152  0.040642217  0.044758448            2 
  130000    1.2469813   -5.8938363    63.534604   0.04072731  0.044754747            4 
  131000    1.2320313   -5.8764355    64.167706  0.040819151  0.044752709            3 
  132000    1.2341655   -5.8791456     64.61855  0.040794539  0.044750447            4 
  133000    1.2292391   -5.9239903    65.302881  0.040916592  0.044752073            2 
  134000    1.2227381   -5.8996175     65.78143   0.04090885  0.044752879            4 
  135000    1.2462059   -5.9060377    66.368596  0.040968269  0.044753344            5 
  136000    1.2243325   -5.9044173    67.000178  0.041054031  0.044756703            5 
  137000    1.2254392   -5.9348585    67.025058    0.0407695  0.044756908            5 
  138000    1.2310142   -5.9188244    67.712171  0.040888992  0.044751689            2 
  139000     1.238048   -5.8774582    68.413036   0.04101501  0.044744256            3 
  140000    1.2197424   -5.8887539     69.00415  0.041073898  0.044738675            2 
  141000    1.2397462   -5.8957587    69.592358  0.041130235  0.044737164            8 
  142000    1.2309691   -5.8987502    69.975408   0.04106538  0.044738603            6 
  143000    1.2307589   -5.9477701    70.568409  0.041123782  0.044740714            2 
  144000    1.2464351   -5.9150177    71.294944  0.041258648   0.04474834            4 
  145000    1.2126187   -5.8987031    72.015485   0.04138821  0.044756707            5 
  146000    1.2485068   -5.9476796    72.424026  0.041337914  0.044760987            2 
  147000    1.2291453   -5.9371486    72.870296  0.041309691  0.044760871            5 
  148000    1.2004378   -5.9135246    73.476552  0.041371932  0.044759361            3 
  149000    1.2526753   -5.9302627    73.819897  0.041286296  0.044757345            3 
  150000    1.2040884   -5.9321159    74.266637  0.041259242  0.044753399            3 
  151000    1.2160764   -5.9208634    74.734214  0.041244047   0.04475029            5 
  152000    1.2105988   -5.9234926    75.302553  0.041284294  0.044747919            2 
  153000    1.2472806   -5.9497742     75.83818  0.041306198  0.044746898            2 
  154000     1.234904   -5.8887451    76.429748  0.041358089  0.044743882            8 
  155000    1.2184229    -5.859398    77.228021  0.041520441  0.044739815            4 
  156000    1.2186537    -5.919589    77.574094  0.041439152  0.044738894            3 
  157000    1.2418978   -5.9019942    78.286968  0.041553592   0.04473883            5 
  158000    1.2196433    -5.916122    78.870247  0.041598231  0.044739785            5 
  159000     1.200355   -5.9232152     79.42878  0.041629339  0.044738885            3 
  160000    1.2405925   -5.9083088    79.784932  0.041554652  0.044739968            3 
  161000    1.2228082   -5.9430973    80.551015  0.041693072  0.044741878            3 
  162000    1.2148036   -5.8922201    81.028944  0.041681556  0.044745004            4 
  163000    1.2463928   -5.9151866    81.704398  0.041771165  0.044749592            2 
  164000    1.2223411   -5.9133644    82.108567  0.041721833  0.044749687            3 
  165000    1.2460001   -5.9467374    82.425559   0.04162907  0.044749102            6 
  166000    1.2008557   -5.9039104    83.096135  0.041714927  0.044747715            4 
  167000    1.2213348   -5.9340436    83.206643  0.041520281  0.044748589            3 
  168000    1.2537327   -5.9051501    84.378596  0.041854462  0.044749686            4 
  169000    1.2229726   -5.8910281    85.000489  0.041913456  0.044754288            4 
  170000    1.2281632   -5.9368075    85.611705  0.041966522  0.044761661            8 
  171000    1.2398119   -5.9044727      85.9927  0.041906774  0.044766368            9 
  172000    1.1925941   -5.8762191     86.48264  0.041900504  0.044773617            5 
  173000    1.2373759   -5.9120389    87.574562  0.042184278  0.044782098            3 
  174000    1.2118125   -5.8878558    88.185572  0.042234469  0.044794378            4 
  175000    1.2360204    -5.902933    88.351336  0.042072064  0.044807488            6 
  176000     1.230413   -5.9200848    89.025956  0.042152441  0.044820405           11 
  177000    1.2044958   -5.9234892    89.401363  0.042091037  0.044828097            5 
  178000    1.2421917   -5.9493681    89.858905  0.042068775  0.044834833            2 
  179000     1.203882   -5.9094433    90.438046  0.042103373  0.044841413            2 
  180000    1.2294264   -5.9471939    91.098884  0.042175409  0.044852429            6 
  181000    1.2135858   -5.8862513    91.728314  0.042232189  0.044862323            3 
  182000    1.2090475   -5.9183444    92.160442  0.042198004  0.044868908           16 
  183000    1.2365433   -5.9038688    92.703601  0.042214755  0.044875591            5 
  184000    1.2157847   -5.9723517     93.47423  0.042334343  0.044883069            3 
  185000    1.2031851   -5.9179197    93.724061  0.042218046  0.044890544            2 
  186000    1.2300645   -5.9162138     93.89852  0.042069229  0.044893384            3 
  187000    1.2177641   -5.9349089    94.385087   0.04206109  0.044893723            3 
  188000    1.2080825   -5.9391335    94.560932  0.041915307  0.044893147            5 
  189000    1.2450249   -5.9036656    95.372185  0.042051228  0.044888978            3 
  190000    1.2090668   -5.9301206    96.009933   0.04210962  0.044888089            3 
  191000    1.2224212    -5.922818    96.559089  0.042128747  0.044887512            2 
  192000    1.2032518   -5.8767605    97.283505  0.042223743  0.044888331            4 
  193000    1.2191777   -5.9217267    97.691672  0.042181206  0.044889914            6 
  194000    1.2165909   -5.9154653    98.159176  0.042164594    0.0448889            4 
  195000    1.2377918   -5.8953154    98.355036  0.042032067  0.044885892            4 
  196000     1.224687   -5.9330015    98.704556  0.041966223  0.044882292            3 
  197000    1.2316574   -5.9332646    99.235117   0.04197763  0.044871682            2 
  198000    1.2071179   -5.9590244     99.67212  0.041949545  0.044863905            3 
  199000    1.2201153   -5.9204854    100.14881  0.041938363  0.044853575            4 
  200000    1.2163061    -5.911766    100.94275   0.04205948  0.044846398            3 
  201000    1.2573861   -5.9142653    101.42432  0.042049885  0.044841297            4 
  202000    1.2232785   -5.9374582    102.42468  0.042254406  0.044836863            4 
  203000    1.2413557   -5.9249721    102.75426  0.042181552   0.04483289            2 
  204000    1.1919767   -5.9622993    103.00744  0.042078201  0.044827314            3 
  205000    1.2228158   -5.9236751      103.457  0.042055692  0.044821687            3 
  206000    1.1996778   -5.9317195    104.36107  0.042217262   0.04482011            4 
  207000    1.2150823   -5.9505756    105.00387  0.042272089  0.044817251            2 
  208000    1.2250879   -5.9753261    105.39007  0.042223586  0.044811574            2 
  209000    1.2116627   -5.9119732    106.53671  0.042478751  0.044810697            2 
  210000     1.217223   -5.9379649     107.2069   0.04254242  0.044814048            3 
  211000    1.2137906   -5.9206292    107.73781  0.042550479  0.044820567            4 
  212000    1.1880318   -5.8862536    107.88564  0.042407876  0.044825272            3 
  213000    1.2175078   -5.9122365    108.84964  0.042585932  0.044827391            2 
  214000    1.2135988   -5.8980782    109.06112  0.042469282   0.04482943            2 
  215000    1.1828436   -5.9373549    109.55854  0.042464552  0.044831358            4 
  216000    1.2221373   -5.9125788    110.16155    0.0425006  0.044833903            3 
  217000    1.1930961   -5.9349989    111.20303  0.042704695  0.044836794            3 
  218000    1.2205843   -5.9318542     111.5742  0.042650687  0.044840641            2 
  219000    1.2214929   -5.9209794    111.59496  0.042463834  0.044844488            4 
  220000    1.2080397   -5.8961997    112.38275  0.042569225  0.044845767            8 
  221000    1.2136394   -5.9766693     113.1833   0.04267847  0.044847963            3 
  222000     1.223599   -5.9125957    113.68517  0.042674612  0.044850231            3 
  223000    1.2276803   -5.9335389    114.12673  0.042648255  0.044855613            3 
  224000    1.2117984   -5.9259911    115.09387  0.042817661  0.044861297            3 
  225000    1.2089268   -5.9479535    115.05912  0.042614488  0.044864821            2 
  226000    1.2223485    -5.894209    115.67709  0.042653795  0.044869222            7 
  227000    1.2039505   -5.8866843    116.91568  0.042920586  0.044874445            3 
  228000     1.225143   -5.9437535    117.03849  0.042777225  0.044880118            2 
  229000    1.2012948   -5.9448955    117.27175   0.04267531  0.044884715            3 
  230000    1.2327663   -5.9277488    117.94716  0.042734479  0.044888011            3 
  231000    1.1978684   -5.8979269    118.59117  0.042781806  0.044893606            2 
  232000    1.2324384   -5.9678011    118.99846    0.0427437  0.044895939            5 
  233000     1.225737   -5.9452259    119.28468  0.042662618  0.044898142            5 
  234000    1.1995632   -5.9333801    119.73597  0.042641015  0.044898369            3 
  235000     1.219539   -5.9198285    120.38187  0.042688607  0.044899481            6 
  236000    1.1964738   -5.9075055    120.67668  0.042611822  0.044901841            4 
  237000    1.2199526   -5.9664045    121.31889  0.042657838  0.044902315            3 
  238000    1.2233846   -5.9839935    121.81466  0.042652191  0.044903922            3 
  239000    1.2222054   -5.9102962    122.81305  0.042821843  0.044905478            3 
  240000     1.227359   -5.9170871    123.32348  0.042820652  0.044910229            3 
  241000    1.2028143   -5.9290968    123.71612  0.042778742  0.044913059            2 
  242000    1.2109048   -5.9398654     124.2723  0.042793492  0.044916132            3 
  243000    1.2258977   -5.9372341    124.49368  0.042693307  0.044915195            4 
  244000    1.2094135   -5.9353626      125.089  0.042721655  0.044913756            3 
  245000     1.213271   -5.9651205    124.92819  0.042492581  0.044910195            6 
  246000    1.1995228   -5.9309221    125.24439  0.042426961  0.044904548            5 
  247000    1.2204647   -5.9620896    126.17092  0.042567785  0.044897362            1 
  248000    1.2343948   -5.9161349    125.74607  0.042253382  0.044889653            2 
  249000    1.2038571   -5.9661747    126.62116  0.042376561  0.044878432            3 
  250000    1.2260369   -5.9156848    127.17001  0.042390004  0.044867394            4 
  251000    1.2151144   -5.9087913    127.98098  0.042490366  0.044857746            3 
  252000    1.2049311   -5.9097218    128.69761  0.042558732  0.044848695            2 
  253000    1.1850812   -5.9181391    129.26534  0.042577516  0.044841221            2 
  254000    1.2030456   -5.9515936    129.89507  0.042616491  0.044836336            2 
  255000    1.2178023   -5.9438631    130.13016  0.042526195  0.044830428            5 
  256000    1.2267097   -5.9315774    131.13301  0.042686525  0.044824492            4 
  257000    1.2034617    -5.940754    131.33818  0.042586957  0.044819206            4 
  258000    1.2200662   -5.9367886     131.7571  0.042557201  0.044814335            6 
  259000    1.2410723   -5.9334252    132.29105  0.042564689  0.044808941            3 
  260000    1.2227209   -5.9027658    133.13365  0.042671041  0.044803317            5 
  261000    1.1921589   -5.9571931    133.32298  0.042568001  0.044797202            2 
  262000    1.1969992   -5.9432431    133.30667  0.042400339  0.044787872            4 
  263000     1.188894   -5.9627942    134.35171   0.04257025  0.044780258            8 
  264000    1.2053189    -5.980162     134.5301  0.042465311  0.044772308            5 
  265000     1.209544   -5.9530589    135.64573  0.042655891  0.044765408            3 
  266000    1.2021115   -5.9239249    135.54924    0.0424653  0.044756991            3 
  267000    1.2306975   -5.9555842    135.89799  0.042415104  0.044747629            4 
  268000     1.184356   -5.9452686    136.72694  0.042514595  0.044739066            4 
  269000    1.1945704   -5.9316933    137.30577  0.042535863  0.044730465            4 
  270000     1.208001   -5.9401316    137.52642  0.042446425  0.044721026            4 
  271000    1.2212695    -5.931103    138.43744  0.042569939  0.044713338            2 
  272000    1.2101415   -5.9087773    138.84524  0.042538369  0.044704167            2 
  273000      1.19099   -5.8641856    139.18599  0.042486565  0.044695148            5 
  274000    1.2231618   -5.9317139    139.02406  0.042282257  0.044683863            2 
  275000    1.1823667   -5.9369307     139.7695  0.042354394  0.044670556            3 
  276000    1.1756214   -5.9482268    139.25424  0.042045363   0.04465698            7 
  277000     1.192335   -5.9458062     140.1575  0.042165312  0.044643109            3 
  278000    1.2088915   -5.9249339    140.29388   0.04205452  0.044628108            2 
  279000    1.2053013   -5.9511619    141.04153    0.0421271  0.044612204            4 
  280000    1.2190994   -5.9641745     141.6334  0.042152796  0.044597287            7 
  281000    1.2180305   -5.9705598    142.26931  0.042191372  0.044581389            6 
  282000    1.2212463   -5.9150168    142.02779  0.041970388  0.044562677            3 
  283000    1.1959638   -5.9630306    142.65298  0.042006178  0.044543841            3 
  284000    1.2130932   -5.9287722    143.72121  0.042171718  0.044528283            3 
  285000    1.2040682   -5.9742247    144.03926  0.042116742  0.044512914            2 
  286000    1.1850821   -5.8918236    145.52466  0.042402291  0.044499336            2 
  287000    1.2266028   -5.9445621    145.46488  0.042237189  0.044488974            3 
  288000    1.2011639   -5.9550653    145.95273  0.042231693  0.044476663            2 
  289000    1.2182526    -5.945706    146.40721  0.042216612  0.044463521            3 
  290000    1.2073633   -5.9288362    146.55722  0.042114143  0.044450136            5 
  291000    1.2075381   -5.9609202    147.66973   0.04228801  0.044436816            2 
  292000     1.207429   -5.9329865    147.88884   0.04220572  0.044424297            2 
  293000    1.1918147   -5.9048519    148.46212  0.042224721  0.044410557            3 
  294000    1.2214098   -5.9568801    148.83251  0.042186085  0.044396691            3 
  295000    1.1992246   -5.9635192    148.76525  0.042024082  0.044380368            8 
  296000    1.1881794   -5.9761323     149.0479  0.041961683  0.044362794            1 
  297000    1.1947594   -5.9706741     150.2602  0.042160549  0.044345221            3 
  298000    1.1867375   -5.9417966    150.37978  0.042052511  0.044330568            4 
  299000     1.219751   -5.9527587    151.43297  0.042205398  0.044316154            3 
  300000    1.1923131   -5.9183964     151.6148  0.042115223   0.04430232            9 
  301000    1.2017933    -5.968233    151.78801  0.042023258  0.044288723            4 
  302000    1.1947986   -5.9353288    152.76629  0.042154055  0.044275102            2 
  303000    1.1826406   -5.9449233    153.15364  0.042121463  0.044261253            2 
  304000     1.214415   -5.9362688    153.92018  0.042193031  0.044249486            4 
  305000    1.2154436   -5.9559602    154.36874   0.04217725  0.044236975            7 
  306000    1.2080649   -5.9973654    154.72344  0.042136013  0.044224769            2 
  307000    1.2112369   -5.9803256    155.32282   0.04216146  0.044212935            5 
  308000    1.2026422   -5.9442201     156.4569  0.042331412  0.044202643            4 
  309000    1.1919869   -5.9190964    157.01053  0.042343725   0.04419326            4 
  310000    1.1727489   -5.9415121    157.04135  0.042215415  0.044182609            3 
  311000     1.190415     -5.96466     157.9829  0.042331966   0.04417286            3 
  312000    1.1919561   -5.9488782    157.88634  0.042170496  0.044161778            1 
  313000     1.222863   -5.9805477    157.91528  0.042043473  0.044149991            3 
  314000    1.2098202   -5.9512455    158.53039   0.04207282  0.044136493            4 
  315000    1.2140051    -5.981751    159.13645   0.04209959  0.044123715            3 
  316000    1.2037213   -5.9824997    159.60688  0.042090423   0.04411024            1 
  317000    1.2009163     -5.97899    159.81366  0.042012003  0.044097084            5 
  318000    1.2048942    -5.964752    160.35526   0.04202182   0.04408238            4 
  319000    1.2204059   -5.9811626    160.39656  0.041900878  0.044067473            4 
  320000    1.1965148   -5.9374382     160.9054  0.041902447  0.044052807            9 
  321000    1.1982439   -5.9793328    161.03183  0.041804732  0.044039211            3 
  322000    1.1839834   -5.9233522    162.54431  0.042066334  0.044026156            2 
  323000    1.2170035   -5.9756662    162.88196  0.042023208  0.044012176            3 
  324000    1.1889768    -5.940135    163.68962   0.04210124  0.043998131            2 
  325000    1.2086083   -5.9783364    163.75283  0.041987906  0.043984717            6 
  326000    1.2192756    -5.973133    164.73251  0.042109537  0.043971239            4 
  327000     1.209627   -5.9599612    164.95744  0.042038083   0.04395855            3 
  328000    1.1853226   -5.9414452    166.25104  0.042238576  0.043947658            4 
  329000    1.2115378   -5.9165009    167.03015  0.042307536  0.043937959            2 
  330000    1.2000408   -5.9576673    167.25389  0.042235832  0.043929164            4 
  331000     1.170247   -5.9740986    167.34081  0.042130113   0.04392024            3 
  332000    1.2151981   -5.9962158    167.69225  0.042091428  0.043911659            4 
  333000    1.1628887   -5.9683007    168.14343  0.042077935  0.043902498            5 
  334000    1.1889915   -5.9741023    168.76426  0.042106852  0.043893433            3 
  335000    1.1837267   -6.0136755    169.88884  0.042260906  0.043885304            3 
  336000    1.2090277   -5.9568877    170.38817   0.04225897  0.043877045            9 
  337000     1.175125   -5.9663198    170.44269  0.042147055  0.043868351            3 
  338000    1.1811431   -5.9532752    171.11102  0.042187134  0.043859283            3 
  339000    1.1904234    -5.959489    171.10579  0.042061404   0.04384973            4 
  340000    1.2183432   -5.9561962    171.36518  0.042001269  0.043838694            3 
  341000    1.2129766   -5.9739147    171.16424  0.041828994  0.043826757            2 
  342000    1.1779798   -5.9904706    172.42043  0.042012776  0.043814268            4 
  343000     1.211411   -5.9221318    172.36159  0.041875993  0.043802098            2 
  344000    1.1960457    -5.959105    173.52901  0.042037067   0.04379029            7 
  345000    1.2031182   -5.9654845    173.60664   0.04193397  0.043779016            5 
  346000    1.2072493   -5.9656989    174.21968  0.041960423  0.043768119            6 
  347000    1.2094922   -5.9917744    174.43616  0.041891489  0.043755557            3 
  348000    1.1932994   -5.9951505    175.24974  0.041965933  0.043743462            1 
  349000    1.1828868   -5.9568758    175.56175  0.041920189  0.043731742            3 
  350000    1.2164898    -5.955253    176.83541   0.04210367  0.043720361            4 
  351000    1.2059108   -6.0021649    176.55765  0.041917772  0.043709659            2 
  352000    1.1760198   -5.9586999     177.3674  0.041990388  0.043697415            3 
  353000    1.1747893   -5.9864287    177.93263   0.04200487  0.043685411            4 
  354000      1.21174   -5.9752847    177.39428  0.041759481  0.043672896            5 
  355000    1.2139827   -5.9646915    179.34661  0.042100143  0.043661591            2 
  356000    1.1933531   -5.9564123     179.3018  0.041971396  0.043650735            3 
  357000    1.1818123   -5.9637481    179.39597  0.041875809  0.043639301            2 
  358000    1.1678821   -5.9325151    180.37071  0.041985734  0.043627453            3 
  359000     1.181339   -5.9746235    179.85257  0.041748508   0.04361473            4 
  360000    1.1921028   -6.0035953    180.65277   0.04181777  0.043601862            3 
  361000    1.2102232    -5.952928    180.57898  0.041684898  0.043588991            7 
  362000    1.1708214   -5.9596936     181.4465  0.041769452  0.043575981            4 
  363000    1.1864431   -6.0168587     182.4423  0.041882988  0.043562769            4 
  364000    1.2140945   -5.9826944    182.71583  0.041830548   0.04355118            3 
  365000    1.1660181   -5.9600317    182.95054  0.041769529  0.043539016            4 
  366000    1.1783893   -5.9840837    183.16032   0.04170317  0.043526161            4 
  367000    1.2213733   -5.9575331    184.07658  0.041797588    0.0435135            3 
  368000    1.1789524   -5.9715024    184.18649  0.041708898  0.043499187            2 
  369000    1.1862115   -5.9900737    184.39055  0.041641949  0.043485728            5 
  370000    1.2189579   -5.9887151     185.1877  0.041708941  0.043472205            6 
  371000    1.2064316   -5.9376843    186.06408  0.041793369  0.043459526            4 
  372000    1.2022238   -5.9798489    186.57657  0.041795827  0.043445948            4 
  373000    1.1671972   -5.9987663    186.41591  0.041647881  0.043432733            3 
  374000    1.1887893   -5.9830149    186.73064  0.041606649  0.043418589            3 
  375000    1.1794514   -5.9504375    186.93959  0.041542131  0.043403822            2 
  376000     1.197912   -5.9934007    187.10227  0.041467702  0.043388835            3 
  377000    1.2095684   -5.9882398    187.85826  0.041524813  0.043374161            3 
  378000     1.191354   -5.9633555    188.23452   0.04149791  0.043359548            4 
  379000    1.2022123   -5.9376431    189.39389  0.041643335  0.043345069            3 
  380000    1.1936243   -5.9333929     189.4243  0.041540417  0.043330738            6 
  381000    1.1769071   -5.9754114    189.67824  0.041486929  0.043315923            3 
  382000    1.1901741   -5.9554474    190.49376  0.041556231  0.043301755            5 
  383000    1.1903397   -5.9602509    191.06156   0.04157127  0.043286976            2 
  384000    1.1844511   -5.9702644    191.62246  0.041584735  0.043271987            3 
  385000    1.2092491    -5.948018    191.12716  0.041369516  0.043256275           13 
  386000     1.206305   -5.9642451    191.33857  0.041307981  0.043239147            4 
  387000    1.1754049   -5.9798251    192.28569  0.041405188  0.043222144            4 
  388000    1.1712799    -5.974614    192.24157  0.041288996  0.043205395            4 
  389000    1.2056721   -5.9627233    193.41329  0.041433867  0.043187405            3 
  390000    1.1814482   -5.9912039    193.09346  0.041259286  0.043169459            7 
  391000     1.186522   -5.9456498    193.87741  0.041320846  0.043151311            3 
  392000    1.2042619   -5.9455215    193.72997  0.041184093  0.043132739            4 
  393000     1.194944   -5.9324232    195.29871  0.041411939  0.043114279            2 
  394000    1.2101597   -5.9827704      194.097  0.041052665  0.043096916            3 
  395000    1.2015377   -5.9691686    195.55508  0.041256347  0.043079855            3 
  396000      1.17903   -5.9674444    195.60332  0.041162315  0.043063322            4 
  397000    1.1895492    -5.959703    196.72637  0.041294369  0.043046844            1 
  398000    1.1833754   -5.9532266     197.6072  0.041375041   0.04303136            3 
  399000    1.1854464   -5.9922273    197.17092  0.041180225  0.043016171            9 
  400000    1.1936604   -5.9946658    197.98572  0.041247024  0.043001287            5 
  401000    1.1773059   -5.9698378    199.09873  0.041375464  0.042986181            3 
  402000    1.1827754   -6.0139135    199.11456   0.04127582  0.042971641            3 
  403000    1.1838506   -5.9790968    199.70535  0.041295564  0.042957455            2 
  404000    1.2122566   -5.9790489    199.93062  0.041239814  0.042943133            2 
  405000    1.1785524   -6.0150428    200.21669  0.041196851  0.042928492            3 
  406000    1.1726781   -5.9573141    201.22351  0.041302035  0.042914108            5 
  407000    1.1874242   -5.9725225    202.10311  0.041380654  0.042900124            5 
  408000    1.1845803    -5.947123    202.17307  0.041293519  0.042887393            6 
  409000    1.1783702   -5.9574878     202.9799  0.041356949  0.042874581            4 
  410000    1.1979034   -5.9887513     203.0782  0.041276057  0.042861074            2 
  411000    1.1792494   -5.9674151    202.77309  0.041113766  0.042846506            2 
  412000    1.1767141   -5.9925719    203.73343  0.041208218  0.042831501            3 
  413000    1.1820321   -5.9556804    204.20211  0.041203009    0.0428165            2 
  414000    1.1845896   -5.9527614    204.69601    0.0412029  0.042802322            4 
  415000    1.1877309   -5.9389065    205.74544  0.041314344  0.042787369            4 
  416000    1.1894871     -5.97861    205.04434  0.041074587  0.042772802            3 
  417000     1.183936   -5.9663081    206.73873  0.041314694  0.042758119           11 
  418000     1.187954    -6.008249    205.96596  0.041061795  0.042743596            5 
  419000     1.203305   -5.9696153    206.47773  0.041065578  0.042728993            5 
  420000    1.1780834   -5.9841007    207.70493  0.041211296  0.042715306            2 
  421000    1.1969964   -5.9471613    207.92148  0.041156271  0.042702267            3 
  422000    1.1705941    -5.984135    209.07165  0.041285872  0.042689632            4 
  423000    1.1859277   -5.9481298     209.4741  0.041267553  0.042678405            2 
  424000    1.1985553   -5.9854601    209.68392  0.041211463  0.042666217            1 
  425000    1.2066597   -6.0021211    209.79601  0.041136473  0.042652976            2 
  426000    1.1899741   -5.9841039    210.36682   0.04115157  0.042639828           11 
  427000    1.2063623   -5.9813097    211.50653  0.041277621  0.042625663            8 
  428000     1.167318   -5.9911621    210.60631  0.041005902  0.042611803            4 
  429000    1.1834619   -5.9991583    211.39721  0.041063949  0.042597258            8 
  430000    1.2183309   -5.9794846    211.47238   0.04098302   0.04258266            9 
  431000    1.1881531   -5.9824253    212.67211  0.041119897  0.042567945            5 
  432000    1.1875255   -6.0159444     213.4232  0.041169599  0.042554274            4 
  433000     1.163926   -5.9732567    213.97537  0.041180788  0.042541423            3 
  434000     1.178903    -5.988438    214.52941  0.041192283  0.042529213           14 
  435000    1.1671675   -6.0261103    214.60137  0.041111374  0.042517033            8 
  436000    1.1632549    -5.997194     214.9387  0.041081556  0.042505044            6 
  437000    1.2078755   -6.0044064    214.41819  0.040888289  0.042492248            3 
  438000    1.1954794   -5.9476682    216.06587  0.041108423  0.042479393            4 
  439000    1.1978807   -5.9652018    216.38088  0.041074578  0.042466573            3 
  440000    1.1973168   -5.9689486    216.85503  0.041071028  0.042453418            6 
  441000    1.1850225   -5.9686976    216.78173  0.040964046  0.042440563            4 
  442000    1.1924405   -5.9998702    216.54883  0.040827456  0.042426765            7 
  443000    1.1924171   -5.9834215    218.37185  0.041078227  0.042413125            5 
  444000    1.1920773   -5.9798831    218.64511  0.041036996  0.042400042            2 
  445000    1.1840261   -6.0189214     219.0988  0.041029738  0.042386495            6 
  446000    1.2004581   -5.9749869    219.45996  0.041005223  0.042373174            2 
  447000    1.1853919   -5.9731786    219.50771  0.040922392  0.042359918            2 
  448000    1.1778755   -5.9943201    220.13191  0.040947155  0.042347113            3 
  449000    1.1680868   -5.9735411    220.45834  0.040916544  0.042334367            3 
  450000     1.199856   -5.9835182     221.5624  0.041030074  0.042321565            3 
  451000    1.1988093    -5.966392    222.26586  0.041069079  0.042309334            6 
  452000    1.2156521   -5.9386555     221.9368  0.040917552  0.042297354            4 
  453000     1.161665   -5.9813137    223.42176  0.041100398  0.042285666            3 
  454000    1.1792437   -5.9825591    223.78742  0.041076987  0.042274977            2 
  455000    1.1916423   -6.0220088    224.23827  0.041069281  0.042264756            5 
  456000      1.19131   -5.9934025    224.87062  0.041094777  0.042254821            2 
  457000    1.2025749   -6.0034836    224.95733  0.041020665  0.042244973            2 
  458000    1.1953894   -6.0266629    225.80151  0.041084699  0.042234383            4 
  459000    1.1717976   -5.9896489    226.25846  0.041078151  0.042224331            3 
  460000    1.1664147   -6.0040353    226.19086  0.040976605  0.042213383            3 
  461000    1.1850632   -5.9748095    227.40103  0.041106478   0.04220289            5 
  462000    1.1766332   -5.9756064    227.73425  0.041077607  0.042192149            2 
  463000    1.1769027   -5.9993321    227.79692  0.041000165  0.042181091            3 
  464000    1.1760172   -5.9790192    228.40183  0.041020443  0.042169061            3 
  465000     1.162182   -5.9991148    228.86413  0.041015077   0.04215792            2 
  466000    1.1731411   -5.9967089    228.70325  0.040898291  0.042146243            4 
  467000    1.1884909    -5.984119    230.02712  0.041046952  0.042134531            6 
  468000    1.1633023   -6.0207334    229.80077   0.04091894  0.042122844            4 
  469000    1.2027858   -5.9659752    230.66414  0.040985099  0.042111445            2 
  470000    1.2119248   -6.0027235    230.23868  0.040822461  0.042099343            4 
  471000    1.1570404   -5.9870405     231.6157  0.040979424  0.042087706            4 
  472000    1.1873188   -5.9879673    231.12843  0.040806572  0.042076141            3 
  473000    1.1914369   -5.9923417    232.42648  0.040948991  0.042064798            5 
  474000    1.1757349   -5.9581843    232.55495  0.040885188  0.042053295            5 
  475000    1.1825652   -6.0094773    232.41983  0.040775409  0.042041815            4 
  476000    1.1434729   -6.0053668    232.37658  0.040682174  0.042029533            5 
  477000    1.1537157   -6.0127268     233.0152  0.040708456  0.042017276            2 
  478000    1.1694771   -5.9997233    234.49831  0.040881854  0.042005408            2 
  479000    1.1718064   -5.9897546    234.51555  0.040799505  0.041993696            4 
  480000    1.1633932   -5.9369443    235.17391  0.040828804  0.041982449            4 
  481000    1.1861711   -6.0260688    235.47328  0.040795787   0.04197135            7 
  482000    1.1937462   -5.9605415    235.83148  0.040773077  0.041960532            3 
  483000    1.1776343   -5.9889923    236.28916  0.040767626  0.041949382            4 
  484000    1.1850741   -5.9466155    237.21517  0.040842832  0.041938108            2 
  485000    1.1955386   -5.9908605    237.75521  0.040851411  0.041926534            6 
  486000    1.1808581   -6.0091642    236.67351  0.040581877   0.04191459            6 
  487000    1.1610156   -6.0070046    237.49264  0.040638714  0.041902332            4 
  488000    1.1568124   -5.9940124    237.18426  0.040502777  0.041889529            4 
  489000    1.1843067   -6.0030032    238.16309  0.040586756  0.041876763            6 
  490000    1.1518597   -5.9985056    238.26793  0.040521757  0.041863199            2 
  491000    1.1677713   -5.9922704    238.68624  0.040510224  0.041849031            5 
  492000    1.1840375   -5.9597224    239.15189  0.040506756  0.041835895            3 
  493000    1.1852272   -5.9497893    239.73024  0.040522353   0.04182307            2 
  494000    1.1823289   -6.0097661    241.07339  0.040666902  0.041810469            2 
  495000    1.1514933   -6.0157783    240.60588  0.040506041  0.041798113            2 
  496000    1.1778278   -6.0469448    242.10511  0.040676262  0.041785893            2 
  497000    1.1717542   -6.0409772    241.74972  0.040534828  0.041773791            7 
  498000    1.1736971   -6.0181208    242.83431  0.040634925  0.041761779            3 
  499000    1.1787134   -5.9899114    243.29031  0.040629645  0.041749915            4 
  500000    1.1650472   -6.0024986     243.1022  0.040517034  0.041737594            3 
  501000    1.1787025   -5.9747276    244.20911  0.040620277  0.041726032            4 
  502000    1.1829233   -5.9706089    244.59533  0.040603474  0.041714612            2 
  503000    1.2006545   -6.0111262    244.29133  0.040472388  0.041702856            7 
  504000    1.1691257    -5.990394    244.97209  0.040504644  0.041690769            2 
  505000    1.1688599   -6.0068839     246.6411  0.040699851  0.041679017            3 
  506000    1.1593129   -5.9823894    246.96997  0.040673579   0.04166764            5 
  507000    1.1716363   -5.9934273    246.45483  0.040508683  0.041655993            6 
  508000    1.1537238   -6.0318232    247.03375  0.040523909  0.041644626            4 
  509000    1.1424065   -6.0174452    247.19677  0.040470983  0.041633039            3 
  510000    1.1284449   -5.9784965    247.89175  0.040505188  0.041621258            4 
  511000    1.1682858    -6.006404    249.12072  0.040626341  0.041610425            6 
  512000    1.1510765   -6.0001823     249.0971  0.040543147  0.041599959            8 
  513000     1.193402   -6.0255645    249.47106  0.040524863  0.041589049            4 
  514000     1.196511   -6.0252272    250.53127  0.040617911   0.04157826            4 
  515000    1.1431124   -5.9891798    250.26314  0.040495654  0.041567074            6 
  516000    1.1494452    -6.040467    250.34575  0.040430516  0.041555575            4 
  517000    1.1412235   -5.9704643    251.08504  0.040471476  0.041543784            3 
  518000    1.1751201   -6.0032204    250.96987  0.040374818  0.041531703            2 
  519000    1.1867407   -5.9677744    252.55188  0.040551041  0.041519818            2 
  520000    1.1603523   -6.0128775    252.18858  0.040414836  0.041507621            2 
  521000     1.174885    -5.959483    253.19786  0.040498698  0.041495717            6 
  522000    1.1712292   -5.9877968    252.56747  0.040320476  0.041483892            6 
  523000    1.1725342   -6.0082227    252.36242  0.040210711   0.04147131            1 
  524000     1.136591   -5.9970142    253.28598  0.040280849   0.04145779            5 
  525000    1.1697371   -6.0023453    253.84063  0.040292163  0.041445377            7 
  526000    1.1686004   -6.0046812    253.60817  0.040178733  0.041432692            7 
  527000    1.1662486   -6.0143099    254.05346  0.040172906  0.041419692            6 
  528000     1.157157    -6.000951    254.66176  0.040192828  0.041406806            5 
  529000     1.161331   -6.0273206     256.3124  0.040376875  0.041394335            2 
  530000    1.1833653   -5.9751857    256.71686  0.040364286  0.041382485            6 
  531000    1.1706542   -6.0014051    257.04041  0.040339047  0.041370522            2 
  532000    1.1480973   -6.0079145    256.92677  0.040245422  0.041358891            1 
  533000    1.1599394   -6.0036518    257.52504  0.040263452   0.04134735            5 
  534000     1.203935   -5.9911061     258.3918  0.040323314  0.041335027            2 
  535000     1.180249   -6.0402157    257.67326  0.040136022  0.041322901            4 
  536000     1.162318   -5.9770608    258.95196  0.040259944  0.041310753            3 
  537000    1.1632402   -6.0511073    258.30473  0.040084532  0.041298367            4 
  538000    1.1571323   -6.0270746    258.80459  0.040087452  0.041284876            7 
  539000     1.178167   -5.9815856     259.2826  0.040086982  0.041271538            1 
  540000    1.1769693   -5.9966666     259.7834  0.040090031  0.041258543            6 
  541000    1.1651799   -5.9823223    260.62177  0.040145066  0.041245719            4 
  542000    1.1791909   -5.9909406    261.17448  0.040155978  0.041233573            2 
  543000     1.174925    -6.031899    261.06393   0.04006506   0.04122041            2 
  544000    1.1523458   -6.0154498     262.1598  0.040159283  0.041207284            2 
  545000    1.1542313   -6.0159104    262.32412  0.040110722  0.041193964            6 
  546000    1.1833275   -6.0027626    262.79022  0.040108397  0.041181132            3 
  547000    1.1597583   -6.0302687    263.66001  0.040167583  0.041168487            6 
  548000    1.1611421   -5.9810718      263.322  0.040042884    0.0411563            5 
  549000    1.1676147   -6.0210893    264.64184  0.040170285  0.041143729            4 
  550000    1.1491406   -6.0536586    264.63534  0.040096264    0.0411311            3 
  551000    1.1633563   -6.0241657    264.21344  0.039959685  0.041118364            5 
  552000    1.1812249   -5.9979199    265.96401  0.040151572  0.041105922            3 
  553000    1.1678846   -5.9886743     265.3883  0.039992209  0.041094029            5 
  554000    1.1631348   -5.9882489    266.09486  0.040026302  0.041081949            6 
  555000    1.1624238   -6.0346344    266.21402  0.039972075  0.041069867            4 
  556000    1.1690778    -6.023864    267.05499  0.040026228  0.041057541            4 
  557000    1.1507485   -6.0347526    266.48114  0.039868512  0.041044578            3 
  558000    1.1653079   -6.0132803    268.66965  0.040123902   0.04103204            5 
  559000    1.1582964   -6.0393637    267.33162  0.039852656  0.041020431            4 
  560000    1.1597367    -5.984717    270.37059  0.040233719   0.04100919            2 
  561000    1.1393765    -6.029364    269.99383  0.040106036  0.040998532            4 
  562000    1.1415029   -5.9917673     269.7098  0.039992556  0.040987111            3 
  563000    1.1522196   -6.0067021    270.62998  0.040057723  0.040975926            7 
  564000    1.1739966   -6.0116772     270.1047  0.039909087  0.040964304            4 
  565000    1.1657905   -5.9880494    269.09703  0.039689828   0.04095172            6 
  566000     1.177261   -6.0241531    270.33157  0.039801468  0.040938509           11 
  567000    1.1608749   -6.0100697    271.65602  0.039925929   0.04092583            3 
  568000     1.175987   -6.0008757    272.02092  0.039909173  0.040912823            2 
  569000    1.1566649   -5.9951839    271.66734   0.03978725  0.040899994            3 
  570000    1.1390756   -6.0249718    272.69478  0.039867658  0.040887031            3 
  571000    1.1567307   -5.9808831    273.31308  0.039888073  0.040873953            4 
  572000    1.1376686   -5.9833407    273.08696  0.039785397   0.04086154            2 
  573000    1.1626338   -6.0121419    274.28606  0.039890352  0.040849068            5 
  574000    1.1798994    -6.000224    274.51486  0.039854073  0.040835979            2 
  575000    1.1452739   -5.9907171    274.02037  0.039713098  0.040822921            3 
  576000    1.1508374   -5.9930952     273.6913  0.039596543  0.040809804            3 
  577000    1.1675879   -6.0079591    275.24516  0.039752333  0.040796513            2 
  578000    1.1715428   -6.0288335    274.13905  0.039524084  0.040783291            5 
  579000    1.1356516   -6.0421044    275.84887  0.039701909  0.040770043            4 
  580000    1.1419052   -6.0238996    276.45004  0.039719833  0.040757106            4 
  581000    1.1502209   -6.0434608    277.66576  0.039825841  0.040744508            2 
  582000    1.1313306   -6.0089194    278.66089  0.039899898  0.040733158            6 
  583000     1.187642   -6.0159997    278.60913  0.039824062  0.040721743            6 
  584000    1.1282049   -6.0200215    279.02744  0.039815559  0.040710326            5 
  585000    1.1621742   -6.0899851    278.47235  0.039668426  0.040699077            4 
  586000    1.1767831   -6.0228034    279.91622   0.03980606   0.04068775            4 
  587000    1.1439815   -6.0577267    280.90959  0.039879272  0.040676403            5 
  588000    1.1616067   -6.0489109     281.0524   0.03983169  0.040665807            3 
  589000    1.1659864   -6.0751716    281.50276  0.039827782  0.040655604            3 
  590000    1.1727486   -6.0354548    282.19181    0.0398576  0.040645952            4 
  591000    1.1893801   -6.0293232     282.8845  0.039887832  0.040635565            4 
  592000    1.1842606   -6.0341499     284.2206   0.04000853  0.040625584            4 
  593000    1.1807006   -6.0488363    282.81254  0.039743191  0.040615221           10 
  594000    1.1500704   -6.0787738    283.44755  0.039765368  0.040604412            5 
  595000    1.1273117   -6.0322591    283.77267  0.039744072  0.040593793            5 
  596000    1.1790779    -6.055697    284.54198  0.039784952   0.04058339            2 
  597000    1.1955323   -6.0588616    285.26627  0.039819412  0.040573191            3 
  598000    1.1499865   -6.0549915    285.02252  0.039718858  0.040562968            3 
  599000    1.1256495   -6.0619719    285.20406  0.039677805  0.040552529            4 
  600000    1.1377379   -6.0172313    286.40999  0.039779166  0.040542141            5 
  601000    1.1251809   -6.0207025    286.60894  0.039740562  0.040531661            3 
  602000    1.1373121   -6.0556636    286.48445  0.039657315  0.040520947            4 
  603000    1.1469145   -6.0338768    287.06399   0.03967164  0.040510078            5 
  604000    1.1584756   -6.0322277    287.49826  0.039665875  0.040498529            4 
  605000    1.1638105   -6.0422091    287.72201  0.039631131  0.040487451            2 
  606000    1.1697174   -6.0425718    288.65438  0.039693947  0.040476894            4 
  607000    1.1561028   -5.9898033    288.91415  0.039664216  0.040465932            6 
  608000    1.1456409   -6.0521238     288.4923  0.039541159  0.040454695            7 
  609000     1.157555   -6.0285739     289.1074  0.039560399  0.040442973            4 
  610000     1.191435   -6.0513943    288.57431   0.03942272  0.040431076            3 
  611000     1.161111   -6.0183533    289.85587  0.039532988   0.04041928            3 
  612000     1.169784   -6.0545438    290.22498  0.039518651  0.040407372            4 
  613000    1.1573952   -6.0185204    291.07927   0.03957032  0.040396337            3 
  614000      1.14292   -6.0403258    291.38242  0.039547016  0.040384834            3 
  615000    1.1593608   -6.0147534    292.01038  0.039567802  0.040374431            3 
  616000     1.134235   -6.0433663     291.6269  0.039451691  0.040363823            3 
  617000    1.1621469    -6.029922    293.64351  0.039660118  0.040353284            4 
  618000    1.1528046   -5.9846359    293.13543  0.039527431   0.04034274            5 
  619000    1.1548082   -6.0649248    293.32345  0.039488886  0.040331654            6 
  620000    1.1647975   -6.0772734    294.44936  0.039576526  0.040320507            3 
  621000    1.1452264   -6.0362589    294.89339  0.039572382  0.040309719            3 
  622000    1.1543034   -6.0265496    295.80132  0.039630402  0.040299713            5 
  623000    1.1492229     -6.05354    295.42294  0.039516177  0.040290329            3 
  624000    1.1736619   -6.0168892    297.75113  0.039763772  0.040281104            2 
  625000    1.1789562   -6.0419334    296.33134  0.039510845  0.040271352            5 
  626000    1.1576491   -6.0281686     296.0662  0.039412433  0.040260714            4 
  627000    1.1457908   -6.0377282    296.94415  0.039466261  0.040250132            6 
  628000    1.1447253    -6.017898    297.17273  0.039433748  0.040239776            7 
  629000    1.1786488   -6.0585768    298.14786  0.039500247  0.040229469            6 
  630000    1.1664044   -6.0280565    299.01854  0.039552717  0.040219121            3 
  631000    1.1555966   -6.0268734    299.88688  0.039604712  0.040208935            2 
  632000    1.1469865   -6.0265274    299.47251  0.039487409  0.040198465            3 
  633000    1.1495664   -6.0216629    298.95814  0.039357312  0.040188055            9 
  634000     1.134229   -6.0537959    300.69572  0.039523622  0.040177507            6 
  635000    1.1311266   -6.0378475    301.02014  0.039503955  0.040167405            6 
  636000    1.1463156    -6.025355    300.94381  0.039431841  0.040157274            7 
  637000    1.1496285   -6.0388278    301.63943  0.039460941  0.040146902            4 
  638000    1.1452418   -6.0459126    300.87603  0.039299378  0.040136143            8 
  639000    1.1429914   -6.0245097    302.40837  0.039437712  0.040126029            5 
  640000    1.1821867   -6.0239827    303.70863  0.039545395  0.040115835            3 
  641000    1.1679284   -6.0491924    302.84926  0.039371979   0.04010592           13 
  642000    1.1537629   -6.0350792    303.44727  0.039388275  0.040095493            2 
  643000    1.1735726   -6.0528405    304.12669  0.039415072  0.040084762            6 
  644000    1.1049254   -6.0646489    303.63518  0.039290267  0.040074454            4 
  645000    1.1422311   -6.0454483      304.683  0.039364729  0.040063497            3 
  646000    1.1472399   -6.0651111    304.13165  0.039232669  0.040052496            3 
  647000    1.1606441   -6.0020678    305.75317  0.039380883  0.040042047            4 
  648000    1.1630747   -6.0407067    304.42965  0.039149903  0.040031474            5 
  649000    1.1558601   -6.0174882    306.41757  0.039344834  0.040020661            2 
  650000    1.1555375   -6.0411233    305.10371   0.03911586  0.040009494            4 
  651000    1.1336623   -6.0499406    305.96397  0.039165895  0.039998315            5 
  652000    1.1666952   -6.0869615    305.29994  0.039020954  0.039986633            3 
  653000    1.1585105   -5.9858158    307.52949  0.039245723  0.039975653            2 
  654000    1.1636432   -6.0265474    306.90309  0.039105898  0.039965524            4 
  655000    1.1693233   -6.0713013    308.52093  0.039252026  0.039955483            3 
  656000    1.1253506   -6.0682926    308.56851  0.039198236  0.039945247            3 
  657000    1.1361307   -6.0832816    308.99764  0.039193003  0.039934643           13 
  658000    1.1415989   -6.0592256    309.62535  0.039212936  0.039924296            6 
  659000    1.1571785   -6.0556616    310.54346  0.039269532  0.039914551            6 
  660000    1.1641316   -6.0157252    311.74031   0.03936115  0.039904977            5 
  661000     1.145981    -6.047134    311.94407  0.039327291  0.039895557            4 
  662000    1.1379941    -6.046735    311.57661  0.039221627  0.039886382            2 
  663000    1.1764393   -6.0228691    313.32738  0.039382527  0.039876931            5 
  664000    1.1353845   -6.0185652    312.59375  0.039231143  0.039868024            4 
  665000    1.1529333   -6.0351434    313.32082   0.03926326  0.039859402            7 
  666000    1.1487926   -6.0467354    314.15125  0.039308215  0.039850493            2 
  667000    1.1348114   -6.0654062    314.15377  0.039249596  0.039842301            4 
  668000     1.139347   -6.0521869    315.34165  0.039339028    0.0398341            6 
  669000    1.1428912   -6.0456518    316.32492  0.039402705  0.039825877            7 
  670000    1.1394325   -6.0528851    317.02225  0.039430628  0.039817712            7 
  671000    1.1198968   -6.0123229     317.9348  0.039485196  0.039809767            2 
  672000     1.144231   -6.0416572    317.68846  0.039395891  0.039801831            3 
  673000     1.145125    -6.067583    317.69028  0.039337578  0.039793679            4 
  674000    1.1116721   -6.0338484    318.30628  0.039355376  0.039785757            3 
  675000    1.1345951   -6.0398035    319.23143  0.039411288  0.039777292            7 
  676000    1.1465695   -6.0212307    319.46506  0.039381787  0.039768807            3 
  677000    1.1942174   -6.0747476    319.11029  0.039279947  0.039760259           13 
  678000    1.1319525   -6.0666628    319.15654  0.039227697  0.039752003            3 
  679000    1.1135498   -6.0333485    320.55926  0.039342079  0.039743647            4 
  680000    1.1720558   -6.0439193    320.21778  0.039242375  0.039735434            4 
  681000    1.1491925   -6.0794818    321.14583  0.039298315  0.039727293            3 
  682000    1.1303539   -6.0364403    321.41261   0.03927329  0.039719083            9 
  683000    1.1220204   -6.0449693    322.44792  0.039342108  0.039711162            7 
  684000    1.1530857   -6.0299723    322.88524  0.039337871  0.039703087            5 
  685000    1.1356407   -6.0346896    321.95391  0.039167142  0.039695274            3 
  686000    1.1425403   -6.0741365    323.66698  0.039318146  0.039687314            5 
  687000     1.133326   -6.0916697    323.38172  0.039226313  0.039679682            6 
  688000    1.1119677   -6.0808971    324.51199    0.0393062  0.039671834            5 
  689000    1.1749715   -6.0385246    324.25184  0.039217687  0.039664239            2 
  690000    1.1440734   -6.0845846    325.19562  0.039274833  0.039656708            8 
  691000    1.1095025   -6.0628102    325.95075  0.039309063  0.039649517            4 
  692000    1.1589994   -6.0645914     326.7115   0.03934387  0.039641889            4 
  693000    1.1621358   -6.0502814    326.51104  0.039262992  0.039634267            4 
  694000    1.1438019   -6.0167159    328.38049  0.039430895  0.039627014            7 
  695000    1.1497304   -6.0566759     329.0061  0.039449173  0.039619997            3 
  696000    1.1368325   -6.0794206    328.40044  0.039319975  0.039612963            4 
  697000    1.1116582   -6.0922019    328.27766  0.039248884  0.039605541            3 
  698000    1.1619165   -6.0503635    329.16624  0.039298739  0.039598329            4 
  699000    1.1337479   -6.0266688     329.1878  0.039245088  0.039591308            4 
  700000    1.1275179   -6.0799415    329.90123  0.039273956  0.039584826            3 
  701000    1.1475482   -6.0298581    331.23756  0.039376791  0.039577764            2 
  702000    1.1225162   -6.0540395    330.67986  0.039254495  0.039570838            3 
  703000    1.1284844   -6.0467271    331.11177  0.039249854  0.039563639            5 
  704000    1.1295926    -6.015682    333.69603  0.039500004  0.039556527            2 
  705000    1.1244839   -6.0480122    333.05981  0.039368772  0.039549996            4 
  706000    1.1517711   -6.0388547    333.10189  0.039317976  0.039543537            4 
  707000    1.1287231   -6.0701675    333.12869  0.039265523  0.039537365            6 
  708000    1.1484534   -6.0423215    333.62939  0.039268995  0.039531059            7 
  709000    1.1664251    -6.069954    333.87291  0.039242232  0.039524858            3 
  710000    1.1389529   -6.0605756    335.91773  0.039426964  0.039518519            4 
  711000    1.1198178   -6.0656712    335.99949  0.039381094  0.039512589            5 
  712000    1.1280277   -6.0741589    335.89861  0.039313976  0.039506809            6 
  713000    1.1501416   -6.0660485    335.69249  0.039234747  0.039500231            2 
  714000    1.1406914   -6.0162121     336.5553  0.039280498  0.039493632            3 
  715000    1.1471577   -6.0403194    336.06331  0.039168218  0.039486542            7 
  716000    1.1354737   -6.0365904    337.16516  0.039241755  0.039479529            4 
  717000    1.1257721   -6.0872355    335.85687  0.039034968  0.039472084            3 
  718000    1.1386134   -6.0480228    337.28827  0.039146735  0.039464389            3 
  719000     1.141941   -6.0726936    336.36148  0.038984873  0.039456627            3 
  720000      1.12177   -6.0708263    337.75086  0.039091535  0.039448637            2 
  721000      1.15517   -6.0426313    338.33336  0.039104642  0.039441028            2 
  722000    1.1340517   -6.0770307     337.7609  0.038984407  0.039433626            3 
  723000    1.1148475   -6.0581039    338.77746  0.039047656  0.039426052            2 
  724000    1.1173773   -6.0573985    340.22026   0.03915979  0.039418782            5 
  725000    1.1388519   -6.0166255    340.13527  0.039096008  0.039411309            2 
  726000    1.1106916   -6.1013956    339.50736  0.038970082  0.039403541            6 
  727000    1.1529916   -6.1081462    339.61335  0.038928628  0.039395462            3 
  728000    1.1352905   -6.0678035    340.24864  0.038947875  0.039387479            3 
  729000    1.1276304   -6.0704246    341.40193  0.039026283  0.039379668            4 
  730000    1.1235186   -6.0804134    341.90726  0.039030509  0.039372445            5 
  731000    1.1378069   -6.0915263    342.18236  0.039008477  0.039365191            5 
  732000    1.1124758   -6.1022801    343.03922  0.039052734  0.039357539            2 
  733000    1.1237914   -6.0465324    343.16597  0.039013866  0.039350014            5 
  734000    1.1208425   -6.0590051    343.85469  0.039038907  0.039342687            1 
  735000    1.1446387   -6.0869874    343.75387  0.038974362  0.039335459            3 
  736000    1.1265778   -6.0515902    345.23993  0.039089666  0.039328178            3 
  737000    1.1491729   -6.0430413    345.14351  0.039025725   0.03932088            5 
  738000    1.1246222   -6.0931809    346.57672  0.039134679  0.039313519            6 
  739000     1.120375   -6.0819659    345.51089  0.038961535  0.039306514            5 
  740000    1.1296993   -6.0728031    346.93347  0.039069084   0.03929959            6 
  741000     1.140599   -6.0644769    347.17437  0.039043452  0.039292475            4 
  742000    1.1287931   -6.0850425    346.49116  0.038914102  0.039285611            5 
  743000    1.1266413   -6.1023671    348.13287  0.039045858  0.039278448            6 
  744000    1.1340096   -6.0163174    348.66308  0.039052764  0.039271684            4 
  745000    1.1308846   -6.0515235    350.06929  0.039157639  0.039264933            4 
  746000    1.1307731    -6.069828    349.16488   0.03900412  0.039257946            5 
  747000    1.1043525   -6.0804505    350.19362  0.039066669    0.0392512            5 
  748000    1.1237952   -6.1173246    350.65589  0.039065941  0.039244488            3 
  749000    1.1520326    -6.057032    350.24285  0.038967829   0.03923776            7 
  750000     1.146144   -6.0763255    351.03394  0.039003771  0.039231554            4 
  751000    1.1195623   -6.0676817     350.8047  0.038926398  0.039225067           12 
  752000     1.102252   -6.0838854    350.43475  0.038833638     0.039218            4 
  753000    1.1227201   -6.0494694    352.47047  0.039007356  0.039211219            4 
  754000    1.0928589   -6.0466385    352.64026  0.038974387  0.039204614            5 
  755000    1.1132776   -6.0959799    352.68139  0.038927306   0.03919812            5 
  756000    1.1252202   -6.0892041    352.66426  0.038873927  0.039191241            5 
  757000     1.141898    -6.061715    353.62988  0.038928873  0.039184418            3 
  758000    1.1299006     -6.08428    353.59087  0.038873227  0.039177378            3 
  759000    1.1354428   -6.0938854    353.33413  0.038793822  0.039169863            8 
  760000    1.1205903    -6.081794    353.67972  0.038780671   0.03916234            5 
  761000    1.1311102   -6.0505227    354.72545  0.038844224  0.039155313            3 
  762000    1.1276154   -6.0640163    353.72431  0.038683761  0.039147812            3 
  763000    1.1324379   -6.0944482     354.3937   0.03870617  0.039140039            7 
  764000    1.1164747   -6.0529269    355.03083  0.038725004  0.039132298            3 
  765000    1.1554612   -6.0895336    355.21406  0.038694342  0.039124745            4 
  766000    1.1165522   -6.0880275    356.06152  0.038736023  0.039117194            4 
  767000    1.1353527   -6.1072161     357.0961  0.038797925  0.039109657            4 
  768000     1.119473   -6.0905414    357.28078  0.038767446   0.03910219            6 
  769000     1.136141   -6.0884779    358.37628  0.038835748   0.03909467            3 
  770000    1.1177727   -6.0725214    359.67512  0.038925878  0.039087377            3 
  771000    1.1328717     -6.08032    358.91134  0.038792838  0.039080245            5 
  772000    1.1322102   -6.0927148    358.81681  0.038732385  0.039072983            2 
  773000    1.1079935   -6.0486667    360.75797  0.038891545  0.039065908            4 
  774000    1.1367779   -6.0779443    360.05241  0.038765333  0.039058708            5 
  775000    1.1322543   -6.0790703    360.91361  0.038807915  0.039051443            4 
  776000    1.1209859   -6.1022243    359.91091  0.038650226  0.039043892            5 
  777000    1.1504018   -6.0800207    362.20288  0.038846297  0.039036639            4 
  778000    1.1591742   -6.0928678    361.95035  0.038769318  0.039029476            3 
  779000    1.1390779   -6.1171403     362.2395  0.038750481  0.039021995            4 
  780000    1.1420397   -6.0572162    362.66539  0.038746302  0.039015091            4 
  781000     1.118312   -6.0949204    363.05855  0.038738642  0.039008435            3 
  782000    1.1219421    -6.069426     364.7298  0.038867199   0.03900155            3 
  783000    1.1412747   -6.0735989    364.48817  0.038791844  0.038995229            3 
  784000    1.1176873   -6.0542876     365.9115  0.038893654  0.038989105            7 
  785000    1.1350646   -6.0824343    365.84216  0.038836747  0.038983144            6 
  786000    1.1172013   -6.0837719    364.86938  0.038684201  0.038977017            3 
  787000     1.107978   -6.0752252    365.56456  0.038708657  0.038970469            5 
  788000     1.104512   -6.0389946    366.88506  0.038799181  0.038963969            2 
  789000    1.1353285   -6.0688025    366.92789   0.03875453  0.038957746            2 
  790000    1.1353651   -6.0761473    367.68836  0.038785692  0.038951501            3 
  791000    1.1595938   -6.0926696    367.56488  0.038723649  0.038945092            3 
  792000    1.1423556   -6.0436746     368.9684  0.038822432  0.038938927            6 
  793000    1.1362069    -6.070549    369.48281  0.038827534  0.038932823            3 
  794000    1.1090735   -6.0591565    370.41794  0.038876778  0.038926955            4 
  795000    1.1470436   -6.0500249    370.29539   0.03881503  0.038921354            3 
  796000    1.1417286   -6.0925017    370.02292  0.038737743  0.038915588            4 
  797000    1.1313115   -6.0996934     370.6326  0.038752885  0.038909584            4 
  798000    1.1159824   -6.1155866    369.95319  0.038633374  0.038903075            9 
  799000    1.1373846   -6.0955612    370.88214  0.038681908   0.03889617            4 
  800000     1.127847   -6.0718736    371.08409  0.038654593  0.038889116            3 
  801000    1.1154984   -6.0965006    371.45392  0.038644811  0.038882059            3 
  802000    1.1422117   -6.0694565    372.54696    0.0387102  0.038875423            3 
  803000    1.1174749   -6.0896574    370.95948  0.038497248  0.038868507            3 
  804000    1.1248045   -6.0862198    372.39196   0.03859784  0.038861285            4 
  805000    1.1185731   -6.0687293    372.84426  0.038596714  0.038854273            4 
  806000    1.1247896   -6.0664659    373.04341  0.038569418  0.038847315            2 
  807000    1.1231591   -6.0842486    373.66274  0.038585578  0.038840641            6 
  808000    1.1169168   -6.0753981    372.57153  0.038425282  0.038833651            3 
  809000    1.1197157   -6.0752391    374.30037  0.038555868  0.038826566            3 
  810000    1.1055645   -6.0927249    376.25984   0.03870986  0.038819847            9 
  811000    1.1324836   -6.1237352    375.70992  0.038605622  0.038813012            4 
  812000    1.1358827   -6.0896087    376.53007  0.038642249  0.038806267            7 
  813000    1.1142301   -6.0642089    376.86462   0.03862901  0.038799634            3 
  814000    1.1290354   -6.1030777    376.71787  0.038566531  0.038793209            3 
  815000    1.1454254   -6.1308534    377.42685  0.038591702  0.038786285            5 
  816000    1.1343045   -6.1235962    377.13547  0.038514652  0.038779896            3 
  817000    1.1337651   -6.1022648    378.83427  0.038640787  0.038773391            6 
  818000    1.1466817   -6.0578912    378.74843  0.038584804  0.038766996            2 
  819000    1.1109597   -6.1088065    379.31925  0.038595773  0.038760621            4 
  820000    1.1174533   -6.1000211    379.85995  0.038603653   0.03875397            5 
  821000    1.0990126   -6.0535044    381.26236  0.038698981   0.03874755            3 
  822000    1.1517727   -6.1152017    379.53399  0.038476682  0.038741146            3 
  823000    1.1180195   -6.1042265    381.35696  0.038614516  0.038734596            7 
  824000    1.0907367   -6.0728075    380.90468  0.038521913  0.038727505            4 
  825000    1.1405871   -6.0745562    380.33437  0.038417614  0.038720604            6 
  826000    1.1371509   -6.0958654    381.08808  0.038447143  0.038713613            4 
  827000    1.1398872   -6.1047774     380.6176  0.038353245  0.038706218            8 
  828000     1.146969    -6.104231    382.21981  0.038468177  0.038698672            3 
  829000    1.1185446   -6.0877316    381.53801  0.038353237  0.038691075            5 
  830000    1.1329866   -6.0981283    381.63631  0.038316899  0.038683505            4 
  831000    1.1195872   -6.0973985    381.35402  0.038242481  0.038675699            5 
  832000    1.1099109   -6.0664995    383.12421  0.038373819  0.038667845            2 
  833000    1.0989151   -6.1087181    382.90023  0.038305345  0.038660113            2 
  834000     1.104804   -6.1334571    383.71544  0.038340872  0.038652418            4 
  835000    1.1178628   -6.0963545    383.80863  0.038304254   0.03864474            5 
  836000    1.1228288   -6.1278717    384.20006  0.038297454  0.038637044            5 
  837000    1.0971562   -6.1054821    384.52609  0.038284159  0.038629563            6 
  838000     1.122028    -6.084629    384.99346  0.038284951  0.038622225            3 
  839000    1.0885417   -6.1123935    386.28212  0.038367314  0.038615014            4 
  840000    1.1173824   -6.0971373    387.45686   0.03843818  0.038607633           11 
  841000    1.1249806   -6.1054604    386.41351  0.038289091   0.03860035            4 
  842000    1.1318111   -6.0692249    387.45042  0.038346241  0.038593583            2 
  843000    1.1239227   -6.0898997    388.20356  0.038375204  0.038586562            4 
  844000    1.1047002   -6.1061323    389.69189  0.038476688  0.038579545            4 
  845000    1.1027668   -6.0797276    388.29464  0.038293357  0.038572807            3 
  846000      1.12683   -6.1012996    389.96888  0.038413011  0.038565824            3 
  847000    1.0960603    -6.083125    389.76667  0.038347763  0.038559296            5 
  848000    1.1154389   -6.0575176    390.58524  0.038382984   0.03855274            5 
  849000    1.1394877   -6.1011151    390.89351  0.038368032  0.038546349            3 
  850000    1.1316282   -6.0679278    391.22192   0.03835509  0.038539962            3 
  851000    1.1261967   -6.1148579    391.85556  0.038372068  0.038533761            4 
  852000    1.1048604   -6.1130709    392.24049  0.038364681  0.038527532            6 
  853000    1.1207849   -6.1218307    391.50708  0.038248054  0.038520775            5 
  854000    1.1024857   -6.1204458    393.62484  0.038409918  0.038514153            4 
  855000    1.1133605   -6.0793323    394.10163  0.038411465  0.038508035           15 
  856000    1.1118856   -6.1050777    395.88819  0.038540517  0.038501883            3 
  857000    1.1025013    -6.089952    394.85913  0.038395481  0.038495997            2 
  858000    1.1110637   -6.1094167    394.24901  0.038291474  0.038490067            5 
  859000    1.1004851   -6.0766372    396.13118  0.038429489   0.03848433            6 
  860000    1.1062891   -6.1182642    395.96015  0.038368232  0.038478446            7 
  861000    1.1122722   -6.1318566    396.80394  0.038405337   0.03847244            4 
  862000    1.1526508   -6.1144446    395.51728  0.038236396   0.03846645            4 
  863000    1.1352697   -6.1031754    397.48439  0.038382038   0.03846047            9 
  864000    1.1057015   -6.1136127    398.63268  0.038448368   0.03845485            3 
  865000    1.1220334   -6.1080291    399.05081  0.038444201   0.03844938            3 
  866000    1.1003607   -6.0838931    399.72776   0.03846495  0.038443567            3 
  867000    1.1226768   -6.1256816     398.2845  0.038281863  0.038437843            5 
  868000    1.1210744   -6.1116249    399.05065  0.038311314  0.038432354            5 
  869000    1.0955246   -6.0795617    398.33466  0.038198567  0.038426808            3 
  870000    1.1113326   -6.1066205    399.51718  0.038267929  0.038421197            4 
  871000    1.1233347   -6.1102048     399.9926  0.038269479  0.038415201            3 
  872000    1.0991907   -6.1061759    402.07781  0.038424868  0.038409756            4 
  873000    1.0895038   -6.1127926    402.06731   0.03837985  0.038403999            5 
  874000    1.1200016   -6.1249225    400.67613  0.038203292  0.038398273            5 
  875000    1.0927386   -6.1268148    402.72973  0.038355212  0.038392725            6 
  876000    1.0824825   -6.1255712    401.77487  0.038220593  0.038386836            4 
  877000    1.1078139   -6.1078777     403.5118  0.038342056  0.038380922            2 
  878000    1.0990634    -6.053261    403.50789  0.038298015  0.038374902            2 
  879000      1.10693   -6.1023954    404.53871  0.038352172  0.038368996            6 
  880000    1.1373288   -6.1093208     402.7774  0.038141799  0.038362907            4 
  881000    1.1100286    -6.096112    405.48119  0.038354256  0.038356854            3 
  882000    1.1106698   -6.0931826     404.3312  0.038202117  0.038350552            3 
  883000    1.1375319   -6.1147728    406.16395  0.038331819  0.038344718            4 
  884000    1.1112603   -6.1236372    405.22096  0.038199563  0.038338353            4 
  885000    1.1015348   -6.0911448    405.24528  0.038158689  0.038332492            9 
  886000    1.1161296     -6.07574     406.3757  0.038221943  0.038326575            4 
  887000    1.1067843   -6.1050498    407.00527     0.038238   0.03832049            4 
  888000    1.0960248    -6.114319    408.24488  0.038311269  0.038314473            4 
  889000    1.0978051   -6.1111387    407.19861  0.038170099   0.03830856            3 
  890000    1.0977876    -6.116691    409.32858  0.038326646    0.0383028            4 
  891000    1.0937607   -6.1053375    409.89987  0.038337062  0.038297592            4 
  892000    1.0994833    -6.111351    409.63163  0.038269024  0.038292341            5 
  893000    1.1108198   -6.1263032    410.76633  0.038332058  0.038286916            6 
  894000    1.1118256     -6.10501    409.94417  0.038212544  0.038281763            4 
  895000    1.1147491   -6.1325957    409.96829  0.038172094  0.038276135            4 
  896000    1.0941626   -6.1360099    410.65305  0.038193178  0.038270685            5 
  897000     1.106594   -6.1173885    410.39182  0.038126331  0.038264975            3 
  898000    1.0898127    -6.098737    411.23935  0.038162523  0.038259411            6 
  899000    1.1242814    -6.104838    412.24691  0.038213469  0.038253753            7 
  900000    1.1108871   -6.1204861    413.18511   0.03825788  0.038247972            6 
  901000    1.0975429   -6.1098796    412.69543  0.038170128  0.038242787            5 
  902000    1.0937397   -6.1261099    412.71382  0.038129511  0.038237218            8 
  903000    1.1044792   -6.0878725    414.61494   0.03826273  0.038231465            6 
  904000    1.0915248   -6.0979805    414.06275  0.038169502  0.038225866           16 
  905000    1.1232486   -6.1151275    414.50523  0.038168069  0.038220263            6 
  906000    1.1139873   -6.1166802    414.83498  0.038156271  0.038214719            4 
  907000    1.0948834    -6.138525    415.35403  0.038161892  0.038209362            5 
  908000    1.1008631   -6.1107853     416.5752  0.038231938  0.038203528            4 
  909000    1.1118605   -6.0856795    416.06341   0.03814296  0.038197684            4 
  910000     1.107187   -6.1364972    416.36051  0.038128252   0.03819205            6 
  911000    1.1342526   -6.1176346    416.94308  0.038139689  0.038186251            7 
  912000    1.1182287   -6.1439615    417.20869  0.038122139  0.038180223            4 
  913000     1.079864   -6.1189268    417.25952  0.038085023  0.038174095            3 
  914000    1.0879338   -6.1153803    417.66338  0.038080177  0.038167913            5 
  915000    1.1163446   -6.1422875    416.29878  0.037914278  0.038161512            4 
  916000     1.089839   -6.1166123    418.57074   0.03807958  0.038155547            4 
  917000    1.0989459   -6.1063398    418.53268  0.038034595  0.038149538            3 
  918000    1.0989718   -6.1384894     417.6719  0.037915023  0.038143193            4 
  919000    1.0876045   -6.1281675    418.91832   0.03798679  0.038136481            3 
  920000    1.0854521    -6.117782    418.91863  0.037945528  0.038129774            4 
  921000    1.1006134   -6.0930974    420.42773  0.038040873  0.038123369            9 
  922000    1.0742692   -6.0917349    422.42115  0.038179786  0.038117364            2 
  923000    1.1299767   -6.1079638    420.27629  0.037944772  0.038111125            5 
  924000    1.0981565   -6.1264719    421.64331  0.038026994  0.038104874            3 
  925000    1.1160841   -6.1256306    421.35251  0.037959685  0.038098703            7 
  926000    1.1257937   -6.1340405    420.96414  0.037883742  0.038092372            4 
  927000    1.0985002   -6.1367372    422.14923  0.037949409  0.038085848            4 
  928000    1.1253817   -6.1413965    423.03626   0.03798817  0.038079173            5 
  929000    1.1185443   -6.1113581    421.48067  0.037807739  0.038072483            4 
  930000    1.1020738   -6.1080552    422.71107  0.037877336  0.038065602            5 
  931000    1.0977064   -6.1043035    422.45184  0.037813448  0.038058976            5 
  932000    1.0955521   -6.1143438    423.85143  0.037898018  0.038052357            8 
  933000    1.1057518   -6.1370096    423.43122  0.037819866  0.038045641            8 
  934000    1.1066528   -6.1139916    423.67519  0.037801141  0.038038648            9 
  935000    1.0845074   -6.1068814    425.18474  0.037895253  0.038031545            7 
  936000    1.1195851   -6.1038829    424.30729  0.037776646   0.03802487            4 
  937000    1.1306499   -6.1640636    423.98707  0.037707851  0.038017764            2 
  938000    1.1091626   -6.1311314    424.96037   0.03775412  0.038010738            3 
  939000    1.1222408   -6.1277236    425.69985  0.037779539  0.038003735            5 
  940000    1.1096937   -6.1064468    425.51861  0.037723281  0.037997051            6 
  941000    1.1053792   -6.1134604    426.90214  0.037805716  0.037990172            7 
  942000    1.1117529   -6.0965018    426.87903  0.037763537  0.037983334            3 
  943000    1.0881642   -6.1168636    428.13539  0.037834517  0.037976643            3 
  944000    1.1221323   -6.1532048    428.43804  0.037821155   0.03796989            3 
  945000    1.1125757    -6.080461    429.92824  0.037912543  0.037963099            3 
  946000    1.1006848   -6.1511513    428.95743  0.037786948  0.037956658            4 
  947000    1.0719095   -6.1089995    430.69068  0.037899567  0.037950196            8 
  948000    1.1039034   -6.1348202    429.93498   0.03779316  0.037944005            8 
  949000    1.1052279   -6.1016462     431.3049   0.03787363  0.037937568            6 
  950000    1.1062756   -6.1501713    429.13568  0.037643481  0.037931052            8 
  951000    1.0773851    -6.145003    431.51026  0.037811975  0.037924451            3 
  952000    1.0958407   -6.1467612    430.95901  0.037724003  0.037917911            5 
  953000    1.1052139   -6.1367069    431.86082  0.037763276  0.037911337           11 
  954000    1.1201324   -6.1570056    430.32381  0.037589431   0.03790451           10 
  955000    1.1013177    -6.132982    432.45401  0.037735952  0.037897695            3 
  956000    1.0776404   -6.1253591    433.09071   0.03775198  0.037890582            4 
  957000    1.0871848   -6.1166192    432.20076  0.037635037   0.03788355            6 
  958000    1.1182554   -6.0880468    433.42701  0.037702419  0.037876422            3 
  959000    1.0937252   -6.0825342    433.98839  0.037711886  0.037869478            6 
  960000    1.1006613   -6.1336515    433.75603  0.037652433  0.037862324            7 
  961000    1.1124247   -6.1359544    432.61869  0.037514628  0.037855066            6 
  962000    1.0700373   -6.1416399    433.76972   0.03757534  0.037847802            3 
  963000    1.1204714   -6.1012285    433.94036  0.037551086  0.037840547            3 
  964000    1.0832651   -6.1361063     434.9075  0.037595738  0.037833332            7 
  965000    1.1139776    -6.131598    435.07632  0.037571358  0.037826196            4 
  966000    1.0739348   -6.1312218    434.60925  0.037492172  0.037819179            8 
  967000     1.077082   -6.1234969    436.94803   0.03765495  0.037812615            2 
  968000    1.0894356   -6.1644851    435.87445  0.037523627  0.037805899            9 
  969000    1.0849313   -6.1475182    438.51073  0.037711621  0.037799112            3 
  970000    1.0865767   -6.1482289    437.58923  0.037593576  0.037792378            5 
  971000    1.1117491   -6.1398388    438.40833  0.037625157  0.037785509            2 
  972000    1.0876249    -6.141181    439.84473  0.037709596  0.037778796            4 
  973000    1.1033312      -6.1126    439.96908   0.03768149  0.037772486            3 
  974000    1.0880244   -6.0974241    440.38357  0.037678266   0.03776607            3 
  975000    1.0769432   -6.1346474    440.46759  0.037646802  0.037760001            7 
  976000    1.0887757   -6.1301554     441.2885  0.037678322  0.037753812            9 
  977000    1.0935409   -6.1490217    441.53656  0.037660914  0.037747655            6 
  978000    1.0912356   -6.1225064    440.62868  0.037545048  0.037741084            6 
  979000    1.0869173   -6.0857141    441.00422  0.037538663  0.037734175            4 
  980000    1.0840151   -6.1344544    441.43696  0.037537157  0.037727436            3 
  981000    1.0761292   -6.1495799    441.71975  0.037522915   0.03772078            2 
  982000      1.10978   -6.1228804    443.00997  0.037594193  0.037714099            2 
  983000     1.109823   -6.1237249    442.86212  0.037543415  0.037707604            4 
  984000    1.1012046   -6.1560775    443.87208  0.037590793  0.037701115            6 
  985000    1.0896567   -6.1621652    443.71522  0.037539358   0.03769451            4 
  986000    1.0680045   -6.0996873     444.4123  0.037560201  0.037687802            6 
  987000    1.0997851   -6.1454475    445.54035  0.037617389   0.03768114            3 
  988000    1.1116009   -6.1444103    446.01188  0.037619086    0.0376747            6 
  989000    1.0819645   -6.1698279    445.19578  0.037512284  0.037668095            7 
  990000    1.1004888   -6.1476633    445.70477  0.037517237  0.037661627            6 
  991000    1.1115272   -6.1702685    446.34161   0.03753293  0.037655309            5 
  992000    1.1004848   -6.1306634    446.20169  0.037483341    0.0376491            5 
  993000    1.1100145   -6.1236398    448.64242  0.037650421   0.03764279            7 
  994000    1.0946738    -6.104458    448.14084  0.037570493  0.037636814            6 
  995000    1.0792597   -6.1100914     449.3605  0.037634883  0.037630865            4 
  996000    1.0706397   -6.1098301    449.73289  0.037628254  0.037624871            4 
  997000     1.074202   -6.1417805    449.52804   0.03757339  0.037619117            4 
  998000    1.1120172   -6.1615635    450.20375  0.037592163  0.037613329           13 
  999000    1.1089656    -6.130619    451.03501  0.037623875   0.03760749            6 
 1000000    1.0971724   -6.1148793     450.9671  0.037580591  0.037601717           14 
 1001000    1.0764834   -6.1216902    450.55019  0.037508341  0.037595579            4 
 1002000    1.1264802   -6.1244439    451.15281  0.037521025  0.037589792            6 
 1003000    1.0790225   -6.1517848    451.72107   0.03753083  0.037584068           12 
 1004000     1.081616   -6.1358303    452.20631  0.037533724  0.037578207            6 
 1005000    1.1134014   -6.1476409    454.39315  0.037677708  0.037572422            5 
 1006000    1.0895404    -6.106575    453.61151  0.037575506  0.037566802            6 
 1007000    1.1013292    -6.169583    452.88182  0.037477807  0.037561098            4 
 1008000    1.1015158   -6.1425935    454.56458  0.037579744  0.037555404            4 
 1009000    1.0830247   -6.1230763    455.47188  0.037617433  0.037549779            8 
 1010000    1.0896532    -6.160793    454.34408  0.037487135  0.037544202            4 
 1011000    1.0738953   -6.1296249    456.13653  0.037597802  0.037538447           10 
 1012000    1.0983617   -6.1381314    456.46013  0.037587297  0.037532925            4 
 1013000    1.0928785   -6.1095312    456.05961  0.037517243  0.037527035            2 
 1014000    1.0861569   -6.1361648     455.8036  0.037459205  0.037521138            5 
 1015000    1.1109586    -6.148155    455.72597  0.037415925  0.037515422            8 
 1016000    1.1058961   -6.1461042    456.19752  0.037417776  0.037509411            3 
 1017000    1.0857802   -6.1473468    458.68298  0.037584643  0.037503864            6 
 1018000    1.1322579   -6.1346305    458.93568  0.037568408  0.037498454           11 
 1019000    1.0841562   -6.1516488    457.08876    0.0373805  0.037492982            2 
 1020000    1.0719557   -6.1424565    458.58079  0.037465751  0.037487143            5 
 1021000    1.1182603   -6.1260213    459.77805  0.037526775   0.03748144            6 
 1022000    1.0992981   -6.1331486    458.80176   0.03741045   0.03747593            3 
 1023000    1.0747965    -6.133791    460.96743  0.037550296  0.037470302            6 
 1024000    1.0826228   -6.1356848    460.51433  0.037476752  0.037464721            3 
 1025000    1.1052086   -6.1199243    461.09141  0.037487106  0.037458859            7 
 1026000    1.0751435   -6.1983021    459.46457  0.037318435  0.037453068            7 
 1027000    1.0626734   -6.1592937    462.30284  0.037512401   0.03744714            3 
 1028000    1.1064471   -6.1595894    462.54667  0.037495677  0.037441353            2 
 1029000    1.0602892    -6.143551    462.48725  0.037454426  0.037435309            5 
 1030000     1.064664   -6.1582041    461.28551  0.037320834   0.03742926            3 
 1031000    1.0843548   -6.1680294    462.25064  0.037362645  0.037422959            5 
 1032000    1.0912294   -6.1446951    461.63223  0.037276504   0.03741671            7 
 1033000    1.0684114   -6.1996901    461.17693  0.037203689  0.037410221            5 
 1034000    1.0845049   -6.1621353    462.69635  0.037290163  0.037403756            4 
 1035000    1.0952061   -6.1490982    463.39164  0.037310116  0.037397523            3 
 1036000    1.0994523   -6.1733997    462.76193   0.03722345  0.037391127            7 
 1037000    1.0944855   -6.1120669    463.79629  0.037270676  0.037384729            6 
 1038000    1.0857168   -6.1793635    462.24999  0.037110629  0.037378107            5 
 1039000    1.0632452   -6.1681385     463.4026  0.037167356  0.037371413            9 
 1040000    1.0908256   -6.1493242     464.1708  0.037193173   0.03736485            4 
 1041000    1.0645014   -6.1636884    462.66185  0.037036651  0.037358251            8 
 1042000    1.0881853    -6.168284    464.89811  0.037179951  0.037351365            3 
 1043000    1.0951095   -6.1669037    463.63083  0.037043052  0.037344406            4 
 1044000    1.0766026   -6.1725375    464.53439  0.037079693  0.037337647            5 
 1045000    1.1103467   -6.1537857    465.99026  0.037160308  0.037330772           14 
 1046000    1.0879393   -6.1497218    466.37121  0.037155132  0.037323774            6 
 1047000    1.0885593   -6.1732045    467.60883   0.03721815  0.037316959            3 
 1048000    1.0802387   -6.1381124    467.31245  0.037159069  0.037310431            6 
 1049000     1.077697   -6.1699851     467.6445  0.037150024  0.037303733            4 
 1050000    1.0826521   -6.1773325    467.51136  0.037104076  0.037296729            7 
 1051000    1.0852631    -6.144336    467.95573  0.037104006  0.037289906            4 
 1052000    1.1040026   -6.1722576    468.04395  0.037075725  0.037283032            6 
 1053000    1.1009292   -6.1548131    468.06781  0.037042404  0.037276234            4 
 1054000    1.0648547   -6.1823598    469.12592  0.037090917  0.037269494            4 
 1055000    1.0967844   -6.1902362     469.3408  0.037072733  0.037262737            3 
 1056000    1.0802142   -6.1872908    469.86399  0.037078913  0.037256263            3 
 1057000    1.0839161   -6.1333815    470.41463  0.037087246  0.037250008            4 
 1058000    1.0532756   -6.1620725    471.82665   0.03716341  0.037243624            9 
 1059000     1.071508   -6.1348185    472.77311  0.037202795  0.037237311            5 
 1060000    1.0909428   -6.1458113    470.67262  0.037002564  0.037230962            6 
 1061000    1.0735968   -6.1715492    471.96512  0.037069205  0.037225021            5 
 1062000    1.0616823   -6.1453949    473.48875  0.037153857  0.037218657            6 
 1063000    1.0802377   -6.1458866    472.56285  0.037046319  0.037212122            6 
 1064000    1.0949841    -6.135783    473.32827   0.03707145  0.037205678            5 
 1065000    1.0748453   -6.1432595    475.29019  0.037190156  0.037199714            4 
 1066000    1.0688044   -6.1916565    474.30473  0.037078231  0.037193917            4 
 1067000     1.079784   -6.1816106    476.14977  0.037187579  0.037188026            5 
 1068000    1.0746396   -6.1374747    476.48201  0.037178684  0.037182227            3 
 1069000    1.0722522   -6.1636058    477.44298  0.037218817  0.037176527            2 
 1070000    1.0971666   -6.1627383    477.24946  0.037168961   0.03717066            4 
 1071000    1.1013052   -6.1390766    477.98733  0.037191669  0.037164851            6 
 1072000    1.0984947   -6.1338818    477.87853  0.037148517  0.037159103           12 
 1073000    1.0837595   -6.1476254    478.39995  0.037154392  0.037153087            5 
 1074000    1.0561247   -6.1507914    478.06766  0.037094014  0.037147107            7 
 1075000    1.0792657   -6.1586188    478.64865  0.037104547  0.037141102           10 
 1076000    1.1111572   -6.1813921     478.6511  0.037070252  0.037135104           10 
 1077000    1.1010003   -6.1790438     479.6499  0.037113115  0.037129258            3 
 1078000    1.0897851   -6.1495105    480.62068  0.037153732  0.037123383            3 
 1079000    1.0700281   -6.1847504    479.75065  0.037052105  0.037117272            4 
 1080000    1.0797636   -6.1603177    480.42602  0.037069909  0.037111293            2 
 1081000     1.080668   -6.1398444    481.93855  0.037152216  0.037105521            8 
 1082000    1.0979525   -6.1655095    482.19943  0.037137972  0.037099944            5 
 1083000    1.0769902   -6.1420632    484.02861   0.03724443  0.037094294            4 
 1084000    1.0976699    -6.146062     483.8418   0.03719571  0.037088626           14 
 1085000    1.0746116   -6.1691409    483.40804  0.037128113   0.03708293            5 
 1086000    1.0812105   -6.1366576    483.14118  0.037073448  0.037077109            5 
 1087000    1.0758005   -6.1320968    483.88692  0.037096513  0.037071342           10 
 1088000    1.0847787   -6.1448505    483.74568  0.037051599   0.03706568            5 
 1089000    1.0951309   -6.1817896    484.76937  0.037095911  0.037059965            3 
 1090000    1.0621646   -6.1796944    485.26246  0.037099576  0.037054129            3 
 1091000    1.0827323   -6.1681098    485.77495  0.037104716  0.037048398            4 
 1092000    1.0886327   -6.1658301    486.93999  0.037159645  0.037042521            6 
 1093000     1.072419   -6.1593956    484.56048  0.036944227   0.03703684            3 
 1094000    1.0769144   -6.1413396    486.62661   0.03706784  0.037031043            3 
 1095000    1.0646194   -6.1813647    487.00758  0.037062982   0.03702535            4 
 1096000    1.0783245   -6.1876194    486.46035  0.036987557  0.037019436            4 
 1097000    1.0762769   -6.1428176    488.50065  0.037108831   0.03701369            5 
 1098000    1.0701696   -6.1628282    488.21845  0.037053616  0.037008108            5 
 1099000    1.0642957    -6.157603    486.55101  0.036893464  0.037002381            6 
 1100000    1.0702026   -6.1524615    488.86226   0.03703502  0.036996582            5 
 1101000    1.0575358    -6.164367    488.69881  0.036989011  0.036990764            6 
 1102000    1.0796001   -6.1809992     487.1842  0.036840911  0.036984683            4 
 1103000    1.0712098   -6.2128203     488.5713  0.036912307  0.036978456            5 
 1104000    1.0523158   -6.1506541    489.95668  0.036983445  0.036972462            3 
 1105000     1.086155   -6.1534251    489.82517  0.036940058  0.036966623            7 
 1106000    1.0571337   -6.1433021    489.42416  0.036876443  0.036960506            6 
 1107000    1.0774239   -6.1913113    489.90371  0.036879232  0.036954464            7 
 1108000    1.0671981   -6.1758721    490.93384  0.036923424  0.036948402           10 
 1109000    1.0700904   -6.1914434    490.88433  0.036886409  0.036942281            4 
 1110000    1.0817869   -6.1688466    492.11964  0.036945919  0.036936175            5 
 1111000    1.0525276    -6.151876    491.97004  0.036901443  0.036929899            5 
 1112000    1.0780818   -6.1807519    490.92431  0.036789891  0.036923541            4 
 1113000    1.0686233   -6.1765632     491.3516  0.036788829  0.036917227            4 
 1114000    1.0586984   -6.1819818    491.31177  0.036752825  0.036910646            5 
 1115000    1.0538415   -6.1875664    490.38473  0.036650578  0.036904081            6 
 1116000    1.0702465   -6.1494317    493.22302  0.036829676  0.036897566            7 
 1117000    1.0428112   -6.1653242    493.22122   0.03679657  0.036891203            9 
 1118000    1.0757953   -6.1654434    493.04606  0.036750601  0.036884866            7 
 1119000     1.070327   -6.1406733    494.31386  0.036812173  0.036878607            3 
 1120000    1.0736873   -6.1825554    494.16322  0.036768097  0.036872458           13 
 1121000    1.0813884   -6.1942804      493.497  0.036685772  0.036866201            6 
 1122000    1.0809958   -6.2125776    493.26538  0.036635872  0.036859587            4 
 1123000    1.0685148   -6.1674703    494.71824  0.036711059  0.036852975            6 
 1124000    1.0655337   -6.1892336    493.92043  0.036619249   0.03684637            6 
 1125000    1.0769437   -6.1888506    494.64203   0.03664015  0.036839552            6 
 1126000    1.0729981   -6.1503442    493.98955  0.036559321  0.036832754            9 
 1127000    1.0716941   -6.1576101    496.18378  0.036689129  0.036825801            4 
 1128000    1.0902903   -6.1582268     494.5499  0.036535897  0.036819079            6 
 1129000    1.0825335   -6.1662611    494.70243  0.036514794  0.036812094            8 
 1130000    1.0641868   -6.2010412    494.75238  0.036486164  0.036805039            7 
 1131000    1.0835085   -6.2083521    496.42291   0.03657699  0.036797835            3 
 1132000    1.0581148   -6.1674344     495.6298  0.036486293  0.036790635            4 
 1133000    1.0756908   -6.1853937    498.02648  0.036630368  0.036783293            2 
 1134000    1.0518722   -6.1718692    497.63253  0.036569116   0.03677639            5 
 1135000    1.0880859   -6.1550993    498.77566  0.036620827   0.03676955            2 
 1136000    1.0915481     -6.19937    497.78086  0.036515615  0.036762724            5 
 1137000    1.0653924   -6.1868831    498.95094  0.036569257  0.036755516            3 
 1138000    1.0622429   -6.1849211    498.29118  0.036488809  0.036748556            7 
 1139000    1.0600474   -6.1405533    499.78526  0.036566086  0.036741626            6 
 1140000    1.0667275   -6.1566826    500.80936  0.036608871    0.0367347            5 
 1141000    1.0646592   -6.1953231    498.76391  0.036427396  0.036727746            6 
 1142000     1.052692   -6.1677724    499.75609  0.036467899  0.036720685            6 
 1143000    1.0762519    -6.181659    500.59108  0.036496871  0.036713541            3 
 1144000    1.0408922   -6.1692768     502.1598  0.036579239  0.036706551            9 
 1145000    1.0515971   -6.1430189    500.73897  0.036443884  0.036699691            3 
 1146000    1.0909701   -6.1986429    501.80125  0.036489329  0.036692639            5 
 1147000    1.0669608   -6.2114371    501.85387  0.036461339  0.036685832            4 
 1148000    1.0728606   -6.1833545    502.02308  0.036441861   0.03667871            3 
 1149000     1.078808   -6.1877257    503.07179  0.036486205  0.036671912            2 
 1150000    1.0493199     -6.16859    502.24879   0.03639484  0.036665116            9 
 1151000    1.0525494   -6.1737379    504.69112  0.036540046  0.036658271            3 
 1152000    1.0900007   -6.1872461    504.68485  0.036507874  0.036651456            2 
 1153000    1.0637794   -6.1985076    505.02948  0.036501119  0.036644659            2 
 1154000    1.0449493   -6.1639593    505.30747  0.036489563  0.036637743            4 
 1155000    1.0845188   -6.1832068    503.56073  0.036331943  0.036630751            3 
 1156000     1.100056   -6.2481725    503.90533  0.036325355  0.036623673            2 
 1157000    1.0875756   -6.2028191    505.20031  0.036387231  0.036616551            3 
 1158000    1.0902699   -6.1814116    504.46254  0.036302716   0.03660947            4 
 1159000    1.0594428   -6.1775543    506.04778  0.036385374   0.03660242            7 
 1160000    1.0758975   -6.1631868    506.93907  0.036418037  0.036595349            4 
 1161000    1.0598922   -6.1510896    506.78876   0.03637588  0.036588492            7 
 1162000    1.0804696   -6.1973639    506.68818  0.036337362  0.036581506            3 
 1163000    1.0623475   -6.1914866    507.56535   0.03636897  0.036574503            2 
 1164000    1.0618619   -6.1825951    508.96381  0.036437845  0.036567324            6 
 1165000    1.0585965   -6.1437073    507.72806  0.036318173  0.036560323            6 
 1166000    1.0721253   -6.2093886    507.12191  0.036243704   0.03655334            5 
 1167000    1.0596361   -6.1867643    509.14562  0.036357156  0.036546403            5 
 1168000    1.0727404   -6.1927706    510.20682  0.036401742   0.03653952            4 
 1169000    1.0770053   -6.2015188    508.78994    0.0362696  0.036532606            3 
 1170000    1.0837761    -6.166342    511.25679  0.036414301  0.036525833            6 
 1171000    1.0639956   -6.2227393    511.68096   0.03641339  0.036519064            5 
 1172000     1.057297   -6.1931115    511.75429  0.036387535  0.036512328            3 
 1173000    1.0484662   -6.1460235    511.49503  0.036338095  0.036505613            4 
 1174000    1.0533409   -6.2040027    510.53626  0.036239087  0.036498642            6 
 1175000    1.0628075   -6.1666079    511.76187  0.036295168    0.0364915            4 
 1176000    1.0712516   -6.1963075    511.95297  0.036277846  0.036484625            7 
 1177000    1.0576596   -6.1517002    513.58621   0.03636266   0.03647774            6 
 1178000    1.0790909   -6.2030459    512.41847  0.036249184  0.036470849            5 
 1179000    1.0158119    -6.193084    512.70237  0.036238505  0.036463802           12 
 1180000    1.0688706   -6.1920292    515.13702  0.036379733  0.036457001           10 
 1181000     1.053098   -6.1731029    513.27869  0.036217802  0.036449971            4 
 1182000    1.0501625   -6.2289496    514.06449  0.036242562  0.036443176            4 
 1183000    1.0586588   -6.2375723    513.59912  0.036179144  0.036436216            4 
 1184000     1.069374   -6.1889351      515.008  0.036247748  0.036429261            4 
 1185000    1.0755671   -6.1865345    516.08626  0.036292986  0.036422464           30 
 1186000    1.0517644   -6.1957368    515.61586  0.036229332   0.03641562            4 
 1187000    1.0600318   -6.1404791    514.64422  0.036130596  0.036408589            2 
 1188000    1.0427379   -6.1843132    515.94528  0.036191448  0.036401791            4 
 1189000     1.075155   -6.1935536    516.38992  0.036192173  0.036395088            3 
 1190000    1.0760775   -6.1594894    517.67699   0.03625189  0.036388375            4 
 1191000    1.0601353   -6.1858594    519.56442  0.036353514  0.036381891            3 
 1192000    1.0812159   -6.2010373    518.88472  0.036275498  0.036375256            6 
 1193000    1.0716822   -6.1845029    518.12611    0.0361921  0.036368686            5 
 1194000    1.0578308    -6.159352    519.32159  0.036245226  0.036362251            5 
 1195000    1.0666542   -6.2211238    517.14105  0.036062835  0.036355575            4 
 1196000    1.0654048   -6.1587181    519.91162  0.036225726  0.036348873            6 
 1197000    1.0668509   -6.1626583    521.09706  0.036277991   0.03634218            8 
 1198000    1.0354248   -6.2121526    521.61588  0.036283798  0.036335439            9 
 1199000    1.0699695   -6.1906108    519.75936  0.036124504  0.036328749            5 
 1200000    1.0724097   -6.1872498    520.08217  0.036116818  0.036321992            5 
 1201000    1.0447718   -6.1910802    521.18122  0.036163005  0.036315331            4 
 1202000    1.0451427   -6.1628849    521.44125  0.036150947  0.036308736            4 
 1203000    1.0707112   -6.2102237    522.24946  0.036176882   0.03630201            5 
 1204000    1.0786234   -6.2385943    522.13987  0.036139249  0.036295094            5 
 1205000    1.0633592   -6.2145465    521.56977  0.036069832  0.036288093            4 
 1206000    1.0619639   -6.1869206    522.91771  0.036133065  0.036281225            8 
 1207000    1.0619961   -6.1874373    523.25682  0.036126541  0.036274385            3 
 1208000    1.0363223    -6.226221    521.89313  0.036002561  0.036267493            5 
 1209000    1.0533602   -6.2114942    523.86306  0.036108565  0.036260603            4 
 1210000    1.0510085   -6.1793298    523.24001  0.036035813  0.036253949            7 
 1211000    1.0378324   -6.2004911    521.69532  0.035899761  0.036247065            6 
 1212000    1.0570506   -6.2028396    522.37392  0.035916798  0.036240048            5 
 1213000    1.0741668   -6.2155361    524.60298  0.036040326  0.036233115            6 
 1214000    1.0560314   -6.2110732    523.55164  0.035938471  0.036226245           12 
 1215000    1.0528052   -6.1822589     524.9132  0.036002277  0.036219364            3 
 1216000    1.0607338   -6.1886891    523.63787   0.03588527  0.036212346            6 
 1217000    1.0581469   -6.2019869    526.77325  0.036070477  0.036205205            3 
 1218000    1.0500778   -6.1857595     526.2964  0.036008238  0.036198178           11 
 1219000    1.0639517   -6.2118222     527.9363  0.036090806  0.036191312            7 
 1220000     1.056438   -6.2160084     527.5193  0.036032739  0.036184388            5 
 1221000    1.0707787   -6.2570313    527.19258   0.03598093  0.036177422            4 
 1222000    1.0586773   -6.2236695    527.70937  0.035986727  0.036170315            4 
 1223000    1.0530412   -6.2031333    527.05875   0.03591297  0.036163276            5 
 1224000    1.0646362   -6.1995842    526.86278  0.035870287   0.03615633            3 
 1225000    1.0710356   -6.1952059    526.01189  0.035783122  0.036149267            8 
 1226000    1.0450693   -6.1884422    529.52204  0.035992526  0.036142295            3 
 1227000    1.0447092   -6.1904681    529.99143  0.035995071  0.036135342            5 
 1228000    1.0642055   -6.2025169    530.70654  0.036014287  0.036128505            2 
 1229000    1.0708998    -6.220235    530.23607  0.035953083  0.036121576            3 
 1230000    1.0312374   -6.1822952    532.36179  0.036067872  0.036114716            5 
 1231000    1.0543461   -6.2088244    530.98454  0.035945339  0.036107991            5 
 1232000    1.0652039   -6.1834311    532.21131  0.035999142  0.036101418            9 
 1233000    1.0638879   -6.1944466    531.80278  0.035942334  0.036094892            8 
 1234000    1.0577433   -6.2282768    531.66595  0.035903967  0.036088292            8 
 1235000    1.0697847    -6.203473    532.03089   0.03589952  0.036081761            8 
 1236000    1.0695069     -6.22453    535.09973  0.036077382  0.036075393            7 
 1237000    1.0474021   -6.2337494    535.76534  0.036093057  0.036069098            5 
 1238000    1.0484607   -6.2024729      536.005  0.036080035   0.03606271            6 
 1239000    1.0712043   -6.1819947    535.31866  0.036004753  0.036056442           11 
 1240000    1.0433784   -6.2431484      534.745  0.035937164  0.036050072            4 
 1241000    1.0649657   -6.1946205    534.89601  0.035918346  0.036043823            3 
 1242000    1.0355847   -6.2249502    535.47631  0.035928362  0.036037505            4 
 1243000    1.0589436   -6.2111361    538.00008  0.036068656  0.036031411            4 
 1244000     1.052769   -6.2060737    538.13859  0.036048941  0.036025323            4 
 1245000       1.0262   -6.2132283    538.32465   0.03603244  0.036019185            4 
 1246000    1.0563335   -6.2147444    537.93851  0.035977696  0.036012771            5 
 1247000    1.0177052   -6.1869073    536.40702    0.0358465  0.036006478            4 
 1248000    1.0503661   -6.2094304    536.71884  0.035838598  0.035999998            6 
 1249000    1.0580726   -6.2150219    538.46792  0.035926603  0.035993556            7 
 1250000    1.0518433   -6.2099493    539.00324   0.03593355    0.0359874            8 
 1251000    1.0306527   -6.1896414    538.88704  0.035897085  0.035981007            4 
 1252000    1.0626186    -6.238773     537.8571   0.03579986  0.035974457           14 
 1253000    1.0523077   -6.2124754    539.19943  0.035860563  0.035967608            4 
 1254000    1.0404094   -6.2275688    538.08204  0.035757711  0.035960901            3 
 1255000    1.0508292   -6.2087699    539.85235   0.03584677  0.035954149            5 
 1256000    1.0540975   -6.2162201    539.58505  0.035800494  0.035947581            3 
 1257000    1.0306865    -6.217505    539.08023  0.035738546  0.035940771            7 
 1258000    1.0462985    -6.211111    541.11134  0.035844684  0.035933954            3 
 1259000    1.0639064   -6.2132478    540.94427  0.035805154  0.035927264            2 
 1260000    1.0495054   -6.1634974    541.59979  0.035820092  0.035920396            5 
 1261000    1.0454361   -6.2357244    540.88598  0.035744514  0.035913521           10 
 1262000    1.0545154   -6.2220442    538.92835  0.035586922  0.035906579            4 
 1263000    1.0538654   -6.2452389    540.11453   0.03563701  0.035899463            5 
 1264000    1.0634154   -6.2328863    540.65144  0.035644214  0.035892336            4 
 1265000    1.0603489   -6.1906826     542.3852   0.03573025    0.0358853            3 
 1266000    1.0501991   -6.2264634    542.44175   0.03570575  0.035878413            5 
 1267000      1.05122   -6.2158675    543.28406  0.035732969  0.035871355            3 
 1268000    1.0720349   -6.2115844    541.32917  0.035576313  0.035864287            4 
 1269000    1.0409419   -6.2197035    543.56139  0.035694864  0.035857148            8 
 1270000       1.0481   -6.1888353    543.90213  0.035689116  0.035850042            3 
 1271000    1.0699413   -6.2254819    543.60292  0.035641419  0.035842942           16 
 1272000    1.0154623   -6.1932339    544.67117  0.035683384  0.035835837            4 
 1273000     1.054448    -6.176116    544.61407  0.035651615  0.035829035            4 
 1274000    1.0463495   -6.2443779    544.20221  0.035596691  0.035822051            5 
 1275000    1.0364021   -6.2071614    545.49883  0.035653518  0.035814969            5 
 1276000    1.0297316   -6.2339822    544.94401  0.035589342  0.035807983            6 
 1277000    1.0513577   -6.2304074    545.49854   0.03559766   0.03580103            3 
 1278000    1.0646002   -6.2481327    544.76503  0.035521976  0.035793865           12 
 1279000    1.0496155   -6.2406491    546.06486  0.035578894  0.035786627            8 
 1280000    1.0198272   -6.1988781    544.58383  0.035454677  0.035779535            7 
 1281000    1.0552909   -6.2374451    546.79505  0.035570846  0.035772425            4 
 1282000    1.0633838   -6.2224976    547.10938  0.035563532  0.035765336            4 
 1283000    1.0487841   -6.1791282    548.64035  0.035635253   0.03575822            2 
 1284000    1.0353138   -6.2116487    547.94241  0.035562202  0.035751144            4 
 1285000    1.0258449   -6.2329677    547.94274  0.035534548  0.035744139            5 
 1286000    1.0531655   -6.2337502    549.82657   0.03562899  0.035737046            5 
 1287000    1.0676071   -6.2368782     549.5046  0.035580458  0.035729907           15 
 1288000    1.0491385   -6.2062345    549.61183  0.035559772  0.035722929            4 
 1289000    1.0686556   -6.2097648    549.70804  0.035538404  0.035715961           10 
 1290000    1.0390706   -6.2022133    550.14266  0.035538932  0.035709116            5 
 1291000    1.0457551   -6.2336755    551.47014  0.035597091  0.035702266            5 
 1292000     1.031518   -6.2153399    552.06637  0.035607996  0.035695538            3 
 1293000    1.0588253   -6.2168119    551.70123  0.035556924  0.035688976            8 
 1294000    1.0565841   -6.1995353    552.99878  0.035613007  0.035682598            4 
 1295000    1.0570822   -6.2085955      553.594  0.035623809  0.035676064            4 
 1296000    1.0519051   -6.2283994    552.69395  0.035538448   0.03566956            5 
 1297000    1.0500631   -6.2553635    552.37629  0.035490638  0.035662768            5 
 1298000    1.0415027   -6.2211633    553.50834  0.035535975  0.035656032            4 
 1299000    1.0445049   -6.2454646     552.1223  0.035419701  0.035649208            8 
 1300000     1.061295   -6.2261952    555.94384  0.035637425  0.035642608            6 
 1301000    1.0240752   -6.2311212    554.09457  0.035491582  0.035635904            5 
 1302000    1.0396311   -6.2326653    553.83511  0.035447716  0.035629203            9 
 1303000    1.0442677   -6.2425654    556.14524  0.035568256    0.0356227            9 
 1304000    1.0258219   -6.1914844    554.75896  0.035452387  0.035616121            4 
 1305000    1.0565727   -6.2521465    553.68761  0.035356808  0.035609367            3 
 1306000    1.0442421     -6.24855    555.50752   0.03544586  0.035602314            9 
 1307000    1.0418817   -6.2237431    556.21285  0.035463712  0.035595211           11 
 1308000    1.0551503   -6.2323002    554.61195  0.035334604  0.035588247            4 
 1309000    1.0437607   -6.2471099    555.14749  0.035341704   0.03558114            7 
 1310000    1.0506099   -6.2212665    555.60494  0.035343826  0.035573953            5 
 1311000    1.0354669   -6.2448969    555.20435  0.035291403  0.035566629            7 
 1312000    1.0580094   -6.2568283    555.73641  0.035298299  0.035559377            3 
 1313000    1.0216396   -6.2535484    555.96063  0.035285645  0.035552087            9 
 1314000    1.0383232   -6.2389687    555.14308  0.035206943   0.03554472            4 
 1315000    1.0418589   -6.2193192     558.0139  0.035362097  0.035537455            7 
 1316000     1.039292   -6.2225377    557.68038  0.035314107  0.035530436            2 
 1317000    1.0491804   -6.2443591    557.91441  0.035302102  0.035523212            8 
 1318000    1.0269226   -6.2247507    557.66499  0.035259547  0.035516022            6 
 1319000     1.040694   -6.2252582    558.24841  0.035269675  0.035509024            5 
 1320000    1.0419468   -6.1972078    559.57355  0.035326613  0.035502131           11 
 1321000    1.0335509   -6.2368173    560.49296   0.03535787   0.03549541            4 
 1322000    1.0471982   -6.2462156    561.04776  0.035366097  0.035488671            6 
 1323000    1.0354322   -6.2429285    561.05898  0.035340072  0.035481923            4 
 1324000    1.0264749   -6.2212837    562.84538  0.035425817   0.03547537            3 
 1325000    1.0374624   -6.2455518    560.71113  0.035264851   0.03546859            6 
 1326000     1.049125   -6.2007669    562.95513  0.035379282  0.035461725            4 
 1327000    1.0305245   -6.2270777    562.84271  0.035345561  0.035455031            6 
 1328000    1.0463706   -6.2676065    562.09433  0.035271984  0.035448305            5 
 1329000    1.0358495   -6.2133359    565.04113  0.035430219  0.035441624            8 
 1330000    1.0405526   -6.2482986    563.41908  0.035301947  0.035435045            4 
 1331000    1.0262541   -6.2291744    565.08228  0.035379557  0.035428446            4 
 1332000     1.049034     -6.20521    564.71865  0.035330246  0.035421746            5 
 1333000    1.0297772   -6.2435722    564.34899  0.035280632  0.035415157            7 
 1334000    1.0405185   -6.2581687    563.08312  0.035175108  0.035408375            4 
 1335000    1.0332311   -6.2097388    566.03988  0.035333326  0.035401766            4 
 1336000    1.0607351   -6.2361964    566.09077  0.035310053  0.035395263            5 
 1337000    1.0457874   -6.2159172    566.60522  0.035315708  0.035388683            3 
 1338000    1.0355896   -6.2273412    566.97915  0.035312602  0.035382234            4 
 1339000     1.044129   -6.2456368    566.30262  0.035244126  0.035375664            4 
 1340000    1.0474013   -6.1973301    566.85634   0.03525226  0.035368958            5 
 1341000    1.0433373   -6.2313729    567.88205  0.035289712  0.035362316            6 
 1342000    1.0200025   -6.2314235    567.18654  0.035220227  0.035355648            6 
 1343000    1.0254121    -6.233682    569.04771  0.035309488   0.03534906            9 
 1344000    1.0439102   -6.2394756    568.20858  0.035231187  0.035342239            3 
 1345000    1.0688954     -6.23664    567.78701  0.035178873  0.035335638            4 
 1346000    1.0199827   -6.1807187    569.72396  0.035272657  0.035328867            7 
 1347000    0.9952903   -6.2181642    568.84866   0.03519232  0.035322385            4 
 1348000    1.0354975   -6.2507759    570.45168  0.035265312  0.035315681            3 
 1349000    1.0194998    -6.226842    570.60563   0.03524868  0.035309189            3 
 1350000    1.0311432   -6.1892732    571.48382  0.035276779  0.035302783            5 
 1351000    1.0422763   -6.2313504    573.74059  0.035389871  0.035296235            5 
 1352000    1.0347697   -6.2211523     572.0288  0.035258186  0.035289852            7 
 1353000    1.0461569   -6.2396506    570.91796  0.035163708  0.035283398           10 
 1354000    1.0452815   -6.2523413    572.90743  0.035260182   0.03527696            4 
 1355000    1.0356361   -6.2276277    572.75516  0.035224795  0.035270663            6 
 1356000    1.0664059   -6.2098194    574.32526  0.035295308   0.03526434            7 
 1357000    1.0274255   -6.2269826    572.99269  0.035187466  0.035258099            3 
 1358000    1.0369488   -6.2602942    573.49208  0.035192199  0.035251721            5 
 1359000    1.0204011   -6.2347479    574.02696  0.035199102   0.03524539            7 
 1360000    1.0334282   -6.2474884    573.21883  0.035123703  0.035239127           15 
 1361000     1.054411   -6.2210665    574.79627  0.035194481  0.035232756            5 
 1362000    1.0462463   -6.2515916    574.92915  0.035176771  0.035226387            4 
 1363000    1.0546697   -6.2681298    575.02612  0.035156892   0.03522016           14 
 1364000    1.0405155    -6.236129     574.3945  0.035092528  0.035213722            6 
 1365000    1.0429876   -6.2400371    574.69402  0.035085105  0.035207298            5 
 1366000     1.058058   -6.2619703    575.87368  0.035131386  0.035200897            5 
 1367000    1.0371813   -6.2611608    576.34968  0.035134704  0.035194452            8 
 1368000    1.0518684   -6.2539343    576.55782    0.0351217  0.035187867            6 
 1369000    1.0363799   -6.2288364    576.15333  0.035071422  0.035181296            7 
 1370000    1.0261887   -6.2434336    577.92537  0.035153612  0.035174848            6 
 1371000    1.0277448   -6.2529459    578.05359  0.035135764  0.035168395            5 
 1372000    1.0411907   -6.2418541    578.82779  0.035157178  0.035162044            5 
 1373000    1.0435403   -6.2573097    580.83877  0.035253628   0.03515566            6 
 1374000    1.0440196   -6.2514861    578.93238  0.035112347  0.035149261            5 
 1375000    1.0384105   -6.2664762    579.21895  0.035104179  0.035142645            6 
 1376000    1.0181984   -6.2541366     578.0986  0.035010816  0.035136141            6 
 1377000    1.0533743   -6.2569685    579.79909  0.035088301  0.035129541           18 
 1378000     1.011592    -6.275523    577.60086  0.034929902  0.035122856            8 
 1379000    1.0582592   -6.2756837     579.8936  0.035043123  0.035116035            5 
 1380000    1.0157681   -6.2736417    579.89529  0.035017831  0.035109333            6 
 1381000    1.0352282   -6.2641357    581.04392  0.035061786  0.035102574            6 
 1382000    1.0255622    -6.258865    580.54891  0.035006567   0.03509583            5 
 1383000    1.0259253   -6.2411759    579.54927  0.034921021  0.035089159            6 
 1384000    1.0222546    -6.223248    580.84346  0.034973715  0.035082485           11 
 1385000    1.0266462   -6.2656115    579.19616  0.034849348  0.035075815            7 
 1386000    1.0284081   -6.2620557    581.70461  0.034975025  0.035069109            7 
 1387000    1.0248638   -6.2830263    580.48363   0.03487645  0.035062343            6 
 1388000    1.0304783   -6.2751837    581.71159  0.034925047  0.035055553            9 
 1389000    1.0374478   -6.2327587    582.99838  0.034977105   0.03504878            5 
 1390000    1.0339925   -6.2688499    581.65539  0.034871426  0.035042023            4 
 1391000    1.0431476   -6.2449045    584.13304  0.034994791  0.035035371            7 
 1392000   0.99822191   -6.2904539    581.16818  0.034792156  0.035028581            7 
 1393000    1.0238261   -6.2427424    581.73396  0.034801027  0.035021715           12 
 1394000      1.01706   -6.2848503     582.3694  0.034814048  0.035014862            9 
 1395000    1.0275965   -6.2868587    583.10189  0.034832849  0.035007978            6 
 1396000    1.0324178    -6.251624    582.40198  0.034766116  0.035001128            4 
 1397000    1.0305039   -6.2677156    585.09686  0.034901984  0.034994228            4 
 1398000    1.0324661   -6.2588482    584.10336  0.034817797   0.03498732            5 
 1399000    1.0399801   -6.2312119    584.91717  0.034841385  0.034980442            9 
 1400000     1.035843   -6.2917609    584.47765  0.034790336  0.034973813            7 
 1401000    1.0323081   -6.2499628    584.49537  0.034766558  0.034966889            7 
 1402000    1.0394793   -6.2505521    585.13303  0.034779662  0.034960091            8 
 1403000    1.0480806   -6.2610566    586.78381  0.034852923  0.034953351            5 
 1404000    1.0195392   -6.2400858    585.23911  0.034736414  0.034946504            4 
 1405000    1.0258755   -6.2327283    585.38926  0.034720597  0.034939774            5 
 1406000    1.0258333   -6.2523459    587.36784  0.034813172  0.034932886            6 
 1407000     1.008501   -6.3101938    586.51492  0.034737913  0.034925787            8 
 1408000    1.0304903    -6.258949    586.73184   0.03472608  0.034918865            4 
 1409000       1.0415   -6.2744526    586.76759  0.034703548  0.034911998            7 
 1410000    1.0181513   -6.2736739      586.303  0.034651478  0.034905075            8 
 1411000    1.0409693   -6.2617721    588.53902  0.034758978  0.034898096            4 
 1412000    1.0416244   -6.2669261    588.78746  0.034749024  0.034891167            4 
 1413000    1.0364614   -6.2713828    588.78641  0.034724369  0.034884142            7 
 1414000    1.0319876    -6.225405    588.35677  0.034674491  0.034877122            9 
 1415000   0.99813685   -6.2662607    588.11648  0.034635835  0.034869997            4 
 1416000    1.0126652    -6.227054    589.94638  0.034719067  0.034862919            4 
 1417000    1.0155263   -6.2717195    590.04055  0.034700103  0.034855892            4 
 1418000    1.0170846   -6.2525779    590.95875  0.034729593  0.034848991            4 
 1419000    1.0348343   -6.2235542    591.30707  0.034725574  0.034842024            7 
 1420000    1.0247236    -6.282403    590.55176  0.034656793  0.034835018            3 
 1421000    1.0268027   -6.2402225    588.98111  0.034540295  0.034827873            5 
 1422000    1.0236462   -6.2849842    590.52806  0.034606661  0.034820739            4 
 1423000    1.0114002   -6.2847982    591.40161  0.034633498  0.034813625            6 
 1424000    1.0169164   -6.2614613     590.3353  0.034546776  0.034806644            7 
 1425000   0.99078267   -6.2546136    592.43138   0.03464511  0.034799508            6 
 1426000    1.0035682    -6.255173    591.52496  0.034567845  0.034792445            2 
 1427000    1.0164767   -6.2618575    591.21629  0.034525595  0.034785265            4 
 1428000    1.0155587   -6.3001037    591.72653  0.034531193  0.034778007           11 
 1429000    1.0450993   -6.2598039    592.93161  0.034577304  0.034770842            6 
 1430000     1.030354   -6.2397831    593.61948   0.03459321  0.034763626            3 
 1431000    1.0171064   -6.2588373    593.73539  0.034575786  0.034756393            3 
 1432000    1.0389589   -6.2690709    593.58402  0.034542832  0.034749109            4 
 1433000    1.0157347   -6.2683118    592.32464   0.03444549  0.034741729            8 
 1434000    1.0358391   -6.2472871    593.53361  0.034491725    0.0347343            9 
 1435000    1.0363143   -6.2695163    594.00536  0.034495085  0.034726742            4 
 1436000    1.0202752   -6.2645502    592.93362  0.034408868    0.0347193            7 
 1437000    1.0116036   -6.2540293    594.95842  0.034502344   0.03471185            6 
 1438000     1.010722   -6.2531478    593.91869  0.034418097  0.034704482            8 
 1439000    1.0120906   -6.2653227    593.50449  0.034370193  0.034697009            4 
 1440000    1.0417139   -6.2537889    596.82017  0.034538204  0.034689583            4 
 1441000    1.0098413   -6.2922706    595.12927  0.034416451  0.034682057            7 
 1442000    1.0210837   -6.2920237    594.81898  0.034374652  0.034674478            5 
 1443000    1.0262702   -6.2823447    596.05951  0.034422471  0.034666926            4 
 1444000    1.0230888   -6.2803042    594.49202  0.034308173  0.034659514            4 
 1445000    1.0207204   -6.2580635    595.75859  0.034357474  0.034652164            3 
 1446000    1.0374661   -6.2918213    597.63872  0.034442065  0.034644913            4 
 1447000    1.0127243   -6.2619488    597.57874  0.034414809  0.034637638            7 
 1448000    1.0085436   -6.3080384    597.51655  0.034387462  0.034630118            4 
 1449000    1.0047822   -6.2526528    596.85648  0.034325769  0.034622718            3 
 1450000    1.0366696   -6.2568764    597.37676  0.034331998  0.034615285            3 
 1451000    1.0141089    -6.278929    595.70799  0.034212496  0.034607735            5 
 1452000    1.0059543   -6.2622841    597.83105  0.034310781  0.034600318           12 
 1453000    1.0300075   -6.2565847    598.96739  0.034352339  0.034592887           11 
 1454000    1.0083946   -6.2437045    596.81018  0.034205077  0.034585378           10 
 1455000    1.0229055   -6.2713638    598.32136  0.034268119  0.034577883            8 
 1456000    1.0250424    -6.233148    599.76743  0.034327348  0.034570462            3 
 1457000    1.0350028   -6.2610859    601.89981   0.03442575  0.034563108            7 
 1458000    1.0028691   -6.2561304    601.20626  0.034362498  0.034555807            4 
 1459000    1.0033367   -6.2506566    601.70302  0.034367319  0.034548489            4 
 1460000     1.014304   -6.2667361    600.02754  0.034248147  0.034541092            3 
 1461000    1.0157006   -6.2607094    602.32134  0.034355541  0.034533734            5 
 1462000    1.0268111   -6.2751753    603.34162  0.034390197  0.034526499            5 
 1463000   0.99508682   -6.2731034    601.66439  0.034271155  0.034519239            4 
 1464000    1.0251841   -6.3106865    603.39695  0.034346366  0.034511827           11 
 1465000    1.0347499   -6.2987948    601.95806  0.034241073  0.034504531            4 
 1466000    1.0169839   -6.2555239    601.68965  0.034202458  0.034497081            9 
 1467000    1.0106415   -6.2286727    603.94508  0.034307264  0.034489787            4 
 1468000    1.0247623   -6.2572801    602.78214  0.034217878  0.034482477            5 
 1469000    1.0157645   -6.2509807    601.46633  0.034119942   0.03447512            6 
 1470000    1.0011074   -6.2849603     602.6373  0.034163113  0.034467599            7 
 1471000    1.0211957   -6.2757895    603.66572  0.034198149  0.034460065            7 
 1472000    1.0221651   -6.2730824    603.30739   0.03415463  0.034452629            3 
 1473000    1.0214949   -6.2527635    603.49139  0.034141853  0.034445017            6 
 1474000     1.021008   -6.2823145    603.54757  0.034121866  0.034437362            5 
 1475000     1.030533   -6.2528604    604.51632  0.034153464  0.034429796            5 
 1476000    1.0102097    -6.279589    605.27144  0.034172959  0.034422263            4 
 1477000   0.99670714   -6.2685098    605.03091  0.034136251  0.034414588           10 
 1478000    1.0101566    -6.298727    604.95242  0.034108729  0.034406985            4 
 1479000    1.0217756   -6.2551301    607.38174  0.034222546   0.03439947            8 
 1480000    1.0251415   -6.2404903     606.4497  0.034146942  0.034392041            4 
 1481000    1.0274748   -6.2828263    606.11836  0.034105242  0.034384699            5 
 1482000    1.0115545   -6.2713226    609.16792  0.034253707  0.034377363            5 
 1483000    1.0285965   -6.3002214    607.28833  0.034124991  0.034369847            6 
 1484000    1.0136278   -6.2766263    607.46327  0.034111819  0.034362381            5 
 1485000     1.031559   -6.2647372     607.8298  0.034109416  0.034354877            3 
 1486000    1.0118812   -6.3000554     606.0825  0.033988476  0.034347547            7 
 1487000    1.0094146   -6.2688123    607.74516  0.034058796  0.034340068            3 
 1488000    1.0034684   -6.2598247    610.19449  0.034173078   0.03433267            5 
 1489000     1.025479   -6.2577566    609.50419  0.034111495  0.034325105            3 
 1490000    1.0147837   -6.2895531    607.32982  0.033966992  0.034317544           12 
 1491000    1.0149464   -6.2707584    610.44329  0.034118225   0.03430995           12 
 1492000    1.0352972    -6.316434    607.20219  0.033914331  0.034302315            3 
 1493000    1.0028508   -6.2792848    607.33602  0.033899086  0.034294702            5 
 1494000    1.0115198   -6.2880811    609.38091  0.033990457  0.034287118            3 
 1495000      1.03167    -6.277437    610.40082  0.034024572  0.034279458           13 
 1496000   0.99245907   -6.2895428    609.72252  0.033964044  0.034271975            5 
 1497000    1.0048644   -6.3012961    608.98325  0.033900203  0.034264255           10 
 1498000    1.0158703   -6.2877744    609.94928  0.033931313  0.034256471            4 
 1499000    1.0355671   -6.2767977    609.68468  0.033893967  0.034248712            8 
 1500000    1.0187495   -6.2790106    611.85385  0.033991881  0.034240867            7 
 1501000    1.0253041   -6.2734178    610.12901  0.033873474  0.034232993            7 
 1502000    1.0120089   -6.2500156     608.5207   0.03376169  0.034225102            6 
 1503000   0.98928376   -6.2760852    609.33299  0.033784264  0.034217105            4 
 1504000    1.0130337   -6.2991866    610.00648  0.033799118  0.034208951            7 
 1505000    1.0025342   -6.2977803    610.18327  0.033786449  0.034200728            7 
 1506000    1.0354919   -6.3026378    608.12813  0.033650295  0.034192593            8 
 1507000    1.0111187   -6.2869214    610.99284  0.033786377  0.034184402            4 
 1508000    1.0305714   -6.3074716    610.86621  0.033756974  0.034176161            5 
 1509000    1.0095957   -6.2684621    610.51204  0.033715045  0.034167817            4 
 1510000    1.0229427   -6.2941601     611.1172  0.033726115  0.034159537            8 
 1511000    1.0217808   -6.2694513    611.97832  0.033751286  0.034151352            5 
 1512000   0.99075246   -6.3031344    610.83526  0.033665965  0.034143287           13 
 1513000    1.0116658   -6.3300382    610.93376  0.033649139  0.034135197            4 
 1514000    1.0198092   -6.2888847    612.26901  0.033700408  0.034127042            8 
 1515000    1.0193296   -6.3081622    611.02185  0.033609563   0.03411884            9 
 1516000    1.0185187   -6.3040295    612.15771   0.03364983  0.034110477            7 
 1517000    1.0380643   -6.2726572    613.86306  0.033721328  0.034102199            5 
 1518000    1.0164347   -6.2871102    613.05912   0.03365498  0.034094025            7 
 1519000    1.0028583   -6.2993993    612.98764  0.033628903  0.034085786            4 
 1520000    1.0087502   -6.2351666    613.14627  0.033615475  0.034077685            6 
 1521000    0.9939305   -6.2835243    612.95554  0.033582924  0.034069509            6 
 1522000    1.0030521   -6.2948839    611.81691  0.033498517  0.034061352            4 
 1523000    1.0087216    -6.238746    616.93006  0.033756296  0.034053264           13 
 1524000    1.0010307   -6.2782064    613.45261  0.033543997  0.034044965            8 
 1525000    1.0117123   -6.2968874    613.32841  0.033515213  0.034036595           13 
 1526000    1.0016885    -6.275471    613.99193  0.033529485  0.034028285            4 
 1527000     1.007162   -6.2809453    614.51508  0.033536077  0.034019983            4 
 1528000    1.0070227   -6.3259126    614.00146  0.033486118  0.034011545            6 
 1529000    0.9991762   -6.2824951     615.5472  0.033548463  0.034003098            4 
 1530000    1.0154046   -6.2779688    614.28085  0.033457563   0.03399478            4 
 1531000    1.0023363   -6.2533312    615.20827  0.033486189  0.033986568            3 
 1532000    1.0037845   -6.2682838    615.70317  0.033491252  0.033978432            4 
 1533000    1.0172349    -6.300662    617.31123  0.033556818  0.033970214            6 
 1534000   0.99906033   -6.3097997     615.9561  0.033461327  0.033961816            4 
 1535000    1.0280079    -6.269466    613.93215   0.03332965  0.033953343            5 
 1536000    1.0191373   -6.3204894    615.88241  0.033413759  0.033945112           10 
 1537000     0.997667    -6.314083    617.59634  0.033484946  0.033936877            8 
 1538000   0.98406592   -6.2612826    617.77167  0.033472674  0.033928811            9 
 1539000    1.0104038   -6.2865112    617.25397  0.033422892  0.033920709            7 
 1540000   0.99442045   -6.3026675    619.54445  0.033525133  0.033912607            4 
 1541000    1.0129432   -6.3015679    619.60012  0.033506387  0.033904385           12 
 1542000    1.0059549   -6.2952833    619.89652  0.033500676  0.033896449            7 
 1543000    1.0042155   -6.2715793    619.15108  0.033438706   0.03388846            3 
 1544000    1.0129361   -6.2702862    619.45746  0.033433585  0.033880292            4 
 1545000   0.99394566    -6.316835    618.88934  0.033381302  0.033872008            6 
 1546000   0.98875588   -6.3032127    619.69202  0.033402976  0.033863703            5 
 1547000    1.0114734   -6.2712126    619.87728  0.033391364  0.033855358            4 
 1548000    1.0171004   -6.2827918    619.60944  0.033355375  0.033846966            4 
 1549000   0.99302844    -6.302643    619.54319  0.033330277  0.033838451           12 
 1550000   0.97830008   -6.3017936    620.93174  0.033383427  0.033829878            8 
 1551000    1.0153772   -6.2880923    620.73767  0.033351476  0.033821427            9 
 1552000   0.99516269   -6.3014371    619.47153  0.033262002  0.033812994            5 
 1553000    1.0056624   -6.2794244    621.31288  0.033339391  0.033804627            5 
 1554000    1.0036296   -6.2840562    619.58601  0.033225333  0.033796307            4 
 1555000   0.99782761   -6.3336503    620.09417  0.033231199  0.033787934            7 
 1556000    1.0023134   -6.2898285    621.03762  0.033260369   0.03377939            5 
 1557000    1.0014767   -6.2971987    621.89918   0.03328512  0.033770865            3 
 1558000   0.99454612   -6.2862877    622.70462  0.033306837  0.033762369            6 
 1559000   0.99682829   -6.3156713    620.74794  0.033180882   0.03375375            7 
 1560000    1.0134796   -6.3049143    622.78869  0.033268626  0.033745163            7 
 1561000   0.98182184   -6.3320373    620.84136  0.033143357  0.033736475            5 
 1562000    1.0158041   -6.3409192    622.55135  0.033213367  0.033727809            7 
 1563000    1.0385229   -6.3137736    621.12828  0.033116244  0.033719044           13 
 1564000    1.0162904   -6.3428125    621.86381  0.033134261  0.033710175            6 
 1565000   0.97009182   -6.3314688    622.10893  0.033126141   0.03370148            8 
 1566000   0.98786915     -6.30838    622.38612  0.033119738  0.033692769            3 
 1567000    1.0114415   -6.2771138    624.77571  0.033225681  0.033684163            5 
 1568000   0.99679012   -6.2600258    624.58597  0.033194407  0.033675462            6 
 1569000    1.0236185   -6.3147799    622.79012  0.033077869  0.033666724            4 
 1570000    1.0250779    -6.313857    623.17468  0.033077212  0.033657928            9 
 1571000   0.98443572   -6.2991706    621.48467  0.032966511  0.033649033            5 
 1572000    1.0065458   -6.3001822    624.10176  0.033084275  0.033640096            4 
 1573000   0.99256459    -6.321339    622.82246  0.032995468  0.033631317            8 
 1574000    1.0210424   -6.3259963    624.22962  0.033049006  0.033622457            7 
 1575000    1.0092311   -6.2683236    626.42154  0.033143997  0.033613637            8 
 1576000    1.0088172   -6.3012855    623.88097   0.03298863  0.033605056            8 
 1577000   0.99562943   -6.3130782    624.12791   0.03298076  0.033596324            4 
 1578000   0.99653869   -6.3615465     623.8562  0.032945511  0.033587532            9 
 1579000    0.9819329   -6.2944895     624.6992  0.032969137  0.033578572            6 
 1580000   0.99407725   -6.2944941    625.51604  0.032991352   0.03356962            8 
 1581000   0.98181847   -6.2824535    626.97738  0.033047511  0.033560842            6 
 1582000    1.0124842   -6.2966628    627.83789   0.03307195  0.033551993            4 
 1583000   0.98765207   -6.3145853    626.35729  0.032973115  0.033543269            5 
 1584000   0.99908134     -6.30129     626.4312  0.032956187  0.033534434           10 
 1585000    1.0053726    -6.288836    628.05513  0.033020774  0.033525607           13 
 1586000   0.98518038   -6.3104258    624.12082  0.032793233  0.033516812            5 
 1587000   0.97708997   -6.3115092    627.13205  0.032930689  0.033507929            5 
 1588000   0.99405376   -6.3315093    627.33302  0.032920498  0.033499077            5 
 1589000    1.0107459    -6.313131    627.01657  0.032883185  0.033490266            8 
 1590000   0.99549795   -6.3239063    630.07272  0.033022679  0.033481518            7 
 1591000   0.99125678   -6.3195569    627.65845  0.032875469  0.033472822            9 
 1592000    1.0124882   -6.3222249    627.26998  0.032834484  0.033464041            4 
 1593000    1.0051202   -6.3277933    627.85054  0.032844242  0.033455163            8 
 1594000   0.98627732   -6.3087857    629.75249   0.03292307  0.033446369            6 
 1595000   0.99765729   -6.3110083      628.901  0.032857941  0.033437555            7 
 1596000   0.99161862   -6.2899629    629.85821  0.032887334  0.033428767            9 
 1597000    0.9769339   -6.3359617    630.32766  0.032891236  0.033420055            4 
 1598000   0.99352848   -6.3282155    628.89417  0.032795899  0.033411261            6 
 1599000   0.97839949   -6.3328021    627.94047  0.032725686  0.033402363            8 
 1600000   0.99186385   -6.3109188    629.28525  0.032775274  0.033393474            7 
 1601000   0.97418896   -6.3092036      629.647  0.032773631  0.033384663            9 
 1602000    0.9979488   -6.3140537     631.7411  0.032862104  0.033375935            6 
 1603000   0.98202755   -6.2928702     634.5878  0.032989592  0.033367233            8 
 1604000    1.0065855   -6.2824028    631.77596  0.032822941   0.03335857           12 
 1605000    1.0097036   -6.3173628    631.51277  0.032788825  0.033349886           10 
 1606000   0.99828283   -6.2924942    632.28772   0.03280862  0.033341246            4 
 1607000    1.0108005   -6.3137106    632.83069   0.03281636  0.033332628            4 
 1608000   0.98483204   -6.3212153    633.43803  0.032827427  0.033323889            6 
 1609000   0.97910085   -6.3266459    633.64251  0.032817615   0.03331526            6 
 1610000    1.0001731   -6.3621342    634.65737   0.03284976  0.033306732           12 
 1611000   0.99356592   -6.3262957    634.70604  0.032831887  0.033298179           14 
 1612000   0.99316941   -6.3176617     635.7537  0.032865679  0.033289677            5 
 1613000   0.98757089   -6.2895633    636.14983  0.032865769  0.033281196            7 
 1614000    1.0040379   -6.3190621    633.62542  0.032715067   0.03327256            2 
 1615000    0.9919584   -6.3118676    634.62755   0.03274652  0.033263912            5 
 1616000   0.99924549   -6.3136848    636.08042  0.032801177  0.033255393            8 
 1617000   0.98636561   -6.3229862    635.27429  0.032739347  0.033246752            6 
 1618000   0.99003363    -6.287032    634.52691   0.03268062  0.033238169           11 
 1619000    1.0098401   -6.2973408     635.5908  0.032715194  0.033229579            4 
 1620000    1.0035031   -6.3082406    634.84289  0.032656527  0.033220884            4 
 1621000    1.0176025   -6.3037617    636.65814  0.032729701  0.033212211            5 
 1622000    1.0019863   -6.3406506     636.4822  0.032700483  0.033203654            7 
 1623000   0.99909482   -6.2805358    637.60261  0.032737862  0.033195136            7 
 1624000    0.9682251   -6.3119707    638.85413  0.032781924  0.033186611           14 
 1625000   0.99704901   -6.3437343    636.63275  0.032647833  0.033178042            5 
 1626000    0.9710862   -6.3286147    635.46528  0.032567921  0.033169339            4 
 1627000   0.99010239   -6.2983447    637.33113  0.032643471  0.033160708            9 
 1628000    0.9877687   -6.3402841    636.11873   0.03256136  0.033151996            9 
 1629000    1.0031073   -6.2933813    638.89425  0.032683356  0.033143418            5 
 1630000   0.97634808   -6.3316942    637.92394  0.032613698  0.033134864            4 
 1631000   0.98876675   -6.3170047    639.25488  0.032661704  0.033126273            9 
 1632000   0.99667017   -6.3287133    638.22338  0.032589021  0.033117619            7 
 1633000    1.0044394   -6.2877229    638.34545  0.032575294  0.033108963            5 
 1634000   0.98105478   -6.3169892    638.29833  0.032552954  0.033100228            8 
 1635000   0.97992888   -6.3308344    638.04744  0.032520257  0.033091393           10 
 1636000   0.98571165   -6.3332458    638.26394  0.032511407  0.033082612            5 
 1637000    0.9765321   -6.3046379    638.80158  0.032518916  0.033073787           17 
 1638000      1.01051   -6.3275515    639.44718  0.032531908  0.033065034            6 
 1639000   0.99900296   -6.3024601    639.92124  0.032536162  0.033056149            4 
 1640000    1.0187573   -6.3478859    639.30728  0.032485126  0.033047304            2 
 1641000    1.0313968   -6.3273301    639.55103  0.032477708  0.033038353            7 
 1642000   0.98889507   -6.3068993    639.61245  0.032461046  0.033029541            8 
 1643000   0.98933254   -6.3209747    639.16445  0.032418566  0.033020565            6 
 1644000   0.99636301   -6.3673464    639.29382  0.032405404  0.033011613            8 
 1645000   0.97212117     -6.34045      639.868  0.032414792  0.033002627            7 
 1646000    0.9994423   -6.3386488    639.73943   0.03238859  0.032993699            5 
 1647000   0.98646493   -6.3020242    641.94108  0.032480322  0.032984894           10 
 1648000    1.0095456   -6.3220858    641.25587  0.032425964  0.032976092            3 
 1649000   0.97570394   -6.3712978    640.85147  0.032385864  0.032967269            8 
 1650000   0.97958876   -6.3447136    641.98097  0.032423281  0.032958318            5 
 1651000   0.98518518   -6.3517513    641.67965  0.032388434  0.032949321            4 
 1652000   0.95905128   -6.3483763    641.43464  0.032356469  0.032940281            7 
 1653000    1.0001209   -6.3313612    640.43005  0.032286249  0.032931328            5 
 1654000   0.98513324   -6.3184872    643.73587  0.032433286  0.032922397            4 
 1655000   0.98254379   -6.3212398    641.88291  0.032320388  0.032913521           16 
 1656000    1.0107907   -6.3572796    643.07809  0.032361015  0.032904697           11 
 1657000   0.98051524    -6.334114    642.33553   0.03230414  0.032895791            5 
 1658000   0.99628894   -6.3285414    641.86776  0.032261146  0.032886929            4 
 1659000   0.97400592   -6.3519363    642.91326  0.032294216  0.032878238           17 
 1660000   0.97861703   -6.3204374     645.1602   0.03238756  0.032869484            4 
 1661000   0.99000072   -6.3144392    644.63734  0.032341829  0.032860728            3 
 1662000   0.98437483   -6.3110807     643.1376  0.032247172  0.032852031            6 
 1663000   0.97798398   -6.3258208     646.1468  0.032378573  0.032843481            8 
 1664000   0.94965302   -6.3071947    645.65169  0.032334319  0.032834827            6 
 1665000    1.0166765   -6.3244311    646.44112  0.032354411  0.032826245            4 
 1666000   0.97744221   -6.3243464    647.25733  0.032375817  0.032817671            6 
 1667000   0.97665206   -6.2981777     645.7883  0.032282958  0.032809066            7 
 1668000   0.97699666     -6.33226    646.78207  0.032313253  0.032800386           11 
 1669000   0.97838593   -6.3504856    645.89228  0.032249465  0.032791801            9 
 1670000   0.96794962   -6.3586147    646.34874  0.032252931   0.03278305            7 
 1671000   0.96969118   -6.3687811    646.70595  0.032251444  0.032774305            7 
 1672000   0.98717925    -6.333763    647.80178  0.032286771  0.032765718            5 
 1673000   0.97943246   -6.3207884    647.84902  0.032269825  0.032757274            4 
 1674000    0.9869257   -6.3512927    648.07454  0.032261775  0.032748717            3 
 1675000   0.98385668   -6.3230985    648.19006  0.032248262  0.032740117            7 
 1676000   0.99478139   -6.3162347    648.18968  0.032229001  0.032731569            9 
 1677000   0.99298876   -6.3404742    648.13547  0.032207089  0.032722938            6 
 1678000    0.9858482    -6.316677    648.64383  0.032213142  0.032714289            7 
 1679000   0.99328435    -6.329311    647.84616  0.032154366  0.032705633           10 
 1680000    1.0116458   -6.2972252    649.61314  0.032222874  0.032697144            6 
 1681000   0.98990707   -6.3218912    649.36103  0.032191207  0.032688748           13 
 1682000   0.99857728   -6.3658439     651.1828  0.032262327  0.032680223            6 
 1683000   0.99783052   -6.3374813    650.30322  0.032199605  0.032671687            4 
 1684000   0.97916568   -6.3504509    651.66399  0.032247822  0.032663256            4 
 1685000   0.99764372   -6.3235343    650.19745  0.032156155  0.032654933            9 
 1686000   0.94861212   -6.3336531    649.63796  0.032109429  0.032646466            7 
 1687000   0.99583982    -6.345907    649.24411   0.03207094  0.032637861            8 
 1688000   0.98172477   -6.3456393    652.07516  0.032191704  0.032629247            8 
 1689000   0.97842252   -6.3671502     651.0942  0.032124245   0.03262069            7 
 1690000   0.97830388   -6.3633448    651.59239  0.032129802  0.032612195            4 
 1691000    0.9750085   -6.3418096    651.44671  0.032103623  0.032603521           13 
 1692000   0.98277009   -6.3577528    651.58344  0.032091383  0.032594949            6 
 1693000   0.97276335   -6.3257656    652.61202  0.032123057  0.032586471            5 
 1694000   0.98954147   -6.3098343    653.41949  0.032143816  0.032577992           12 
 1695000   0.96507647   -6.3444315    654.39077  0.032172604  0.032569552           10 
 1696000   0.97440762   -6.3261513    655.01085  0.032184102  0.032561192            6 
 1697000   0.96969622   -6.3423686    655.09884  0.032169458  0.032552899            5 
 1698000    1.0049712   -6.3688481    654.05701  0.032099382  0.032544626            6 
 1699000    0.9554186    -6.342878     656.0324  0.032177379  0.032536397            3 
 1700000   0.99305478   -6.3303165    655.70938  0.032142617  0.032528103            6 
 1701000   0.97745687   -6.3272634    657.78456  0.032225385  0.032519849            7 
 1702000   0.97940583   -6.3328901    656.78078  0.032157304  0.032511591            4 
 1703000    0.9812689   -6.3352057    656.77946  0.032138357  0.032503388            4 
 1704000   0.98057488   -6.3467626    654.50288  0.032008161   0.03249508            4 
 1705000   0.96067774   -6.3359103    655.57415  0.032041747  0.032486845            8 
 1706000   0.97459257   -6.3464588    656.65823   0.03207592  0.032478476            8 
 1707000   0.98730279   -6.3540631    656.63204   0.03205585  0.032470162           13 
 1708000   0.96031137   -6.3684679    656.14393  0.032013267  0.032461776            7 
 1709000   0.98455403    -6.329603     658.4127  0.032105164  0.032453416            5 
 1710000   0.97166657   -6.3549023    656.65053  0.032000513  0.032445002            9 
 1711000   0.96998223   -6.3493687      658.372  0.032065653  0.032436664            8 
 1712000   0.97733463   -6.3222877    659.63042  0.032108178  0.032428385            6 
 1713000   0.97806695   -6.3161251    659.00457  0.032058989  0.032420153            5 
 1714000   0.96059664   -6.3023672    661.01432  0.032137997  0.032411894            6 
 1715000     0.981456   -6.3256263    661.34556  0.032135353  0.032403636            7 
 1716000   0.99462734   -6.3667769    657.27565  0.031918981  0.032395431           10 
 1717000   0.97967358   -6.3493744    660.47515  0.032055676   0.03238728            7 
 1718000   0.97631318   -6.3545074    660.47723  0.032037118  0.032379095           12 
 1719000   0.98343071   -6.3234207    660.89066  0.032038523  0.032370919           11 
 1720000   0.97190174   -6.3544166    659.61546  0.031958114  0.032362724            6 
 1721000   0.98084055   -6.3393919    663.48779  0.032127048  0.032354542           12 
 1722000   0.99325139   -6.3262028    660.92038  0.031984145  0.032346329            5 
 1723000     0.989296   -6.3702795     659.4042  0.031892252  0.032338081            5 
 1724000   0.99520821   -6.3652085    661.32843  0.031966765  0.032329836            6 
 1725000   0.98448033   -6.3872433    660.85464  0.031925345   0.03232157            6 
 1726000   0.99097672   -6.3772463    661.29331  0.031928028  0.032313385            8 
 1727000   0.97095832   -6.3342918    662.00795  0.031944024  0.032305197            8 
 1728000   0.99753881   -6.3622695    662.77199  0.031962384   0.03229696            5 
 1729000   0.98033453   -6.3379839    662.45778  0.031928754  0.032288788            4 
 1730000   0.96862817   -6.3461957    662.83987  0.031928703  0.032280628            9 
 1731000   0.95539319     -6.37452    663.13498  0.031924464  0.032272352            7 
 1732000   0.96727896   -6.3369494    662.34745  0.031868141  0.032264094            7 
 1733000   0.98776784   -6.3329084    661.97898  0.031832034  0.032255859           10 
 1734000   0.97053983   -6.3749399    663.10767  0.031867919  0.032247608            5 
 1735000   0.98488906   -6.3760541    662.97061  0.031842969  0.032239349            7 
 1736000   0.96661087   -6.3623781    663.03927  0.031827922  0.032230989            5 
 1737000   0.98246478   -6.3328109    664.22332  0.031866404  0.032222805           10 
 1738000   0.96608935   -6.3483926    664.63185  0.031867657  0.032214618            3 
 1739000   0.96154744   -6.3400852    663.25366  0.031783288  0.032206467            5 
 1740000   0.96277579    -6.344084    665.18253  0.031857401  0.032198203            6 
 1741000   0.98320529   -6.3353376    665.19756  0.031839822  0.032189999            6 
 1742000   0.96640168   -6.3635765     665.2972  0.031826311  0.032181767            9 
 1743000   0.95269931   -6.3486808    665.07147  0.031797259   0.03217354            7 
 1744000   0.97338334    -6.353831    663.79109  0.031717847  0.032165335            8 
 1745000   0.99331909    -6.353009    664.34378  0.031726064  0.032157083            4 
 1746000   0.97581704   -6.3792897    665.01569  0.031739962  0.032148734           10 
 1747000   0.99211929   -6.3456777    668.53451  0.031889644  0.032140527           10 
 1748000   0.96732074    -6.376354    666.04253    0.0317526  0.032132326            6 
 1749000   0.97263634   -6.3439029    668.04544  0.031829876  0.032124059            4 
 1750000   0.97640263   -6.3337423     665.8169  0.031705567  0.032115725            4 
 1751000   0.98929485   -6.3592784    667.57065  0.031770924  0.032107439            6 
 1752000   0.98576943   -6.3775808    666.83755   0.03171792  0.032099183            5 
 1753000   0.98252811   -6.3690484    665.40499  0.031631726  0.032090927            7 
 1754000    0.9647762   -6.3641009    667.82774  0.031728798  0.032082652            4 
 1755000    0.9684886   -6.3682173    667.21914  0.031681821  0.032074375            5 
 1756000   0.97106668   -6.3751915    666.99241  0.031653019  0.032066098            7 
 1757000   0.96043295   -6.3650424    667.20894  0.031645273  0.032057698            8 
 1758000   0.96708465   -6.3467617    669.13279  0.031718468  0.032049452            6 
 1759000   0.95974163   -6.4247504    666.15775  0.031559492  0.032041008            7 
 1760000   0.96081108   -6.3647307    669.55152   0.03170225  0.032032608           10 
 1761000   0.96860767   -6.3584241    668.52929  0.031635874  0.032024204           20 
 1762000   0.97556945   -6.3703387    668.12477  0.031598788  0.032015779           13 
 1763000   0.99114681   -6.3671933    666.89202  0.031522595  0.032007274            6 
 1764000   0.97649717   -6.3712279    668.78914  0.031594347  0.031998791            9 
 1765000    0.9805413    -6.398792    668.34889   0.03155566  0.031990279            6 
 1766000   0.93681979   -6.3828188    668.02705  0.031522605  0.031981894            7 
 1767000   0.96213815   -6.3706551    669.80999  0.031588851  0.031973418           12 
 1768000   0.97702047   -6.3484249    670.57185  0.031606893  0.031965112            3 
 1769000   0.98362995   -6.3378647    670.40633  0.031581229  0.031956742            4 
 1770000   0.96969956   -6.3678737    668.82887  0.031489118  0.031948321            6 
 1771000    0.9631053    -6.383891    672.01016  0.031621031  0.031939927            8 
 1772000   0.97042682   -6.3401002    669.70038  0.031494562  0.031931453            5 
 1773000   0.94890236   -6.3581591    670.99989  0.031537878  0.031923046            7 
 1774000    0.9886559   -6.3616092    671.57963  0.031547333  0.031914639            5 
 1775000    0.9545184   -6.3785332     670.1353  0.031461751  0.031906197            8 
 1776000   0.96819387   -6.3466992    669.90172  0.031433076  0.031897693            8 
 1777000   0.97646953   -6.3426197    670.33282  0.031435604  0.031889155            6 
 1778000   0.95934937     -6.37057    671.42138  0.031468944  0.031880627            8 
 1779000   0.97232498   -6.3646258     669.9816  0.031383811  0.031872049            7 
 1780000   0.97719789   -6.3542459    671.72584  0.031447839  0.031863483            3 
 1781000   0.97142099   -6.3479489    671.55089  0.031421996  0.031854976           12 
 1782000   0.95372528   -6.3711046    672.26978  0.031437981  0.031846482            3 
 1783000   0.98085005    -6.369071    672.82448  0.031446274  0.031838049            6 
 1784000   0.96033493   -6.3627621    673.92008  0.031479825  0.031829656            6 
 1785000   0.96628023   -6.3507411    673.41998  0.031438841  0.031821377            6 
 1786000   0.95778718   -6.3614038    675.19954  0.031504271  0.031813114            7 
 1787000   0.97927239   -6.3644228     674.0903  0.031434914  0.031804734            7 
 1788000   0.94454288   -6.3728208     673.9337  0.031410035  0.031796242            5 
 1789000   0.98718387   -6.3642045    675.31953   0.03145703  0.031787848            5 
 1790000   0.94835872   -6.3590529    675.51686  0.031448643   0.03177956            5 
 1791000   0.99692772   -6.3630593    675.28846  0.031420457  0.031771209            6 
 1792000   0.97202563   -6.3595886    672.09329  0.031254338  0.031762773            8 
 1793000   0.95665836   -6.3390488    677.16539  0.031472643  0.031754397            5 
 1794000   0.97299194    -6.357568    675.80776  0.031392037  0.031746161            9 
 1795000    0.9227285    -6.346829    675.78129  0.031373319  0.031737864           10 
 1796000   0.95134009   -6.3707227    675.78024  0.031355802  0.031729472            6 
 1797000   0.96037393   -6.3780731    675.51327  0.031325972   0.03172111            4 
 1798000   0.97920032   -6.3396044    676.90751   0.03137317  0.031712748            7 
 1799000   0.97438531   -6.4013307    676.92761  0.031356662  0.031704482            8 
 1800000   0.94948261   -6.3688826    676.54462   0.03132151  0.031696055            5 
 1801000   0.96073813   -6.3827138    677.36837  0.031342235  0.031687701            8 
 1802000   0.96390445   -6.3720246    677.56696  0.031334025  0.031679343            4 
 1803000   0.96589027   -6.3545026    678.39498  0.031354917  0.031671002            6 
 1804000   0.98352203   -6.3684442    676.28835  0.031240223  0.031662826            8 
 1805000   0.97646986   -6.3820692    678.91036  0.031343969  0.031654593            5 
 1806000   0.95337323    -6.368503    679.70024   0.03136306  0.031646388            6 
 1807000    0.9540881   -6.3914645    678.03782  0.031269038  0.031638114           18 
 1808000   0.96925695   -6.3764896    680.01708   0.03134297  0.031629896           15 
 1809000   0.95344469   -6.4124383    678.72552  0.031266147  0.031621622           14 
 1810000   0.96801477   -6.3782405    680.66726  0.031338272  0.031613421           12 
 1811000   0.96256626     -6.39656    680.78648  0.031326453  0.031605245            6 
 1812000   0.94921351   -6.3822095    678.42863  0.031200728  0.031597146            6 
 1813000   0.96121424   -6.3687457    679.76619  0.031244999   0.03158896           11 
 1814000   0.96656964   -6.4081996    679.75896  0.031227442  0.031580713            7 
 1815000   0.97892697    -6.397578    679.08138  0.031179127  0.031572481           17 
 1816000   0.97371735   -6.3787469    680.66389  0.031234576  0.031564272           13 
 1817000   0.97822118    -6.393112    679.45832  0.031162095  0.031556044            5 
 1818000   0.94426662   -6.3711583    681.79654  0.031252133  0.031547797            3 
 1819000    0.9558815   -6.3626309    681.35574  0.031214758  0.031539634            4 
 1820000   0.96061623   -6.3773166      681.699  0.031213324  0.031531473            3 
 1821000   0.96666787   -6.3953781    684.03964  0.031303297  0.031523263           10 
 1822000   0.94829503   -6.3983034    680.05088  0.031103681  0.031514995            9 
 1823000   0.97213548   -6.3833037    681.31647  0.031144472  0.031506704            3 
 1824000   0.97221125   -6.3579758    682.61687  0.031186809  0.031498462            3 
 1825000   0.94969897   -6.3750629    682.22668  0.031151903  0.031490322            4 
 1826000   0.96256311   -6.3678103    683.37971  0.031187464  0.031482149            7 
 1827000   0.95078286   -6.3958546    682.86715  0.031147015  0.031473772            6 
 1828000   0.94301691   -6.3568201    682.59995  0.031117795  0.031465496           10 
 1829000    0.9622754   -6.3704454    684.78254  0.031200225  0.031457406            4 
 1830000   0.94879045   -6.3533079    682.58921  0.031083298   0.03144929            6 
 1831000   0.96972824   -6.3967649    684.19412  0.031139364  0.031441034           10 
 1832000   0.94640854    -6.396584    684.02089  0.031114488  0.031432835            6 
 1833000   0.96245313   -6.3850255    684.27925  0.031109259  0.031424773            7 
 1834000   0.96412339   -6.4019252     685.9288  0.031167248  0.031416807           10 
 1835000   0.96443865   -6.3863511    684.78556  0.031098345  0.031408748            6 
 1836000   0.95304497   -6.3904326    685.56304  0.031116696  0.031400768            4 
 1837000   0.95684231   -6.3894376    689.18239  0.031263944  0.031392784           21 
 1838000   0.97094938   -6.3914453    686.98728   0.03114741  0.031384845           11 
 1839000   0.96952405   -6.3686814    688.22884  0.031186734  0.031376988            5 
 1840000   0.94175515   -6.3916307    688.77491  0.031194516  0.031369167            7 
 1841000   0.96297327    -6.389161    686.13953   0.03105828  0.031361356            9 
 1842000   0.98665795   -6.3978924    687.20875  0.031089791  0.031353471            6 
 1843000   0.92783522   -6.3857653     689.1732  0.031161747  0.031345625            4 
 1844000   0.97288624   -6.3843148     688.2567   0.03110343  0.031337714            6 
 1845000   0.96913973   -6.3508278    691.05563  0.031212991  0.031329852            6 
 1846000   0.96889827   -6.3544825    689.85063  0.031141686  0.031322075            4 
 1847000   0.96040183   -6.3663511    689.77277  0.031121312  0.031314213            5 
 1848000   0.94930319   -6.3702411     690.0679   0.03111778  0.031306375            4 
 1849000   0.95857443   -6.3549317    690.83415  0.031135485  0.031298621            6 
 1850000   0.95219834   -6.3669146    690.60993  0.031108555  0.031290794            6 
 1851000   0.95265707   -6.3958102    690.60628  0.031091585  0.031282972            5 
 1852000   0.97081839   -6.3863603    689.68007  0.031033121  0.031275055            7 
 1853000   0.94023825   -6.4099292    690.20532  0.031039995  0.031267098           11 
 1854000   0.92844616   -6.3990478    691.20799   0.03106832  0.031259249            5 
 1855000   0.95051202   -6.4305278    691.37739  0.031059182   0.03125133            5 
 1856000   0.94731265   -6.3934342    690.58482  0.031006862  0.031243405            3 
 1857000   0.96290631   -6.3815075    690.41191  0.030982405  0.031235454            9 
 1858000   0.95841249   -6.4130514    690.92799  0.030988876   0.03122748            6 
 1859000   0.93780576   -6.4120437    691.10634  0.030980202  0.031219487            7 
 1860000   0.95614219   -6.3684883    692.18757  0.031011988  0.031211507            6 
 1861000   0.93240867   -6.3889883    691.39347  0.030959765  0.031203608            6 
 1862000    0.9485064   -6.4030296    691.54727  0.030950021  0.031195706            7 
 1863000   0.94707705   -6.3734375    692.58831  0.030979975  0.031187749            8 
 1864000   0.95077261    -6.379075    690.67824  0.030877961  0.031179881            7 
 1865000   0.94964144   -6.3651786    692.11009  0.030925384   0.03117193            5 
 1866000   0.96383141   -6.3950462    694.11822  0.030998492  0.031163956            5 
 1867000   0.95128537     -6.41007    691.49331  0.030864725  0.031155958            6 
 1868000    0.9606443    -6.375867    694.66069  0.030989503  0.031148078            7 
 1869000   0.93104895   -6.3931437    693.48273    0.0309204  0.031140218           16 
 1870000   0.95309619   -6.4153464    694.24857  0.030937993   0.03113234            7 
 1871000   0.94779046   -6.3679032    693.36621  0.030882158  0.031124361            4 
 1872000   0.95838986   -6.3873593    691.71544  0.030792176  0.031116419            7 
 1873000   0.94219979   -6.4129336    693.23722  0.030843443  0.031108467           15 
 1874000    0.9485302   -6.3754391     693.5953  0.030842907  0.031100462            7 
 1875000    0.9406864   -6.3548735    695.41126  0.030907167   0.03109253            9 
 1876000   0.95320141   -6.3768506    693.86503  0.030822007   0.03108461            7 
 1877000   0.99314452   -6.4255977    694.14426  0.030817983  0.031076618            5 
 1878000   0.96326963   -6.3934377    693.30852  0.030764489  0.031068679            8 
 1879000   0.96122629   -6.3834239    695.03027  0.030824475   0.03106073           10 
 1880000   0.94826822   -6.4242352    693.82755  0.030754767  0.031052734            3 
 1881000   0.97413105   -6.3756057    694.99808  0.030790275    0.0310448           11 
 1882000    0.9518134    -6.386854    695.95122  0.030816118  0.031036904            7 
 1883000    0.9485122   -6.4080823     696.3902  0.030819181   0.03102892            2 
 1884000   0.96022147   -6.4021741    694.50618  0.030719488  0.031020821            6 
 1885000   0.96721981   -6.3826106    696.05444  0.030771638  0.031012846            8 
 1886000    0.9464979   -6.3548325    697.46761  0.030817763  0.031004875            6 
 1887000   0.96039999   -6.3874883    697.52329   0.03080389  0.030996877           13 
 1888000   0.94847306   -6.4158346    695.20517  0.030685256  0.030988935           10 
 1889000   0.95180743   -6.3698178    697.18342  0.030756283  0.030981001           14 
 1890000   0.94945065   -6.3982073    696.12892  0.030693515  0.030973002            7 
 1891000   0.95752438   -6.3894827     696.4726  0.030692429  0.030964981           12 
 1892000    0.9508262   -6.4207139    696.57355  0.030680653  0.030956951           15 
 1893000   0.96079942   -6.3846287    696.97032  0.030681912  0.030948941            9 
 1894000   0.94994745    -6.404929    697.35873  0.030682802  0.030940847            7 
 1895000   0.93918629    -6.393572    695.59632  0.030589108  0.030932752            4 
 1896000   0.95410967   -6.3947589    697.98214  0.030677837  0.030924592            3 
 1897000   0.92364045   -6.3933406    695.77266  0.030564605  0.030916451            5 
 1898000   0.95320746   -6.4089672    696.33358  0.030573129  0.030908285            5 
 1899000   0.95117301   -6.4309978    696.43291  0.030561388  0.030900151            3 
 1900000   0.94482093   -6.3919518    695.74514  0.030515138  0.030891899           10 
 1901000   0.93444495   -6.3784818    696.40586  0.030528049  0.030883652            6 
 1902000   0.93296896   -6.4289271    697.05618  0.030540491  0.030875423            4 
 1903000   0.94533373   -6.4029989    695.12565  0.030439904  0.030867134            9 
 1904000   0.93786879   -6.4115467    695.08645  0.030422201  0.030858804            6 
 1905000   0.95219861   -6.3988673    696.99892  0.030489891  0.030850402            9 
 1906000   0.93717663   -6.4121749    697.48312  0.030495065  0.030841994           12 
 1907000   0.95666816   -6.4216965    697.23206  0.030468102  0.030833595            5 
 1908000   0.94595447   -6.3822477    698.12572  0.030491165  0.030825225            5 
 1909000    0.9388924   -6.3885198    699.27675  0.030525439  0.030816884           13 
 1910000   0.94701222   -6.4130687    698.43146  0.030472577  0.030808581            6 
 1911000   0.94070321   -6.4252974    697.31523  0.030407955  0.030800317           10 
 1912000   0.96670714   -6.4182189    699.91586  0.030505398  0.030792077           12 
 1913000   0.95240622   -6.3762161    697.34468  0.030377447  0.030783799            5 
 1914000   0.94761558   -6.3893074    698.87209  0.030428078  0.030775541            6 
 1915000   0.92769936   -6.4007744    700.25355  0.030472304  0.030767396            3 
 1916000   0.97866049    -6.407528    701.53657  0.030512203  0.030759202            5 
 1917000   0.95924045   -6.4033293    699.87104  0.030423885  0.030750985            6 
 1918000    0.9438341    -6.400043    699.45976  0.030390153   0.03074273            6 
 1919000   0.93101813   -6.3947358    700.19616  0.030406295  0.030734555            8 
 1920000   0.93402155   -6.3753048    701.76088  0.030458372  0.030726329           14 
 1921000   0.94350715   -6.3901572    702.55598  0.030477008   0.03071817            8 
 1922000   0.93375516   -6.3995507     702.9482  0.030478157  0.030710059            5 
 1923000   0.94439705   -6.3943549    703.04054  0.030466309  0.030701871            8 
 1924000   0.93633111   -6.3928039    701.58221   0.03038731   0.03069372            5 
 1925000   0.95508867   -6.3583094    702.24233  0.030400101  0.030685613            5 
 1926000    0.9493115   -6.4120121    702.70894  0.030404506   0.03067753           12 
 1927000   0.95702684     -6.39272    704.10442  0.030449075  0.030669392           15 
 1928000   0.92053361   -6.3912804    700.27777  0.030267884  0.030661222            6 
 1929000    0.9422265   -6.3960717    702.19484  0.030335011  0.030652952            6 
 1930000   0.96203726   -6.4133553    701.90193  0.030306646  0.030644736            4 
 1931000    0.9526655   -6.3913924    702.16623  0.030302358  0.030636533            7 
 1932000   0.91649005   -6.4187154    702.44781  0.030298819  0.030628331            8 
 1933000   0.92521526   -6.3987386    702.04599  0.030265821    0.0306202            8 
 1934000   0.95393517   -6.3601581    704.37501  0.030350526  0.030612099            4 
 1935000   0.94257755   -6.4474669    703.82152  0.030311004  0.030604001            7 
 1936000   0.95526133   -6.4172432    702.10687  0.030221542  0.030595829            8 
 1937000   0.96679863    -6.378634    706.06156  0.030376078  0.030587712            9 
 1938000   0.93636758   -6.4123447    704.38212  0.030288189  0.030579632            8 
 1939000   0.96699734   -6.3729791    706.44737  0.030361328   0.03057156            5 
 1940000   0.92839482    -6.385732    704.98724  0.030282957  0.030563557           14 
 1941000   0.94889197   -6.4109682     705.7726  0.030301073  0.030555567            5 
 1942000   0.95078556   -6.4429549    706.49293   0.03031638  0.030547624            4 
 1943000   0.93839345    -6.414387    706.27461  0.030291414  0.030539641           13 
 1944000   0.94309948   -6.4373664    705.22919  0.030231018  0.030531633            7 
 1945000   0.93851918   -6.4660021    705.13157  0.030211293  0.030523586           17 
 1946000   0.94390133   -6.3898978    709.67154  0.030390182  0.030515574           11 
 1947000   0.91580628   -6.4042812    706.79335  0.030251384  0.030507578            8 
 1948000   0.92643748   -6.4178907    710.21322  0.030382154  0.030499569           10 
 1949000   0.93969925   -6.4143509    707.80595  0.030263637  0.030491597           12 
 1950000   0.93058147   -6.4101689    708.40354  0.030273655  0.030483553           11 
 1951000   0.96023474   -6.4006332    708.07005  0.030243894  0.030475579           14 
 1952000   0.94770804   -6.4093503    709.15142  0.030274565  0.030467614            5 
 1953000   0.95215511   -6.4556528    706.44174  0.030143444  0.030459568            6 
 1954000   0.94135115   -6.4330172    708.01986   0.03019532  0.030451524            5 
 1955000   0.94909954   -6.4433591    707.26639  0.030147758  0.030443506           11 
 1956000   0.92474255   -6.4104961    709.30889  0.030219363  0.030435499           11 
 1957000   0.93384302   -6.4190502    709.43861  0.030209445  0.030427469            4 
 1958000   0.95660504   -6.4234489    709.74881  0.030207219  0.030419527            9 
 1959000   0.93305407   -6.4475443    708.82248  0.030152394  0.030411539           12 
 1960000   0.95049682   -6.4164019    710.22574  0.030196673  0.030403498            4 
 1961000   0.94164645   -6.3848604     708.4268  0.030104827  0.030395585           11 
 1962000   0.93417743   -6.4144478    711.00794  0.030199114  0.030387726            8 
 1963000   0.95668485   -6.4209375    711.11843   0.03018842  0.030379743            5 
 1964000   0.94075363   -6.4102584    711.27854  0.030179843  0.030371805           12 
 1965000   0.94417282   -6.3963531    710.11373  0.030115086  0.030363821           10 
 1966000   0.92989033   -6.4311086    710.71415  0.030125218  0.030355824            6 
 1967000   0.94529317   -6.4343813    710.48835  0.030100337  0.030347831            9 
 1968000   0.93754085   -6.3837917    713.34387  0.030205957  0.030339876            5 
 1969000   0.94525847   -6.4289088    711.38177  0.030107574  0.030331934           20 
 1970000   0.95759875   -6.4253896    711.94698  0.030116201    0.0303239            8 
 1971000   0.93176186   -6.4371468    711.38925   0.03007734   0.03031594           24 
 1972000   0.92789636   -6.4024371    711.59491  0.030070779  0.030307999            8 
 1973000   0.94255554   -6.4445746    713.47586  0.030134983   0.03029997            5 
 1974000    0.9139889   -6.3898543    713.42333  0.030117499  0.030291979           12 
 1975000   0.92594468   -6.4583423    713.73602  0.030115444  0.030284055            6 
 1976000   0.93717651   -6.4354971    711.25263  0.029995472  0.030276058            6 
 1977000   0.93016538   -6.3940266    714.85599  0.030132186  0.030268118            4 
 1978000    0.9243985   -6.3963948    714.90161  0.030118875  0.030260231            5 
 1979000    0.9335795   -6.4315794    713.29189  0.030035872  0.030252322           15 
 1980000   0.94418989   -6.4556452    712.76833  0.029998667  0.030244402            9 
 1981000   0.93321208   -6.4407195    712.92029  0.029989916  0.030236502            3 
 1982000   0.93056336    -6.440573    713.91638  0.030016666  0.030228476            7 
 1983000   0.95326638   -6.4281664    713.47028  0.029982782   0.03022048           10 
 1984000   0.95058535   -6.4452389    712.55441  0.029929201  0.030212434            9 
 1985000   0.96324663    -6.439948    712.98736  0.029932299  0.030204369            9 
 1986000   0.92899128   -6.3988212    714.39326  0.029976219  0.030196342           10 
 1987000    0.9153728   -6.4014171    714.89126  0.029982019  0.030188369           11 
 1988000   0.94162709   -6.4205736    713.67019  0.029915753  0.030180324           11 
 1989000   0.91350327   -6.4143084    713.98205  0.029913778   0.03017219            8 
 1990000   0.91144131   -6.4343196    714.31822  0.029912823  0.030164118           15 
 1991000   0.94105928   -6.4278665    715.09503  0.029930313  0.030156105            8 
 1992000   0.92967107   -6.4425399    714.52931  0.029891621  0.030148078           24 
 1993000   0.92719628   -6.4193545     715.4899  0.029916788   0.03014007            9 
 1994000   0.95457709   -6.4447196    715.74004  0.029912238  0.030132032           10 
 1995000    0.9353754    -6.422345    716.82887  0.029942726  0.030124106            7 
 1996000   0.92739498   -6.3977233    717.55911  0.029958213  0.030116165            6 
 1997000   0.94429169   -6.4309113    717.69887  0.029949043  0.030108298            6 
 1998000    0.9493411    -6.415507    715.94938  0.029861085   0.03010038            6 
 1999000   0.93126337   -6.4015163    717.49088  0.029910409  0.030092454            7 
 2000000   0.91383549   -6.4265119    717.04322  0.029876801  0.030084464            8 
 2001000   0.92366316       -6.434    716.81557  0.029852389  0.030076408            8 
 2002000   0.92999886   -6.4253888    715.77016  0.029793963  0.030068349            6 
 2003000   0.91332771   -6.4431148    715.95068  0.029786598  0.030060254            5 
 2004000   0.95042852   -6.4217828    716.49423  0.029794338  0.030052144            9 
 2005000   0.92207656   -6.4592086    716.14493   0.02976496  0.030043989           21 
 2006000   0.92540592   -6.4519337    716.38911  0.029760265  0.030035827           10 
 2007000   0.91852716   -6.4331868    715.99309  0.029728994   0.03002766            7 
 2008000    0.9345395   -6.4430761    717.20298    0.0297644  0.030019503            5 
 2009000   0.93926872   -6.4521738    717.26608  0.029752202  0.030011383           10 
 2010000   0.91984831   -6.4622481    718.19806  0.029776039  0.030003292            5 
 2011000   0.94379262   -6.4514636    714.85873  0.029622855  0.029995173           14 
 2012000    0.9412242   -6.4456476    718.18797  0.029746023  0.029987062            5 
 2013000   0.92141128   -6.4400307    718.54313  0.029745948  0.029978961            6 
 2014000   0.91414803   -6.4782194    716.10312  0.029630218  0.029970835            9 
 2015000   0.91140416   -6.4434494    717.74522  0.029683425  0.029962717           13 
 2016000   0.93830615   -6.4373241    718.68614  0.029707595  0.029954644            6 
 2017000   0.92044755   -6.4356892    718.98783  0.029705331  0.029946544            8 
 2018000   0.93723838    -6.404432    717.95468  0.029647947  0.029938329           10 
 2019000   0.93597042   -6.4475733    718.14469  0.029641105  0.029930106            8 
 2020000   0.94502718   -6.4632722    717.15214  0.029585484  0.029921902            6 
 2021000   0.93433582   -6.4577223    718.62633  0.029631631   0.02991365            6 
 2022000   0.94487038   -6.4580797     717.8917    0.0295867  0.029905421           10 
 2023000   0.91914484   -6.4728815    718.37237  0.029591876  0.029897219           10 
 2024000    0.9187037   -6.4362109    719.30548  0.029615674  0.029889026            9 
 2025000   0.91411629   -6.4409916    718.93332  0.029585734  0.029880818            4 
 2026000   0.93287791   -6.4400963    718.62726  0.029558541  0.029872648           10 
 2027000   0.88584272   -6.4771759    718.51596  0.029539384  0.029864493            8 
 2028000    0.9191667   -6.4054143    721.92668  0.029664969  0.029856344           10 
 2029000   0.92493272   -6.4669672    719.54428    0.0295525  0.029848195           20 
 2030000    0.9248185   -6.4214998    719.02223  0.029516512  0.029840054            7 
 2031000   0.92215081   -6.4073398    720.51428  0.029563199  0.029831827            2 
 2032000   0.93502464   -6.4366079    720.69703  0.029556145  0.029823618           11 
 2033000   0.92004734   -6.4195716    722.88472   0.02963128  0.029815425            9 
 2034000   0.91663959   -6.4717879    720.45547  0.029517186  0.029807267            7 
 2035000   0.91425408   -6.4561279    719.69304  0.029471459  0.029799071            8 
 2036000   0.93423218   -6.4483668    722.17132   0.02955842  0.029790882           10 
 2037000   0.93608763   -6.4578668    722.64804  0.029563412  0.029782747           23 
 2038000   0.94151488   -6.4415987    719.68156  0.029427607  0.029774597            7 
 2039000   0.93208699   -6.4331366    722.85208  0.029542753  0.029766458            4 
 2040000   0.92322673   -6.4571477    720.19733  0.029419826  0.029758386            5 
 2041000   0.91249573   -6.4321082    722.32596  0.029492322  0.029750331            7 
 2042000   0.92964934   -6.4615872    722.88521  0.029500702  0.029742283           13 
 2043000   0.91094101   -6.4446883    722.67225  0.029477576  0.029734127           11 
 2044000   0.93265443   -6.4516254    723.02114  0.029477379  0.029725985            4 
 2045000   0.94322653   -6.4407134    723.05352  0.029464284  0.029717875            7 
 2046000   0.92882348   -6.4262885    721.45492  0.029384772  0.029709725           10 
 2047000   0.91392831   -6.4073621    721.30472  0.029364302  0.029701521            8 
 2048000   0.92256214   -6.4240307    722.72737  0.029407852  0.029693249            4 
 2049000   0.91322441   -6.4666329    722.31938  0.029376907  0.029685002            6 
 2050000   0.92928338   -6.4122062    724.11442  0.029435545   0.02967678            5 
 2051000   0.92414233   -6.4373947    723.13533  0.029381413  0.029668525           11 
 2052000   0.91228583   -6.4594729    723.37706  0.029376911  0.029660263           11 
 2053000   0.92808861   -6.4523489    722.70043  0.029335137  0.029652011           10 
 2054000   0.91849857   -6.4427892    722.56723  0.029315451  0.029643772            8 
 2055000   0.90907657   -6.4626252      724.752  0.029389781  0.029635613            6 
 2056000   0.92383352   -6.4161676    724.76807  0.029376138  0.029627511            5 
 2057000   0.94087426   -6.4506357    727.58643  0.029476034  0.029619478            6 
 2058000   0.92472809   -6.4080114    726.80877  0.029430222  0.029611449            5 
 2059000   0.90956031   -6.4392558    727.40167  0.029439925  0.029603453           10 
 2060000   0.93134088   -6.4470656    725.70503     0.029357  0.029595416            8 
 2061000   0.94203605   -6.4223501    726.24778  0.029364701  0.029587335            6 
 2062000   0.92805276     -6.46447    725.48775  0.029319744  0.029579277            5 
 2063000   0.90306882   -6.4821831    724.77123  0.029276589  0.029571161           10 
 2064000   0.93554481   -6.4439036    727.49677  0.029372447  0.029563117           11 
 2065000   0.90327992   -6.4476805    726.59646  0.029321891  0.029555117           15 
 2066000    0.9256677   -6.4761635     725.9352  0.029281026  0.029547011           10 
 2067000   0.91931573   -6.4648296    727.42964   0.02932711   0.02953898            7 
 2068000   0.91909196   -6.4560779    726.22247  0.029264284  0.029530994            4 
 2069000   0.93340157   -6.4494026    727.46431  0.029300157  0.029523048           10 
 2070000   0.91200477   -6.4421827     728.3308  0.029320886  0.029515027            9 
 2071000   0.91716545    -6.474164    727.37882  0.029268422  0.029507092           15 
 2072000   0.92518809   -6.4184481     729.9454  0.029357521  0.029499126            6 
 2073000   0.92826522    -6.436837    729.29479  0.029317205  0.029491282            8 
 2074000   0.91541759    -6.426316     729.1462  0.029297099  0.029483386            9 
 2075000    0.9143084   -6.4538073    728.06639  0.029239614  0.029475523            9 
 2076000   0.91980447   -6.4224136    730.42815  0.029320334  0.029467665            8 
 2077000   0.93714102   -6.4465082    730.33513  0.029302485  0.029459834           10 
 2078000   0.90460126   -6.4461873    730.15737  0.029281255  0.029451963           11 
 2079000    0.9222814   -6.4752255    731.07304  0.029303874  0.029444044            4 
 2080000   0.90664436   -6.4523129    728.41113  0.029183138  0.029436159           11 
 2081000   0.93367496   -6.4566388    731.70914  0.029301183  0.029428306           12 
 2082000   0.89583192   -6.4308854    732.44535  0.029316576  0.029420526           24 
 2083000   0.91294279   -6.4374293    732.15648  0.029290946  0.029412769           11 
 2084000   0.91935855   -6.4480282    732.03449  0.029272013  0.029405071            5 
 2085000   0.92265494   -6.4432599    732.51499  0.029277178  0.029397357            6 
 2086000   0.90798721   -6.4768958    732.68079  0.029269766  0.029389663            5 
 2087000   0.92083136   -6.4486021    733.18066  0.029275701  0.029381921           18 
 2088000   0.92987044   -6.4431061    732.73985  0.029244087  0.029374154           15 
 2089000   0.90791345   -6.4805891    731.68108  0.029187852  0.029366424            8 
 2090000   0.91919631   -6.4340109    731.37847  0.029161821  0.029358643           12 
 2091000    0.9088397   -6.4318722    734.22741  0.029261414  0.029350895            9 
 2092000   0.92935743      -6.4725    734.24152  0.029247989  0.029343189            8 
 2093000   0.91314359   -6.4625177    734.63786  0.029249795  0.029335496           22 
 2094000   0.94497551   -6.4430618    734.94298   0.02924797  0.029327865            7 
 2095000   0.91942421   -6.4447619    735.13896  0.029241804  0.029320186           11 
 2096000   0.92512758   -6.4776991    735.21543  0.029230893   0.02931247            8 
 2097000   0.91143821   -6.4164678    736.19392  0.029255839  0.029304747            7 
 2098000   0.91489676   -6.4492866    734.34702  0.029168534  0.029297019            8 
 2099000   0.92777189   -6.4922041    734.66337  0.029167197  0.029289351            5 
 2100000   0.92750928   -6.4381214    735.36259  0.029181055  0.029281731            7 
 2101000   0.91779009   -6.4712591    735.34539  0.029166484  0.029273999            9 
 2102000   0.91823103   -6.4700007    734.85477  0.029133158  0.029266242           10 
 2103000   0.91992451   -6.4728285    733.19664    0.0290536  0.029258528            6 
 2104000   0.92936351   -6.4930593    735.36129  0.029125526  0.029250772            6 
 2105000   0.90713253   -6.4437886    736.83221  0.029169921  0.029243006            9 
 2106000   0.92202881   -6.4597139    736.85252  0.029156874  0.029235266           10 
 2107000   0.92440232    -6.457641    735.98377  0.029108676  0.029227478            7 
 2108000    0.8996666   -6.4470237    735.98739  0.029095011  0.029219696           16 
 2109000    0.8990425   -6.4790262    736.04628  0.029083542  0.029211884           18 
 2110000   0.91885967   -6.4671717    736.00774  0.029068236  0.029204146            8 
 2111000    0.8987212   -6.4565079    737.88071  0.029128403  0.029196452            7 
 2112000    0.9093737   -6.4577482    738.25633  0.029129432  0.029188793            8 
 2113000   0.91370992   -6.4692972    737.50365  0.029085962  0.029181139           13 
 2114000   0.92521569   -6.4604815    737.33136  0.029065412  0.029173476            9 
 2115000   0.89917392   -6.4370104    737.54894  0.029060242  0.029165762           11 
 2116000   0.91642728   -6.4740325    738.36109  0.029078493  0.029158079            8 
 2117000   0.91585732   -6.4806275    737.07417  0.029014099  0.029150344            6 
 2118000   0.92318475   -6.4510719    738.55872   0.02905881  0.029142676            7 
 2119000   0.90877777   -6.4714369      736.374  0.028959179  0.029134926           14 
 2120000   0.91231926    -6.505219    736.90536  0.028966406  0.029127154           15 
 2121000   0.90765143   -6.4408521    739.13239  0.029040248  0.029119371           10 
 2122000   0.91874593   -6.4648155    738.62597  0.029006675  0.029111638            2 
 2123000   0.92230218    -6.451624    738.94034  0.029005352  0.029103949            4 
 2124000   0.90233639   -6.4852844      739.819  0.029026169  0.029096226            6 
 2125000   0.90279823    -6.434058     739.1476  0.028986181  0.029088533            6 
 2126000   0.91815023   -6.4512196    739.61671  0.028990934  0.029080955            8 
 2127000   0.93260873     -6.48939    738.70393  0.028941542  0.029073311            4 
 2128000   0.92147603   -6.4881891    741.44733  0.029035375  0.029065623           10 
 2129000   0.88999401   -6.4968504    740.61931  0.028989327  0.029057933            7 
 2130000   0.92756427   -6.4679393    739.18926  0.028919767  0.029050252            6 
 2131000    0.8948492    -6.479977    741.28522   0.02898816  0.029042608            8 
 2132000   0.90246217   -6.4603483    743.04313  0.029043274  0.029034963            9 
 2133000   0.90797946   -6.4580062     739.5031  0.028891354  0.029027296            9 
 2134000   0.89386699   -6.5223659    740.15373  0.028903223   0.02901962            6 
 2135000   0.91042007   -6.4973927    740.75632  0.028913205  0.029011912           11 
 2136000   0.91968414   -6.4691745    741.17188  0.028915882  0.029004225           12 
 2137000   0.91691028   -6.4866951    740.01914  0.028857399  0.028996577            7 
 2138000   0.89908564   -6.4862016    741.63825   0.02890701  0.028988958           22 
 2139000   0.89721139   -6.4905503    740.88656  0.028864211  0.028981306           18 
 2140000   0.93056774   -6.4746891    742.56634  0.028916135  0.028973714            9 
 2141000   0.90707767   -6.4562816    741.82087  0.028873613  0.028966103           13 
 2142000    0.9011306   -6.4643218    741.36589  0.028842433  0.028958461            5 
 2143000   0.90784643   -6.4531074    740.74745  0.028804925  0.028950891            8 
 2144000    0.9090973   -6.4785988    742.16779  0.028846696  0.028943254           11 
 2145000    0.9297254   -6.4719725    743.47903  0.028884189  0.028935707            9 
 2146000    0.8994231    -6.457068     744.6008   0.02891429   0.02892813           14 
 2147000   0.89628456   -6.4904692    744.79519  0.028908368  0.028920574           13 
 2148000   0.91539317   -6.4972112    741.94705  0.028784414  0.028912947           11 
 2149000   0.90281936   -6.4855944    744.16104  0.028856873  0.028905349           16 
 2150000   0.90594979   -6.4904762    744.69766   0.02886425  0.028897744           10 
 2151000      0.88922   -6.4992576    744.64193  0.028848672  0.028890188            6 
 2152000   0.92191514    -6.458389     744.4228  0.028826781  0.028882577           12 
 2153000   0.92956966   -6.5063557    744.66705  0.028822846  0.028874967           11 
 2154000   0.89643177   -6.4663101    743.99604  0.028783505  0.028867463            8 
 2155000   0.87694666   -6.4908163     746.0038  0.028847788  0.028859989           14 
 2156000   0.90576801   -6.4563566    745.68568  0.028822112  0.028852529           11 
 2157000     0.900191   -6.5061868    743.72152  0.028732867  0.028844982           13 
 2158000   0.89353138   -6.4588327    747.85853  0.028879307   0.02883746           11 
 2159000   0.91407651   -6.4784389    745.80267  0.028786578  0.028829928            7 
 2160000    0.9025137   -6.4949396    746.42306  0.028797186  0.028822378            4 
 2161000   0.91912917   -6.4814649    746.57523  0.028789728  0.028814843            5 
 2162000   0.91260511    -6.478549    745.07311  0.028718513  0.028807387           13 
 2163000   0.90583791    -6.485953    746.61341  0.028764579  0.028799869           18 
 2164000    0.9185283   -6.4502657    745.80294  0.028720076  0.028792329           10 
 2165000   0.90568477   -6.4505698    746.72158   0.02874217  0.028784772           10 
 2166000   0.90315013   -6.4943904    747.11607  0.028744078  0.028777264            8 
 2167000   0.90899859   -6.4814643    747.51346  0.028746095   0.02876978            5 
 2168000   0.91835394   -6.5189198    745.87543  0.028669874  0.028762155           15 
 2169000   0.89729823   -6.5150465    745.21099  0.028631128  0.028754496            7 
 2170000   0.91124851   -6.4747392    747.34578  0.028699915  0.028746889            7 
 2171000   0.88897723   -6.5039888    746.99973  0.028673412  0.028739374            6 
 2172000   0.91124255   -6.4649294    750.24574  0.028784751  0.028731894            8 
 2173000   0.88364168   -6.4753497    748.67336  0.028711204  0.028724442           12 
 2174000   0.91292026   -6.4874808    747.54294  0.028654666  0.028716958            4 
 2175000   0.90437503   -6.4764632    746.63572  0.028606733  0.028709473            9 
 2176000   0.90538661   -6.4854034    749.69792  0.028710858  0.028701928           10 
 2177000   0.90199398   -6.4464481     747.1312  0.028599418   0.02869446            9 
 2178000   0.88704257   -6.4536296    747.91711  0.028616357  0.028686979           10 
 2179000   0.88840498   -6.4968047    746.43416  0.028546511  0.028679349           13 
 2180000   0.90685594   -6.4961554    745.92245  0.028513855  0.028671731            6 
 2181000   0.91016871   -6.4912524    747.83426  0.028573829  0.028664142            9 
 2182000   0.89870145   -6.5115956    748.21449  0.028575255   0.02865654            6 
 2183000   0.89965297    -6.479304    749.47822  0.028610407   0.02864902            5 
 2184000   0.90130715   -6.4927334    750.19153  0.028624524  0.028641537            4 
 2185000   0.91143146   -6.5093668    748.94074   0.02856372  0.028634019           10 
 2186000   0.90252999   -6.4670136     749.5872  0.028575297  0.028626511            6 
 2187000   0.90591379   -6.4959577    749.13965  0.028545178  0.028619045           14 
 2188000   0.91193782   -6.4605922    750.42671  0.028581151  0.028611557           12 
 2189000   0.89903233   -6.4880543    751.42291  0.028606019  0.028604105            9 
 2190000   0.89771909   -6.4689972    751.22991  0.028585613  0.028596617           18 
 2191000   0.89866611   -6.4848524    750.41653   0.02854163  0.028589102            9 
 2192000   0.90623592   -6.4785024    752.45708  0.028606185  0.028581614            9 
 2193000   0.88727194   -6.5325777    749.15952  0.028467834  0.028574042           11 
 2194000   0.91546858   -6.5070867    749.35356  0.028462229  0.028566432            8 
 2195000    0.8974028   -6.4699371    749.83037  0.028467364  0.028558924           14 
 2196000     0.909348   -6.5174443     751.0326  0.028500023  0.028551496            5 
 2197000   0.89155335   -6.4921703     751.5659  0.028507279  0.028544006           12 
 2198000   0.90266696   -6.4967656    751.78244  0.028502519  0.028536615            9 
 2199000    0.9004228   -6.4928407    752.88717  0.028531422   0.02852911           10 
 2200000   0.89522175   -6.4783024    751.62549  0.028470663  0.028521632           16 
 2201000   0.88495348   -6.4963187    752.84931  0.028504063  0.028514188            9 
 2202000   0.88896212   -6.4806073    754.06717  0.028537207  0.028506732            7 
 2203000   0.91122718   -6.5326844     751.8294  0.028439605  0.028499199            5 
 2204000   0.87995022   -6.5155049    752.78341  0.028462773  0.028491722            8 
 2205000   0.91647098   -6.5090658    752.55228  0.028441129  0.028484262           12 
 2206000   0.90968489   -6.5035338    755.41198  0.028536264  0.028476779            4 
 2207000   0.90826341   -6.4770961    752.53583  0.028414735  0.028469305           14 
 2208000   0.89494268   -6.4957627    752.71761  0.028408726  0.028461756           13 
 2209000   0.90429079   -6.4769525    753.91185  0.028440918  0.028454291            7 
 2210000   0.88871662    -6.483824    753.16908  0.028400041  0.028446802           10 
 2211000   0.89450821   -6.5002003     755.7112  0.028483009  0.028439328           14 
 2212000   0.90159664    -6.481626     755.8485  0.028475305  0.028431923           23 
 2213000   0.90035515   -6.5043773    754.49195  0.028411355  0.028424438            9 
 2214000   0.89992161   -6.4760477    754.16736  0.028386305  0.028416943            3 
 2215000   0.89318161    -6.514111    754.71221  0.028393988  0.028409507           12 
 2216000   0.90436114   -6.5085207    755.24595  0.028401246  0.028401993            6 
 2217000   0.90151657   -6.4907301     754.7279  0.028368963  0.028394474            7 
 2218000   0.90297674   -6.4860185      756.516  0.028423354  0.028386995            4 
 2219000   0.89617391   -6.5044067    753.70588  0.028305013  0.028379606            8 
 2220000   0.89167796   -6.5010789    756.33376  0.028390907  0.028372192           12 
 2221000   0.89815913   -6.4919969    755.36619   0.02834182  0.028364809           14 
 2222000   0.89785595   -6.4872052    756.93962  0.028388075  0.028357449            9 
 2223000   0.90086379   -6.4442387    757.67933  0.028403034  0.028350187            9 
 2224000   0.90807094   -6.4620395    755.89263  0.028323315  0.028342927            6 
 2225000   0.89417693    -6.506316    755.58561  0.028299086   0.02833561           10 
 2226000   0.89827533   -6.4912943    755.52532  0.028284116  0.028328268            9 
 2227000   0.88787539   -6.5059648    756.76139  0.028317669  0.028320857           11 
 2228000   0.90129042   -6.5149207    758.94253   0.02838654  0.028313487            6 
 2229000   0.88326474   -6.5058577     758.1289  0.028343386  0.028306165            8 
 2230000   0.88419749   -6.4949851    755.98522  0.028250569  0.028298836            5 
 2231000   0.88846743   -6.4893524     758.4342  0.028329381   0.02829149            9 
 2232000   0.89314261   -6.4869729     758.9826  0.028337164  0.028284157            6 
 2233000   0.87718876    -6.510047     759.6115  0.028347944  0.028276849            5 
 2234000   0.87631976   -6.4942421    757.78079  0.028266965  0.028269517            6 
 2235000   0.90825641   -6.5182444    758.26386  0.028272329  0.028262137           10 
 2236000   0.89859281    -6.538164    757.35404  0.028225777  0.028254771           14 
 2237000   0.89338294   -6.5029138     758.9649  0.028273167  0.028247446            7 
 2238000   0.89626077   -6.5041265    758.57672   0.02824608    0.0282401            4 
 2239000   0.89075081    -6.499973    759.80492  0.028279177  0.028232716            8 
 2240000   0.88595371   -6.5371413    759.63142  0.028260098  0.028225384           19 
 2241000   0.88431359   -6.5039986    761.67118  0.028323337  0.028218079            7 
 2242000   0.91357805   -6.5213757    760.99394  0.028285531  0.028210843           24 
 2243000   0.89806928   -6.4933014    761.25848  0.028282749  0.028203603           22 
 2244000   0.90461246   -6.5091234     760.4126  0.028238733  0.028196325            7 
 2245000   0.90548051   -6.5102802    762.50972  0.028303998  0.028189119            6 
 2246000   0.90265633   -6.5258717    761.31158  0.028246942  0.028181911            7 
 2247000   0.88174745   -6.5001638    762.92555  0.028294228  0.028174727           13 
 2248000   0.90670353   -6.5188729    761.60503  0.028232689  0.028167659           20 
 2249000   0.89462014   -6.5055265    762.92003  0.028268861  0.028160517            9 
 2250000   0.89139795   -6.5240308       762.68  0.028247407  0.028153349            4 
 2251000   0.89710544   -6.5038031    763.51067  0.028265611  0.028146196           13 
 2252000   0.88729679   -6.5061426    762.27638  0.028207385  0.028138979           15 
 2253000   0.89243117   -6.5210541    763.36593  0.028235165  0.028131732            7 
 2254000   0.87862214   -6.5476961    761.29365  0.028146024  0.028124489           12 
 2255000   0.87381288   -6.5321371    762.33761  0.028172122  0.028117257            9 
 2256000   0.90244332    -6.534134    762.50355  0.028165763  0.028110091            5 
 2257000   0.90351335   -6.5049827    763.29114  0.028182364  0.028102916            9 
 2258000   0.87785609   -6.5113457    765.43318  0.028248937  0.028095765           11 
 2259000   0.88714505   -6.5250716    763.46712  0.028163904  0.028088629            9 
 2260000   0.88957958     -6.52211    763.63717  0.028157713  0.028081428            9 
 2261000   0.87839754   -6.5173559    763.58806  0.028143449  0.028074246           13 
 2262000   0.91428092    -6.543207    764.36866  0.028159765  0.028067043            7 
 2263000   0.88511727   -6.4991202    765.02172   0.02817137  0.028059824           12 
 2264000   0.89487006   -6.5184884    763.73669  0.028111627  0.028052707           15 
 2265000   0.88891326   -6.5163914    766.12736  0.028187173  0.028045622            8 
 2266000   0.88178401   -6.4761671    763.98563  0.028095971  0.028038547           10 
 2267000   0.89875464   -6.5462717    766.20272  0.028165076   0.02803142           11 
 2268000   0.89060773   -6.5205632    765.16254  0.028114438  0.028024302           21 
 2269000   0.89158347   -6.4906252    766.04283  0.028134377  0.028017231           17 
 2270000   0.88500618   -6.5180369    765.08617  0.028086864  0.028010125           16 
 2271000   0.89773043   -6.5331156    765.83081   0.02810182   0.02800299           17 
 2272000   0.89430236   -6.5011107    764.68615  0.028047467  0.027995887           10 
 2273000   0.88356297   -6.5444336    764.95183  0.028044868  0.027988747           22 
 2274000   0.88047667   -6.5136697    766.24703      0.02808  0.027981617            6 
 2275000   0.89798472   -6.5229157    767.24135  0.028104079  0.027974508           14 
 2276000   0.89073001   -6.4824596    766.50565  0.028064794  0.027967428            6 
 2277000   0.88380564   -6.5134186    766.84845  0.028065014  0.027960335           15 
 2278000    0.8774002   -6.4672687     768.4088  0.028109775  0.027953265           17 
 2279000   0.90421778   -6.5031347    767.75618  0.028073577  0.027946205           28 
 2280000   0.90173888   -6.5318229    767.55073  0.028053755  0.027939114           17 
 2281000   0.87502832   -6.5266798    769.14113  0.028099559  0.027931973           10 
 2282000   0.90554435   -6.5026662    768.17316  0.028051897  0.027924912           26 
 2283000   0.88700027   -6.4875629    768.36371  0.028046566  0.027917878            8 
 2284000   0.90099427   -6.5241972    768.13681  0.028026007  0.027910869           18 
 2285000   0.88346437   -6.5053034    769.06775  0.028047693  0.027903798            6 
 2286000   0.87103498   -6.5100377    768.45594  0.028013121  0.027896771            9 
 2287000   0.88590514   -6.5405243    769.99964  0.028057121  0.027889745           12 
 2288000   0.86618689   -6.5284668    768.80357  0.028001296  0.027882704           12 
 2289000   0.87896891    -6.555957    767.37515   0.02793706  0.027875595           12 
 2290000   0.88201022   -6.5122253    770.80103  0.028049528  0.027868523           12 
 2291000   0.88006858   -6.4823648    769.95135  0.028006378  0.027861549            8 
 2292000   0.90453892   -6.5222102    767.79302  0.027915686   0.02785455           10 
 2293000   0.87695517   -6.5134181    770.14929  0.027989144  0.027847469           22 
 2294000   0.86967799   -6.5245691      767.215   0.02787035  0.027840335           12 
 2295000   0.89205855   -6.5540135    772.18039  0.028038504  0.027833191            8 
 2296000   0.88536976    -6.509364    771.05715  0.027985524  0.027826093            5 
 2297000   0.88413044   -6.5194168    771.66696  0.027995463  0.027819007           13 
 2298000   0.88146044   -6.4955578    769.33515  0.027898722   0.02781195            8 
 2299000   0.88078403   -6.5386339    770.02047  0.027911428  0.027804827            6 
 2300000   0.90121799   -6.5438181    769.50595   0.02788065  0.027797686            9 
 2301000   0.88448455   -6.5430049    769.73114  0.027876689  0.027790552            7 
 2302000   0.89090196   -6.5241121    770.83113  0.027904399  0.027783373           10 
 2303000    0.8863679   -6.4991555    769.79587  0.027854822   0.02777626           10 
 2304000   0.85640547   -6.5529426    768.54522  0.027797498  0.027769048           11 
 2305000   0.87372891   -6.5168362    770.16722  0.027844079  0.027761838           17 
 2306000   0.87566707   -6.5405837    770.04323  0.027827523  0.027754635           11 
 2307000   0.89968807     -6.52954    772.08251  0.027889124  0.027747485           15 
 2308000   0.89314222   -6.5370462    770.91555  0.027834906  0.027740359           15 
 2309000   0.87088396   -6.5268177    770.83938  0.027820102  0.027733193            9 
 2310000    0.8901742   -6.5848179    771.65765  0.027837578  0.027726027            9 
 2311000   0.88052783   -6.5553472    769.93684   0.02776348  0.027718883           14 
 2312000    0.8700168   -6.5252009    772.32363  0.027837501  0.027711708            8 
 2313000   0.88680314   -6.5706406    771.39789  0.027792113  0.027704549           39 
 2314000    0.8761403   -6.5362016    771.33003  0.027777659  0.027697401            8 
 2315000   0.88978927   -6.5220888    773.94562  0.027859814  0.027690349           12 
 2316000   0.86659517   -6.5137879    773.39032  0.027827804  0.027683304           18 
 2317000   0.88167554   -6.5412992    771.77169  0.027757578  0.027676244           23 
 2318000   0.89568185   -6.5287907    772.56629  0.027774169  0.027669155           21 
 2319000   0.88366371   -6.5486844    772.37966  0.027755486  0.027662077           12 
 2320000   0.88063779   -6.5420089    771.62044  0.027716252  0.027654906           19 
 2321000   0.89026697   -6.5385666    773.23189  0.027762168  0.027647752            7 
 2322000   0.87279277    -6.539853    772.37852  0.027719585  0.027640635           13 
 2323000   0.88010414   -6.5291581    774.34015  0.027778022  0.027633447            8 
 2324000   0.88487733   -6.4950589    773.80791  0.027746985  0.027626366            7 
 2325000   0.86083864   -6.5290433    772.26357  0.027679698  0.027619243           10 
 2326000    0.8868598   -6.5180592    772.35901  0.027671217   0.02761207           11 
 2327000   0.88071936   -6.5428885     773.0564    0.0276843  0.027604937           14 
 2328000   0.89374471   -6.5220428    774.21959  0.027714046  0.027597832            5 
 2329000   0.88919397   -6.5082765     774.5355   0.02771345  0.027590749           11 
 2330000   0.88668931   -6.5458712    775.33332   0.02773009  0.027583627           14 
 2331000    0.8876312   -6.5388135    773.81376   0.02766387  0.027576456           11 
 2332000   0.87396681   -6.5272493    775.52428  0.027713132  0.027569303            9 
 2333000   0.87258266   -6.5458658    774.47224  0.027663675  0.027562127           15 
 2334000   0.87187827   -6.5397694    772.89117  0.027595372  0.027555001            8 
 2335000   0.88366917   -6.5362434    773.44814  0.027603431  0.027547826           10 
 2336000   0.88568441   -6.5282524    773.79174  0.027603872   0.02754063           11 
 2337000   0.88796333   -6.5564116    775.44454  0.027650996  0.027533436            8 
 2338000   0.87930932   -6.5400424    773.38805   0.02756587  0.027526251            7 
 2339000   0.89260615   -6.5393554    775.89922  0.027643552  0.027519099           11 
 2340000    0.8992908   -6.5047323    775.41366  0.027614447  0.027511938            9 
 2341000   0.88899613   -6.5715776    773.98943  0.027551952  0.027504771           11 
 2342000   0.88007471   -6.5266442    775.55212  0.027595791  0.027497593            7 
 2343000   0.88214506    -6.543252    776.53552   0.02761899  0.027490433           11 
 2344000   0.87615193   -6.5235035    775.94331  0.027586153  0.027483281            8 
 2345000   0.86163778   -6.5119126    776.45511  0.027592577   0.02747607           12 
 2346000   0.86315296   -6.5439165    773.81703  0.027487107  0.027468869            7 
 2347000   0.88360121   -6.5025716    777.64047  0.027611152  0.027461749            9 
 2348000   0.87848513   -6.5583342    776.48562  0.027558405   0.02745467           18 
 2349000   0.86399222   -6.5227437    778.01616  0.027600971  0.027447584            8 
 2350000   0.87810453   -6.5364553    776.56596    0.0275378  0.027440451           20 
 2351000   0.86174595   -6.5330161    774.70342  0.027460067  0.027433311           13 
 2352000   0.86961879   -6.5214165    778.50374  0.027583041  0.027426146           10 
 2353000   0.87702155   -6.5130195    777.68415  0.027542292  0.027419041           13 
 2354000   0.88427613   -6.5269056    778.13329  0.027546492  0.027411886           13 
 2355000   0.88586801   -6.5487392    777.42926  0.027509882  0.027404727            9 
 2356000   0.89091605   -6.5594702    777.24035  0.027491523  0.027397554            5 
 2357000   0.88432628   -6.5254566    776.20765  0.027443348   0.02739039            6 
 2358000   0.87414232   -6.5436636    777.12769  0.027464224    0.0273832           25 
 2359000   0.87377365   -6.5539222    775.31524  0.027388556  0.027375933           20 
 2360000    0.8763813   -6.5415239    777.86121  0.027466851  0.027368695           12 
 2361000    0.8608232   -6.5240686    778.17818  0.027466405  0.027361532           15 
 2362000   0.86945961   -6.5238966    776.58862  0.027398695  0.027354383           14 
 2363000   0.87694244   -6.5028735    781.65758  0.027565862  0.027347295            7 
 2364000   0.85301028   -6.5627392    779.51422  0.027478645  0.027340168           12 
 2365000   0.88097587    -6.570161    778.28772   0.02742381  0.027333009           17 
 2366000   0.86714103   -6.5419019    777.90819  0.027398851  0.027325821            9 
 2367000   0.86217104   -6.5389719    778.69901  0.027415118  0.027318634           14 
 2368000   0.89675903   -6.5487326    776.24015   0.02731701  0.027311405           13 
 2369000    0.8667263   -6.5394469    777.68411  0.027356273  0.027304208            5 
 2370000   0.86869497   -6.5776175    777.89903  0.027352287  0.027296981           20 
 2371000   0.88755877   -6.5714463     777.1271   0.02731362  0.027289745           24 
 2372000   0.85417832   -6.5116446    777.95573  0.027331216  0.027282511           15 
 2373000   0.89072509   -6.5606734    778.65617  0.027344296  0.027275234            8 
 2374000   0.87382609   -6.5353235    777.73791  0.027300545  0.027267946           12 
 2375000   0.88312822   -6.5507861    777.10356  0.027266792  0.027260622           15 
 2376000   0.84897503   -6.5685102    778.64903   0.02730952  0.027253289           14 
 2377000   0.86998907   -6.5629345    777.84279  0.027269765  0.027246004           21 
 2378000   0.87173908   -6.5461332    778.39772  0.027277745  0.027238731            6 
 2379000   0.88327358   -6.5433577    777.81063  0.027245714  0.027231429           13 
 2380000   0.86095204   -6.5447184    778.82941  0.027269937   0.02722416            4 
 2381000   0.87307889   -6.5798445    779.01215   0.02726488  0.027216891           10 
 2382000   0.88890133   -6.5815667    778.57265  0.027238058  0.027209506           15 
 2383000   0.86589192   -6.5411094    776.75269  0.027162984  0.027202153           11 
 2384000   0.86353787    -6.531987    779.74415  0.027256158  0.027194844           15 
 2385000   0.87807296   -6.5643419    779.34775  0.027230879  0.027187633           10 
 2386000   0.86388489   -6.5178046    780.06602  0.027244552  0.027180375           10 
 2387000   0.85131357   -6.5257125    780.10266  0.027234418  0.027173107            6 
 2388000   0.87270184   -6.5272312     779.6121  0.027205894  0.027165865            5 
 2389000   0.87018577   -6.5662075     779.3833  0.027186525  0.027158643            9 
 2390000   0.86020193   -6.5583367    780.82541  0.027225433  0.027151405            9 
 2391000   0.88623549   -6.5469739    779.57401  0.027170431  0.027144162           29 
 2392000   0.87573108   -6.5591345    780.32913  0.027185379  0.027136889           12 
 2393000   0.86492646   -6.5567115    780.35865  0.027175047  0.027129567            8 
 2394000   0.85321469   -6.5582009    781.55846   0.02720546  0.027122279           16 
 2395000   0.85549672   -6.5436171    778.60478  0.027091328  0.027115033            9 
 2396000   0.86524216    -6.532022    781.34947  0.027175482  0.027107821            5 
 2397000   0.87624469   -6.5490816    782.21543  0.027194251  0.027100569           15 
 2398000   0.86837803   -6.5523977    779.71843  0.027096137  0.027093275           22 
 2399000   0.86841905   -6.5430364    780.01449  0.027095126  0.027085883           10 
 2400000    0.8531567   -6.5692403     779.2688  0.027057945   0.02707849            8 
 2401000   0.87404091   -6.5598232    781.22262  0.027114488  0.027071096            7 
 2402000   0.87260632   -6.5783337    778.93392  0.027023797  0.027063749            6 
 2403000   0.88079105   -6.5037413    782.19829  0.027125756  0.027056438            9 
 2404000   0.88173632   -6.5752115    779.71026  0.027028226  0.027049153           12 
 2405000   0.85024863   -6.5840524    779.90731  0.027023815  0.027041795            5 
 2406000   0.86144739   -6.5536147    781.35346  0.027062672  0.027034463           12 
 2407000    0.8837027   -6.5140918    781.70307  0.027063532  0.027027199           29 
 2408000   0.85852881   -6.5812372    780.47885  0.027009927  0.027019944           14 
 2409000   0.87682977   -6.5660267    780.92954  0.027014305  0.027012616           19 
 2410000   0.87314257   -6.5550715    780.68494  0.026994638  0.027005335           19 
 2411000   0.88374217   -6.5221202    783.55612  0.027082681  0.026998044            4 
 2412000   0.89879621   -6.5607861    780.08739   0.02695161   0.02699081           13 
 2413000   0.86426958   -6.5631405     782.3432  0.027018345  0.026983471           22 
 2414000   0.85991617   -6.5478473    782.77553  0.027022077  0.026976173           12 
 2415000   0.85786276   -6.5497734    784.19772  0.027059963  0.026968872            7 
 2416000   0.89221567    -6.555574    781.84848  0.026967732  0.026961542           15 
 2417000    0.8716113   -6.5541839    782.49736  0.026978946  0.026954227            8 
 2418000   0.85120821   -6.5525112    783.70198  0.027009305  0.026946959           13 
 2419000   0.85356257   -6.5244278    784.05134  0.027010174  0.026939748           21 
 2420000   0.85460438   -6.5792363    784.81893  0.027025445  0.026932475           14 
 2421000   0.85036103   -6.5585209    784.55696  0.027005265  0.026925181           12 
 2422000   0.90232436   -6.5251372    784.16918  0.026980773  0.026917915           12 
 2423000   0.86232282   -6.5255962    784.33228  0.026975247  0.026910649           14 
 2424000   0.85928391   -6.5746488     782.9959  0.026918176   0.02690331           10 
 2425000   0.86320722   -6.5552708    782.97308  0.026906291  0.026896035           18 
 2426000   0.86344581   -6.5671172    781.69536  0.026851311  0.026888696           16 
 2427000   0.86403213   -6.5737261     783.7816   0.02691188  0.026881342           12 
 2428000   0.86244263   -6.5322737    783.26401  0.026883032  0.026874018           11 
 2429000   0.87749898   -6.5648637    782.65468   0.02685106  0.026866637           19 
 2430000   0.85010662   -6.5530559      786.077  0.026957373  0.026859282           16 
 2431000   0.87204555   -6.5891037    784.36945   0.02688775  0.026851957           37 
 2432000   0.86483678   -6.5678635    783.01857  0.026830406  0.026844648           20 
 2433000    0.8618081   -6.5788582    784.42308  0.026867485  0.026837335           16 
 2434000   0.87268504   -6.5651487    783.86007   0.02683717   0.02683006            7 
 2435000   0.85121356   -6.5719237    784.67917  0.026854181  0.026822743           21 
 2436000   0.85300548   -6.5245141    786.31191  0.026899012  0.026815515           13 
 2437000   0.83641349     -6.57886    786.51043  0.026894762  0.026808262           10 
 2438000   0.86659114   -6.5740223    784.50316   0.02681512  0.026801018            9 
 2439000   0.86278215   -6.5740278    785.30734  0.026831602   0.02679377           10 
 2440000   0.85524053   -6.5870814    785.85109  0.026839176  0.026786561           18 
 2441000   0.86282063   -6.5456026    786.17292  0.026839168   0.02677931           13 
 2442000    0.8494352   -6.5828552    789.22383   0.02693229  0.026772075            8 
 2443000    0.8511415   -6.5701841     785.9759  0.026810476  0.026764843            6 
 2444000   0.87337829   -6.5575115    785.28343  0.026775894  0.026757667           10 
 2445000   0.85684491   -6.5441583     787.3297  0.026834686  0.026750404           14 
 2446000   0.85120385   -6.5751382    787.87202  0.026842192  0.026743144           10 
 2447000   0.86820724   -6.5566773    787.27674   0.02681095  0.026735889            9 
 2448000   0.86719052   -6.5603254    787.27306  0.026799873  0.026728648            8 
 2449000   0.87350792   -6.5876252    787.00459  0.026779794  0.026721363           15 
 2450000   0.83344922   -6.5357756    788.78515  0.026829427  0.026714151           11 
 2451000   0.86415773    -6.564525    788.06854  0.026794116  0.026706959            6 
 2452000   0.87185221   -6.5623089    788.79813  0.026807984  0.026699726           18 
 2453000   0.86858531   -6.5576298    790.03879  0.026839203  0.026692504           17 
 2454000   0.84375086   -6.5855621    786.88548  0.026721186  0.026685275            6 
 2455000   0.85474242   -6.5467719    787.85124  0.026743083  0.026677998           13 
 2456000   0.87327719   -6.5431088    789.52548  0.026789003  0.026670813           12 
 2457000   0.85048852   -6.5720138     787.2237  0.026700031  0.026663605           10 
 2458000   0.84371546   -6.5621916    787.16364  0.026687132  0.026656354           19 
 2459000    0.8488254   -6.5902346    787.78842  0.026697452  0.026649072            5 
 2460000    0.8467556   -6.6200925    789.41161  0.026741586   0.02664176           10 
 2461000   0.86541267   -6.5492645    789.82466  0.026744706  0.026634507           22 
 2462000   0.87734457   -6.5820389    788.39752  0.026685537  0.026627257           23 
 2463000   0.86102669    -6.596318    789.35606  0.026707134  0.026620054            7 
 2464000   0.85937631   -6.5479348    788.66346  0.026672871  0.026612854           13 
 2465000   0.86063138   -6.5865204    791.04282  0.026742489  0.026605717           24 
 2466000   0.84669807   -6.5497698    790.89388  0.026726611  0.026598575           16 
 2467000    0.8482082   -6.5481414    791.09305  0.026722505  0.026591426           11 
 2468000   0.86933704   -6.5716001    789.94209  0.026672815  0.026584213           12 
 2469000   0.83899416   -6.5448794    790.73032  0.026688616  0.026576971            7 
 2470000   0.85761917   -6.5914004    789.52551  0.026637163  0.026569762           11 
 2471000   0.84770103   -6.5935328    790.86526  0.026671565   0.02656256           14 
 2472000   0.87160103   -6.5706856    789.63865  0.026619426  0.026555332            9 
 2473000   0.86166066   -6.5759766    790.05417  0.026622664   0.02654813            5 
 2474000   0.85549803   -6.5917446    791.83483  0.026671882   0.02654095            7 
 2475000   0.85709077   -6.5575613    790.27906  0.026608723  0.026533772            9 
 2476000   0.86580523   -6.5970554    791.14021  0.026626959  0.026526585           30 
 2477000   0.87334891   -6.5932972    789.89396  0.026574282  0.026519384           29 
 2478000   0.84016956   -6.5384343    791.65833  0.026622893    0.0265122            9 
 2479000   0.84736011   -6.5871666    789.80834  0.026549964  0.026505013           14 
 2480000   0.86704254   -6.5799755    789.53475  0.026530065  0.026497792           13 
 2481000   0.86136254   -6.5643055    792.54278  0.026620408  0.026490638            6 
 2482000   0.86242959   -6.5785387    791.84399   0.02658622  0.026483474           17 
 2483000   0.86989212   -6.5944914    789.74114  0.026504938  0.026476316           32 
 2484000   0.85250864   -6.5791261    791.69796  0.026559916  0.026469119           46 
 2485000   0.85870638   -6.6051847    792.53547  0.026577313  0.026461945           17 
 2486000   0.83751526   -6.5873726    791.44642  0.026530116  0.026454759            9 
 2487000   0.86425016   -6.5896256    793.32913  0.026582534  0.026447567            7 
 2488000   0.84583251   -6.5637517    795.43234  0.026642294   0.02644046           13 
 2489000   0.84862318   -6.5563267    793.67583  0.026572781  0.026433334           12 
 2490000   0.87167756   -6.5875453    791.44664  0.026487505   0.02642619           70 
 2491000   0.84401825   -6.5836846    792.66569  0.026517653  0.026419002           11 
 2492000   0.85162179   -6.5802644    792.87966  0.026514167  0.026411788           13 
 2493000   0.84477694   -6.5443351    795.26983  0.026583428  0.026404614           13 
 2494000   0.84964071   -6.5838229    791.67594  0.026452684  0.026397462           21 
 2495000   0.85076581   -6.5448266    793.31468  0.026496816  0.026390314           12 
 2496000   0.84873977   -6.5729017    793.95978  0.026507739  0.026383157            9 
 2497000   0.84044481   -6.5720121    793.34037  0.026476451   0.02637604            8 
 2498000   0.84653321   -6.5840996    795.27977   0.02653055  0.026368907           14 
 2499000   0.85482036    -6.586335    793.02319  0.026444684  0.026361752           16 
 2500000   0.84737839   -6.5605508    795.41798  0.026513933  0.026354632           15 
 2501000   0.83824275   -6.5616385    794.16138  0.026461461  0.026347563           12 
 2502000   0.85024103   -6.5723171    793.81389  0.026439312  0.026340512            4 
 2503000   0.84682388   -6.5770209    794.83317  0.026462684  0.026333456           10 
 2504000    0.8260836   -6.5646418    797.00524  0.026524402  0.026326436            8 
 2505000   0.84974672    -6.557409    795.98047  0.026479723  0.026319479           21 
 2506000   0.84457574    -6.597197    795.16451  0.026442023  0.026312442           12 
 2507000   0.84043071    -6.611805    797.18561  0.026498657  0.026305375           36 
 2508000   0.84758289   -6.5790431    794.77456   0.02640798  0.026298282           17 
 2509000   0.84946682    -6.584851    794.33835  0.026382966  0.026291204           17 
 2510000   0.85898388   -6.5703166    797.07938  0.026463459  0.026284153           26 
 2511000   0.86066464   -6.5833142    797.52443   0.02646769   0.02627713           27 
 2512000    0.8530526   -6.5690483    798.51738  0.026490094  0.026270099           11 
 2513000   0.84991181   -6.6285195    796.27671   0.02640525  0.026263061           29 
 2514000   0.86801178    -6.578478    797.91429  0.026449028  0.026256063            9 
 2515000   0.84566709   -6.6061635    796.12848   0.02637934  0.026249041            9 
 2516000   0.85301576   -6.5928013    798.34842  0.026442383  0.026242007           12 
 2517000   0.83917037   -6.5769299    798.41087  0.026433945  0.026235079           10 
 2518000   0.85411696   -6.5866808    798.73677  0.026434233  0.026228165            7 
 2519000    0.8423011   -6.5674202     798.5795  0.026418536  0.026221215            6 
 2520000   0.83319504   -6.5847491    797.78363  0.026381734  0.026214224           12 
 2521000   0.84350029   -6.5766353    796.82265  0.026339503  0.026207283            5 
 2522000    0.8358314   -6.5678166     800.2651  0.026442807  0.026200276            9 
 2523000   0.85868077   -6.5665629    799.60142  0.026410405  0.026193317           24 
 2524000   0.84778577   -6.5948623    798.58386  0.026366345  0.026186362           13 
 2525000    0.8324924   -6.5668606     798.1043  0.026340076  0.026179394           10 
 2526000   0.86190001   -6.5954401    796.19338  0.026266607  0.026172398           26 
 2527000   0.85309439    -6.609296    799.58298  0.026367992  0.026165395           16 
 2528000   0.84450591   -6.6163506    795.68607  0.026229103  0.026158386           12 
 2529000   0.83777016   -6.5813771    798.77375  0.026320474  0.026151386            8 
 2530000   0.84942311   -6.5762429    798.69884  0.026307603   0.02614442           11 
 2531000   0.84766744   -6.6272295    799.92724  0.026337654  0.026137457            9 
 2532000   0.84352261   -6.5873376    797.82205  0.026257966   0.02613051           10 
 2533000   0.84817773   -6.6110746    800.17413  0.026324981  0.026123563           20 
 2534000   0.83350602   -6.5875258    799.90624  0.026305783  0.026116609            8 
 2535000   0.83256228   -6.6029588    799.56159  0.026284076  0.026109582           13 
 2536000   0.85464695   -6.5987584    798.91727  0.026252539  0.026102581           15 
 2537000   0.85213691   -6.6219044    799.22205  0.026252202   0.02609557           18 
 2538000   0.83318093   -6.6332347    797.89033  0.026198133  0.026088548           11 
 2539000   0.84931641   -6.6265841    798.50185  0.026207885  0.026081505            9 
 2540000   0.84646873   -6.5932769    798.87406  0.026209779  0.026074504           12 
 2541000   0.86536607   -6.5883805    800.16066  0.026241659  0.026067448           10 
 2542000   0.84315036     -6.60319    799.13427  0.026197688   0.02606041           17 
 2543000   0.84364962   -6.5745256     799.0934  0.026186047  0.026053403            9 
 2544000    0.8641858    -6.567832    799.59698  0.026192249  0.026046401           12 
 2545000   0.82276665   -6.6104691    800.00422  0.026195292  0.026039375           10 
 2546000   0.82097269   -6.5979944    799.29278  0.026161717  0.026032337           12 
 2547000   0.85273048   -6.5915654    800.54945  0.026192561  0.026025346           11 
 2548000   0.85980418   -6.6077287    801.89117  0.026226163  0.026018317           18 
 2549000   0.83605207   -6.6116624    799.86963  0.026149785  0.026011273            6 
 2550000   0.82829077   -6.5912574    798.93675  0.026109044  0.026004221            8 
 2551000   0.83900212   -6.5892241    802.06846  0.026201113  0.025997204           30 
 2552000   0.83477739   -6.5970579    799.76068  0.026115487  0.025990141           10 
 2553000   0.83865796   -6.5923728    800.31995  0.026123513  0.025983068           13 
 2554000   0.84261027    -6.612825    800.23251  0.026110432  0.025976012           16 
 2555000   0.83581167   -6.5842888    802.22499  0.026165199  0.025968998           13 
 2556000   0.87275087   -6.6101486    800.50475  0.026098877  0.025961955           10 
 2557000   0.85233746   -6.6014785     798.6785  0.026029152  0.025954962            9 
 2558000   0.85715437   -6.6036636    800.06557  0.026064164  0.025947955           12 
 2559000   0.83335936   -6.5672137    802.36615  0.026128897  0.025940976           14 
 2560000   0.85404186   -6.5604829    800.08874  0.026044555  0.025933993            8 
 2561000   0.83531792   -6.5976475    802.88365   0.02612533  0.025927045           11 
 2562000   0.85888784   -6.6380754    802.49951  0.026102638  0.025919997           10 
 2563000    0.8505134   -6.5789414    801.58744  0.026062799  0.025912992            6 
 2564000   0.84402566   -6.5721994    803.56511  0.026116911  0.025906041            8 
 2565000   0.83662814   -6.6146372    802.53688  0.026073323  0.025899039           31 
 2566000   0.85310571   -6.6056955    799.31028  0.025958375  0.025891972           19 
 2567000   0.82907619   -6.6194758     801.1875  0.026009203  0.025884903           16 
 2568000   0.82911827   -6.6250687    801.26899   0.02600172  0.025877803            9 
 2569000   0.83128556   -6.6269784    802.54561  0.026033009  0.025870773           19 
 2570000   0.84827933   -6.6190242    802.40268  0.026018245  0.025863769           11 
 2571000   0.83328552   -6.5885507    803.57834  0.026046232  0.025856848           12 
 2572000   0.83903645   -6.5984015    805.18172  0.026088055  0.025849928            5 
 2573000   0.84105086   -6.5915472    803.94658  0.026037912  0.025843053            5 
 2574000    0.8418687   -6.6229356    803.54254  0.026014716  0.025836153           12 
 2575000   0.84835279   -6.5787391    804.21416  0.026026348  0.025829162           10 
 2576000   0.82625611   -6.5774144    804.46942  0.026024502  0.025822194           13 
 2577000   0.84005444   -6.5899217    805.68713  0.026053781  0.025815305           34 
 2578000   0.83259445   -6.6046695    803.32312  0.025967259  0.025808398           22 
 2579000   0.83889712   -6.6121986    804.46356   0.02599404  0.025801494            7 
 2580000   0.84240425    -6.586476    805.74842  0.026025466  0.025794599           19 
 2581000   0.83642103   -6.5740973    805.20703  0.025997902  0.025787705           14 
 2582000   0.83597237   -6.6218959    804.57336  0.025967382  0.025780804           17 
 2583000    0.8186124   -6.5967308    806.64525  0.026024173  0.025773946           27 
 2584000   0.83918508   -6.6233701    805.97667   0.02599254  0.025767011           11 
 2585000   0.83872331   -6.6233407    805.14297  0.025955608  0.025760059           17 
 2586000   0.83206469   -6.6222414    804.48514  0.025924373  0.025753096            8 
 2587000   0.84706061   -6.6032846    805.09813  0.025934098  0.025746123           14 
 2588000   0.83861218   -6.5710612    805.26317  0.025929391  0.025739203            6 
 2589000     0.849847   -6.6334294    805.10901  0.025914414  0.025732297            8 
 2590000   0.82608729   -6.6092141    805.34764  0.025912086  0.025725382           21 
 2591000   0.85737319   -6.6171172    804.63914  0.025879298  0.025718453           22 
 2592000   0.83540138    -6.620837    806.27364  0.025921863  0.025711507           22 
 2593000   0.84085136   -6.5968833    805.19648  0.025877249  0.025704574           23 
 2594000    0.8286266   -6.5892906    807.45044  0.025939683  0.025697669           12 
 2595000   0.82794757   -6.6244843    805.09013   0.02585389  0.025690766           18 
 2596000   0.86457214   -6.6154947    807.77557  0.025930135   0.02568388           15 
 2597000   0.82950066   -6.5958027    807.43204  0.025909127  0.025676941           29 
 2598000   0.84621888   -6.6283714    805.78263  0.025846248  0.025669981           14 
 2599000   0.81161678   -6.6501572    804.35336  0.025790476  0.025662969           27 
 2600000    0.8623968   -6.6437836    805.10186  0.025804547  0.025655972            7 
 2601000   0.84343146   -6.6160471    806.24858  0.025831365  0.025649018            9 
 2602000   0.81037028   -6.6247974    806.26466  0.025821953  0.025642113            8 
 2603000   0.84519609      -6.6169    806.28376  0.025812644  0.025635178            9 
 2604000   0.82809866   -6.6370792     806.8698  0.025821486  0.025628248           16 
 2605000   0.85503914   -6.6402629    808.20327  0.025854231  0.025621342           19 
 2606000   0.84668673   -6.6210179     809.9487  0.025900125  0.025614481           22 
 2607000   0.83367738   -6.5988511    809.30123  0.025869493  0.025607613            8 
 2608000   0.84630197   -6.6040061    808.43134  0.025831778  0.025600748            9 
 2609000   0.84440882   -6.6231179    807.86763  0.025803872  0.025593833           25 
 2610000   0.83171733   -6.6409463    808.62634   0.02581821  0.025586879           24 
 2611000   0.84272871   -6.6307419    807.30066  0.025766011  0.025579934            8 
 2612000   0.81113351   -6.6129903    806.41542  0.025727904  0.025572984           27 
 2613000    0.8276807   -6.6373672    806.44698  0.025719064  0.025566042           11 
 2614000   0.83837149   -6.5970995    807.59496  0.025745823  0.025559116           11 
 2615000   0.82538269   -6.6298415    807.85906  0.025744393  0.025552227           16 
 2616000   0.84400307   -6.5986484    807.85627  0.025734463  0.025545273           11 
 2617000   0.84105751   -6.5925468    807.18963  0.025703402  0.025538324           17 
 2618000   0.82107491   -6.6131119    810.68819  0.025804946  0.025531417            8 
 2619000   0.84615367   -6.6241992    807.13224  0.025681947   0.02552446           15 
 2620000     0.846851   -6.5908782    807.70016  0.025690209  0.025517512           21 
 2621000   0.82606707   -6.6214132    808.05943   0.02569183   0.02551061           23 
 2622000   0.83865186     -6.63162     807.5538  0.025665961  0.025503696           31 
 2623000   0.84503967   -6.6116993    807.77351  0.025663156  0.025496817           15 
 2624000   0.84001178   -6.6275357    808.28067  0.025669483   0.02548992           11 
 2625000   0.82412661   -6.6189642     810.4948  0.025729993   0.02548297           43 
 2626000   0.83502264   -6.6033103    809.42274  0.025686175  0.025476088           26 
 2627000   0.83052132    -6.621055    809.05921  0.025664865  0.025469176           20 
 2628000   0.81342019   -6.6378765     807.4154  0.025602975  0.025462273           35 
 2629000   0.84281723   -6.6509693    807.80325   0.02560553  0.025455365           22 
 2630000   0.81717776   -6.6552183     810.8787  0.025693241   0.02544845           15 
 2631000   0.84353037   -6.6523837    808.89196  0.025620548  0.025441561           24 
 2632000   0.85004343    -6.621971    808.74326  0.025606106  0.025434665           22 
 2633000   0.83599844   -6.6109607     811.9156  0.025696784  0.025427798           28 
 2634000   0.83788202   -6.6110361    810.91891  0.025655496  0.025420946           16 
 2635000    0.8431855   -6.6502618    808.95403  0.025583619   0.02541407            9 
 2636000   0.82097166    -6.651281    808.44258  0.025557745  0.025407182           16 
 2637000    0.8318271   -6.6487181    809.85461  0.025592675  0.025400294           12 
 2638000   0.85295062   -6.6100071    812.39457   0.02566321  0.025393435           11 
 2639000   0.82315716   -6.6303997     809.7578  0.025570222  0.025386617           14 
 2640000   0.83200067   -6.6344441    810.99908  0.025599718   0.02537976            8 
 2641000   0.81512683    -6.622796    811.09459  0.025593039  0.025372912           11 
 2642000   0.83714423   -6.6249746    810.00267  0.025548911   0.02536605           11 
 2643000   0.80959217   -6.6331408    810.82524   0.02556518  0.025359179           16 
 2644000   0.83872851   -6.6522245    812.31984  0.025602617  0.025352291           18 
 2645000   0.82797822   -6.6320899    811.85688  0.025578352  0.025345406           17 
 2646000   0.83931209   -6.6238596    809.59373  0.025497409  0.025338557           19 
 2647000   0.84546765    -6.651407    812.72136  0.025586241  0.025331712            8 
 2648000   0.84709274   -6.6238775    810.77089  0.025515197  0.025324877           14 
 2649000   0.81157593   -6.6314038    812.31665  0.025554192   0.02531801           16 
 2650000   0.82985312   -6.6267384    811.23876  0.025510653  0.025311169            6 
 2651000   0.82278694   -6.6437054    810.13811  0.025466431  0.025304269            8 
 2652000   0.83071123    -6.623741    811.55402   0.02550132  0.025297381           12 
 2653000   0.84229167   -6.6239947    810.95758  0.025472974  0.025290527           24 
 2654000    0.8208397   -6.6252979    813.15273  0.025532301  0.025283679           16 
 2655000   0.82642722   -6.6434765    811.21109  0.025461742  0.025276856           16 
 2656000   0.81437642   -6.6675067    810.31438  0.025424021  0.025270013           29 
 2657000   0.81751898    -6.639647    814.93354  0.025559326  0.025263175           29 
 2658000   0.84695217   -6.6284844    813.58851   0.02550754  0.025256384           41 
 2659000   0.82141735   -6.6629857    813.70898  0.025501723  0.025249524           14 
 2660000   0.83206921   -6.6368014    811.01719  0.025407807  0.025242667           16 
 2661000   0.83003798   -6.6121906    811.35579  0.025408862   0.02523577           15 
 2662000   0.83181023   -6.6831301    811.91836  0.025416928  0.025228941           34 
 2663000   0.83281527   -6.6316591    812.71169   0.02543221  0.025222119           11 
 2664000   0.82711284   -6.6346649    812.76254  0.025424254  0.025215254           19 
 2665000   0.82636595   -6.6320107     812.8666  0.025417967  0.025208385           10 
 2666000   0.82584882   -6.6241759     812.7712  0.025405451  0.025201558           22 
 2667000   0.82643951   -6.6396086    813.02128   0.02540374  0.025194707           26 
 2668000    0.8163959   -6.6506364    812.05103  0.025363913  0.025187857           16 
 2669000   0.82379932   -6.6410398    812.56305  0.025370396  0.025180988           12 
 2670000   0.83037642   -6.6585796    813.58299  0.025392727  0.025174094            9 
 2671000   0.83043303   -6.6213967    813.11971  0.025368767  0.025167219            8 
 2672000   0.83869887   -6.6414611    814.64524   0.02540685  0.025160352           11 
 2673000   0.84039773   -6.6241263    812.69661  0.025336595  0.025153485           18 
 2674000   0.82618291   -6.6424223    813.67137  0.025357497  0.025146646           36 
 2675000   0.79558898   -6.6437257    814.07938  0.025360728  0.025139774           10 
 2676000   0.81669111   -6.6424676    814.51015  0.025364666  0.025132914           60 
 2677000   0.83619827   -6.6208895    814.99836  0.025370389  0.025126033           49 
 2678000   0.82156348   -6.6615814    814.51005   0.02534572  0.025119154           23 
 2679000    0.8146618   -6.6289877    815.16321  0.025356576  0.025112278           14 
 2680000   0.82377673   -6.6594726    811.86059  0.025244421  0.025105418           10 
 2681000   0.81754361   -6.6305718    816.31492  0.025373459  0.025098621            7 
 2682000    0.8287948   -6.6605664    815.16699   0.02532833  0.025091805           21 
 2683000   0.85790382   -6.6233346    815.14213  0.025318118  0.025084982           11 
 2684000   0.82779041   -6.6063732    817.02452   0.02536713  0.025078232            8 
 2685000   0.82452115   -6.6380667    816.20045  0.025332106  0.025071495           11 
 2686000   0.80975531   -6.6265678    816.78645  0.025340855  0.025064726           11 
 2687000   0.82536327   -6.6273778    815.44185  0.025289724  0.025057918            7 
 2688000    0.8290109   -6.6526105    816.56357  0.025315091  0.025051078           13 
 2689000   0.81990858   -6.6669993    815.75493  0.025280616  0.025044233           13 
 2690000   0.82851406   -6.6380491    815.89465  0.025275547  0.025037406           14 
 2691000   0.80744717   -6.6677614    816.83391  0.025295241  0.025030609            6 
 2692000   0.81458458   -6.6254329    817.06977  0.025293146  0.025023846            7 
 2693000   0.81359411   -6.6341842    815.46055  0.025233957  0.025017041           14 
 2694000   0.80966721   -6.6411492    813.89563  0.025176183  0.025010248           23 
 2695000   0.84408402   -6.6516447    816.32734  0.025242033   0.02500346           13 
 2696000   0.79832878    -6.620783    817.10361  0.025256664  0.024996729           12 
 2697000   0.80950641   -6.6511937    816.19734  0.025219297  0.024989947           13 
 2698000   0.81419374   -6.6777397    817.31191  0.025244376  0.024983139            6 
 2699000   0.81363925    -6.592643    817.05006  0.025226938  0.024976354           15 
 2700000   0.83305642   -6.6043551    816.75004  0.025208334  0.024969569           22 
 2701000    0.8351006    -6.624124    815.52914  0.025161334  0.024962726           14 
 2702000   0.84210712   -6.6464035    817.42332   0.02521044  0.024955885           16 
 2703000   0.80227492   -6.6771598    815.81897  0.025151652  0.024949034           40 
 2704000   0.81492777   -6.6607472    814.83228  0.025111942   0.02494221           28 
 2705000   0.79956213   -6.6386355    815.99703  0.025138541  0.024935356            9 
 2706000   0.80972478    -6.660083    816.45209  0.025143265  0.024928512           18 
 2707000   0.82692519   -6.6523134    815.25921  0.025097254  0.024921629           20 
 2708000   0.82630323   -6.6725446     815.2469  0.025087608  0.024914813           30 
 2709000   0.81734693   -6.6280175    817.98091  0.025162449  0.024908003           29 
 2710000   0.80789263   -6.6221104    817.89416  0.025150497  0.024901203           16 
 2711000   0.80305135   -6.6558151    816.65117  0.025103011  0.024894423           15 
 2712000   0.79948675   -6.6504603    817.63073  0.025123855   0.02488763           16 
 2713000   0.82351963   -6.6587864    818.02734  0.025126777  0.024880851            8 
 2714000   0.81977814   -6.6556889    819.49464  0.025162572  0.024874096           10 
 2715000   0.81655655   -6.6545259    818.37207  0.025118848  0.024867312           14 
 2716000   0.80578457   -6.6393034     818.6564  0.025118324  0.024860575           11 
 2717000   0.80892847   -6.6363957    818.67622  0.025109687  0.024853815           19 
 2718000   0.81033196   -6.6397097     820.5632  0.025158303   0.02484706           17 
 2719000   0.81254992   -6.6861813    819.17701  0.025106565  0.024840256           29 
 2720000   0.80754567   -6.6520793    819.13173  0.025095948  0.024833427           21 
 2721000   0.81546448    -6.632064    820.32213  0.025123182  0.024826697           23 
 2722000   0.83546174   -6.6341595    819.49869  0.025088743  0.024819943           24 
 2723000   0.81395157   -6.6509834    819.47274  0.025078735  0.024813188           24 
 2724000   0.82011472    -6.658869    820.56675  0.025102996  0.024806477           30 
 2725000   0.82200566   -6.6708457    820.96673  0.025106016  0.024799738           31 
 2726000   0.82113335   -6.6782852    819.55989  0.025053799  0.024793015           22 
 2727000   0.81667698   -6.6547452    818.95352  0.025026082  0.024786226           19 
 2728000   0.80910623   -6.6567215    819.87291  0.025044993  0.024779416           29 
 2729000   0.80022293    -6.653238    821.53755  0.025086648  0.024772678           26 
 2730000   0.80892077   -6.6796351    820.60057  0.025048858  0.024765975           16 
 2731000   0.79819122   -6.6529387    818.05541  0.024962023  0.024759246           11 
 2732000   0.82009838   -6.6643362     819.4716  0.024996083  0.024752533           15 
 2733000   0.82277107   -6.6533744    820.45314  0.025016866  0.024745772           15 
 2734000    0.8346395   -6.6539723    821.34193  0.025034807  0.024739062            8 
 2735000   0.80791182   -6.6616269    820.06889  0.024986864  0.024732308           12 
 2736000   0.80253801   -6.6169006    821.73809  0.025028572  0.024725527           17 
 2737000   0.82231464   -6.6499968    820.86053  0.024992709  0.024718775           10 
 2738000    0.8335015    -6.649185    820.73179  0.024979662  0.024712017           11 
 2739000   0.81515101   -6.6506254    818.13653  0.024891583  0.024705234           18 
 2740000   0.82184159    -6.640743    820.53861  0.024955554  0.024698468           12 
 2741000   0.82150836   -6.6479505    820.05718  0.024931813  0.024691703            9 
 2742000   0.79598674   -6.6542576    820.58205  0.024938672  0.024684913           16 
 2743000    0.8163749   -6.6368202     821.9374  0.024970756  0.024678096           19 
 2744000   0.82631107   -6.6364928    818.58549  0.024859861  0.024671289           11 
 2745000   0.80707722   -6.6563811    821.19239  0.024929945  0.024664483           25 
 2746000   0.81674507   -6.6771901    818.40882  0.024836393  0.024657649           20 
 2747000   0.80845757   -6.6841805    819.64632  0.024864893   0.02465084           27 
 2748000   0.82882359   -6.6716464     820.8828  0.024893341  0.024644037           25 
 2749000   0.80554063   -6.6333949    820.26495  0.024865556  0.024637212           74 
 2750000   0.80116236   -6.6429622    820.13468  0.024852566  0.024630424           17 
 2751000   0.79751395   -6.6684259     820.4263  0.024852366  0.024623606           25 
 2752000    0.8289177   -6.6606094     820.4528  0.024844138   0.02461682           14 
 2753000   0.78816718   -6.6717295    821.14851  0.024856172  0.024610008           17 
 2754000   0.80395059   -6.6297957     821.7461  0.024865229  0.024603182           11 
 2755000   0.80251452   -6.6539441    820.69891  0.024824528   0.02459639           13 
 2756000   0.79995873   -6.6718211    820.46478  0.024808442  0.024589575            9 
 2757000   0.81866111   -6.6743575    820.34138  0.024795713  0.024582751            8 
 2758000   0.80011525   -6.6621709    822.06182  0.024838706  0.024575962           33 
 2759000   0.79362524   -6.6740934    822.74481  0.024850333  0.024569169           14 
 2760000   0.79359541   -6.6795599    822.13471  0.024822908  0.024562356           20 
 2761000   0.78257973   -6.6730372    819.14848  0.024723786  0.024555506           40 
 2762000   0.80570905   -6.6643576    823.27563  0.024839357  0.024548729           21 
 2763000   0.83290201   -6.6631765    822.66369   0.02481191  0.024541945           10 
 2764000   0.81748122   -6.6708645    821.47239  0.024767016  0.024535129           12 
 2765000    0.8252238    -6.652134    821.48368  0.024758399  0.024528307           11 
 2766000   0.82351932   -6.6648912    821.81231  0.024759349  0.024521452           12 
 2767000   0.81670395   -6.6815519    819.12562  0.024669486  0.024514579           18 
 2768000   0.82170331   -6.6705407    821.27567  0.024725303  0.024507743           18 
 2769000   0.82795268   -6.6579218    821.10836  0.024711339  0.024500876           12 
 2770000   0.82607489    -6.661912    821.42262  0.024711872  0.024493998           12 
 2771000    0.8208394   -6.6806176    821.31942   0.02469985  0.024487128           32 
 2772000   0.79192535   -6.6694748    822.12968  0.024715298  0.024480248           19 
 2773000   0.82837851   -6.6274145    822.28187  0.024710959  0.024473392           13 
 2774000   0.82254272   -6.6798897    821.06417   0.02466547   0.02446653           13 
 2775000   0.81131922   -6.6794437    822.05837  0.024686437  0.024459672           17 
 2776000   0.80307741   -6.6617205    823.03666  0.024706912   0.02445282            7 
 2777000   0.79739886   -6.6552154    823.20513  0.024703071  0.024445934           18 
 2778000   0.79901888   -6.6959297    819.43649  0.024581128  0.024439053           13 
 2779000   0.80348844   -6.6849295    820.90691  0.024616376  0.024432121           31 
 2780000   0.79053812   -6.6693149     822.9545    0.0246689    0.0244252           21 
 2781000   0.80384372   -6.6620339     824.0828  0.024693839  0.024418332           17 
 2782000   0.82472489   -6.6667403    820.63069  0.024581557  0.024411444           11 
 2783000   0.79722155   -6.6889984    823.32369  0.024653362  0.024404547            9 
 2784000   0.81320875   -6.6588664    820.33493  0.024555045  0.024397648           20 
 2785000   0.80179918   -6.7026275    819.97742   0.02453553  0.024390714           42 
 2786000   0.79096625   -6.6979611    821.15553  0.024561962  0.024383771           12 
 2787000   0.80733855   -6.6536311    821.87054  0.024574529  0.024376899           27 
 2788000   0.79244214   -6.6934331    820.45295  0.024523343  0.024369985           12 
 2789000   0.80208277   -6.6784245    819.56994  0.024488166  0.024363022           33 
 2790000    0.8144168   -6.6771314    820.83501  0.024517175  0.024356062           23 
 2791000   0.80185243    -6.692303    821.33185  0.024523225  0.024349142           11 
 2792000   0.79793424   -6.6724581    822.09162  0.024537119  0.024342238           14 
 2793000   0.82655433   -6.6765261    820.50035  0.024480855  0.024335303           22 
 2794000   0.79093648   -6.6809267    820.35596  0.024467787  0.024328346           20 
 2795000   0.80605999   -6.6800927    823.08884  0.024540514  0.024321427           49 
 2796000    0.8129885   -6.6741523    822.71931  0.024520723   0.02431451           29 
 2797000   0.81047324   -6.6999524    821.95702  0.024489245  0.024307587           28 
 2798000   0.79806881   -6.6770397     823.1112  0.024514868  0.024300659           16 
 2799000   0.80004981   -6.6556012    821.82301  0.024467757  0.024293744           17 
 2800000   0.80378504   -6.6937498    822.42149   0.02447683  0.024286815           17 
 2801000   0.80580307    -6.661961    822.58868  0.024473065   0.02427988           19 
 2802000   0.81286146   -6.6714624     821.8243  0.024441598  0.024272913           21 
 2803000   0.80331557    -6.685295    820.92207  0.024406055  0.024265959           74 
 2804000   0.80951483   -6.6982174    821.69144  0.024420216  0.024258995           23 
 2805000   0.81343102   -6.6637396    820.74997   0.02438354  0.024252031           18 
 2806000   0.80230244   -6.6911227     821.8077  0.024406263   0.02424507           21 
 2807000   0.79734133    -6.678888    821.34088   0.02438371  0.024238072           21 
 2808000   0.80916287   -6.6883588    825.13769  0.024487704  0.024231134           18 
 2809000   0.79477266   -6.6717865    822.77839  0.024408995   0.02422424           15 
 2810000   0.79790344   -6.6792312    823.80959  0.024430889  0.024217316           22 
 2811000   0.80803379    -6.680328    823.44762  0.024411467  0.024210419           14 
 2812000   0.81284341   -6.6956893    821.78506  0.024353516  0.024203508           55 
 2813000   0.80701197   -6.7019585    822.15783  0.024355902  0.024196566           28 
 2814000   0.80966256    -6.692301    823.05926  0.024373942  0.024189624           18 
 2815000   0.80896797   -6.6846556    821.10258  0.024307359  0.024182666            9 
 2816000   0.79851707   -6.6778492    823.43256  0.024367677  0.024175744           13 
 2817000   0.79929573   -6.6976337     823.7886   0.02436956  0.024168834           14 
 2818000   0.79122903   -6.6925575    824.00148  0.024367207   0.02416196           13 
 2819000   0.81904458   -6.6778572    823.49838  0.024343691  0.024155077           17 
 2820000   0.81747185   -6.6559586    825.27307  0.024387502  0.024148211           22 
 2821000   0.79344406   -6.6370255    823.81132  0.024335676  0.024141343           31 
 2822000   0.82382744   -6.6650379    824.12852   0.02433642  0.024134511           24 
 2823000   0.79498633   -6.7051045    824.71386  0.024345078  0.024127665           23 
 2824000   0.80289899   -6.6706405    825.65669  0.024364279   0.02412082           29 
 2825000   0.79635357   -6.6513285    825.16376  0.024341114  0.024113989           15 
 2826000   0.80081406   -6.6785456    824.67981   0.02431823  0.024107136           25 
 2827000    0.7963175   -6.6234503    825.55061  0.024335297  0.024100275           10 
 2828000   0.79746844   -6.6496267     823.9699  0.024280113  0.024093448            8 
 2829000   0.82412565   -6.6739907    823.56606  0.024259634  0.024086564           12 
 2830000   0.81902435   -6.6634504    825.53652  0.024309085  0.024079689            5 
 2831000   0.81641855     -6.68386    825.43222  0.024297428  0.024072834           19 
 2832000   0.79776374     -6.69928     824.8845  0.024272731  0.024065966           12 
 2833000   0.80665071   -6.6971376    824.00616  0.024238327  0.024059075           13 
 2834000    0.8091352     -6.66225    825.20055  0.024264895  0.024052187           14 
 2835000   0.78765743   -6.6767083    826.46717  0.024293568   0.02404534           10 
 2836000   0.80102973    -6.694143    825.81269   0.02426577  0.024038453           10 
 2837000   0.79957341   -6.6892085    824.11489  0.024207346  0.024031555           20 
 2838000   0.82138986   -6.6675019    825.26088  0.024232466  0.024024666           15 
 2839000   0.78992452   -6.6767124    825.57672  0.024233202  0.024017814           12 
 2840000   0.78880563   -6.6778559    824.43501  0.024191168   0.02401093            9 
 2841000   0.80566043   -6.6830303    823.58428  0.024157699  0.024004054           12 
 2842000   0.80697001   -6.7004738     823.6962  0.024152481  0.023997171           19 
 2843000   0.79468626   -6.7134974    825.34306  0.024192258  0.023990279           29 
 2844000   0.80896486   -6.6963223    825.61126   0.02419161   0.02398339           17 
 2845000   0.79367235   -6.6598969    824.32023  0.024145291  0.023976475           16 
 2846000   0.81002755    -6.684079    823.63388   0.02411671   0.02396951           22 
 2847000   0.78841605   -6.7034074    824.59466  0.024136362  0.023962599           17 
 2848000   0.80852977    -6.694452    826.03411  0.024170006  0.023955674           15 
 2849000   0.78799232   -6.7158842    822.97259  0.024071972  0.023948765           10 
 2850000   0.81133643   -6.6951713    824.34978  0.024103795  0.023941843           18 
 2851000   0.78540673   -6.6893872     825.5112  0.024129288  0.023934913           36 
 2852000   0.80914738   -6.6802646    825.46529  0.024119486  0.023927996           30 
 2853000   0.81317253   -6.7346168    823.50184  0.024053682  0.023921075           25 
 2854000   0.79228187   -6.7059154    825.32949  0.024098619  0.023914114           76 
 2855000   0.79140254   -6.7298577    824.34537  0.024061453  0.023907176           27 
 2856000   0.80548639   -6.7000874    825.04987  0.024073584   0.02390026           24 
 2857000   0.80796292   -6.6759985    826.70511  0.024113438  0.023893368           26 
 2858000   0.79859257   -6.6966184    824.44005  0.024038957  0.023886487           18 
 2859000   0.80347481   -6.6692788     826.1079  0.024079162  0.023879634            7 
 2860000   0.79120927   -6.6962492    825.28999  0.024046911  0.023872778           14 
 2861000   0.80874154   -6.6819346      826.537  0.024074828  0.023865889           18 
 2862000   0.78191525   -6.6906415    825.35325  0.024031949   0.02385904           23 
 2863000   0.79593635   -6.6917964    827.01163  0.024071825  0.023852181            9 
 2864000   0.79267224   -6.7097955    825.74411  0.024026539  0.023845293           30 
 2865000   0.79061068   -6.7109621    825.07199  0.023998604  0.023838403            9 
 2866000   0.80613954   -6.7059505    825.57443  0.024004839  0.023831485           17 
 2867000   0.80724385    -6.686486    825.66109  0.023998985  0.023824595           18 
 2868000   0.78570699   -6.7098631    825.43572  0.023984069  0.023817695           14 
 2869000   0.80172362   -6.6775143    825.78138  0.023985749  0.023810805           13 
 2870000   0.80370717    -6.706986    825.55099  0.023970702  0.023803918           10 
 2871000   0.78622928   -6.7133177    824.75768  0.023939326  0.023797013           21 
 2872000   0.79081926   -6.6962537    826.45281  0.023980177  0.023790124           16 
 2873000   0.79670165   -6.7072688    827.35882   0.02399811  0.023783261           13 
 2874000   0.79444994   -6.6954141     826.3006  0.023959076  0.023776417           23 
 2875000   0.80161515   -6.7013386    827.23901  0.023977942   0.02376956           18 
 2876000   0.79023128    -6.705955     827.4982  0.023977115  0.023762701           41 
 2877000   0.79234131   -6.7072509     828.6865  0.024003201  0.023755844           17 
 2878000   0.77759256   -6.7253517    826.42185  0.023929287  0.023748987           17 
 2879000   0.77545249   -6.7063306    826.63087  0.023927025  0.023742133           11 
 2880000   0.77217943   -6.6863968     827.4564  0.023942604  0.023735277           14 
 2881000   0.78261157   -6.7267593    826.06549  0.023894061  0.023728439           27 
 2882000   0.78865317   -6.7089242     829.2974  0.023979222  0.023721608           13 
 2883000   0.77928092   -6.7149327     828.0147  0.023933828  0.023714797           30 
 2884000   0.78763236    -6.708464    828.09145  0.023927746  0.023707967           33 
 2885000   0.79448702   -6.7190758    829.85201  0.023970307  0.023701146           28 
 2886000   0.78018013   -6.7218767    829.97018  0.023965413  0.023694345           12 
 2887000   0.79105227   -6.7167934    827.48803  0.023885464   0.02368753           11 
 2888000    0.7887964   -6.7147894    828.72722  0.023912951  0.023680741           26 
 2889000   0.77894015    -6.732979    829.89874  0.023938466  0.023673944           13 
 2890000    0.7983841   -6.7064998    829.19552  0.023909905  0.023667139           18 
 2891000   0.77670704   -6.7020688     828.7202  0.023887934  0.023660341           37 
 2892000   0.78607009   -6.7219423    828.37533  0.023869736  0.023653521            9 
 2893000   0.78596834   -6.6950444    827.28562  0.023830096  0.023646699           20 
 2894000   0.81038121   -6.6792514    830.40139  0.023911581   0.02363994           15 
 2895000   0.80250823   -6.6919611    829.44394  0.023875761  0.023633178           19 
 2896000   0.77708092    -6.712679    828.42792   0.02383828  0.023626379           16 
 2897000   0.79867552   -6.7105199    827.00587  0.023789146  0.023619568           28 
 2898000    0.7886988   -6.7473416    830.64224  0.023885503   0.02361273           11 
 2899000   0.78812963   -6.6986098    829.28677    0.0238383  0.023605921           15 
 2900000    0.7833759    -6.694562    830.96057  0.023878177  0.023599116           13 
 2901000   0.78708266   -6.7237129     829.6288   0.02383169  0.023592342           19 
 2902000   0.79259121   -6.7109947    832.07667  0.023893771  0.023585596           30 
 2903000   0.78389843    -6.727588     830.0803  0.023828232  0.023578805           38 
 2904000   0.80144963    -6.735403     827.2907  0.023739976  0.023572002           36 
 2905000   0.78742976   -6.7290211    829.58842  0.023797717  0.023565212           43 
 2906000   0.77926533   -6.6987179    827.31323  0.023724284  0.023558428           38 
 2907000     0.768126   -6.7237475    829.18346  0.023769736  0.023551634           30 
 2908000   0.79053901   -6.6851562    829.03646  0.023757349  0.023544822           17 
 2909000    0.7835003   -6.7085095     830.3937  0.023788063  0.023538047           17 
 2910000   0.78642885    -6.690628    831.66712  0.023816355  0.023531294           16 
 2911000   0.77850518   -6.7127915    830.12757  0.023764101  0.023524504           17 
 2912000   0.79088645   -6.7207811    828.57665  0.023711557  0.023517674           13 
 2913000   0.77104143   -6.7412395      829.894  0.023741103  0.023510889           18 
 2914000   0.78471342   -6.6988848    831.40552  0.023776182  0.023504099           19 
 2915000   0.78847857   -6.7467568    828.91116  0.023696717  0.023497296           32 
 2916000   0.78117463   -6.7009477    829.48632  0.023705028  0.023490478           20 
 2917000   0.77314751   -6.7158927    829.08451  0.023685422  0.023483676           16 
 2918000   0.78258005   -6.7242296    828.49569  0.023660489  0.023476865           17 
 2919000   0.79077806   -6.7194572    830.70608  0.023715487  0.023470075            8 
 2920000   0.78849433   -6.7089579    831.22779  0.023722254  0.023463272            7 
 2921000   0.77946593   -6.6989234    830.67576  0.023698384  0.023456475           15 
 2922000   0.80008038   -6.7101724    830.11133  0.023674177  0.023449677            8 
 2923000   0.79833881   -6.7030854    829.95769  0.023661697  0.023442855           26 
 2924000   0.79325709   -6.7012849    829.56198  0.023642327  0.023436057           12 
 2925000   0.77299101   -6.7285506    827.74182  0.023582388  0.023429218           37 
 2926000   0.78796511   -6.7296499     827.5965   0.02357019   0.02342238           20 
 2927000   0.78487169   -6.7086516    829.17767  0.023607154  0.023415524           27 
 2928000   0.79074692   -6.7379307    828.33601  0.023575137  0.023408629           35 
 2929000   0.78625569   -6.7371912     831.5095  0.023657377  0.023401743           13 
 2930000   0.78941604   -6.7332645    830.45685  0.023619364  0.023394913           23 
 2931000   0.77238709   -6.7337408    830.88021  0.023623343  0.023388093           19 
 2932000   0.78686124   -6.6826312    831.76032    0.0236403  0.023381286           11 
 2933000   0.78294211   -6.7132725    831.46653  0.023623893  0.023374532           12 
 2934000   0.78155041    -6.714856    830.47959  0.023587809  0.023367743           35 
 2935000   0.77153737   -6.7294847    833.44507  0.023663971  0.023360943           23 
 2936000   0.77005063   -6.7246726    829.23926  0.023536537  0.023354139           22 
 2937000    0.7810453    -6.740982    831.39123  0.023589582  0.023347315           18 
 2938000   0.78381225   -6.7486806    830.17304     0.023547  0.023340524           33 
 2939000   0.77058578   -6.6883385    831.91132  0.023588276  0.023333731           49 
 2940000   0.77238802   -6.7300074    830.27897  0.023533984   0.02332693           41 
 2941000   0.78539926   -6.7606644    829.93446  0.023516221  0.023320108           19 
 2942000   0.78128976   -6.7123715    831.07105  0.023540422  0.023313282           30 
 2943000   0.79239353   -6.7118538    831.45773  0.023543372  0.023306507           28 
 2944000   0.78536671   -6.7242402      831.688  0.023541893  0.023299773            9 
 2945000    0.7598149   -6.7022985    832.71045  0.023562831  0.023292995           14 
 2946000   0.78525945   -6.7272776    832.09483  0.023537419  0.023286231           53 
 2947000   0.77998464   -6.7292504    833.23037  0.023561542  0.023279479           19 
 2948000   0.77240224   -6.7471653    831.15325  0.023494834    0.0232727           28 
 2949000   0.78941123   -6.7285828    831.85594  0.023506724  0.023265929           18 
 2950000   0.78289222    -6.761006    830.78276   0.02346844  0.023259127            7 
 2951000   0.78995519   -6.7515929    830.59711  0.023455244   0.02325231           30 
 2952000   0.78399016   -6.7406896    833.66234  0.023533829  0.023245493           24 
 2953000   0.78154887   -6.7268149    830.86045   0.02344679  0.023238673           17 
 2954000   0.76706213   -6.7539073    830.53715  0.023429732  0.023231876           44 
 2955000   0.77762177   -6.7267186    832.00034  0.023463067  0.023225073           38 
 2956000   0.79638609   -6.7645877    833.01026    0.0234836  0.023218312           64 
 2957000   0.77352366   -6.7385694    830.68988  0.023410266  0.023211511           63 
 2958000   0.77820087   -6.7640269    833.14092  0.023471403  0.023204724           52 
 2959000   0.78481372   -6.7565324    831.59288  0.023419874  0.023197938           40 
 2960000   0.78627148   -6.7464705    831.76919  0.023416925  0.023191145           55 
 2961000   0.77811756   -6.7590001    831.37508  0.023397925  0.023184385           51 
 2962000   0.77884607   -6.7491419    833.61529  0.023453052  0.023177629           60 
 2963000   0.78928378   -6.7441107    832.65926  0.023418249  0.023170897           49 
 2964000   0.77752228   -6.7195085    833.91995  0.023445793  0.023164169           53 
 2965000   0.77451814   -6.7402514    834.96215  0.023467177  0.023157452           63 
 2966000   0.76451791   -6.7410952    832.95527  0.023402879  0.023150716           52 
 2967000   0.77748599   -6.7769008    832.57118  0.023384203  0.023143984           27 
 2968000   0.79586675   -6.7426473     834.0775  0.023418618  0.023137248           25 
 2969000   0.78621225   -6.7290081    834.32656  0.023417721  0.023130536           46 
 2970000   0.77202543   -6.7303494    832.89167  0.023369575  0.023123822           31 
 2971000   0.79444116   -6.7268814    833.54521  0.023380041  0.023117127           41 
 2972000   0.79494448   -6.7332283    834.82593  0.023408085   0.02311042           18 
 2973000   0.78222204   -6.7224068    834.41977  0.023388826  0.023103712           15 
 2974000   0.78133456    -6.727526    835.53599  0.023412239  0.023097045           22 
 2975000   0.77640657   -6.7336439    836.00466  0.023417498   0.02309038           51 
 2976000   0.77733382   -6.7379231    834.07962  0.023355724   0.02308371           27 
 2977000   0.75026868   -6.7243464    835.69159  0.023393002  0.023077052           26 
 2978000   0.76701691   -6.7327064    833.69781  0.023329354  0.023070375           35 
 2979000   0.77721465   -6.7392176    834.23126  0.023336446  0.023063693           29 
 2980000   0.77502909   -6.7297458    835.58908  0.023366585  0.023057013           35 
 2981000   0.77282159   -6.7556434    834.72543  0.023334603  0.023050328           33 
 2982000   0.76975719   -6.6962444    833.93354  0.023304648  0.023043694           39 
 2983000   0.78824981    -6.743031    837.35129  0.023392315   0.02303708           31 
 2984000   0.76767553   -6.7575488    835.63193  0.023336459  0.023030434           83 
 2985000   0.76818402   -6.7643188    835.43663  0.023323189  0.023023767           61 
 2986000   0.75985231   -6.7292858    836.88751  0.023355869  0.023017106           29 
 2987000    0.7541817   -6.7313448    837.69913  0.023370693  0.023010515           28 
 2988000   0.77985825   -6.7314535    836.19914  0.023321038   0.02300388           52 
 2989000   0.78605765   -6.7407041    835.76894  0.023301242  0.022997262           42 
 2990000   0.78631381   -6.7289109    836.13625  0.023303686  0.022990622           26 
 2991000   0.79441879   -6.7317124    835.76366  0.023285514  0.022983996           29 
 2992000   0.78525009   -6.7132057    836.79993  0.023306593   0.02297737           20 
 2993000   0.76399136   -6.7255178    837.43728  0.023316552  0.022970749           23 
 2994000   0.80124113   -6.7324245    834.43847  0.023225297  0.022964114           39 
 2995000   0.79448758   -6.7216531    836.72458  0.023281151  0.022957459           37 
 2996000   0.77387284   -6.7107584    835.26818  0.023232871  0.022950807           24 
 2997000   0.79415321   -6.7282387     836.1291  0.023249057   0.02294413           19 
 2998000   0.78615555   -6.7182886    836.84129  0.023261099  0.022937505           62 
 2999000   0.77409448    -6.732958    835.71113  0.023221939  0.022930875           27 
 3000000   0.77261025   -6.7351084     836.7309  0.023242525  0.022924247           14 
 3001000   0.76540112    -6.748063    836.12499  0.023217955  0.022917639           14 
 3002000   0.76070999   -6.7336396    835.22886  0.023185345  0.022911009           31 
 3003000   0.76624211   -6.7384267    835.00991  0.023171548  0.022904375           28 
 3004000   0.77296487   -6.7220912    836.79296  0.023213298  0.022897759           23 
 3005000   0.77269419   -6.7439624    836.39277  0.023194475  0.022891118           11 
 3006000   0.75734143   -6.7217665    835.83756  0.023171367   0.02288442           34 
 3007000   0.76264845   -6.7384908    833.55724  0.023100467  0.022877741           19 
 3008000   0.76749581   -6.7346439    836.61304  0.023177444  0.022871087           14 
 3009000   0.76650119   -6.7495075    837.96786  0.023207263  0.022864451           22 
 3010000   0.76687985   -6.7427996    838.91037  0.023225647  0.022857843           23 
 3011000   0.76435249   -6.7390855    835.74557  0.023130343  0.022851201           35 
 3012000   0.75492349   -6.7458508    837.30003  0.023165671  0.022844594           64 
 3013000   0.77621336   -6.7169069    837.18599  0.023154829  0.022838003           35 
 3014000   0.76530264   -6.7091641    836.91034  0.023139525   0.02283142           22 
 3015000    0.7812734    -6.760991    836.69507    0.0231259  0.022824834           13 
 3016000   0.78902332    -6.719529    839.34243   0.02319138  0.022818229           13 
 3017000   0.76309943   -6.7478363    838.24778  0.023153458  0.022811635            8 
 3018000   0.77956651    -6.741222    838.91817  0.023164297  0.022805037           49 
 3019000   0.77753054    -6.739788    840.25116  0.023193418  0.022798448           15 
 3020000    0.7677872   -6.7488222     839.0531  0.023152679  0.022791871           25 
 3021000   0.74991932   -6.7201828    839.59326  0.023159916  0.022785299           11 
 3022000   0.79026088   -6.7429421    837.15938  0.023085136  0.022778714           17 
 3023000   0.77444752   -6.7588432    837.59286  0.023089449  0.022772128           17 
 3024000   0.75466166   -6.7747148    838.22293  0.023099177  0.022765526           14 
 3025000   0.77008437   -6.7245211    839.00372   0.02311305  0.022758919           22 
 3026000   0.76254892   -6.7300095    837.86336  0.023074007  0.022752343           27 
 3027000    0.7704747   -6.7350596    837.28703  0.023050518  0.022745773           22 
 3028000   0.78151059   -6.7764131    839.68603  0.023108929  0.022739214           14 
 3029000   0.76806526   -6.7493975    837.02771  0.023028164  0.022732669           13 
 3030000    0.7678127   -6.7360226    840.20545  0.023107961   0.02272612            7 
 3031000   0.76114875   -6.7490957    838.84719  0.023062993  0.022719558           17 
 3032000   0.77051826   -6.7418745    839.07662  0.023061692  0.022712995           13 
 3033000   0.79215985   -6.7254505    839.60375  0.023068572  0.022706449           10 
 3034000   0.78107799   -6.7306253    841.07952  0.023101503  0.022699929           19 
 3035000   0.77445169   -6.7251148    838.44871  0.023021656  0.022693437           21 
 3036000   0.76746981   -6.7235912    842.74365  0.023131962  0.022686916           19 
 3037000   0.75497296   -6.7325214    840.22652  0.023055277  0.022680392           24 
 3038000   0.75572306   -6.7421287     838.7709   0.02300776  0.022673836           53 
 3039000   0.77903431   -6.7363741    839.17405  0.023011244  0.022667319           13 
 3040000   0.75477375   -6.7327558     840.3755  0.023036609  0.022660798           33 
 3041000   0.76984872   -6.7544878    839.76525  0.023012311  0.022654256           39 
 3042000   0.76725741   -6.7465128    841.12403  0.023041969  0.022647707           18 
 3043000   0.75858959   -6.7685409    839.33755  0.022985473  0.022641129           47 
 3044000    0.7545389   -6.7663935    837.92169  0.022939162  0.022634537           24 
 3045000   0.76207262   -6.7557917    838.98282  0.022960668  0.022627953           26 
 3046000   0.76773224   -6.7544949     839.2055  0.022959222  0.022621353           14 
 3047000   0.75255055   -6.7726239    839.74238  0.022966371  0.022614766           17 
 3048000   0.77848898   -6.7825552    839.52382   0.02295286  0.022608197           20 
 3049000   0.76637885     -6.78477    839.94698  0.022956898  0.022601621           19 
 3050000   0.77164219   -6.7507355    837.49257  0.022882311  0.022595024           20 
 3051000   0.76290064   -6.7351358    839.78764  0.022937497  0.022588441           29 
 3052000   0.76555304   -6.7383721    839.14569  0.022912453  0.022581877           56 
 3053000    0.7576964   -6.7456992    841.04984  0.022956923  0.022575323           29 
 3054000   0.78039232   -6.7375949    839.76223  0.022914272  0.022568762           44 
 3055000   0.77797269   -6.7388141    839.12956  0.022889513  0.022562222           26 
 3056000   0.77150931   -6.7446161    840.60297  0.022922201  0.022555695           29 
 3057000   0.75706749   -6.7515596    839.68095  0.022889569  0.022549142           42 
 3058000   0.77696812   -6.7709074    841.28766  0.022925868  0.022542583           99 
 3059000   0.75228175   -6.7598668     839.9231    0.0228812  0.022536037           31 
 3060000   0.74891109   -6.7579408    840.50017  0.022889438  0.022529459           23 
 3061000   0.75956505   -6.7516706    839.09168  0.022843615  0.022522858           61 
 3062000   0.75845433   -6.7587513    837.62838  0.022796331  0.022516274           14 
 3063000   0.78084555   -6.7410212    840.53784  0.022868044  0.022509703           12 
 3064000    0.7550967   -6.7705175    840.17645  0.022850752  0.022503141           15 
 3065000   0.76452584   -6.7536644    839.19162   0.02281652  0.022496592           36 
 3066000   0.76950947   -6.7442203    839.10482   0.02280672  0.022490023           16 
 3067000   0.77075688   -6.7699643    839.13839  0.022800195   0.02248346           22 
 3068000    0.7560395   -6.7623942    839.14047   0.02279282  0.022476911           18 
 3069000   0.77740758    -6.769862    841.15725  0.022840155  0.022470359           27 
 3070000   0.75754245   -6.7622656    839.23544  0.022780549   0.02246375           44 
 3071000   0.75155952   -6.7603896    838.73213  0.022759474  0.022457144           51 
 3072000   0.78543524    -6.769971    839.69373   0.02277815  0.022450529           46 
 3073000   0.77846744   -6.7661059    837.49041  0.022710988  0.022443935           49 
 3074000   0.76647617   -6.7846762    839.30446  0.022752778  0.022437303           35 
 3075000   0.76429614   -6.7672834     838.9784  0.022736542  0.022430683          142 
 3076000   0.75124772   -6.7922625    839.34884  0.022739186  0.022424043          138 
 3077000   0.75150068   -6.8064012    838.71518  0.022714635  0.022417384          190 
 3078000     0.755218    -6.786005    839.07989  0.022717129  0.022410728          135 
 3079000   0.77884646   -6.7554829    837.94957  0.022679159  0.022404113          165 
 3080000   0.75047917   -6.7670897    839.36505  0.022710093  0.022397496           70 
 3081000   0.76313777   -6.7832613    838.94533   0.02269137  0.022390916           54 
 3082000   0.75422699   -6.7742323    839.15357  0.022689638  0.022384314           51 
 3083000   0.76457847   -6.7801374    839.84661  0.022701011   0.02237772           95 
 3084000   0.73649431   -6.7579242    841.17547  0.022729558  0.022371135           37 
 3085000   0.75512073   -6.7744724    839.85789  0.022686599  0.022364562           66 
 3086000   0.75786671   -6.7605324     841.4056  0.022721041  0.022357965           41 
 3087000   0.76816509   -6.7865621    839.64992  0.022666287   0.02235136           87 
 3088000   0.76122513   -6.7818658    840.30303  0.022676572  0.022344756           80 
 3089000   0.74290088   -6.8062174    839.63139  0.022651111  0.022338147           69 
 3090000   0.76812192   -6.7568616    839.29442  0.022634693  0.022331558           75 
 3091000   0.75432059   -6.7753299    840.15039  0.022650447  0.022324977          107 
 3092000   0.74964406   -6.7894421    840.50934  0.022652796  0.022318368          131 
 3093000   0.76954395   -6.7684679    839.07183  0.022606742  0.022311779           37 
 3094000   0.76750253   -6.7708792    838.22403  0.022576601  0.022305184           37 
 3095000   0.76066166   -6.7955139    839.54514  0.022604877   0.02229858           22 
 3096000   0.75249688   -6.7910714     839.7561  0.022603254  0.022291957          138 
 3097000   0.75540276   -6.7861023    840.21005   0.02260817  0.022285349           84 
 3098000   0.73625932   -6.7854557    840.10248  0.022597979  0.022278735           90 
 3099000   0.76639206   -6.7951502    839.59344  0.022576999  0.022272131           35 
 3100000   0.76243054   -6.7659107    840.82601   0.02260285  0.022265552           15 
 3101000   0.76598022   -6.7693543    840.73957  0.022593238  0.022258977           21 
 3102000   0.76317584   -6.7492257    838.48481  0.022525382  0.022252417           48 
 3103000   0.74943984   -6.7849958    840.63391  0.022575838  0.022245859           48 
 3104000   0.75572664    -6.798502    839.91564  0.022549282  0.022239268           84 
 3105000    0.7557952   -6.8017558    839.96533  0.022543353  0.022232667           11 
 3106000    0.7604458   -6.7941104    840.24136  0.022543501  0.022226087           43 
 3107000   0.77241845   -6.7671406    841.19006   0.02256169  0.022219501           35 
 3108000   0.74178012   -6.7288958    842.25963  0.022583109  0.022212938           47 
 3109000   0.74531359   -6.7914328    841.57456  0.022557482  0.022206386           38 
 3110000   0.76332106   -6.7922994    840.37823  0.022518173  0.022199812           24 
 3111000   0.74529966   -6.7478091    841.38945  0.022538022  0.022193241           23 
 3112000   0.75403192   -6.7787105    841.02668  0.022521066  0.022186674           17 
 3113000   0.76021691   -6.8008754    840.59057  0.022502157  0.022180112           21 
 3114000   0.74184349   -6.7567947    841.20706  0.022511428  0.022173562           17 
 3115000   0.76362821   -6.7655709    841.01562   0.02249908  0.022167018           21 
 3116000    0.7701219   -6.7621171    839.74048  0.022457758  0.022160469           41 
 3117000   0.74540761    -6.780439    843.17735  0.022542438   0.02215394           23 
 3118000   0.75405464   -6.7829461    842.21818  0.022509573  0.022147394           64 
 3119000   0.74483889   -6.7669885    843.33375  0.022532162  0.022140867           26 
 3120000   0.76943568   -6.7637672    841.55822  0.022477517  0.022134333           34 
 3121000   0.74303257   -6.7865466    842.90767  0.022506346  0.022127796           32 
 3122000   0.75573273   -6.7850992    841.39735  0.022458823   0.02212129           48 
 3123000   0.74571914   -6.7709767    842.18316    0.0224726  0.022114773           50 
 3124000    0.7529783   -6.7820155    842.32168  0.022469102  0.022108263           22 
 3125000   0.76298304   -6.7800389    840.34961  0.022409323  0.022101704           31 
 3126000   0.76860369   -6.7694178    842.35173  0.022455527  0.022095148           98 
 3127000   0.74236065   -6.7640767    842.63081  0.022455783  0.022088625           57 
 3128000   0.76820695   -6.8050568     841.8479  0.022427747  0.022082102           52 
 3129000   0.75661036   -6.7876501    841.72464  0.022417296  0.022075589           29 
 3130000   0.75975352   -6.7830917    841.75937  0.022411059  0.022069058           35 
 3131000   0.74652272   -6.7575516     842.3519  0.022419672  0.022062553           19 
 3132000   0.75363767   -6.7856158    843.54346  0.022444217  0.022056019           72 
 3133000   0.74895096   -6.7961277    842.47585  0.022408656    0.0220495           41 
 3134000   0.74910118   -6.8153304    842.45447  0.022400938  0.022042992           51 
 3135000   0.77457533   -6.8015248    843.45955  0.022420509  0.022036484           60 
 3136000   0.73844944   -6.7865555    841.92996  0.022372714  0.022029973           69 
 3137000   0.72771992   -6.7832492    842.46655  0.022379836  0.022023499           61 
 3138000    0.7477138   -6.7808015    843.14782  0.022390796   0.02201702           92 
 3139000   0.75082445   -6.7818236    844.57664  0.022421595  0.022010528           47 
 3140000   0.75754855    -6.786493    842.89688  0.022369875  0.022004007           93 
 3141000    0.7521155   -6.8121619    840.87859  0.022309206  0.021997478           64 
 3142000   0.75012784   -6.8243718    843.78733  0.022379252   0.02199095          191 
 3143000    0.7657809   -6.8065101    843.40757  0.022362063   0.02198443          165 
 3144000   0.73196677   -6.7897686    843.34202  0.022353213  0.021977913           74 
 3145000   0.74240735   -6.8029369    841.69448   0.02230245  0.021971406          111 
 3146000   0.75786275   -6.7957627    842.20025  0.022308758  0.021964898          172 
 3147000   0.74449919   -6.8006709    843.00618  0.022323011  0.021958394          116 
 3148000   0.77350577   -6.8081768    845.20666   0.02237417  0.021951925           67 
 3149000   0.75208727   -6.7817692    843.69616  0.022327092  0.021945437           43 
 3150000   0.74856423   -6.8079712    844.74134  0.022347654  0.021938945           35 
 3151000   0.75494899   -6.7866456    843.57512   0.02230972  0.021932462           37 
 3152000   0.74309953   -6.7912891    841.58389  0.022249997  0.021925964           28 
 3153000   0.73595554   -6.8025667    842.26987  0.022261071  0.021919463           63 
 3154000   0.75002285    -6.808672    843.92912  0.022297852  0.021912973           51 
 3155000   0.74375554   -6.7713058    844.53639  0.022306825  0.021906492           59 
 3156000   0.74054064   -6.8199571    844.50442  0.022298913  0.021900047           94 
 3157000   0.74801115   -6.8230155    844.05597  0.022280012  0.021893571           44 
 3158000    0.7455346   -6.8147223    841.29506  0.022200102  0.021887075           54 
 3159000   0.75689391   -6.8239697    842.62807  0.022228239  0.021880543           56 
 3160000   0.76595623   -6.8010297    842.18544  0.022209532  0.021874061           53 
 3161000   0.74756327   -6.7946477    845.77361    0.0222971  0.021867624           39 
 3162000   0.74516878   -6.7973394    842.20652  0.022196039  0.021861183           68 
 3163000   0.73986369    -6.817963    843.27709  0.022217228  0.021854695           50 
 3164000   0.73972516   -6.8092578     841.8999  0.022173933  0.021848208           49 
 3165000   0.72912672    -6.799648    842.95491  0.022194705  0.021841719           37 
 3166000   0.74426982   -6.8043113    842.61397  0.022178721  0.021835249           67 
 3167000   0.75020924   -6.8065632     843.8382  0.022203931  0.021828798           70 
 3168000   0.73917805   -6.8096397     843.5494  0.022189326  0.021822349           62 
 3169000   0.74294449   -6.7806373    845.22097   0.02222628  0.021815908           62 
 3170000    0.7541796   -6.8033436    844.71199  0.022205888  0.021809483           85 
 3171000   0.74672051   -6.8060943    844.57701  0.022195338  0.021803056           50 
 3172000   0.73284614   -6.8069712    844.99956  0.022199442  0.021796647           44 
 3173000   0.74382297   -6.7973762    845.10351  0.022195176   0.02179023           61 
 3174000   0.75486204   -6.7882788    844.59287  0.022174776  0.021783799           61 
 3175000   0.73980778   -6.7982245    843.68539  0.022143974  0.021777384           32 
 3176000   0.74298912   -6.7938581    847.72629  0.022243028  0.021770967           26 
 3177000   0.75503758   -6.7887547    845.57377  0.022179566  0.021764567           14 
 3178000   0.75222896   -6.7913204    844.57694  0.022146448  0.021758175           55 
 3179000   0.75309056   -6.8137145    843.79339  0.022118942  0.021751796           23 
 3180000   0.74404992   -6.7891235    846.45529  0.022181742   0.02174541           28 
 3181000   0.73605824   -6.7960199    845.06735  0.022138409  0.021739033           50 
 3182000    0.7461875   -6.8075216    846.19144   0.02216089  0.021732669           20 
 3183000   0.74920218   -6.8037869    846.02191   0.02214949  0.021726306           48 
 3184000   0.73617934   -6.7907991    846.43297  0.022153292   0.02171994           64 
 3185000   0.74911583    -6.766102    845.28751  0.022116366  0.021713609           73 
 3186000   0.73859073    -6.793392    847.49199  0.022167085  0.021707272           97 
 3187000   0.74070096   -6.8171932     847.9966  0.022173324  0.021700893           89 
 3188000   0.75688721   -6.8123627    847.13527  0.022143854  0.021694504          109 
 3189000   0.74416952   -6.8097245     846.7413  0.022126615  0.021688142          101 
 3190000   0.73596451   -6.8114683    844.62619  0.022064425  0.021681762           66 
 3191000     0.737793   -6.8102197    844.12542  0.022044433  0.021675355          124 
 3192000   0.74535651   -6.8297745    844.24478  0.022040643  0.021668967          179 
 3193000   0.75444503   -6.8301007     846.3719  0.022089255  0.021662585          124 
 3194000   0.74238976    -6.826337    846.83614  0.022094452  0.021656216           65 
 3195000   0.74349682     -6.83435    846.38406  0.022075745   0.02164985           56 
 3196000   0.73674593    -6.817406    845.73659  0.022051955   0.02164349           90 
 3197000    0.7394412   -6.8542178    845.04132  0.022026935  0.021637106          188 
 3198000   0.74921933   -6.8329641    844.94381  0.022017506  0.021630728          121 
 3199000   0.74850391    -6.810697    847.07111  0.022066039  0.021624347          144 
 3200000   0.73568062   -6.7914795    847.87928  0.022080189  0.021617997          208 
 3201000   0.72784129   -6.7986588    848.47511  0.022088803  0.021611664          166 
 3202000   0.73736068   -6.7993477     847.9395  0.022067965  0.021605307          169 
 3203000   0.74014061   -6.8292198    847.95575  0.022061498   0.02159895          186 
 3204000   0.73473249   -6.8345117    846.82246  0.022025137  0.021592593          205 
 3205000   0.72828335   -6.7872502    847.74291  0.022042197  0.021586268          356 
 3206000   0.73691025   -6.8453342    844.70293  0.021956304  0.021579929          401 
 3207000   0.74338811   -6.8292597    848.26666  0.022042061  0.021573579          319 
 3208000   0.72824536    -6.832503    846.44863  0.021987963  0.021567205          558 
 3209000   0.72590684   -6.8383993    847.32374  0.022003836  0.021560829          369 
 3210000   0.73552961   -6.8266127    846.81553  0.021983788  0.021554436          332 
 3211000   0.74659338   -6.8502421    845.81287   0.02195092  0.021548055          412 
 3212000   0.72313691   -6.8776232    846.03206  0.021949773  0.021541661          584 
 3213000   0.74363233   -6.8639694    846.08065  0.021944202  0.021535246          767 
 3214000   0.72768234   -6.8372069     847.4713  0.021973431   0.02152882          704 
 3215000   0.72830317   -6.8563815      845.252  0.021909072  0.021522387          765 
 3216000    0.7286678   -6.8623372    843.72904  0.021862796  0.021515948          891 
 3217000   0.74360029   -6.8755858    845.39644  0.021899193  0.021509492          907 
 3218000   0.74076303   -6.9203262    843.25435  0.021836916  0.021502985         1136 
 3219000   0.72356613   -6.9300165     843.5156  0.021836896  0.021496439         1224 
 3220000   0.73335205   -6.8839757    844.14411   0.02184638  0.021489915         1123 
 3221000   0.71982305   -6.9337867    843.20342   0.02181526  0.021483388         1141 
 3222000   0.75931699   -6.9087566    845.15445   0.02185895  0.021476868         1272 
 3223000   0.75411486   -6.9167654    841.86956  0.021767234  0.021470328         1333 
 3224000   0.74115917   -6.9338695     841.9489  0.021762534  0.021463752         1277 
 3225000   0.72681116   -6.9118723     843.8052  0.021803752  0.021457172         1325 
 3226000   0.74652762   -6.9761179    839.82205  0.021694101  0.021450569         1575 
 3227000   0.74296498   -6.9707833    839.89654  0.021689302  0.021443941         1659 
 3228000   0.74560157   -7.0079889    839.57488  0.021674279   0.02143726         1810 
 3229000   0.73459681   -7.0192394     839.0402  0.021653768  0.021430496         2113 
 3230000    0.7244431   -7.0764119    838.11215  0.021623121  0.021423699         2300 
 3231000   0.73172945   -7.0935545    834.53401  0.021524141  0.021416802         2557 
 3232000   0.74212208   -7.1397279    834.78411   0.02152393  0.021409825         2789 
 3233000   0.73606274    -7.151909    831.75396  0.021439168  0.021402772         2905 
 3234000   0.74071057   -7.2148458    829.89588   0.02138466  0.021395655         3087 
 3235000   0.73181127   -7.2489663    827.75775  0.021322971  0.021388435         3242 
 3236000   0.74268874   -7.2723731    827.52587  0.021310411  0.021381145         3392 
 3237000     0.729594    -7.288673     825.5419  0.021252752  0.021373804         3534 
 3238000   0.73544016   -7.3059027    826.17585  0.021262504  0.021366415         3646 
 3239000   0.73204335   -7.3414421    824.41025  0.021210514  0.021359001         3719 
 3240000   0.73588842   -7.3320025    823.52342  0.021181158  0.021351556         3763 
 3241000   0.73722605   -7.3665472    824.22226  0.021192591   0.02134408         3783 
 3242000   0.73911815   -7.3578368    823.41809  0.021165384   0.02133659         3830 
 3243000   0.72214028   -7.3838095    823.81831  0.021169141  0.021329076         3799 
 3244000   0.72898769   -7.3616041    823.57193  0.021156287  0.021321558         3851 
 3245000   0.74632137   -7.3857558     822.2542  0.021115927  0.021314035         3828 
 3246000   0.73302707   -7.4128014    821.22995  0.021083127  0.021306508         3871 
 3247000   0.72051197   -7.4163915    823.15404  0.021126015  0.021298971         3863 
 3248000   0.73986432   -7.3826376    822.26503  0.021096701  0.021291438         3844 
 3249000   0.73393536   -7.3729321    821.55781  0.021072069    0.0212839         3849 
 3250000   0.73607241   -7.3911979     822.1461  0.021080669  0.021276376         3847 
 3251000   0.74012073   -7.3892815    822.89529  0.021093389  0.021268838         3844 
 3252000   0.72731226   -7.4014121     821.0783  0.021040342  0.021261313         3841 
 3253000   0.72562712   -7.4030586    821.73224  0.021050626  0.021253777         3885 
 3254000   0.72799157   -7.3969978    821.01651  0.021025827  0.021246245         3865 
 3255000   0.73589428   -7.3677596    823.03453  0.021071033  0.021238711         3869 
 3256000   0.73672161    -7.368588    822.42906  0.021049065  0.021231181         3862 
 3257000   0.73502476   -7.3991009    820.77366  0.021000247  0.021223646         3864 
 3258000   0.73651029   -7.3798771    822.81124  0.021045919  0.021216119         3866 
 3259000   0.73812874    -7.388148    822.80937  0.021039413  0.021208604         3849 
 3260000   0.73206466   -7.4002958    822.59105  0.021027379  0.021201082         3855 
 3261000   0.73227041   -7.3803284    822.44589  0.021017221  0.021193564         3840 
 3262000   0.75116029   -7.4107017    822.94714  0.021023583  0.021186047         3875 
 3263000   0.72376887   -7.4246648    822.23079  0.020998845  0.021178519         3887 
 3264000   0.72353757   -7.4048107    820.65515  0.020952184  0.021170997         3847 
 3265000   0.71869484   -7.4047846    822.73254  0.020998789  0.021163471         3846 
 3266000    0.7275571   -7.3902444    822.43303  0.020984717  0.021155948         3841 
 3267000   0.71657238   -7.3955315    821.88858  0.020964406  0.021148437         3847 
 3268000   0.70720013   -7.4140748    822.44891  0.020972279  0.021140924         3835 
 3269000   0.73154833   -7.4035313    820.74436  0.020922412  0.021133408         3863 
 3270000   0.71913631   -7.4068398    820.43617  0.020908159  0.021125886         3860 
 3271000   0.73671858   -7.4102019    821.25443  0.020922614  0.021118367         3889 
 3272000   0.71076957   -7.4139164    821.73381  0.020928428  0.021110843         3904 
 3273000   0.71673043   -7.3923391    823.40789  0.020964657  0.021103332         3887 
 3274000   0.73572655   -7.3790286    818.56662  0.020835029  0.021095821         3882 
 3275000   0.73363369   -7.4087694    821.33209  0.020899035  0.021088311         3868 
 3276000   0.72776881   -7.4063931    822.87263  0.020931843   0.02108079         3882 
 3277000   0.71272553   -7.3976396     822.3068  0.020911067  0.021073266         3846 
 3278000   0.74733904   -7.3938132    820.76092  0.020865388  0.021065742         3872 
 3279000   0.73787113   -7.3795171    821.55267  0.020879147   0.02105822         3874 
 3280000   0.71906729   -7.4121511    820.36353  0.020842569  0.021050704         3894 
 3281000   0.72690242   -7.4029852    823.01111  0.020903462  0.021043175         3886 
 3282000   0.73211848    -7.380018    822.34218  0.020880108  0.021035657         3913 
 3283000   0.74373913   -7.4180701    820.61514   0.02082991  0.021028142         3875 
 3284000   0.73484613   -7.4020263    820.46451  0.020819745   0.02102062         3876 
 3285000   0.72487562   -7.4094706    820.99988  0.020826988  0.021013094         3894 
 3286000    0.7348204    -7.417304    821.50481  0.020833455  0.021005575         3886 
 3287000   0.70630508   -7.4147789    822.16474  0.020843848  0.020998058         3910 
 3288000   0.72502452   -7.4291081    820.04071  0.020783676  0.020990538         3902 
 3289000   0.72552482   -7.4065376     821.4308  0.020812577   0.02098302         3897 
 3290000   0.72295324   -7.4086996    821.51947  0.020808497  0.020975502         3895 
 3291000   0.74212298   -7.4104853    819.91496  0.020761546  0.020967987         3882 
 3292000    0.7360654   -7.3990195    821.30314  0.020790379  0.020960482         3898 
 3293000    0.7246942   -7.4162599    819.66842  0.020742697  0.020952974         3902 
 3294000   0.73111328   -7.4012007    822.53705  0.020808972  0.020945467         3868 
 3295000   0.72951817   -7.4405924    821.38151  0.020773432  0.020937968         3877 
 3296000   0.72985292   -7.3977292     820.3236  0.020740382   0.02093046         3902 
 3297000   0.70799495   -7.4363468    821.61455  0.020766721  0.020922954         3880 
 3298000   0.74103699   -7.4404062    820.39204  0.020729534  0.020915444         3878 
 3299000   0.71897657   -7.4118015    820.23115  0.020719186  0.020907946         3890 
 3300000   0.73082148   -7.4114409    820.29144   0.02071443   0.02090045         3894 
 3301000    0.7282772   -7.4029829    819.91901  0.020698753  0.020892954         3882 
 3302000   0.72691569   -7.4281901    821.50464  0.020732501  0.020885452         3890 
 3303000   0.72728227   -7.4180835    821.35523  0.020722455  0.020877949         3888 
 3304000   0.70329967   -7.4208966    821.21581  0.020712667  0.020870447         3874 
 3305000   0.70867243   -7.4173132    821.23495  0.020706882  0.020862956         3900 
 3306000   0.72839204   -7.4126288    821.74068  0.020713367  0.020855463         3882 
 3307000   0.72079571   -7.4073818    821.35578  0.020697404  0.020847968         3893 
 3308000   0.72037276   -7.4457122    820.79548  0.020677032  0.020840476         3892 
 3309000   0.71354876   -7.4345844    820.74854  0.020669601   0.02083299         3894 
 3310000    0.7262363    -7.434224    819.62444  0.020635056  0.020825504         3906 
 3311000   0.72734332   -7.4269838    818.99574     0.020613  0.020818031         3902 
 3312000   0.72460183   -7.4231371    819.57167  0.020621268   0.02081054         3878 
 3313000    0.7300279   -7.4375357    821.59335  0.020665896  0.020803062         3894 
 3314000    0.7243172   -7.4281904    821.03051  0.020645507  0.020795578         3897 
 3315000   0.71794662   -7.4109473    820.88175  0.020635539  0.020788103         3882 
 3316000   0.70850987   -7.4302976    820.55738  0.020621164  0.020780614         3909 
 3317000   0.70631964   -7.4219006     820.4088  0.020611215  0.020773126         3903 
 3318000   0.71213869   -7.4132658    820.29109  0.020602047  0.020765652         3904 
 3319000   0.70811155   -7.4406503    819.59617  0.020578391  0.020758167         3900 
 3320000   0.71998825   -7.4147038    818.77415   0.02055156  0.020750685         3911 
 3321000   0.74079519   -7.4217502    819.97241  0.020575439  0.020743209         3907 
 3322000   0.71706655    -7.413125    818.57034  0.020534074  0.020735737         3893 
 3323000   0.72108765   -7.4093559    821.02718  0.020589507  0.020728272         3886 
 3324000   0.72804492   -7.4580472    820.19464  0.020562441  0.020720807         3905 
 3325000   0.72626708   -7.4332757    823.49647  0.020639009   0.02071335         3882 
 3326000   0.72140769   -7.4470484    821.62765   0.02058598  0.020705882         3895 
 3327000   0.71356225   -7.4228067    820.71089   0.02055683   0.02069841         3895 
 3328000   0.71257601   -7.4172223    820.98696  0.020557566  0.020690947         3909 
 3329000   0.70714354   -7.4438701     820.4571  0.020538127  0.020683485         3910 
 3330000   0.73315931   -7.4366022    818.47117  0.020482262  0.020676014         3913 
 3331000   0.73217787   -7.4266945    821.63786  0.020555335  0.020668553         3902 
 3332000    0.7174726   -7.3977986    818.75915   0.02047717  0.020661097         3906 
 3333000   0.72433484   -7.4174253    820.79971  0.020522045  0.020653637         3904 
 3334000   0.71320554   -7.4515832    821.68017  0.020537897  0.020646181         3921 
 3335000   0.71017459   -7.4399715    820.21573  0.020495146  0.020638732         3911 
 3336000   0.71508588   -7.4402921    820.11351  0.020486449  0.020631281         3881 
 3337000   0.72750002   -7.4343523    819.75958  0.020471471  0.020623832         3900 
 3338000   0.71985503   -7.4615024    819.02679  0.020447044  0.020616382         3899 
 3339000    0.7217442   -7.4545553    820.64722  0.020481362  0.020608938         3906 
 3340000    0.7223485    -7.426897    822.45181  0.020520255  0.020601499         3898 
 3341000   0.71849952   -7.4216765    819.43523  0.020438871  0.020594056         3906 
 3342000   0.71961975   -7.4331943    820.01434  0.020447196  0.020586612         3898 
 3343000   0.72806618   -7.4179699    818.89787  0.020413248   0.02057917         3912 
 3344000   0.72144845   -7.4384717    820.11736  0.020437534  0.020571732         3906 
 3345000   0.71356453   -7.4542935    820.40752  0.020438653   0.02056429         3894 
 3346000   0.69482066   -7.4294371    820.51765  0.020435287  0.020556855         3900 
 3347000   0.71616394   -7.4358313    819.78033  0.020410824  0.020549428         3904 
 3348000   0.71669022   -7.4352112    820.37545   0.02041954  0.020542002         3920 
 3349000   0.71247498    -7.462054    821.44017  0.020439937  0.020534568         3905 
 3350000   0.71490308   -7.4262378    820.00842  0.020398219  0.020527144         3914 
 3351000   0.73028988   -7.4345457    819.32062  0.020375028  0.020519711         3899 
 3352000   0.72622526   -7.4374847    819.35546  0.020369816  0.020512286         3915 
 3353000   0.71923954   -7.4133989    818.96355     0.020354  0.020504862         3897 
 3354000   0.71407117   -7.4453159    821.30389  0.020406079  0.020497437         3893 
 3355000   0.70503603    -7.424209    820.11884  0.020370562  0.020490016         3921 
 3356000   0.71288596   -7.4664553    819.65063  0.020352866  0.020482586         3916 
 3357000   0.71094938   -7.4436641    819.51034  0.020343321  0.020475152         3931 
 3358000   0.71923932   -7.4188503    820.22391  0.020354971  0.020467721         3896 
 3359000   0.70900475    -7.452869    820.37437  0.020352644  0.020460302         3914 
 3360000   0.69694078   -7.4496938    818.22721  0.020293334  0.020452874         3930 
 3361000   0.72008376   -7.4629011    820.05374  0.020332583  0.020445453         3927 
 3362000   0.70467743   -7.4396519    819.13807  0.020303839  0.020438032         3909 
 3363000   0.70241328   -7.4438366    818.44235  0.020280562   0.02043062         3938 
 3364000   0.71964872   -7.4479484    821.67896  0.020354711  0.020423199         3924 
 3365000   0.72458323   -7.4478784    818.87305  0.020279174  0.020415783         3914 
 3366000   0.71757405   -7.4590052    819.38735  0.020285882  0.020408367         3919 
 3367000   0.72995667   -7.4447808    821.43355  0.020330501  0.020400948         3919 
 3368000   0.71643224   -7.4626457    820.00248  0.020289056  0.020393542         3927 
 3369000   0.71682914   -7.4684207     819.6875  0.020275242  0.020386138         3941 
 3370000   0.72551532   -7.4277031    818.75698  0.020246216  0.020378733         3922 
 3371000   0.70797596   -7.4494128     818.3993  0.020231368   0.02037133         3936 
 3372000    0.7155118   -7.4691919    820.65653  0.020281152  0.020363934         3915 
 3373000   0.71500822   -7.4662403    819.36332  0.020243189  0.020356544         3924 
 3374000   0.70234178   -7.4488583    819.62363  0.020243619  0.020349141         3928 
 3375000   0.72659814   -7.4632753    817.91066  0.020195325  0.020341746         3929 
 3376000   0.69953767   -7.4468845     820.5388  0.020254216  0.020334348         3935 
 3377000   0.70501396    -7.447922    818.90072  0.020207796   0.02032695         3911 
 3378000   0.70672044   -7.4332146    819.43782  0.020215064  0.020319559         3914 
 3379000   0.71323804     -7.45833    818.89544  0.020195705  0.020312172         3925 
 3380000   0.70349514   -7.4523305    818.23648  0.020173483  0.020304785         3934 
 3381000   0.72366777   -7.4478727     818.6692  0.020178182  0.020297404         3940 
 3382000    0.7045685   -7.4446997    818.88191  0.020177457  0.020290022         3929 
 3383000   0.72260054   -7.4765888    819.19772  0.020179272  0.020282635         3919 
 3384000   0.71628177   -7.4493164    820.44454  0.020204013  0.020275262         3935 
 3385000   0.71259341   -7.4509752    820.06901  0.020188799  0.020267881         3930 
 3386000   0.70188441   -7.4504283    818.46034  0.020143245  0.020260514         3925 
 3387000    0.7189675   -7.4528234    817.19803   0.02010624  0.020253138         3921 
 3388000   0.70689471   -7.4519774    819.59418  0.020159243  0.020245764         3931 
 3389000   0.72759777   -7.4494103    818.32554  0.020122099  0.020238388         3923 
 3390000   0.70655312   -7.4594105    818.66773  0.020124576  0.020231012         3933 
 3391000   0.70180178   -7.4451681    819.36709  0.020135827  0.020223647         3927 
 3392000      0.71585   -7.4493839    820.01416  0.020145788  0.020216281         3944 
 3393000   0.71115541   -7.4463618    820.78833  0.020158865  0.020208915         3922 
 3394000   0.71919783   -7.4780718    817.03722  0.020060824  0.020201554         3935 
 3395000   0.72134432   -7.4393093    818.40699  0.020088537   0.02019419         3930 
 3396000   0.70929807   -7.4375998    818.51176  0.020085192   0.02018683         3925 
 3397000   0.71538994    -7.448257     820.0014  0.020115823  0.020179476         3907 
 3398000   0.72157543   -7.4479332     818.2507  0.020066968  0.020172127         3925 
 3399000   0.68603527   -7.4600168    817.55641  0.020044043  0.020164767         3928 
 3400000   0.69707007    -7.444845    818.07646  0.020050894  0.020157417         3951 
 3401000   0.70723367   -7.4431833    818.69871  0.020060245  0.020150073         3928 
 3402000   0.69372202   -7.4302886    819.75506  0.020080224  0.020142723         3932 
 3403000   0.71867663   -7.4406303     817.4993  0.020019084  0.020135382         3946 
 3404000   0.70423348   -7.4500348    820.73516   0.02009242  0.020128044         3934 
 3405000   0.70062925   -7.4716571    817.77673  0.020014115  0.020120708         3944 
 3406000   0.70842457   -7.4627377    818.41124  0.020023763  0.020113368         3936 
 3407000   0.70197831   -7.4664167    820.11046  0.020059448  0.020106041         3943 
 3408000   0.69688806   -7.4670342    819.63725  0.020041991  0.020098711         3932 
 3409000   0.70623292   -7.4691754    819.51584  0.020033144  0.020091379         3930 
 3410000   0.71435957   -7.4886096    818.48865  0.020002167  0.020084049         3932 
 3411000   0.70616021   -7.4541645    820.30891  0.020040773  0.020076723         3930 
 3412000   0.69980245   -7.4595152    818.74837  0.019996785  0.020069399         3923 
 3413000   0.70520208   -7.4549934    818.96819  0.019996293  0.020062076         3939 
 3414000   0.72698193   -7.4655404    820.05624  0.020016995  0.020054768         3929 
 3415000   0.70307527   -7.4710728    817.19724  0.019941367  0.020047456         3937 
 3416000   0.72441532   -7.4639718    818.40607  0.019965019   0.02004014         3935 
 3417000   0.69810359   -7.4617167      818.792  0.019968588  0.020032828         3934 
 3418000   0.69400749   -7.4466288    817.77616  0.019937979  0.020025522         3939 
 3419000   0.71549878   -7.4586633    818.99227  0.019961789  0.020018227         3928 
 3420000   0.70389186   -7.4394701     817.9224  0.019929883  0.020010927         3930 
 3421000   0.71414854   -7.4506869    818.04207  0.019926972  0.020003619         3922 
 3422000   0.70830555   -7.4640534     818.4493  0.019931066  0.019996313         3933 
 3423000   0.68837877   -7.4940517    819.21645   0.01994392  0.019989004         3930 
 3424000   0.70864431   -7.4883646    817.82979  0.019904347  0.019981703         3926 
 3425000    0.7073847    -7.458592    818.27365  0.019909335    0.0199744         3926 
 3426000   0.70445105    -7.470607    818.81867   0.01991678  0.019967114         3937 
 3427000   0.70472652   -7.4683295    818.57534  0.019905052  0.019959826         3923 
 3428000   0.69674784    -7.469428    818.68308  0.019901864  0.019952537         3922 
 3429000   0.70870308    -7.458121    818.06684  0.019881084  0.019945244         3927 
 3430000   0.68684686   -7.4571741     817.3014  0.019856691  0.019937957         3942 
 3431000   0.69784657   -7.4652339    820.79125  0.019935666  0.019930671         3926 
 3432000   0.68860404   -7.5088984    818.14486    0.0198656  0.019923378         3923 
 3433000   0.69636808   -7.4783125    819.49681  0.019892631  0.019916088         3930 
 3434000   0.70722549   -7.4473868    820.84353  0.019919519  0.019908805         3934 
 3435000   0.68381791   -7.4890111    819.19965  0.019873839  0.019901523         3946 
 3436000   0.70837059   -7.4681081    818.58964  0.019853261  0.019894235         3941 
 3437000   0.69257587   -7.4549555    819.42566  0.019867754  0.019886955         3929 
 3438000    0.7045457   -7.4781935    817.42039   0.01981337  0.019879689         3927 
 3439000   0.72064165   -7.4641171    818.47278   0.01983311  0.019872419         3937 
 3440000   0.70665937   -7.4852983    819.12119  0.019843052  0.019865149         3941 
 3441000   0.69420764   -7.4551493    818.79574  0.019829404  0.019857883         3944 
 3442000   0.71175472   -7.4785213    818.16546  0.019808383  0.019850612         3941 
 3443000   0.72304197   -7.4649407    817.82285  0.019794338  0.019843356         3928 
 3444000   0.71098243   -7.4685483    818.11649  0.019795695  0.019836096         3932 
 3445000   0.70021589    -7.474074    820.15525  0.019839266  0.019828842         3943 
 3446000   0.71182231    -7.467905    818.54385  0.019794541  0.019821587         3932 
 3447000    0.6935834   -7.4995699    819.95628  0.019822945  0.019814334         3930 
 3448000   0.71064873   -7.4460728     816.8822  0.019742899  0.019807079         3948 
 3449000   0.70133728   -7.4515468    818.39739  0.019773784  0.019799831         3932 
 3450000   0.69615206   -7.4609524    817.07014  0.019735994  0.019792579         3929 
 3451000   0.68128163   -7.4649796    818.83093  0.019772794  0.019785338         3938 
 3452000   0.71857677   -7.4659599    818.11467  0.019749775  0.019778095         3928 
 3453000   0.67856654   -7.4858835    818.27178  0.019747847   0.01977085         3933 
 3454000   0.69331584   -7.4718758    819.36863  0.019768593  0.019763618         3927 
 3455000   0.70585105   -7.4492775    818.60397  0.019744428  0.019756383         3930 
 3456000   0.70493042   -7.4598233    819.25013  0.019754295  0.019749158         3935 
 3457000   0.68402921   -7.4674465    819.24701  0.019748506  0.019741929         3911 
 3458000   0.71006042   -7.4837709    816.96946  0.019687909  0.019734705         3932 
 3459000   0.69477611   -7.4684825     817.7109   0.01970008  0.019727485         3941 
 3460000   0.68501371   -7.4610558    818.08991  0.019703514  0.019720263         3934 
 3461000   0.69087597   -7.4665132    818.61037  0.019710353  0.019713041         3944 
 3462000   0.68730693   -7.4491063    819.36313  0.019722779  0.019705828         3934 
 3463000   0.70309089    -7.479377    816.42801  0.019646453  0.019698615         3925 
 3464000   0.69626602   -7.4820877    817.92923  0.019676896  0.019691404         3933 
 3465000   0.69914987   -7.4717628     818.2435  0.019678776  0.019684196         3933 
 3466000   0.69264324   -7.4905415    819.36103  0.019699967  0.019676981         3928 
 3467000   0.69093135   -7.4654507    818.55833  0.019674991  0.019669772         3940 
 3468000   0.69102312   -7.4813774    818.50068  0.019667932  0.019662576         3936 
 3469000   0.69318546   -7.4723835    818.16532  0.019654207  0.019655385         3934 
 3470000   0.69248511   -7.4816679    818.38253  0.019653759  0.019648193         3917 
 3471000   0.68354072   -7.4832841    818.33346  0.019646919  0.019641002         3935 
 3472000   0.69103869   -7.4637298    818.61275  0.019647963  0.019633811         3926 
 3473000   0.69175358     -7.47695    820.16586  0.019679572  0.019626618         3939 
 3474000   0.67726044   -7.4559219    819.31895  0.019653592  0.019619419         3940 
 3475000   0.70788019   -7.4721366    818.54297  0.019629328  0.019612234         3952 
 3476000   0.68060016    -7.451727    818.28098    0.0196174  0.019605041         3922 
 3477000   0.70348201    -7.472898    816.81497  0.019576622  0.019597851         3925 
 3478000   0.70159709   -7.4931769    817.88566  0.019596647  0.019590672         3945 
 3479000   0.68536767   -7.4852818    817.10116  0.019572223  0.019583486         3931 
 3480000   0.69487284   -7.4909263    817.79227  0.019583148  0.019576309         3937 
 3481000   0.69003402   -7.4969781    820.96483  0.019653472  0.019569135         3942 
 3482000   0.70056336   -7.4914799    818.23104  0.019582401  0.019561955         3932 
 3483000   0.69759869   -7.4833737    818.85788  0.019591776  0.019554784         3923 
 3484000   0.68349405   -7.4665215    819.82708  0.019609335  0.019547612         3934 
 3485000   0.69252147   -7.4984531    817.77893  0.019554733  0.019540442         3928 
 3486000   0.68493944   -7.4916669    818.21502  0.019559548  0.019533281         3925 
 3487000   0.69505576   -7.4796206    819.30075  0.019579886  0.019526117         3923 
 3488000   0.69336384   -7.4747803    818.47135  0.019554457   0.01951895         3934 
 3489000   0.70400585   -7.4840431    816.86135  0.019510398  0.019511793         3938 
 3490000   0.69113701   -7.4893045    819.98011  0.019579277  0.019504647         3927 
 3491000   0.69976001   -7.4724741    818.09738  0.019528726  0.019497489         3926 
 3492000   0.69242797    -7.482638    817.23683  0.019502597  0.019490338         3940 
 3493000   0.69326764   -7.4859581    817.77497  0.019509852  0.019483201         3935 
 3494000    0.6990923   -7.4733684    818.40992  0.019519412  0.019476055         3920 
 3495000   0.69552634   -7.4688143    820.16082  0.019555575  0.019468914         3921 
 3496000   0.69160897   -7.4931646    818.35264   0.01950688  0.019461771         3937 
 3497000    0.6836166   -7.4515703    818.52747  0.019505468  0.019454641         3937 
 3498000   0.69465674   -7.5028557    817.40779  0.019473218  0.019447503         3926 
 3499000   0.68578768   -7.4710726    817.39603  0.019467372  0.019440365         3929 
 3500000   0.69246104   -7.4812721    816.96304  0.019451501  0.019433226         3946 
 3501000   0.70906716   -7.4721114     817.0387  0.019447746  0.019426092         3940 
 3502000   0.69148153   -7.4840584    818.30147  0.019472241  0.019418966         3932 
 3503000   0.69110472   -7.4793659    818.03059  0.019460239  0.019411846         3941 
 3504000   0.68695712   -7.4766246    818.57566  0.019467648  0.019404714         3936 
 3505000   0.69810871   -7.4796638    818.27488  0.019454943  0.019397595         3924 
 3506000    0.6821302    -7.479998    817.46453  0.019430133  0.019390475         3928 
 3507000   0.69440552   -7.4695112    818.51818  0.019449629  0.019383359         3934 
 3508000   0.67919292   -7.4709906    818.60294  0.019446098  0.019376244         3937 
 3509000   0.68305917   -7.4830716    817.67691  0.019418564   0.01936914         3917 
 3510000   0.68156621   -7.4809233    818.05026  0.019421896  0.019362038         3931 
 3511000   0.69703477   -7.4710703     818.1323  0.019418311  0.019354935         3916 
 3512000   0.69180959   -7.4692542    818.79565  0.019428522  0.019347837         3935 
 3513000   0.70628663   -7.4776963     818.0777  0.019405961  0.019340743         3925 
 3514000    0.6821701   -7.4829258    819.40141   0.01943183  0.019333643         3923 
 3515000   0.68480992   -7.4915799    816.70013   0.01936226  0.019326547         3928 
 3516000   0.66455582    -7.495523    817.55119  0.019376924  0.019319445         3918 
 3517000   0.70475812   -7.4823202    816.09208  0.019336842   0.01931235         3936 
 3518000   0.69393596   -7.4714847    818.95903  0.019399257  0.019305258         3929 
 3519000   0.68959713   -7.4720114    818.18022  0.019375301  0.019298165         3924 
 3520000   0.68968937   -7.4706089    819.04352  0.019390235  0.019291076         3924 
 3521000   0.69089869   -7.4927137     817.4883   0.01934792  0.019283989         3914 
 3522000   0.67759215   -7.5126353     818.8091  0.019373677  0.019276905         3927 
 3523000   0.69631999    -7.481128    817.35875  0.019333871  0.019269828         3917 
 3524000    0.7012845   -7.4873082    817.85595  0.019340143  0.019262746         3929 
 3525000   0.68435455   -7.4969586    816.76747  0.019308924  0.019255667         3930 
 3526000    0.6988852    -7.501842     816.7973  0.019304152  0.019248598         3932 
 3527000   0.67818017    -7.507253    818.09975  0.019329453   0.01924153         3930 
 3528000   0.68986192   -7.4897035    817.97397  0.019321003  0.019234465         3923 
 3529000   0.68451574   -7.4950905    816.90168  0.019290207  0.019227393         3918 
 3530000   0.68222219   -7.4744954    819.02572  0.019334885  0.019220328         3942 
 3531000   0.67948281   -7.4858047    818.61894  0.019319809  0.019213267         3921 
 3532000   0.67441422   -7.5026686    817.68619  0.019292332  0.019206206         3928 
 3533000    0.6863628    -7.494681    817.59568  0.019284736  0.019199146         3937 
 3534000   0.70191778   -7.4955097    819.04181   0.01931338  0.019192096         3927 
 3535000   0.67781408   -7.5058064    817.99479  0.019283234  0.019185041         3924 
 3536000   0.68896362   -7.5041532    817.44404  0.019264801  0.019177994         3907 
 3537000    0.6966879   -7.4631253    819.05982  0.019297423  0.019170948         3932 
 3538000   0.68486946   -7.4835132    816.67114  0.019235706  0.019163904         3927 
 3539000   0.68848035   -7.5247435    816.98714  0.019237712  0.019156846         3922 
 3540000   0.68620826   -7.4999636    817.79097    0.0192512  0.019149796         3922 
 3541000   0.69234884   -7.4890334    818.58478  0.019264445  0.019142754         3915 
 3542000   0.69077254   -7.4918251    816.60121  0.019212338  0.019135716         3937 
 3543000   0.68391104   -7.5166368    817.18538  0.019220655   0.01912868         3934 
 3544000   0.68360837   -7.4785838    818.36705  0.019243018  0.019121652         3923 
 3545000   0.68001206   -7.4678547    817.85253  0.019225494  0.019114624         3924 
 3546000   0.68934782    -7.492132    817.02778   0.01920069  0.019107594         3923 
 3547000   0.69892658   -7.4762179    816.75968  0.019188979  0.019100572         3919 
 3548000   0.67492492   -7.4962879    817.04135  0.019190186  0.019093544         3935 
 3549000   0.65406173   -7.4761808    816.74198  0.019177749  0.019086524         3931 
 3550000   0.69177446   -7.4892754    816.65089  0.019170209  0.019079501         3932 
 3551000   0.68179503    -7.522667    816.68219  0.019165545  0.019072478         3925 
 3552000   0.68837825   -7.4998663    817.90167  0.019188759  0.019065462         3925 
 3553000   0.67688504   -7.4860802    818.47232  0.019196743  0.019058442         3931 
 3554000    0.6927247   -7.4973789    815.79089  0.019128468  0.019051434         3933 
 3555000   0.70627732   -7.4886718    816.65455  0.019143332  0.019044423         3925 
 3556000   0.68920839   -7.4892633    816.54586  0.019135402  0.019037413         3912 
 3557000   0.68132831   -7.5174768    816.40375  0.019126693   0.01903041         3928 
 3558000   0.67163992   -7.4940471    817.95453  0.019157639  0.019023411         3919 
 3559000   0.67780284   -7.4972503    817.25821  0.019135951  0.019016407         3933 
 3560000   0.67751576   -7.5054864    817.59131  0.019138373  0.019009412         3908 
 3561000   0.68083443   -7.4716493    818.71255  0.019159238  0.019002417         3922 
 3562000   0.67631204   -7.4961703    817.24923  0.019119624  0.018995429         3928 
 3563000   0.66859694   -7.5002953    818.38657  0.019140859  0.018988437         3907 
 3564000     0.677566   -7.4978467    818.39403  0.019135663   0.01898145         3907 
 3565000   0.68068783   -7.4685851    816.31067  0.019081596  0.018974459         3934 
 3566000   0.67324653   -7.5022792    817.21062  0.019097276  0.018967477         3921 
 3567000   0.67988464   -7.4915678    816.78771  0.019082042  0.018960491         3930 
 3568000   0.67575966   -7.5063873    816.57688  0.019071769   0.01895351         3932 
 3569000    0.6817159   -7.4856778    819.83257  0.019142444  0.018946534         3920 
 3570000   0.68294671   -7.4972895    816.23425  0.019053087   0.01893956         3910 
 3571000   0.68535774    -7.509497    817.22132  0.019070786  0.018932587         3913 
 3572000   0.69290903   -7.5006185     817.2449  0.019065997  0.018925621         3913 
 3573000   0.69234693   -7.4990041    817.19547  0.019059508  0.018918648         3925 
 3574000    0.6735086    -7.512705    817.13553  0.019052778  0.018911679         3935 
 3575000    0.6901297   -7.5041973    816.84885  0.019040766  0.018904712         3922 
 3576000   0.68966366   -7.5019371    818.10441    0.0190647  0.018897747         3915 
 3577000   0.68808235   -7.4896712      817.135  0.019036786  0.018890783         3931 
 3578000   0.67767818   -7.4981831    817.75275  0.019045853  0.018883829         3921 
 3579000   0.66560365   -7.4898874    816.42611  0.019009642  0.018876882         3920 
 3580000   0.68700919   -7.4872269    816.87174  0.019014705   0.01886994         3934 
 3581000   0.68030351   -7.4941037    817.47247  0.019023375  0.018862992         3946 
 3582000   0.68474211   -7.5119668    816.51819  0.018995863  0.018856042         3929 
 3583000   0.67672001   -7.5090598     815.8707  0.018975502  0.018849102         3940 
 3584000   0.69097818   -7.4934679    817.40774  0.019005946  0.018842162         3933 
 3585000   0.67993706   -7.5151475    818.28938  0.019021139   0.01883522         3923 
 3586000   0.67088999   -7.5035834    816.87639  0.018982999  0.018828281         3921 
 3587000   0.67715895   -7.5126995    816.42895  0.018967311  0.018821344         3939 
 3588000   0.67458582   -7.4853347    815.64007  0.018943703  0.018814408         3923 
 3589000   0.68147532   -7.4849458    816.04879  0.018947915  0.018807472         3923 
 3590000   0.68552824   -7.4980469     817.0818  0.018966616   0.01880055         3922 
 3591000   0.67963836   -7.4902759    818.08155  0.018984534  0.018793629         3915 
 3592000   0.66877667   -7.5159077    818.04624   0.01897843   0.01878671         3926 
 3593000   0.66555902   -7.5311883    817.77171   0.01896678  0.018779789         3920 
 3594000   0.68152558   -7.4910025    818.51046  0.018978632  0.018772875         3913 
 3595000   0.68244045   -7.4993481    818.36117  0.018969893  0.018765975         3915 
 3596000   0.69296551   -7.5045907    818.67877  0.018971977  0.018759066         3930 
 3597000   0.67734149   -7.5016251    817.69909  0.018944006  0.018752166         3926 
 3598000   0.66644267   -7.5051312    819.05376  0.018970117  0.018745257         3916 
 3599000   0.67571587   -7.4997431    814.72808  0.018864687  0.018738351         3923 
 3600000   0.66469433   -7.5206099    817.32341  0.018919523  0.018731452         3946 
 3601000   0.67685755   -7.5153227    815.47729  0.018871547  0.018724548         3934 
 3602000   0.67819295    -7.521147    818.68546   0.01894053  0.018717658         3912 
 3603000   0.68290651   -7.4980841    817.17351  0.018900303  0.018710764         3918 
 3604000   0.67028829    -7.510781    816.96971  0.018890347  0.018703875         3938 
 3605000   0.67935612   -7.5024162    817.41815  0.018895473  0.018696984         3928 
 3606000   0.66984336   -7.4940238    816.56859    0.0188706  0.018690099         3931 
 3607000   0.66052091   -7.5083481     816.0511  0.018853412  0.018683211         3928 
 3608000   0.68453564   -7.4933229    818.32762  0.018900767  0.018676331         3916 
 3609000   0.66899259    -7.507022    817.37878  0.018873621  0.018669453         3918 
 3610000     0.683205   -7.5105882    816.88955  0.018857099  0.018662572         3919 
 3611000   0.67357559   -7.4825411    816.61691  0.018845586  0.018655698         3932 
 3612000   0.68023616   -7.5113852    816.62904  0.018840648  0.018648824         3923 
 3613000    0.6743222   -7.5169458     816.9676  0.018843242  0.018641959         3928 
 3614000   0.67757015   -7.4996578    817.06549  0.018840285  0.018635094         3919 
 3615000   0.67323244   -7.4959337    815.43567  0.018797503  0.018628234         3911 
 3616000    0.6783214   -7.5018559     817.4554   0.01883885  0.018621375         3919 
 3617000   0.68065116    -7.502482    816.88361  0.018820468   0.01861452         3919 
 3618000   0.66951351   -7.5277689    815.49905  0.018783376  0.018607662         3938 
 3619000   0.67269278   -7.5415264    816.69023  0.018805615  0.018600809         3924 
 3620000   0.66520801   -7.4993475    815.48624  0.018772703   0.01859396         3933 
 3621000   0.67325715   -7.4972413    816.04815  0.018780451  0.018587117         3927 
 3622000   0.66147618   -7.5235983    817.42338  0.018806906  0.018580271         3915 
 3623000   0.67620791   -7.5233763    816.30968  0.018776099  0.018573428         3933 
 3624000   0.68335917   -7.5231073    816.87007  0.018783804  0.018566594         3921 
 3625000   0.68027811   -7.5130102    817.00075  0.018781626  0.018559747         3945 
 3626000   0.67735433   -7.5029405    816.56539  0.018766441  0.018552917         3929 
 3627000   0.67916388    -7.515753    816.88291  0.018768562  0.018546083         3929 
 3628000    0.6774355   -7.5017058    816.36098  0.018751401  0.018539247         3918 
 3629000   0.65600713   -7.5194632    816.87104  0.018757946   0.01853241         3937 
 3630000   0.66518855   -7.5113343    816.29817  0.018739627  0.018525577         3925 
 3631000   0.67760933   -7.5334972    816.74378  0.018744693  0.018518757         3928 
 3632000   0.67029176   -7.5149278    817.07406   0.01874711  0.018511934         3919 
 3633000   0.66142395   -7.5081144    816.36567  0.018725701  0.018505115         3925 
 3634000   0.67254204   -7.5029476    816.91848  0.018733225  0.018498303         3929 
 3635000    0.6670419   -7.4987287    816.63056  0.018721471  0.018491485         3915 
 3636000   0.65652978   -7.5235299    815.70906  0.018695202  0.018484672         3924 
 3637000   0.66607913   -7.5195108     815.1294   0.01867678  0.018477859         3928 
 3638000   0.67033784   -7.5120387     816.6599  0.018706705   0.01847105         3935 
 3639000   0.65604198   -7.5227614    818.25873  0.018738177  0.018464242         3931 
 3640000   0.66082276   -7.5144411    816.63714  0.018695905  0.018457439         3937 
 3641000   0.66596225   -7.5095886    815.88647  0.018673589  0.018450639         3918 
 3642000   0.67964441   -7.5134875     814.5451   0.01863777  0.018443842         3935 
 3643000   0.66591302   -7.5400683    816.75998  0.018683319   0.01843704         3926 
 3644000    0.6675644   -7.5127994    817.11737  0.018686365  0.018430243         3931 
 3645000   0.66273544   -7.5292003    816.14466     0.018659  0.018423446         3933 
 3646000   0.66748104   -7.5264503      815.755  0.018644976  0.018416654         3927 
 3647000   0.67830422   -7.5280513    816.12081  0.018648223  0.018409867         3934 
 3648000   0.67022992   -7.5030586    816.77194  0.018657985  0.018403081         3931 
 3649000   0.67176466   -7.5102191    815.93347  0.018633723  0.018396294         3934 
 3650000   0.68318073   -7.5040748    817.24613  0.018658587  0.018389521         3936 
 3651000   0.67140153   -7.5407789    819.01077  0.018693755  0.018382746         3937 
 3652000   0.66075229   -7.5192227    817.13418  0.018645815   0.01837597         3938 
 3653000   0.66991276   -7.5120351    816.57691  0.018627998  0.018369194         3943 
 3654000   0.66187425   -7.5181179    815.99091  0.018609535  0.018362424         3944 
 3655000   0.66956411   -7.5263263    816.42288  0.018614293  0.018355655         3924 
 3656000   0.66544688   -7.5279595    817.31946  0.018629638  0.018348886         3947 
 3657000   0.66522175   -7.5424747    816.10866  0.018596952  0.018342119         3943 
 3658000   0.65079729   -7.5272979    815.99804  0.018589348   0.01833536         3924 
 3659000   0.65785048   -7.4967077    817.62956  0.018621426  0.018328604         3939 
 3660000   0.65043903   -7.5109966    817.20646  0.018606704  0.018321846         3942 
 3661000   0.66490742   -7.5392895    815.51981   0.01856323  0.018315083         3931 
 3662000   0.65527788   -7.5227418    815.87898  0.018566334  0.018308324         3945 
 3663000   0.65075598   -7.5183612     816.9775  0.018586257  0.018301577         3940 
 3664000    0.6730438   -7.5308858    816.47865  0.018569838  0.018294833         3936 
 3665000   0.65571231   -7.5119102    816.37021  0.018562306  0.018288096         3933 
 3666000   0.68307746   -7.5169972    816.30154  0.018555681  0.018281355         3926 
 3667000   0.66203233   -7.5224176    817.70128  0.018582431  0.018274618         3923 
 3668000   0.66279934   -7.5207793    816.29157  0.018545337  0.018267876         3947 
 3669000   0.66504202   -7.5202063    816.16549  0.018537419  0.018261141         3928 
 3670000   0.66111943    -7.535256    815.44613  0.018516034  0.018254404         3938 
 3671000   0.68069584   -7.5309133    814.91996  0.018499046  0.018247679         3930 
 3672000   0.65526185   -7.5137758    816.92712  0.018539559  0.018240957         3933 
 3673000    0.6659853   -7.5330079    816.18231  0.018517613  0.018234242         3932 
 3674000   0.66371209   -7.5245668    815.33833   0.01849343   0.01822752         3936 
 3675000   0.65474395   -7.5271407    815.29432    0.0184874  0.018220805         3933 
 3676000    0.6723081   -7.5099151    815.35096  0.018483654  0.018214079         3933 
 3677000   0.67542427   -7.5221132    815.98085  0.018492903  0.018207361         3944 
 3678000   0.67485315   -7.5390445    817.12397  0.018513775  0.018200646         3951 
 3679000    0.6626308   -7.5261294     816.3879   0.01849207  0.018193932         3948 
 3680000   0.65934766   -7.5428851    816.45239  0.018488505  0.018187216         3946 
 3681000   0.67609924   -7.5159167    814.76368  0.018445252  0.018180512         3944 
 3682000   0.66965365   -7.5019315        816.2   0.01847275   0.01817381         3936 
 3683000   0.65347438   -7.5239773     815.2476  0.018446185  0.018167111         3935 
 3684000   0.65956711   -7.5162966     815.5329  0.018447632  0.018160409         3924 
 3685000   0.65401878   -7.5362641    815.45524  0.018440869  0.018153705         3940 
 3686000    0.6711303   -7.5177343    816.43738  0.018458071  0.018147012         3946 
 3687000   0.66660195    -7.524445    816.87094  0.018462864  0.018140318         3932 
 3688000   0.66096089   -7.5206403    816.42297  0.018447735  0.018133627         3935 
 3689000   0.65838826   -7.5486318    817.68275  0.018471193  0.018126937         3933 
 3690000   0.65993502   -7.5529268    815.27234  0.018411751  0.018120249         3941 
 3691000   0.66249805   -7.5336169    815.54429  0.018412903  0.018113561         3943 
 3692000   0.65775413   -7.5368749    814.91037  0.018393607  0.018106877         3946 
 3693000   0.66980509   -7.5172675    815.56021   0.01840329  0.018100189         3932 
 3694000   0.66723363   -7.5164255    815.42568  0.018395273  0.018093506         3935 
 3695000   0.67271928   -7.5187187    815.90517  0.018401109  0.018086826         3939 
 3696000   0.66048688   -7.5090454    814.91072  0.018373709  0.018080145         3935 
 3697000    0.6552398   -7.5155384    813.75787  0.018342753  0.018073473         3933 
 3698000   0.66692018   -7.5110458    816.42282  0.018397846  0.018066807         3947 
 3699000   0.66112895   -7.5339964     816.7181  0.018399525   0.01806014         3939 
 3700000   0.66137177   -7.5390041    816.51509   0.01838998  0.018053473         3934 
 3701000   0.65242536   -7.5140169    815.90051  0.018371172  0.018046817         3936 
 3702000   0.65419481   -7.5310782    816.24618  0.018373991  0.018040153         3941 
 3703000    0.6628729   -7.5286443    814.88305  0.018338353  0.018033498         3926 
 3704000   0.67168002   -7.5448666    815.19646  0.018340453   0.01802685         3927 
 3705000   0.65794686   -7.5481826     815.2025  0.018335639  0.018020196         3951 
 3706000   0.65127011    -7.514015    814.94846  0.018324979  0.018013541         3948 
 3707000   0.65064369   -7.5261063    816.17465    0.0183476  0.018006895         3934 
 3708000   0.66221596   -7.5352742    816.49718  0.018349901  0.018000254         3939 
 3709000   0.65730401    -7.547168    814.65276  0.018303513  0.017993611         3927 
 3710000   0.66927511   -7.5565687    814.54268  0.018296107  0.017986973         3948 
 3711000   0.66422801   -7.5445922    816.00114  0.018323928  0.017980337         3930 
 3712000   0.65303555   -7.5494264    815.89118  0.018316522  0.017973706         3935 
 3713000   0.64450135   -7.5356123    815.36371  0.018299751  0.017967077         3933 
 3714000   0.64869263   -7.5224697     816.9967  0.018331464  0.017960447         3934 
 3715000   0.65146362   -7.5396584    817.85749  0.018345839  0.017953819         3922 
 3716000   0.64055716   -7.5297886    815.92116  0.018297478  0.017947192         3931 
 3717000   0.65186703   -7.5514358    814.91992  0.018270108  0.017940576         3928 
 3718000   0.65219271   -7.5277096    815.97917  0.018288936  0.017933956         3935 
 3719000     0.645096   -7.5422179    815.08814  0.018264053  0.017927336         3935 
 3720000   0.65017554   -7.5262998    813.92749  0.018233143  0.017920725         3935 
 3721000   0.66483693   -7.5170622    814.09442  0.018231981  0.017914113         3935 
 3722000   0.65960884   -7.5344207    815.29926  0.018254058  0.017907504         3935 
 3723000    0.6663478   -7.5297815    815.25708  0.018248211  0.017900903         3941 
 3724000   0.65104492   -7.5404243    814.14326  0.018218386  0.017894298         3936 
 3725000    0.6608013   -7.5451358    815.29923  0.018239356    0.0178877         3942 
 3726000   0.64836946   -7.5388518    815.62518  0.018241751  0.017881095         3944 
 3727000   0.65495007   -7.5326012    815.62237  0.018236794  0.017874496         3925 
 3728000   0.63563358    -7.545474    816.06548  0.018241807  0.017867901         3925 
 3729000    0.6469052   -7.5408067    815.53443  0.018225048  0.017861312         3936 
 3730000   0.64992653   -7.5387256    815.94214   0.01822927  0.017854725         3930 
 3731000   0.65854153   -7.5372456    816.81071  0.018243784  0.017848135         3943 
 3732000   0.65899812   -7.5292702     815.6891  0.018213851  0.017841552         3944 
 3733000   0.65430694   -7.5403432    815.57987  0.018206533  0.017834972         3943 
 3734000   0.65318576   -7.5414005    815.53598  0.018200678  0.017828395         3934 
 3735000   0.65649229   -7.5338642    816.85463  0.018225226  0.017821819         3928 
 3736000   0.65284879   -7.5204531    814.59818  0.018170016  0.017815243         3942 
 3737000   0.65733646   -7.5384658     814.8636  0.018171073  0.017808659         3946 
 3738000    0.6424958   -7.5335946    816.31692  0.018198611  0.017802086         3931 
 3739000   0.65277435   -7.5130437    814.56497  0.018154698  0.017795522         3928 
 3740000      0.63698   -7.5374054    815.51386  0.018170986  0.017788957         3944 
 3741000   0.66329401   -7.5335341     816.0732  0.018178589  0.017782398         3932 
 3742000   0.66795939   -7.5336201    814.38376  0.018136107  0.017775833         3937 
 3743000   0.63423622   -7.5517542    815.98804  0.018166979  0.017769269         3945 
 3744000   0.65751729   -7.5652387    815.23672  0.018145404  0.017762716         3932 
 3745000   0.64342697   -7.5354911    815.84071  0.018153999  0.017756165         3941 
 3746000   0.66129911   -7.5182397     814.8719  0.018127601  0.017749614         3929 
 3747000   0.64443501   -7.5100536    814.18489  0.018107484  0.017743067         3934 
 3748000   0.63977963   -7.5169233    814.96352  0.018119964  0.017736525         3944 
 3749000   0.65645567   -7.5515201    814.46582  0.018104068  0.017729976         3951 
 3750000   0.65438201   -7.5467312    815.48074  0.018121794  0.017723442         3945 
 3751000   0.66203262    -7.541399    814.93813  0.018104908    0.0177169         3939 
 3752000   0.65183053   -7.5534012    816.25869  0.018129413  0.017710362         3946 
 3753000    0.6390066   -7.4939153    816.70747  0.018134547  0.017703835         3936 
 3754000   0.65606946   -7.5474358     814.3576  0.018077553  0.017697305         3950 
 3755000    0.6413393   -7.5326238    815.17028  0.018090774  0.017690776         3940 
 3756000   0.66324465   -7.5502524    813.47401  0.018048323  0.017684248         3935 
 3757000   0.65169176   -7.5230064    814.01281   0.01805547  0.017677729         3946 
 3758000   0.65793444   -7.5424137    813.94576  0.018049179   0.01767121         3936 
 3759000   0.64450929   -7.5407765    814.88508  0.018065201  0.017664694         3916 
 3760000   0.64909549   -7.5443327    816.11756  0.018087712  0.017658186         3944 
 3761000   0.64351785   -7.5404677    815.61442  0.018071754  0.017651678         3951 
 3762000    0.6394065   -7.5222714       816.05  0.018076599   0.01764517         3935 
 3763000   0.63281033   -7.5731993    817.87521  0.018112216  0.017638661         3935 
 3764000   0.66900051   -7.5518653    815.61633  0.018057393  0.017632159         3938 
 3765000   0.63031245   -7.5633819    814.49377  0.018027751  0.017625664         3940 
 3766000   0.66119415   -7.5186626    815.64427  0.018048422  0.017619169         3939 
 3767000   0.65711359   -7.5484793     814.5811  0.018020111  0.017612669         3947 
 3768000   0.64256649   -7.5444115    814.46163  0.018012687  0.017606179         3935 
 3769000   0.65184611   -7.5573196    814.90071  0.018017615  0.017599684         3941 
 3770000   0.65761205   -7.5368452    814.93428  0.018013578  0.017593196         3944 
 3771000   0.65024831   -7.5449902    813.97891  0.017987689  0.017586712         3935 
 3772000   0.65591709    -7.529723    815.23157  0.018010595  0.017580225         3945 
 3773000   0.66173841   -7.5397097    815.21994  0.018005565  0.017573749         3936 
 3774000   0.63288599   -7.5614902    814.83503  0.017992294  0.017567273         3947 
 3775000    0.6481441   -7.5460192     815.4179  0.018000395  0.017560793         3950 
 3776000   0.64012392   -7.5208155    814.51363  0.017975672  0.017554307         3940 
 3777000   0.65732143   -7.5514516    815.01872  0.017982056  0.017547834         3931 
 3778000   0.65636343   -7.5293724    814.97015  0.017976225  0.017541362         3927 
 3779000   0.65929042   -7.5339072    815.03207  0.017972834  0.017534894         3935 
 3780000   0.65442221   -7.5317643    814.63507  0.017959327  0.017528429         3936 
 3781000   0.65490916   -7.5392997    814.27723   0.01794669  0.017521965         3928 
 3782000   0.63905657   -7.5310788    815.81559  0.017975842  0.017515506         3937 
 3783000   0.64660679   -7.5437937    814.17448  0.017934939  0.017509045         3936 
 3784000   0.65991471   -7.5497627    815.55195  0.017960534  0.017502587         3933 
 3785000   0.64899617   -7.5399656    814.49139  0.017932439  0.017496135         3927 
 3786000   0.64416031   -7.5451702    815.14858  0.017942168  0.017489685         3939 
 3787000   0.64614068   -7.5525881    813.04866  0.017891221  0.017483234         3940 
 3788000   0.63026837   -7.5443755    812.98953  0.017885197  0.017476783         3921 
 3789000    0.6273547   -7.5393486    814.81989  0.017920733  0.017470337         3943 
 3790000   0.64601588   -7.5536766    815.41764  0.017929148  0.017463895         3946 
 3791000    0.6663126   -7.5496727    813.05985   0.01787259  0.017457461         3948 
 3792000   0.64308923   -7.5694716    814.64162  0.017902637  0.017451028         3944 
 3793000   0.64358187   -7.5515822    815.28809  0.017912121   0.01744459         3933 
 3794000   0.62825843   -7.5722511    813.16668  0.017860804  0.017438159         3939 
 3795000   0.66606948   -7.5637782    813.65666  0.017866857  0.017431729         3931 
 3796000   0.64253001   -7.5619204    814.59343  0.017882715   0.01742531         3943 
 3797000   0.63920857   -7.5515878    815.22513  0.017891869  0.017418889         3939 
 3798000   0.64916789   -7.5457982    814.98553  0.017881901  0.017412467         3936 
 3799000   0.64742565   -7.5589432    814.26891  0.017861475  0.017406055         3944 
 3800000   0.63089673   -7.5566731    813.19029   0.01783312   0.01739964         3941 
 3801000   0.63811245    -7.552889    813.15824  0.017827726  0.017393225         3941 
 3802000   0.63945727   -7.5392032    814.29667   0.01784799   0.01738681         3936 
 3803000   0.64512889    -7.568066    814.29529  0.017843266  0.017380401         3943 
 3804000   0.64608695   -7.5265782    814.89429  0.017851697  0.017373999         3944 
 3805000   0.65336709   -7.5476858     815.4844   0.01785993  0.017367599         3940 
 3806000   0.63796483    -7.545474    814.12577   0.01782549  0.017361198         3949 
 3807000   0.63629887   -7.5478899    814.90086  0.017837774  0.017354799         3940 
 3808000   0.63965597   -7.5535829    813.36392  0.017799456  0.017348401         3943 
 3809000   0.62936894   -7.5365555    814.80259  0.017826258  0.017342013         3955 
 3810000   0.63523987   -7.5541092    814.25208  0.017809538  0.017335624         3950 
 3811000   0.65169509   -7.5568069    813.28456  0.017783709  0.017329237         3942 
 3812000   0.63200736   -7.5265176    813.78552  0.017789995  0.017322845         3939 
 3813000   0.63183057   -7.5403719     814.2438  0.017795345  0.017316466         3941 
 3814000   0.63690557   -7.5732189    813.83746  0.017781801  0.017310083         3934 
 3815000   0.64541449   -7.5523729    814.22653  0.017785638  0.017303701         3940 
 3816000   0.63851057   -7.5487564    814.35827  0.017783855  0.017297325         3941 
 3817000   0.65144634   -7.5467852    813.55981  0.017761763  0.017290956         3941 
 3818000   0.63925846   -7.5498404    814.58656  0.017779522  0.017284585         3940 
 3819000   0.64041326   -7.5537814     814.8352  0.017780292  0.017278216         3934 
 3820000   0.63549065   -7.5535498    814.29955  0.017763952  0.017271853         3942 
 3821000   0.63158458   -7.5576549     813.3009  0.017737523  0.017265489         3934 
 3822000   0.64520469   -7.5427027    813.32676  0.017733446   0.01725913         3928 
 3823000   0.65657559   -7.5494426    815.04814   0.01776633   0.01725278         3939 
 3824000   0.64172925   -7.5580194    815.10799  0.017762988  0.017246424         3944 
 3825000   0.64588433   -7.5372939    813.05731  0.017713667  0.017240072         3940 
 3826000   0.63910497   -7.5433137    813.26859  0.017713639  0.017233722         3933 
 3827000   0.64562806   -7.5598995    815.10403  0.017748977  0.017227377         3935 
 3828000   0.65217996   -7.5473609    814.50052  0.017731202  0.017221028         3940 
 3829000   0.63158416   -7.5494392    813.48444  0.017704458  0.017214687         3936 
 3830000   0.64460364   -7.5659257    813.55396  0.017701348  0.017208349         3950 
 3831000   0.63397181   -7.5818764    814.09379   0.01770847  0.017202006         3931 
 3832000   0.63103075   -7.5504132    814.94022  0.017722256  0.017195671         3924 
 3833000   0.64709191   -7.5674193    813.83378  0.017693577  0.017189342         3948 
 3834000    0.6404664   -7.5565032    814.32217  0.017699578  0.017183011         3935 
 3835000   0.64468363    -7.560124     813.9381  0.017686617  0.017176687         3938 
 3836000     0.636427   -7.5669347    814.54959   0.01769529  0.017170362         3946 
 3837000   0.63111872   -7.5791856    812.27273  0.017641229  0.017164038         3934 
 3838000   0.62751413   -7.5624533    813.16617  0.017656031  0.017157715         3935 
 3839000   0.63371495   -7.5525587    815.06791  0.017692713  0.017151396         3934 
 3840000   0.63967369    -7.549857    814.32966  0.017672085   0.01714508         3930 
 3841000   0.62964289   -7.5516388     813.4811  0.017649074   0.01713877         3945 
 3842000   0.62763793   -7.5482766    813.87619  0.017653049  0.017132459         3938 
 3843000   0.63715181   -7.5541673    815.16885  0.017676487   0.01712615         3935 
 3844000   0.63628752    -7.558803    812.25769  0.017608777  0.017119849         3936 
 3845000   0.63538755   -7.5560574    814.06639  0.017643398  0.017113549         3930 
 3846000   0.64619826   -7.5619547     813.5912  0.017628514  0.017107251         3940 
 3847000   0.63635781   -7.5503583     814.3628  0.017640646  0.017100957         3938 
 3848000   0.63565158   -7.5828353    813.73847  0.017622541  0.017094664         3932 
 3849000   0.63689049   -7.5600617    812.64732  0.017594339  0.017088377         3937 
 3850000   0.63488628   -7.5596825    813.16661  0.017601009   0.01708209         3932 
 3851000   0.63385529   -7.5621502    813.92757  0.017612905  0.017075802         3937 
 3852000   0.63097477   -7.5601684    813.89828  0.017607699  0.017069522         3935 
 3853000   0.63362674   -7.5610927    813.18135  0.017587623  0.017063243         3943 
 3854000   0.63230422   -7.5624135    814.66689  0.017615181  0.017056963         3945 
 3855000   0.63586528   -7.5610115     813.7264  0.017590281  0.017050689         3926 
 3856000   0.62251746   -7.5756461    813.73005  0.017585798  0.017044414         3935 
 3857000   0.64408728   -7.5384891    816.56061  0.017642395   0.01703815         3939 
 3858000     0.636491   -7.5761936    813.74561  0.017577018  0.017031885         3945 
 3859000   0.63213298    -7.572127    813.06993  0.017557872  0.017025619         3951 
 3860000   0.64438126   -7.5587217    815.52497  0.017606325  0.017019348         3936 
 3861000   0.63222708   -7.5704507    814.57866   0.01758134  0.017013082         3936 
 3862000   0.63038997    -7.581942    813.95267   0.01756328  0.017006818         3946 
 3863000   0.62469897   -7.5589349    813.53026  0.017549622  0.017000563         3942 
 3864000    0.6340766   -7.5552977    813.65108  0.017547685  0.016994307         3933 
 3865000   0.62097321   -7.5559312    813.31043  0.017535801  0.016988059         3930 
 3866000   0.64392492   -7.5550297    815.72691  0.017583353  0.016981809         3933 
 3867000   0.62676527   -7.5789254    812.88672    0.0175176  0.016975569         3931 
 3868000   0.63793078   -7.5672824    813.24381  0.017520765  0.016969325         3939 
 3869000   0.64609419   -7.5799091     815.2856  0.017560214  0.016963084         3939 
 3870000   0.64169444   -7.5637035    813.67036  0.017520895  0.016956847         3940 
 3871000   0.63205466   -7.5734047    812.23121  0.017485387  0.016950616         3943 
 3872000   0.63675291   -7.5680654    813.47798  0.017507704  0.016944384         3943 
 3873000   0.63744927   -7.5700118    813.73416  0.017508696  0.016938158         3928 
 3874000   0.62656816   -7.5663818    813.23136  0.017493361  0.016931933         3924 
 3875000   0.62181618   -7.5929384    812.91087  0.017481954  0.016925713         3938 
 3876000   0.64380796   -7.5694725    812.90376  0.017477291  0.016919486         3943 
 3877000   0.63269856   -7.5781743     813.2423   0.01748006  0.016913267         3927 
 3878000   0.61486166   -7.5784682    813.57101  0.017482616  0.016907055         3936 
 3879000   0.63550394   -7.5897369    813.10528  0.017468104  0.016900836         3931 
 3880000   0.61773211   -7.5856066    812.68061  0.017454481  0.016894624         3933 
 3881000   0.63140481   -7.5731562    814.05139  0.017479417  0.016888409         3941 
 3882000   0.62898176   -7.5673867    812.69662  0.017445832  0.016882204         3940 
 3883000   0.63348801   -7.5876836    814.73602  0.017485106  0.016875997         3938 
 3884000   0.61745397   -7.5657758    812.52138  0.017433088   0.01686979         3937 
 3885000   0.61902063   -7.5588103    813.95744  0.017459405  0.016863588         3940 
 3886000   0.62842418   -7.5757713    813.61333  0.017447532  0.016857388         3937 
 3887000    0.6305633   -7.5772828    814.15845  0.017454731  0.016851195         3932 
 3888000   0.63172537   -7.5825524    814.33255  0.017453973  0.016845008         3943 
 3889000   0.61822159   -7.5773482    812.98776  0.017420669  0.016838815         3941 
 3890000   0.63147141   -7.5631565    813.58716  0.017429031  0.016832626         3935 
 3891000   0.64378172   -7.5829104     812.1625   0.01739404  0.016826441         3946 
 3892000   0.62103029   -7.5492319     813.6267  0.017420921  0.016820258         3947 
 3893000   0.62172733   -7.5623205    813.05623  0.017404235  0.016814081         3942 
 3894000   0.63465181   -7.5399154    813.79173  0.017415505  0.016807909         3947 
 3895000   0.62924991   -7.5665501    814.06394  0.017416858  0.016801734         3945 
 3896000   0.63115041   -7.5718405    813.97592  0.017410505  0.016795556         3944 
 3897000   0.63306687   -7.5720887    813.94091  0.017405288  0.016789384         3925 
 3898000   0.62636019   -7.5604833    812.25113  0.017364698  0.016783214         3943 
 3899000   0.62901156   -7.5694968    812.80064  0.017371989  0.016777046         3949 
 3900000   0.64125174   -7.5661995    813.64217  0.017385516  0.016770883         3928 
 3901000   0.62784476    -7.561153    813.32285  0.017374238   0.01676472         3927 
 3902000   0.63704908   -7.5788394     813.2434  0.017368089  0.016758559         3933 
 3903000   0.63511268   -7.5860375    814.52332  0.017390967  0.016752405         3953 
 3904000   0.61956034   -7.5757538    813.13277   0.01735683  0.016746249         3935 
 3905000   0.62818779   -7.5699115    814.05295  0.017372022  0.016740098         3929 
 3906000   0.62613635    -7.577164    812.98848  0.017344864  0.016733942         3935 
 3907000   0.61700231   -7.5634242    813.66371  0.017354827    0.0167278         3935 
 3908000   0.63095932   -7.5700375    813.83815  0.017354106  0.016721658         3930 
 3909000   0.63797455   -7.5743705    815.21458  0.017379009  0.016715515         3936 
 3910000   0.62322342   -7.5625746    812.88253  0.017324862  0.016709379         3935 
 3911000    0.6258589   -7.5834219    814.75268   0.01736028  0.016703247         3945 
 3912000   0.63199459   -7.5840683    814.05223  0.017340922  0.016697107         3936 
 3913000   0.62064374   -7.5821607     811.7421  0.017287292  0.016690973         3946 
 3914000    0.6256849   -7.5724826    813.20893  0.017314106  0.016684843         3945 
 3915000   0.62178529   -7.5786455    813.70855  0.017320318  0.016678713         3955 
 3916000   0.63278059   -7.5885076      812.598  0.017292263  0.016672591         3937 
 3917000   0.62857853   -7.5663357    813.59451  0.017309048  0.016666473         3943 
 3918000   0.62342561   -7.5990036     814.0129   0.01731353  0.016660359         3936 
 3919000   0.61432658   -7.5574792    812.30645  0.017272826  0.016654244         3938 
 3920000   0.63376461   -7.5966172    812.91169  0.017281286  0.016648133         3945 
 3921000   0.62452004   -7.5822495    812.95165  0.017277728  0.016642024         3936 
 3922000   0.62622263   -7.5846801    813.74523  0.017290184  0.016635913         3948 
 3923000   0.61695309   -7.5831431    813.60374  0.017282771  0.016629804         3938 
 3924000   0.62418649    -7.562058    811.91049  0.017242408    0.0166237         3939 
 3925000   0.62123651    -7.591197    813.72787    0.0172766  0.016617598         3944 
 3926000   0.62885668   -7.5877944    813.64515  0.017270444  0.016611503         3945 
 3927000   0.63947903   -7.5761769    813.55243  0.017264078  0.016605408         3937 
 3928000   0.61350869   -7.5754811    812.45664  0.017236436  0.016599316         3942 
 3929000     0.623737   -7.5935466    812.87956  0.017241019  0.016593228         3930 
 3930000   0.62833157   -7.5746968    812.91531   0.01723739  0.016587136         3949 
 3931000   0.63929419   -7.5622762    813.68552  0.017249333  0.016581053         3931 
 3932000   0.61953136   -7.5786328    811.78247  0.017204613   0.01657497         3932 
 3933000   0.63385357   -7.5774127    814.45366  0.017256837  0.016568884         3937 
 3934000   0.63408185   -7.5916996    814.05412  0.017243987  0.016562807         3941 
 3935000   0.63306846   -7.5853929    811.49533  0.017185416  0.016556733         3941 
 3936000    0.6263412    -7.578085    812.10599  0.017193979   0.01655066         3929 
 3937000   0.59966309   -7.5963276    813.29832  0.017214849  0.016544588         3936 
 3938000   0.63860319   -7.6014391    813.05771  0.017205386   0.01653852         3942 
 3939000   0.62113536   -7.5644033    812.71527  0.017193773  0.016532457         3941 
 3940000   0.62244167   -7.5821461    812.66749  0.017188399  0.016526391         3936 
 3941000   0.60947845   -7.5594866    812.93919  0.017189782  0.016520336         3937 
 3942000   0.61405458   -7.5535513    813.43871  0.017195981  0.016514282         3941 
 3943000   0.62016252    -7.581836    813.06063   0.01718363  0.016508234         3924 
 3944000     0.622723    -7.611462    813.04852  0.017179017  0.016502184         3931 
 3945000    0.6190398   -7.5731719    813.84102  0.017191403  0.016496131         3917 
 3946000    0.6174002   -7.5766515    813.55381  0.017180981  0.016490083         3932 
 3947000   0.61780328   -7.5869219    812.66841  0.017157935  0.016484039         3937 
 3948000   0.62119152   -7.5673741     812.4464  0.017148902  0.016477998         3933 
 3949000   0.61184692   -7.5794805     813.9552  0.017176399   0.01647196         3929 
 3950000   0.60895118   -7.5738984    813.17646  0.017155622  0.016465923         3946 
 3951000   0.60975423   -7.5933943    813.07285  0.017149094  0.016459887         3948 
 3952000   0.60572276   -7.5690365    812.98015    0.0171428  0.016453852         3940 
 3953000   0.61235693   -7.5915478     811.0667  0.017098126  0.016447818         3931 
 3954000   0.61880342   -7.5844223    813.72952  0.017149923  0.016441791         3934 
 3955000   0.61606737   -7.5895973    813.82082   0.01714751  0.016435771         3928 
 3956000   0.61560611   -7.5936419     812.6955   0.01711947  0.016429742         3935 
 3957000   0.62902226   -7.5819627    814.33387  0.017149648  0.016423721         3929 
 3958000   0.61975548   -7.5907927    812.22111  0.017100832  0.016417703         3930 
 3959000   0.61955646    -7.602849    814.43106   0.01714303  0.016411691         3946 
 3960000    0.6254481   -7.6120637    812.08968  0.017089429  0.016405682         3936 
 3961000   0.63113736   -7.5875121    812.92935   0.01710278  0.016399674         3930 
 3962000   0.60953565   -7.5881486    812.82938  0.017096361   0.01639367         3943 
 3963000   0.62007245   -7.5949415    812.96061  0.017094806  0.016387665         3930 
 3964000   0.62562286   -7.5878593    812.84793  0.017088125  0.016381659         3936 
 3965000   0.61517703   -7.5758589    814.20745  0.017112389  0.016375657         3922 
 3966000   0.59386596   -7.5953156    813.46223  0.017092415  0.016369661         3940 
 3967000   0.60816326   -7.5864961    812.57823  0.017069537  0.016363664         3934 
 3968000    0.6205187   -7.5983396    812.19259  0.017057136  0.016357668         3939 
 3969000   0.62528624   -7.5876466    812.64582  0.017062354  0.016351677         3928 
 3970000   0.62950506   -7.6138932    814.08505  0.017088267  0.016345689         3943 
 3971000   0.60282137   -7.5748346    812.30264  0.017046559  0.016339702         3942 
 3972000   0.60977838   -7.5946219    813.03165  0.017057562   0.01633372         3943 
 3973000    0.6189363   -7.5818115    813.28704  0.017058626  0.016327737         3943 
 3974000   0.61726506   -7.5832782    812.90968   0.01704642  0.016321762         3925 
 3975000   0.61362678   -7.6087817    813.01954  0.017044435  0.016315781         3945 
 3976000   0.61192174   -7.5761397    813.23255  0.017044613  0.016309811         3950 
 3977000   0.60430792   -7.5969704    812.79674  0.017031195  0.016303843         3948 
 3978000   0.61220227   -7.5820208    814.29395  0.017058278  0.016297878         3939 
 3979000   0.60814346   -7.6103955    813.26884  0.017032521  0.016291917         3943 
 3980000    0.6170024   -7.6036318    812.92941  0.017021135  0.016285956         3934 
 3981000   0.61538666   -7.5853032    811.67098  0.016990517  0.016279995         3940 
 3982000   0.61586408   -7.5900404    812.22002   0.01699774  0.016274038         3940 
 3983000   0.61601449   -7.6029987    812.52352  0.016999823  0.016268084         3946 
 3984000   0.62486016   -7.6047136    812.96989  0.017004892  0.016262132         3936 
 3985000   0.61389947    -7.563866    813.88678  0.017019799  0.016256189         3935 
 3986000   0.61733205   -7.5858563    813.91695   0.01701616  0.016250245         3945 
 3987000   0.61092044   -7.6221703    812.62635  0.016984917  0.016244301         3948 
 3988000   0.60371824   -7.6042991     812.5159   0.01697835  0.016238358         3936 
 3989000   0.61024039   -7.5750482    812.98552  0.016983904   0.01623242         3942 
 3990000   0.61854889   -7.6040703     814.0306  0.017001474  0.016226485         3941 
 3991000   0.62031924   -7.6010452    812.97572  0.016975188  0.016220543         3949 
 3992000   0.60796468   -7.6046047    813.13428  0.016974246  0.016214606         3942 
 3993000   0.61245967   -7.5902037    813.38276  0.016975181   0.01620868         3948 
 3994000   0.59519975   -7.5790356    812.77655  0.016958282  0.016202751         3948 
 3995000   0.61527577   -7.5906888     811.5524  0.016928502  0.016196832         3946 
 3996000   0.61437809   -7.6043434    813.27047  0.016960095  0.016190906         3947 
 3997000   0.62116028    -7.605129    812.73747  0.016944739  0.016184983         3940 
 3998000   0.61112299   -7.6018991    813.22096  0.016950579  0.016179066         3941 
 3999000   0.61723208   -7.5986286    812.88644  0.016939369  0.016173153         3944 
 4000000   0.61482382   -7.5966839    813.07332  0.016939028  0.016167241         3939 
 4001000   0.61906632   -7.5760323    811.81726  0.016908632   0.01616133         3934 
 4002000   0.60042851    -7.592964    813.28428  0.016934955  0.016155424         3951 
 4003000   0.61779241   -7.5944341    813.17463  0.016928442  0.016149517         3936 
 4004000   0.60259515   -7.5948525    812.76388  0.016915665  0.016143614         3944 
 4005000   0.60801565   -7.5882761    812.00217  0.016895592  0.016137714         3941 
 4006000   0.61170471   -7.6094088    813.48637  0.016922249  0.016131817         3942 
 4007000   0.62296827   -7.6013502    811.38364  0.016874296  0.016125926         3949 
 4008000   0.61959671   -7.6133383    812.07212    0.0168844  0.016120032         3946 
 4009000   0.61700497   -7.5948983    811.81165  0.016874775  0.016114143         3945 
 4010000   0.61742925   -7.5903772    811.39887  0.016861988  0.016108252         3947 
 4011000   0.61637831    -7.594333    811.94179  0.016869064  0.016102367         3939 
 4012000   0.60114042   -7.5989689    811.76712  0.016861231  0.016096482         3936 
 4013000   0.60846234   -7.5916123    813.07152  0.016884117  0.016090608         3924 
 4014000   0.59017485   -7.6135717    811.90805  0.016855756  0.016084729         3956 
 4015000   0.61980292   -7.5834862    812.10616   0.01685567  0.016078854         3931 
 4016000   0.61101172   -7.6011887    812.25181  0.016854495  0.016072981         3950 
 4017000    0.5981516   -7.5924356     810.9529  0.016823353  0.016067109         3937 
 4018000   0.60188843   -7.6010248    812.23732  0.016845805  0.016061245         3948 
 4019000    0.6015703   -7.5879564      813.819  0.016874409  0.016055381         3926 
 4020000   0.61244836   -7.6106484    812.27108  0.016838123  0.016049518         3933 
 4021000   0.60433349   -7.5919094    811.31318  0.016814084  0.016043661         3934 
 4022000   0.61095107   -7.6089394    812.10431  0.016826295    0.0160378         3944 
 4023000   0.60015003     -7.59688    812.14693  0.016822996  0.016031944         3943 
 4024000   0.60415784   -7.5985492    812.31011  0.016822194  0.016026092         3933 
 4025000    0.6014746   -7.5923226    811.67888  0.016804946  0.016020237         3936 
 4026000   0.62716972   -7.5836739    813.41235  0.016836652    0.0160144         3936 
 4027000   0.62447829   -7.5948945    811.77875  0.016798666  0.016008557         3937 
 4028000   0.59302363    -7.618716    811.62684  0.016791353  0.016002717         3944 
 4029000   0.62914509   -7.6103517    811.77314  0.016790211  0.015996875         3946 
 4030000   0.60024518   -7.5893245    812.03296  0.016791418  0.015991038         3945 
 4031000   0.61284135   -7.6106999     813.6425  0.016820526  0.015985205         3938 
 4032000   0.60700252   -7.5841624    811.77706    0.0167778  0.015979374         3935 
 4033000   0.60558463   -7.6109213    811.98074  0.016777848  0.015973546         3954 
 4034000   0.60731278   -7.6097247    812.36709   0.01678167   0.01596772         3940 
 4035000   0.60441687   -7.5995268    812.75801  0.016785585  0.015961894         3940 
 4036000   0.59068912   -7.6082939    814.11472  0.016809438  0.015956074         3934 
 4037000   0.60754004   -7.6153867    813.96735  0.016802233  0.015950254         3955 
 4038000   0.59088554   -7.6080443    811.37442   0.01674456  0.015944434         3937 
 4039000   0.59957495   -7.6061548    812.02978  0.016753936  0.015938622         3948 
 4040000    0.6040698   -7.6026194    812.14552  0.016752176  0.015932808         3950 
 4041000   0.61439274   -7.5974535    813.02078  0.016766081  0.015927003         3950 
 4042000   0.61166464   -7.6114336    812.43096  0.016749772  0.015921193         3947 
 4043000   0.59192674   -7.6113091     810.6125  0.016708148  0.015915387         3950 
 4044000   0.60855893   -7.6115779    812.20875   0.01673691  0.015909583         3944 
 4045000   0.61204312   -7.5930278    812.65936  0.016742055  0.015903787         3952 
 4046000   0.60487848   -7.6086688    811.80152  0.016720249  0.015897996         3936 
 4047000   0.59323155   -7.6040629    812.06787  0.016721602  0.015892203         3939 
 4048000    0.5995244   -7.6169878    813.47195  0.016746376  0.015886409         3927 
 4049000   0.61140546    -7.577392    811.99348  0.016711811  0.015880619         3939 
 4050000   0.61221374    -7.609884    811.30823  0.016693585  0.015874829         3949 
 4051000   0.60222179   -7.5881023    812.19613  0.016707729  0.015869046         3941 
 4052000   0.60927227   -7.6268033    812.88249  0.016717722  0.015863268         3950 
 4053000   0.60164571   -7.6146933    813.50899  0.016726478  0.015857487         3957 
 4054000   0.59655023   -7.6125906    812.05262  0.016692415  0.015851707         3931 
 4055000   0.60150827   -7.6122929    811.02846  0.016667251   0.01584593         3934 
 4056000   0.59518736   -7.6165539    813.02201  0.016704101  0.015840155         3943 
 4057000   0.60414668   -7.5982084    814.08415  0.016721801  0.015834382         3946 
 4058000   0.60977881   -7.5865816    812.73441  0.016689962  0.015828619         3943 
 4059000   0.60688571   -7.6115991    811.91998   0.01666913  0.015822855         3945 
 4060000   0.59072401   -7.6177921    810.58146   0.01663755  0.015817095         3937 
 4061000   0.60492065   -7.6194643     810.9038  0.016640068  0.015811334         3943 
 4062000   0.59422427   -7.6176658    811.80355   0.01665443  0.015805568         3948 
 4063000   0.60496719   -7.6066336    812.18056  0.016658064  0.015799809         3937 
 4064000   0.60320061   -7.6290236    812.28285  0.016656062  0.015794051         3945 
 4065000    0.6050396   -7.6093757    812.02894   0.01664676  0.015788304         3938 
 4066000   0.59949099   -7.6046829    812.28796  0.016647974  0.015782552         3943 
 4067000   0.59863942   -7.6032665    812.35249  0.016645203  0.015776799         3947 
 4068000    0.6042234    -7.612571    811.96426  0.016633158  0.015771058         3932 
 4069000   0.59234202   -7.6240347    812.42931  0.016638595  0.015765318         3932 
 4070000   0.58911822   -7.6288258    811.71192  0.016619818  0.015759574         3946 
 4071000   0.59797701   -7.5956068    811.61592  0.016613771  0.015753838         3944 
 4072000   0.59727031   -7.5961962    811.84306  0.016614339  0.015748106         3941 
 4073000   0.59578049   -7.6203287    811.65287  0.016606368  0.015742372         3940 
 4074000   0.58202055   -7.6000513    811.04935  0.016589947  0.015736642         3946 
 4075000   0.60741296   -7.6151574    811.89631  0.016603197  0.015730912         3949 
 4076000   0.61390371   -7.6148701    813.40676  0.016630004  0.015725187         3944 
 4077000   0.60284847   -7.6182816    813.53318  0.016628509  0.015719461         3953 
 4078000   0.59669839   -7.6142165    812.69304  0.016607263  0.015713742         3933 
 4079000   0.59248275   -7.6059021    811.52189  0.016579266  0.015708024         3945 
 4080000   0.59482612    -7.606572    811.85243  0.016581953  0.015702309         3955 
 4081000   0.61461378   -7.6221036    813.43252  0.016610155  0.015696596         3930 
 4082000   0.60533063   -7.6143231    811.82578  0.016573285   0.01569089         3943 
 4083000   0.59776453   -7.6247657    810.75381  0.016547347  0.015685183         3943 
 4084000   0.61038728   -7.6154791    811.67207  0.016562032  0.015679471         3932 
 4085000   0.60795382    -7.619816     811.5084  0.016554639  0.015673771         3947 
 4086000   0.60250036   -7.6038352    811.06449  0.016541534  0.015668068         3949 
 4087000   0.60207536   -7.6087654    811.21975  0.016540652  0.015662371         3947 
 4088000   0.59582163   -7.6169527     811.9498  0.016551488  0.015656672         3935 
 4089000   0.59274011   -7.6334974    811.71412  0.016542637  0.015650981         3945 
 4090000   0.60380068   -7.5997392    812.61361   0.01655692  0.015645293         3942 
 4091000   0.60349031   -7.6182044    810.53795  0.016510591  0.015639606         3932 
 4092000   0.59587832   -7.5989245    812.09202  0.016538205  0.015633927         3933 
 4093000   0.59376096   -7.6281037    811.30291  0.016518098  0.015628246         3947 
 4094000   0.59934216   -7.6158636    812.94612  0.016547511  0.015622562         3936 
 4095000   0.60674257    -7.608846      811.189  0.016507713  0.015616883         3942 
 4096000   0.58642691    -7.622572    811.36041   0.01650717  0.015611211         3933 
 4097000   0.59449539   -7.6013237    810.61557  0.016487991  0.015605543         3941 
 4098000   0.57692329   -7.5962146    812.68946   0.01652614  0.015599873         3941 
 4099000   0.60358934   -7.6198305    813.23497  0.016533198  0.015594206         3949 
 4100000   0.58948912   -7.6072198    812.95996  0.016523576  0.015588538         3934 
 4101000   0.58490713   -7.6156011    810.74205  0.016474479  0.015582876         3943 
 4102000   0.59996841   -7.6075624    811.34844  0.016482782  0.015577217         3947 
 4103000   0.59637693   -7.6187445    811.99754  0.016491948  0.015571562         3930 
 4104000   0.59413214   -7.6175472    811.76384  0.016483184  0.015565908         3947 
 4105000   0.59117162   -7.6125198    813.17106  0.016507736  0.015560251         3940 
 4106000    0.6035319   -7.6090109      812.099  0.016481957  0.015554605         3931 
 4107000   0.60480511   -7.6047999    811.49313  0.016465651  0.015548955         3930 
 4108000   0.58570795   -7.6107266    811.42809  0.016460323   0.01554331         3946 
 4109000   0.60079222   -7.6229544    810.99396  0.016447513  0.015537668         3953 
 4110000   0.59676326   -7.6118338    811.00214  0.016443677  0.015532032         3952 
 4111000   0.60119466    -7.602297    812.05282  0.016460975  0.015526395         3952 
 4112000   0.60388006   -7.6080349    812.45207  0.016465063  0.015520762         3944 
 4113000   0.59859735   -7.6192843    812.03754  0.016452661  0.015515132         3940 
 4114000   0.58142669   -7.6171387    810.47686  0.016417049  0.015509504         3943 
 4115000   0.58691846    -7.614414    811.19365  0.016427575  0.015503874         3942 
 4116000   0.59146944   -7.6179272     811.6283  0.016432384  0.015498244         3952 
 4117000   0.60965691   -7.6394986     812.0922  0.016437782  0.015492619         3939 
 4118000   0.58369085   -7.6387848     809.2237  0.016375743  0.015486993         3945 
 4119000   0.59804673   -7.6269214    811.68524  0.016421568   0.01548137         3950 
 4120000   0.59183107   -7.6063546    812.60994  0.016436285  0.015475757         3949 
 4121000   0.59100528   -7.6166218    811.65636  0.016413014  0.015470136         3938 
 4122000   0.58897219   -7.6362427    811.11365   0.01639806  0.015464521         3936 
 4123000   0.58806738    -7.624129    811.97047  0.016411401  0.015458908         3938 
 4124000   0.59251255   -7.6244586    811.88116  0.016405617    0.0154533         3943 
 4125000   0.59149672   -7.6401021     811.6995   0.01639797  0.015447694         3951 
 4126000   0.58599655   -7.6264874    812.25146  0.016405143  0.015442091         3945 
 4127000   0.59231035   -7.6355363    812.77317  0.016411703   0.01543649         3950 
 4128000   0.59538773   -7.6200727    811.74073  0.016386885  0.015430894         3940 
 4129000   0.59338975   -7.6401464    812.37521  0.016395721  0.015425296         3944 
 4130000   0.59758556    -7.632482    811.81594  0.016380467  0.015419703         3936 
 4131000   0.59851274   -7.6250605    811.90099  0.016378217  0.015414115         3943 
 4132000   0.58677765   -7.6210629    810.90246  0.016354116  0.015408527         3948 
 4133000   0.59372956    -7.621742    811.04042   0.01635294  0.015402934         3944 
 4134000   0.58687493    -7.623617    811.51236  0.016358498  0.015397353         3945 
 4135000   0.61482347   -7.6316818    810.79138  0.016340012  0.015391768         3945 
 4136000   0.57202238   -7.6294005    810.45536  0.016329291  0.015386187         3934 
 4137000   0.59071871   -7.6153104    810.92638  0.016334832  0.015380605         3948 
 4138000   0.58842683   -7.6193674    811.47093  0.016341851  0.015375034         3947 
 4139000   0.58213696   -7.6159915    811.68404  0.016342193  0.015369464         3943 
 4140000   0.59946448   -7.6264387     810.5136  0.016314686  0.015363891         3940 
 4141000   0.59503787   -7.6225067    812.12751  0.016343225  0.015358319         3937 
 4142000     0.601048    -7.635781    811.62549  0.016329178  0.015352755         3949 
 4143000   0.60341302   -7.6393265    811.45048  0.016321717  0.015347192         3936 
 4144000   0.57886148   -7.6325662    811.67005  0.016322194  0.015341631         3943 
 4145000   0.59806748    -7.608317    811.22174  0.016309243  0.015336071         3948 
 4146000   0.57332185   -7.6118526    811.74313  0.016315789  0.015330519         3933 
 4147000   0.59147615     -7.63825    812.54201  0.016327908  0.015324967         3952 
 4148000   0.59393943   -7.6283775    810.52127  0.016283375  0.015319411         3949 
 4149000   0.58863559   -7.6242544    810.26414  0.016274286  0.015313865         3957 
 4150000   0.58674831   -7.6362392    810.07912  0.016266649  0.015308319         3947 
 4151000   0.59548169   -7.6148088    809.87168  0.016258566  0.015302773         3943 
 4152000   0.58692535   -7.5936463    810.97082   0.01627671  0.015297235         3947 
 4153000   0.60110082   -7.6431668    811.75064  0.016288439    0.0152917         3947 
 4154000   0.57613335   -7.6243024    811.62282  0.016281953  0.015286165         3948 
 4155000   0.57848391   -7.6424444    810.94981  0.016264537   0.01528063         3949 
 4156000   0.58446327   -7.6273565    810.88989  0.016259422  0.015275097         3950 
 4157000   0.57676692   -7.6173086    811.69897   0.01627173  0.015269565         3945 
 4158000   0.58506982   -7.6127789    811.10601  0.016255933  0.015264039         3949 
 4159000    0.5730982    -7.648045    810.43097  0.016238498  0.015258514         3944 
 4160000   0.58051312    -7.615024    811.47937  0.016255596  0.015252993         3950 
 4161000   0.57665688   -7.6407368    812.18429  0.016265807  0.015247471         3943 
 4162000   0.57901697   -7.6149723    810.38068  0.016225787  0.015241957         3931 
 4163000   0.58402426   -7.6369809    810.95634  0.016233412  0.015236443         3949 
 4164000   0.58877485   -7.6213848     810.6741  0.016223865  0.015230934         3942 
 4165000    0.5909298   -7.6295232     811.6813  0.016240122  0.015225427         3941 
 4166000   0.57175946   -7.6451191    813.11187   0.01626484   0.01521992         3949 
 4167000   0.57977128    -7.632454    810.83654  0.016215433  0.015214415         3947 
 4168000   0.58956732   -7.6251227    811.15203  0.016217851  0.015208915         3947 
 4169000   0.58914372   -7.6447956    810.31937  0.016197317  0.015203416         3945 
 4170000   0.59193428   -7.6236706    810.10362  0.016189121  0.015197919         3941 
 4171000   0.59596102   -7.6493403    810.90589  0.016201269  0.015192428         3942 
 4172000   0.58239125   -7.6380732    811.70498  0.016213347  0.015186933         3954 
 4173000   0.57595641   -7.6152524    810.87387  0.016192864   0.01518144         3942 
 4174000   0.57406336   -7.6315693    810.63825  0.016184281   0.01517595         3947 
 4175000   0.58378133   -7.6477802    812.07474  0.016209077  0.015170459         3950 
 4176000    0.5823223   -7.6510026    811.37024  0.016191137  0.015164978         3944 
 4177000   0.57390734     -7.61847    810.42115  0.016168325  0.015159497         3947 
 4178000   0.58413699   -7.6239664    811.11678   0.01617833  0.015154018         3947 
 4179000   0.57046345   -7.6375876    811.92655  0.016190607  0.015148542         3951 
 4180000   0.58363411   -7.6360619    811.50142  0.016178258  0.015143066         3948 
 4181000   0.58740143   -7.6315369    811.33157  0.016171003  0.015137595         3956 
 4182000   0.56946188   -7.6422319    811.73655  0.016175206  0.015132127         3944 
 4183000   0.58436931   -7.6450612    811.70781  0.016170767   0.01512666         3953 
 4184000   0.57901812   -7.6175053    811.56655  0.016164088  0.015121195         3946 
 4185000   0.59489677   -7.6329938    810.90815  0.016147116  0.015115732         3946 
 4186000   0.58131973   -7.6224952     810.7768  0.016140643  0.015110273         3948 
 4187000    0.5876849   -7.6211382      811.675  0.016154665  0.015104816         3945 
 4188000   0.57330418   -7.6230328    810.13218  0.016120109  0.015099365         3946 
 4189000   0.58044892   -7.6558858    810.30446  0.016119688  0.015093906         3944 
 4190000   0.58150366   -7.6342951    810.37868  0.016117317  0.015088455         3943 
 4191000   0.57804118   -7.6223158    811.08133  0.016127442  0.015083006         3946 
 4192000   0.58823126   -7.6265955    810.27885  0.016107642  0.015077558         3943 
 4193000   0.58560695   -7.6378164    810.58093  0.016109805  0.015072117         3939 
 4194000   0.58346694   -7.6372121    810.12366  0.016096878  0.015066674         3944 
 4195000   0.59069727   -7.6297596    810.68133  0.016104119  0.015061231         3948 
 4196000   0.57432505   -7.6565677    811.76164  0.016121736  0.015055796         3941 
 4197000   0.57288121    -7.632416    811.36158  0.016109951  0.015050362         3950 
 4198000   0.58169763   -7.6482675     810.7146  0.016093271  0.015044925         3941 
 4199000   0.57792256   -7.6456297    809.05887  0.016056578  0.015039492         3945 
 4200000   0.56478927   -7.6205156    810.82292  0.016087756  0.015034058         3946 
 4201000   0.56746776   -7.6182785    810.05592  0.016068712  0.015028632         3948 
 4202000   0.57283628    -7.635514    811.85001  0.016100468  0.015023217         3943 
 4203000   0.57002681   -7.6390139    810.27556  0.016065421  0.015017797         3946 
 4204000   0.58324141   -7.6527497    810.42951  0.016064651  0.015012381         3946 
 4205000   0.57933146   -7.6248737      810.487   0.01606197  0.015006961         3929 
 4206000   0.58059285   -7.6338092    810.91184  0.016066568  0.015001545         3944 
 4207000   0.58211332   -7.6477898    810.07958  0.016046264  0.014996132         3952 
 4208000   0.57305566    -7.640218    811.27032  0.016066031  0.014990725         3941 
 4209000   0.58891028   -7.6463108    809.58449  0.016028837  0.014985318         3940 
 4210000   0.57438791   -7.6601113    811.58824  0.016064692  0.014979913         3946 
 4211000   0.57383902    -7.654389    810.37687  0.016036905  0.014974514         3944 
 4212000   0.56906134   -7.6480934    809.78879  0.016021462  0.014969114         3952 
 4213000    0.5686063   -7.6305442    810.05623  0.016022949  0.014963714         3951 
 4214000   0.57266546    -7.630024    809.20626  0.016002339  0.014958319         3958 
 4215000   0.56270328   -7.6207744    810.76493  0.016029358  0.014952929         3941 
 4216000   0.57440613   -7.6375685    810.47202  0.016019766  0.014947537         3948 
 4217000   0.56734189   -7.6259107    809.89133  0.016004492   0.01494215         3944 
 4218000   0.57057726   -7.6451761     811.2274  0.016027094  0.014936765         3934 
 4219000   0.57736909   -7.6520349    810.15075   0.01600203  0.014931385         3947 
 4220000   0.57912238   -7.6350795    810.58844  0.016006881  0.014926004         3950 
 4221000   0.57370344   -7.6540752    809.97278  0.015990934  0.014920625         3948 
 4222000   0.57688403   -7.6304797    810.47123  0.015996985  0.014915253         3959 
 4223000   0.58231795   -7.6543473    811.24648  0.016008495  0.014909878         3948 
 4224000   0.57811644   -7.6484809    811.25376  0.016004848  0.014904506         3948 
 4225000   0.58461164   -7.6524663    810.37536  0.015983735  0.014899138         3941 
 4226000   0.57482082   -7.6466167    811.13387   0.01599491  0.014893774         3956 
 4227000    0.5844277   -7.6565825    811.55284  0.015999386  0.014888408         3948 
 4228000   0.58994876   -7.6623456    810.00763  0.015965146  0.014883046         3960 
 4229000    0.5730662   -7.6413905    809.43703  0.015950127  0.014877688         3957 
 4230000   0.57594158   -7.6633219    811.11027   0.01597932  0.014872328         3960 
 4231000   0.58268816   -7.6450488    811.19125  0.015977138  0.014866977         3938 
 4232000   0.57968992    -7.650559    811.02467  0.015970083  0.014861623         3956 
 4233000   0.58204784    -7.659559     811.1663  0.015969098  0.014856275         3953 
 4234000   0.56440727   -7.6541429     811.5063  0.015972018   0.01485093         3947 
 4235000   0.57637671   -7.6465924    811.01368  0.015958553  0.014845587         3944 
 4236000   0.56549886   -7.6559904    808.98079  0.015914794  0.014840245         3949 
 4237000   0.57444273   -7.6736734    809.37779  0.015918846  0.014834902         3945 
 4238000   0.57999014   -7.6605949    811.40546   0.01595496  0.014829564         3960 
 4239000    0.5726425   -7.6666712    809.38734  0.015911523  0.014824227         3950 
 4240000   0.58246661   -7.6368549    808.75973  0.015895435  0.014818896         3951 
 4241000   0.57124426   -7.6422476    809.56171  0.015907445  0.014813564         3946 
 4242000   0.56876447   -7.6296333    808.51123  0.015883059  0.014808234         3951 
 4243000   0.56853368   -7.6239277    812.19137  0.015951594  0.014802907         3948 
 4244000   0.59020334   -7.6431853     810.2176   0.01590908  0.014797581         3944 
 4245000   0.57911659   -7.6492814    808.71101  0.015875756  0.014792256         3953 
 4246000   0.56716126   -7.6567661    809.62194  0.015889895   0.01478694         3951 
 4247000   0.57611573   -7.6496295    810.50039   0.01590339  0.014781624         3954 
 4248000   0.57836503   -7.6396519    809.16236  0.015873398  0.014776309         3944 
 4249000   0.57170519   -7.6514769    810.96426  0.015905002  0.014770997         3948 
 4250000   0.57568567   -7.6441955    810.38065  0.015889817  0.014765686         3957 
 4251000   0.56916161   -7.6495889    810.81979  0.015894687   0.01476038         3934 
 4252000   0.57044515   -7.6395189    810.56862  0.015886027  0.014755075         3951 
 4253000   0.57730378   -7.6577257       810.43  0.015879575  0.014749774         3947 
 4254000   0.58186637   -7.6590765     808.7224  0.015842392  0.014744477         3954 
 4255000   0.57175481   -7.6423539    809.84072   0.01586057   0.01473918         3947 
 4256000   0.56380432   -7.6469825    809.63127  0.015852743  0.014733883         3939 
 4257000   0.56554671   -7.6581417    810.69762  0.015869893  0.014728592         3947 
 4258000   0.57131035   -7.6544803    811.72782  0.015886328  0.014723302         3950 
 4259000    0.5804073   -7.6612071    809.79686  0.015844816  0.014718009         3944 
 4260000   0.56523515   -7.6785312    809.97358  0.015844554  0.014712719         3954 
 4261000   0.56853662   -7.6469427    811.01002  0.015861105  0.014707431         3940 
 4262000   0.56364974   -7.6632112    811.53653  0.015867678  0.014702149         3956 
 4263000    0.5706673   -7.6473945    810.83874  0.015850316  0.014696868         3957 
 4264000   0.56271845   -7.6406895    809.31703  0.015816859  0.014691592         3950 
 4265000   0.57584167    -7.661121    809.62771  0.015819221  0.014686318         3953 
 4266000   0.57296137   -7.6425456    809.00613   0.01580337  0.014681046         3951 
 4267000   0.57541031   -7.6611189    810.76587  0.015834034  0.014675774         3954 
 4268000   0.56553993   -7.6545332    809.15143  0.015798802  0.014670504         3957 
 4269000   0.56921504   -7.6523965     808.9163  0.015790511   0.01466524         3943 
 4270000   0.57834647   -7.6610749     810.9354  0.015826218  0.014659974         3952 
 4271000   0.57195114   -7.6437503    810.38842   0.01581184  0.014654715         3939 
 4272000   0.56084041   -7.6497921    811.33949  0.015826691  0.014649454         3946 
 4273000   0.56589572   -7.6685276     809.5321  0.015787739    0.0146442         3944 
 4274000   0.56779721   -7.6543253    809.31613  0.015779834  0.014638945         3941 
 4275000   0.56265318   -7.6485453    809.57361  0.015781162  0.014633695         3954 
 4276000   0.56358201   -7.6679593    808.77442  0.015761896  0.014628445         3945 
 4277000   0.56723556   -7.6807975    810.63553  0.015794473  0.014623195         3940 
 4278000   0.55778958   -7.6609458    809.14922  0.015761828  0.014617949         3944 
 4279000   0.55691949   -7.6678784    810.41233  0.015782744  0.014612708         3944 
 4280000   0.56665504   -7.6560725    809.95024  0.015770059  0.014607467         3951 
 4281000   0.56405768   -7.6351732    811.35349  0.015793691  0.014602229         3943 
 4282000   0.56416422   -7.6671198    810.49833   0.01577336  0.014596995         3946 
 4283000   0.56755848   -7.6619412    809.90627  0.015758158  0.014591761         3950 
 4284000   0.56849907   -7.6517688    809.02482  0.015737333   0.01458653         3944 
 4285000   0.56432063   -7.6794488    808.76297  0.015728568  0.014581299         3949 
 4286000   0.58319962   -7.6638027    810.35207  0.015755795  0.014576068         3942 
 4287000   0.55658007   -7.6402911    811.22157  0.015769022  0.014570847         3940 
 4288000   0.55707617   -7.6624547     808.8954  0.015720138  0.014565624         3956 
 4289000   0.56521424   -7.6723516    810.73482  0.015752212  0.014560406         3956 
 4290000   0.56359145   -7.6616382    808.36039  0.015702416  0.014555187         3943 
 4291000   0.56621621   -7.6480946     808.5276  0.015702004  0.014549973         3945 
 4292000   0.57189721   -7.6428545    810.62586  0.015739085  0.014544762         3957 
 4293000   0.58294728   -7.6628709    810.13838  0.015725957  0.014539556         3939 
 4294000    0.5678968   -7.6809184    811.13051  0.015741549  0.014534346         3960 
 4295000   0.56481839    -7.645883    809.74444   0.01571099  0.014529139         3939 
 4296000   0.57381116   -7.6810756    810.41248  0.015720292  0.014523939         3952 
 4297000   0.56258668   -7.6332625    809.47071  0.015698369  0.014518738         3949 
 4298000   0.56138391   -7.6774432    810.67118  0.015717992  0.014513535         3950 
 4299000   0.56973679   -7.6433994    809.48968  0.015691434  0.014508337         3947 
 4300000   0.57743617   -7.6332602    809.14873  0.015681177  0.014503142         3954 
 4301000   0.57307446    -7.637543    810.71884  0.015707952  0.014497954         3945 
 4302000   0.56706778   -7.6634808    809.83412  0.015687163  0.014492765         3955 
 4303000   0.57121371    -7.670099    809.16647  0.015670588  0.014487576         3948 
 4304000   0.54900381   -7.6635168    810.54059  0.015693552  0.014482395         3950 
 4305000   0.55829656   -7.6590915    810.81296  0.015695179  0.014477215         3960 
 4306000   0.56237837   -7.6451042    809.50605  0.015666242  0.014472036         3952 
 4307000   0.56523511   -7.6787588    809.67689   0.01566591  0.014466856         3950 
 4308000   0.55992597   -7.6620907    807.50145  0.015620192  0.014461681         3952 
 4309000    0.5658968   -7.6524484    809.93229  0.015663578  0.014456506         3958 
 4310000   0.56604888   -7.6631805    808.27656   0.01562793  0.014451333         3938 
 4311000   0.55584938   -7.6697549     808.9544  0.015637408  0.014446166         3949 
 4312000   0.56437501   -7.6658689    808.05672  0.015616433  0.014440997         3945 
 4313000    0.5635855   -7.6487358    809.86946  0.015647837  0.014435827         3948 
 4314000   0.55506804   -7.6635542    809.81072  0.015643075  0.014430668         3947 
 4315000   0.55186959   -7.6636146    810.04334  0.015643942  0.014425511         3943 
 4316000   0.56026612   -7.6580325    809.83437  0.015636283  0.014420352         3954 
 4317000   0.56442843    -7.685396    809.88386  0.015633616  0.014415195         3957 
 4318000   0.55858198   -7.6616906    809.30544  0.015618833   0.01441004         3957 
 4319000    0.5632509   -7.6615579    809.35037  0.015616083  0.014404891         3943 
 4320000   0.56590644   -7.6788961    808.60932  0.015598174  0.014399743         3954 
 4321000   0.55421118   -7.6829553    808.20296  0.015586727  0.014394592         3951 
 4322000   0.56306451   -7.6790882    810.59776  0.015629295  0.014389445         3952 
 4323000   0.55931865   -7.6508264    809.39495  0.015602493  0.014384301         3951 
 4324000   0.56126975   -7.6682584    809.69074  0.015604586  0.014379162         3952 
 4325000   0.55211344   -7.6789292    809.76549  0.015602418  0.014374025         3938 
 4326000   0.55738986   -7.6572973    810.99466  0.015622489  0.014368889         3952 
 4327000   0.56173857   -7.6469038    808.24973  0.015566014  0.014363755         3947 
 4328000   0.57505904   -7.6516205    809.68537   0.01559006  0.014358627         3950 
 4329000   0.56837079   -7.6770505    809.18042  0.015576739  0.014353498         3960 
 4330000   0.55621152   -7.6475175     809.1913  0.015573351  0.014348371         3952 
 4331000   0.55544156   -7.6697975    808.82524  0.015562711  0.014343243         3947 
 4332000   0.55145559   -7.6620244    809.47372  0.015571594  0.014338125         3954 
 4333000   0.55254365   -7.6701254    810.88458  0.015595134  0.014333002         3948 
 4334000   0.54799584   -7.6946794    809.20226  0.015559188  0.014327881         3947 
 4335000   0.56718007   -7.6719684    809.04882  0.015552649  0.014322759         3958 
 4336000   0.55222728   -7.6661701    807.72534  0.015523627  0.014317642         3943 
 4337000     0.558475   -7.6830138    809.74865  0.015558924  0.014312534         3959 
 4338000    0.5671915   -7.6608076    808.58157  0.015532918  0.014307427         3959 
 4339000   0.55058625   -7.6822226    807.96607  0.015517517  0.014302317         3954 
 4340000   0.56461602   -7.6771148    808.62742   0.01552664  0.014297213         3953 
 4341000   0.54888632   -7.6534145    807.10431  0.015493825  0.014292109         3950 
 4342000   0.56199694   -7.6740046    809.93189  0.015544524  0.014287011         3947 
 4343000   0.55287277   -7.6731182    808.97059    0.0155225  0.014281915         3951 
 4344000   0.56393332   -7.6875897    808.18001   0.01550376  0.014276819         3942 
 4345000   0.56192239   -7.6525403    808.39533  0.015504322  0.014271724         3948 
 4346000   0.56381331   -7.6505324    808.75441  0.015507639  0.014266639         3951 
 4347000   0.55882221   -7.6787765    809.32571  0.015515024   0.01426155         3948 
 4348000   0.55612384   -7.6726204     809.0941  0.015507017  0.014256463         3955 
 4349000   0.55293701   -7.6705848    809.23021  0.015506059   0.01425138         3951 
 4350000    0.5515222   -7.6717882    809.46494  0.015506991  0.014246302         3962 
 4351000   0.55884262   -7.6648931    809.26022  0.015499506  0.014241222         3952 
 4352000   0.55082538   -7.6692863    810.01662  0.015510429  0.014236141         3950 
 4353000   0.55649341   -7.6708114    808.46101  0.015477085  0.014231065         3946 
 4354000   0.56336298   -7.6749168    809.39088  0.015491328  0.014225991         3946 
 4355000   0.55173883   -7.6600709    809.62796  0.015492307   0.01422092         3950 
 4356000    0.5624099    -7.666989     809.1628  0.015479852  0.014215849         3946 
 4357000   0.55505659   -7.6730566    808.63252  0.015466156  0.014210782         3953 
 4358000   0.54751942   -7.6788187    808.99748  0.015469586  0.014205723         3944 
 4359000   0.54786158    -7.665802    808.17564  0.015450326  0.014200666         3943 
 4360000    0.5507892   -7.6621877    809.04257  0.015463352  0.014195609         3944 
 4361000   0.55826547   -7.6663201    810.18534  0.015481643  0.014190554         3951 
 4362000   0.54762519   -7.6682872    809.12129  0.015457766  0.014185501         3955 
 4363000   0.55392734    -7.682783    809.16455  0.015455049  0.014180448         3954 
 4364000   0.56522936   -7.6761563    809.26949  0.015453512  0.014175397         3949 
 4365000   0.54711273   -7.6556042    808.96855  0.015444226  0.014170349         3947 
 4366000   0.54572473   -7.6702839    809.10736  0.015443338  0.014165303         3947 
 4367000   0.55907917   -7.6560154    807.98082  0.015418304   0.01416026         3946 
 4368000   0.56416667   -7.6842466    808.33803  0.015421589  0.014155221         3961 
 4369000   0.55035759   -7.6739289     808.5993  0.015423043  0.014150185         3951 
 4370000   0.56857277   -7.6853469     809.2437  0.015431802   0.01414515         3945 
 4371000   0.56763038   -7.6531765    807.40754  0.015393265  0.014140117         3951 
 4372000   0.55835543   -7.6635938    808.87137  0.015417646  0.014135086         3948 
 4373000   0.56090103    -7.675019     810.0701  0.015436963  0.014130057         3951 
 4374000   0.53806459   -7.6803572    808.05574  0.015395057   0.01412503         3959 
 4375000   0.54340187   -7.6669654     809.0978  0.015411387  0.014120004         3941 
 4376000   0.52789905   -7.6761485    809.54735  0.015416426  0.014114981         3959 
 4377000   0.54793997   -7.6786455    809.36895  0.015409507   0.01410996         3949 
 4378000   0.55479179   -7.6703982    808.72236   0.01539368  0.014104943         3960 
 4379000   0.54363302   -7.6712463    809.93386   0.01541322  0.014099925         3950 
 4380000   0.55052079   -7.6810763    808.09883  0.015374787  0.014094914         3952 
 4381000   0.54940343    -7.674653    809.77088  0.015403083  0.014089904         3959 
 4382000   0.56279234   -7.6907498    809.34861  0.015391537  0.014084893         3957 
 4383000   0.55295706   -7.6493319     808.4943  0.015371783  0.014079889         3951 
 4384000   0.55849465   -7.6887419    809.29161  0.015383432  0.014074885         3953 
 4385000   0.55599064   -7.6837526    808.89114  0.015372313  0.014069881         3956 
 4386000   0.54961703   -7.6683633    807.97607  0.015351423  0.014064883         3952 
 4387000   0.54802338   -7.6857092    808.42942  0.015356535  0.014059888         3949 
 4388000   0.54913314   -7.7006162    808.15598  0.015347842  0.014054888         3953 
 4389000    0.5689454    -7.686508    808.77891  0.015356173  0.014049891         3957 
 4390000   0.55623731    -7.676931    808.84219  0.015353876  0.014044897         3948 
 4391000   0.55795762   -7.6785409    808.30148  0.015340118  0.014039909         3955 
 4392000    0.5534961   -7.6951923    809.15251  0.015352772  0.014034922         3948 
 4393000   0.53946556   -7.6687989    808.42486  0.015335474  0.014029938         3949 
 4394000     0.546142   -7.6831596    808.37905  0.015331115  0.014024952         3950 
 4395000   0.55070908   -7.6610192    808.96566   0.01533875  0.014019972         3959 
 4396000   0.55633259   -7.6855785    808.33255  0.015323259  0.014014994         3959 
 4397000   0.56142884    -7.667534    808.98002  0.015332045  0.014010018         3947 
 4398000   0.55274902   -7.6657312    811.09555  0.015368644  0.014005049         3956 
 4399000   0.55233972    -7.667435    807.95658  0.015305687  0.014000077         3960 
 4400000    0.5368401   -7.6808552    807.46059  0.015292814  0.013995107         3957 
 4401000   0.53948009    -7.674513    807.56157  0.015291251  0.013990138         3956 
 4402000   0.55654195   -7.6938245    809.46367  0.015323786  0.013985173         3947 
 4403000   0.54135109   -7.6719094    808.52598  0.015302559  0.013980211         3952 
 4404000   0.53260766   -7.6802738    807.41138  0.015277993  0.013975251         3952 
 4405000   0.54220712   -7.6882697    808.34915  0.015292265  0.013970288         3949 
 4406000   0.54858886   -7.6769361    808.65139  0.015294511  0.013965329         3952 
 4407000   0.53571934   -7.7071633    808.23939   0.01528325  0.013960373         3953 
 4408000   0.54693694   -7.6939093    808.65139  0.015287572   0.01395542         3948 
 4409000   0.55118162   -7.6651424    808.30565  0.015277569  0.013950469         3952 
 4410000   0.55273452   -7.6938025    808.51681  0.015278095   0.01394552         3949 
 4411000   0.53714637   -7.6921946    808.07957  0.015266371  0.013940576         3948 
 4412000   0.54074442   -7.7077505    808.34204  0.015267869  0.013935632         3955 
 4413000   0.54354605   -7.6707379    807.57617  0.015249946  0.013930691         3946 
 4414000   0.55341281    -7.685956    809.70941  0.015286766  0.013925755         3941 
 4415000   0.54612527   -7.6989322    810.52308  0.015298661  0.013920818         3955 
 4416000   0.54973543    -7.692477    808.15885  0.015250582  0.013915885         3948 
 4417000   0.54558214   -7.6780222    808.26643  0.015249159  0.013910956         3954 
 4418000   0.54360915   -7.6856318    808.35474  0.015247373  0.013906024         3949 
 4419000   0.53375222   -7.6951126     809.6469   0.01526829  0.013901096         3957 
 4420000   0.54275883   -7.6809081    808.03012  0.015234354  0.013896168         3955 
 4421000   0.54503692   -7.6763309    808.59079  0.015241476  0.013891246         3958 
 4422000   0.55078826   -7.6960607    809.82481  0.015261285  0.013886322         3943 
 4423000   0.55250865   -7.6843079    808.05254  0.015224443  0.013881403         3942 
 4424000   0.54781331   -7.6829852    808.94883  0.015237885  0.013876489         3937 
 4425000   0.53291693   -7.7028546    809.18354  0.015238861  0.013871576         3941 
 4426000   0.53456407   -7.6722041    809.69858  0.015245116  0.013866664         3950 
 4427000   0.54012678   -7.7008553    809.22654  0.015232786  0.013861757         3953 
 4428000   0.53889033   -7.6719174     808.8286  0.015221857  0.013856852         3943 
 4429000   0.53933499   -7.6695968    809.47793  0.015230638  0.013851945         3941 
 4430000   0.53512469   -7.6929464    808.92222  0.015216746  0.013847043         3953 
 4431000   0.54028289   -7.6815475    807.06159  0.015178319  0.013842142         3952 
 4432000   0.54408298   -7.6856803    807.93486  0.015191314  0.013837249         3947 
 4433000   0.54729474   -7.6725412    808.87803  0.015205618  0.013832354         3954 
 4434000   0.53587062   -7.6820042    808.16737  0.015188832  0.013827461         3952 
 4435000   0.54333904   -7.6892624    807.98177   0.01518192  0.013822571         3947 
 4436000   0.54378279   -7.6730294    807.57742  0.015170901  0.013817683         3951 
 4437000   0.54405781   -7.6782088     807.6721   0.01516926  0.013812797         3946 
 4438000   0.53830457   -7.6904796    809.15586  0.015193703  0.013807915         3946 
 4439000   0.53429097   -7.6922226    809.93151  0.015204842  0.013803039         3949 
 4440000   0.54528649   -7.6873661    809.37167   0.01519091  0.013798161         3951 
 4441000   0.53422383   -7.6850875    808.71748  0.015175214  0.013793283         3956 
 4442000   0.55122429   -7.6940421    808.17278  0.015161579  0.013788412         3960 
 4443000   0.55144232   -7.6766005    808.11432   0.01515707  0.013783543         3951 
 4444000   0.54782006   -7.6788716    808.56334  0.015162079  0.013778673         3944 
 4445000   0.54066202   -7.7133116    807.69822  0.015142449  0.013773804         3958 
 4446000   0.52602303   -7.6919307    808.61923  0.015156306  0.013768936         3940 
 4447000   0.55476697   -7.6748641    809.05979  0.015161153  0.013764075         3950 
 4448000   0.54488199   -7.6676841    808.53881  0.015147984  0.013759216         3952 
 4449000   0.54865947   -7.7031218     809.0686  0.015154503  0.013754359         3949 
 4450000   0.54389074   -7.6913248    808.18085  0.015134473  0.013749505         3952 
 4451000   0.54579378   -7.6917245    807.21146  0.015112923   0.01374465         3955 
 4452000   0.55404652   -7.6967738     808.3152  0.015130189  0.013739799         3950 
 4453000   0.53859328   -7.6965309    808.71572  0.015134286  0.013734951         3945 
 4454000   0.53245442   -7.6868244    809.65744  0.015148508  0.013730102         3954 
 4455000   0.53340153   -7.7121892    809.14183  0.015135463  0.013725258         3948 
 4456000   0.53631828   -7.7091537    808.18354  0.015114145  0.013720416         3951 
 4457000    0.5287962   -7.6835153    809.48232  0.015135037  0.013715576         3948 
 4458000   0.52991949   -7.6995854    807.96215  0.015103226  0.013710737         3942 
 4459000   0.55221688   -7.6746252    807.96449  0.015099882  0.013705902         3943 
 4460000   0.54988287   -7.6907319    808.74974  0.015111169   0.01370107         3955 
 4461000   0.54517202   -7.6847961    807.78217  0.015089706  0.013696237         3956 
 4462000   0.53612333    -7.683053    807.15241  0.015074563  0.013691409         3952 
 4463000    0.5358498   -7.6889344    809.09789  0.015107512  0.013686582         3955 
 4464000   0.53286998   -7.6738969    809.15495  0.015105193  0.013681755         3940 
 4465000   0.53529232   -7.6944139    809.63355  0.015110742  0.013676934         3955 
 4466000   0.53764147   -7.7060337    809.38716  0.015102761   0.01367211         3949 
 4467000    0.5453739   -7.6893693      808.807  0.015088557  0.013667292         3954 
 4468000   0.53352743   -7.6952009    808.26927  0.015075151  0.013662476         3958 
 4469000   0.53975914   -7.6862437    807.47242  0.015056918   0.01365766         3955 
 4470000   0.54383508   -7.7039926    808.01493  0.015063664  0.013652846         3949 
 4471000   0.54762173   -7.6913681    807.31693  0.015047285  0.013648035         3942 
 4472000   0.53867914   -7.6915199    808.44981  0.015065031  0.013643228         3952 
 4473000   0.53729663   -7.6851866    807.89563  0.015051338  0.013638419         3943 
 4474000   0.53719496   -7.6937584    808.84096  0.015065582  0.013633615         3941 
 4475000   0.54362318   -7.6982199    810.10213  0.015085701  0.013628815         3949 
 4476000   0.54073301   -7.7087961    809.27211  0.015066877  0.013624011         3953 
 4477000   0.53725551   -7.6906495     809.7325  0.015072081  0.013619207         3956 
 4478000   0.53435191   -7.6869716    808.52084  0.015046167   0.01361441         3953 
 4479000   0.53765172    -7.689817    809.19403  0.015055333  0.013609613         3956 
 4480000   0.53911246   -7.6894355    809.06434   0.01504956  0.013604823         3954 
 4481000    0.5318073   -7.6916967    807.67662  0.015020394  0.013600033         3953 
 4482000   0.53665442   -7.6924924    808.83518  0.015038584  0.013595241         3950 
 4483000   0.52243813   -7.7070953    807.92713   0.01501835  0.013590457         3947 
 4484000    0.5446944   -7.6904769    809.07024  0.015036244  0.013585669         3957 
 4485000   0.53641054   -7.6740299    807.16083  0.014997414  0.013580887         3947 
 4486000   0.53305255   -7.6928999    809.21299  0.015032192  0.013576105         3946 
 4487000   0.53705939   -7.7081378    807.71632  0.015001046  0.013571325         3940 
 4488000   0.53067824   -7.6944563    809.14797  0.015024286  0.013566547         3950 
 4489000   0.53782435   -7.6932208    807.91188  0.014997993  0.013561774         3952 
 4490000   0.54064166   -7.6957601    807.78442  0.014992287  0.013557005         3947 
 4491000   0.53251718   -7.6816015    808.93281  0.015010258  0.013552234         3952 
 4492000   0.53454655   -7.6956148    807.91966  0.014988121  0.013547472         3958 
 4493000   0.52774736   -7.6872475    807.86654    0.0149838  0.013542704         3950 
 4494000   0.53722834   -7.6969632    807.72313  0.014977806  0.013537943         3950 
 4495000   0.54061042   -7.7100914    808.80952  0.014994615  0.013533183         3953 
 4496000   0.53734007   -7.6952353    807.32275  0.014963722  0.013528423         3952 
 4497000   0.52946981    -7.712353    808.62981  0.014984616  0.013523668         3949 
 4498000   0.52976082   -7.7046274    807.54432  0.014961174  0.013518912         3954 
 4499000    0.5313411   -7.7039003    807.60464  0.014958966  0.013514157         3956 
 4500000   0.54132563   -7.6939246     808.7437  0.014976735  0.013509409         3955 
 4501000   0.53820911   -7.6996388    807.96081  0.014958913  0.013504659         3955 
 4502000   0.53605869   -7.6895874    807.27986  0.014942986  0.013499913         3948 
 4503000   0.52844732   -7.6999662    807.41065  0.014942088  0.013495168         3952 
 4504000   0.51974357   -7.7021847    807.97766  0.014949261  0.013490428         3954 
 4505000   0.53082807    -7.684731    807.32389  0.014933849  0.013485689         3955 
 4506000   0.53689857   -7.7100799    808.13419  0.014945521  0.013480957         3946 
 4507000   0.52775654   -7.7008538    807.28552  0.014926513   0.01347622         3951 
 4508000   0.53605358   -7.7058898    809.31048  0.014960634  0.013471489         3955 
 4509000   0.53655995   -7.7019231     807.0171  0.014914931  0.013466757         3957 
 4510000   0.53095047   -7.7096967    807.17724  0.014914583  0.013462027         3956 
 4511000   0.53125834   -7.6950805    807.12979    0.0149104  0.013457302         3950 
 4512000   0.52685294   -7.7003291    808.43225  0.014931151  0.013452574         3947 
 4513000   0.52389333   -7.7056124    808.20461  0.014923639  0.013447854         3954 
 4514000   0.52438088   -7.7117515    806.41911  0.014887371  0.013443131         3955 
 4515000   0.52587154   -7.7056714    807.99591  0.014913177   0.01343841         3955 
 4516000   0.52886476     -7.71446    808.95635  0.014927597  0.013433691         3947 
 4517000   0.52521556   -7.7038899    806.72032   0.01488304  0.013428976         3961 
 4518000   0.53523693   -7.6987794    806.94291  0.014883852  0.013424261         3940 
 4519000    0.5285081   -7.7052315      807.856  0.014897396  0.013419554         3938 
 4520000    0.5438016    -7.699145     807.1096  0.014880339  0.013414843         3956 
 4521000   0.53070173   -7.7048383    808.84274  0.014908994  0.013410134         3956 
 4522000   0.52438652   -7.7014952    807.43665  0.014879785   0.01340543         3951 
 4523000   0.52128711   -7.7047008    806.56007  0.014860345  0.013400727         3944 
 4524000   0.51628736   -7.6964448    806.78856  0.014861269  0.013396021         3948 
 4525000   0.52013413    -7.704933    808.71835  0.014893524  0.013391322         3942 
 4526000   0.52910893   -7.6974125    807.80031   0.01487333  0.013386623         3956 
 4527000   0.52075665   -7.7175245    807.14564  0.014857994  0.013381927         3953 
 4528000   0.51730794   -7.6929292    807.76582  0.014866126  0.013377233         3947 
 4529000   0.52636075   -7.7209281    808.23092  0.014871401  0.013372545         3955 
 4530000   0.52473687   -7.7178832    809.16848  0.014885366   0.01336786         3944 
 4531000   0.51937323   -7.7129629    807.03189  0.014842785  0.013363174         3956 
 4532000   0.52653646   -7.7174437    807.16039  0.014841872  0.013358487         3950 
 4533000    0.5283158   -7.7042913    807.38257  0.014842683  0.013353804         3961 
 4534000   0.51198972   -7.7036921     806.9654  0.014831742  0.013349123         3945 
 4535000   0.51644625   -7.6983783    808.59529  0.014858421  0.013344443         3938 
 4536000   0.52450343   -7.7167767    806.18759  0.014810913  0.013339761         3958 
 4537000   0.52786953   -7.7111684    807.24206  0.014827016  0.013335089         3946 
 4538000   0.52187774   -7.7214086    807.84992  0.014834911  0.013330414         3956 
 4539000   0.54064115   -7.7043121    807.72501   0.01482935  0.013325741         3940 
 4540000   0.52635294   -7.7037181    808.68984  0.014843793  0.013321071         3942 
 4541000   0.52249536   -7.7138154    808.81106  0.014842749  0.013316404         3950 
 4542000   0.51686247   -7.7093388    807.38002  0.014813225   0.01331174         3951 
 4543000   0.53531547   -7.7180352    807.63419  0.014814627  0.013307076         3950 
 4544000   0.51451033   -7.7093552    808.15495  0.014820917  0.013302415         3955 
 4545000    0.5293672   -7.6995322     806.7772  0.014792395  0.013297752         3944 
 4546000   0.52884929   -7.7125066     807.5417  0.014803155  0.013293098         3947 
 4547000   0.53505112   -7.7036337    807.80391  0.014804705  0.013288445         3948 
 4548000   0.51649964   -7.7072062    808.18563  0.014808444  0.013283795         3956 
 4549000   0.50939995   -7.7366624    807.68069  0.014795938  0.013279142         3953 
 4550000   0.52006963   -7.7209588     809.0586  0.014817923  0.013274493         3953 
 4551000   0.52345177   -7.7158664    807.20071  0.014780647  0.013269847         3947 
 4552000    0.5192783     -7.71275    807.78412  0.014788081  0.013265205         3944 
 4553000   0.50432018   -7.7158992    807.44595  0.014778643  0.013260564         3957 
 4554000   0.51398782    -7.691904    808.28502  0.014790752  0.013255923         3945 
 4555000   0.51913575   -7.7031436    808.31741  0.014788097  0.013251284         3946 
 4556000   0.52898995   -7.7230787    806.49959  0.014751602  0.013246649         3956 
 4557000   0.52604846   -7.7209283    807.16692  0.014760568  0.013242017         3955 
 4558000   0.51808287   -7.7087599    807.45784  0.014762649  0.013237383         3958 
 4559000   0.52175968   -7.7248406    807.22326  0.014755123  0.013232751         3956 
 4560000    0.5254339   -7.7127839    807.43344  0.014755728  0.013228124         3948 
 4561000   0.51661404    -7.714157    807.72845  0.014757883    0.0132235         3954 
 4562000   0.53400773   -7.7171389    807.63853  0.014753005  0.013218879         3950 
 4563000   0.52203971   -7.7034679     807.3059  0.014743698  0.013214259         3956 
 4564000   0.52502625   -7.7137686    808.22231    0.0147572  0.013209642         3957 
 4565000   0.51255478   -7.7042749    807.95797  0.014749142  0.013205022         3953 
 4566000   0.50805314   -7.7268363     806.9485  0.014727488  0.013200407         3959 
 4567000   0.51780647   -7.7159459    808.19407  0.014746991  0.013195795         3940 
 4568000   0.51930431   -7.7186868    806.23303  0.014707987  0.013191182         3952 
 4569000   0.51764813   -7.7050087    808.18701  0.014740407  0.013186575         3948 
 4570000   0.52686177   -7.7087053    806.66966  0.014709512  0.013181968         3955 
 4571000    0.5196054   -7.7074051    806.87856  0.014710103  0.013177362         3951 
 4572000   0.50371153   -7.7167317    806.63156  0.014702383  0.013172757         3957 
 4573000   0.52231871   -7.7177317    807.09076  0.014707536  0.013168156         3954 
 4574000   0.52250868   -7.7101253     806.7586  0.014698269  0.013163559         3954 
 4575000   0.51884853   -7.7140461    806.50683   0.01469047  0.013158959         3944 
 4576000   0.52164409   -7.7313716    807.32896  0.014702232  0.013154365         3947 
 4577000   0.52551281   -7.7034168    806.30446  0.014680367  0.013149771         3952 
 4578000   0.52097163   -7.7262885    807.09885   0.01469162  0.013145177         3955 
 4579000   0.51651378   -7.6959597     808.0115  0.014705021  0.013140588         3951 
 4580000   0.51496275   -7.6975063    807.70589   0.01469625  0.013136003         3953 
 4581000   0.51792493   -7.7165443    808.38195   0.01470534  0.013131417         3953 
 4582000   0.50548279    -7.716063    806.97495  0.014676541  0.013126835         3947 
 4583000    0.5121337    -7.712134    806.92174  0.014672371  0.013122253         3953 
 4584000   0.51090862   -7.7231166    806.53307  0.014662105  0.013117673         3955 
 4585000   0.52109918   -7.7074521    807.06348  0.014668547  0.013113094         3951 
 4586000   0.52022528   -7.7212477    807.22764  0.014668332  0.013108521         3956 
 4587000   0.52665231   -7.7325684    807.90691  0.014677474  0.013103949         3957 
 4588000   0.52402929    -7.725011    806.25741  0.014644315  0.013099379         3955 
 4589000     0.512042   -7.7273527    807.63342  0.014666111  0.013094811         3949 
 4590000    0.5242258   -7.7267198    807.02632  0.014651894  0.013090247         3949 
 4591000   0.51590311   -7.7009234    806.00043  0.014630081   0.01308568         3957 
 4592000   0.51817172   -7.7177371    808.78847  0.014677491  0.013081116         3947 
 4593000   0.51957705    -7.706125    807.19492  0.014645383  0.013076552         3957 
 4594000   0.52495308    -7.731493    807.51078  0.014647925  0.013071994         3962 
 4595000    0.5179887    -7.729814    807.68438  0.014647885  0.013067438         3944 
 4596000   0.51465005   -7.7106642    805.88386  0.014612051  0.013062881         3960 
 4597000   0.52882644   -7.7358102    807.14584   0.01463175  0.013058328         3958 
 4598000   0.51050228   -7.7241492     806.6112  0.014618878  0.013053777         3953 
 4599000   0.50143667   -7.7112248    806.02743  0.014605121  0.013049226         3940 
 4600000   0.52307354   -7.7229067    806.81086  0.014616139  0.013044679         3952 
 4601000   0.51702109   -7.7255467    807.04395  0.014617184  0.013040132         3951 
 4602000   0.51574452   -7.7182658    806.42721  0.014602839  0.013035588         3965 
 4603000   0.51946557   -7.7082442    806.73843  0.014605302  0.013031047         3963 
 4604000   0.51864929   -7.7255543     806.9452  0.014605872  0.013026509         3947 
 4605000   0.51407733   -7.7233912    807.37767  0.014610526  0.013021973         3961 
 4606000   0.52085489   -7.7260764    807.38677  0.014607519  0.013017439         3957 
 4607000   0.52041026   -7.7230046    806.23467  0.014583508  0.013012901         3949 
 4608000   0.51321068   -7.7173105    806.73506  0.014589393  0.013008369         3960 
 4609000   0.51664472   -7.7375258    807.35944  0.014597517   0.01300384         3947 
 4610000   0.52350593   -7.7144246    805.55447  0.014561722  0.012999313         3958 
 4611000    0.5126756   -7.7315276    806.08764    0.0145682  0.012994789         3953 
 4612000   0.50552583   -7.7273818    806.72338  0.014576528  0.012990263         3949 
 4613000   0.50695905   -7.7173585    807.45868  0.014586652  0.012985741         3960 
 4614000   0.51992581   -7.7162953    806.94949  0.014574294  0.012981224         3954 
 4615000   0.51857591   -7.7204564    806.96797  0.014571469  0.012976706         3949 
 4616000   0.51698044   -7.7286435    808.60393  0.014597847  0.012972192         3956 
 4617000    0.5115349    -7.725277    806.92406  0.014564365  0.012967681         3951 
 4618000   0.51724962   -7.7275557    807.43143  0.014570367  0.012963167         3952 
 4619000   0.51866408   -7.7303159    807.44481  0.014567453  0.012958659         3952 
 4620000   0.50304944   -7.7100577    806.42617  0.014545927  0.012954152         3961 
 4621000   0.50561691   -7.7143863    806.13186  0.014537471  0.012949646         3954 
 4622000   0.52678218    -7.724555    806.16308  0.014534889  0.012945141         3960 
 4623000   0.50670599   -7.7283363    808.27384  0.014569793  0.012940638         3956 
 4624000   0.51393532   -7.7298214    806.52067  0.014535047  0.012936139         3964 
 4625000    0.5047331   -7.7279796    808.34166  0.014564715  0.012931637         3961 
 4626000     0.508613    -7.731768    807.83333  0.014552409   0.01292714         3949 
 4627000   0.51409055   -7.7097789    805.94122  0.014515187  0.012922643         3957 
 4628000   0.50379646    -7.731749    806.60643  0.014524028  0.012918149         3953 
 4629000    0.5058445   -7.7235177    807.13936  0.014530485   0.01291366         3951 
 4630000   0.50736945   -7.7278349    806.92736  0.014523531  0.012909171         3953 
 4631000   0.50352541   -7.7480607    805.57234  0.014496011  0.012904682         3957 
 4632000   0.52100931   -7.7327147     805.9819   0.01450025  0.012900199         3951 
 4633000   0.52206719   -7.7192387    806.53977  0.014507155  0.012895718         3958 
 4634000   0.51131405   -7.7242617    805.65231  0.014488065  0.012891236         3957 
 4635000   0.51738841     -7.72214    806.56268  0.014501307  0.012886758         3952 
 4636000   0.51308747   -7.7372603    806.92595  0.014504709  0.012882281         3962 
 4637000   0.51601161   -7.7295077    806.81439  0.014499576  0.012877806         3957 
 4638000   0.51435762   -7.7199966     807.0364  0.014500438  0.012873333         3945 
 4639000   0.50135436   -7.7087151    805.76572  0.014474487  0.012868859         3939 
 4640000    0.5124989   -7.7383785     805.9753  0.014475131  0.012864388         3952 
 4641000   0.50520646   -7.7321081    807.21689  0.014494306  0.012859919         3961 
 4642000   0.50391278   -7.7132173    806.84129  0.014484441  0.012855455         3952 
 4643000   0.50786689   -7.7239608    807.73002  0.014497272  0.012850993         3950 
 4644000    0.5106335   -7.7311427    808.23841  0.014503273  0.012846533         3960 
 4645000   0.50578033   -7.7271017    807.05038  0.014478837  0.012842073         3951 
 4646000   0.50940825   -7.7224346    807.13617   0.01447726  0.012837618         3951 
 4647000   0.52054196   -7.7235523    807.67412  0.014483791  0.012833164         3949 
 4648000   0.51313963   -7.7173656    807.62272  0.014479753  0.012828714         3951 
 4649000   0.51224216   -7.7274426    805.92861  0.014446272  0.012824264         3955 
 4650000   0.50610216   -7.7228625    806.94594  0.014461397  0.012819816         3949 
 4651000   0.49893524   -7.7461673    806.50445  0.014450377   0.01281537         3962 
 4652000   0.52104974   -7.7111274    806.41226  0.014445619  0.012810923         3946 
 4653000   0.49896361   -7.7316855    807.57318  0.014463307  0.012806481         3954 
 4654000   0.49664775   -7.7397079    805.51744  0.014423389  0.012802039         3963 
 4655000   0.51036906   -7.7415557    807.25097  0.014451324    0.0127976         3947 
 4656000   0.50417152   -7.7411414    806.33327  0.014431795  0.012793162         3962 
 4657000   0.50394278     -7.73378    805.91625  0.014421234  0.012788727         3964 
 4658000   0.50363531   -7.7352503    806.60423  0.014430446  0.012784293         3957 
 4659000   0.50890856   -7.7255905    806.13161  0.014418895  0.012779866         3951 
 4660000    0.5119499   -7.7196937    806.50373  0.014422456  0.012775439         3946 
 4661000   0.50344096   -7.7296828    807.08943  0.014429833  0.012771012         3959 
 4662000   0.50459105   -7.7268391    805.64246  0.014400873  0.012766587         3953 
 4663000   0.51955511   -7.7336851    806.87826   0.01441987  0.012762163         3958 
 4664000   0.50827413   -7.7293646    805.86667  0.014398704  0.012757744         3950 
 4665000   0.49848932    -7.732931    807.20668  0.014419555  0.012753324         3951 
 4666000   0.50123662   -7.7242036    806.45856  0.014403103  0.012748907         3952 
 4667000   0.50971325   -7.7183835    805.97574  0.014391396  0.012744494         3955 
 4668000   0.50701983   -7.7274057    804.67133  0.014365027  0.012740082         3954 
 4669000   0.49135224   -7.7387901    806.96237  0.014402841  0.012735667         3950 
 4670000   0.50472403   -7.7342011    806.11987  0.014384723  0.012731257         3958 
 4671000   0.50652084   -7.7272909    807.93349  0.014413999   0.01272685         3961 
 4672000   0.50654824   -7.7265791    806.80923  0.014390861  0.012722443         3954 
 4673000   0.49269602   -7.7287802    806.00406  0.014373423  0.012718038         3959 
 4674000   0.49682092   -7.7363351    806.92644  0.014386793  0.012713635         3946 
 4675000   0.50964035   -7.7266103    806.22246  0.014371167  0.012709237         3947 
 4676000   0.50435435   -7.7261502    807.70567  0.014394526   0.01270484         3955 
 4677000   0.49612524   -7.7208487    806.41525  0.014368457  0.012700446         3953 
 4678000   0.50305972   -7.7343905    805.41196  0.014347512  0.012696049         3957 
 4679000   0.49223526   -7.7519333    806.75408  0.014368349  0.012691655         3956 
 4680000    0.5034557   -7.7297819     806.2887  0.014356993  0.012687264         3937 
 4681000   0.50574629   -7.7345948    806.29843  0.014354099  0.012682874         3959 
 4682000   0.50041589   -7.7344206    804.53512  0.014319648  0.012678487         3952 
 4683000   0.50796135   -7.7546282    806.81349  0.014357134  0.012674102         3948 
 4684000   0.50099856   -7.7283269    806.94574  0.014356422  0.012669717         3944 
 4685000   0.50037421   -7.7352724      807.315  0.014359925  0.012665333         3952 
 4686000   0.50830863   -7.7418642     805.8219  0.014330308  0.012660957         3953 
 4687000    0.5065538   -7.7353937    805.60499  0.014323394  0.012656579         3949 
 4688000   0.51933345   -7.7448276      805.596  0.014320179  0.012652204         3955 
 4689000   0.49713372   -7.7292458     806.4302  0.014331951  0.012647831         3945 
 4690000   0.49610595   -7.7452259    807.04043  0.014339738  0.012643461         3960 
 4691000   0.50053032   -7.7387346    806.42352  0.014325722  0.012639093         3955 
 4692000   0.49121148   -7.7436593    806.18489   0.01431843  0.012634724         3958 
 4693000   0.50357339   -7.7429418    806.19275  0.014315519  0.012630359         3960 
 4694000    0.5051877   -7.7637088    806.11068  0.014311012  0.012625996         3949 
 4695000   0.49478532   -7.7547795    806.22349  0.014309966  0.012621634         3950 
 4696000   0.51586278   -7.7318629    807.37406  0.014327336  0.012617278         3960 
 4697000   0.50961211   -7.7439223    806.52837  0.014309282  0.012612922         3956 
 4698000   0.49934276   -7.7286825    805.83563  0.014293948  0.012608566         3954 
 4699000   0.50749009   -7.7483589    805.29428  0.014281306  0.012604212         3954 
 4700000   0.51066407   -7.7181433    806.81109  0.014305161  0.012599861         3944 
 4701000   0.50163131   -7.7304642     805.7198  0.014282773  0.012595511         3947 
 4702000   0.50040781   -7.7526117       806.54  0.014294272  0.012591166         3959 
 4703000   0.49412701   -7.7549675    806.56497  0.014291675   0.01258682         3944 
 4704000   0.49557938   -7.7526492    806.51416  0.014287737  0.012582479         3955 
 4705000   0.50100991   -7.7338154     807.1443  0.014295861  0.012578135         3948 
 4706000   0.49252278   -7.7373246     804.9341  0.014253685  0.012573794         3958 
 4707000   0.50052546   -7.7483746    806.34448  0.014275626  0.012569456         3954 
 4708000   0.49700091   -7.7454544    805.57381  0.014258953   0.01256512         3954 
 4709000   0.50842173   -7.7543564    807.64578  0.014292592  0.012560786         3954 
 4710000   0.50643473   -7.7441977    806.30076   0.01426576  0.012556453         3957 
 4711000   0.50284576   -7.7384064    804.82536  0.014236633  0.012552123         3960 
 4712000   0.49155698   -7.7539833    807.25727  0.014276621  0.012547795         3953 
 4713000   0.49811227   -7.7381799     805.6036  0.014244353  0.012543467         3955 
 4714000   0.50524932   -7.7379458    806.49878  0.014257156  0.012539142         3953 
 4715000   0.49375021   -7.7303987    804.80694   0.01422423  0.012534821         3944 
 4716000   0.49415162   -7.7560206    805.24422  0.014228941  0.012530501         3950 
 4717000   0.49851508   -7.7398247    806.64176  0.014250614  0.012526181         3952 
 4718000   0.50904378   -7.7444371    806.05721  0.014237269  0.012521864         3953 
 4719000   0.50407939   -7.7570621    806.14879  0.014235869  0.012517548         3953 
 4720000   0.49441349   -7.7370698    805.71845  0.014225255  0.012513237         3944 
 4721000   0.48822425   -7.7456678    805.35618  0.014215847  0.012508926         3951 
 4722000   0.50050756   -7.7426952    804.90843  0.014204935  0.012504615         3953 
 4723000   0.49597726   -7.7450267    806.01923  0.014221526  0.012500307         3946 
 4724000   0.48302988   -7.7438529    805.92067  0.014216777     0.012496         3953 
 4725000   0.49025187   -7.7495117    805.98668  0.014214933  0.012491697         3951 
 4726000    0.5044134   -7.7468956    805.51405  0.014203591  0.012487397         3952 
 4727000    0.4972833   -7.7592559    805.18773  0.014194833  0.012483096         3948 
 4728000   0.50542155   -7.7573502    805.59866  0.014199074  0.012478798         3956 
 4729000   0.49104737   -7.7529952    806.75809  0.014216503    0.0124745         3948 
 4730000   0.49380874   -7.7422214    806.60587  0.014210815  0.012470205         3949 
 4731000   0.50268466   -7.7314938    804.58652  0.014172242  0.012465914         3945 
 4732000   0.48773244   -7.7351527    806.93552  0.014210614  0.012461621         3946 
 4733000   0.49282011   -7.7427235    806.65529  0.014202678  0.012457335         3951 
 4734000    0.4938728   -7.7442865     806.2499  0.014192542   0.01245305         3958 
 4735000    0.4978781   -7.7412324    805.36229  0.014173923  0.012448763         3950 
 4736000   0.50945414   -7.7433432    806.49965  0.014190943  0.012444479         3948 
 4737000   0.48746706   -7.7366028    805.72866  0.014174384  0.012440197         3951 
 4738000   0.50405224   -7.7506539    805.62761  0.014169615  0.012435916         3953 
 4739000   0.51749666   -7.7488794    805.43437  0.014163227  0.012431639         3944 
 4740000   0.49141302   -7.7462402    805.12315  0.014154767  0.012427365         3954 
 4741000    0.4961061    -7.740622    806.00703  0.014167318  0.012423093         3951 
 4742000   0.48977858   -7.7501813    805.15202  0.014149304  0.012418821         3956 
 4743000   0.49604889   -7.7476597    804.68137  0.014138052  0.012414552         3950 
 4744000    0.4890408    -7.731317     805.5582  0.014150474  0.012410285         3951 
 4745000   0.48850783   -7.7578653    806.32218  0.014160909  0.012406021         3949 
 4746000   0.49169452   -7.7455936    804.45057  0.014125063  0.012401758         3951 
 4747000   0.49209262   -7.7599447    806.08649  0.014150806  0.012397497         3950 
 4748000   0.48493951   -7.7481211    805.54121  0.014138255  0.012393237         3953 
 4749000   0.47946195   -7.7400145    805.85402  0.014140767   0.01238898         3955 
 4750000   0.49508255    -7.746337    805.37468   0.01412938  0.012384723         3953 
 4751000   0.49557842   -7.7528276    805.24362  0.014124107  0.012380468         3946 
 4752000    0.4841462   -7.7636023    805.49298  0.014125508  0.012376217         3950 
 4753000   0.49117414   -7.7480333    805.27666  0.014118744  0.012371966         3950 
 4754000   0.50978489     -7.75642    804.00726  0.014093522  0.012367718         3949 
 4755000   0.48706589   -7.7679313    805.18447  0.014111189   0.01236347         3949 
 4756000    0.4825188   -7.7502503     806.2161  0.014126298  0.012359223         3949 
 4757000   0.48238721   -7.7433716    804.30684  0.014089882  0.012354978         3957 
 4758000   0.49093867   -7.7601402    806.68567  0.014128585  0.012350735         3960 
 4759000   0.49254911   -7.7381546    805.02528  0.014096541  0.012346497         3943 
 4760000    0.4829386   -7.7572845    804.66084    0.0140872  0.012342259         3954 
 4761000   0.48537005   -7.7581849    805.41394  0.014097422  0.012338021         3950 
 4762000   0.49293237   -7.7638902    804.44969  0.014077588  0.012333787         3955 
 4763000    0.4941953   -7.7589256    805.80187   0.01409829  0.012329557         3956 
 4764000   0.48792264    -7.763402    806.07431  0.014100096  0.012325327         3956 
 4765000    0.4821703   -7.7493582     804.7433   0.01407386  0.012321096         3962 
 4766000   0.48038995   -7.7478004    805.69674  0.014087578   0.01231687         3943 
 4767000    0.4913267   -7.7588829    805.08457  0.014073921  0.012312646         3958 
 4768000   0.47556338   -7.7512951    805.95143   0.01408612  0.012308424         3951 
 4769000   0.48888402   -7.7580483    805.60619  0.014077133  0.012304206         3953 
 4770000   0.48380232   -7.7618656    805.75746  0.014076825  0.012299987         3953 
 4771000   0.47974452   -7.7535177    805.33259  0.014066453  0.012295768         3956 
 4772000   0.48507314    -7.747257    805.17771  0.014060801  0.012291553         3948 
 4773000   0.49408502   -7.7435261     805.3455  0.014060785   0.01228734         3957 
 4774000   0.48584437   -7.7685854     806.5978  0.014079699  0.012283127         3949 
 4775000   0.48426673   -7.7726822    804.99276  0.014048739  0.012278913         3954 
 4776000    0.4947888   -7.7428535    805.35112  0.014052051  0.012274708         3956 
 4777000   0.48250713   -7.7587371    805.50423   0.01405178  0.012270503         3952 
 4778000   0.48307394   -7.7472338    804.12063  0.014024707  0.012266298         3954 
 4779000   0.49117044    -7.758278    805.73514  0.014049926  0.012262097         3943 
 4780000   0.48962395    -7.761322     806.1324  0.014053912  0.012257894         3951 
 4781000   0.48237418   -7.7588486    805.95254  0.014047838  0.012253697         3959 
 4782000   0.48387656   -7.7427377    805.95102  0.014044874  0.012249501         3948 
 4783000   0.48179355   -7.7672755    804.65617  0.014019377  0.012245308         3958 
 4784000   0.49528864   -7.7688396    805.57049  0.014032373  0.012241115         3959 
 4785000   0.48843949   -7.7699704    805.59475  0.014029863  0.012236924         3955 
 4786000   0.49131589   -7.7398853    806.38463  0.014040685  0.012232737         3954 
 4787000    0.4808114   -7.7653817    804.53607  0.014005572  0.012228549         3956 
 4788000   0.49007916   -7.7561898    805.14122  0.014013179  0.012224361         3944 
 4789000   0.49525508   -7.7511539     805.7547  0.014020928  0.012220178         3949 
 4790000   0.48581617   -7.7521645      806.304  0.014027557  0.012215996         3951 
 4791000   0.47930368   -7.7468124     804.2641  0.013989148  0.012211814         3951 
 4792000   0.49561558   -7.7535234    805.32687  0.014004711  0.012207636         3950 
 4793000   0.49858235    -7.762767    805.39245  0.014002929   0.01220346         3963 
 4794000   0.49349305   -7.7552165    805.53737  0.014002527  0.012199286         3962 
 4795000   0.48452099   -7.7694292    805.67163   0.01400194  0.012195113         3953 
 4796000   0.47092481    -7.760923     804.8632  0.013984974  0.012190942         3952 
 4797000   0.48696774   -7.7721893    806.04036  0.014002508  0.012186771         3952 
 4798000   0.47678635   -7.7596397    803.76771  0.013960117  0.012182606         3960 
 4799000   0.48194464   -7.7636899     804.0137   0.01396148   0.01217844         3963 
 4800000   0.47835552   -7.7587731    806.36611  0.013999412  0.012174275         3958 
 4801000   0.47953423   -7.7766948    805.30855  0.013978139  0.012170113         3951 
 4802000   0.49496087   -7.7718135     804.7608  0.013965723  0.012165955         3949 
 4803000   0.47698891   -7.7597193    804.75113  0.013962647  0.012161794         3961 
 4804000   0.48667564   -7.7626155    805.76862  0.013977391  0.012157637         3954 
 4805000   0.48415706   -7.7520608    804.87748  0.013959027  0.012153484         3961 
 4806000   0.48830023   -7.7712489    805.60826  0.013968794  0.012149329         3945 
 4807000   0.48734913   -7.7841717    805.38448  0.013962008  0.012145179         3955 
 4808000    0.4743453   -7.7671098    805.12553  0.013954616  0.012141033         3953 
 4809000   0.48264984   -7.7510313    804.95786  0.013948809  0.012136886         3944 
 4810000   0.48817865   -7.7533692    805.93882  0.013962904  0.012132744         3946 
 4811000   0.48400254   -7.7729281    805.65385  0.013955066  0.012128601         3959 
 4812000   0.48090679   -7.7677824    805.22195  0.013944686  0.012124462         3950 
 4813000   0.48386914   -7.7669126    803.64955  0.013914564  0.012120322         3952 
 4814000   0.48502386   -7.7694421    805.26976   0.01393972  0.012116183         3951 
 4815000   0.47988948   -7.7626667    805.10618  0.013933994  0.012112049         3952 
 4816000   0.48500413   -7.7677215    804.90288  0.013927583  0.012107917         3943 
 4817000   0.47763488   -7.7759305    804.56002   0.01391876  0.012103785         3946 
 4818000   0.47419382   -7.7768371    805.62956   0.01393437  0.012099655         3956 
 4819000     0.491725    -7.766571    804.11494  0.013905287  0.012095526         3959 
 4820000   0.47943205   -7.7779578    805.41182  0.013924824  0.012091397         3958 
 4821000   0.48074905   -7.7720533    806.08121  0.013933506  0.012087272         3959 
 4822000   0.48753755    -7.752735    804.92901  0.013910705  0.012083149         3964 
 4823000   0.47383823   -7.7708417    804.75917  0.013904886   0.01207903         3946 
 4824000   0.47915098   -7.7652145    805.54862  0.013915641  0.012074911         3959 
 4825000   0.48327219    -7.764364    805.69473   0.01391528  0.012070791         3949 
 4826000     0.480218   -7.7624712    804.14476  0.013885633  0.012066675         3956 
 4827000   0.47753948   -7.7596556    805.66617  0.013909022  0.012062563         3959 
 4828000   0.47272466   -7.7610839    804.72342  0.013889869  0.012058451         3956 
 4829000   0.47468009   -7.7659707    803.77192  0.013870572  0.012054338         3953 
 4830000   0.47499123   -7.7593759     804.8615  0.013886499  0.012050229         3954 
 4831000   0.46822094   -7.7595789     804.9323  0.013884846   0.01204612         3949 
 4832000    0.4839223   -7.7789763     804.5394  0.013875197  0.012042015         3958 
 4833000   0.47013613   -7.7798529    805.56614  0.013890029  0.012037911         3962 
 4834000   0.48024338   -7.7648546    804.47857  0.013868407   0.01203381         3948 
 4835000   0.47233556    -7.768997    805.39457  0.013881327   0.01202971         3954 
 4836000   0.47980366   -7.7694221    805.09295  0.013873259  0.012025611         3953 
 4837000   0.48939418   -7.7564736    804.93114  0.013867603  0.012021514         3957 
 4838000   0.48073995   -7.7704804    805.15234  0.013868547  0.012017421         3949 
 4839000   0.48648015   -7.7687897    803.86513  0.013843513   0.01201333         3958 
 4840000   0.47830373   -7.7459833    805.02477  0.013860619   0.01200924         3950 
 4841000   0.48553145   -7.7510313    804.77291  0.013853421  0.012005153         3960 
 4842000   0.47623044   -7.7732071    804.77919  0.013850668  0.012001067         3965 
 4843000    0.4817478   -7.7666658    804.54473  0.013843773  0.011996983         3951 
 4844000   0.48133013   -7.7671192    805.71644  0.013861073  0.011992899         3956 
 4845000    0.4785488   -7.7665298    804.55263  0.013838194  0.011988818         3951 
 4846000   0.46537119   -7.7779073    805.52553  0.013852069  0.011984736         3958 
 4847000   0.47527258    -7.756325    805.35479  0.013846276  0.011980658         3960 
 4848000   0.48446126    -7.770493      805.526  0.013846363  0.011976583         3949 
 4849000    0.4720745   -7.7702171    804.24471  0.013821487  0.011972509         3951 
 4850000   0.47508265   -7.7800283    804.89948  0.013829888  0.011968438         3953 
 4851000   0.47820282   -7.7710933    804.55009  0.013821035   0.01196437         3950 
 4852000   0.47818311   -7.7782633    805.31369  0.013831301  0.011960299         3953 
 4853000   0.47257695   -7.7699656    804.08634  0.013807376  0.011956234         3959 
 4854000   0.48076456   -7.7747212    803.66577  0.013797311  0.011952169         3954 
 4855000   0.47668854   -7.7745405    804.63858  0.013811167  0.011948107         3952 
 4856000   0.48432711   -7.7760182    804.35946  0.013803533  0.011944046         3950 
 4857000   0.47239898      -7.7817    804.40975  0.013801554  0.011939989         3953 
 4858000   0.46757708   -7.7727142    805.60438  0.013819205   0.01193593         3954 
 4859000   0.46674987   -7.7632317    804.64952  0.013799985  0.011931871         3955 
 4860000    0.4743739     -7.77813    804.94324  0.013802182  0.011927817         3949 
 4861000   0.48161737   -7.7670781    803.91736  0.013781756  0.011923765         3955 
 4862000   0.47921876   -7.7655501    805.08345  0.013798907  0.011919713         3950 
 4863000   0.46408043   -7.7756945    805.10442  0.013796429  0.011915664         3950 
 4864000   0.47676764   -7.7749124    803.89958  0.013772951  0.011911618         3952 
 4865000   0.47674418   -7.7812645    804.56875  0.013781582  0.011907572         3953 
 4866000   0.47972047     -7.77518    803.97105  0.013768514  0.011903526         3956 
 4867000   0.45973489   -7.7668577    804.13824  0.013768547  0.011899482         3950 
 4868000   0.47219771   -7.7794492    804.00264  0.013763398  0.011895441         3953 
 4869000   0.47350745    -7.792156    805.54213   0.01378692  0.011891405         3955 
 4870000   0.46682491   -7.7602694    804.45232   0.01376544  0.011887366         3954 
 4871000   0.47097549   -7.7787787    805.57154  0.013781762   0.01188333         3947 
 4872000   0.46826811   -7.7741051      805.016  0.013769431  0.011879299         3953 
 4873000   0.46995485   -7.8004709     804.8165  0.013763193  0.011875263         3963 
 4874000   0.47111688   -7.7788375    803.56607   0.01373899  0.011871234         3955 
 4875000   0.47905094   -7.7908997    804.96548  0.013760094  0.011867207         3965 
 4876000   0.46616367   -7.7777019    805.12728  0.013760037  0.011863179         3955 
 4877000   0.47062685   -7.7762482    804.31452  0.013743328  0.011859156         3962 
 4878000   0.46676341   -7.7798885    805.57411  0.013762029  0.011855133         3941 
 4879000   0.47572218    -7.769359    804.26921   0.01373692  0.011851113         3942 
 4880000   0.46470157   -7.7936176    805.27574  0.013751293  0.011847097         3949 
 4881000   0.47753479   -7.7917738    804.84158  0.013741064   0.01184308         3955 
 4882000   0.47203525   -7.7842324    804.82395  0.013737948  0.011839063         3949 
 4883000   0.47200002   -7.7742179    804.35299  0.013727097  0.011835052         3950 
 4884000   0.47557831   -7.7755731    804.15159   0.01372085  0.011831039         3953 
 4885000    0.4764929   -7.7782895    804.24731  0.013719674  0.011827026         3951 
 4886000   0.46657272   -7.7822999    803.87589  0.013710532  0.011823018         3956 
 4887000   0.46549012   -7.7842576    804.40767  0.013716794  0.011819012         3949 
 4888000    0.4679764   -7.7806672    803.78003  0.013703288  0.011815005         3952 
 4889000   0.46503343   -7.7498707    802.97146  0.013686702  0.011811002         3953 
 4890000   0.47386406   -7.7754223    805.16435  0.013721274  0.011806999         3958 
 4891000   0.47994054   -7.7842564     804.1844  0.013701772  0.011802998         3950 
 4892000    0.4763555   -7.7821711    804.74314  0.013708489  0.011799001         3957 
 4893000   0.46264138   -7.7892063     805.1011  0.013711784  0.011795004         3953 
 4894000   0.46830301   -7.7847149    804.02319  0.013690628  0.011791007         3958 
 4895000   0.46459588   -7.7646089    804.67586  0.013698942  0.011787014         3953 
 4896000   0.46949402   -7.7866649    805.19923  0.013705052  0.011783021         3959 
 4897000   0.45957047   -7.7733181    803.53291  0.013673897  0.011779029         3951 
 4898000   0.46395806   -7.7753796    804.01781  0.013679356   0.01177504         3953 
 4899000   0.45698483   -7.7867168    804.08354  0.013677681  0.011771054         3958 
 4900000   0.47595239   -7.7766542    804.12197  0.013675544  0.011767066         3948 
 4901000   0.48003735   -7.8043644    805.05583  0.013688632  0.011763083         3954 
 4902000    0.4715512   -7.7923279    804.62048  0.013678439  0.011759099         3953 
 4903000   0.46486011   -7.7698729    803.81983  0.013662041  0.011755119         3951 
 4904000   0.46669419   -7.7853689    805.29574  0.013684335  0.011751139         3952 
 4905000   0.47418825   -7.7888656    804.68686    0.0136712  0.011747165         3956 
 4906000   0.46800767   -7.7921863    803.73261  0.013652205   0.01174319         3960 
 4907000   0.46725518   -7.7806755    803.99676  0.013653909  0.011739215         3947 
 4908000   0.46356588   -7.7903065    804.70873  0.013663215  0.011735244         3953 
 4909000   0.47200799   -7.7892235    804.40792  0.013655326  0.011731271         3955 
 4910000   0.45851482   -7.7868836    804.77446  0.013658766  0.011727302         3952 
 4911000   0.46851149   -7.7796444    803.21366  0.013629499  0.011723336         3951 
 4912000   0.46839945   -7.7871553    803.87928  0.013638017  0.011719374         3953 
 4913000   0.46515538   -7.7803149    803.08429  0.013621757  0.011715412         3951 
 4914000   0.47319612   -7.7735721    803.15984  0.013620266  0.011711454         3958 
 4915000   0.46994341    -7.787665    805.92013  0.013664295  0.011707496         3950 
 4916000   0.46662578   -7.7877698    804.57343  0.013638687   0.01170354         3952 
 4917000   0.46106959   -7.7960241    804.47821    0.0136343  0.011699586         3950 
 4918000   0.46760439   -7.7847983    804.27548  0.013628092  0.011695631         3948 
 4919000   0.45707261   -7.7726785    804.25917  0.013625045  0.011691678         3948 
 4920000   0.46699414   -7.7911262    804.86437  0.013632527  0.011687726         3950 
 4921000   0.46021526   -7.7763499    804.22305  0.013618896  0.011683779         3948 
 4922000    0.4590372    -7.778501    803.22025  0.013599151  0.011679833         3950 
 4923000   0.45820922   -7.7977111    804.09546  0.013611204  0.011675886         3956 
 4924000    0.4629525   -7.7747228    804.50112  0.013615305  0.011671941         3954 
 4925000   0.47446745   -7.7810931    804.05686  0.013605023  0.011667998         3958 
 4926000    0.4668546     -7.78853    802.94324  0.013583422  0.011664058         3950 
 4927000   0.47112037   -7.7797734    804.49737  0.013606951  0.011660122         3952 
 4928000   0.46823038   -7.7797763    804.17492  0.013598737  0.011656187         3952 
 4929000   0.47323091   -7.7788024     803.7806  0.013589312  0.011652252         3955 
 4930000   0.45028464    -7.779871    803.20394  0.013576808  0.011648318         3943 
 4931000   0.45926708   -7.7909127    804.08642  0.013588968  0.011644386         3952 
 4932000      0.46261    -7.779366    804.68158  0.013596269  0.011640457         3960 
 4933000    0.4611502   -7.7892988    804.94072   0.01359789  0.011636528         3953 
 4934000   0.45392161   -7.7914145    803.71086  0.013574363  0.011632602         3951 
 4935000   0.45955418    -7.782226    804.24688  0.013580663  0.011628678         3951 
 4936000   0.46138819   -7.7881937    803.73226  0.013569224  0.011624756         3960 
 4937000   0.45309929     -7.78809    804.21485  0.013574621  0.011620834         3949 
 4938000   0.45848898   -7.7987223    804.43254  0.013575546  0.011616917         3953 
 4939000   0.45905468   -7.7809338    803.45815  0.013556357  0.011612998         3952 
 4940000   0.45540405    -7.781849    803.73948  0.013558358  0.011609082         3956 
 4941000   0.46341137   -7.7959176    803.91527  0.013558579  0.011605166         3957 
 4942000   0.46480175   -7.7870829    803.88112   0.01355526  0.011601255         3960 
 4943000   0.46629108   -7.7997358    803.78763  0.013550941  0.011597344         3952 
 4944000   0.46432479   -7.7990674    804.31422  0.013557076  0.011593437         3952 
 4945000   0.45828833   -7.8006039    804.47908  0.013557113  0.011589529         3952 
 4946000    0.4630934   -7.7875376    803.88605   0.01354438  0.011585624         3948 
 4947000    0.4506919   -7.7889031    804.28028  0.013548283  0.011581722         3949 
 4948000   0.46631625    -7.782712    804.23631  0.013544804   0.01157782         3949 
 4949000   0.46075519   -7.7873118    803.62769  0.013531819   0.01157392         3950 
 4950000   0.45918331   -7.7961771    804.84795  0.013549629  0.011570022         3956 
 4951000   0.45015998   -7.7929465    802.79039   0.01351226  0.011566125         3955 
 4952000   0.47570615   -7.7945972    804.11885  0.013531887  0.011562229         3952 
 4953000   0.46437661   -7.7909139    804.29435  0.013532108  0.011558336         3948 
 4954000   0.46565444   -7.7981519    803.62901  0.013518184  0.011554443         3956 
 4955000   0.46809391   -7.7785997    803.36327  0.013510987  0.011550553         3959 
 4956000   0.45404344    -7.796152    803.88359  0.013517009  0.011546666         3958 
 4957000   0.45176638   -7.7981982    802.68579  0.013494146  0.011542779         3950 
 4958000   0.46003149   -7.7863802     803.7624   0.01350952  0.011538894         3955 
 4959000   0.44866813   -7.7975912    803.64374  0.013504802  0.011535011         3960 
 4960000    0.4649518   -7.8007226    804.19118  0.013511277  0.011531128         3951 
 4961000   0.45668992   -7.7897692    804.26859  0.013509853  0.011527247         3946 
 4962000   0.45324438   -7.7926018     803.9952  0.013502539  0.011523369         3949 
 4963000   0.45287636    -7.792327     803.9161  0.013498491  0.011519493         3957 
 4964000    0.4625996   -7.8006452    803.05163  0.013481259  0.011515619         3956 
 4965000   0.46695276   -7.7857013    804.33465  0.013500078  0.011511752         3950 
 4966000   0.46613892   -7.7745872    803.93435  0.013490642   0.01150788         3952 
 4967000   0.45625565   -7.8069297     804.0794   0.01349036  0.011504011         3955 
 4968000   0.46861267   -7.7976908    804.92705  0.013501863  0.011500145         3954 
 4969000   0.45234359   -7.7807246    804.47709  0.013491599   0.01149628         3949 
 4970000   0.45831164   -7.8031852    803.72268  0.013476235  0.011492417         3950 
 4971000   0.46412272   -7.8079777    804.15323  0.013480742  0.011488555         3957 
 4972000   0.45950409   -7.7875724    804.73438  0.013487771  0.011484695         3948 
 4973000   0.46515589   -7.7958397    804.09936  0.013474418  0.011480837         3957 
 4974000   0.45590266   -7.8056345    804.11289  0.013471936  0.011476979         3956 
 4975000   0.45152686   -7.8054181    804.53371  0.013476277  0.011473124         3953 
 4976000   0.45599086   -7.7861228    801.71613  0.013426382  0.011469271         3950 
 4977000   0.46405278     -7.80292    804.83811  0.013475958   0.01146542         3952 
 4978000   0.45862319   -7.7928277    803.56777  0.013451985  0.011461569         3958 
 4979000   0.44463382    -7.790355    803.26348   0.01344419  0.011457719         3958 
 4980000   0.46034018    -7.808477     804.5247  0.013462595  0.011453871         3960 
 4981000   0.44961644   -7.7840154    803.60389  0.013444487  0.011450022         3952 
 4982000   0.44956806   -7.7959426    804.10121  0.013450107  0.011446179         3946 
 4983000   0.46619686   -7.8100295    803.61842  0.013439334  0.011442338         3948 
 4984000     0.451914   -7.8008217    803.20819  0.013429778  0.011438496         3947 
 4985000    0.4548566   -7.7957869    803.16428   0.01342635  0.011434656         3963 
 4986000   0.44618876    -7.798762    803.49907  0.013429253  0.011430821         3950 
 4987000   0.45666659   -7.8080951    804.36159  0.013440973  0.011426985         3950 
 4988000   0.45416413   -7.7941822    803.94331   0.01343129  0.011423152         3957 
 4989000   0.44834511   -7.8066465    803.92879  0.013428355   0.01141932         3955 
 4990000   0.45613689   -7.7899928    803.30462  0.013415241  0.011415489         3949 
 4991000   0.44961104    -7.814022    804.61066  0.013434359   0.01141166         3947 
 4992000   0.45308554   -7.7895413     802.9468  0.013403893  0.011407831         3953 
 4993000   0.45046339   -7.7952878     803.5526  0.013411319  0.011404005         3951 
 4994000   0.44506346   -7.7862083     803.8806  0.013414107  0.011400181         3957 
 4995000   0.45345289   -7.7897447    803.17342  0.013399623  0.011396356         3956 
 4996000   0.45256554   -7.7891803    803.11811  0.013396019  0.011392534         3947 
 4997000   0.45241237   -7.8024156    803.68049  0.013402716  0.011388714         3952 
 4998000    0.4543288   -7.8036401    802.45847   0.01337966  0.011384897         3960 
 4999000   0.45098662    -7.784326    803.22406  0.013389746  0.011381082         3962 
 5000000   0.44512755   -7.7846354    803.72991  0.013395498  0.011377268         3953 
 5001000   0.44724816   -7.8031708    804.82295  0.013411034  0.011373456         3953 
 5002000   0.45242779   -7.8213975    803.53739  0.013386935  0.011369646         3957 
 5003000   0.45074595   -7.7933579    802.48865  0.013366791  0.011365836         3948 
 5004000   0.44792214   -7.8112758    802.87019  0.013370473   0.01136203         3959 
 5005000   0.45179184   -7.8097894    802.41081  0.013360153  0.011358225         3957 
 5006000   0.45518485   -7.8065765    803.94878  0.013383087   0.01135442         3958 
 5007000   0.45583093   -7.8047245    803.27797  0.013369249  0.011350617         3941 
 5008000   0.45114351   -7.7978996    803.19954  0.013365275  0.011346815         3960 
 5009000   0.44693566   -7.8028332     804.1517  0.013378447  0.011343015         3950 
 5010000   0.45229785   -7.8001227       802.72  0.013351963  0.011339217         3955 
 5011000   0.45303641    -7.798589    803.88956  0.013368748  0.011335423         3957 
 5012000    0.4451843   -7.8084646    803.07438  0.013352527  0.011331629         3951 
Loop time of 10740.2 on 48 procs for 5000000 steps with 4000 atoms

Performance: 80445.492 tau/day, 465.541 timesteps/s
99.4% CPU use with 48 MPI tasks x no OpenMP threads

MPI task timing breakdown:
Section |  min time  |  avg time  |  max time  |%varavg| %total
---------------------------------------------------------------
Pair    | 720.64     | 746.42     | 770.07     |  43.5 |  6.95
Neigh   | 66.391     | 67.368     | 69.803     |   7.8 |  0.63
Comm    | 566.88     | 596.63     | 624.84     |  51.7 |  5.56
Output  | 14.873     | 14.877     | 14.969     |   0.3 |  0.14
Modify  | 9156.6     | 9197.5     | 9239.8     |  18.0 | 85.64
Other   |            | 117.4      |            |       |  1.09

Nlocal:        83.3333 ave          88 max          77 min
Histogram: 1 5 2 4 4 8 8 4 6 6
Nghost:        1756.54 ave        1772 max        1738 min
Histogram: 2 1 6 3 4 12 8 7 1 4
Neighs:        10449.6 ave       11069 max        9671 min
Histogram: 3 1 4 5 5 7 8 4 8 3
FullNghs:      20898.1 ave       22213 max       19260 min
Histogram: 1 5 2 5 4 9 9 6 4 3

Total # of neighbors = 1003110
Ave neighs/atom = 250.77750
Neighbor list builds = 270018
Dangerous builds = 1

#clear
#
#next RN
#
#jump SELF
Total wall time: 2:59:03
