
units lj                  # Use reduced LJ style units
atom_style atomic         # Uncharged point particles
atom_modify map hash      # Needed for indexing of clusters etc
                          # Used to be able to find where atoms are in relation to each other.

lattice fcc 1.0 spacing 1 1 1
Lattice spacing in x,y,z = 1.5874011 1.5874011 1.5874011
region box block 0 10 0 10 0 10 units lattice
create_box 2 box
Created orthogonal box = (0.0000000 0.0000000 0.0000000) to (15.874011 15.874011 15.874011)
  3 by 4 by 4 MPI processor grid
create_atoms 1 box
Created 4000 atoms
  using lattice units in orthogonal box = (0.0000000 0.0000000 0.0000000) to (15.874011 15.874011 15.874011)
  create_atoms CPU = 0.003 seconds
set type 1 type/fraction 2 0.06 78393
Setting atom values ...
  252 settings made for type/fraction
mass 1 1.0
mass 2 1.0
pair_style lj/cut  3.5
pair_modify tail  yes
pair_coeff 1  1  1.0  1.0   # Intearaction between 1 and 1 set with epsilon = 1 and sigma = 1
pair_coeff 1  2  1.5  0.8
pair_coeff 2  2  0.5  0.88

write_data data.0
System init for write_data ...
Neighbor list info ...
  update every 1 steps, delay 10 steps, check yes
  max neighbors/atom: 2000, page size: 100000
  master list distance cutoff = 3.8
  ghost atom cutoff = 3.8
  binsize = 1.9, bins = 9 9 9
  1 neighbor lists, perpetual/occasional/extra = 1 0 0
  (1) pair lj/cut, perpetual
      attributes: half, newton on
      pair build: half/bin/atomonly/newton
      stencil: half/bin/3d
      bin: standard
WARNING: Not all mixed pair coeffs generated from mixing. Use write_data with 'pair ij' option to store all pair coeffs. (../write_data.cpp:312)


#############################
#   M E L T   S Y S T E M   #
#############################

velocity all create 2.4 9622624 mom yes dist gaussian # Assign velocities
                                                    # Temperature 2.4, random number seed, zero linear momentum
                                                                                # Gaussian distribution

timestep 0.002   # simulation timestep
thermo 1000       # output thermodynamic data every 1000 steps bf 100

# Define a fix  in this case with index 1 applied to all
# particles in the simulation. This fix is for simulations
# in the anisotropic NPT ensemble. Note that we use the MTK
# correction.
fix 1 all npt temp 2.4 2.4 0.1 iso 5.68 5.68 0.5 mtk yes tchain 5 pchain 5 # Use NPT ensemble
                                                                         # Set temperature and pressure and damping
                                                                         # Numbers of thermostats in chain and in barostat
run 10000          # run for 10000 steps
Per MPI rank memory allocation (min/avg/max) = 3.642 | 3.644 | 3.648 Mbytes
Step Temp E_pair E_mol TotEng Press Volume 
       0          2.4   -7.9704536            0   -4.3713536   -2.7323792         4000 
    1000     2.417906   -4.5359658            0  -0.91001345     5.612029    4989.2623 
    2000    2.3827839   -4.5100977            0  -0.93681535    5.7649873    4986.9641 
    3000     2.362262   -4.5403216            0  -0.99781447    5.6119421    4971.9417 
    4000    2.4084472   -4.4716397            0  -0.85987214    5.6321224     5032.483 
    5000    2.4199841   -4.5159507            0  -0.88688209    5.7893612    4978.7167 
    6000    2.3953179   -4.4708613            0  -0.87878263    5.7505132    4997.2507 
    7000    2.3855646   -4.5370894            0  -0.95963709    5.5325366    4999.4945 
    8000    2.4071841   -4.5297101            0  -0.91983667    5.7415301    4980.7103 
    9000    2.4070187    -4.593239            0  -0.98361348    5.3289883    5003.8547 
   10000    2.4040244   -4.5920317            0  -0.98689666    5.6679563    4946.8929 
Loop time of 2.25471 on 48 procs for 10000 steps with 4000 atoms

Performance: 766395.578 tau/day, 4435.160 timesteps/s
99.5% CPU use with 48 MPI tasks x no OpenMP threads

MPI task timing breakdown:
Section |  min time  |  avg time  |  max time  |%varavg| %total
---------------------------------------------------------------
Pair    | 0.86865    | 0.93561    | 1.032      |   3.3 | 41.50
Neigh   | 0.17793    | 0.18777    | 0.2013     |   1.0 |  8.33
Comm    | 0.69939    | 0.79232    | 0.86703    |   5.7 | 35.14
Output  | 0.00025108 | 0.00025698 | 0.00032165 |   0.0 |  0.01
Modify  | 0.25831    | 0.32441    | 0.38317    |   6.2 | 14.39
Other   |            | 0.01434    |            |       |  0.64

Nlocal:        83.3333 ave          93 max          74 min
Histogram: 4 3 1 8 9 8 7 3 3 2
Nghost:        1425.77 ave        1444 max        1401 min
Histogram: 2 2 0 5 10 6 7 10 3 3
Neighs:        7698.62 ave        9117 max        6544 min
Histogram: 2 1 6 10 10 9 6 3 0 1

Total # of neighbors = 369534
Ave neighs/atom = 92.383500
Neighbor list builds = 902
Dangerous builds = 195

# Equilibrate just above the melting temperature to avoid step fn in T

fix 1 all npt temp 1.25 1.25 0.1 iso 5.68 5.68 0.5 mtk yes tchain 5 pchain 5
run 2000
Per MPI rank memory allocation (min/avg/max) = 3.643 | 3.646 | 3.650 Mbytes
Step Temp E_pair E_mol TotEng Press Volume 
   10000    2.4040244   -4.5920317            0  -0.98689666    5.6679563    4946.8929 
   11000    1.2614894   -6.0334265            0   -4.1416654     5.671635    4138.7131 
   12000    1.2083826   -6.0590045            0   -4.2468837    5.6445742      4124.83 
Loop time of 0.478028 on 48 procs for 2000 steps with 4000 atoms

Performance: 722970.833 tau/day, 4183.859 timesteps/s
99.6% CPU use with 48 MPI tasks x no OpenMP threads

MPI task timing breakdown:
Section |  min time  |  avg time  |  max time  |%varavg| %total
---------------------------------------------------------------
Pair    | 0.1999     | 0.2172     | 0.25251    |   2.0 | 45.44
Neigh   | 0.030116   | 0.032044   | 0.036064   |   0.6 |  6.70
Comm    | 0.12926    | 0.1663     | 0.1912     |   3.2 | 34.79
Output  | 5.0677e-05 | 5.4739e-05 | 0.00016568 |   0.0 |  0.01
Modify  | 0.039221   | 0.055728   | 0.07509    |   4.3 | 11.66
Other   |            | 0.006701   |            |       |  1.40

Nlocal:        83.3333 ave          93 max          76 min
Histogram: 3 4 5 4 16 9 3 2 1 1
Nghost:        1603.15 ave        1626 max        1582 min
Histogram: 4 4 4 2 11 11 2 3 4 3
Neighs:        9239.79 ave       10549 max        8042 min
Histogram: 1 4 3 5 13 11 6 3 1 1

Total # of neighbors = 443510
Ave neighs/atom = 110.87750
Neighbor list builds = 140
Dangerous builds = 8

#############################
# L I N E A R  Q U E N C H  #
#############################

# Define solid atoms. This closely follows ten Wolde  Ruiz-Montero and Frenkel  Faraday Discuss  1996  104  93-110
# Compute components of the per-atom q6 vector
compute q6 all orientorder/atom degrees 1 6 components 6 nnn NULL cutoff 1.3 # compute the Q6 parameter.
                                                                             # Use all neighbours within 1.3 unit cell.

# get number of connections
compute coord_number all coord/atom orientorder q6 0.5

# An atom is solid if it has 8 or more connections (of a possible 14)
variable is_solid atom c_coord_number>=8
group solid dynamic all var is_solid    # Must be dynamic to update
dynamic group solid defined

# do clustering
compute cluster solid cluster/atom 1.3 # Create a cluster where all atoms within are solid and max 1.3 units from another member

# define chunks one chunk per cluster
compute clus_chunks solid chunk/atom c_cluster nchunk every compress yes  # Says which atoms are in which chunk

# count the size of each chunk
compute size_chunks solid property/chunk clus_chunks count


# Find the maximum entry in the vector of chunk sizes
variable max_n equal max(c_size_chunks)


# Thermo style which includes this variable
# thermo_style custom step temp pe vol v_max_n

thermo ${N}  # Print the thermo information every 100 steps
thermo 1000  

# Reset the npt fix at a lower temperature (below freezing)
fix 1  all npt temp  ${temp} ${temp}  0.1  iso  5.68  5.68  0.5  mtk yes tchain  5  pchain  5
fix 1  all npt temp  0.45 ${temp}  0.1  iso  5.68  5.68  0.5  mtk yes tchain  5  pchain  5
fix 1  all npt temp  0.45 0.45  0.1  iso  5.68  5.68  0.5  mtk yes tchain  5  pchain  5

dump dmp2 all dcd ${N} traj.dcd
dump dmp2 all dcd 1000 traj.dcd


compute msd all msd com yes
variable twopoint equal c_msd[4]/6/(step*dt+1.0e-6)
fix 9 all vector 10 c_msd[4]
variable fit equal slope(f_9)/6/(10*dt)
thermo_style custom step temp pe c_msd[4] v_twopoint v_fit v_max_n

fix 1 all npt temp 1.25 ${temp} 0.1 iso 5.68 5.68 0.5 mtk yes tchain 5 pchain 5
fix 1 all npt temp 1.25 0.45 0.1 iso 5.68 5.68 0.5 mtk yes tchain 5 pchain 5
run 2000000 # 5000000  # Run for this many steps
Neighbor list info ...
  update every 1 steps, delay 10 steps, check yes
  max neighbors/atom: 2000, page size: 100000
  master list distance cutoff = 3.8
  ghost atom cutoff = 3.8
  binsize = 1.9, bins = 9 9 9
  4 neighbor lists, perpetual/occasional/extra = 1 3 0
  (1) pair lj/cut, perpetual
      attributes: half, newton on
      pair build: half/bin/atomonly/newton
      stencil: half/bin/3d
      bin: standard
  (2) compute orientorder/atom, occasional
      attributes: full, newton on
      pair build: full/bin/atomonly
      stencil: full/bin/3d
      bin: standard
  (3) compute coord/atom, occasional
      attributes: full, newton on
      pair build: full/bin/atomonly
      stencil: full/bin/3d
      bin: standard
  (4) compute cluster/atom, occasional
      attributes: full, newton on
      pair build: full/bin/atomonly
      stencil: full/bin/3d
      bin: standard
Per MPI rank memory allocation (min/avg/max) = 9.737 | 9.745 | 9.750 Mbytes
Step Temp PotEng c_msd[4] v_twopoint v_fit v_max_n 
   12000    1.2083826   -6.0590045 5.9164568e-34 4.1086504e-36 8.3333333e+20            2 
   13000    1.2206746   -6.0454939   0.54502696 0.0034937624  0.044398994            5 
   14000    1.2286653   -6.0346329    1.0875834 0.0064737106  0.044980041            3 
   15000    1.2472997   -6.0677582    1.6248057 0.0090266982  0.044472495            2 
   16000     1.215115   -6.0455882    2.1147379   0.01101426  0.044249861            3 
   17000     1.238292   -6.0669084    2.6595845  0.013037179  0.044028818            3 
   18000    1.2637557   -6.0579175    3.2268857  0.014939285  0.044264657            4 
   19000    1.2656496   -6.0425395    3.8164813  0.016738953  0.044772708            2 
   20000     1.234712   -6.0711197    4.4319555  0.018466481  0.045440789            2 
   21000    1.2547637   -6.0448396    5.0460809   0.02002413   0.04621791            3 
   22000    1.2238881   -6.0693509    5.6105585  0.021252115  0.046726854            3 
   23000    1.2209787    -6.063418    6.2206684  0.022538653  0.047049125            1 
   24000    1.2595698   -6.0392098    6.7306302  0.023370243  0.047258445            6 
   25000     1.242125   -6.0763808    7.2408247  0.024136082  0.047264849            3 
   26000    1.2488411   -6.0831082    7.8009764  0.025003129  0.047118752            3 
   27000    1.2450381   -6.0948623    8.2873637  0.025578283  0.046996192            3 
   28000    1.2439368   -6.0397943    8.8254711  0.026266283  0.046833491            4 
   29000    1.2680964   -6.0802748    9.3869413  0.026973969  0.046643059            1 
   30000    1.2401039    -6.092533    9.8639585  0.027399884    0.0464839            8 
   31000    1.2557966   -6.0577875    10.369411  0.027874759  0.046229849            2 
   32000    1.2606782   -6.0986173     10.90048  0.028386665  0.046051715            4 
   33000    1.2265587   -6.1064621    11.498832  0.029037453   0.04594079            3 
   34000    1.2241045   -6.1008233    12.242245  0.030005503  0.045949386            3 
   35000    1.2205674   -6.0615808    12.692675  0.030220653  0.045977001            9 
   36000    1.2449965   -6.1230168    13.243277  0.030655734  0.045982062            1 
   37000    1.2442197   -6.0754131    13.802207  0.031086051    0.0460142            1 
   38000    1.2155957   -6.0929118    14.421632  0.031626385  0.046051395            8 
   39000     1.214365    -6.094938    15.003161  0.032058035  0.046103095            5 
   40000     1.218027   -6.0699768    15.558852  0.032414275  0.046160176            2 
   41000    1.2370206   -6.0660899    16.236536  0.033001089  0.046247587            3 
   42000    1.2139729    -6.035118    16.741811  0.033217879  0.046336394            3 
   43000    1.2234992   -6.0803642    17.273066  0.033474935  0.046395399            5 
   44000    1.2302898   -6.1076609    17.787388  0.033688235  0.046408095            1 
   45000    1.2289009   -6.0662172    18.398176  0.034070695  0.046419152            2 
   46000    1.2390259   -6.1097678    18.827459  0.034107716  0.046414516            5 
   47000    1.2294813   -6.0853232     19.39941  0.034396116  0.046389681            2 
   48000    1.2426916   -6.0946783    19.761074   0.03430742   0.04632739            6 
   49000    1.2190862   -6.1656325    20.316083  0.034551161  0.046284679            6 
   50000    1.2578909   -6.0734734    20.962567  0.034937612  0.046249973            3 
   51000    1.2593946   -6.1072367    21.387442  0.034946801  0.046209934            2 
   52000     1.247229   -6.0581681    22.053167  0.035341614  0.046159101            2 
   53000    1.2163434   -6.1031794    22.369249  0.035171775  0.046103954            3 
   54000    1.2167133   -6.0648593     22.81929  0.035214953  0.046002587            5 
   55000    1.2239011   -6.0868181    23.404227   0.03546095  0.045886948            9 
   56000    1.2519974   -6.0605412     23.86057  0.035506801  0.045802828            3 
   57000    1.2276861   -6.1117439    24.262682  0.035471757  0.045697212            6 
   58000    1.2133855   -6.0655717    24.772323  0.035592418   0.04557773            3 
   59000    1.2474021   -6.0981105    25.189135  0.035577874   0.04546814            2 
   60000    1.2131586   -6.0927214    25.804607  0.035839732  0.045359137            3 
   61000    1.2376164   -6.0858462    26.380012  0.036038267  0.045275981            1 
   62000    1.1995976   -6.1198976    27.188027  0.036543047  0.045221297            2 
   63000    1.2457234   -6.1102654    27.537852   0.03642573  0.045171207            5 
   64000    1.2429921   -6.1169339    28.024114  0.036489731  0.045112927            5 
   65000    1.2181125   -6.1237365    28.233707   0.03619706  0.045039955            2 
   66000    1.2162517   -6.1170041    28.686542  0.036220381  0.044937301            3 
   67000    1.2232236   -6.1104593    29.299825  0.036442569  0.044836687            3 
   68000     1.220257   -6.0784066    30.046493  0.036821682  0.044749559            3 
   69000    1.2323397    -6.118173    30.298522  0.036592417  0.044677661            3 
   70000    1.2222492   -6.1130349     30.86123  0.036739559  0.044606843            2 
   71000    1.2237882   -6.0994093    31.365894   0.03681443  0.044554488            3 
   72000    1.2178467   -6.0845782    32.066198  0.037113654   0.04450698            3 
   73000    1.2303029   -6.0905012     32.61894  0.037236232  0.044468221            3 
   74000     1.237051   -6.0901719    33.181263  0.037366287  0.044441868            2 
   75000    1.2022968   -6.1199304     33.89527  0.037661411  0.044428626            2 
   76000    1.2525061   -6.0982107    34.179302  0.037477305  0.044406953            5 
   77000    1.2189886   -6.1263142    34.713461  0.037568681  0.044373242            3 
   78000    1.2006316    -6.103955    35.374876  0.037793671  0.044347186            2 
   79000    1.2245089   -6.0999665    35.739611  0.037700011  0.044323399            5 
   80000    1.2316638   -6.1036579    36.260005  0.037770838  0.044292975            2 
   81000    1.2534208    -6.115603    36.691126  0.037748071  0.044260202            2 
   82000    1.2323248   -6.1239788    37.249819  0.037855506   0.04422404            2 
   83000    1.2059413   -6.0972863    37.774605   0.03792631  0.044194752            2 
   84000    1.2200144   -6.0943898    38.518896  0.038213191  0.044175265            2 
   85000    1.1826612    -6.104033    39.004555   0.03823976  0.044171496            2 
   86000     1.231588   -6.0945405    39.457499  0.038234011  0.044162825            2 
   87000    1.2138658   -6.0963397     40.02676  0.038339808  0.044151172            3 
   88000    1.2099916   -6.0872903    40.654529  0.038498607  0.044140886            1 
   89000    1.2200294   -6.1046717    41.039455  0.038426455  0.044129569            5 
   90000    1.2074676    -6.066053    41.512038  0.038437072  0.044118561            4 
   91000    1.2328734   -6.1369372    41.956781   0.03842196  0.044095116            4 
   92000    1.2053458   -6.1182478    42.608359  0.038594528   0.04407719            2 
   93000    1.2096579   -6.1254955    43.140103  0.038656006  0.044067857            2 
   94000    1.2041445   -6.0978492    43.681759  0.038724963  0.044066806            4 
   95000    1.2174842    -6.116719    44.310549  0.038868903  0.044057235            5 
   96000    1.2086662   -6.1275549    44.704124  0.038805663  0.044047023            2 
   97000    1.2144262   -6.0775784    45.449055   0.03904558  0.044049789            6 
   98000    1.2385819   -6.1211224    45.600746  0.038776144  0.044050167            2 
   99000    1.1914701   -6.1156633      46.3874  0.039046633   0.04404145            5 
  100000    1.2465671    -6.133391    46.513028  0.038760857  0.044024526            4 
  101000    1.1978699   -6.1527463    46.889217  0.038687473  0.043996741            1 
  102000     1.166574   -6.1038085      47.7282  0.038993627  0.043972918            3 
  103000    1.2045433   -6.1513051    48.117944  0.038930375  0.043950374            5 
  104000    1.1892509   -6.0998508    48.514737  0.038873988  0.043927368            4 
  105000    1.2243939   -6.1785372     48.87313  0.038788198  0.043899412            6 
  106000    1.2048463   -6.0668212    49.532088   0.03894032  0.043871678            2 
  107000    1.1928111   -6.1788303    49.796378  0.038782226   0.04383612            4 
  108000    1.2256072   -6.1109799    50.525288  0.038985561  0.043799362            2 
  109000    1.1964521   -6.1301998    50.915484  0.038926211  0.043769441            3 
  110000    1.2046652   -6.1130613    51.554186  0.039056201  0.043744919            2 
  111000    1.2088241   -6.1362378    51.919227  0.038978399    0.0437291            6 
  112000    1.2216707   -6.1050571    52.777934  0.039269296  0.043715424            2 
  113000    1.1917309   -6.1187875    53.263464  0.039279841   0.04370422            2 
  114000    1.2090223   -6.1224033    53.830387  0.039349698  0.043696133            2 
  115000    1.2202781   -6.1537768    54.303206  0.039350149   0.04368018            3 
  116000    1.2094614    -6.114856    54.639585  0.039252575  0.043667572            3 
  117000    1.1989401   -6.1309571    55.243759  0.039347406  0.043657463            3 
  118000    1.2136648   -6.1070783     56.01554  0.039558997  0.043651788            4 
  119000    1.2278062   -6.1433756    56.448124  0.039529499  0.043642675            5 
  120000    1.2127757   -6.1654272    56.731151  0.039396633  0.043627448            6 
  121000    1.2015983   -6.1843774    57.512667  0.039609274  0.043613531            4 
  122000    1.1981132   -6.1543314     58.08671  0.039676714  0.043605495            4 
  123000     1.214646   -6.1461305    58.524927  0.039651034   0.04359721            2 
  124000    1.2165302   -6.1487283    58.632215   0.03940337  0.043581668            3 
  125000    1.2323201   -6.1322445    59.498473  0.039665648  0.043568872            3 
  126000    1.1774032   -6.1477833    60.124971  0.039765192  0.043564737            2 
  127000     1.192843   -6.1336359    60.782759    0.0398837   0.04356336            3 
  128000    1.2237933   -6.1771452    61.354441  0.039944298  0.043565631            2 
  129000    1.2103506   -6.1783424    62.003666  0.040054048  0.043570584            2 
  130000    1.2044616   -6.1622093    62.560449  0.040102852  0.043578417            3 
  131000    1.2191453   -6.1408015     63.15157  0.040172754    0.0435828            2 
  132000    1.1913729   -6.1323913    63.566704  0.040130494  0.043590331            3 
  133000    1.1939334   -6.1139682    64.085518  0.040153833  0.043595477            3 
  134000    1.2145982   -6.1191657    64.248908  0.039955788    0.0435961            5 
  135000    1.1834713   -6.1821548    64.648491  0.039906476   0.04359212            2 
  136000    1.2115957   -6.1402799    65.259793  0.039987618  0.043583024            3 
  137000    1.1832315   -6.1573967     65.76567  0.040003448  0.043575085            2 
  138000    1.2203072   -6.1164279    66.610214  0.040223559  0.043568969            3 
  139000    1.1771426   -6.1297156    66.691325  0.039982808  0.043562239            2 
  140000    1.1836059   -6.1549655    67.293173   0.04005546  0.043557886            3 
  141000    1.1973439   -6.1568933    68.080658  0.040236795  0.043554031            3 
  142000    1.2183996   -6.1157695    68.378045   0.04012796  0.043552581            3 
  143000    1.1784049   -6.1563002    68.895515  0.040148902  0.043549133            3 
  144000    1.2003829   -6.1635076    69.551614  0.040249777  0.043545931            3 
  145000     1.192096   -6.1450465    69.820508  0.040126728  0.043540823            2 
  146000    1.2051298   -6.1577892    70.154454  0.040042496   0.04353194            2 
  147000    1.1953887   -6.1235813    70.945847  0.040218734  0.043519589            3 
  148000    1.2300691   -6.1730819    71.389883  0.040197006  0.043508726            3 
  149000    1.1858845   -6.1593134    72.081225  0.040313884  0.043503759            4 
  150000    1.2085797   -6.1102503    72.667061  0.040370589   0.04350069            5 
  151000    1.2016599   -6.0867572    73.201036  0.040397923  0.043495422            3 
  152000    1.1942397   -6.1336653    73.471533  0.040280445   0.04348858            4 
  153000    1.1961317   -6.1807496    73.719551  0.040152261  0.043472886            1 
  154000    1.1909399   -6.1582207    73.933396  0.040007249  0.043457322            2 
  155000     1.209879   -6.1338682    74.703924    0.0401634  0.043441608            4 
  156000    1.1809354   -6.1774921    74.805627  0.039960271  0.043430178            2 
  157000    1.1731146   -6.1385902    75.743156  0.040203374   0.04341508            2 
  158000    1.2187923    -6.189309    75.997649  0.040083148  0.043400292            2 
  159000    1.1913133   -6.1965685    76.596936  0.040145145  0.043388349            6 
  160000    1.2024825   -6.1807608    77.441191  0.040333953  0.043376427            1 
  161000     1.199982   -6.1381241    77.824577  0.040281872   0.04336717            2 
  162000    1.1928199   -6.1445348    78.027875  0.040137796  0.043353201            2 
  163000    1.2040798   -6.1425624    78.571904  0.040169685  0.043339536            2 
  164000    1.2041061   -6.1264613     79.23232  0.040260325  0.043329461            3 
  165000     1.175523   -6.1831711     79.61728  0.040210748  0.043318902            6 
  166000    1.1907668   -6.1723246    80.170795  0.040246383  0.043308798            3 
  167000    1.1899087   -6.1603827    80.806604  0.040322657  0.043298338            4 
  168000    1.1773044    -6.147485    81.299572  0.040327168  0.043284112            2 
  169000    1.1855967   -6.1472611    81.548649  0.040211365   0.04326981            4 
  170000    1.2281636   -6.2247896    81.684314   0.04004133  0.043255182            6 
  171000    1.1962102   -6.1628525    82.061393  0.039990932  0.043233953            6 
  172000    1.1781187   -6.1809616    83.103949  0.040263541  0.043213529            2 
  173000    1.2116044   -6.1497603    83.196151  0.040075217  0.043194057            5 
  174000    1.1761487   -6.1268821    83.665755  0.040069806  0.043170442            2 
  175000    1.1932154   -6.1817516    83.868171  0.039937224  0.043146087            2 
  176000    1.1983526   -6.1717698    84.439967  0.039981045  0.043120989            2 
  177000    1.1679099    -6.138026    85.184316   0.04010561  0.043099832            3 
  178000    1.1957549   -6.1578503    85.624389  0.040086325    0.0430792            3 
  179000    1.1953276   -6.1394728    86.105944  0.040086566  0.043058038            4 
  180000    1.1635087     -6.19294    86.543736  0.040066544  0.043038769            3 
  181000    1.1659572   -6.1292617    87.437732  0.040256783  0.043021166            4 
  182000    1.2007204   -6.1825577    87.444237   0.04003857  0.043003421            3 
  183000    1.1736317   -6.1742383     88.36274  0.040238042  0.042984469            2 
  184000    1.1746454   -6.1727163    88.545085  0.040101941   0.04297027            3 
  185000    1.1756209   -6.1384687     89.43545  0.040286239  0.042956118            2 
  186000    1.1848419   -6.1557209    90.006446  0.040325469    0.0429452            3 
  187000    1.1881137   -6.1641169    90.454136  0.040309329   0.04293341            2 
  188000    1.1758111   -6.1320254    90.724072  0.040214571  0.042917771            4 
  189000    1.1659028   -6.1686214    90.931598  0.040093297  0.042899334            2 
  190000    1.1501675   -6.1641138     91.53321  0.040146145  0.042880771            6 
  191000    1.2077702   -6.2017363     91.76629  0.040037648  0.042859909            4 
  192000    1.1757984   -6.1664257    92.535384  0.040162927  0.042838975            1 
  193000    1.1734288   -6.1740321    92.699833  0.040025835  0.042817655            6 
  194000    1.1735887   -6.1845334    93.106829  0.039994342    0.0427943            6 
  195000    1.1884978   -6.1595883    93.526645  0.039968652   0.04276986            3 
  196000    1.2047774   -6.2204289    93.952365  0.039945733    0.0427473            2 
  197000    1.1882177   -6.1848856     94.43572  0.039947428  0.042724162            3 
  198000    1.1683363   -6.1846705    95.313484  0.040115102  0.042701842            3 
  199000    1.1826455   -6.1656301    95.507709  0.039994853  0.042681174            5 
  200000     1.172957   -6.1890695    96.014488  0.040006036  0.042661313            2 
  201000    1.1839821   -6.1897436    96.293865  0.039922829  0.042640151            2 
  202000    1.1580977   -6.1769584     97.30556  0.040142557  0.042616873            4 
  203000    1.1543595   -6.1588974    97.482098  0.040017282    0.0425971            2 
  204000    1.1495843   -6.2091375     98.09997  0.040073517  0.042577625            5 
  205000    1.1631435   -6.1809317    98.601592  0.040081948   0.04255791            3 
  206000    1.1758457   -6.2060682    99.191877  0.040126164  0.042539491            1 
  207000    1.1649917   -6.2341025     99.35055  0.039996196  0.042521496            7 
  208000    1.1815109   -6.2163778    99.638292  0.039919187  0.042502816            5 
  209000    1.1801382   -6.2116634    99.848569  0.039812029  0.042481061            2 
  210000    1.2063526   -6.2114044    100.03567  0.039696696   0.04245643            2 
  211000    1.1697438   -6.1981476    100.54904  0.039711312  0.042430759            2 
  212000    1.1577391   -6.2070507     100.9149  0.039667807  0.042404766            3 
  213000    1.1491628   -6.1763849    101.73275  0.039801544  0.042378444            2 
  214000    1.1739804   -6.1629903    102.05219   0.03973995  0.042353278            2 
  215000    1.1477018   -6.2164602    102.00998  0.039538751  0.042326059            3 
  216000    1.1840342    -6.230495    102.51193  0.039549357  0.042297564            3 
  217000    1.1707915    -6.198844    103.35987   0.03969273  0.042270831            3 
  218000     1.172244   -6.1934809    103.93362  0.039729979  0.042247084            2 
  219000    1.1621315   -6.2258055    104.03709  0.039587933    0.0422209            3 
  220000    1.1592987   -6.1913168    104.73512  0.039672393  0.042195669            7 
  221000    1.1843141   -6.2110653    105.23787  0.039682455  0.042170695            6 
  222000    1.1712459   -6.1857401    106.05357  0.039809898  0.042148039            3 
  223000    1.1916755   -6.2046587    106.75183  0.039892314  0.042128919            3 
  224000    1.1472663   -6.1774794    106.75742  0.039716303  0.042109512            3 
  225000    1.1801503   -6.1812353    107.49816  0.039814132  0.042090061            1 
  226000     1.146073   -6.2234076    108.04305  0.039838882  0.042070273            4 
  227000    1.1533846   -6.2071052    108.08168  0.039677563  0.042050474            5 
  228000    1.1450244   -6.2307399    108.76618  0.039753719   0.04203093            3 
  229000    1.1453613    -6.188065    109.56951  0.039872458  0.042009752            4 
  230000    1.1516667   -6.2088279    109.72882   0.03975682  0.041988094            2 
  231000    1.1687467   -6.2094744    110.11597  0.039724376  0.041968345            5 
  232000    1.1716797   -6.1876928    110.25271  0.039602265  0.041947722            2 
  233000     1.163756   -6.2205452    111.24825  0.039788357  0.041927819            3 
  234000    1.1531309    -6.184837    111.64634  0.039760092  0.041908388            2 
  235000    1.1479793   -6.1999792    112.24093  0.039801747    0.0418877            2 
  236000    1.1541434   -6.1987266    111.63335  0.039418557  0.041865648            7 
  237000    1.1552107   -6.2366042    112.20347  0.039452697   0.04184243            8 
  238000    1.1183772   -6.2392096    113.30163  0.039671441  0.041819816            3 
  239000    1.1605994   -6.2197101    113.34374  0.039520131  0.041797675            4 
  240000    1.1509094   -6.2364854    113.90946  0.039551894  0.041774431            2 
  241000    1.1622303   -6.1809582    114.36722  0.039546064  0.041752885            3 
  242000    1.1573598   -6.2318059    114.78988  0.039528196  0.041731183            2 
  243000    1.1709035   -6.1936033    115.28454  0.039535165  0.041709362            2 
  244000    1.1506772   -6.2115909    115.65523  0.039499737  0.041686116            2 
  245000    1.1557729    -6.194976    115.98189  0.039449622  0.041662636            1 
  246000     1.148886   -6.1844354    116.79164  0.039563562  0.041640528            2 
  247000    1.1797864   -6.1829298    117.12659  0.039516392  0.041619765            4 
  248000    1.1702318    -6.181994    117.66642  0.039538448  0.041598601            2 
  249000    1.1562891   -6.2053033    118.13039  0.039534936  0.041577062            6 
  250000    1.1703081   -6.2335587    118.64022   0.03954674  0.041557254            3 
  251000    1.1667677   -6.2411824    119.29488  0.039606532  0.041536506            3 
  252000    1.1623789   -6.2149268    119.29859  0.039450591  0.041515632            4 
  253000    1.1337917   -6.2139149    119.59462  0.039392167   0.04149478            2 
  254000    1.1414729   -6.2373802    120.34222  0.039482355   0.04147385            3 
  255000    1.1808088   -6.2346073    120.64745  0.039427271  0.041455381            2 
  256000    1.1421758   -6.2278022    120.94044  0.039368632  0.041434797            3 
  257000    1.1269563   -6.2387521    121.48963  0.039393524  0.041414586            5 
  258000    1.1672439   -6.2494714    122.09647  0.039436845   0.04139453            7 
  259000    1.1476456   -6.2617378     122.5719  0.039437548  0.041374848            6 
  260000    1.1496206    -6.200147    123.49901  0.039583016  0.041356791            6 
  261000    1.1531657   -6.1981911    123.86992  0.039549784  0.041338949            2 
  262000    1.1569557   -6.2102506    124.20814  0.039506407  0.041320208            3 
  263000    1.1294377   -6.2554201    124.41267  0.039420998  0.041300655            5 
  264000    1.1586574   -6.2237889    125.00192  0.039457676  0.041280954            3 
  265000     1.143363    -6.235513    125.34016  0.039415146  0.041261834            5 
  266000    1.1560595   -6.2284934    125.64271  0.039361751  0.041242377            3 
  267000    1.1532675   -6.2913192    125.94237  0.039307854  0.041221641            5 
  268000    1.1666412   -6.2300902    126.73552  0.039407809  0.041201064            5 
  269000     1.154745   -6.2271528    126.60987  0.039222387  0.041179466            4 
  270000    1.1386634   -6.2728246    126.75612  0.039122258  0.041157553            3 
  271000    1.1442518   -6.2116815    127.74791  0.039282874  0.041136826            2 
  272000    1.1417042   -6.2127657    128.01262  0.039219554   0.04111636            8 
  273000    1.1287702   -6.2562108    128.45304   0.03921033  0.041095546            3 
  274000    1.1534865   -6.2200915    128.86078  0.039191234   0.04107455            5 
  275000    1.1324682   -6.2133987    128.93715  0.039071863  0.041052082            4 
  276000    1.1702445    -6.232282     129.4337  0.039080225  0.041028396            3 
  277000     1.161027    -6.222961    129.97961  0.039103374  0.041004661            6 
  278000    1.1187084   -6.2359806    130.10073  0.038999018  0.040980842            4 
  279000    1.1454694   -6.2359726    130.85593  0.039084805  0.040956648            3 
  280000    1.1593872   -6.2720043    130.61737  0.038874218  0.040931212            3 
  281000    1.1483535   -6.2419849      131.074  0.038871292  0.040906909            3 
  282000    1.1325279   -6.2630444    131.24162  0.038782986  0.040881152            4 
  283000    1.1296573   -6.2566551    131.91824  0.038845184  0.040856121            5 
  284000    1.1478496    -6.271455    132.18785  0.038787515  0.040831147            2 
  285000    1.1295213   -6.2521581    132.87729  0.038853009  0.040804649            9 
  286000    1.1304607   -6.2937918    133.39387  0.038867677  0.040779113            3 
  287000    1.1491929   -6.2550238    133.47005   0.03875437  0.040753375            3 
  288000    1.1447823   -6.2626461     133.8676  0.038734837  0.040727789            4 
  289000    1.1343306   -6.2664938    134.04518  0.038652013   0.04070144            5 
  290000    1.1604848   -6.2593245    134.39716  0.038619873  0.040674651            2 
  291000    1.1214355   -6.2239043    134.70623  0.038575668  0.040646567            2 
  292000    1.1599116   -6.2438901    134.65022  0.038427575  0.040617848            4 
  293000    1.1388485   -6.2919175    134.89016  0.038364665  0.040587803            5 
  294000    1.1272496   -6.2727814    135.65924  0.038452166  0.040556509            3 
  295000     1.115316   -6.2526159    136.14946  0.038460301  0.040525504            3 
  296000    1.1612263   -6.2103446    136.58161   0.03845203  0.040495342            5 
  297000    1.1313799   -6.2388233    136.87113  0.038403796  0.040466572            4 
  298000    1.1526372   -6.2652702    137.50679  0.038452683  0.040436809            9 
  299000    1.1367201   -6.2453683    137.76773  0.038396802  0.040408598            5 
  300000    1.1427996   -6.2848974    138.33322  0.038425893  0.040380975            5 
  301000    1.1636643   -6.3045134    138.79002  0.038424701  0.040354937            3 
  302000    1.1359809   -6.2529415    139.19288  0.038408632  0.040327229            2 
  303000    1.1464022   -6.2454065    139.48128  0.038361187  0.040299323            4 
  304000    1.1442905   -6.2666604    139.86199  0.038339361  0.040270933            6 
  305000    1.1561549   -6.2583166    140.09979  0.038278632  0.040242054            4 
  306000    1.1182299   -6.2173258     140.3807  0.038230037   0.04021173            4 
  307000    1.1237437   -6.2416362    140.79724  0.038218579   0.04018225            5 
  308000    1.1302802   -6.2505839    140.38445  0.037982806  0.040152638            4 
  309000    1.1086212   -6.2645318    140.92326  0.038005195  0.040123026            3 
  310000    1.1359683   -6.2833761    141.48347  0.038033191  0.040092983            3 
  311000    1.1224416    -6.282406    142.01569  0.038053507  0.040063651            3 
  312000    1.1370218   -6.2715181    142.59647  0.038086665  0.040034403            8 
  313000    1.1118468   -6.2788321    143.29434  0.038150784  0.040005144            4 
  314000    1.1440805   -6.2832339     143.0942  0.037976168  0.039975288           10 
  315000    1.1135099   -6.2650411    143.55943  0.037978685  0.039945856            3 
  316000    1.1277009   -6.2648085    143.70972  0.037898134  0.039916205            5 
  317000    1.1254598   -6.2575301    144.67755  0.038033005  0.039886632            2 
  318000     1.132867   -6.3191077    144.53816  0.037876877  0.039856374            3 
  319000    1.1389145   -6.2645893    145.54785  0.038021904  0.039827555            6 
  320000    1.1621344   -6.2537044    145.78106  0.037963818  0.039799041            4 
  321000    1.1275704   -6.2632381    146.14502  0.037940036  0.039770003            6 
  322000    1.1334398   -6.2690061     146.6652  0.037956833  0.039741989            2 
  323000    1.1513385   -6.2985792    146.64482   0.03783406  0.039713732            3 
  324000    1.1218293   -6.2759161    147.31403  0.037889412  0.039684645            3 
  325000    1.1142541    -6.278557    147.50149  0.037820894  0.039654286            6 
  326000      1.10371   -6.2704916    147.75669  0.037770115  0.039624533            2 
  327000     1.115533   -6.2972301    148.08713   0.03773882  0.039595499            3 
  328000    1.1249889   -6.2675584    148.30453  0.037678998  0.039566451            4 
  329000    1.0935426   -6.2885502    148.89869  0.037714968  0.039536632            3 
  330000    1.1170203   -6.2702015    149.63067  0.037785522  0.039508076            2 
  331000    1.1347886   -6.2958151    149.69721   0.03768812   0.03948011            3 
  332000     1.129572   -6.2597231    150.19656  0.037699939  0.039451384            3 
  333000    1.1200925   -6.2641268    150.42158  0.037643037  0.039423422            7 
  334000    1.1350055   -6.2862417    150.63984  0.037584791  0.039395479            4 
  335000    1.1086251   -6.2307174    151.97359  0.037804377  0.039368075            8 
  336000    1.1387769   -6.2648419    152.03313   0.03770663  0.039340707            2 
  337000    1.1228813   -6.2912485    152.29867  0.037660404  0.039313714            5 
  338000    1.1423702   -6.2719846    152.73901  0.037657547  0.039285953            3 
  339000    1.1336048   -6.2696419    153.53387  0.037741856  0.039259976            3 
  340000    1.1049049   -6.2198519    153.28112  0.037568903  0.039233342            2 
  341000    1.0822357   -6.2907211    153.47466  0.037506026  0.039206525            5 
  342000     1.100782   -6.2834067    153.87523  0.037493965  0.039178337            3 
  343000    1.1196681   -6.3148968    154.00945  0.037417261  0.039150996            3 
  344000    1.1058054   -6.3127325    154.77635  0.037494271   0.03912274            2 
  345000     1.091589   -6.2856597    155.05023  0.037451747  0.039095464            7 
  346000    1.0926871    -6.287743    155.73943  0.037509495   0.03906802            3 
  347000    1.1291635   -6.3089896    155.79685  0.037415191  0.039040712            1 
  348000    1.0972366   -6.2979271    155.86514  0.037324028  0.039013647            4 
  349000    1.1282507   -6.2897255     156.3208  0.037325885  0.038985979            5 
  350000    1.1165454   -6.2760074    157.24192  0.037438552  0.038958527            3 
  351000    1.1136009   -6.2855104    157.99009  0.037509519  0.038932173            6 
  352000    1.0899398   -6.3186073    157.30138  0.037239911  0.038906322            5 
  353000    1.1232184   -6.2855021    158.09126  0.037320883  0.038879821            3 
  354000    1.1200108   -6.3094693    159.03615  0.037437889  0.038853965            3 
  355000     1.091606   -6.3068488     159.0104  0.037326386  0.038829118            3 
  356000    1.1006366   -6.3050653    159.92312  0.037435188  0.038804403            4 
  357000    1.1214023   -6.2849392    160.12636  0.037377769  0.038780985            6 
  358000     1.101192   -6.3706851    160.71021  0.037409266  0.038756994            4 
  359000    1.1023634   -6.2930444    160.80201  0.037326371  0.038732327            2 
  360000     1.109354   -6.2672114    161.85666   0.03746682  0.038708492            5 
  361000    1.0946354   -6.3320311    161.10473  0.037189458   0.03868532            3 
  362000    1.1077752   -6.3215722    161.66468  0.037215626  0.038660651            6 
  363000    1.1059405   -6.3178358    161.82007  0.037148777  0.038635864            4 
  364000    1.0964305   -6.3051781     162.6877  0.037245354  0.038610814            2 
  365000     1.107327   -6.3205484    162.72938  0.037152826  0.038585314            4 
  366000    1.0842097     -6.27947    162.96533  0.037105039  0.038560307            9 
  367000    1.0929628   -6.2747554    163.53782  0.037133927  0.038534732            3 
  368000    1.0922924   -6.2978074    163.65512  0.037059583  0.038508631            3 
  369000    1.1266827   -6.3248933    163.93703  0.037022817  0.038482046            3 
  370000    1.0942076   -6.3433201    164.35079  0.037015945  0.038455976            6 
  371000    1.0903467    -6.277755    164.57704   0.03696699  0.038430451            2 
  372000    1.0937396   -6.2822148    165.35404  0.037041676  0.038405142            4 
  373000    1.0999406   -6.2933214    165.29799  0.036929846  0.038379774            9 
  374000    1.1181029   -6.2776015    165.99975  0.036987467  0.038354086            3 
  375000    1.1096022   -6.3058744    166.11986  0.036915524  0.038328046            5 
  376000    1.1152312   -6.3120907    166.52335  0.036906772  0.038301891            5 
  377000     1.098253   -6.2842658    167.38607  0.036999573  0.038275712            5 
  378000    1.0993881   -6.3294232    166.59762  0.036727871  0.038249155            5 
  379000    1.1023004   -6.3242578     167.5198  0.036833729  0.038222329            4 
  380000    1.1064929   -6.3107881    168.43647  0.036937822  0.038196397            3 
  381000    1.1209595   -6.3235996    168.19756  0.036788617  0.038170906            3 
  382000    1.0858814   -6.3127305    169.30942  0.036934865    0.0381452            2 
  383000    1.1062186    -6.341023    169.21289  0.036817425  0.038120263            3 
  384000    1.1211713   -6.2689205    169.41841  0.036766148  0.038094247           10 
  385000    1.1089124     -6.34157    169.50798  0.036690039  0.038069138            3 
  386000    1.0880503   -6.3034571    170.56278  0.036822708  0.038043573            5 
  387000    1.1221974   -6.3178511    170.63307  0.036742694  0.038018693            5 
  388000    1.0885927   -6.3043317     170.9103   0.03670754  0.037993339           12 
  389000    1.1003699   -6.3381601    171.04345  0.036641699   0.03796816            2 
  390000    1.1325153   -6.3584321    170.99914  0.036538278  0.037942538            4 
  391000    1.0854568   -6.3163856     172.1402  0.036688021  0.037917026            8 
  392000    1.0781427   -6.3294601    172.49411  0.036669665  0.037892719            3 
  393000     1.089243   -6.3181338    173.20026  0.036726094  0.037869005            3 
  394000    1.0973953   -6.3248608    173.81724  0.036763375  0.037845225            4 
  395000    1.0882543   -6.3353812    173.44663  0.036592117  0.037821185            5 
  396000    1.0948245   -6.2975623    174.35618  0.036691115  0.037797856            1 
  397000    1.1002632   -6.3208776    174.64554  0.036659433  0.037775074            3 
  398000    1.1083669   -6.3265127    175.07669  0.036657599  0.037751824            5 
  399000    1.1157139   -6.3340927    175.03369  0.036556744  0.037728825            4 
  400000    1.0924772   -6.3291001    175.06252  0.036471359  0.037705238            5 
  401000    1.0836697   -6.3295119    176.05067  0.036585758  0.037681396            3 
  402000    1.0746143    -6.327909    175.93648  0.036471077  0.037656485            3 
  403000    1.0788887   -6.3550332    175.30129  0.036249233  0.037631751            4 
  404000    1.1011018   -6.3605597    176.18417   0.03634162  0.037606909           12 
  405000    1.0747467   -6.3383233    176.90488  0.036400181  0.037582611            3 
  406000    1.0995252   -6.2951593    177.52634  0.036438084  0.037558953            4 
  407000    1.0791116   -6.3253056    177.92586  0.036430357   0.03753596            5 
  408000    1.0818425   -6.3088751    178.40388  0.036438701  0.037512492            3 
  409000    1.0828656   -6.3365333    178.64117  0.036397957  0.037488337            3 
  410000    1.0708252   -6.3318287    179.49521  0.036482766  0.037464705            5 
  411000    1.1241035   -6.3576713    179.10634  0.036315154  0.037442051            3 
  412000    1.1044131   -6.3705613    179.66743  0.036340499  0.037419291            8 
  413000    1.0697595   -6.3337614    180.51843  0.036424218  0.037397586            3 
  414000    1.0943491   -6.3620179    180.76222  0.036385309  0.037375411            4 
  415000    1.0784193    -6.359334    181.15529  0.036376565  0.037353637            4 
  416000    1.0882011   -6.3857624    180.81325  0.036220604  0.037331175            5 
  417000    1.0954946   -6.3631109    181.72658  0.036316264  0.037308807            3 
  418000     1.069618   -6.3461479    182.14936  0.036313668  0.037287566            3 
  419000    1.1039118   -6.3221898    182.74225  0.036344918  0.037266465            5 
  420000    1.0775022   -6.3113248    183.67481  0.036443415  0.037245971            3 
  421000    1.0782205   -6.3377645    183.50135  0.036322515  0.037225733            4 
  422000    1.0743088   -6.3643218    183.30829  0.036198319  0.037204611            3 
  423000    1.0642906   -6.3522237    183.64395   0.03617887  0.037182872            2 
  424000    1.0998128   -6.3533981    183.98675  0.036160917  0.037161228            3 
  425000    1.0841732   -6.3379815    184.05703  0.036089613  0.037139055            3 
  426000    1.0842916   -6.3276489    184.53133  0.036097678  0.037117084            2 
  427000      1.06464   -6.3522984    185.20654  0.036144915   0.03709523            2 
  428000    1.0884666   -6.3710544    185.54915   0.03612717  0.037073006            2 
  429000    1.1045596   -6.3853721    185.94512  0.036119877  0.037051125            8 
  430000    1.0851889    -6.362473    185.70993  0.035990296  0.037029523            3 
  431000    1.0632519   -6.3454689    186.94556  0.036145699  0.037008347            5 
  432000    1.1018579   -6.3727508    187.19959  0.036111031  0.036986662            5 
  433000    1.1007909   -6.3101251    188.10106  0.036201129  0.036964586            8 
  434000    1.0888583   -6.3565253    186.76343  0.035860874  0.036942182            5 
  435000    1.0880836   -6.3826353     187.3846  0.035897434  0.036919349           11 
  436000    1.0893774   -6.3290646    187.54511  0.035845777  0.036896712            3 
  437000    1.1036219    -6.358048    188.30413  0.035908492  0.036873688            4 
  438000    1.0737387   -6.3947354    188.07369  0.035782666   0.03685059            3 
  439000    1.0978304   -6.3758977    188.76963  0.035833263  0.036827515            2 
  440000    1.1072056   -6.3519538    189.02269  0.035799752  0.036805002            5 
  441000    1.0789628   -6.3647155    189.14199  0.035741116  0.036782059            4 
  442000    1.0560342   -6.3440323    189.57955   0.03574275  0.036758567            6 
  443000    1.0833614   -6.3389597    191.18093  0.035963305   0.03673626            3 
  444000    1.0853669   -6.4006919    190.69518  0.035791137   0.03671403            3 
  445000     1.090243   -6.3576227     191.2118  0.035807454  0.036691264            2 
  446000    1.0652177   -6.3892913    191.47438  0.035776229  0.036669872            4 
  447000    1.0779466   -6.3388323    192.02126  0.035798147  0.036647963           11 
  448000    1.0509388   -6.3571109    191.82764  0.035682225  0.036626284            3 
  449000    1.0570469   -6.3980148    192.54398  0.035735705  0.036605043            5 
  450000    1.0756548   -6.3262505    193.43843  0.035821932  0.036583763            3 
  451000    1.0819865   -6.3980341    193.21292  0.035700835  0.036562747            9 
  452000    1.0556007   -6.3835249    194.19281  0.035802508  0.036541186            3 
  453000    1.0713968   -6.3598844    194.27091  0.035737842   0.03651938            3 
  454000    1.0786784   -6.3511577    194.35471  0.035674507  0.036498035            2 
  455000    1.0828818   -6.3581319    194.91449  0.035698625  0.036476284            4 
  456000    1.0605228   -6.3905085    194.45996  0.035537273  0.036453896            3 
  457000    1.0877037   -6.3776177    195.27915  0.035608889  0.036432483            5 
  458000    1.0665681   -6.3775209    194.83511  0.035450347  0.036410572            6 
  459000    1.0693043   -6.3535135    195.91375  0.035568946  0.036389326            3 
  460000    1.0862049   -6.3705903    196.03511  0.035513606  0.036367625            4 
  461000    1.0754703   -6.3533495    196.71264  0.035559046  0.036346493            3 
  462000    1.0594737   -6.3711918    197.44706  0.035614549  0.036326358            2 
  463000    1.0646988   -6.3539771    197.74139  0.035590603  0.036306308            4 
  464000     1.047046   -6.3655664     197.5272   0.03547543  0.036285809            8 
  465000    1.0793525   -6.3165526    198.42367  0.035559797  0.036265386            3 
  466000    1.1018527   -6.3875916    198.47264  0.035492246  0.036244586            5 
  467000    1.0766937   -6.3444386    199.23945  0.035553079  0.036224218            9 
  468000    1.0550713    -6.406557    198.75005  0.035389967  0.036203173            3 
  469000    1.0746298   -6.4153408    198.64078  0.035295092  0.036181534            3 
  470000    1.0745702    -6.420854    199.11531  0.035304133   0.03615999            5 
  471000    1.0657538   -6.3900913     199.7172  0.035335668  0.036138348            4 
  472000    1.0259935   -6.3818148    200.32294  0.035367751  0.036117092            5 
  473000    1.0581943   -6.3679097    200.57626  0.035337608  0.036096192            7 
  474000     1.077512   -6.3868603    200.72836  0.035289796  0.036074975            3 
  475000    1.1023663    -6.381429     201.9237  0.035425211  0.036054358            6 
  476000    1.0517393     -6.38978    201.88169  0.035343434  0.036034233            5 
  477000    1.0570051   -6.3697362    201.71623  0.035240432  0.036013912            4 
  478000    1.0534287     -6.39362    201.91737  0.035201773  0.035992686            3 
  479000    1.0586896   -6.4029077    202.49357  0.035228526  0.035971839            2 
  480000    1.0837938   -6.3827365    202.56147  0.035166922    0.0359502            4 
  481000    1.0633379   -6.4045664    202.67092  0.035112771  0.035928967            6 
  482000    1.0455717   -6.3803968     203.2335  0.035137189   0.03590746            3 
  483000    1.0580096   -6.3663621    204.23246  0.035236794  0.035886347            9 
  484000    1.0684954   -6.3699423    203.45846  0.035030727  0.035865354            3 
  485000    1.0354734   -6.3914732    204.40347  0.035120872  0.035844574            4 
  486000    1.0714098    -6.368204    204.88934  0.035131916  0.035824516            4 
  487000    1.0692926   -6.3788214    205.31301  0.035132274  0.035804583            4 
  488000    1.0466685   -6.3916163     205.3201  0.035061492  0.035784572            4 
  489000     1.059673   -6.3894957    206.20716  0.035140961  0.035764807            2 
  490000    1.0544154   -6.3863896    206.26917  0.035079791  0.035744927            8 
  491000    1.0340502   -6.4299332    206.18414  0.034993914  0.035723972            8 
  492000    1.0552754   -6.4201906    206.21333  0.034927732  0.035703316            3 
  493000    1.0612909   -6.3870554    207.00926  0.034991423  0.035682165            4 
  494000    1.0585118   -6.3933549      207.461  0.034996794  0.035661162            5 
  495000      1.07526   -6.4120584    207.35655  0.034908509   0.03564016            3 
  496000    1.0252259   -6.4133043    207.84846  0.034920776  0.035619375            4 
  497000    1.0753907   -6.4185736     208.1671   0.03490394  0.035598287            6 
  498000     1.047755   -6.3770806    207.94494  0.034796678  0.035577582            6 
  499000    1.0827609   -6.4013389    208.90178  0.034886737  0.035556826            4 
  500000    1.0606079   -6.3464893    209.47425  0.034912375  0.035536486            6 
  501000    1.0747935   -6.4137088    209.86164  0.034907125  0.035516281           10 
  502000    1.0433597   -6.3948148    209.38458  0.034758396  0.035496194            7 
  503000    1.0436152   -6.4040742    210.03046  0.034796298  0.035476088            5 
  504000    1.0645107   -6.4328109    210.77827  0.034850904  0.035455148           11 
  505000    1.0724573   -6.4076833    210.85245  0.034794134  0.035433857            4 
  506000    1.0642756    -6.415705    210.93917  0.034739652  0.035412768            4 
  507000    1.0621276   -6.3610525    210.81303  0.034650399  0.035391739            5 
  508000     1.061117   -6.4195457    210.39991   0.03451442  0.035370375            3 
  509000    1.0555629   -6.4195811    211.21775   0.03458051  0.035348903            1 
  510000    1.0507212   -6.4264274    211.86712   0.03461881  0.035327148            6 
  511000    1.0647495   -6.4345456    212.16119  0.034599021  0.035305797            4 
  512000    1.0376112   -6.4026385    211.91563  0.034491476  0.035284033            5 
  513000    1.0485407   -6.4386961    212.89699  0.034583657  0.035262937            3 
  514000    1.0378832   -6.3877752     213.7406  0.034653145  0.035241878            7 
  515000    1.0377005   -6.4226113     212.9616  0.034459806  0.035220895            8 
  516000    1.0507234   -6.4259918    213.08489  0.034412934  0.035200077            2 
  517000    1.0394418   -6.4369358    214.33854  0.034548444  0.035179556            2 
  518000    1.0525435   -6.4346744    214.92185  0.034575586  0.035159335            3 
  519000    1.0513364   -6.4006502    214.59437  0.034456385   0.03513917            5 
  520000    1.0231808   -6.4381852    214.89274  0.034437939     0.035119            4 
  521000    1.0428963   -6.4234013    214.88972  0.034371357   0.03509807            6 
  522000    1.0565573   -6.4271213    215.52508  0.034406941  0.035077322            6 
  523000    1.0673657   -6.4396597    216.12885  0.034437357  0.035056663            2 
  524000    1.0488167   -6.4071419    216.19492  0.034382144  0.035036211           12 
  525000     1.045155     -6.43535    217.19145  0.034474834  0.035016211            7 
  526000    1.0289153   -6.4516121    216.82812   0.03435173  0.034996022            3 
  527000    1.0285674   -6.4600989    217.77223  0.034435836  0.034976094            1 
  528000    1.0381373   -6.4201779    217.77084  0.034370398  0.034956635            5 
  529000    1.0336245   -6.4109083    218.19354  0.034372014  0.034937339            6 
  530000    1.0471837    -6.439048    218.99854  0.034433733  0.034918046           12 
  531000    1.0413563   -6.4312381    219.14064  0.034391186  0.034898591            3 
  532000    1.0528854   -6.4346498    219.49658  0.034382296  0.034879113            6 
  533000    1.0158659   -6.4527307    218.79254  0.034207714  0.034859592            7 
  534000    1.0601183   -6.4581927    219.52218  0.034257518   0.03484003            3 
  535000    1.0401734   -6.4071172    220.03044  0.034272654  0.034820599            4 
  536000    1.0453792    -6.414033    220.43624  0.034271803  0.034800845            3 
  537000    1.0370559   -6.4505992    221.08759  0.034309061  0.034781199            4 
  538000    1.0432163   -6.4580624     220.6247   0.03417359  0.034761523            8 
  539000     1.048649   -6.4567897     221.0578  0.034177149  0.034741994            6 
  540000     1.066252   -6.4215573     221.8623   0.03423801  0.034722567            4 
  541000    1.0515084    -6.433382    222.26979   0.03423749  0.034703701            6 
  542000    1.0485091   -6.4329229    222.16447  0.034158128  0.034684566            5 
  543000    1.0652003   -6.4390961    222.46753  0.034141732  0.034665115            6 
  544000    1.0113396   -6.4283601    222.46461  0.034078525  0.034645641            8 
  545000     1.021558   -6.4141797    223.29233  0.034142558  0.034626009            5 
  546000     1.043654   -6.4481961    223.94563  0.034179737  0.034606579            3 
  547000    1.0473539   -6.4250511    223.88306  0.034107718   0.03458731            4 
  548000    1.0147079   -6.4161907     223.9855  0.034061056  0.034567879            4 
  549000    1.0466827   -6.4292201    223.68858  0.033953943  0.034548712            4 
  550000    1.0338242   -6.4343188    225.39852   0.03415129   0.03452952            6 
  551000    1.0183913   -6.4164711    225.20093  0.034059427  0.034510626            5 
  552000    1.0140082   -6.4004018    225.95624  0.034111751  0.034491834            2 
  553000    1.0099582   -6.4567132    225.91006  0.034043107  0.034473516            8 
  554000    1.0473953   -6.4455025    225.81809  0.033967824  0.034454776            4 
  555000    1.0289255   -6.4526643    226.14051  0.033955032  0.034435893            5 
  556000    1.0330695     -6.45899     226.3462  0.033924791  0.034417393            4 
  557000    1.0443653   -6.4317651    227.35516  0.034014836   0.03439832            4 
  558000   0.99366018   -6.4446731    226.97556  0.033897186  0.034379385            3 
  559000    1.0328405    -6.462998    227.52293  0.033918147  0.034359998            5 
  560000    1.0228859    -6.471363    227.46047  0.033848284  0.034340816            4 
  561000    1.0507798   -6.4534129    227.82385  0.033841927  0.034321829            3 
  562000    1.0153056   -6.4551298    228.22722  0.033841522  0.034302843            4 
  563000    1.0225172   -6.4819704    228.32504  0.033795891   0.03428382            5 
  564000    1.0257021   -6.4616254    228.27811  0.033729036  0.034264722            4 
  565000    1.0104349    -6.451806    229.48832  0.033847834  0.034245838            7 
  566000    1.0421205   -6.4719709    228.78071   0.03368385  0.034227453            5 
  567000    1.0839068   -6.4443842    230.20044  0.033833103  0.034208733            5 
  568000    1.0093192   -6.4521678     230.0383   0.03374975   0.03419039            6 
  569000    1.0353283   -6.4321608     230.7991   0.03380186  0.034171804            4 
  570000    1.0451359    -6.437974    230.22499  0.033658624  0.034152969            5 
  571000    1.0131142   -6.4749122    230.04348  0.033573188  0.034133711            5 
  572000    1.0124435   -6.4350985    231.31917  0.033700345  0.034114194            8 
  573000    1.0215466   -6.5102093    230.34195  0.033499411  0.034094144            6 
  574000    1.0270131   -6.4750865    232.01046  0.033683284  0.034074385            4 
  575000    1.0084391    -6.433653    232.19033  0.033650772  0.034055429            6 
  576000   0.99848205     -6.43161     232.2934  0.033607262  0.034036418            4 
  577000    1.0200029   -6.4557519    232.25579  0.033543586  0.034017245            2 
  578000    1.0260646   -6.4333069    232.95532  0.033586407  0.033998011            3 
  579000     1.020487   -6.4802912     233.0502  0.033542055  0.033979127            6 
  580000    1.0311804   -6.4624951     233.8727  0.033602399  0.033960572            7 
  581000   0.99667439   -6.4654701    234.15986  0.033585752  0.033942608           10 
  582000    1.0084392   -6.4464285    235.02177  0.033651456  0.033924999            4 
  583000    1.0485624   -6.4998847    234.07346  0.033458185  0.033907458            4 
  584000    1.0444019   -6.4751746    235.14717  0.033554106   0.03388972            3 
  585000    1.0105378   -6.4463358    235.69237  0.033574411  0.033872107            7 
  586000     1.056716   -6.4716926    235.81892  0.033535113  0.033854037           11 
  587000    1.0043675   -6.4736426    235.28587  0.033402309  0.033836325            6 
  588000    1.0422146   -6.4832722    236.18615  0.033473094  0.033818403            4 
  589000    1.0175948   -6.4345063    237.06328  0.033540362  0.033800944            3 
  590000    1.0032399   -6.4777861    237.59952  0.033559254  0.033783799            5 
  591000   0.99027776   -6.4744305     238.4316  0.033619797   0.03376712            3 
  592000    1.0203066   -6.4641132    238.06531  0.033511446  0.033750424            5 
  593000    1.0508792   -6.4703093    238.69929  0.033544026  0.033733719            4 
  594000    1.0262663    -6.499045    239.07378  0.033540093  0.033716807            6 
  595000    1.0152698   -6.5028562    239.53927  0.033548917  0.033700221            3 
  596000   0.98217767   -6.4915312    239.42357   0.03347645  0.033683649            4 
  597000    1.0049861    -6.492074    239.94883  0.033493695   0.03366683            2 
  598000    1.0114568   -6.4898008    240.51137  0.033516077  0.033650955            2 
  599000    1.0091027   -6.4707304    241.13549  0.033546951  0.033635393            5 
  600000    1.0047112   -6.4783786    240.95502  0.033465975  0.033619623            6 
  601000    1.0125226   -6.4628021    241.03075  0.033420791  0.033603744            4 
  602000    1.0004785   -6.4665334     241.2949  0.033401842  0.033587526            7 
  603000    1.0134822   -6.4995865    241.53547  0.033379694  0.033570891            4 
  604000     1.031661   -6.4730042    241.46465  0.033314659  0.033554361            4 
  605000     1.025742   -6.4896432     241.1072  0.033210358  0.033537681            4 
  606000    1.0064136   -6.4752659    241.73695  0.033242155  0.033520517            7 
  607000    1.0020833   -6.4832508    242.49311  0.033291201  0.033503445            3 
  608000       1.0136   -6.4820505    242.39167  0.033222542  0.033486349            4 
  609000    1.0005749   -6.4845144    242.93612   0.03324249  0.033469098            5 
  610000   0.98859638   -6.4830321    242.64377  0.033148056  0.033451677           12 
  611000   0.99680723    -6.452676    243.40337  0.033197405  0.033434537            4 
  612000    1.0120493   -6.4909871    243.12915  0.033105821  0.033417215            2 
  613000    1.0127565   -6.4630665    242.77805  0.033004085  0.033399792            3 
  614000   0.99820781    -6.468345    244.61131  0.033199146  0.033382541            3 
  615000    1.0222303   -6.4491597    244.96702  0.033193363  0.033365737            5 
  616000    1.0257499   -6.5015189    244.46612  0.033071716  0.033348821            5 
  617000    1.0071243   -6.4966295    246.03655   0.03323022  0.033332048            4 
  618000    1.0086854   -6.5006986    245.79363  0.033143694  0.033315665            7 
  619000    0.9853594   -6.4554642    246.44814  0.033178263  0.033299527           10 
  620000    1.0091138   -6.4853819    246.94395  0.033191391   0.03328418            7 
  621000    0.9985285   -6.4954636    247.01479  0.033147449  0.033268981            4 
  622000   0.99887901   -6.4748426    247.55141  0.033166051  0.033253656            7 
  623000    1.0194286   -6.5280012    247.68526   0.03313072  0.033237957           18 
  624000    1.0183201   -6.5257903    247.71932  0.033082174    0.0332221            7 
  625000     1.028843   -6.4461969    248.77089  0.033169452  0.033206125            7 
  626000   0.99601889   -6.5064042    248.81921  0.033122898  0.033190562            4 
  627000    1.0055953   -6.5242139    248.24184  0.032993334  0.033174002            7 
  628000    1.0103652   -6.5146256    248.30674  0.032949408  0.033157432            3 
  629000    1.0088762   -6.5104682    248.20269  0.032883239  0.033140733            7 
  630000    1.0287608   -6.5022109    248.27916  0.032841158  0.033123479            6 
  631000   0.98277033     -6.47787    249.95446  0.033010362  0.033106811            6 
  632000   0.99535168   -6.5218591    248.94671  0.032825251  0.033090331            7 
  633000     1.001311   -6.4951274    248.77885  0.032751297  0.033073503            3 
  634000    1.0002298    -6.507128    249.62169  0.032810422  0.033056395            3 
  635000   0.99128479   -6.4824288    250.15506  0.032828748  0.033039484            3 
  636000    1.0205051   -6.4766263    250.44091  0.032814585  0.033022428            2 
  637000     1.004443   -6.5089868    250.74156  0.032802402  0.033005437            4 
  638000   0.99687755   -6.4829317    250.64588   0.03273849  0.032988374           16 
  639000   0.98167721   -6.5175267    250.72891  0.032698084  0.032971026            4 
  640000   0.99181546     -6.49311    251.48785  0.032745814   0.03295337            6 
  641000   0.98056527   -6.5182859    250.92449  0.032621488  0.032935867            6 
  642000   0.98750998   -6.4901497    252.12536  0.032726553  0.032918148            6 
  643000   0.99992882   -6.4944472    253.35445  0.032834947  0.032901272            3 
  644000   0.99583273   -6.5066135    252.15428  0.032628659  0.032884317            5 
  645000    1.0139352    -6.512279    251.77818  0.032529481  0.032866884            5 
  646000   0.98054866    -6.517761    252.76315  0.032606185  0.032849312            3 
  647000   0.98506742   -6.5088415    252.74246  0.032553125  0.032832239            4 
  648000   0.99049566    -6.532218    252.97228  0.032532444  0.032814937            5 
  649000    0.9918577   -6.5110528    253.90403  0.032601956  0.032797417            4 
  650000   0.99463192   -6.5548769       253.59  0.032511538  0.032779796            3 
  651000    1.0044678   -6.5650382    252.91124   0.03237471  0.032761637            5 
  652000   0.98864159    -6.512656    253.60949  0.032414301  0.032743238            5 
  653000    1.0032859   -6.5018944    254.16465  0.032435509   0.03272501            6 
  654000    1.0046974   -6.5102969    254.28997  0.032401882  0.032707129            3 
  655000    1.0164207   -6.5235526    255.00438  0.032443305  0.032689253            4 
  656000   0.99972875   -6.5298817    254.82335  0.032370852  0.032671133            3 
  657000   0.96721468   -6.5105099    255.45597  0.032401823  0.032652985            7 
  658000    1.0222752   -6.5204053    255.72288  0.032386383  0.032634915            6 
  659000   0.97675502   -6.5245355    255.18205  0.032268848  0.032616655            5 
  660000   0.98851175   -6.5335504    254.79421  0.032170987   0.03259842            3 
  661000   0.99514428   -6.5312758    257.07001  0.032409229  0.032580651            9 
  662000   0.98458125    -6.515587    256.26017  0.032258329  0.032562686            2 
  663000   0.98973697   -6.5225366     257.0534  0.032309376  0.032544553            6 
  664000   0.99627405   -6.5043551    257.01222   0.03225555  0.032526958            5 
  665000   0.99785309   -6.5894409    258.07032  0.032339639  0.032509583            4 
  666000     1.012725   -6.5417982    257.34301  0.032200076  0.032491907            5 
  667000   0.96396993    -6.538445    257.52571  0.032174627  0.032474055            3 
  668000   0.96005231   -6.5580099    257.16846  0.032081893  0.032456179            5 
  669000   0.97887262   -6.5511893    257.67623  0.032097189  0.032438335            6 
  670000   0.99222477   -6.5354987    258.43186  0.032143266   0.03242035            4 
  671000   0.98768004    -6.513002    258.89573  0.032152972  0.032402266           15 
  672000    1.0047469    -6.496028    258.76614  0.032089055  0.032384416           10 
  673000   0.99566293   -6.5539848    259.65791  0.032151797  0.032366931            4 
  674000    1.0176433   -6.5258984    259.21733  0.032049621  0.032349081            5 
  675000     1.004928   -6.5009061    260.68693  0.032183571  0.032331644            9 
  676000   0.96971538   -6.5045783    260.21295  0.032077533  0.032314262            9 
  677000    0.9907468   -6.5265291    260.77608  0.032099468  0.032297126           12 
  678000   0.99412979   -6.5386959    260.30647  0.031994403  0.032279651            4 
  679000   0.97020437   -6.5445951    260.56067  0.031978482  0.032261541           12 
  680000    0.9689458   -6.5281605    260.64012  0.031941192  0.032243611            5 
  681000   0.97828264    -6.559993    260.98554  0.031936556  0.032225814            4 
  682000   0.96003912   -6.5361542    261.29923  0.031928059   0.03220804            4 
  683000   0.98388422   -6.5500898    262.47491  0.032024758  0.032190353            4 
  684000   0.97493829   -6.5200885    262.27397  0.031953456  0.032172214            7 
  685000   0.97069464    -6.546622    262.18249   0.03189568  0.032153973            4 
  686000   0.97798398   -6.5602118    260.55566  0.031651563  0.032135488           11 
  687000   0.99106653   -6.5542897    262.01352  0.031782329  0.032116871            7 
  688000   0.99019356   -6.5416942    262.11807  0.031748797  0.032098298            6 
  689000   0.97732556   -6.5166132    262.85561  0.031791922  0.032079958            4 
  690000   0.99209214   -6.5527916    262.70819  0.031728042  0.032061685            7 
  691000   0.99491651   -6.5282257    263.29329  0.031752688  0.032043141            4 
  692000    0.9826751   -6.5444765    263.37244  0.031716334  0.032024706            6 
  693000   0.96638423   -6.5594675    262.76012  0.031596936  0.032005985            7 
  694000   0.97776357   -6.5471612    264.16368  0.031719942  0.031987228            4 
  695000   0.97593532   -6.5377369    263.81285  0.031632236  0.031968571            3 
  696000    0.9664488   -6.5777054    262.84598  0.031471023  0.031949595            8 
  697000   0.97396502   -6.5498164    264.23004  0.031591349  0.031930517            9 
  698000   0.99109953   -6.5748432    264.97728  0.031635301  0.031911903            6 
  699000   0.95174543   -6.5459548    264.31959  0.031511634  0.031892967           13 
  700000   0.96994412   -6.5204674    264.90476  0.031536281  0.031874559            7 
  701000   0.96682583   -6.5395928    265.55959  0.031569139  0.031855865            5 
  702000   0.96819474   -6.5265858    265.43599  0.031509496  0.031837057           11 
  703000   0.95654151   -6.5637779    265.31583   0.03145043  0.031818309            3 
  704000   0.97820988   -6.5693883    265.81354  0.031464671  0.031799503            4 
  705000   0.95510664   -6.5787967    265.98171  0.031439919  0.031780774            8 
  706000   0.95716465   -6.5338262    266.43797  0.031449241  0.031762214            5 
  707000   0.96192791   -6.5661947    266.57401  0.031420793  0.031743632            5 
  708000   0.97716664   -6.5347335    266.64336  0.031384576  0.031725265            6 
  709000   0.97199812   -6.5370556    267.69299   0.03146368  0.031706927            7 
  710000   0.94489101   -6.5682891    267.48726  0.031395219  0.031688494            4 
  711000   0.97091945   -6.5800866    266.51462  0.031237063  0.031669664            6 
  712000   0.99550618   -6.5368393    267.65853  0.031327075    0.0316509           11 
  713000   0.96210206   -6.5550685    267.96044  0.031318424  0.031631998            9 
  714000   0.97215948   -6.5481249    268.13223  0.031294611  0.031613327            4 
  715000   0.95197381   -6.5812164    268.34475  0.031275611  0.031594398            7 
  716000   0.96685305   -6.5746148    268.89272  0.031295707  0.031575509            5 
  717000   0.96804451   -6.5910839    268.81185   0.03124266  0.031556608            4 
  718000   0.97518839   -6.5620129    268.61462  0.031176255  0.031537677            5 
  719000   0.97682286   -6.5425293    268.83667  0.031158631  0.031518772            7 
  720000   0.95725902   -6.5736068    268.76847  0.031107462  0.031499856            4 
  721000   0.96438653   -6.5688664    269.74878  0.031177621  0.031481175            4 
  722000   0.97432427   -6.5622084    269.61291  0.031118757  0.031462416           10 
  723000    0.9713005   -6.5496899    269.98255  0.031118321  0.031443446            8 
  724000   0.96482152   -6.5967618    270.28972  0.031110695  0.031424578            6 
  725000   0.97830133   -6.5804172    270.53209  0.031095642  0.031405748            3 
  726000   0.95601041   -6.5799422    270.55773  0.031055754  0.031386722            7 
  727000   0.95766478   -6.5572526    271.13091  0.031078737  0.031367892            5 
  728000   0.95634323   -6.5630833    270.99466  0.031020451  0.031348981            5 
  729000   0.97117746   -6.5625338    270.64047  0.030937411  0.031330109            4 
  730000   0.96229601   -6.5922581    270.75605  0.030908225  0.031310936            4 
  731000    0.9575036   -6.5629814    270.91406  0.030883956  0.031291701            9 
  732000   0.94418324   -6.5552601    272.15165  0.030982656  0.031272661            6 
  733000   0.95988439   -6.5551539    271.96251  0.030918884  0.031253604            3 
  734000   0.97025018   -6.5759405    271.99405  0.030880342  0.031234725            5 
  735000   0.97309046   -6.5760521    272.35422  0.030879164  0.031215909            7 
  736000     0.971865   -6.5590761    272.44917  0.030847959  0.031197186            8 
  737000   0.96503801    -6.570204    272.83407  0.030849623  0.031178411            6 
  738000   0.97032933   -6.5727023    273.70241  0.030905873  0.031159876            6 
  739000   0.96318882   -6.5968926    273.06078  0.030791698  0.031140907           11 
  740000   0.94482456   -6.5706731    273.33506  0.030780976  0.031121774            4 
  741000   0.96817212   -6.5766336    273.26886  0.030731991  0.031102535            5 
  742000    0.9588784   -6.5538843    272.94269  0.030653941  0.031083395            3 
  743000   0.96699641   -6.5986489    273.25979  0.030648249  0.031064316            5 
  744000   0.96065376   -6.5773845    273.97139   0.03068676  0.031044975            6 
  745000   0.96253447   -6.5921702    273.49201  0.030591947  0.031025352            4 
  746000   0.99490342   -6.5725329    273.68385   0.03057237  0.031005548           11 
  747000   0.96886567   -6.5423042    273.76404  0.030540389  0.030985927            3 
  748000   0.93209647   -6.6041075    274.07782  0.030534517  0.030966215            4 
  749000   0.94915754   -6.6254497    274.15735  0.030502598  0.030946451            7 
  750000   0.97548393   -6.6107632    274.28541  0.030476156  0.030926823            4 
  751000   0.96250889   -6.6090181    274.61587  0.030472245  0.030907403            5 
  752000   0.95985678   -6.6000026    274.82613  0.030455023  0.030887969            4 
  753000   0.95080429   -6.5920063    275.86757  0.030529833  0.030868338            6 
  754000   0.96865082   -6.6207677     275.2632  0.030422547  0.030848907            9 
  755000    0.9323417   -6.5965075    275.68877  0.030429224  0.030829205            7 
  756000   0.96735835   -6.5563559    276.37342  0.030464442  0.030809618            6 
  757000   0.97078039   -6.5937727    275.67424   0.03034723  0.030790102            5 
  758000   0.94187333   -6.5815344    275.83667  0.030325051  0.030770335            4 
  759000   0.93460684   -6.6025804     275.9497  0.030297508  0.030750349            8 
  760000   0.95033228   -6.5808457    276.86238  0.030357717  0.030730612            7 
  761000   0.94524446   -6.6141564    276.22426  0.030247948   0.03071106            8 
  762000   0.94464104   -6.6220986    277.06703  0.030300419  0.030691301            4 
  763000   0.93359454   -6.5798405    277.02495  0.030256111  0.030671789           16 
  764000   0.93977307   -6.5680139     277.0813  0.030222655  0.030652335            4 
  765000   0.94527133   -6.6145796    277.50077  0.030228843   0.03063289            8 
  766000    0.9529829   -6.5897141    278.32089    0.0302786  0.030613534            7 
  767000   0.92663102   -6.6249222    277.97604  0.030201655  0.030594243            2 
  768000   0.93849694   -6.6034372    279.98202  0.030379994  0.030575101            3 
  769000   0.93829668   -6.5754551    279.27744  0.030264135  0.030556185            6 
  770000   0.95051852   -6.5997065    279.68908  0.030269381  0.030537164            7 
  771000   0.95799708   -6.6073983    279.84336  0.030246796  0.030518181            5 
  772000   0.95511429   -6.6016877     280.0278  0.030227526  0.030498963            6 
  773000   0.93419146   -6.5947115     279.6638  0.030149181  0.030479885            5 
  774000   0.94035968   -6.5847249    280.26783  0.030175262  0.030460544            5 
  775000    0.9235786   -6.6007043    279.81263  0.030087379  0.030441059            4 
  776000   0.95082836   -6.6175555    279.80472  0.030047758  0.030421603            9 
  777000   0.96163436    -6.610425    279.75712  0.030003981   0.03040218            4 
  778000   0.94919886    -6.584245    279.94048  0.029985056  0.030382815            4 
  779000   0.94407405   -6.6170733    279.33016  0.029881275  0.030363359            7 
  780000   0.93419006   -6.5800016     280.0195  0.029916613  0.030343645            8 
  781000   0.94944523   -6.6506952     280.0335  0.029879802  0.030323628            3 
  782000   0.94989454   -6.6031404    280.29872  0.029869855  0.030303603            7 
  783000    0.9336389   -6.5986745    281.05165   0.02991184  0.030283698            7 
  784000   0.92005948   -6.6197897    280.54491  0.029819824  0.030263812            3 
  785000   0.94337724   -6.6252681    280.89182  0.029818665  0.030243907            9 
  786000   0.95022868   -6.6193387    280.47537  0.029736574  0.030223866           20 
  787000   0.93565192   -6.6431535    280.69846  0.029722412  0.030203679            6 
  788000    0.9422547   -6.5841472    281.06413  0.029723364  0.030183819            4 
  789000   0.95222994    -6.624554    280.53334   0.02962963  0.030163823            5 
  790000   0.92907791   -6.5938624    281.21038  0.029663543  0.030143651            5 
  791000   0.93303872   -6.6138732    281.31156    0.0296367   0.03012351           10 
  792000   0.93825662     -6.62169    282.11341   0.02968365  0.030103529            3 
  793000    0.9248244   -6.6659582    282.02918  0.029637367  0.030083464           17 
  794000   0.94162248   -6.6654652    281.87226   0.02958357  0.030063235            6 
  795000   0.93256256   -6.6056224    281.82232  0.029541124  0.030042967            9 
  796000   0.92097458    -6.665237    281.28049  0.029447287  0.030022599           21 
  797000   0.95662223   -6.6240514    281.81394  0.029466117  0.030001991            8 
  798000   0.91675668   -6.6289446    283.19257  0.029573159  0.029981773            4 
  799000   0.96369441   -6.6162419    283.30895  0.029548284  0.029961573            8 
  800000   0.93999642   -6.6221822    283.21119  0.029501165   0.02994166            5 
  801000   0.93944051   -6.6268684    283.38949  0.029482885  0.029921852           13 
  802000   0.92997499   -6.6460866    283.90743  0.029499941  0.029902123            4 
  803000   0.94239025   -6.5989567    284.76137  0.029551823  0.029882653            4 
  804000   0.94348677   -6.6502708    284.27406  0.029464558  0.029862895           14 
  805000    0.9396607   -6.6233641    284.67197  0.029469148  0.029843031            7 
  806000   0.92363993   -6.6434253    285.36177  0.029503905  0.029823287            4 
  807000   0.93660758   -6.6666112     284.7182  0.029400888  0.029803546           22 
  808000   0.93948476    -6.596783    285.72831  0.029468679  0.029784095            5 
  809000   0.92837765   -6.6371613    286.94004   0.02955707  0.029764729            4 
  810000   0.91320897   -6.6786138    285.57871  0.029380525  0.029745372            6 
  811000   0.92540453   -6.6435969    285.49327  0.029335519   0.02972573            5 
  812000   0.94606264   -6.6425675    285.57527  0.029307807  0.029706179            4 
  813000   0.92692523   -6.6154989    287.21834  0.029440174  0.029686593            4 
  814000   0.92563022   -6.6090292    286.62909  0.029343682  0.029667168           10 
  815000   0.93544552   -6.6717735    286.82267  0.029327472    0.0296478            7 
  816000   0.91764873   -6.6401696    287.94889  0.029406545  0.029628369            5 
  817000   0.91986308   -6.6120377    287.97478  0.029373193  0.029609424            4 
  818000   0.91401593   -6.6366362    287.95726  0.029335499  0.029590323            5 
  819000   0.93792623   -6.6500694    287.73918  0.029277491  0.029571153            7 
  820000   0.91577702   -6.6289748    288.24701  0.029293396  0.029551969            7 
  821000   0.91290696    -6.665353    288.35542  0.029268719  0.029532986           11 
  822000   0.91051148   -6.6711605    289.16039  0.029314719  0.029514133            9 
  823000   0.91306788   -6.6625183    288.75762  0.029238317   0.02949536            4 
  824000   0.91532243   -6.6442161    288.86422  0.029213614  0.029476621            6 
  825000   0.92544821   -6.6343592    289.43277  0.029235633  0.029457718            7 
  826000   0.92267403   -6.6500963    288.20314  0.029076185  0.029438877            4 
  827000   0.91590527   -6.6327564     289.5656  0.029178315  0.029419956            6 
  828000   0.92409524   -6.6535397    290.36937   0.02922397  0.029401215            7 
  829000   0.91076978   -6.6647975    289.91635   0.02914318  0.029382726            4 
  830000    0.9289841    -6.641622     290.7191  0.029188664  0.029364145            5 
  831000   0.91846004   -6.6648241    290.15273  0.029096744   0.02934535           12 
  832000    0.9298365   -6.6316903    290.03688  0.029050168  0.029326728            4 
  833000   0.92234764   -6.6609204    291.02165  0.029113811  0.029308113           10 
  834000   0.92142155   -6.6527165    290.87246  0.029063995  0.029289822            7 
  835000   0.91718221   -6.6625871     291.1291    0.0290548  0.029271627            8 
  836000   0.89752665   -6.7016496    291.29276   0.02903636  0.029253058            5 
  837000   0.91664539   -6.6815883    291.85028  0.029057176   0.02923461            5 
  838000   0.89193531   -6.6685265    292.18977  0.029056261  0.029216426            7 
  839000   0.92118734   -6.6927754     291.8018  0.028983094   0.02919819            5 
  840000   0.90924199   -6.6807555     292.7127  0.029038958  0.029179888            5 
  841000   0.91446647   -6.6613691    293.14437  0.029047202  0.029161688            3 
  842000   0.91118296   -6.6712377    292.74205  0.028972887  0.029143453            5 
  843000   0.91240848    -6.671468    292.53778  0.028918326  0.029125148            4 
  844000   0.91425442   -6.6414847    293.40072  0.028969266  0.029106889            6 
  845000   0.90350371   -6.6886628    292.60499  0.028856507  0.029088543            5 
  846000   0.91718513   -6.6636452    294.15612  0.028975189  0.029070043            6 
  847000   0.90721084   -6.6629198     293.0376  0.028830933  0.029051614            5 
  848000   0.90387856   -6.6501036    294.17477  0.028908684  0.029033416            4 
  849000    0.9101005   -6.6746903    294.21112  0.028878202  0.029015143            6 
  850000   0.90183026   -6.6953375    293.56199  0.028780587  0.028996742            5 
  851000    0.9108088   -6.6784999    294.07383  0.028796889  0.028978263           12 
  852000   0.90781089   -6.6870144      294.162  0.028771714  0.028959913            5 
  853000   0.90266353   -6.7049387    293.79082  0.028701721  0.028941435            3 
  854000   0.89802118   -6.6956542    294.37631  0.028725245  0.028923015           13 
  855000   0.89389044   -6.6647025     294.4071  0.028694649   0.02890442           10 
  856000    0.9237754   -6.6514402    294.91873  0.028710936  0.028885816            8 
  857000   0.91942149   -6.7205207    293.68944  0.028557899  0.028867166            5 
  858000   0.89271691   -6.7113189    294.27954  0.028581929  0.028848238            8 
  859000   0.90402981    -6.672298    295.14055  0.028632184  0.028829619            5 
  860000   0.92777192   -6.6960254     294.8542  0.028571143  0.028810829            5 
  861000   0.89879967   -6.6437011    295.22348  0.028573701  0.028792121            3 
  862000   0.91299737   -6.6917804     294.7892  0.028498569  0.028773428            8 
  863000   0.91474582   -6.6582089    295.69312  0.028552831  0.028754856            6 
  864000   0.91550501   -6.6951122     295.2051  0.028472714  0.028736153           11 
  865000   0.91197717   -6.6694161    295.55476  0.028473483  0.028717566            7 
  866000   0.92367667    -6.709719    296.07788  0.028490943  0.028699097           11 
  867000   0.92728943   -6.6996139    296.64895  0.028512971  0.028680591           10 
  868000   0.90947974   -6.6670272     296.3126   0.02844783  0.028662139            7 
  869000   0.89001681   -6.6938167    297.03398  0.028484271  0.028643789            6 
  870000   0.91677405   -6.6884086    296.83389  0.028432365  0.028625322            4 
  871000   0.89973217   -6.6829214    297.62792  0.028475691  0.028606937            5 
  872000   0.92057544   -6.6541846    297.11027  0.028393566  0.028588551           17 
  873000   0.88587854   -6.6903044    297.66891  0.028414367   0.02857006           12 
  874000   0.88873463   -6.6828246    297.73042  0.028387721  0.028551576           13 
  875000   0.91178552   -6.6712691    297.70065  0.028352442  0.028533165           18 
  876000   0.90203313   -6.6705122    298.95565  0.028439464  0.028514951            4 
  877000   0.91004599    -6.668334    298.50631   0.02836434  0.028496659            9 
  878000   0.90699776   -6.6741757    299.07708  0.028386207  0.028478534            7 
  879000   0.88670016    -6.689029    298.87826  0.028335064  0.028460523            7 
  880000   0.91331905   -6.6859367    298.74042  0.028289812  0.028442556            4 
  881000   0.89188225   -6.6819711    299.35633   0.02831596  0.028424639           10 
  882000   0.89522308   -6.6848986    299.46894  0.028294496  0.028406673            6 
  883000   0.89124477   -6.6863203    299.55841  0.028270896  0.028388816            7 
  884000   0.90461579   -6.6668713    300.61435  0.028338457  0.028371028           13 
  885000   0.88365781   -6.7048474    299.85105  0.028234562   0.02835312           13 
  886000   0.88570143   -6.6753811    299.68711  0.028187275  0.028335346           11 
  887000     0.897845   -6.6908211    300.69457  0.028250147  0.028317629           22 
  888000   0.89910502   -6.6877339     300.9127  0.028238804  0.028299824            6 
  889000   0.90338571   -6.6734664    301.22604  0.028236412  0.028282144            8 
  890000   0.90634131   -6.6991967     301.2615  0.028208005  0.028264476            7 
  891000   0.88336641   -6.6850991    300.33213  0.028089425  0.028246601            7 
  892000    0.9053994   -6.7321597    300.70148   0.02809244  0.028228614           12 
  893000   0.91034284   -6.7130919    301.88212  0.028171158  0.028210818            7 
  894000   0.88561424   -6.7382056    301.81127  0.028133042  0.028193081            7 
  895000   0.88951888   -6.7191933    302.28016  0.028145266  0.028175457            4 
  896000   0.88593415   -6.7147499      301.845  0.028073381   0.02815787            5 
  897000   0.89515099   -6.7143406    302.20456  0.028075488  0.028140291            9 
  898000   0.89700717   -6.6735055    302.04716  0.028029618  0.028122704            8 
  899000    0.9015225   -6.6871611    302.05796   0.02799944  0.028105043            5 
  900000   0.88574477   -6.6554929    302.67957  0.028025886    0.0280874            9 
  901000    0.8800788   -6.7166201    302.27269  0.027957149  0.028069718            5 
  902000   0.89977623   -6.7236942    302.19784  0.027919239  0.028051981           13 
  903000   0.88066075   -6.7246475    303.41607  0.028000745  0.028034363            3 
  904000   0.89101813   -6.6872009    303.72831  0.027998553  0.028016796            8 
  905000   0.87986162    -6.688466     304.0646  0.027998582  0.027999178            3 
  906000   0.89194406   -6.7159872    303.67664  0.027931994  0.027981511            5 
  907000   0.89047185   -6.7037372    303.91005  0.027922644  0.027963954           15 
  908000   0.90301496   -6.7060178    304.21421  0.027919806  0.027946424           11 
  909000   0.88196462   -6.7169542    304.07925  0.027876719  0.027928885            6 
  910000   0.88801361   -6.7303591     304.4545  0.027880448   0.02791123           14 
  911000   0.89093448   -6.7345051    304.63869  0.027866693  0.027893502            7 
  912000    0.8785143   -6.6976649    304.18505  0.027794686   0.02787589            9 
  913000   0.89998232   -6.7110647    304.21536   0.02776701   0.02785801            6 
  914000   0.89254749   -6.7284306    304.67467  0.027778507  0.027840256           11 
  915000   0.89131572    -6.712239    303.86143  0.027674083  0.027822363            7 
  916000   0.87576808    -6.697978    304.74857  0.027724579  0.027804498            7 
  917000   0.89281974   -6.7270257    304.72049  0.027691793  0.027786512           16 
  918000   0.88953213   -6.7298585    305.58829  0.027740404  0.027768456            6 
  919000   0.86952998   -6.7465588    305.25027  0.027679567  0.027750463           14 
  920000   0.90044116   -6.7476529    304.78221  0.027607084  0.027732522            8 
  921000   0.90841551   -6.7190462    305.01094  0.027597805  0.027714602           11 
  922000   0.89709145   -6.7106934    304.99746  0.027566654  0.027696647            5 
  923000   0.87483161   -6.7379163    304.96745  0.027534079  0.027678757            3 
  924000   0.89251206   -6.7243963    305.31355  0.027535494  0.027660878            6 
  925000   0.86183022   -6.6964825    306.18102  0.027583875  0.027643081            7 
  926000   0.89539282   -6.7084143    306.02375  0.027539935  0.027625298           10 
  927000   0.88908661   -6.7467538    305.23802  0.027439592  0.027607406           13 
  928000    0.9158432   -6.7506683    306.14138  0.027491144  0.027589488           13 
  929000   0.88027399   -6.7214842    307.09139   0.02754677  0.027571815            9 
  930000   0.87387751   -6.7500203     306.3535  0.027451031  0.027554264            5 
  931000   0.87283924   -6.7597098    306.43429  0.027428777  0.027536611           10 
  932000   0.88846747   -6.7214258    307.59695  0.027503304  0.027518862            7 
  933000    0.8818349   -6.7388959    306.22791  0.027351546  0.027500995            6 
  934000    0.8553461   -6.7452896    307.01951   0.02739289  0.027482992            9 
  935000   0.89958907   -6.7468907    307.12588  0.027373073  0.027465011           30 
  936000   0.89762936   -6.7551634    307.12749  0.027343972  0.027447079            9 
  937000   0.89212737   -6.7651181    308.15983  0.027406602  0.027429332            7 
  938000   0.87372665    -6.740301    308.36376  0.027395501  0.027411558            8 
  939000   0.89541696   -6.7257249    308.46605  0.027375403  0.027393749            8 
  940000   0.84409271   -6.7521955    307.89449  0.027295611  0.027375927            8 
  941000    0.8769071   -6.7211281    308.24263  0.027297435  0.027358022            7 
  942000   0.88489407   -6.7190579    308.65477  0.027304916  0.027340219            8 
  943000   0.89738871   -6.7248547    308.87583  0.027295496  0.027322429           12 
  944000    0.8717275   -6.7245831    308.56728  0.027239343  0.027304534            6 
  945000   0.84553321   -6.7264687    308.51355   0.02720578  0.027286758            5 
  946000   0.87954626   -6.7477184    309.12005  0.027230448  0.027269132           22 
  947000   0.86112754   -6.7415788    308.90798  0.027183032  0.027251446            8 
  948000   0.86132065   -6.7554677    308.71805  0.027137662  0.027233531            5 
  949000   0.87437557   -6.7977901    308.63196  0.027101507  0.027215596           18 
  950000   0.89786113   -6.7143342    309.21624  0.027124232  0.027197627            9 
  951000    0.8813791   -6.7779206    309.90583  0.027156137  0.027179834            7 
  952000   0.88124498   -6.7341828    308.89338  0.027038986  0.027162074           14 
  953000   0.87598908   -6.7688855    309.25297  0.027042057  0.027144263            6 
  954000   0.86969421   -6.7466637    310.60818  0.027132091  0.027126461            8 
  955000   0.86172652   -6.7730756    309.32822  0.026991992  0.027108522            9 
  956000   0.86788125   -6.7464129    309.67558  0.026994036  0.027090695            5 
  957000   0.88158221   -6.7714137    309.94283  0.026989101  0.027072814           19 
  958000   0.89482427   -6.7497285    310.06362  0.026971435  0.027055118           11 
  959000   0.86516378    -6.731655    310.66009  0.026995142  0.027037529            9 
  960000   0.87830499   -6.7813368    310.30942  0.026936581   0.02701978            8 
  961000   0.87655039   -6.7905539    311.58191  0.027018896  0.027002083            7 
  962000   0.88123767   -6.7467239    311.57238  0.026989984  0.026984469           13 
  963000   0.89449595   -6.7375229    312.02336  0.027000983  0.026967118            3 
  964000   0.85757294   -6.7551411     312.1524  0.026984129  0.026949843            6 
  965000   0.86637318   -6.7630046    312.29987  0.026968901  0.026932445            4 
  966000   0.88740309   -6.7584416     312.4934  0.026957678  0.026914913           10 
  967000     0.852565   -6.7658156    311.14229  0.026813365  0.026897434            7 
  968000   0.86008374   -6.7479701    312.36774  0.026891162  0.026879999           15 
  969000   0.86548687   -6.7743207    311.90834  0.026823903  0.026862548            6 
  970000   0.88493887   -6.7871372    312.02961  0.026806668  0.026845069           14 
  971000   0.87161888   -6.7427065    312.95567  0.026858537  0.026827562           12 
  972000   0.86898857   -6.7808618    312.80426  0.026817924      0.02681           12 
  973000   0.86424645   -6.7637548    312.67626  0.026779399  0.026792464            8 
  974000   0.87759607   -6.7599748    312.72699  0.026756245  0.026775074            5 
  975000    0.8708396   -6.7584097    313.05686  0.026756996  0.026757658            7 
  976000   0.86474647   -6.7641298    313.07766  0.026731357  0.026740329           15 
  977000   0.85676779   -6.7481325     313.8813  0.026772544  0.026722833            5 
  978000    0.8703576   -6.7545029    314.19976  0.026772304  0.026705526           16 
  979000   0.87206085   -6.7730726    314.11574  0.026737805  0.026688271           10 
  980000    0.8451363   -6.7387346    314.97585  0.026783661  0.026670974           10 
  981000   0.85371217   -6.7920468    313.48025  0.026629311  0.026653676           13 
  982000   0.85362648   -6.7833539    313.49594  0.026603525  0.026636095           18 
  983000   0.85117796   -6.7761065    313.58322  0.026583861  0.026618616           10 
  984000   0.88581083   -6.7883997    313.83222  0.026577932  0.026601083            4 
  985000   0.84251209   -6.7870428    314.27188  0.026588145  0.026583487            9 
  986000    0.8455284   -6.7625693    314.43263  0.026574766  0.026565815            8 
  987000   0.87715026   -6.7836073    314.42297  0.026547025    0.0265482           10 
  988000   0.85213877   -6.7734589    314.46353  0.026523577  0.026530693            6 
  989000   0.86060326   -6.8162363    314.41629  0.026492778  0.026513291           18 
  990000   0.85985751   -6.7590664    315.16537  0.026529071  0.026495834            8 
  991000   0.84814832   -6.7614008    315.57401  0.026536664  0.026478658            9 
  992000   0.84394707   -6.7991548    315.09101  0.026469338  0.026461595           11 
  993000   0.86126594    -6.808273    315.26162  0.026457001  0.026444381            4 
  994000   0.86997998   -6.7739091     315.8469  0.026479451  0.026427181           13 
  995000   0.85803156   -6.8168454    315.27437  0.026404889  0.026409955            9 
  996000   0.85560838    -6.807079    315.68693  0.026412896  0.026392708            9 
  997000     0.855008   -6.8007122    315.77095  0.026393426  0.026375326           10 
  998000    0.8619022   -6.7741265    316.20751  0.026403433  0.026358061           14 
  999000   0.85604479   -6.7640846    316.39605   0.02639273  0.026340818           15 
 1000000   0.85518184   -6.7762846    316.90556  0.026408797  0.026323607            5 
 1001000   0.86014743   -6.8149453     317.1093  0.026399375  0.026306476            4 
 1002000    0.8694298   -6.7806697    316.63305  0.026333421  0.026289478           23 
 1003000   0.86781678    -6.800979    317.42509  0.026372972   0.02627248            9 
 1004000   0.86192006   -6.8065906    317.18926   0.02632713  0.026255473            9 
 1005000     0.866245   -6.8039392    318.30089  0.026393109  0.026238414            6 
 1006000   0.87350896   -6.7936091    317.90507  0.026334084    0.0262213            6 
 1007000   0.84974546    -6.784348    317.56533  0.026279819  0.026204164            2 
 1008000   0.86018013   -6.8157858     316.8378  0.026193602  0.026186917           15 
 1009000   0.85581889   -6.7967172    318.00906  0.026264376  0.026169749           12 
 1010000    0.8687932   -6.8044807    317.62363   0.02620657   0.02615255            8 
 1011000   0.84845951   -6.7943643    317.46417  0.026167505  0.026135467            6 
 1012000   0.86008697   -6.8042969    317.56295  0.026149782  0.026118369            5 
 1013000   0.85320447   -6.8007935    318.25513  0.026180909  0.026101308            8 
 1014000   0.84660271   -6.7995267    318.52277  0.026177085  0.026084397           10 
 1015000   0.84828301   -6.8057131    318.01854  0.026109897  0.026067298            8 
 1016000    0.8475809   -6.8010708    318.44108  0.026118855  0.026050298            9 
 1017000    0.8493878   -6.8189721    319.11273  0.026148208  0.026033129            7 
 1018000   0.83099951   -6.8135737    318.11952  0.026041218  0.026016035            7 
 1019000   0.82303258   -6.7932081    318.92446   0.02608149  0.025999041           13 
 1020000   0.84359134    -6.792671    318.57697   0.02602753  0.025981996            8 
 1021000   0.84164932   -6.8163576    319.49143  0.026076676   0.02596483           10 
 1022000   0.83720942   -6.7984952     319.5792  0.026058317  0.025947859           18 
 1023000   0.84411667   -6.7924526    319.85891   0.02605563  0.025930832           13 
 1024000    0.8625977   -6.8261687    319.18724  0.025975524  0.025913733           21 
 1025000   0.84257944   -6.7861166    320.09756  0.026024192  0.025896608            6 
 1026000   0.83253647    -6.826115    319.16541  0.025923116   0.02587946            5 
 1027000   0.83192826   -6.8146546          320  0.025965596  0.025862402           11 
 1028000   0.85785731    -6.790895    320.32094  0.025966354   0.02584533           14 
 1029000   0.84125505   -6.8135425    319.84968  0.025902954  0.025828361            6 
 1030000   0.86026228   -6.8090076    320.01712  0.025891353  0.025811263           17 
 1031000    0.8454991   -6.8264659    320.29683  0.025888848  0.025794415            9 
 1032000    0.8214016    -6.825667    319.54041  0.025802682  0.025777438            9 
 1033000   0.85122229   -6.7818307    320.07045  0.025820462   0.02576035            8 
 1034000   0.85256613    -6.830706    319.90468  0.025782131  0.025743326           18 
 1035000   0.83334636   -6.8196399    320.38334   0.02579576  0.025726242            6 
 1036000   0.83212586   -6.8433757    320.33074  0.025766629  0.025709146            5 
 1037000   0.82106073   -6.8440817    320.51668  0.025756725  0.025692082            9 
 1038000   0.83715609    -6.823902    320.54337  0.025734053  0.025674953           17 
 1039000   0.82917225   -6.8372217    320.35903    0.0256945  0.025657822            7 
 1040000   0.84449653   -6.8405676    320.54217  0.025684469  0.025640629           20 
 1041000   0.82020886   -6.8115663    320.19916  0.025632337  0.025623458            9 
 1042000   0.84448749   -6.8511285    321.14128  0.025683084  0.025606294           13 
 1043000   0.82769953    -6.811201    321.75874  0.025707793  0.025589155            8 
 1044000    0.8380714    -6.819251    321.58759  0.025669508  0.025572156           13 
 1045000   0.83524951   -6.8274611    321.20931  0.025614777  0.025555239            8 
 1046000    0.8493663   -6.8386623    322.23395  0.025671921  0.025538302            4 
 1047000   0.82300601   -6.8224039    321.71815  0.025606347  0.025521247           15 
 1048000   0.82332475   -6.8301008    321.61928  0.025574052  0.025504254           20 
 1049000   0.84395357   -6.8047001    321.45288  0.025536454  0.025487179            8 
 1050000   0.82412322   -6.8434025    321.39646  0.025507655  0.025470148           11 
 1051000   0.85022746   -6.8080105    322.73126  0.025589221   0.02545323            4 
 1052000   0.83474346   -6.8301246    322.54216  0.025549918  0.025436417            7 
 1053000   0.82252697   -6.8025478    322.25099  0.025502611  0.025419583           15 
 1054000   0.82110753   -6.7993838    322.78795  0.025520869  0.025402691            6 
 1055000   0.83755277    -6.820569    322.79638  0.025497345  0.025385905            8 
 1056000   0.82834202   -6.8120483    322.18716  0.025425123  0.025369062           16 
 1057000   0.84010146   -6.8240052    323.96553  0.025541275  0.025352329            8 
 1058000   0.80908127   -6.8026364    322.33513  0.025388715  0.025335593            9 
 1059000   0.83292573    -6.824506    322.56322  0.025382689  0.025318737            9 
 1060000   0.83710716   -6.8136097    323.64715  0.025443958  0.025302009            7 
 1061000   0.82131559   -6.8551281     323.7607  0.025428896  0.025285389           18 
 1062000   0.81980847    -6.817378    324.79612  0.025486199  0.025268764            9 
 1063000   0.82394187   -6.7857077    324.89417   0.02546991  0.025252308           12 
 1064000   0.83886695   -6.7977479    325.04006  0.025457398  0.025236014            6 
 1065000   0.82718352   -6.8220565    324.96868  0.025427909  0.025219817            7 
 1066000   0.81024393    -6.797561    324.35953  0.025356436  0.025203436           13 
 1067000   0.84689627   -6.8527154    323.98062  0.025303079  0.025187121           27 
 1068000   0.83303033   -6.8342379    324.98687  0.025357902  0.025170816           14 
 1069000   0.84425149   -6.8522145    325.49014  0.025373413  0.025154351            8 
 1070000    0.8189365   -6.8343247    325.77981  0.025372259  0.025137997            9 
 1071000   0.83288737   -6.8322614    326.06429  0.025370704  0.025121725            9 
 1072000    0.8226829   -6.8340003    325.35595  0.025291973  0.025105499           10 
 1073000   0.83922727   -6.8252639    326.06748  0.025323663  0.025089253            9 
 1074000   0.84238601   -6.8488604    326.84865  0.025360696  0.025073066           18 
 1075000   0.82832068   -6.8469532    325.93701  0.025266435  0.025056836           11 
 1076000   0.82741525   -6.8406314    325.98737  0.025246854  0.025040637            9 
 1077000   0.81890401    -6.849217    325.62976  0.025195741  0.025024488           10 
 1078000   0.82744723   -6.8569678    326.53301  0.025242193  0.025008248           10 
 1079000   0.80820163   -6.8532262    326.58714   0.02522298  0.024992117            8 
 1080000   0.82824668   -6.8710075    326.47111  0.025190672  0.024975905            9 
 1081000   0.80467394   -6.8663559    326.96355   0.02520533  0.024959738            8 
 1082000   0.84474909   -6.8421224    327.15667  0.025196909  0.024943756           10 
 1083000   0.82895561   -6.8478158    327.16932  0.025174617  0.024927717            8 
 1084000   0.80736387   -6.8909176    326.16096  0.025073874  0.024911555           13 
 1085000   0.81334022    -6.852678    326.62161  0.025086145  0.024895386           14 
 1086000   0.84072029   -6.8567837    326.81516  0.025077898  0.024879309           10 
 1087000    0.8077084   -6.8498925    327.58819   0.02511409  0.024863228           28 
 1088000    0.8085954   -6.8674564    327.22881  0.025063481  0.024847126            6 
 1089000   0.82306568   -6.8885413    327.51467  0.025062341  0.024830938           20 
 1090000   0.83029193   -6.8604465    328.00955  0.025077182  0.024814817           11 
 1091000   0.80043857   -6.8839023    328.01005  0.025054236  0.024798704            9 
 1092000   0.80576938   -6.8977137    328.22326  0.025047562   0.02478264           24 
 1093000   0.82097363    -6.867707    327.48515  0.024968371  0.024766515           13 
 1094000   0.81693485   -6.8664094    327.40647  0.024939554  0.024750488           11 
 1095000   0.81327384    -6.866502    328.01233  0.024962887  0.024734354            8 
 1096000   0.80683696   -6.8687622    328.41875  0.024971012  0.024718224           10 
 1097000   0.79967518   -6.8608791    328.20355  0.024931901  0.024702152           10 
 1098000   0.81388679   -6.8587381    328.24788  0.024912559  0.024686096            7 
 1099000   0.82190985   -6.8617534    328.38188  0.024900052  0.024670068            9 
 1100000   0.81751501   -6.8504143    328.30451  0.024871554  0.024654034           13 
 1101000   0.81669541   -6.8435226    329.48019   0.02493795  0.024638172           10 
 1102000   0.80094683   -6.8631438    328.68601  0.024855264  0.024622316            7 
 1103000   0.80822811   -6.8760352    329.48149  0.024892829  0.024606396           20 
 1104000   0.81712528   -6.8765672    330.23478  0.024927142  0.024590461           14 
 1105000   0.80319855   -6.8984626    329.24417  0.024829877  0.024574559           10 
 1106000   0.80768299   -6.8776753    329.59636  0.024833964  0.024558569            8 
 1107000   0.80891599   -6.8727936    329.59916   0.02481174   0.02454269            9 
 1108000   0.81570419   -6.8864463     330.2143  0.024835612  0.024526751           13 
 1109000   0.80580316   -6.8486677    330.05174  0.024801002  0.024510847            9 
 1110000    0.8232293   -6.8462277     330.5918  0.024819204  0.024494926            7 
 1111000   0.79433759   -6.8731127    329.28213  0.024698629  0.024478976            5 
 1112000   0.80289462   -6.8565538    329.60274  0.024700445  0.024462993           12 
 1113000   0.81635608   -6.8744108     329.4752  0.024668703  0.024447087            4 
 1114000   0.81027243   -6.8990211    330.56048  0.024727743  0.024431194           16 
 1115000   0.80148053   -6.8918013     330.5455  0.024704447  0.024415332           19 
 1116000   0.82452155   -6.8663646    330.48841  0.024678048  0.024399381           12 
 1117000    0.7990463   -6.8665185    331.44259   0.02472714  0.024383584           13 
 1118000   0.80828448   -6.9085664    330.80442  0.024657455   0.02436776           10 
 1119000   0.79789093   -6.9154384    331.39031  0.024679052  0.024351923           10 
 1120000   0.79365787   -6.8710435    330.73108  0.024607967  0.024336154            7 
 1121000   0.80197849   -6.8856226    330.83782  0.024593951  0.024320461           12 
 1122000   0.82049582   -6.8859549    331.94326  0.024654134  0.024304749            6 
 1123000   0.80123575   -6.8635335    331.57129  0.024604578  0.024289053           13 
 1124000   0.79953386   -6.8796252    331.43723  0.024572748  0.024273427            6 
 1125000   0.80758642   -6.8683124    331.15467  0.024529975  0.024257781            7 
 1126000   0.78663421   -6.8904621    331.76835  0.024553608  0.024242279           13 
 1127000   0.79574496   -6.8954619    332.81001  0.024608844  0.024226793           10 
 1128000   0.81316612   -6.9053421    332.49679  0.024563888  0.024211286           14 
 1129000   0.80819457    -6.889654     331.9995  0.024505425  0.024195626           17 
 1130000   0.81224325   -6.8677239    332.41665  0.024514502   0.02418001           13 
 1131000   0.78810415    -6.897111    332.55215  0.024502811  0.024164392           10 
 1132000   0.77914837   -6.8919101    332.96943  0.024511884  0.024148819           11 
 1133000   0.80133633    -6.863109    333.15446  0.024503858  0.024133243            9 
 1134000   0.79802472   -6.9074374    332.42379  0.024428556  0.024117612           10 
 1135000   0.80100014   -6.8986282    331.99054  0.024375223  0.024101948           11 
 1136000   0.80032307   -6.8711734    332.24112  0.024372148  0.024086233            5 
 1137000   0.78781565   -6.8776122    332.48213  0.024368377   0.02407059           11 
 1138000   0.79977003   -6.9183375    331.62236  0.024284004  0.024054841           21 
 1139000    0.8080531   -6.8853643    332.44198   0.02432265  0.024039077           11 
 1140000   0.79749397   -6.8805594     332.4473  0.024301704  0.024023235           10 
 1141000    0.7915878   -6.9151737    332.30772   0.02427021  0.024007465            6 
 1142000   0.77475103    -6.856066    333.10904  0.024307431  0.023991704           17 
 1143000   0.80684127   -6.8941295    333.26493  0.024297531  0.023975989            8 
 1144000   0.80583294   -6.9141112    332.82364  0.024244147  0.023960167            7 
 1145000   0.79186737   -6.9138431    333.33864  0.024260454  0.023944357            5 
 1146000   0.77177121   -6.8787786    333.26221  0.024233727  0.023928558            6 
 1147000   0.79484592    -6.908227    334.19652   0.02428048  0.023912782           14 
 1148000    0.7896093   -6.9050133    332.44665  0.024132306   0.02389703            4 
 1149000   0.79153233   -6.9167258    333.01964  0.024152861  0.023881204           19 
 1150000   0.77942752   -6.9307872    333.89314  0.024195155  0.023865395           16 
 1151000   0.78665093    -6.886082    333.53366  0.024148108  0.023849678            7 
 1152000   0.80559417   -6.8921524    333.68669  0.024138215  0.023833935            7 
 1153000   0.78507522    -6.908606    333.51864  0.024105134  0.023818225           14 
 1154000   0.80527245   -6.9131321    333.80692  0.024105063  0.023802559           10 
 1155000   0.78404538   -6.9101152    333.75265  0.024080278  0.023786862           19 
 1156000   0.80232664   -6.9342212    333.86002  0.024067187  0.023771109           11 
 1157000   0.80523326   -6.9221239     334.3048  0.024078421  0.023755357           15 
 1158000   0.78538558   -6.9208069    334.06324  0.024040245  0.023739625           18 
 1159000   0.77601051   -6.9194082    334.40039  0.024043744  0.023723971           26 
 1160000   0.80704004   -6.9174089    333.89746  0.023986886  0.023708254           21 
 1161000   0.78092521   -6.9238829    334.09639  0.023980504  0.023692536           18 
 1162000   0.80589837   -6.9200751    334.85429  0.024014221  0.023676923            7 
 1163000   0.80459101   -6.9192567    334.75477  0.023986441  0.023661299           10 
 1164000   0.78349282   -6.9184352    334.28013  0.023931854  0.023645602           11 
 1165000   0.78030175   -6.9108146    334.06677  0.023896049  0.023629766            6 
 1166000   0.77446284   -6.9370259    334.60618  0.023914107   0.02361397            9 
 1167000   0.78410136   -6.9211046    334.96374  0.023919148  0.023598249            9 
 1168000   0.81110008   -6.9247543    334.72118  0.023881363  0.023582525            9 
 1169000    0.7859721   -6.9081113    335.43985  0.023912165  0.023566804           21 
 1170000   0.78012947   -6.9250528    334.82545  0.023847967  0.023551127           12 
 1171000   0.79264211   -6.9446791    335.98634  0.023910215   0.02353547            9 
 1172000   0.78479112   -6.9157522    335.31302  0.023841939  0.023519903           11 
 1173000   0.78010341   -6.9312454    335.26664  0.023818317  0.023504352            7 
 1174000   0.78057859    -6.931432    334.63224  0.023752998   0.02348878            6 
 1175000   0.80802236   -6.9064559    336.04817  0.023833203   0.02347321           10 
 1176000   0.77624785   -6.9307687    335.45542  0.023770934  0.023457612           27 
 1177000   0.77854922   -6.9239676    336.03726  0.023791933  0.023442001           10 
 1178000   0.79698864   -6.9313472    334.75629  0.023681118  0.023426435           19 
 1179000   0.79571547   -6.9342276    336.57033  0.023789251  0.023410848            8 
 1180000   0.78779322   -6.9022665    336.17404  0.023741104  0.023395426            9 
 1181000     0.781805   -6.9164193    335.83535  0.023697103  0.023379969           22 
 1182000   0.78233791   -6.9346996     336.1984  0.023702651  0.023364508           17 
 1183000    0.7725318    -6.963857    336.04967  0.023672138  0.023348976           11 
 1184000   0.78265208   -6.9422393     336.8967  0.023711761  0.023333441            8 
 1185000   0.77770816   -6.9188245    335.72196  0.023609139  0.023317852           21 
 1186000   0.77783649   -6.9452476    336.88863  0.023671208  0.023302254           16 
 1187000   0.76830489   -6.9456022    335.87227  0.023579912  0.023286658           12 
 1188000   0.77965365    -6.907539    336.24115  0.023585939  0.023271068           27 
 1189000    0.7636165   -6.9519641    336.57325  0.023589378  0.023255558           12 
 1190000   0.78083418   -6.9540398    336.49481  0.023564062  0.023240001           10 
 1191000   0.77469918   -6.9368051    336.84672    0.0235689  0.023224445           14 
 1192000   0.78996881   -6.9350371    337.42032  0.023589228  0.023209041            8 
 1193000   0.77634881   -6.9258063    337.58387  0.023580879  0.023193642           17 
 1194000   0.77927577   -6.9560239    337.71919  0.023570575  0.023178261           12 
 1195000   0.78103539   -6.9400351    337.82594  0.023558294  0.023162854           10 
 1196000   0.79020439   -6.9287516    337.10555  0.023488403  0.023147401            5 
 1197000   0.78727003   -6.9362744    337.51812  0.023497502  0.023131931            8 
 1198000   0.75846591    -6.971657    337.23958  0.023458513  0.023116418           11 
 1199000    0.7783325   -6.9665955     337.9438  0.023487893  0.023100892           12 
 1200000   0.77460733   -6.9659152    337.27367  0.023421782  0.023085421           15 
 1201000   0.77431472    -6.946606    337.75942  0.023435985   0.02306995           24 
 1202000   0.77818552    -6.953048    337.01831  0.023365108   0.02305448           15 
 1203000   0.77486845   -6.9748504    336.68056  0.023322289  0.023038904           10 
 1204000   0.77352715   -6.9548739    337.09574  0.023331655  0.023023361            9 
 1205000   0.77181739   -6.9596547     336.5047  0.023271418  0.023007805           23 
 1206000   0.76970067   -6.9686933    337.58331  0.023326652   0.02299225           26 
 1207000   0.78199512   -6.9372532    337.85201  0.023325877  0.022976667           14 
 1208000   0.76228271   -6.9665825    337.56199  0.023286561  0.022961098           15 
 1209000   0.77138641   -6.9363441    337.71178  0.023277624  0.022945593           19 
 1210000   0.77305822   -6.9448253    337.85108  0.023267981  0.022930099           13 
 1211000   0.77872737   -6.9394689    337.88451  0.023251067  0.022914612           26 
 1212000   0.76552696   -6.9674143    337.99625  0.023239566  0.022899129            9 
 1213000   0.75919612   -6.9334979    338.04009  0.023223419  0.022883611           14 
 1214000   0.77105643   -6.9703399    338.59445  0.023242343  0.022868165            9 
 1215000   0.77903968   -6.9480293    338.08759  0.023188449  0.022852711            5 
 1216000   0.78069409   -6.9437398    338.64801  0.023207786  0.022837361           19 
 1217000   0.76190745   -6.9764334    338.59874  0.023185342  0.022822011           13 
 1218000   0.76700303   -6.9930628    337.92517  0.023120222  0.022806647           22 
 1219000   0.75418621   -6.9938741    338.52478  0.023142246  0.022791297           20 
 1220000   0.77823826   -6.9712652    338.73163  0.023137406  0.022775871           21 
 1221000   0.76610383   -6.9564968    339.29931  0.023157201  0.022760539            7 
 1222000    0.7723633   -6.9595533    338.73618  0.023099848  0.022745124           28 
 1223000   0.76811792   -6.9563969    338.11878  0.023038892  0.022729607           19 
 1224000   0.77499474   -6.9648569    338.22943  0.023027603  0.022714106           19 
 1225000   0.77232217   -6.9616833    339.49985  0.023095228  0.022698683           20 
 1226000   0.78350771   -7.0005964    338.16254  0.022985491  0.022683243           33 
 1227000   0.75730209   -6.9790363     338.2843  0.022975027  0.022667677           21 
 1228000   0.75020714   -6.9737168    339.19972  0.023018439  0.022652199           10 
 1229000   0.75078758   -6.9919934    338.56642  0.022956769  0.022636746           17 
 1230000   0.77429343   -6.9743722    339.54462  0.023004378  0.022621301           17 
 1231000   0.76456519    -6.947903    339.13168  0.022957736  0.022605938           11 
 1232000   0.76836817   -6.9675755    339.41068  0.022957973  0.022590641           36 
 1233000   0.78547549   -6.9994478    340.02753  0.022981044  0.022575393           30 
 1234000   0.75741127   -6.9835971    340.20396  0.022974336  0.022560109            9 
 1235000   0.75005571    -6.968088    340.14745   0.02295192  0.022544769           10 
 1236000   0.75772578   -6.9664391    339.69927  0.022903133   0.02252946           20 
 1237000   0.74938863   -6.9604254    339.85108  0.022894845  0.022514163           14 
 1238000   0.78044274   -6.9654729    339.45241  0.022849516  0.022498864           23 
 1239000   0.75615658   -6.9941699    339.94721  0.022864354  0.022483479           10 
 1240000   0.76555771   -6.9799467    339.37613  0.022807536  0.022468137           22 
 1241000   0.74009598   -6.9873543    339.76439  0.022815229  0.022452732           35 
 1242000   0.75538091   -6.9747292    339.35314  0.022769266  0.022437291           19 
 1243000   0.74421619   -7.0003182      338.861  0.022717954  0.022421835           10 
 1244000   0.75494495   -6.9577078    340.51633  0.022810579  0.022406462           11 
 1245000   0.74804082   -6.9949662    339.63307  0.022733137  0.022391131           14 
 1246000   0.78091119   -7.0096479    340.34197  0.022762304  0.022375771           19 
 1247000   0.75730439   -6.9664323    340.15122  0.022731303   0.02236043           11 
 1248000   0.74574122    -6.965202    340.65918  0.022747007  0.022345133           15 
 1249000   0.75165491   -6.9498821    340.27505  0.022703166  0.022329918           32 
 1250000   0.75629807    -6.986458    340.67548  0.022711699  0.022314608            9 
 1251000    0.7807719   -6.9631658    340.14517  0.022658218  0.022299335           17 
 1252000   0.75092674   -6.9687445    340.17281  0.022641961  0.022284003           11 
 1253000   0.76035139   -7.0153206    340.27888  0.022630944  0.022268662           35 
 1254000   0.76793969   -6.9795004     340.0972  0.022600824  0.022253316           30 
 1255000   0.73984725   -6.9851912    340.14804  0.022586191  0.022238021           16 
 1256000   0.73352533   -6.9945236    341.06989  0.022629372  0.022222684            9 
 1257000   0.74492541   -7.0344044     340.0401  0.022543099  0.022207282           12 
 1258000   0.74041468   -7.0188615    340.25142  0.022539178  0.022191815           29 
 1259000   0.74246264   -7.0301227    339.90502  0.022498347  0.022176344           13 
 1260000   0.76553961   -6.9966311    340.16686  0.022497808  0.022160869           11 
 1261000   0.75532706   -7.0049917    340.45132  0.022498765  0.022145427            9 
 1262000   0.74352401   -7.0210498    340.25967  0.022468282  0.022130051           10 
 1263000   0.76312115   -7.0223496     341.5192  0.022533597  0.022114703            7 
 1264000    0.7403965   -6.9867159    340.75947  0.022465682  0.022099397           12 
 1265000    0.7399046   -6.9933388    341.58686  0.022502428  0.022084163           15 
 1266000   0.74275969   -6.9980756    340.23203  0.022395473  0.022068881           26 
 1267000   0.74699952   -7.0118401     341.5288  0.022463088  0.022053569           17 
 1268000   0.75102424   -7.0084563     341.3639  0.022434536  0.022038225           48 
 1269000   0.74508027   -6.9974667    339.51351  0.022295345  0.022022802           40 
 1270000   0.74455038   -7.0130579     340.5814  0.022347861   0.02200733           50 
 1271000   0.73837255   -7.0351969    340.37073  0.022316466  0.021991933           24 
 1272000   0.74302252   -7.0158265    341.00096   0.02234021    0.0219766           34 
 1273000   0.73934666   -7.0260286    341.14264  0.022331935  0.021961302           21 
 1274000   0.73663152   -6.9922196    340.76738   0.02228986  0.021945964           13 
 1275000   0.73775463   -7.0337798     340.5644  0.022259111  0.021930578           34 
 1276000   0.73515456   -7.0242725    341.10459  0.022276945  0.021915229           26 
 1277000   0.74423399   -7.0330372    341.16213  0.022263256  0.021899904           32 
 1278000   0.74013463   -7.0218154    340.66011  0.022213101  0.021884528           32 
 1279000   0.74640606   -7.0269029    341.20105  0.022230978  0.021869233           12 
 1280000   0.73927959   -7.0194183    342.01303  0.022266474  0.021853985           16 
 1281000   0.74849101   -7.0178469    341.68579  0.022227803  0.021838721           22 
 1282000   0.74175035   -7.0226833    340.83567  0.022155205  0.021823433           10 
 1283000   0.73971304   -7.0297702    340.53112  0.022118155  0.021808092           30 
 1284000   0.74706718   -7.0269648    340.65468  0.022108948  0.021792692           29 
 1285000   0.73486318   -7.0311843    341.23221  0.022129196  0.021777323           40 
 1286000   0.73582383   -7.0356323    341.97696  0.022160249  0.021761998           12 
 1287000   0.73305213   -7.0165352    342.12493  0.022152611   0.02174674           15 
 1288000   0.75181297   -7.0416946    341.40128  0.022088592    0.0217315           16 
 1289000   0.73090692   -7.0147013    342.75826  0.022159184  0.021716356           17 
 1290000   0.72943287    -7.010184    342.18637  0.022105062  0.021701176           23 
 1291000   0.75093472   -7.0254976    341.71346  0.022057414   0.02168597           20 
 1292000   0.73441274   -7.0323997    342.05866  0.022062607  0.021670752           12 
 1293000   0.75174127   -7.0312006    341.91076  0.022036012  0.021655564           25 
 1294000   0.74120721   -7.0206106    342.10446  0.022031457  0.021640378           35 
 1295000   0.72909782   -7.0086968    342.21703  0.022021688  0.021625169           10 
 1296000   0.72339562   -7.0076345     341.9511  0.021987597  0.021609935           34 
 1297000   0.72479836    -7.041363    342.13902  0.021982718  0.021594697           11 
 1298000   0.72016155   -7.0404847    342.16853  0.021967676  0.021579515           12 
 1299000   0.72543133   -7.0451739    341.52288  0.021909346  0.021564258           11 
 1300000   0.73430431   -7.0459339    341.88863  0.021915938  0.021548964           30 
 1301000   0.73837019   -7.0317566    341.76851  0.021891398  0.021533633           37 
 1302000   0.73197638   -7.0112842    342.16408  0.021899902  0.021518385           39 
 1303000    0.7224823   -7.0417622    342.07421  0.021877348  0.021503147           59 
 1304000   0.73675687   -7.0278098    341.74425  0.021839484  0.021487889           78 
 1305000   0.74106544   -7.0435769     342.3737  0.021862944  0.021472641           35 
 1306000   0.72638244    -7.024719    341.70344  0.021803436  0.021457397           22 
 1307000   0.73165297   -7.0238456    342.87982  0.021861759  0.021442115           13 
 1308000   0.75000879   -7.0267706    342.64167  0.021829872  0.021426907           21 
 1309000   0.73067732   -7.0567208    342.85496  0.021826773  0.021411704           16 
 1310000    0.7331051   -7.0367451    342.44476  0.021784018  0.021396434           19 
 1311000   0.71750952   -7.0409446    341.87059  0.021730905  0.021381154           11 
 1312000   0.74548833   -7.0428271     342.6215  0.021762036  0.021365865           28 
 1313000   0.75571532   -7.0375233    342.67193  0.021748663  0.021350698           10 
 1314000   0.73061961   -7.0388658     342.6438  0.021730327  0.021335566           15 
 1315000   0.72059921   -7.0442049    342.40222  0.021698493  0.021320434           15 
 1316000   0.73401874   -7.0472176    342.14891  0.021665964  0.021305279           11 
 1317000   0.72517331   -7.0368622     343.1438  0.021712465  0.021290151           17 
 1318000   0.74940117   -7.0583142    342.79815  0.021674137  0.021275038           31 
 1319000   0.71943344   -7.0155614    342.53365  0.021640994  0.021259903           17 
 1320000   0.71804763   -7.0248572    342.94011  0.021650259    0.0212448           24 
 1321000   0.72802743    -7.052098    342.09489  0.021580551  0.021229598           16 
 1322000   0.72639255   -7.0649412    342.93368    0.0216171  0.021214363           10 
 1323000   0.72701276   -7.0226547      342.909  0.021599206  0.021199154           27 
 1324000   0.73232095   -7.0471899    343.10579  0.021595279  0.021183999           16 
 1325000   0.72720984    -7.042548    342.39243  0.021534115  0.021168845           17 
 1326000   0.73611812   -7.0536401    342.89127  0.021549225  0.021153717           15 
 1327000   0.70451367   -7.0710762    342.73208  0.021522989  0.021138525           21 
 1328000   0.72341744   -7.0672453    343.00021  0.021523607  0.021123405           11 
 1329000    0.7312867   -7.0693093    343.55595  0.021542259  0.021108314           39 
 1330000   0.73814005   -7.0535729    343.28471  0.021509067  0.021093216           26 
 1331000   0.73553047    -7.056112    343.65235  0.021515925  0.021078186           14 
 1332000   0.71349076   -7.0463206    343.01512  0.021459905   0.02106318            7 
 1333000   0.70982818   -7.0563205    343.10614  0.021449496  0.021048191           19 
 1334000   0.72337318   -7.0545753    344.04242  0.021491906  0.021033238           25 
 1335000   0.71513262    -7.061198    343.95236  0.021470185    0.0210183           24 
 1336000   0.72114888   -7.0466064    343.59306  0.021431703  0.021003387           38 
 1337000   0.70919849   -7.0433305     343.5348  0.021412042  0.020988478           17 
 1338000   0.72331905   -7.0462444    344.10368   0.02143147  0.020973514           10 
 1339000   0.72909714   -7.0559509    343.94617  0.021405661  0.020958505           32 
 1340000   0.70644329    -7.053323    343.62904  0.021369965  0.020943507           13 
 1341000   0.70503242   -7.0641242    343.65033  0.021355352  0.020928507           29 
 1342000   0.72398285   -7.0684055    343.54054  0.021332622  0.020913515           37 
 1343000   0.72079451   -7.0661347    343.19072  0.021295031  0.020898475           46 
 1344000   0.69985868   -7.0652019    343.60926  0.021305138  0.020883483           12 
 1345000   0.71808379   -7.0509785    343.76981  0.021299245  0.020868531           53 
 1346000    0.7275824   -7.0675769    343.75777  0.021282675   0.02085352           31 
 1347000   0.72417058    -7.061026    343.30947  0.021239141  0.020838517           13 
 1348000   0.69877394   -7.0804707    343.27357  0.021221166  0.020823527           12 
 1349000   0.71777596    -7.078208    344.19988  0.021262657  0.020808511           18 
 1350000   0.71401551   -7.0915911    343.99705  0.021234386  0.020793496            9 
 1351000   0.71785484   -7.0781814    343.82527  0.021208073  0.020778512           10 
 1352000   0.70784309   -7.0933685    343.01754    0.0211426  0.020763494           10 
 1353000   0.70644608   -7.0915018     343.6977  0.021168866   0.02074845           25 
 1354000   0.71554126   -7.0682984    343.88658  0.021164856  0.020733468           13 
 1355000   0.71632511   -7.0630184    343.92541  0.021151624  0.020718531           10 
 1356000   0.70751947   -7.0810671    344.07403  0.021145159  0.020703586           11 
 1357000   0.72314741   -7.0781755    343.14312   0.02107241  0.020688622           17 
 1358000    0.7064824   -7.0582892    344.07306  0.021113958  0.020673697           16 
 1359000   0.72805708   -7.0729987    343.53812   0.02106562  0.020658785           17 
 1360000   0.71329629   -7.0730569    343.97851  0.021077115  0.020643851           47 
 1361000   0.71290192   -7.0703934    344.36356  0.021085204  0.020628978           11 
 1362000   0.70247066   -7.0651305    344.28724  0.021065054  0.020614095           21 
 1363000   0.69859699   -7.0947536    343.31385  0.020990086  0.020599228           12 
 1364000   0.70315227   -7.1016849    344.27808  0.021033607  0.020584348           16 
 1365000   0.71694557   -7.0974659    343.85333  0.020992267  0.020569472           36 
 1366000   0.70521262   -7.0883818    344.70078  0.021028598  0.020554614           33 
 1367000   0.70694132     -7.07583    344.50299  0.021001158  0.020539783           50 
 1368000   0.69596184   -7.0931856    344.02006  0.020956388  0.020524902           12 
 1369000   0.69849413   -7.0872393    344.48775  0.020969549  0.020510064           17 
 1370000   0.70739238   -7.1149146    344.51453  0.020955872  0.020495188           23 
 1371000   0.70594317   -7.0690038    345.18713  0.020981469  0.020480329           17 
 1372000   0.70519897   -7.1268031    343.57093  0.020868011  0.020465476           19 
 1373000   0.70549797   -7.0910678    344.64206  0.020917823  0.020450631           16 
 1374000   0.71040685   -7.0930593    344.89235   0.02091778  0.020435838           16 
 1375000   0.70890847   -7.1111666    344.53251  0.020880758  0.020421026           34 
 1376000    0.7077278   -7.0992383    344.88276  0.020886795  0.020406223           19 
 1377000   0.71162937   -7.0704641     345.5856  0.020914161  0.020391454           18 
 1378000   0.70146355   -7.0886714     344.5098  0.020833926  0.020376822           48 
 1379000   0.70474089   -7.0810521    344.27872  0.020804854  0.020362107           17 
 1380000   0.71687883   -7.0822821    345.25809  0.020848918  0.020347414           20 
 1381000   0.70784536   -7.1097248    344.96245  0.020815982  0.020332699           12 
 1382000   0.70644032   -7.1134186    344.72177  0.020786407  0.020317962            8 
 1383000   0.69047338   -7.0895779    344.76795   0.02077416  0.020303232           17 
 1384000   0.69937925   -7.1092896     343.9374   0.02070914  0.020288461           31 
 1385000    0.6830665   -7.0908973    343.74522  0.020682624  0.020273639           21 
 1386000   0.69691768   -7.1151592    344.84344  0.020733733  0.020258812           17 
 1387000   0.69013474   -7.0807202    344.69159  0.020709661  0.020244015           11 
 1388000   0.71214266   -7.0899365    344.78202  0.020700169  0.020229264           18 
 1389000   0.71257484   -7.1050696    345.12763  0.020706001  0.020214527           15 
 1390000   0.71191459   -7.0911889    344.50711  0.020653903  0.020199803           18 
 1391000   0.68951229   -7.0861679    344.99867  0.020668504  0.020185122           39 
 1392000   0.70471267   -7.0947235    345.53189  0.020685578   0.02017046            8 
 1393000   0.69101596   -7.1282224    344.63467  0.020617054  0.020155765           22 
 1394000   0.67331189   -7.0984712    345.11069   0.02063072   0.02014111           31 
 1395000   0.69589038   -7.1121522    345.07575  0.020613844  0.020126452           15 
 1396000   0.69381221   -7.1126136    345.47569  0.020622952  0.020111833           14 
 1397000   0.68870601   -7.1174145    345.05968  0.020583374  0.020097205           15 
 1398000   0.70592376    -7.119713    345.42713  0.020590553  0.020082608           22 
 1399000   0.69393705   -7.1103662    345.54132  0.020582638   0.02006799           12 
 1400000   0.69162493   -7.1117364    346.51811  0.020626078  0.020053428           18 
 1401000   0.68773553   -7.1113888    345.84378  0.020571245  0.020038837           20 
 1402000    0.6963624    -7.095618    346.02818  0.020567534   0.02002425           15 
 1403000    0.6948255   -7.1006642    345.49621  0.020521276   0.02000971           14 
 1404000   0.68581414   -7.1542645    346.04229  0.020539072   0.01999514           22 
 1405000   0.66962686   -7.1178649    345.59213  0.020497754   0.01998056           23 
 1406000   0.70301717   -7.1104951    345.99933   0.02050731  0.019965993           28 
 1407000   0.69886527   -7.1188225    345.61443  0.020469938  0.019951451            8 
 1408000   0.68815773   -7.0986722    345.71815  0.020461538  0.019936888           20 
 1409000   0.68531591   -7.1275826    345.04151  0.020406998  0.019922276           15 
 1410000   0.67928482   -7.1336031    345.52293  0.020420977  0.019907681           15 
 1411000   0.68566532   -7.1360653    345.13488  0.020383586  0.019893126           29 
 1412000   0.70151337   -7.1170406    345.03918  0.020363502  0.019878531           25 
 1413000   0.69104283   -7.1272397    345.08977  0.020352074  0.019863926           34 
 1414000   0.69506505   -7.1276792      345.517  0.020362859  0.019849396           61 
 1415000   0.70635009   -7.1118902    345.56893  0.020351527  0.019834863           73 
 1416000   0.68685936   -7.1176258    345.51962  0.020334253  0.019820335           39 
 1417000   0.69020957   -7.1409308    345.42098  0.020314102  0.019805841           23 
 1418000   0.68928554   -7.1594719    345.42537  0.020300033  0.019791327           27 
 1419000   0.68976244    -7.127024    345.85154  0.020310755  0.019776838           39 
 1420000   0.69552602   -7.1326683    345.55159  0.020278849  0.019762399           23 
 1421000   0.67658925   -7.1273789    345.31377  0.020250632  0.019747944           29 
 1422000   0.67904728   -7.1316798    344.73259  0.020202332  0.019733505           42 
 1423000   0.67335448   -7.1287566    345.34737  0.020224137  0.019719026           20 
 1424000   0.68584955   -7.1232678     345.6346  0.020226744  0.019704556           33 
 1425000   0.68468405   -7.1600425    345.57944  0.020209324  0.019690107           33 
 1426000   0.68889036   -7.1427238    345.80202  0.020208159  0.019675604           31 
 1427000    0.6826955   -7.1555851    346.01974  0.020206712  0.019661139           23 
 1428000   0.67900835    -7.163598    345.50103  0.020162291  0.019646663           31 
 1429000    0.6849934   -7.1602539    344.71421  0.020102298  0.019632152           20 
 1430000   0.67295286   -7.1371864    345.56953  0.020138085  0.019617603           30 
 1431000   0.68804822   -7.1497039    345.30918   0.02010885  0.019603098           31 
 1432000   0.68228508   -7.1612263    345.05174  0.020079827    0.0195886           46 
 1433000     0.685915   -7.1405993    344.62954  0.020041262  0.019574114           50 
 1434000   0.68200896   -7.1537979    345.77114  0.020093627  0.019559602           26 
 1435000   0.68126922   -7.1575513    345.06177   0.02003843  0.019545091           13 
 1436000   0.68683927   -7.1531275    345.52341  0.020051266  0.019530596           41 
 1437000   0.67992507   -7.1602514    345.63344  0.020043693  0.019516115           26 
 1438000   0.68559353   -7.1447254    345.48757  0.020021301  0.019501659           20 
 1439000   0.69672374   -7.1545018    344.82165  0.019968824  0.019487182           24 
 1440000   0.67952416   -7.1625705    345.54397  0.019996758  0.019472661           32 
 1441000   0.68040434   -7.1662351    345.12196  0.019958475  0.019458151           29 
 1442000   0.67245359   -7.1502727     345.1376  0.019945539  0.019443632           36 
 1443000   0.67454822   -7.1559106    344.98829  0.019923094  0.019429141           32 
 1444000   0.67698844   -7.1399635    345.67531  0.019948945  0.019414691           25 
 1445000    0.6730618   -7.1260676    345.66232   0.01993439  0.019400282           28 
 1446000   0.66638801   -7.1269121    345.60983  0.019917579  0.019385893           36 
 1447000   0.67792031   -7.1520403    345.93525  0.019922555  0.019371491           36 
 1448000   0.66889239   -7.1643226    345.29851  0.019872152  0.019357075           35 
 1449000   0.69357926   -7.1354471    345.63547  0.019877816  0.019342678           70 
 1450000   0.67393262   -7.1567008    345.64188  0.019864476  0.019328272           79 
 1451000   0.67147946   -7.1621887    345.67829  0.019852877   0.01931384           50 
 1452000   0.67194252   -7.1536855    346.28855  0.019874228  0.019299463           32 
 1453000   0.67583086   -7.1606291    345.21919  0.019799219  0.019285078           22 
 1454000   0.68032733   -7.1622622      345.407  0.019796366   0.01927071           36 
 1455000   0.67972256   -7.1642408    345.95434  0.019814109   0.01925633           44 
 1456000   0.66968617   -7.1955553    345.55119  0.019777426     0.019242           43 
 1457000   0.66405128   -7.1859329    346.18005   0.01979982  0.019227643           43 
 1458000   0.67099114   -7.1931193    345.73962  0.019761067  0.019213329           51 
 1459000   0.68267673   -7.1546314    346.47657  0.019789615  0.019199047           21 
 1460000     0.673423   -7.1898286    346.61136  0.019783753  0.019184785           57 
 1461000   0.67028466    -7.173271    346.56834  0.019767758  0.019170542           59 
 1462000   0.66629744   -7.1566696    346.23154   0.01973504  0.019156283           61 
 1463000   0.67673555   -7.1888318    346.34511  0.019728019  0.019142008           91 
 1464000   0.67149706   -7.1837394    345.64569  0.019674732  0.019127764           58 
 1465000   0.67306031   -7.1723063    346.22102  0.019694028  0.019113516           73 
 1466000   0.68146019   -7.1725807    345.78207  0.019655643  0.019099282           65 
 1467000   0.67268578   -7.1593562    346.73148  0.019696176  0.019085089           66 
 1468000   0.66335125   -7.1872296    346.42997  0.019665643  0.019070902           39 
 1469000   0.67258713     -7.20389    345.14182  0.019579182  0.019056695           96 
 1470000   0.65452254   -7.2109579    346.63311  0.019650403  0.019042479          100 
 1471000   0.66538274   -7.1970373    346.37334  0.019622328  0.019028286           55 
 1472000   0.66401874   -7.1852421    346.64999   0.01962466  0.019014112           28 
 1473000   0.65616497   -7.1637583    346.26737  0.019589691  0.018999912           45 
 1474000   0.65999421   -7.1849216    346.52766  0.019591116  0.018985733           65 
 1475000   0.66425056   -7.1932716    346.08605  0.019552884  0.018971552           59 
 1476000   0.66391682   -7.1945551    346.10767  0.019540858  0.018957406           78 
 1477000   0.66462884   -7.1907268    346.86827  0.019570541  0.018943228           64 
 1478000   0.66113216   -7.1799491    346.16691  0.019517756  0.018929067           68 
 1479000   0.66185772   -7.1906042    346.33753  0.019514172  0.018914936           70 
 1480000   0.66051473   -7.1942474    346.76289  0.019524937  0.018900818           36 
 1481000    0.6624305   -7.1896314    346.88111  0.019518406  0.018886688           51 
 1482000   0.67201847   -7.1873675    346.27864  0.019471358  0.018872616           74 
 1483000   0.65343064   -7.1915117    346.87163   0.01949155  0.018858539           45 
 1484000   0.65129665   -7.1837464    346.63463  0.019465107  0.018844447           36 
 1485000   0.64736586   -7.1812368    346.75795   0.01945892  0.018830356           43 
 1486000   0.65952709   -7.1994206    347.08634  0.019464241  0.018816309           25 
 1487000   0.66116415   -7.1714491    346.28494   0.01940624  0.018802283           23 
 1488000   0.65698771    -7.176775    346.60541  0.019411145  0.018788228           48 
 1489000    0.6495564   -7.1679593    346.24092   0.01937771  0.018774174           54 
 1490000   0.65623997    -7.183576    346.14062  0.019359095  0.018760112           48 
 1491000   0.66006483   -7.1870177    346.10661   0.01934421  0.018746097           42 
 1492000   0.65676137   -7.1862187    347.07874  0.019385542  0.018732097           34 
 1493000   0.65011004   -7.2092963    346.68051   0.01935033  0.018718114           53 
 1494000   0.66151717   -7.2028061    346.21668  0.019311506  0.018704134           92 
 1495000    0.6591569   -7.1794393    346.72506  0.019326926  0.018690153           55 
 1496000   0.65508418   -7.1961619    346.62769  0.019308583  0.018676218          163 
 1497000   0.66069958   -7.1905459    347.30428  0.019333349  0.018662279           48 
 1498000   0.66910733   -7.2032782    346.26617  0.019262693  0.018648371           88 
 1499000   0.65184484   -7.1923024    346.60745  0.019268815  0.018634401           37 
 1500000   0.65929046   -7.2048179    346.91163  0.019272868  0.018620473           67 
 1501000   0.65780924    -7.186773    346.42417  0.019232965  0.018606586           89 
 1502000   0.64927677   -7.1834323    346.58685  0.019229186  0.018592675           97 
 1503000   0.64737849    -7.220246    345.63175  0.019163437   0.01857875           92 
 1504000   0.64981911   -7.2040163    346.12605  0.019178084  0.018564783           91 
 1505000   0.64092646   -7.2070844     347.2397  0.019227004  0.018550899           43 
 1506000   0.64954666    -7.192644    346.62268  0.019180095  0.018536987           33 
 1507000   0.65869047   -7.1953313    347.34846  0.019207502   0.01852315           41 
 1508000   0.64302813   -7.1986529     347.2022  0.019186682  0.018509384           41 
 1509000   0.65893597    -7.206902    346.60886    0.0191412  0.018495534           30 
 1510000   0.63278501   -7.1901814    346.75156  0.019136399  0.018481713           41 
 1511000   0.64865729   -7.2224971    347.29067  0.019153467  0.018467876           57 
 1512000   0.64443505    -7.204846    347.42826  0.019148383  0.018454049           71 
 1513000   0.64613949   -7.2134998    347.06895  0.019115937  0.018440201          102 
 1514000   0.64486235   -7.2089775    346.56855  0.019075768  0.018426378           48 
 1515000   0.65354733   -7.1990934    346.48853  0.019058775  0.018412547           30 
 1516000   0.64948638   -7.2302866     346.2923  0.019035416  0.018398722           42 
 1517000   0.65144151   -7.2253619    346.66039  0.019043089  0.018384942           84 
 1518000   0.63252175   -7.2287701    346.89305  0.019043316  0.018371145           72 
 1519000   0.65330662   -7.1941897    346.70656  0.019020549  0.018357363           51 
 1520000   0.64127374   -7.2160644    346.87644  0.019017348  0.018343601           71 
 1521000    0.6472827   -7.2325282    346.79168  0.019000202   0.01832981           48 
 1522000   0.65372309   -7.2164124     346.4601  0.018969563  0.018316013           68 
 1523000    0.6505521   -7.2364465    346.92741  0.018982677  0.018302214           53 
 1524000    0.6370412   -7.2376691    347.10327  0.018979838  0.018288439           62 
 1525000   0.63603802    -7.208488     346.6491  0.018942574  0.018274643           55 
 1526000   0.64349923   -7.2161464    346.42979  0.018918184  0.018260848           37 
 1527000   0.64788098   -7.2333129    346.70591  0.018920864  0.018247061           31 
 1528000   0.63454577   -7.2170829    346.84105  0.018915851  0.018233321           35 
 1529000   0.64611601   -7.2264935    346.68296  0.018894864  0.018219591          109 
 1530000   0.65063654   -7.2249591    346.21415   0.01885698  0.018205858           58 
 1531000   0.63493433    -7.221577    347.04516  0.018889896  0.018192141           62 
 1532000   0.63859408   -7.2504676     346.5299  0.018849537  0.018178414           73 
 1533000   0.65689489   -7.2200132    347.04198  0.018865078  0.018164717          121 
 1534000   0.64471782   -7.2085784    347.23198  0.018863102  0.018151082           65 
 1535000   0.64338065   -7.2249946    346.72767  0.018823435  0.018137434           75 
 1536000   0.64892979   -7.2233473    347.43061  0.018849317  0.018123776           31 
 1537000   0.63486106   -7.2293139    346.90373  0.018808487  0.018110149          110 
 1538000   0.63768042   -7.2413209    346.81612  0.018791511  0.018096498           64 
 1539000   0.64823827   -7.2498545    346.63011  0.018769228   0.01808282           41 
 1540000   0.64204701   -7.2279286    346.32454  0.018740505  0.018069142           49 
 1541000   0.63285682   -7.2446526    346.43269  0.018734193   0.01805545           29 
 1542000   0.63495284   -7.2542077    346.52433  0.018726996  0.018041782           59 
 1543000   0.65323446   -7.2566361     347.1441  0.018748331  0.018028093           80 
 1544000   0.63572173   -7.2340021    346.90595  0.018723335  0.018014433           66 
 1545000    0.6418832   -7.2595151    346.30616  0.018678865  0.018000818           64 
 1546000   0.63724605   -7.2380258    346.70982  0.018688542  0.017987189           79 
 1547000   0.64999836   -7.2342163    346.86451  0.018684794    0.0179736          146 
 1548000   0.64143255   -7.2476882    346.73901  0.018665968  0.017960008          136 
 1549000   0.62130212   -7.2496106    346.69349  0.018651468  0.017946398          217 
 1550000     0.641566   -7.2411456    346.99861  0.018655839  0.017932767          241 
 1551000   0.64824467   -7.2560887    346.04216  0.018592422  0.017919121          122 
 1552000   0.61757324   -7.2604937    346.23564  0.018590831  0.017905483          293 
 1553000   0.63989874   -7.2362704    345.61123  0.018545354  0.017891865          104 
 1554000   0.62042314   -7.2453334     346.0974  0.018559492   0.01787829           47 
 1555000   0.62653185   -7.2687481     346.5961  0.018574282  0.017864683           83 
 1556000   0.62629987   -7.2581828    346.19309  0.018540761  0.017851063           84 
 1557000   0.63437408   -7.2904981    346.97948  0.018570942  0.017837467          111 
 1558000   0.62513279   -7.2713901    346.57377  0.018537322  0.017823894          111 
 1559000   0.62162163    -7.261882    346.62138  0.018527976  0.017810354           90 
 1560000   0.62716622   -7.2505601    346.41904  0.018505291   0.01779682          185 
 1561000   0.63915322   -7.2684046    346.05252   0.01847387  0.017783272           99 
 1562000   0.63063761   -7.2755209    346.84645  0.018504399  0.017769773          190 
 1563000   0.63267247   -7.2586952    346.24075  0.018460266  0.017756308          193 
 1564000   0.63867324   -7.2752094    346.29626  0.018451421  0.017742819          133 
 1565000   0.62364692   -7.2634782    346.42471   0.01844647  0.017729351           73 
 1566000   0.64503643   -7.2439109    347.06911  0.018468982  0.017715908          142 
 1567000   0.62306212    -7.259859    346.75007  0.018440229  0.017702476          117 
 1568000   0.61401559   -7.2591856    346.74109  0.018427992  0.017689014          146 
 1569000    0.6212435   -7.2509317    346.39653  0.018397946  0.017675564          116 
 1570000   0.63304135   -7.2694377    346.44892  0.018389008  0.017662103          134 
 1571000   0.62788796   -7.2756065    346.66637  0.018388838  0.017648672          117 
 1572000   0.62717044   -7.2667286     346.4804  0.018367281  0.017635211          164 
 1573000   0.61454162   -7.2778835    346.70983   0.01836776  0.017621798          139 
 1574000   0.64821112   -7.2657412     346.5722  0.018348804  0.017608369          148 
 1575000   0.61208529   -7.2875212    346.35532  0.018325679  0.017594948          250 
 1576000   0.63107391   -7.2614163    346.23763  0.018307828  0.017581528          203 
 1577000    0.6280013   -7.2773311    346.15369  0.018291783  0.017568133          280 
 1578000   0.62404992   -7.2662472    346.31745  0.018288839  0.017554711          288 
 1579000   0.61944199   -7.3001783    346.33295  0.018278074  0.017541286          261 
 1580000    0.6182962   -7.2794963    346.44868  0.018272609  0.017527891          300 
 1581000   0.60758701   -7.2752881    346.34231  0.018255446  0.017514492          225 
 1582000   0.62386108   -7.2735245    346.14924  0.018233736  0.017501091          307 
 1583000   0.62510777   -7.3044231    345.89375  0.018208767  0.017487699          305 
 1584000    0.6239521   -7.2876071    346.10847  0.018208568  0.017474285          312 
 1585000   0.62097847   -7.2949306    345.65135  0.018173047  0.017460883          433 
 1586000   0.61968432   -7.2902324    345.68204  0.018163201  0.017447485          364 
 1587000   0.62758068    -7.304127    346.78583  0.018209716  0.017434096          285 
 1588000   0.60892027   -7.3043104    346.47773  0.018182081  0.017420741          400 
 1589000    0.6060404   -7.2933674    346.30674  0.018161671  0.017407397          377 
 1590000   0.61908906   -7.3089866    346.25733  0.018147659  0.017394065          398 
 1591000   0.61588637   -7.2962046    346.48796  0.018148332  0.017380722          341 
 1592000   0.61931362   -7.3055914    346.31682  0.018127974  0.017367381          443 
 1593000   0.61964542     -7.29784    346.75395  0.018139462  0.017354036          348 
 1594000   0.60632628   -7.3096589    346.34568  0.018106738  0.017340731          359 
 1595000   0.61995609    -7.316355    346.57381  0.018107304  0.017327405          300 
 1596000   0.62085861    -7.310464    345.96912  0.018064386  0.017314064          376 
 1597000   0.62484114   -7.2975947      345.775  0.018042945   0.01730075          326 
 1598000   0.63026982   -7.3001904    346.45741  0.018067241   0.01728743          409 
 1599000   0.60855828   -7.3119115    346.58586  0.018062636  0.017274121          451 
 1600000   0.61229589   -7.3081007    346.09686  0.018025878  0.017260836          310 
 1601000   0.62789953   -7.3071025    345.65157  0.017991441  0.017247582          414 
 1602000   0.61083423   -7.3017789    346.53288  0.018026055  0.017234315          400 
 1603000   0.60490806   -7.3080233    346.13811  0.017994287  0.017221028          400 
 1604000   0.62665263   -7.2991998    346.87525  0.018021366  0.017207805          462 
 1605000   0.61338433   -7.2908721    345.64959    0.0179465  0.017194606          328 
 1606000   0.60612495   -7.3126214    345.95713  0.017951283  0.017181404          431 
 1607000   0.62405253   -7.3167814    346.85903  0.017986882  0.017168203          474 
 1608000   0.61641211   -7.3082648    346.12785  0.017937803  0.017155004          453 
 1609000   0.60869452   -7.3101403    345.40592  0.017889265  0.017141817          550 
 1610000   0.62141625   -7.3061243    346.25325  0.017922011   0.01712864          476 
 1611000   0.61074223   -7.2903784    346.62529  0.017930131  0.017115461          360 
 1612000   0.61505843   -7.3244711    346.18963  0.017896486  0.017102309          448 
 1613000    0.6128134    -7.321477    346.43077  0.017897849  0.017089201          485 
 1614000   0.60982357   -7.3134912    346.26747  0.017878329  0.017076097          496 
 1615000    0.6147695   -7.3029954    346.42587  0.017875432   0.01706302          604 
 1616000   0.60559491   -7.3281582    346.07048  0.017846044  0.017049935          600 
 1617000   0.61506432    -7.317448    346.37271  0.017850583  0.017036847          516 
 1618000   0.61908903   -7.3180578    345.78985  0.017809531  0.017023787          508 
 1619000   0.60522136   -7.2975508    346.46247  0.017833151  0.017010689          524 
 1620000   0.62293202   -7.3341815    346.31303  0.017814456  0.016997603          465 
 1621000   0.59937282   -7.3285471    345.87361  0.017780877   0.01698453          592 
 1622000    0.5932751   -7.3184448    346.08862  0.017780961  0.016971458          487 
 1623000   0.60980317      -7.3449    345.25186  0.017727042  0.016958384          405 
 1624000   0.58602905   -7.3157182    345.95196   0.01775205  0.016945313          276 
 1625000   0.59889206    -7.321556    345.54718  0.017720368  0.016932253          561 
 1626000   0.59901471   -7.3389677     346.1359  0.017739642  0.016919187          558 
 1627000   0.60772367   -7.3421578    346.09014  0.017726395  0.016906108          544 
 1628000   0.60577828     -7.34564    345.73059  0.017697102   0.01689306          542 
 1629000   0.60257926   -7.3419979    345.79163  0.017689361  0.016880026          514 
 1630000   0.61150991    -7.343697    345.99158  0.017688731  0.016866985          535 
 1631000   0.59179144    -7.334355    345.40749  0.017648043  0.016853939          529 
 1632000   0.58508806   -7.3373175    345.98192  0.017666561  0.016840915          561 
 1633000    0.5898743   -7.3263562    346.25477  0.017669666  0.016827874          529 
 1634000   0.58515046   -7.3445125     345.8523  0.017638326  0.016814856          503 
 1635000   0.59463173   -7.3346591    345.54678  0.017611967  0.016801836          626 
 1636000   0.60057972   -7.3289681    346.00765  0.017624677  0.016788837          533 
 1637000   0.58470455   -7.3494454    346.11562  0.017619406  0.016775838          634 
 1638000   0.59147991   -7.3380518    345.91924  0.017598659  0.016762845          635 
 1639000   0.59529814   -7.3373848    346.13054  0.017598665  0.016749888          572 
 1640000   0.59369675   -7.3547248     346.1553  0.017589192  0.016736933          652 
 1641000   0.60561215   -7.3352506    346.30616  0.017586135  0.016723994          564 
 1642000   0.60117295    -7.349758    345.97715  0.017558727   0.01671108          581 
 1643000   0.59547429   -7.3529173    345.53879  0.017525806  0.016698159          649 
 1644000   0.59996419   -7.3541567    345.55236  0.017515834  0.016685249          680 
 1645000   0.61197446   -7.3402891    345.88808  0.017522192  0.016672319          711 
 1646000   0.59289106   -7.3567738    346.16451  0.017525542  0.016659392          663 
 1647000   0.60000626   -7.3553302    346.19754  0.017516573  0.016646477          655 
 1648000   0.59946296   -7.3518567    346.10003  0.017501013  0.016633559          794 
 1649000   0.59975026   -7.3531594    345.22837   0.01744635  0.016620643          842 
 1650000   0.59300669   -7.3460664    345.41396   0.01744515  0.016607744          829 
 1651000   0.61180322   -7.3635463    345.76446  0.017452274  0.016594846          772 
 1652000   0.60108191   -7.3818471    345.95836  0.017451491  0.016581943          828 
 1653000   0.58174773    -7.361319    345.64731  0.017425253  0.016569056          780 
 1654000   0.60138898   -7.3732771    346.26199  0.017445687  0.016556164          756 
 1655000   0.60205773   -7.3595429    344.97762  0.017370475   0.01654328          758 
 1656000    0.5881919   -7.3777072    345.27755  0.017375078  0.016530405          789 
 1657000   0.58452195   -7.3540806    345.86783  0.017394278  0.016517551          773 
 1658000   0.56831426   -7.3622316    345.73484  0.017377103   0.01650469          803 
 1659000   0.59711406   -7.3661185     345.1979  0.017339657  0.016491842          671 
 1660000   0.58664037   -7.3806381    345.29021  0.017333846  0.016478987          768 
 1661000   0.59916162   -7.3663681     345.5475  0.017336318  0.016466146          813 
 1662000   0.58912283   -7.3837424    345.27366  0.017312157  0.016453316          824 
 1663000   0.58971332    -7.364802     345.0063  0.017288349  0.016440474          810 
 1664000   0.56905763   -7.3573803    345.41679  0.017298517  0.016427654          843 
 1665000    0.5870821   -7.3947658    345.49351  0.017291968  0.016414834          684 
 1666000   0.59287962   -7.3741002    345.12671  0.017263241  0.016402018          822 
 1667000   0.57926889   -7.3751321    345.31185   0.01726214  0.016389214          818 
 1668000   0.58252143    -7.359517    345.71432  0.017271898  0.016376434          759 
 1669000   0.59381237   -7.3864875    344.64978  0.017208397  0.016363658          811 
 1670000    0.5859676   -7.3767067    344.14802  0.017173055  0.016350855          752 
 1671000   0.57867239   -7.3827284    345.07374  0.017208944  0.016338067          604 
 1672000   0.58652493   -7.3776026    344.67589  0.017178822  0.016325301          756 
 1673000   0.59276206   -7.3701318    344.75174  0.017172332  0.016312556          676 
 1674000   0.57373089   -7.3839825    345.27945  0.017188344  0.016299821          802 
 1675000   0.58224994    -7.376562    345.31268  0.017179735    0.0162871          734 
 1676000   0.57857974   -7.3864169    344.99434  0.017153657  0.016274375          776 
 1677000   0.59007467   -7.3750228    345.35876  0.017161536  0.016261662          779 
 1678000   0.58804645   -7.3976293     345.4205  0.017154375  0.016248951          841 
 1679000   0.58583014   -7.3962671    345.00527  0.017123549  0.016236228          806 
 1680000   0.59230998   -7.3918833    345.29078  0.017127519  0.016223512          804 
 1681000   0.57796223   -7.3912696    345.51985  0.017128686  0.016210806          846 
 1682000   0.58207268   -7.3891956    345.15582  0.017100467  0.016198116          681 
 1683000   0.57744899   -7.4017081    345.15495  0.017090263  0.016185435          776 
 1684000   0.57800523   -7.3891732    344.93518  0.017069239  0.016172775          773 
 1685000   0.58467039   -7.3820534    344.95325  0.017060002  0.016160093          695 
 1686000    0.5795179   -7.3920755    344.55261  0.017030081   0.01614742          729 
 1687000   0.57458717   -7.3932009    344.16567  0.017000873  0.016134767          748 
 1688000   0.58810886   -7.3892639    345.15245  0.017039517  0.016122131          742 
 1689000   0.58435086   -7.3912433    344.81353  0.017012706  0.016109496          794 
 1690000   0.56008905   -7.3972555    345.18021   0.01702072  0.016096876          811 
 1691000   0.58353294   -7.4163227    345.04814  0.017004146  0.016084261          844 
 1692000   0.57984777   -7.3978437    345.59338   0.01702095   0.01607167          719 
 1693000   0.56739067   -7.4049129    344.30307  0.016947385  0.016059054          856 
 1694000   0.58126857   -7.3881864    344.96344  0.016969866  0.016046454          727 
 1695000   0.55973797   -7.3929813    344.84501  0.016954032  0.016033858          796 
 1696000   0.56711904   -7.4122819    344.38783  0.016921572   0.01602126          851 
 1697000    0.5782282   -7.4214983    344.69371  0.016926621  0.016008699          742 
 1698000   0.57590139    -7.411269     345.2048  0.016941735  0.015996148          805 
 1699000    0.5625405   -7.4348144    344.90031  0.016916829  0.015983594          831 
 1700000   0.56395063   -7.4007732    344.40928  0.016882808  0.015971059          783 
 1701000    0.5791441   -7.4121511    344.88992   0.01689643  0.015958518          883 
 1702000   0.56578569    -7.404427    344.63494  0.016874018  0.015945992          815 
 1703000   0.57367314   -7.4175707    344.78261  0.016871335  0.015933476          762 
 1704000   0.58172604   -7.4096217    344.55639  0.016850371  0.015920961          802 
 1705000   0.57238263   -7.3910605    344.52989  0.016839193  0.015908438          800 
 1706000   0.58008157   -7.4133908    344.57013  0.016831288  0.015895938          831 
 1707000   0.56137044   -7.4304308    344.46381  0.016816238  0.015883447          873 
 1708000   0.57216831   -7.4227183    345.21435  0.016843011  0.015870974          880 
 1709000    0.5765503   -7.4236511    344.49798  0.016798224  0.015858512          849 
 1710000   0.56274585   -7.4415639     344.5044  0.016788713   0.01584604          877 
 1711000   0.56950175    -7.419839    344.18809  0.016763496  0.015833591          898 
 1712000   0.57516994   -7.4230925    344.00141  0.016744617  0.015821153          928 
 1713000   0.56903856   -7.4251815    344.67092  0.016767412  0.015808721          859 
 1714000   0.56713888    -7.423242    343.98123  0.016724097    0.0157963          866 
 1715000   0.56124712   -7.4294479    344.52494  0.016740765  0.015783891          938 
 1716000    0.5609565   -7.4313129    344.53007  0.016731258  0.015771482          949 
 1717000   0.56628049   -7.4359805    344.81791  0.016735484   0.01575909          972 
 1718000   0.56472852   -7.4406627    344.00252  0.016686191  0.015746712          923 
 1719000   0.56641914   -7.4293708    344.86631  0.016718359  0.015734345          972 
 1720000   0.57643955   -7.4433953    345.16004   0.01672287  0.015721988          855 
 1721000   0.56283925   -7.4217986    344.64421  0.016688176  0.015709639          916 
 1722000   0.57621696   -7.4435161    344.61577  0.016677109  0.015697298          899 
 1723000    0.5694075   -7.4208753    344.28486  0.016651425  0.015684996          928 
 1724000   0.56685969   -7.4156654    344.86298  0.016669711  0.015672686          895 
 1725000   0.56048877   -7.4173895    344.37975  0.016636703  0.015660391          994 
 1726000   0.56935635   -7.4112133    344.55709  0.016635626  0.015648091          943 
 1727000   0.56212823   -7.4256823    345.01164  0.016647927  0.015635811          946 
 1728000   0.56011799    -7.424515    344.89505   0.01663267  0.015623544          936 
 1729000   0.56817946   -7.4387308    344.89515  0.016623055  0.015611284         1025 
 1730000    0.5697106   -7.4414888    344.79929  0.016608829  0.015599024         1000 
 1731000   0.56772059   -7.4257542    344.30133  0.016575261  0.015586797          924 
 1732000   0.56746634   -7.4442527    344.63978  0.016581976  0.015574571          901 
 1733000   0.56377439   -7.4325784    343.86426  0.016535115   0.01556235          977 
 1734000   0.56476935   -7.4369128    344.75317  0.016568299  0.015550134          915 
 1735000   0.55226335   -7.4434019    343.87096  0.016516377  0.015537943          971 
 1736000   0.56526249   -7.4213286    344.01172   0.01651362  0.015525751          969 
 1737000   0.55168306   -7.4277323     344.2551  0.016515789  0.015513564          944 
 1738000   0.56839252    -7.447858    344.38375  0.016512454  0.015501411          930 
 1739000   0.56420249   -7.4375068    344.36573  0.016502095  0.015489248          929 
 1740000    0.5471642    -7.435367    344.58986  0.016503346   0.01547711          928 
 1741000   0.56049614   -7.4413748    344.58322  0.016493549  0.015464966          930 
 1742000   0.55279061   -7.4471701    344.88515  0.016498524  0.015452832          988 
 1743000   0.55335845   -7.4418854    344.51472  0.016471348  0.015440717          977 
 1744000   0.55623815   -7.4414196    344.84531    0.0164777  0.015428619          955 
 1745000   0.56014831   -7.4302695     344.3153  0.016442947  0.015416527          988 
 1746000   0.56235122   -7.4237781    344.48462  0.016441611  0.015404425         1020 
 1747000   0.57407082   -7.4281055    344.66608  0.016440855  0.015392351          995 
 1748000   0.56894316   -7.4241565    344.04484  0.016401832   0.01538029          979 
 1749000   0.55652231    -7.438418    343.91565    0.0163863   0.01536824         1009 
 1750000   0.56341384   -7.4391507    344.46413  0.016403054  0.015356182          957 
 1751000   0.55578309   -7.4413916     344.1495  0.016378712  0.015344147         1009 
 1752000   0.54437852   -7.4485839    344.30802  0.016376903  0.015332115         1060 
 1753000   0.55873817   -7.4286421    344.54229  0.016378698  0.015320093          958 
 1754000   0.55535359   -7.4700301    344.59921  0.016372065   0.01530806         1016 
 1755000   0.54779938   -7.4606858    344.30117  0.016348584  0.015296044         1014 
 1756000   0.55055435   -7.4484322    343.79998  0.016315489  0.015284031          970 
 1757000   0.56763508   -7.4391646     343.9828  0.016314874   0.01527203         1021 
 1758000   0.54995906     -7.44505    344.16201  0.016314089  0.015260031         1054 
 1759000   0.55279521   -7.4596747    343.98882  0.016296609  0.015248063         1078 
 1760000   0.55471835   -7.4449407    344.31493   0.01630279  0.015236094         1039 
 1761000   0.54698284   -7.4721573    344.19523  0.016287868  0.015224128         1060 
 1762000   0.54299359   -7.4365729    343.56281  0.016248714  0.015212178         1037 
 1763000   0.55148091   -7.4437982    344.04591  0.016262332  0.015200247         1035 
 1764000   0.54228899   -7.4466741    343.60323  0.016232201  0.015188323         1076 
 1765000   0.53482987   -7.4674183    344.83699  0.016281256  0.015176408         1057 
 1766000   0.53095929   -7.4512573    343.90216  0.016227924   0.01516451         1097 
 1767000   0.56157499   -7.4538485    344.68339  0.016255583  0.015152622         1113 
 1768000   0.54018104   -7.4631706    344.32957  0.016229712  0.015140743         1059 
 1769000   0.53757057   -7.4562701    343.76952  0.016194155  0.015128867         1065 
 1770000   0.54095395   -7.4686948    343.96705  0.016194306  0.015116985         1076 
 1771000   0.54060378   -7.4661667    344.09782  0.016191315  0.015105115         1076 
 1772000   0.55225451    -7.458132    344.15702  0.016184962  0.015093256         1036 
 1773000   0.55251709   -7.4392022    344.51819  0.016192808  0.015081409         1046 
 1774000   0.54577675   -7.4579278    343.70773  0.016145609  0.015069566         1004 
 1775000    0.5451444   -7.4744265    343.82023  0.016141795  0.015057733         1096 
 1776000   0.53036659   -7.4519122    343.82042  0.016132715  0.015045911         1110 
 1777000   0.54155241   -7.4593193    343.45141  0.016106331  0.015034106         1134 
 1778000   0.53509959   -7.4585518    343.90781  0.016118664  0.015022308          998 
 1779000   0.54983854   -7.4525664     343.9829  0.016113121  0.015010524         1057 
 1780000   0.54651887   -7.4435928    343.83504  0.016097146  0.014998741         1069 
 1781000   0.53908629   -7.4678245    344.13982  0.016102369  0.014986958         1062 
 1782000   0.54210207   -7.4654464     344.0812  0.016090591  0.014975188         1111 
 1783000   0.53031356   -7.4801792    343.59072  0.016058643  0.014963419         1159 
 1784000   0.54510392   -7.4505861    343.77112  0.016058068  0.014951672         1038 
 1785000     0.551502    -7.445662    343.81185  0.016050973  0.014939944         1025 
 1786000   0.54895507   -7.4520979    343.70472  0.016036988  0.014928216         1128 
 1787000   0.55096437   -7.4497248     343.3548  0.016011696  0.014916514         1107 
 1788000   0.54705946   -7.4632088    344.01922  0.016033707  0.014904809         1071 
 1789000   0.54669518   -7.4628408    343.60154  0.016005289   0.01489311         1143 
 1790000   0.54540428   -7.4647087    343.58924  0.015995774  0.014881415         1110 
 1791000   0.53678982    -7.446734     343.8383  0.015998432   0.01486975         1078 
 1792000   0.54185403   -7.4649267    343.97924  0.015996058  0.014858089         1057 
 1793000   0.53138608    -7.466982    343.49046   0.01596442  0.014846446         1035 
 1794000   0.52704295   -7.4764368    343.39219  0.015950957  0.014834776         1066 
 1795000   0.53951673   -7.4608766     343.6271  0.015952976  0.014823123         1035 
 1796000   0.53914168    -7.484541    344.02665  0.015962632  0.014811479          984 
 1797000   0.53282697   -7.4672665    344.00378  0.015952689  0.014799862         1058 
 1798000   0.53074584   -7.4447649    343.52872  0.015921798  0.014788261         1085 
 1799000   0.54662417   -7.4706921    343.53986  0.015913464  0.014776656         1052 
 1800000   0.53727315     -7.48824    344.30228   0.01593992  0.014765068         1089 
 1801000   0.53589602   -7.4638103    343.54143  0.015895865  0.014753489         1109 
 1802000   0.53797639   -7.4880532    344.55198  0.015933776  0.014741929         1091 
 1803000   0.52617619   -7.4689784    343.97213  0.015898139  0.014730378         1045 
 1804000   0.53075889   -7.4809884    343.56393   0.01587047  0.014718835         1138 
 1805000   0.53423553    -7.478212    343.37418  0.015852917  0.014707287         1110 
 1806000    0.5263907   -7.4853565    343.92554   0.01586958  0.014695746         1150 
 1807000   0.52415829   -7.4648803    343.34191  0.015833882  0.014684224         1091 
 1808000   0.53742055   -7.4720053    344.23343  0.015866216  0.014672719         1097 
 1809000   0.54185468   -7.4651661    343.68051  0.015831975  0.014661212         1139 
 1810000   0.53087569   -7.4809763    343.72369  0.015825216  0.014649694         1145 
 1811000   0.52952826   -7.4960553    343.66973  0.015813994  0.014638184         1137 
 1812000   0.54088802   -7.4739763    343.28352  0.015787506  0.014626692         1086 
 1813000    0.5325751   -7.4850854     344.0158  0.015812456  0.014615207         1100 
 1814000   0.53234849   -7.4690565    343.09905  0.015761625  0.014603736         1098 
 1815000   0.52853131   -7.4961038    343.41793  0.015767582  0.014592257         1102 
 1816000   0.51960905   -7.4820202    343.35612  0.015756063  0.014580789         1039 
 1817000   0.53145285   -7.4853223    343.56795  0.015757106  0.014569342         1107 
 1818000   0.53470546   -7.5056025    343.44086  0.015742613  0.014557898         1052 
 1819000   0.53468575    -7.488418    344.03205  0.015761043  0.014546457         1095 
 1820000   0.51370045   -7.4942663    344.06077  0.015753698  0.014535041         1094 
 1821000   0.51775135    -7.479213     343.1906  0.015705226  0.014523625         1072 
 1822000   0.52123471   -7.5001114    343.09752  0.015692349  0.014512213         1053 
 1823000   0.53285489   -7.4858321    343.08012  0.015682946  0.014500814         1075 
 1824000   0.53538549   -7.4945546    343.58296  0.015697321  0.014489415         1107 
 1825000    0.5174404   -7.5027543    343.47918  0.015683981  0.014478029         1150 
 1826000   0.51993399    -7.498193    343.00177  0.015653604  0.014466658         1129 
 1827000   0.51448434   -7.4935054    343.05493  0.015647461   0.01445529         1103 
 1828000   0.52041766   -7.4806046    342.61654  0.015618916  0.014443936         1087 
 1829000   0.52594864   -7.4940067    342.83636  0.015620392  0.014432589         1056 
 1830000   0.51637191   -7.5000731    342.92682  0.015615976  0.014421255         1142 
 1831000   0.52404023   -7.4806029    343.29631  0.015624263  0.014409923         1095 
 1832000   0.52582595   -7.5053814     343.5178   0.01562581  0.014398607         1103 
 1833000   0.52397502   -7.4960712    343.27564  0.015606275  0.014387292         1095 
 1834000   0.52173682   -7.4852841    343.00191  0.015585328  0.014375996         1048 
 1835000   0.51294759   -7.5068137     342.7543   0.01556559    0.0143647         1071 
 1836000   0.51404202   -7.5003679    342.99303  0.015567948  0.014353416         1109 
 1837000   0.51097928   -7.5111633    343.24487  0.015570898  0.014342147         1070 
 1838000   0.50680346   -7.5156576     342.8325   0.01554373  0.014330878         1162 
 1839000    0.5232022   -7.5047256    343.04229  0.015544784  0.014319611         1122 
 1840000   0.52737849   -7.4989556     342.6813  0.015519986  0.014308358         1168 
 1841000   0.52504881   -7.5031765    342.71988  0.015513303  0.014297123         1088 
 1842000   0.51351668   -7.5041928    342.96128  0.015515802  0.014285912         1117 
 1843000   0.52850146   -7.5229768    343.57487  0.015535127  0.014274701         1139 
 1844000   0.51292478   -7.4993838    343.00796  0.015501083  0.014263498         1100 
 1845000   0.52233016   -7.5295319    342.85946  0.015485974  0.014252292         1110 
 1846000   0.51718117   -7.5055027    342.69999  0.015470386    0.0142411         1089 
 1847000   0.52234624    -7.497348    343.17032  0.015483231  0.014229922         1112 
 1848000   0.50458447   -7.5002165    343.12234  0.015472688  0.014218756         1083 
 1849000   0.52636497   -7.5049887    342.97808  0.015457819  0.014207606         1082 
 1850000   0.51291655   -7.5032437     342.5823  0.015431635  0.014196469         1137 
 1851000   0.51580014   -7.5089865    342.79825   0.01543302  0.014185339         1102 
 1852000   0.50833823   -7.5163949    343.39282  0.015451441  0.014174214         1162 
 1853000   0.51527285   -7.5030473    343.28075  0.015438062  0.014163091         1083 
 1854000   0.51641445    -7.508481    342.78117   0.01540728  0.014151978         1174 
 1855000   0.51316275   -7.5248959    343.28084  0.015421422   0.01414088         1080 
 1856000    0.5125989   -7.5156417    342.32891  0.015370371  0.014129794         1142 
 1857000   0.51582756     -7.51632     342.6984  0.015378675  0.014118716         1137 
 1858000   0.50620815     -7.50466    343.02027  0.015384835  0.014107652         1196 
 1859000   0.51868696   -7.5235619    342.78786   0.01536614  0.014096602         1173 
 1860000   0.51256994    -7.509531    343.00916  0.015367794  0.014085551         1127 
 1861000   0.50897943     -7.52046    342.89723  0.015354524  0.014074529         1155 
 1862000    0.5122715   -7.5244831    343.15042  0.015357609  0.014063516         1134 
 1863000   0.51404952   -7.4986255    343.09477  0.015346877  0.014052508         1168 
 1864000   0.49997931   -7.5190351    342.92623  0.015331108  0.014041505         1089 
 1865000   0.50788365   -7.5303189    342.16121  0.015288705  0.014030514         1157 
 1866000   0.51815417   -7.5154346    342.72908  0.015305872  0.014019527         1124 
 1867000   0.50833557   -7.5261247    343.06181  0.015312525  0.014008559         1132 
 1868000   0.49718856   -7.5310914    343.06997  0.015304692  0.013997604         1158 
 1869000   0.50877322   -7.5334509    342.94096  0.015290751  0.013986657         1157 
 1870000   0.50962879   -7.5187851    342.73436  0.015273367  0.013975714         1163 
 1871000   0.50746785   -7.5124386    342.07137  0.015235675   0.01396477         1159 
 1872000   0.49934637   -7.5261643    342.45545  0.015244634   0.01395384         1183 
 1873000    0.5015443   -7.5270957    342.66611  0.015245867   0.01394292         1174 
 1874000   0.50356504   -7.5243835    343.03335  0.015254062  0.013932007         1168 
 1875000   0.50629121   -7.5333215    342.52915  0.015223518  0.013921119         1112 
 1876000   0.51446381   -7.5203037    342.90418  0.015232062  0.013910235         1096 
 1877000   0.50020909   -7.5208717    342.90552  0.015224006  0.013899357         1170 
 1878000   0.50824718   -7.5240645     342.5968  0.015202201  0.013888493         1182 
 1879000   0.49928841   -7.5300255    342.92779   0.01520879  0.013877633         1143 
 1880000   0.50654092   -7.5372289    342.70228  0.015190704  0.013866791         1163 
 1881000   0.50284512   -7.5458865    343.25593  0.015207156   0.01385595         1156 
 1882000   0.50919518    -7.519651    342.33246  0.015158185  0.013845112         1164 
 1883000   0.50494235    -7.522599    342.48109  0.015156713  0.013834288         1168 
 1884000   0.49997084   -7.5321602    342.35249   0.01514298  0.013823473         1123 
 1885000   0.50749668   -7.5357889    342.71108  0.015150799  0.013812677         1151 
 1886000   0.49098159   -7.5508531    342.53818  0.015135126  0.013801869         1164 
 1887000   0.50549517    -7.546091    342.57684  0.015128813  0.013791073         1156 
 1888000   0.50543915   -7.5420857    342.55608  0.015119884  0.013780286         1115 
 1889000   0.50038386    -7.532265    342.24277  0.015098058  0.013769519         1182 
 1890000   0.49480022    -7.518449     341.9376  0.015076614  0.013758753         1184 
 1891000   0.50715772   -7.5214193    343.02648  0.015116626  0.013748003         1149 
 1892000   0.51843811    -7.531159    342.75535  0.015096695  0.013737268         1172 
 1893000   0.50195045   -7.5287115    342.46798  0.015076069  0.013726529         1146 
 1894000   0.50601946   -7.5229646    342.26182  0.015059038  0.013715797         1216 
 1895000   0.50000148    -7.532343    342.48318  0.015060826  0.013705062         1176 
 1896000   0.49542327   -7.5448125    342.37388  0.015048078  0.013694348         1185 
 1897000   0.48836227   -7.5460879    342.69032  0.015054047  0.013683648         1159 
 1898000   0.50142981   -7.5391262    342.29593  0.015028799  0.013672947         1194 
 1899000   0.49727817   -7.5454178    342.47449  0.015028721  0.013662261         1169 
 1900000    0.4986399   -7.5314291    342.22391  0.015009821  0.013651579         1145 
 1901000   0.48949802    -7.535955    342.31768  0.015006035  0.013640904         1189 
 1902000   0.49500809   -7.5363092    342.26677  0.014995915  0.013630243         1167 
 1903000   0.48825317   -7.5438632    342.02074  0.014977261  0.013619594         1201 
 1904000   0.48875421   -7.5600849    342.15302  0.014975185  0.013608949         1208 
 1905000   0.49587693   -7.5429881    342.53859   0.01498419  0.013598319         1189 
 1906000   0.48461536   -7.5439634     342.1983  0.014961451  0.013587699         1166 
 1907000   0.48789228   -7.5475974     341.8738  0.014939425  0.013577082         1165 
 1908000   0.50176172   -7.5473869    342.33485  0.014951732  0.013566484         1165 
 1909000   0.49852728   -7.5355891    342.09913  0.014933609   0.01355589         1103 
 1910000   0.49342605   -7.5561404    342.04687  0.014923511  0.013545307         1196 
 1911000   0.48252869   -7.5480306    342.05771  0.014916174  0.013534742         1134 
 1912000   0.49140788    -7.537706     341.6556  0.014890847  0.013524174         1130 
 1913000   0.48705665   -7.5400667    342.61744  0.014924962  0.013513618         1173 
 1914000   0.49349087   -7.5613068    341.96645  0.014888821  0.013503078         1178 
 1915000     0.481755    -7.530321    342.58692  0.014908047  0.013492548         1184 
 1916000   0.47859694   -7.5690156    342.30223  0.014887884  0.013482032         1197 
 1917000   0.48055299   -7.5566105    342.10201  0.014871414  0.013471516         1159 
 1918000      0.48646   -7.5732124     342.5965  0.014885145  0.013461025         1161 
 1919000   0.48519318    -7.545671    342.11315  0.014856399  0.013450532         1169 
 1920000   0.48996999   -7.5575086     341.9788   0.01484283  0.013440056         1195 
 1921000   0.48284552   -7.5451875    342.16596  0.014843222  0.013429577         1151 
 1922000   0.49268562   -7.5673164    342.12474  0.014833712  0.013419118         1148 
 1923000   0.50093694   -7.5640059    342.11364  0.014825518  0.013408658         1156 
 1924000   0.48586231   -7.5417218    342.23727  0.014823166  0.013398214         1144 
 1925000   0.48217793    -7.548359     342.4226  0.014823489  0.013387776         1193 
 1926000   0.47561176    -7.551821    342.53688  0.014820737  0.013377354         1157 
 1927000   0.47768892   -7.5531875    341.87664  0.014784494  0.013366936         1167 
 1928000   0.48450996   -7.5630881    342.39457  0.014799212  0.013356516         1155 
 1929000   0.48222617    -7.554536    341.86212  0.014768538  0.013346109         1105 
 1930000   0.48822319   -7.5582956    342.36736  0.014782701   0.01333571         1179 
 1931000   0.47420276   -7.5483093    341.93072  0.014756202  0.013325326         1175 
 1932000   0.47978294   -7.5479715     341.9988  0.014751501  0.013314951         1194 
 1933000    0.4827011   -7.5805688    342.82221  0.014779367   0.01330459         1152 
 1934000   0.49806781   -7.5609213    342.30554  0.014749463  0.013294236         1201 
 1935000    0.5003066   -7.5599729    342.44166  0.014747703  0.013283891         1172 
 1936000   0.47341503   -7.5614447    342.07093  0.014724128  0.013273554         1140 
 1937000   0.48204293   -7.5646542    342.08019  0.014716924  0.013263231         1197 
 1938000    0.4708273   -7.5604661    342.10227   0.01471028  0.013252923         1167 
 1939000   0.48597725    -7.555753    342.34525  0.014713136  0.013242613         1112 
 1940000   0.47365251   -7.5665538    341.53151  0.014670597  0.013232299         1143 
 1941000    0.4758889   -7.5671228    341.77791  0.014673618  0.013222002         1142 
 1942000   0.48181106   -7.5625789    341.94915   0.01467341  0.013211713         1194 
 1943000    0.4803964   -7.5652362    342.35731  0.014683364   0.01320144         1230 
 1944000   0.47089257   -7.5620635    341.98305  0.014659767  0.013191168         1151 
 1945000   0.47710286    -7.571516    342.25878  0.014664044  0.013180923         1162 
 1946000   0.47619893   -7.5497494    341.69197  0.014632236  0.013170683         1229 
 1947000   0.47954358   -7.5721981    341.44681  0.014614228  0.013160447         1268 
 1948000    0.4746815   -7.5719051    341.60436  0.014613465  0.013150224         1256 
 1949000   0.47164476   -7.5454545    342.33615  0.014637256  0.013140007         1190 
 1950000   0.46421269   -7.5713163    342.11826  0.014620438  0.013129792         1167 
 1951000    0.4717025   -7.5888589    342.02675  0.014609036  0.013119591         1186 
 1952000   0.47033587   -7.5685675    342.00814  0.014600757  0.013109406         1184 
 1953000   0.47358748   -7.5844076    342.13993  0.014598905  0.013099216         1203 
 1954000   0.47503048   -7.5795026    341.90419   0.01458138  0.013089035         1192 
 1955000   0.47688283   -7.5615547    342.16091  0.014584864  0.013078865         1154 
 1956000   0.47545818   -7.5570964     341.6492  0.014555607   0.01306871         1135 
 1957000    0.4758094   -7.5899197    341.68071  0.014549511  0.013058555         1179 
 1958000   0.47870905   -7.5736228    341.69586  0.014542725  0.013048421         1143 
 1959000   0.48547663   -7.5551387    341.57589  0.014530198  0.013038302         1186 
 1960000   0.47369884    -7.573642    342.00245   0.01454092  0.013028186         1188 
 1961000   0.45377341   -7.5808729    341.60423  0.014516583  0.013018078         1189 
 1962000     0.470002   -7.5896093    341.79192  0.014517156  0.013007963         1181 
 1963000   0.46910435   -7.5799499    341.56601   0.01450017  0.012997872         1225 
 1964000   0.47423043   -7.5784167    341.64488  0.014496134  0.012987794         1192 
 1965000   0.47849941   -7.5798515    342.05218   0.01450603  0.012977719         1271 
 1966000   0.47464105   -7.5796858    341.74779  0.014485749  0.012967655         1151 
 1967000   0.47179868    -7.581628    341.38098  0.014462844  0.012957603         1171 
 1968000   0.46217936   -7.5784957    341.66741  0.014467624  0.012947559         1152 
 1969000   0.47279393    -7.553107     341.8894  0.014469671  0.012937521         1185 
 1970000   0.46910166   -7.5769639     341.5704  0.014448833  0.012927494         1197 
 1971000   0.47203239     -7.58742    342.01381  0.014460249  0.012917477         1199 
 1972000   0.46740645   -7.5894118    342.01237  0.014452855  0.012907476         1193 
 1973000   0.46132123   -7.5885441    341.33196  0.014416792   0.01289747         1215 
 1974000   0.46945269   -7.5889124    341.95429   0.01443576  0.012887471         1169 
 1975000   0.45963974   -7.5792578    341.68127  0.014416931  0.012877481         1172 
 1976000    0.4608147   -7.5742991    341.31799  0.014394315  0.012867499         1264 
 1977000   0.46564372   -7.5836506    341.74451  0.014405012  0.012857539         1215 
 1978000   0.46365351   -7.5830476    341.03544  0.014367857  0.012847584         1228 
 1979000   0.46141196   -7.5854989     341.7477  0.014390589   0.01283764         1197 
 1980000   0.45992044   -7.5983345    341.52106  0.014373782  0.012827707         1172 
 1981000   0.46525835   -7.5667298    341.23118  0.014354332  0.012817788         1211 
 1982000   0.47863591   -7.5919097    342.02221  0.014380349   0.01280788         1244 
 1983000   0.47321304   -7.5934087    341.50287  0.014351272  0.012797976         1223 
 1984000   0.47167941   -7.5887204    341.50322  0.014344053   0.01278808         1338 
 1985000   0.46270602   -7.5852465    341.87289  0.014352346  0.012778193         1226 
 1986000   0.46559038   -7.5773497    342.12594  0.014355738  0.012768318         1245 
 1987000   0.44835164   -7.5960656    341.54828  0.014324286  0.012758448         1263 
 1988000   0.45531217   -7.5734981    341.78881  0.014327163  0.012748596         1218 
 1989000   0.46349004   -7.6022784     341.9057  0.014324857  0.012738742         1219 
 1990000   0.45710862   -7.5955323    341.72517  0.014310099  0.012728905         1242 
 1991000   0.46427385   -7.5784085    341.30298  0.014285241  0.012719065         1191 
 1992000   0.45680404   -7.6041682    341.50383  0.014286472  0.012709241         1222 
 1993000   0.45926824   -7.5832313    341.65629  0.014285678  0.012699437         1253 
 1994000    0.4594468   -7.5919926    341.26406  0.014262122  0.012689627         1226 
 1995000   0.44140152   -7.6007859    341.46294  0.014263281  0.012679837         1219 
 1996000   0.44714363   -7.6141832    341.43749  0.014255072  0.012670044         1246 
 1997000   0.45319117   -7.5895131    341.53048  0.014251815  0.012660264         1170 
 1998000   0.46160215   -7.6045867    341.67473  0.014250698  0.012650493         1180 
 1999000   0.46144804    -7.599671    340.91871  0.014212052  0.012640727         1230 
 2000000    0.4562867   -7.5958814    341.32053  0.014221689  0.012630973         1296 
 2001000   0.45445776   -7.5909767    341.46987  0.014220801  0.012621237         1245 
 2002000   0.46096907     -7.60819    341.40144  0.014210849    0.0126115         1220 
 2003000   0.44338298   -7.6092003    341.51762  0.014208588  0.012601773         1302 
 2004000   0.45146308   -7.6018492    341.86181   0.01421581  0.012592052         1239 
 2005000   0.46062446   -7.6030155    341.15009  0.014179139  0.012582345         1263 
 2006000    0.4477116   -7.6199699    341.45891    0.0141849  0.012572641         1163 
 2007000   0.45965937   -7.6023604    341.19304  0.014166793  0.012562939         1235 
 2008000   0.44574507   -7.6015315    341.28463  0.014163539  0.012553256         1130 
 2009000   0.44802959   -7.5968053    340.91525  0.014141167  0.012543567         1206 
 2010000   0.45888073   -7.6115165    341.22076  0.014146798    0.0125339         1288 
 2011000   0.45284937   -7.6108153    340.72573   0.01411925   0.01252424         1257 
 2012000   0.45109068   -7.6158428    341.31452  0.014136619  0.012514589         1191 
Loop time of 4277.53 on 48 procs for 2000000 steps with 4000 atoms

Performance: 80794.360 tau/day, 467.560 timesteps/s
99.4% CPU use with 48 MPI tasks x no OpenMP threads

MPI task timing breakdown:
Section |  min time  |  avg time  |  max time  |%varavg| %total
---------------------------------------------------------------
Pair    | 261.78     | 278.52     | 296.82     |  35.8 |  6.51
Neigh   | 26.808     | 27.301     | 28.438     |   5.5 |  0.64
Comm    | 230.23     | 248.68     | 271.88     |  51.4 |  5.81
Output  | 4.1751     | 4.1767     | 4.2096     |   0.2 |  0.10
Modify  | 3651.7     | 3670.9     | 3688.9     |  16.3 | 85.82
Other   |            | 47.91      |            |       |  1.12

Nlocal:        83.3333 ave          90 max          75 min
Histogram: 1 2 1 3 11 6 11 8 2 3
Nghost:        1770.15 ave        1786 max        1753 min
Histogram: 4 1 3 6 5 13 5 4 4 3
Neighs:        10778.4 ave       11765 max        9865 min
Histogram: 2 4 5 7 9 6 6 6 1 2
FullNghs:      21557.0 ave       23442 max       19468 min
Histogram: 2 1 3 7 6 11 9 6 0 3

Total # of neighbors = 1034734
Ave neighs/atom = 258.68350
Neighbor list builds = 107886
Dangerous builds = 0

#clear
#
#next RN
#
#jump SELF
Total wall time: 1:11:20
