
units lj                  # Use reduced LJ style units
atom_style atomic         # Uncharged point particles
atom_modify map hash      # Needed for indexing of clusters etc
                          # Used to be able to find where atoms are in relation to each other.

lattice fcc 1.0 spacing 1 1 1
Lattice spacing in x,y,z = 1.5874011 1.5874011 1.5874011
region box block 0 10 0 10 0 10 units lattice
create_box 2 box
Created orthogonal box = (0.0000000 0.0000000 0.0000000) to (15.874011 15.874011 15.874011)
  3 by 4 by 4 MPI processor grid
create_atoms 1 box
Created 4000 atoms
  using lattice units in orthogonal box = (0.0000000 0.0000000 0.0000000) to (15.874011 15.874011 15.874011)
  create_atoms CPU = 0.007 seconds
set type 1 type/fraction 2 0.32 78393
Setting atom values ...
  1310 settings made for type/fraction
mass 1 1.0
mass 2 1.0
pair_style lj/cut  3.5
pair_modify tail  yes
pair_coeff 1  1  1.0  1.0   # Intearaction between 1 and 1 set with epsilon = 1 and sigma = 1
pair_coeff 1  2  1.5  0.8
pair_coeff 2  2  0.5  0.88

write_data data.0
System init for write_data ...
Neighbor list info ...
  update every 1 steps, delay 10 steps, check yes
  max neighbors/atom: 2000, page size: 100000
  master list distance cutoff = 3.8
  ghost atom cutoff = 3.8
  binsize = 1.9, bins = 9 9 9
  1 neighbor lists, perpetual/occasional/extra = 1 0 0
  (1) pair lj/cut, perpetual
      attributes: half, newton on
      pair build: half/bin/atomonly/newton
      stencil: half/bin/3d
      bin: standard
WARNING: Not all mixed pair coeffs generated from mixing. Use write_data with 'pair ij' option to store all pair coeffs. (../write_data.cpp:312)


#############################
#   M E L T   S Y S T E M   #
#############################

velocity all create 2.4 5300450 mom yes dist gaussian # Assign velocities
                                                    # Temperature 2.4, random number seed, zero linear momentum
                                                                                # Gaussian distribution

timestep 0.002   # simulation timestep
thermo 1000       # output thermodynamic data every 1000 steps bf 100

# Define a fix  in this case with index 1 applied to all
# particles in the simulation. This fix is for simulations
# in the anisotropic NPT ensemble. Note that we use the MTK
# correction.
fix 1 all npt temp 2.4 2.4 0.1 iso 5.68 5.68 0.5 mtk yes tchain 5 pchain 5 # Use NPT ensemble
                                                                         # Set temperature and pressure and damping
                                                                         # Numbers of thermostats in chain and in barostat
run 10000          # run for 10000 steps
Per MPI rank memory allocation (min/avg/max) = 3.642 | 3.644 | 3.648 Mbytes
Step Temp E_pair E_mol TotEng Press Volume 
       0          2.4   -6.3097323            0   -2.7106323   -4.0355096         4000 
    1000    2.4060333   -4.9374044            0   -1.3292567    5.8670068    4108.4669 
    2000    2.3598016   -4.9844118            0   -1.4455944    5.5180273    4110.3217 
    3000    2.4225099    -5.045045            0   -1.4121886    5.7059025    4072.7873 
    4000    2.4112596   -4.9476937            0   -1.3317084    5.4884397    4140.8841 
    5000    2.4240772    -4.952259            0   -1.3170523    5.5213128    4132.5317 
    6000    2.3983086   -4.9915368            0   -1.3949733    5.5691129    4097.8173 
    7000    2.3702936   -5.0226706            0    -1.468119    5.7364788    4080.5066 
    8000    2.3413073   -5.0285175            0   -1.5174346    5.5525624    4084.9358 
    9000    2.3953591   -4.9887741            0   -1.3966338    5.6631606    4103.7958 
   10000    2.3392468   -4.9890118            0   -1.4810189    5.6162616    4097.6168 
Loop time of 2.43283 on 48 procs for 10000 steps with 4000 atoms

Performance: 710284.729 tau/day, 4110.444 timesteps/s
99.6% CPU use with 48 MPI tasks x no OpenMP threads

MPI task timing breakdown:
Section |  min time  |  avg time  |  max time  |%varavg| %total
---------------------------------------------------------------
Pair    | 1.0679     | 1.1324     | 1.1984     |   2.4 | 46.54
Neigh   | 0.20506    | 0.21113    | 0.21649    |   0.5 |  8.68
Comm    | 0.75048    | 0.83453    | 0.89012    |   3.3 | 34.30
Output  | 0.00024708 | 0.00025353 | 0.0003267  |   0.0 |  0.01
Modify  | 0.20559    | 0.23904    | 0.25938    |   3.0 |  9.83
Other   |            | 0.01552    |            |       |  0.64

Nlocal:        83.3333 ave          94 max          72 min
Histogram: 2 1 4 5 9 12 9 0 3 3
Nghost:        1610.52 ave        1640 max        1575 min
Histogram: 1 0 7 4 6 10 9 5 4 2
Neighs:        9306.62 ave       10689 max        8132 min
Histogram: 5 3 5 8 6 9 5 2 1 4

Total # of neighbors = 446718
Ave neighs/atom = 111.67950
Neighbor list builds = 898
Dangerous builds = 154

# Equilibrate just above the melting temperature to avoid step fn in T

fix 1 all npt temp 1.25 1.25 0.1 iso 5.68 5.68 0.5 mtk yes tchain 5 pchain 5
run 2000
Per MPI rank memory allocation (min/avg/max) = 3.643 | 3.645 | 3.649 Mbytes
Step Temp E_pair E_mol TotEng Press Volume 
   10000    2.3392468   -4.9890118            0   -1.4810189    5.6162616    4097.6168 
   11000    1.2522598   -6.9023711            0    -5.024451    5.6082826    3287.3432 
   12000    1.2383485   -6.9400941            0   -5.0830357    5.4400193    3285.5621 
Loop time of 0.582863 on 48 procs for 2000 steps with 4000 atoms

Performance: 592935.606 tau/day, 3431.340 timesteps/s
99.6% CPU use with 48 MPI tasks x no OpenMP threads

MPI task timing breakdown:
Section |  min time  |  avg time  |  max time  |%varavg| %total
---------------------------------------------------------------
Pair    | 0.26038    | 0.27836    | 0.30233    |   1.8 | 47.76
Neigh   | 0.037877   | 0.040396   | 0.043462   |   0.5 |  6.93
Comm    | 0.18357    | 0.21332    | 0.23286    |   2.3 | 36.60
Output  | 5.4663e-05 | 6.8855e-05 | 7.9941e-05 |   0.0 |  0.01
Modify  | 0.04264    | 0.045926   | 0.049313   |   0.9 |  7.88
Other   |            | 0.004795   |            |       |  0.82

Nlocal:        83.3333 ave          91 max          71 min
Histogram: 1 0 0 2 8 4 18 7 4 4
Nghost:        1871.21 ave        1907 max        1850 min
Histogram: 2 9 6 13 6 6 2 3 0 1
Neighs:        11635.9 ave       13345 max        9805 min
Histogram: 1 0 5 5 12 10 9 2 3 1

Total # of neighbors = 558521
Ave neighs/atom = 139.63025
Neighbor list builds = 143
Dangerous builds = 8

#############################
# L I N E A R  Q U E N C H  #
#############################

# Define solid atoms. This closely follows ten Wolde  Ruiz-Montero and Frenkel  Faraday Discuss  1996  104  93-110
# Compute components of the per-atom q6 vector
compute q6 all orientorder/atom degrees 1 6 components 6 nnn NULL cutoff 1.3 # compute the Q6 parameter.
                                                                             # Use all neighbours within 1.3 unit cell.

# get number of connections
compute coord_number all coord/atom orientorder q6 0.5

# An atom is solid if it has 8 or more connections (of a possible 14)
variable is_solid atom c_coord_number>=8
group solid dynamic all var is_solid    # Must be dynamic to update
dynamic group solid defined

# do clustering
compute cluster solid cluster/atom 1.3 # Create a cluster where all atoms within are solid and max 1.3 units from another member

# define chunks one chunk per cluster
compute clus_chunks solid chunk/atom c_cluster nchunk every compress yes  # Says which atoms are in which chunk

# count the size of each chunk
compute size_chunks solid property/chunk clus_chunks count


# Find the maximum entry in the vector of chunk sizes
variable max_n equal max(c_size_chunks)


# Thermo style which includes this variable
# thermo_style custom step temp pe vol v_max_n

thermo ${N}  # Print the thermo information every 100 steps
thermo 1000  

# Reset the npt fix at a lower temperature (below freezing)
fix 1  all npt temp  ${temp} ${temp}  0.1  iso  5.68  5.68  0.5  mtk yes tchain  5  pchain  5
fix 1  all npt temp  0.45 ${temp}  0.1  iso  5.68  5.68  0.5  mtk yes tchain  5  pchain  5
fix 1  all npt temp  0.45 0.45  0.1  iso  5.68  5.68  0.5  mtk yes tchain  5  pchain  5

dump dmp2 all dcd ${N} traj.dcd
dump dmp2 all dcd 1000 traj.dcd


compute msd all msd com yes
variable twopoint equal c_msd[4]/6/(step*dt+1.0e-6)
fix 9 all vector 10 c_msd[4]
variable fit equal slope(f_9)/6/(10*dt)
thermo_style custom step temp pe c_msd[4] v_twopoint v_fit v_max_n

fix 1 all npt temp 1.25 ${temp} 0.1 iso 5.68 5.68 0.5 mtk yes tchain 5 pchain 5
fix 1 all npt temp 1.25 0.45 0.1 iso 5.68 5.68 0.5 mtk yes tchain 5 pchain 5
run 500000 # 5000000  # Run for this many steps
Neighbor list info ...
  update every 1 steps, delay 10 steps, check yes
  max neighbors/atom: 2000, page size: 100000
  master list distance cutoff = 3.8
  ghost atom cutoff = 3.8
  binsize = 1.9, bins = 8 8 8
  4 neighbor lists, perpetual/occasional/extra = 1 3 0
  (1) pair lj/cut, perpetual
      attributes: half, newton on
      pair build: half/bin/atomonly/newton
      stencil: half/bin/3d
      bin: standard
  (2) compute orientorder/atom, occasional
      attributes: full, newton on
      pair build: full/bin/atomonly
      stencil: full/bin/3d
      bin: standard
  (3) compute coord/atom, occasional
      attributes: full, newton on
      pair build: full/bin/atomonly
      stencil: full/bin/3d
      bin: standard
  (4) compute cluster/atom, occasional
      attributes: full, newton on
      pair build: full/bin/atomonly
      stencil: full/bin/3d
      bin: standard
Per MPI rank memory allocation (min/avg/max) = 9.813 | 9.818 | 9.823 Mbytes
Step Temp PotEng c_msd[4] v_twopoint v_fit v_max_n 
   12000    1.2383485   -6.9400941 1.8297629e-30 1.2706686e-32 8.3333333e+20            2 
   13000    1.2503031   -6.9474196   0.52304667 0.0033528631  0.043162558            1 
   14000    1.2635918   -6.9241715    1.0142306 0.0060370864  0.041878564            2 
   15000    1.2437931    -6.960165    1.4401018 0.0080005652  0.039928213            1 
   16000    1.2397111   -6.9708941    1.9128134 0.0099625695  0.038774042            4 
   17000    1.2272645   -6.9551327    2.3031306  0.011289856   0.03816285            1 
   18000    1.2198005   -6.9564709     2.731915  0.012647754  0.037396822            1 
   19000    1.2544624    -6.963985    3.1736298  0.013919428  0.036982372            2 
   20000    1.2366934   -6.9816254    3.6806218  0.015335924  0.037012899            1 
   21000    1.2199858    -6.989477     4.162769  0.016518924  0.037378049            3 
   22000    1.2011927   -6.9855018    4.5660172  0.017295519  0.037579358       -1e+20 
   23000    1.2266157    -6.966029    4.9615784  0.017976733  0.037384658            1 
   24000    1.2320959    -6.973377     5.352126   0.01858377  0.037096597            3 
   25000    1.2319978   -6.9439323    5.8373033  0.019457677  0.036929266            3 
   26000    1.2043391   -6.9724478    6.2924128  0.020167989  0.036877451            3 
   27000     1.236069   -6.9746436    6.6448583  0.020508822  0.036770452            1 
   28000    1.2303713   -6.9786195    7.0111521  0.020866524  0.036553898            3 
   29000    1.2094932   -7.0055938    7.4567731  0.021427509  0.036350701            2 
   30000    1.2023948   -7.0451304    7.8026019  0.021673894  0.036179596            1 
   31000    1.1985096    -7.011622    8.1918248  0.022021034  0.035966737            3 
   32000    1.2081981   -7.0036933    8.6565964  0.022543219  0.035778695            1 
   33000    1.2235229    -7.005128    9.0526305  0.022860178  0.035635414            2 
   34000    1.2368913   -6.9787604    9.4487387  0.023158673  0.035509305            2 
   35000    1.2344309   -7.0627515     9.786316  0.023300752  0.035360758            4 
   36000    1.2019581   -6.9911338     10.32185  0.023893171  0.035220328            1 
   37000    1.2071636   -7.0253889    10.719496   0.02414301  0.035182922            1 
   38000    1.1847133   -7.0390972    11.125947  0.024399005  0.035152683            1 
   39000    1.2308108   -7.0155923    11.686341  0.024970814  0.035161839            1 
   40000     1.226974   -7.0359044    12.137125  0.025285676  0.035193716            1 
   41000    1.2315947    -7.006425    12.678709  0.025769733  0.035249177            3 
   42000    1.2006794   -7.0404053    13.219693  0.026229549  0.035369287            2 
   43000    1.2017336   -7.0458587    13.590319  0.026337828  0.035512303            1 
   44000    1.1888576   -7.0192228    13.971786  0.026461715  0.035598631            1 
   45000    1.1886879   -7.0766353    14.270593  0.026427024  0.035622092            2 
   46000    1.2099364   -7.0207321    14.818312  0.026844767  0.035645534            1 
   47000    1.2057621   -7.0441394    15.207568  0.026963773   0.03569169            1 
   48000    1.2129353   -7.0555511    15.734211  0.027316338  0.035725506            1 
   49000    1.1740091   -7.0337089    16.122577  0.027419349  0.035773141            1 
   50000    1.1650499   -7.0820415    16.388908  0.027314846  0.035760464            1 
   51000    1.1939388   -7.0803923    16.712832  0.027308549  0.035713319            3 
   52000    1.2097843   -7.1248344    17.174022  0.027522471  0.035663302            2 
   53000    1.1667942   -7.0895811     17.60445  0.027679952  0.035624085            1 
   54000    1.2182475   -7.1076753    17.946271  0.027694862  0.035586312            1 
   55000    1.1805998   -7.0883387    18.368177  0.027830571    0.0355445            1 
   56000    1.1685056    -7.066776    18.655532  0.027761207  0.035491857            1 
   57000    1.2006604   -7.1354553    18.997249  0.027773756  0.035406765            1 
   58000    1.1791787   -7.1075315    19.254424  0.027664402   0.03530379            1 
   59000    1.1693613   -7.0893837       19.733  0.027871469  0.035211013            1 
   60000    1.1736659   -7.1407906    20.037986  0.027830536  0.035120594            2 
   61000    1.1880945     -7.12812    20.488512   0.02798977  0.035033554            1 
   62000     1.161055   -7.1192552    20.901472  0.028093376  0.034956428            2 
   63000     1.145524    -7.126037    21.154942  0.027982728  0.034877204            2 
   64000    1.1627883   -7.0830248    21.681364  0.028230942  0.034796751            1 
   65000    1.1641121   -7.1292949    21.858175  0.028023302  0.034712592            2 
   66000    1.1888124   -7.0935769    22.403412  0.028287136  0.034626565            1 
   67000    1.1602198   -7.1061231    22.788516  0.028343925  0.034558708            4 
   68000    1.1412438   -7.0534044    23.319718  0.028578086  0.034498153            1 
   69000    1.1546025    -7.136897    23.508086  0.028391408   0.03443675            3 
   70000    1.1879589   -7.1166231    23.869705  0.028416315  0.034374042            1 
   71000    1.1421971   -7.1086155    24.135293  0.028327808  0.034291724            1 
   72000    1.1324406   -7.1081851    24.344021   0.02817595  0.034195599            1 
   73000    1.1749539   -7.1179963    24.635601  0.028122832  0.034088409            1 
   74000    1.1603273   -7.1392012    25.027607  0.028184242  0.033984797            1 
   75000    1.1747694   -7.1315094    25.590506  0.028433895  0.033894706            1 
   76000    1.1458642   -7.2039961     25.83357  0.028326283  0.033809709            1 
   77000    1.1629497   -7.1663886     26.29151  0.028454015  0.033743388            1 
   78000    1.1309489   -7.1679462    26.740311  0.028568708  0.033682054            1 
   79000    1.1524111   -7.1798413    27.103068  0.028589734  0.033621829            2 
   80000    1.1684277   -7.1870134     27.39445  0.028535886  0.033560878            3 
   81000    1.1457679   -7.1873799    27.683376   0.02848084  0.033488744            1 
   82000    1.1358729   -7.1345697    28.075672  0.028532187  0.033418454            1 
   83000     1.132892   -7.1866621    28.410603  0.028524701  0.033349416            1 
   84000    1.1296532   -7.1838788    28.650219  0.028422836  0.033275598            3 
   85000    1.1365168   -7.1894853    28.972527  0.028404439  0.033197516            1 
   86000    1.1499466   -7.1882195    29.207668  0.028302004  0.033117424            1 
   87000    1.1602469   -7.2012849    29.543753  0.028298614  0.033031889            2 
   88000    1.1445454    -7.192437    29.894367   0.02830906  0.032948049            2 
   89000    1.1024003   -7.1678849    30.256166  0.028329743  0.032869183            1 
   90000    1.1004014   -7.2015652     30.50996  0.028249962  0.032783789            2 
   91000    1.1032798   -7.2332261    30.639144  0.028057824     0.032697            2 
   92000    1.1234735   -7.1552207    31.277847  0.028331383  0.032612416            6 
   93000    1.1191545      -7.1971    31.454817   0.02818532  0.032529474            1 
   94000    1.1134612   -7.2101062    31.800373   0.02819182    0.0324453            1 
   95000     1.125793   -7.2111925    32.057908  0.028120972  0.032366554            1 
   96000    1.1183784   -7.2357356    32.279494  0.028020394  0.032281487            2 
   97000    1.1055885   -7.2271808     32.66254  0.028060601  0.032188869            2 
   98000    1.0953363   -7.2097958    32.934941  0.028005902  0.032100779            2 
   99000    1.1107023   -7.2415945    33.183965   0.02793263  0.032013332            1 
  100000    1.1012166   -7.2186999    33.626749  0.028022291  0.031925637            1 
  101000     1.096593   -7.2836524    33.764385  0.027858403  0.031838775            2 
  102000    1.1259231   -7.2833648    33.993321  0.027772321  0.031744531            2 
  103000    1.1096928   -7.2405256    34.166487  0.027642789  0.031646779            1 
  104000    1.0969357    -7.300601    34.504783  0.027648063  0.031546975            1 
  105000    1.1019872   -7.2579701    34.821154  0.027635837  0.031450065            2 
  106000    1.0959411   -7.2404022    35.001206  0.027516671  0.031357279            2 
  107000    1.0963502   -7.2886466    35.345146  0.027527372   0.03126752            3 
  108000     1.085291   -7.2208595    35.725004  0.027565589  0.031177091            1 
  109000    1.1122085   -7.2883409    35.768995  0.027346326  0.031085222            1 
  110000    1.0802549   -7.3128999    36.016807   0.02728546  0.030985848            2 
  111000    1.0916963   -7.2672158    36.413764   0.02733766  0.030887321            2 
  112000    1.1078541   -7.3169023    36.657044  0.027274586  0.030793472            1 
  113000    1.1014651   -7.2773663    37.035474  0.027312296  0.030701898            2 
  114000     1.070393   -7.3088797    37.316942  0.027278466  0.030614782            1 
  115000     1.104024     -7.28986     37.55702  0.027215232   0.03052738            1 
  116000     1.096146   -7.3142329    37.593329  0.027006702  0.030439505            2 
  117000    1.0886722   -7.2859356     38.10446  0.027139929  0.030350083            1 
  118000    1.0971046   -7.3533658    38.142945  0.026937108  0.030262954            3 
  119000    1.0776144   -7.2835195    38.681979   0.02708822  0.030176298            1 
  120000    1.0846481   -7.3268509    39.068451  0.027130869  0.030094969            3 
  121000    1.0488245   -7.3385359    39.181586  0.026984563  0.030014889            1 
  122000    1.0812693     -7.31283    39.401833  0.026913821  0.029931664            6 
  123000    1.0422533   -7.3436984     39.62662  0.026847304   0.02985003            1 
  124000     1.049017   -7.2988156    40.005394  0.026885346  0.029769048            3 
  125000    1.0559504   -7.3387349    40.172364  0.026781576  0.029687502            2 
  126000    1.0890874   -7.3124356    40.427514  0.026737774  0.029604698            2 
  127000    1.0643937   -7.3254026    40.838994   0.02679724  0.029521369            1 
  128000    1.0420512   -7.3215776    41.139182  0.026783321  0.029440929            2 
  129000    1.0960578   -7.3543986    41.073714  0.026533407  0.029359344            1 
  130000     1.039153   -7.3361479     41.48694  0.026594192  0.029278166            1 
  131000    1.0767318   -7.3762535    41.555599  0.026434859  0.029195139            2 
  132000    1.0445173   -7.3525711    42.002075  0.026516462  0.029114896            2 
  133000    1.0733429   -7.3473442    42.125035  0.026394132  0.029033275            6 
  134000    1.0495536   -7.3559718    42.333085  0.026326546  0.028949617            2 
  135000    1.0662316   -7.3566428    42.545357  0.026262566  0.028866229            2 
  136000    1.0414746   -7.3873518     42.87776  0.026273137  0.028784041            2 
  137000    1.0405694   -7.3884999    43.231344  0.026296438   0.02870863            1 
  138000    1.0656116   -7.4003936    43.443039  0.026233719  0.028633627            2 
  139000    1.0603432   -7.3802661    43.443738  0.026045406  0.028554425            2 
  140000    1.0286705    -7.338682    43.799207  0.026070957  0.028474749            2 
  141000    1.0596391   -7.4040365    43.790591  0.025880964  0.028394241            3 
  142000      1.05329   -7.3467857    44.134486   0.02590052  0.028311796            5 
  143000    1.0640522   -7.3932057    44.424431  0.025888363  0.028232006            1 
  144000    1.0281844   -7.3894391    44.714419    0.0258764  0.028154862            2 
  145000    1.0171477   -7.4099477    44.842515   0.02577156   0.02807871            2 
  146000   0.99486207   -7.4326992    44.964341  0.025664578  0.027999539            1 
  147000    1.0264234   -7.4062284    45.379136  0.025725134  0.027921075            1 
  148000    1.0239617   -7.3810047    45.578858  0.025663771  0.027844247            2 
  149000    1.0284347   -7.3864549    45.969927   0.02571025  0.027768344            1 
  150000    1.0416742   -7.4180082    46.174509  0.025652505  0.027695364            1 
  151000    1.0225542   -7.4015625     46.39375  0.025603615  0.027624795            2 
  152000    1.0337699   -7.3934687    46.850309  0.025685476  0.027554322            1 
  153000    1.0267424   -7.4286251    46.933434  0.025562872  0.027486901            2 
  154000    1.0134587   -7.4531625    47.270723  0.025579395  0.027419336            4 
  155000    1.0078732   -7.5053311    47.210546  0.025382014  0.027351983            2 
  156000    1.0386684   -7.4511337    47.689005  0.025474896  0.027285351            1 
  157000    1.0244469   -7.4525864    47.916913  0.025433605  0.027220675            2 
  158000    1.0252429   -7.4776466     48.07085  0.025353824  0.027156089            1 
  159000    1.0026181   -7.4716144    48.384499  0.025358752  0.027092466            1 
  160000        1.002   -7.4552683    48.612057  0.025318779  0.027028145            2 
  161000    1.0128691    -7.535909    48.557474  0.025133268  0.026962056            1 
  162000    1.0235573   -7.5443182    48.913823  0.025161431  0.026896301            2 
  163000    1.0065285   -7.4643715    49.280438  0.025194498  0.026832853            2 
  164000   0.98673668     -7.47422     49.44791   0.02512597  0.026767234            1 
  165000    0.9819831   -7.4862379    49.618079  0.025059636  0.026701547            1 
  166000    1.0014744   -7.4956305    49.715504  0.024957582  0.026633993            1 
  167000   0.98276065   -7.4455471     50.13405  0.025016991   0.02656909            2 
  168000    1.0014127   -7.4937746     50.02527  0.024814122  0.026503838            1 
  169000   0.99109817   -7.5202784    50.185566  0.024746334  0.026435552            1 
  170000   0.99744937   -7.5000133    50.327397  0.024670293  0.026365974            4 
  171000    1.0117962   -7.4943663     50.45393  0.024587685  0.026296505            2 
  172000   0.97227408   -7.4685786    50.629404   0.02452975  0.026227616            1 
  173000   0.96937113   -7.4991724    50.840922  0.024489847  0.026157168            1 
  174000   0.98272559   -7.5361669    51.159374  0.024501616  0.026088906            1 
  175000   0.98297627    -7.530786    51.121867  0.024343746  0.026019417            5 
  176000    1.0043363   -7.5074201    51.550683  0.024408467  0.025950713            2 
  177000   0.97442939   -7.5298133     51.69462  0.024338333  0.025882894            3 
  178000   0.98906492   -7.5256801    51.956536  0.024324221  0.025817343            3 
  179000   0.98420006   -7.5557254    52.020924  0.024218307  0.025747929            1 
  180000   0.97562505   -7.5728177    52.120459  0.024129842  0.025678161            2 
  181000   0.97827824   -7.5308388    52.423521  0.024136059  0.025609839            1 
  182000   0.96825316   -7.5543828    52.532908  0.024053529  0.025542164            2 
  183000   0.98732848   -7.5542891    52.673933  0.023986308  0.025473333            2 
  184000   0.95336345   -7.5435367    52.911023  0.023963326  0.025404343            2 
  185000   0.99655666   -7.5552658    52.842928  0.023803121  0.025334927            1 
  186000   0.95990088   -7.5535008    53.137993  0.023807344  0.025263681            2 
  187000    0.9842424   -7.6232536    53.069293  0.023649417  0.025192804            3 
  188000   0.95617497   -7.5801903    53.445908  0.023690562   0.02512333            1 
  189000   0.98173908   -7.5823716    53.692606  0.023673988  0.025055202            1 
  190000   0.98334718   -7.6164891    53.598153  0.023507962  0.024985298            5 
  191000   0.96009236   -7.5904696     53.79823  0.023472177  0.024915868            2 
  192000   0.95879496    -7.613642    54.097855  0.023479972  0.024845998            1 
  193000   0.95894776   -7.5712524    54.068788  0.023345763  0.024775956            4 
  194000   0.95861341   -7.5922921    54.313676  0.023330617  0.024703699            2 
  195000   0.94216748    -7.606495    54.228971  0.023174774  0.024631839            4 
  196000   0.94777916   -7.5840535    54.404174  0.023131026  0.024559312            2 
  197000   0.94065971    -7.613179    54.649359  0.023117326  0.024487777            2 
  198000   0.94417508   -7.6356048    54.742907  0.023039944  0.024416715            1 
  199000   0.95792848   -7.6534932    54.683438  0.022899262   0.02434398            1 
  200000    0.9457167   -7.5991221    54.866432  0.022861013  0.024271573            2 
  201000   0.92926074   -7.6213541    55.160288  0.022869108   0.02420061            1 
  202000    0.9419404   -7.6164407    55.501689  0.022896736  0.024130452            1 
  203000   0.93806917   -7.6533429    55.652466   0.02284584  0.024062024            8 
  204000   0.92895259   -7.6531908     55.64263  0.022729832  0.023994845            2 
  205000   0.90875004   -7.6319617    55.876765  0.022714132  0.023926741            1 
  206000   0.93959508   -7.6320796    56.056954  0.022676761   0.02385969            2 
  207000   0.91546833     -7.62605    56.217955  0.022632027  0.023792587            1 
  208000   0.92475336   -7.6731741    56.415353  0.022602305  0.023724563            2 
  209000   0.92245676   -7.6503773    56.592184  0.022564667  0.023657642            1 
  210000   0.92381231   -7.6682129    56.663873  0.022485664  0.023591682            4 
  211000   0.94363898   -7.6522177    56.578176  0.022345251  0.023524842            1 
  212000   0.91774543   -7.6770185    56.873369  0.022355884   0.02345707            4 
  213000   0.94403045   -7.6765301     56.94904  0.022280532  0.023390344            1 
  214000   0.95710178   -7.6699381    57.162893  0.022259693  0.023324266            2 
  215000   0.93206282   -7.6789651    57.382164  0.022241149  0.023259464            2 
  216000   0.91969717   -7.6967436    57.517876  0.022190539   0.02319442            2 
  217000   0.90588053   -7.6718444     57.64385  0.022136655  0.023129434            1 
  218000    0.9349863   -7.6688682    57.829341  0.022106017  0.023065222            3 
  219000   0.91864923   -7.7102143    57.977058  0.022061285  0.023001727            2 
  220000   0.91396649   -7.6976067    58.157164  0.022029229  0.022939648            2 
  221000   0.89753912   -7.7286857    58.003529  0.021871617  0.022875541            2 
  222000   0.92818305   -7.6992566     58.39621  0.021920499  0.022811514            2 
  223000    0.9235462   -7.6932212    58.313918  0.021791449  0.022748364            3 
  224000   0.92343411     -7.70392    58.703075  0.021838942  0.022685235            4 
  225000   0.90371702   -7.6906602    58.786976  0.021772954  0.022623267            1 
  226000   0.92342068   -7.7483575    58.830159  0.021692536  0.022561279            4 
  227000   0.92088063   -7.7073706    58.849059  0.021603913  0.022498116            1 
  228000   0.92134126   -7.7408757    59.001662  0.021564935  0.022434809            1 
  229000   0.90678266   -7.6996944    59.274887  0.021570192  0.022371608            3 
  230000   0.90040798   -7.7212749     59.31122  0.021489572  0.022309143            2 
  231000   0.90749113   -7.7250526      59.3158  0.021398196  0.022246502            3 
  232000   0.92307904   -7.7245917    59.502969  0.021373193  0.022184682            1 
  233000   0.91332104    -7.739214    59.592908   0.02131363  0.022122555            4 
  234000   0.87195592    -7.732862    59.797622  0.021295449  0.022060275            1 
  235000   0.89847977    -7.776937    59.730357  0.021180978  0.021997506            2 
  236000    0.8873254    -7.769426    59.935183  0.021163553  0.021935518            1 
  237000   0.88979294   -7.7482688    60.055466  0.021116549  0.021873284            3 
  238000   0.89180098   -7.7851858    59.983001  0.021002451  0.021810618            2 
  239000   0.88433329   -7.7556729    60.210216  0.020993799  0.021748275            1 
  240000   0.87461954   -7.7806628     60.49034   0.02100359  0.021686769            4 
  241000   0.88527783   -7.7290621    60.661127  0.020975494  0.021625848            2 
  242000   0.89908365   -7.7617741    60.508341  0.020836206  0.021565057            2 
  243000   0.89916215   -7.7759907    60.759546  0.020836607  0.021504586            2 
  244000    0.8604577   -7.7604197    60.923533  0.020807217  0.021444095            1 
  245000   0.87259035   -7.7902447    61.039758  0.020761822  0.021384201            1 
  246000   0.87936817   -7.7847957    60.997382   0.02066307  0.021323981            1 
  247000   0.88215754   -7.8168011    61.169577  0.020637509  0.021264088            2 
  248000   0.89038708   -7.8024445    61.316929  0.020603807   0.02120375            3 
  249000   0.88617266   -7.8174705    61.224509   0.02049013  0.021143459            2 
  250000   0.88756921   -7.7960966    61.617159  0.020539053  0.021083552            3 
  251000   0.85299359   -7.7897124    61.585215  0.020446618  0.021024414            3 
  252000   0.90022854   -7.8017792    61.712583    0.0204076  0.020965589            2 
  253000   0.86201907   -7.8175486    61.488817  0.020253233  0.020905684            4 
  254000   0.87711702   -7.7993499    61.775834  0.020267662   0.02084593            1 
  255000   0.85950241   -7.8305113    61.649191  0.020146795  0.020785742            1 
  256000   0.87353762   -7.8297812    61.759808  0.020104104  0.020725282            2 
  257000   0.84507478   -7.8253148    62.090842  0.020133217  0.020665254            1 
  258000   0.85988984   -7.8127699    62.067646  0.020047689  0.020605611            2 
  259000   0.84558116     -7.85478    62.096309  0.019979507  0.020545372            2 
  260000   0.85554258   -7.8703424    61.954011  0.019857055  0.020484942            2 
  261000    0.8612455   -7.8885463    62.022654  0.019802891   0.02042375            2 
  262000   0.86802882   -7.8396147     62.08578  0.019747386  0.020362908            3 
  263000   0.84315302   -7.8754958    62.012338   0.01964903  0.020300583            3 
  264000   0.84832928   -7.8765039    62.304018  0.019666672  0.020238458            3 
  265000   0.83190984   -7.8689841    62.193767  0.019557788  0.020176769            2 
  266000   0.83958324   -7.8682551    62.218612  0.019492046  0.020115763            2 
  267000   0.85799092   -7.8869544    62.496469  0.019505764  0.020054452            2 
  268000   0.85612116    -7.905752    62.499345  0.019433876  0.019992835            1 
  269000   0.84128879   -7.8786153    62.568511  0.019383058  0.019931454            1 
  270000   0.84008324   -7.8911284    62.659002  0.019339198   0.01987023            5 
  271000   0.83074408   -7.8885295    62.696855  0.019279476  0.019809894            2 
  272000   0.85717518   -7.9201383    62.874097  0.019262897  0.019749861            1 
  273000   0.82908827    -7.901539    62.909953  0.019203282  0.019690331            2 
  274000    0.8414803   -7.9094131    62.879439  0.019123917  0.019630398            3 
  275000   0.83084816   -7.9002418    62.887073  0.019056689  0.019570329            1 
  276000   0.81850576   -7.9395367    62.968807  0.019012321   0.01951001            4 
  277000   0.83345202   -7.9273786    63.189503  0.019010079  0.019450025            1 
  278000   0.80620182   -7.9171066    63.162182  0.018933508  0.019390495            1 
  279000   0.84080472   -7.9600519    63.091109  0.018844417  0.019330862            1 
  280000   0.83099621   -7.9588695    63.195213  0.018808099  0.019271132            1 
  281000   0.81497362   -7.9236202    63.337828   0.01878346  0.019211465            1 
  282000   0.81583979   -7.9565167     63.24917  0.018690653  0.019152173            3 
  283000   0.79638679   -7.9639599     63.25269  0.018625645  0.019092508            3 
  284000   0.82751904   -7.9575412    63.365794  0.018593249  0.019033129            2 
  285000   0.83729051   -7.9673527    63.520892   0.01857336  0.018973884            5 
  286000   0.80111301   -7.9252241    63.694784  0.018559086  0.018915072            3 
  287000   0.79668064    -7.992274    63.566349  0.018457128  0.018856739            3 
  288000    0.8173387    -7.961642    63.781823  0.018455389  0.018798838            1 
  289000   0.82695912   -7.9823811    63.769268  0.018387909  0.018740964            1 
  290000   0.80827868   -7.9835568    63.778996  0.018327298   0.01868306            2 
  291000   0.81527422   -7.9443386    64.182408  0.018379842  0.018625681            3 
  292000    0.7957834   -7.9619444    64.078557  0.018287259  0.018568989            1 
  293000   0.78357369   -7.9733855    64.074491  0.018223689  0.018511861            1 
  294000   0.79690369   -8.0091267    63.999065  0.018140324   0.01845425            2 
  295000   0.80147247    -7.999902    64.021158  0.018085073  0.018396853            1 
  296000   0.80803947    -7.983913    64.246675  0.018087465  0.018340478            4 
  297000   0.79213133   -7.9884624    64.375216  0.018062631  0.018284591            3 
  298000    0.7825591   -8.0379066    64.288162  0.017977674  0.018228489            4 
  299000   0.80227648   -8.0094786    64.489878  0.017973767  0.018172598            1 
  300000   0.80211645   -7.9968065    64.499654  0.017916571   0.01811679            2 
  301000   0.79056575   -8.0179838    64.576389  0.017878292  0.018061206            2 
  302000   0.77582269   -8.0300348    64.666449  0.017843943  0.018005955            2 
  303000   0.79996328   -8.0287693    64.565968  0.017757417  0.017950647            2 
  304000   0.76982704   -8.0221576    64.675136   0.01772893  0.017895718            3 
  305000   0.78706972   -8.0359958    64.698397  0.017677158  0.017840654            2 
  306000   0.78694427   -8.0232187    64.920775   0.01767995  0.017785598            1 
  307000   0.76286237   -8.0389848    64.794499  0.017588083  0.017730597            2 
  308000   0.76905226   -8.0405754    64.803142  0.017533317  0.017675806            1 
  309000   0.80320273   -8.0656444    64.893655  0.017500986  0.017621296            1 
  310000   0.77291616   -8.0740614     64.81465  0.017423293  0.017567032            2 
  311000   0.77394898   -8.0639896    64.971823  0.017409385  0.017512747            2 
  312000   0.77246998   -8.0699441    65.042433  0.017372445  0.017458454            2 
  313000   0.77120053   -8.0600112    64.995649  0.017304486  0.017404173            2 
  314000   0.76999169   -8.0706129     65.09344  0.017275329   0.01735008            4 
  315000    0.7795462   -8.0416937    65.170272  0.017240813  0.017296271            2 
  316000   0.77559412   -8.0474997    65.175956  0.017187752  0.017242427            3 
  317000   0.77546056   -8.0631045    65.036184  0.017096789  0.017188713            1 
  318000   0.77137533   -8.0974048    65.083906  0.017055531  0.017134899            2 
  319000    0.7501731   -8.0751452    65.235779  0.017041739  0.017081251            2 
  320000   0.76800663   -8.0839919     65.19042  0.016976672  0.017027726            6 
  321000   0.73538068    -8.094114    65.290349  0.016949727  0.016974626            1 
  322000   0.75388958   -8.0773445    65.563649  0.016967818  0.016921914            1 
  323000   0.75718105   -8.0932398    65.459492  0.016888414  0.016869651            2 
  324000   0.75759393   -8.0915606    65.489638  0.016844043   0.01681755            1 
  325000   0.74974224   -8.1005766    65.507916  0.016796902  0.016765609            2 
  326000   0.76302476   -8.1094513    65.664264  0.016785343  0.016713935            1 
  327000   0.74929412   -8.1374024    65.700024  0.016743125   0.01666268            3 
  328000   0.75225059   -8.0856099    65.912599  0.016746087  0.016611602            2 
  329000   0.72828671   -8.1355449    65.563654  0.016606802  0.016560556            2 
  330000   0.73787158   -8.1313529    65.696745  0.016590087  0.016509042            4 
  331000   0.74536444    -8.158704    65.615959  0.016519627   0.01645757            2 
  332000   0.72961835   -8.1582801    65.629155  0.016473182  0.016406267            3 
  333000   0.74964471    -8.173729     65.64157  0.016426819   0.01635492            2 
  334000   0.72529486   -8.1375745    65.700402  0.016392316   0.01630352            2 
  335000   0.73424285   -8.1685507    65.611147  0.016321181   0.01625216            1 
  336000   0.72629938   -8.1689757    65.804676  0.016320604  0.016200997            2 
  337000   0.72875604   -8.1473295    65.800063  0.016271034   0.01615009            1 
  338000   0.71875197   -8.1622092    65.859178   0.01623747  0.016099765            4 
  339000   0.72076593   -8.1760561    65.755312  0.016164039  0.016049259            3 
  340000   0.73467356   -8.1791957    65.881872  0.016147518  0.015998732            2 
  341000   0.73913169   -8.1735131    65.888697  0.016101832  0.015948354            1 
  342000   0.71485439   -8.2025076     65.76674  0.016025034  0.015897699            1 
  343000   0.71403245   -8.2037575    65.656662   0.01595157  0.015846958            1 
  344000   0.72604716   -8.2100829    65.816508  0.015943921  0.015796415            3 
  345000   0.72508865   -8.2166318    65.812256   0.01589668  0.015745768            2 
  346000    0.7200355   -8.2251403    65.670421  0.015816575  0.015695317            4 
  347000   0.70799385   -8.2054014     65.75315  0.015790862  0.015644716            4 
  348000   0.71917605   -8.2211487    65.683515  0.015728811  0.015594014            4 
  349000    0.7137094   -8.2525687    65.529619  0.015646996  0.015543317            4 
  350000   0.70936203   -8.2395739    65.691436  0.015640818  0.015492849            2 
  351000   0.70898632   -8.2371097    65.724048     0.015604  0.015442428            1 
  352000   0.70542244   -8.2305079    65.746752  0.015565045  0.015392329            2 
  353000   0.69801395   -8.2438817    65.763282  0.015524854  0.015342043            3 
  354000   0.69092553   -8.2515714    65.680665   0.01546155  0.015291751            3 
  355000   0.69433464   -8.2352291    65.722766  0.015427879  0.015241747            1 
  356000   0.69334138   -8.2478287    65.759355  0.015393107  0.015192076            1 
  357000   0.68286651   -8.2202298    65.661279  0.015327096  0.015142567            4 
  358000   0.69766098   -8.2304435    65.702271  0.015293825   0.01509297            4 
  359000   0.67651164   -8.2521385    65.606074  0.015228894  0.015043571            3 
  360000   0.68389613   -8.2496727    65.999148   0.01527758  0.014994686            3 
  361000   0.68977911    -8.246762    65.917639  0.015216445  0.014945595            2 
  362000   0.69650294   -8.2817606    65.768724   0.01514013  0.014896604            2 
  363000   0.70181355   -8.2705544    65.784183   0.01510197   0.01484773            1 
  364000    0.6956418   -8.2836601    65.726446  0.015047263  0.014799005            2 
  365000   0.68099589   -8.2843581    65.713991  0.015003194  0.014750409            1 
  366000    0.6931893   -8.2807696    65.700194  0.014959061    0.0147021            2 
  367000   0.66735593   -8.2757882    65.899877  0.014963641  0.014653973            2 
  368000   0.67170483   -8.2884764    65.736673  0.014886022   0.01460572            1 
  369000   0.67417949   -8.3143932    65.740781  0.014846608  0.014557555            1 
  370000   0.68083662   -8.3016933     65.87407  0.014836502   0.01450969            2 
  371000   0.65843927   -8.3001989    65.792453  0.014778179  0.014462022            2 
  372000   0.67543592   -8.3064312    65.854788  0.014752417  0.014414405            2 
  373000   0.69153815   -8.3131799    65.893258  0.014721461  0.014366996            5 
  374000   0.68531976   -8.3128487    65.833344  0.014668749  0.014319629            4 
  375000   0.65441013   -8.3132444    65.818767  0.014626393  0.014272641            1 
  376000   0.67017153   -8.3159818    65.897934  0.014605039  0.014225584            2 
  377000   0.67039818   -8.3344184    65.833708  0.014552102   0.01417866            2 
  378000   0.66674118   -8.3206897    65.773639  0.014500361  0.014131799            2 
  379000   0.65767105   -8.3246919    65.785087  0.014464619  0.014085029            1 
  380000   0.65852627   -8.3553217    65.810367  0.014432098  0.014038378            1 
  381000   0.65209861   -8.3414554    65.896711  0.014413104  0.013991952            2 
  382000   0.66455881   -8.3860753    65.657686   0.01432323  0.013945322            2 
  383000   0.66600953   -8.3993506     65.65489  0.014285224  0.013898777            3 
  384000    0.6561557   -8.3635672     65.79381  0.014278171  0.013852353            1 
  385000   0.65174159   -8.3615952    65.730004  0.014227274  0.013806164            4 
  386000   0.66572516    -8.352757    65.638124  0.014170579  0.013759995            1 
  387000   0.64820554   -8.3536504    65.679286  0.014142826  0.013714131            1 
  388000   0.65389228   -8.3780842     65.82218  0.014137066  0.013668379            3 
  389000   0.64420765   -8.3908466     65.83481   0.01410343  0.013622673            2 
  390000   0.63496969   -8.4207498    65.761001  0.014051496  0.013577134            2 
  391000   0.64583958   -8.3855724    65.642013  0.013990199  0.013531776            1 
  392000   0.65032158   -8.3915792    65.685049  0.013963658  0.013486337            2 
  393000   0.63709182   -8.4099108    65.697033  0.013930669  0.013441136            2 
  394000   0.63836778   -8.4055357    65.678296  0.013891349  0.013396049            2 
  395000   0.62208052    -8.429612    65.603177  0.013840333  0.013350979            1 
  396000   0.61531472   -8.3944868    65.676822   0.01382088  0.013306177            1 
  397000   0.64640441    -8.440733      65.6354  0.013777372  0.013261472            2 
  398000    0.6456015   -8.4150943    65.729543  0.013762467  0.013217038            2 
  399000   0.62244758   -8.4176582    65.696483   0.01372107  0.013172862            2 
  400000    0.6416257   -8.4254614    65.690922  0.013685609  0.013128734            3 
  401000   0.62530666   -8.4200896    65.725049  0.013658572  0.013084813            1 
  402000   0.62607114   -8.4438829    65.641115  0.013607196  0.013040875            2 
  403000   0.61417695   -8.4464419    65.725648  0.013590912  0.012997177            3 
  404000   0.62536218    -8.428925    65.688665  0.013549642  0.012953629            5 
  405000   0.62502608   -8.4398653    65.724833  0.013523628  0.012910343            2 
  406000   0.62949905   -8.4610723    65.572742  0.013459101  0.012867093            2 
  407000   0.62788322   -8.4429862    65.625954  0.013436927  0.012823954            2 
  408000   0.59882319   -8.4634114    65.780443  0.013435548  0.012781123            3 
  409000   0.61433502   -8.4524693    65.621189   0.01337025  0.012738354            1 
  410000   0.61586354   -8.4291462    65.720975  0.013357922  0.012695712            1 
  411000   0.61046352   -8.4685569    65.734225  0.013328107  0.012653172            5 
  412000   0.61240527   -8.4789459    65.599938  0.013268596  0.012610745            3 
  413000   0.61475015   -8.4760937    65.565289  0.013229477  0.012568535            3 
  414000   0.60407959   -8.4480064    65.614144  0.013207356   0.01252647            3 
  415000   0.60412438   -8.4735504    65.571528  0.013166974  0.012484579            5 
  416000   0.60160245   -8.4736567    65.657422  0.013152528  0.012442704            5 
  417000   0.60284068   -8.4828527     65.48274  0.013086079  0.012400952            2 
  418000   0.60798329   -8.4713338    65.520718  0.013062344  0.012359249            3 
  419000   0.60325558    -8.482417    65.504436  0.013027931  0.012317787            3 
  420000    0.6131365   -8.5011019    65.489282  0.012993905  0.012276538            2 
  421000   0.59504701    -8.480285    65.635639  0.012992011  0.012235442            1 
  422000   0.59896679   -8.4960238    65.506085  0.012935641  0.012194402            1 
  423000   0.57864432   -8.4974798    65.477423  0.012899414  0.012153552            3 
  424000   0.58546327   -8.4859204    65.498033  0.012873041  0.012112788            3 
  425000   0.57969361   -8.5182213    65.419611  0.012827375  0.012072099            1 
  426000   0.58394075   -8.4885093    65.447437  0.012802707   0.01203153            2 
  427000    0.5825883    -8.499446    65.460443  0.012775262  0.011991088            1 
  428000   0.56755875    -8.500141    65.473239  0.012747905  0.011950937            4 
  429000   0.58303996   -8.4891679    65.442586  0.012712235  0.011910833            3 
  430000   0.58689053   -8.5185028    65.525645  0.012698768  0.011871015            1 
  431000   0.58494117    -8.530898    65.461418  0.012656887   0.01183132            1 
  432000   0.57890471   -8.5018265    65.600902  0.012654495  0.011791644            1 
  433000   0.56402661   -8.5336323    65.412428  0.012588997   0.01175229            3 
  434000   0.57807357   -8.5282269    65.545401  0.012585523  0.011712976            3 
  435000   0.57320664    -8.517366    65.567119  0.012560751  0.011673909            2 
  436000    0.5774092   -8.5241766    65.540385  0.012526832  0.011635026            2 
  437000   0.56952998   -8.5440868    65.505735  0.012491559  0.011596274            5 
  438000   0.56267596   -8.5224541    65.478332  0.012457826  0.011557642            1 
  439000   0.55835491   -8.5306407    65.354655  0.012405971  0.011519076            1 
  440000   0.57813672   -8.5428963    65.258194  0.012359506  0.011480679            2 
  441000   0.56813253    -8.553409    65.520758  0.012381096  0.011442375            3 
  442000   0.55914048   -8.5583602     65.30206  0.012311851  0.011404233            2 
  443000   0.55888672   -8.5599035    65.560508  0.012332676  0.011366287            2 
  444000   0.56909815   -8.5573453    65.413075  0.012277229  0.011328449            6 
  445000   0.55745905   -8.5688847    65.419357  0.012250816  0.011290835            1 
  446000   0.56739898   -8.5794441    65.269062  0.012195266   0.01125344            2 
  447000   0.55125193    -8.564062    65.534606  0.012217488  0.011216119            1 
  448000   0.54817986   -8.5561737    65.495259  0.012182898  0.011178886            2 
  449000    0.5480141   -8.5674418    65.427942  0.012143271  0.011141849            2 
  450000   0.54002468   -8.5728009    65.396966  0.012110549  0.011104932            2 
  451000   0.54377902   -8.5789288    65.413053  0.012086669  0.011068242            1 
  452000    0.5562768   -8.5663966     65.29611  0.012038368  0.011031607            2 
  453000   0.54859248   -8.5774042    65.357309  0.012023052  0.010995152            4 
  454000   0.54375201   -8.5951192    65.458215  0.012015091  0.010958836            3 
  455000   0.53493015    -8.582507    65.304437   0.01196052  0.010922708            1 
  456000   0.53532687   -8.5860667    65.395021  0.011950844  0.010886638            2 
  457000   0.54071149   -8.5918532    65.281752  0.011904039  0.010850714            3 
  458000   0.54103125   -8.5848912    65.332808  0.011887338  0.010814948            3 
  459000   0.53402111   -8.5875252    65.299281  0.011855352  0.010779283            2 
  460000   0.53265574   -8.5757277    65.273314  0.011824876  0.010743704            2 
  461000   0.52838419   -8.5952791    65.339826  0.011811248   0.01070828            2 
  462000   0.53511119   -8.5959211    65.306617  0.011779693   0.01067294            2 
  463000   0.53197589   -8.6013022      65.3149  0.011755741  0.010637812            2 
  464000    0.5266869   -8.6147762    65.226717  0.011714568  0.010602787            3 
  465000   0.52234505   -8.6190553    65.211295  0.011686612  0.010567996            2 
  466000   0.52304323   -8.6177816    65.228782  0.011664661  0.010533292            2 
  467000   0.52366904   -8.6066936    65.386532  0.011667832  0.010498803            2 
  468000   0.52309355   -8.6250964    65.285079  0.011624836  0.010464453            2 
  469000   0.52142229   -8.6164189    65.177399  0.011580917  0.010430135            3 
  470000    0.5335349   -8.6104654      65.1943  0.011559273  0.010395976            2 
  471000   0.50877142   -8.6251979    65.287067  0.011551144  0.010361939            4 
  472000   0.52745296   -8.6324102    65.353358  0.011538375  0.010328074            3 
  473000   0.49679474   -8.6215813    65.289234  0.011502684  0.010294338            2 
  474000   0.50781701   -8.6261054    65.281918   0.01147713  0.010260662            1 
  475000    0.5033764   -8.6376199    65.116236  0.011423901  0.010227177            4 
  476000   0.50416477   -8.6458216    65.345482  0.011440035  0.010193825            4 
  477000   0.50023149   -8.6298209    65.247584  0.011398949  0.010160587            3 
  478000   0.50629693   -8.6442711    65.191999  0.011365411   0.01012748            2 
  479000    0.4993392   -8.6439342    65.178232  0.011339289  0.010094589            2 
  480000   0.50823504   -8.6536971    65.196663  0.011318865  0.010061724            1 
  481000    0.4975849   -8.6524099    65.139147  0.011285368  0.010029048            3 
  482000   0.49976295   -8.6467883    65.091866   0.01125378 0.0099965064            2 
  483000   0.51009615   -8.6434077    65.309906    0.0112681 0.0099640668            2 
  484000   0.48893856   -8.6644635    65.093326  0.011207529  0.009931805            2 
  485000   0.48915861   -8.6696868    65.064129  0.011179404 0.0098996337            2 
  486000   0.49172892   -8.6459885    65.147135  0.011170634  0.009867537            7 
  487000   0.49530096   -8.6765057    65.228061  0.011161544 0.0098356021            2 
  488000   0.48506846   -8.6669068    65.185531  0.011131409 0.0098037426            5 
  489000   0.48709655   -8.6750853    65.007815   0.01107836 0.0097720781            2 
  490000   0.48772218   -8.6728442     65.14236  0.011078633 0.0097405753            4 
  491000   0.48686293   -8.6474316    65.139213  0.011055535 0.0097091013            1 
  492000    0.4859961   -8.6790764    65.012962  0.011011681 0.0096778034            1 
  493000   0.47423018   -8.6877128    65.004465  0.010987908 0.0096465992            2 
  494000   0.47864387   -8.6935621    65.112822  0.010983944 0.0096155322            2 
  495000   0.46480452   -8.6889218    65.082639  0.010956673 0.0095845697            2 
  496000   0.47472858   -8.6863868    64.976235  0.010916706 0.0095536739            1 
  497000   0.47724359   -8.7055326    65.100678  0.010915607 0.0095229077            1 
  498000   0.46396173   -8.6903274     65.07733  0.010889781 0.0094922882            2 
  499000   0.47299464   -8.7191322    65.052689  0.010863843 0.0094617455            1 
  500000   0.46980504   -8.7153533    64.943088  0.010823848 0.0094313904            2 
  501000   0.46920887    -8.697522    65.066089  0.010822703 0.0094011879            1 
  502000   0.46500719   -8.7100036    65.091805  0.010805413 0.0093710963            2 
  503000   0.46626409   -8.7027484    65.012729   0.01077083 0.0093410933            2 
  504000   0.45982797   -8.7066278    64.920955  0.010734285 0.0093111951            3 
  505000   0.46838222   -8.7126695    65.054256  0.010735026 0.0092814763            2 
  506000   0.46288856   -8.7064005    64.985973  0.010702565 0.0092518559            7 
  507000   0.45251303   -8.7119225    64.970813  0.010678963 0.0092223173            4 
  508000   0.46729946   -8.7224996    64.975959  0.010658786 0.0091929245            2 
  509000   0.45864346   -8.7242523    65.020129  0.010645077 0.0091636451            3 
  510000   0.45837198   -8.7296554    64.945955  0.010612084 0.0091344913            2 
  511000   0.45611853   -8.7249798    64.930769   0.01058884 0.0091054069            2 
  512000   0.45182556   -8.7362413     64.92031  0.010566457 0.0090764761            3 
Loop time of 1209.69 on 48 procs for 500000 steps with 4000 atoms

Performance: 71423.229 tau/day, 413.329 timesteps/s
99.4% CPU use with 48 MPI tasks x no OpenMP threads

MPI task timing breakdown:
Section |  min time  |  avg time  |  max time  |%varavg| %total
---------------------------------------------------------------
Pair    | 76.066     | 80.862     | 86.248     |  26.2 |  6.68
Neigh   | 7.8899     | 8.2573     | 8.6008     |   5.1 |  0.68
Comm    | 74.543     | 81.06      | 87.962     |  33.5 |  6.70
Output  | 0.84121    | 0.84173    | 0.851      |   0.1 |  0.07
Modify  | 1022.9     | 1026.8     | 1031.6     |   6.4 | 84.88
Other   |            | 11.85      |            |       |  0.98

Nlocal:        83.3333 ave          90 max          76 min
Histogram: 2 1 8 5 5 7 5 10 3 2
Nghost:        2085.73 ave        2101 max        2067 min
Histogram: 4 2 2 5 6 10 4 3 4 8
Neighs:        13641.2 ave       15035 max       12289 min
Histogram: 3 2 5 8 7 5 8 6 1 3
FullNghs:      27281.8 ave       29802 max       24624 min
Histogram: 1 2 7 6 8 5 8 6 3 2

Total # of neighbors = 1309525
Ave neighs/atom = 327.38125
Neighbor list builds = 26761
Dangerous builds = 0

#clear
#
#next RN
#
#jump SELF
Total wall time: 0:20:13
