
units lj                  # Use reduced LJ style units
atom_style atomic         # Uncharged point particles
atom_modify map hash      # Needed for indexing of clusters etc
                          # Used to be able to find where atoms are in relation to each other.

lattice fcc 1.0 spacing 1 1 1
Lattice spacing in x,y,z = 1.5874011 1.5874011 1.5874011
region box block 0 10 0 10 0 10 units lattice
create_box 2 box
Created orthogonal box = (0.0000000 0.0000000 0.0000000) to (15.874011 15.874011 15.874011)
  3 by 4 by 4 MPI processor grid
create_atoms 1 box
Created 4000 atoms
  using lattice units in orthogonal box = (0.0000000 0.0000000 0.0000000) to (15.874011 15.874011 15.874011)
  create_atoms CPU = 0.015 seconds
set type 1 type/fraction 2 0.39 78393
Setting atom values ...
  1580 settings made for type/fraction
mass 1 1.0
mass 2 1.0
pair_style lj/cut  3.5
pair_modify tail  yes
pair_coeff 1  1  1.0  1.0   # Intearaction between 1 and 1 set with epsilon = 1 and sigma = 1
pair_coeff 1  2  1.5  0.8
pair_coeff 2  2  0.5  0.88

write_data data.0
System init for write_data ...
Neighbor list info ...
  update every 1 steps, delay 10 steps, check yes
  max neighbors/atom: 2000, page size: 100000
  master list distance cutoff = 3.8
  ghost atom cutoff = 3.8
  binsize = 1.9, bins = 9 9 9
  1 neighbor lists, perpetual/occasional/extra = 1 0 0
  (1) pair lj/cut, perpetual
      attributes: half, newton on
      pair build: half/bin/atomonly/newton
      stencil: half/bin/3d
      bin: standard
WARNING: Not all mixed pair coeffs generated from mixing. Use write_data with 'pair ij' option to store all pair coeffs. (../write_data.cpp:312)


#############################
#   M E L T   S Y S T E M   #
#############################

velocity all create 2.4 5300450 mom yes dist gaussian # Assign velocities
                                                    # Temperature 2.4, random number seed, zero linear momentum
                                                                                # Gaussian distribution

timestep 0.002   # simulation timestep
thermo 1000       # output thermodynamic data every 1000 steps bf 100

# Define a fix  in this case with index 1 applied to all
# particles in the simulation. This fix is for simulations
# in the anisotropic NPT ensemble. Note that we use the MTK
# correction.
fix 1 all npt temp 2.4 2.4 0.1 iso 5.68 5.68 0.5 mtk yes tchain 5 pchain 5 # Use NPT ensemble
                                                                         # Set temperature and pressure and damping
                                                                         # Numbers of thermostats in chain and in barostat
run 10000          # run for 10000 steps
Per MPI rank memory allocation (min/avg/max) = 3.642 | 3.644 | 3.648 Mbytes
Step Temp E_pair E_mol TotEng Press Volume 
       0          2.4   -5.9084669            0   -2.3093669   -4.1681406         4000 
    1000    2.3768961   -5.0329343            0   -1.4684815    5.6360313    3910.1544 
    2000    2.4440306   -5.0852414            0    -1.420112    5.4532772     3904.701 
    3000    2.4332352   -5.0306277            0   -1.3816874    5.9136742    3892.0806 
    4000    2.4269453   -5.0389655            0   -1.3994577    5.9653073    3887.9699 
    5000     2.373537   -5.0222811            0   -1.4628658    5.7902326    3902.8527 
    6000    2.4188813   -5.0066696            0   -1.3792549    5.8920055    3902.9115 
    7000    2.4367409   -5.0630572            0   -1.4088596    5.3655919    3913.8328 
    8000    2.3703743   -5.0564766            0   -1.5018041    5.6777832    3889.8881 
    9000    2.4120457   -5.0393348            0   -1.4221707    5.8411062    3891.8219 
   10000    2.3911023   -5.0218403            0   -1.4360836    5.5706895    3923.0464 
Loop time of 2.51612 on 48 procs for 10000 steps with 4000 atoms

Performance: 686770.493 tau/day, 3974.366 timesteps/s
99.6% CPU use with 48 MPI tasks x no OpenMP threads

MPI task timing breakdown:
Section |  min time  |  avg time  |  max time  |%varavg| %total
---------------------------------------------------------------
Pair    | 1.0782     | 1.1893     | 1.2553     |   3.4 | 47.27
Neigh   | 0.20898    | 0.21762    | 0.23248    |   0.9 |  8.65
Comm    | 0.7644     | 0.84687    | 0.96404    |   4.1 | 33.66
Output  | 0.00025075 | 0.00025768 | 0.00033177 |   0.0 |  0.01
Modify  | 0.22421    | 0.24654    | 0.2647     |   2.3 |  9.80
Other   |            | 0.01552    |            |       |  0.62

Nlocal:        83.3333 ave          92 max          74 min
Histogram: 1 2 5 7 7 8 7 6 2 3
Nghost:        1668.62 ave        1710 max        1631 min
Histogram: 2 4 6 8 7 5 7 4 3 2
Neighs:        9741.77 ave       11146 max        8313 min
Histogram: 3 0 5 7 8 8 9 4 3 1

Total # of neighbors = 467605
Ave neighs/atom = 116.90125
Neighbor list builds = 904
Dangerous builds = 206

# Equilibrate just above the melting temperature to avoid step fn in T

fix 1 all npt temp 1.25 1.25 0.1 iso 5.68 5.68 0.5 mtk yes tchain 5 pchain 5
run 2000
Per MPI rank memory allocation (min/avg/max) = 3.643 | 3.645 | 3.649 Mbytes
Step Temp E_pair E_mol TotEng Press Volume 
   10000    2.3911023   -5.0218403            0   -1.4360836    5.5706895    3923.0464 
   11000    1.2426665   -7.0288949            0   -5.1653612     5.646254    3104.8247 
   12000    1.2486252   -7.1167074            0   -5.2442378    5.3367486    3093.4603 
Loop time of 0.607514 on 48 procs for 2000 steps with 4000 atoms

Performance: 568875.916 tau/day, 3292.106 timesteps/s
99.6% CPU use with 48 MPI tasks x no OpenMP threads

MPI task timing breakdown:
Section |  min time  |  avg time  |  max time  |%varavg| %total
---------------------------------------------------------------
Pair    | 0.27021    | 0.29673    | 0.3258     |   2.2 | 48.84
Neigh   | 0.039342   | 0.042217   | 0.045751   |   0.6 |  6.95
Comm    | 0.18919    | 0.21939    | 0.25023    |   2.9 | 36.11
Output  | 5.323e-05  | 5.483e-05  | 7.2713e-05 |   0.0 |  0.01
Modify  | 0.04179    | 0.04423    | 0.046797   |   0.7 |  7.28
Other   |            | 0.004888   |            |       |  0.80

Nlocal:        83.3333 ave          93 max          74 min
Histogram: 1 3 2 6 14 9 8 4 0 1
Nghost:        1944.73 ave        1972 max        1919 min
Histogram: 2 0 6 12 10 5 1 7 4 1
Neighs:        12346.8 ave       13878 max       10660 min
Histogram: 1 1 3 7 12 9 6 4 3 2

Total # of neighbors = 592648
Ave neighs/atom = 148.16200
Neighbor list builds = 143
Dangerous builds = 10

#############################
# L I N E A R  Q U E N C H  #
#############################

# Define solid atoms. This closely follows ten Wolde  Ruiz-Montero and Frenkel  Faraday Discuss  1996  104  93-110
# Compute components of the per-atom q6 vector
compute q6 all orientorder/atom degrees 1 6 components 6 nnn NULL cutoff 1.3 # compute the Q6 parameter.
                                                                             # Use all neighbours within 1.3 unit cell.

# get number of connections
compute coord_number all coord/atom orientorder q6 0.5

# An atom is solid if it has 8 or more connections (of a possible 14)
variable is_solid atom c_coord_number>=8
group solid dynamic all var is_solid    # Must be dynamic to update
dynamic group solid defined

# do clustering
compute cluster solid cluster/atom 1.3 # Create a cluster where all atoms within are solid and max 1.3 units from another member

# define chunks one chunk per cluster
compute clus_chunks solid chunk/atom c_cluster nchunk every compress yes  # Says which atoms are in which chunk

# count the size of each chunk
compute size_chunks solid property/chunk clus_chunks count


# Find the maximum entry in the vector of chunk sizes
variable max_n equal max(c_size_chunks)


# Thermo style which includes this variable
# thermo_style custom step temp pe vol v_max_n

thermo ${N}  # Print the thermo information every 100 steps
thermo 1000  

# Reset the npt fix at a lower temperature (below freezing)
fix 1  all npt temp  ${temp} ${temp}  0.1  iso  5.68  5.68  0.5  mtk yes tchain  5  pchain  5
fix 1  all npt temp  0.45 ${temp}  0.1  iso  5.68  5.68  0.5  mtk yes tchain  5  pchain  5
fix 1  all npt temp  0.45 0.45  0.1  iso  5.68  5.68  0.5  mtk yes tchain  5  pchain  5

dump dmp2 all dcd ${N} traj.dcd
dump dmp2 all dcd 1000 traj.dcd


compute msd all msd com yes
variable twopoint equal c_msd[4]/6/(step*dt+1.0e-6)
fix 9 all vector 10 c_msd[4]
variable fit equal slope(f_9)/6/(10*dt)
thermo_style custom step temp pe c_msd[4] v_twopoint v_fit v_max_n

fix 1 all npt temp 1.25 ${temp} 0.1 iso 5.68 5.68 0.5 mtk yes tchain 5 pchain 5
fix 1 all npt temp 1.25 0.45 0.1 iso 5.68 5.68 0.5 mtk yes tchain 5 pchain 5
run 5000000 # 5000000  # Run for this many steps
Neighbor list info ...
  update every 1 steps, delay 10 steps, check yes
  max neighbors/atom: 2000, page size: 100000
  master list distance cutoff = 3.8
  ghost atom cutoff = 3.8
  binsize = 1.9, bins = 8 8 8
  4 neighbor lists, perpetual/occasional/extra = 1 3 0
  (1) pair lj/cut, perpetual
      attributes: half, newton on
      pair build: half/bin/atomonly/newton
      stencil: half/bin/3d
      bin: standard
  (2) compute orientorder/atom, occasional
      attributes: full, newton on
      pair build: full/bin/atomonly
      stencil: full/bin/3d
      bin: standard
  (3) compute coord/atom, occasional
      attributes: full, newton on
      pair build: full/bin/atomonly
      stencil: full/bin/3d
      bin: standard
  (4) compute cluster/atom, occasional
      attributes: full, newton on
      pair build: full/bin/atomonly
      stencil: full/bin/3d
      bin: standard
Per MPI rank memory allocation (min/avg/max) = 9.822 | 9.827 | 9.834 Mbytes
Step Temp PotEng c_msd[4] v_twopoint v_fit v_max_n 
   12000    1.2486252   -7.1167074 1.0657511e-30 7.4010489e-33 8.3333333e+20            1 
   13000    1.2245833   -7.1261531   0.46367217 0.0029722574  0.037747649            2 
   14000    1.2570921   -7.0629609   0.91119659  0.005423789  0.037343972            1 
   15000     1.242089   -7.0994691    1.3356993 0.0074205512  0.036593788            1 
   16000    1.2511522    -7.095794     1.754725 0.0091391922  0.036135207            2 
   17000    1.2370701   -7.0836337     2.143359  0.010506662  0.035599382            3 
   18000    1.2686433   -7.0794682    2.5736115  0.011914868  0.035114357            1 
   19000    1.2290396   -7.0833128    3.0058689  0.013183635   0.03510772            1 
   20000    1.2333582    -7.066654    3.4245271  0.014268863  0.035245663            1 
   21000    1.2333551   -7.0974366    3.7649225  0.014940168  0.034930959            2 
   22000    1.2576451   -7.1021548    4.1956524  0.015892622   0.03466485            1 
   23000    1.2434707   -7.0951865    4.6226599  0.016748767  0.034546199            2 
   24000    1.2177336   -7.0505932    5.0330752  0.017475955  0.034434713            1 
   25000    1.2366761   -7.1582775    5.4915676  0.018305225  0.034452306            1 
   26000    1.2669883   -7.1093461      5.82075   0.01865625  0.034430459            2 
   27000    1.2313775    -7.120994    6.2208439  0.019200135  0.034282151            2 
   28000    1.2613808   -7.1292451    6.6771041  0.019872333  0.034249689            2 
   29000    1.2344523    -7.071643    7.1512213  0.020549486   0.03432693            2 
   30000     1.250398   -7.0898736    7.5612414  0.021003448  0.034396758            2 
   31000    1.2248004   -7.0492457    7.9159227  0.021279362   0.03442824            1 
   32000    1.2277174   -7.0989266    8.3356716  0.021707478  0.034408173            1 
   33000    1.2263758   -7.0518579    8.6910506  0.021947097  0.034378844            1 
   34000    1.2502116   -7.1182675    9.1510999  0.022429166  0.034339352            1 
   35000    1.2707956   -7.1154558    9.4874615  0.022589194  0.034286535            2 
   36000    1.2546426   -7.0888042    9.9186355  0.022959804  0.034239677            1 
   37000    1.2414863    -7.141029    10.420108  0.023468711  0.034259894            1 
   38000    1.2537215   -7.1002313    10.858737   0.02381302  0.034319679            1 
   39000    1.2545115   -7.1160754    11.331157  0.024211873  0.034384647            1 
   40000    1.2606699   -7.1306854    11.838198  0.024662912  0.034485645            4 
   41000    1.2414509   -7.0588182     12.29868  0.024997317  0.034606167            2 
   42000    1.2598404   -7.1247604    12.771967  0.025341204  0.034720281            1 
   43000    1.2378363    -7.110895     13.27529  0.025727305  0.034839181            1 
   44000    1.2587244   -7.1211116    13.580795  0.025721203  0.034951453            3 
   45000    1.2606911   -7.1087049     14.08665  0.026086389  0.035053569            1 
   46000    1.2584444   -7.1126906    14.454354  0.026185424  0.035143658            1 
   47000    1.2210673    -7.099849    14.860984  0.026349263  0.035186899            2 
   48000    1.2206144   -7.0851574    15.289932   0.02654502  0.035233359            5 
   49000    1.2340146   -7.1048856    15.705607  0.026710215  0.035256864            3 
   50000    1.2319624   -7.1335113    16.088314  0.026813856  0.035273353            2 
   51000    1.2354775   -7.1404404    16.553539  0.027048266  0.035301071            2 
   52000    1.2187502   -7.1076232    16.895401  0.027075963  0.035310985            3 
   53000    1.2595751   -7.1154062    17.237526  0.027103029  0.035293872            1 
   54000    1.2561707   -7.0776082    17.720297  0.027346137  0.035279341            1 
   55000    1.2428696   -7.1347667    18.092507  0.027412889   0.03525713            2 
   56000    1.2052797   -7.1367308     18.50782  0.027541399  0.035244389            2 
   57000    1.2552498   -7.1305078    18.889093  0.027615633  0.035234076            1 
   58000     1.235145   -7.1378743     19.14858  0.027512328  0.035206279            2 
   59000    1.2737686   -7.1276467    19.566811  0.027636739  0.035153614            1 
   60000    1.2420651   -7.1021796    19.965063  0.027729253  0.035101943            5 
   61000    1.2241311   -7.1186216    20.340535  0.027787616   0.03504871            2 
   62000    1.2299246   -7.0908321    20.807911  0.027967623  0.035002089            1 
   63000    1.2226999   -7.1044025     21.35602  0.028248704  0.034960171            1 
   64000    1.2291294   -7.0560614     21.73851  0.028305351  0.034939831            2 
   65000    1.2554359    -7.117567    22.160069  0.028410345  0.034920923            1 
   66000    1.2362219   -7.0922841    22.573846  0.028502331  0.034913776            1 
   67000    1.2224525   -7.0785571    22.861498  0.028434698  0.034895375            1 
   68000    1.2442836   -7.1240119    23.154189  0.028375231   0.03485436            2 
   69000    1.2393507   -7.1025545    23.575035  0.028472264  0.034811654            1 
   70000    1.2379095   -7.1306159    23.934161  0.028493048  0.034763807            1 
   71000    1.2542288   -7.1230076    24.445325  0.028691696  0.034714835            2 
   72000    1.2268382   -7.1209068    24.928978  0.028852984  0.034694326            1 
   73000    1.2912606   -7.1316906    25.209857  0.028778376  0.034668031            1 
   74000    1.2342577   -7.0885003    25.634344  0.028867505  0.034640417            1 
   75000    1.2560879   -7.1010814    26.093877  0.028993197  0.034612402            1 
   76000    1.2321988   -7.1272168    26.295199  0.028832455  0.034581033            3 
   77000    1.2393869   -7.1011208    26.779054   0.02898166  0.034543261            3 
   78000    1.2496263   -7.1144039    27.213204  0.029073935  0.034513759            1 
   79000    1.2174936   -7.1480908    27.367813     0.028869  0.034471527            2 
   80000    1.2449474   -7.1104485    27.931209  0.029095009   0.03442436            1 
   81000    1.2433832   -7.0960683    28.404364  0.029222596   0.03439975            1 
   82000    1.2353963   -7.1177722    28.878836   0.02934841  0.034378994            1 
   83000    1.2375498   -7.0991466    29.468172  0.029586518  0.034371106            4 
   84000    1.2341708    -7.117889    29.963831  0.029726023  0.034385564            1 
   85000    1.2275057   -7.1445135    30.473452  0.029875933  0.034397373            2 
   86000    1.2489602   -7.1331739    30.711249  0.029758962  0.034408315            1 
   87000    1.2353479   -7.1012223     31.35073  0.030029435  0.034419423            1 
   88000    1.2563674   -7.0907265    31.591234  0.029915941  0.034428318            1 
   89000     1.242844   -7.1130625     32.12122  0.030076049  0.034432428            2 
   90000     1.238294   -7.1254979    32.639175  0.030221458  0.034447746            1 
   91000    1.2679855   -7.1554727    33.074524  0.030288026  0.034472039            2 
   92000    1.2461546   -7.1602303    33.649641  0.030479748  0.034501964            2 
   93000     1.240943   -7.1043934    33.953435  0.030424225  0.034529472            1 
   94000    1.2259291   -7.1469459    34.427781  0.030521082   0.03456101            1 
   95000    1.2364955    -7.072108    34.993635  0.030696171  0.034598434            2 
   96000    1.2443631   -7.1181157    35.540298  0.030850953    0.0346353            1 
   97000    1.2462496   -7.1345322    35.837629  0.030788341  0.034673881            2 
   98000    1.2227839   -7.1439466    36.196446   0.03077929  0.034707186            1 
   99000    1.2434993    -7.086932    37.089348   0.03121999  0.034750563            1 
  100000    1.2347097   -7.1531138    37.367404  0.031139504  0.034800518            1 
  101000    1.2304374   -7.1375463     37.99535  0.031349299  0.034847604            1 
  102000    1.2241472   -7.1157944    38.318916  0.031306304  0.034886094            2 
  103000    1.2493053   -7.0900188    39.038159  0.031584271  0.034934269            1 
  104000    1.2376022   -7.1090655    39.492857  0.031644917  0.034987505            1 
  105000    1.2308783    -7.079223    39.946991  0.031703961  0.035036823            1 
  106000    1.2244829   -7.1308988    40.107303  0.031530899  0.035077293            1 
  107000    1.2436841   -7.1552544    40.578209  0.031602967   0.03511005            1 
  108000    1.2380322   -7.1075207    40.813353  0.031491785  0.035140723            1 
  109000    1.2187415   -7.0973335      41.2815   0.03156078  0.035164568            2 
  110000    1.2361448   -7.1564905    41.756304  0.031633564  0.035189302            1 
  111000     1.250853   -7.1161665    42.201785  0.031683022  0.035211816            2 
  112000    1.2242092   -7.0837417     42.68908  0.031762708  0.035230333            1 
  113000    1.2270395   -7.1650629    43.078743  0.031768984  0.035254877            2 
  114000     1.240032   -7.1563182    43.233157  0.031603185  0.035277771            3 
  115000    1.2084304    -7.139723    44.047488  0.031918469  0.035297237            2 
  116000    1.2189495   -7.1252223     44.52172  0.031983994  0.035321433            1 
  117000    1.2251449   -7.1283015    44.976174  0.032034312  0.035345804            2 
  118000    1.2358939   -7.0911981    45.418777  0.032075408  0.035367441            1 
  119000    1.2188784   -7.1300132    45.703249  0.032005076  0.035389084            1 
  120000    1.2193256   -7.1269095    46.180401  0.032069723  0.035415344            1 
  121000     1.235864   -7.1489398    46.502689  0.032026645  0.035437214            2 
  122000    1.2394023   -7.0916266    47.139263   0.03219895  0.035458146            1 
  123000    1.2433772   -7.1320026    47.669496  0.032296406  0.035485703            2 
  124000    1.2559778   -7.1421372    48.145967   0.03235616  0.035512366            2 
  125000    1.2204558   -7.1484967    48.806043  0.032537362  0.035543812            2 
  126000     1.240987   -7.1978908    48.942629  0.032369463  0.035571936            1 
  127000    1.2273092   -7.1031295    49.844217  0.032706179  0.035602193            2 
  128000    1.2180861   -7.1555886    50.142652  0.032644956  0.035636225            2 
  129000    1.2275499   -7.1114881    50.869919  0.032861705  0.035672926            1 
  130000    1.2322097   -7.1384203    51.182188  0.032809095  0.035712056            2 
  131000    1.2289119   -7.1619643     51.43093  0.032716876  0.035739735            1 
  132000    1.2190847    -7.182737    51.729744  0.032657666  0.035766869            1 
  133000    1.2217365   -7.1456803     52.33047  0.032788515  0.035793001            2 
  134000    1.2233108   -7.1552464    52.861386  0.032873996  0.035820239            5 
  135000    1.2606416   -7.1455511    53.382098  0.032951912  0.035846934            1 
  136000    1.2256664   -7.1043415    53.608971  0.032848634  0.035868354            1 
  137000     1.221342   -7.1548896    53.706213  0.032668013    0.0358851            3 
  138000     1.234984   -7.0513875    54.282722  0.032779421  0.035897738            1 
  139000    1.2086425   -7.1442044    54.764574  0.032832478  0.035910889            2 
  140000    1.2274573   -7.1427414    55.267745  0.032897467   0.03592553            3 
  141000    1.2301703   -7.1537917    55.215602  0.032633334  0.035931241            3 
  142000    1.2464984    -7.129107    55.836129  0.032767681  0.035935059            2 
  143000    1.2142101   -7.1407287    55.974069  0.032618921  0.035936719            1 
  144000    1.2399475   -7.1207487    56.758522  0.032846366  0.035940225            1 
  145000    1.2345972   -7.1407628    57.074922  0.032801679  0.035946446            2 
  146000    1.2344697   -7.1488831    57.647507  0.032903828  0.035954133            1 
  147000    1.2327215   -7.1286138    58.163229  0.032972352  0.035964576            4 
  148000    1.2264267   -7.1345646    58.646907  0.033021907  0.035974878            1 
  149000    1.1924865   -7.1491841    59.119638  0.033064674  0.035988529            1 
  150000    1.2414391   -7.1616301    59.350636  0.032972576  0.035999194            1 
  151000     1.244557   -7.1620223    59.903324  0.033059229  0.036009219            1 
  152000    1.2187515   -7.1672174     60.36917  0.033097133   0.03601806            2 
  153000    1.2077642   -7.1064018    61.056238  0.033255031  0.036027373            1 
  154000    1.2167788   -7.1596442    60.833923  0.032918789  0.036032012            1 
  155000     1.226292    -7.160231    61.111132  0.032855447  0.036030521            2 
  156000      1.23377   -7.0867705    61.765305  0.032994287  0.036023676            1 
  157000    1.2348753   -7.1503734     61.97181  0.032893742  0.036020087            2 
  158000    1.2176904   -7.1611082      61.9573  0.032677901  0.036009835            1 
  159000    1.2272838   -7.1091378    62.259231  0.032630624  0.035995241            1 
  160000    1.2420577   -7.1554635    62.731026  0.032672409  0.035979056            2 
  161000    1.2163721   -7.1567921    63.160279  0.032691655  0.035962458            1 
  162000    1.2317789   -7.0813674     63.67578  0.032755031  0.035948302            3 
  163000    1.2362585   -7.1478065    63.763416  0.032598884  0.035933525            2 
  164000    1.2067235   -7.1381182    64.603468  0.032826965  0.035922237            4 
  165000    1.2552872   -7.1210782    65.088193  0.032872824  0.035910145            2 
  166000    1.2268348   -7.1559526    65.595244  0.032929339  0.035897284            1 
  167000    1.2145975   -7.0984634    66.009258  0.032938751  0.035888651            1 
  168000    1.2144149   -7.1767231    66.060112  0.032767913  0.035877756            2 
  169000    1.2381204    -7.154238    66.417572  0.032750282  0.035862884            1 
  170000    1.2058677   -7.1709455    66.853145   0.03277115   0.03584947            2 
  171000    1.1990439    -7.131302     67.41479  0.032853211  0.035836339            1 
  172000    1.2138962   -7.1410613     67.68063  0.032791003  0.035822541            2 
  173000    1.2221077   -7.1417369      68.1469   0.03282606  0.035808359            1 
  174000    1.2298182   -7.1299953    68.520296  0.032816234  0.035795067            1 
  175000    1.2551604   -7.1747726    68.837131  0.032779586  0.035782645            2 
  176000    1.2233397   -7.1630158     69.26407  0.032795487  0.035769282            2 
  177000    1.2074475   -7.1488079    69.821403    0.0328726  0.035752344            1 
  178000    1.2050695   -7.1231201    69.982606  0.032763392  0.035738047            2 
  179000    1.2076484    -7.157199    70.412322   0.03278041  0.035722691            1 
  180000    1.2410298   -7.1483734     70.84485  0.032798541  0.035710309            1 
  181000    1.2001694   -7.1548952    71.461964  0.032901456  0.035700204            2 
  182000     1.236341   -7.1235127    72.315149  0.033111332  0.035693657            2 
  183000    1.2058197   -7.1906105    72.287148  0.032917645  0.035686724            1 
  184000    1.2321559   -7.1049587    72.884888   0.03300946  0.035678752            2 
  185000    1.2322693    -7.174917    73.470204  0.033094686  0.035673285            1 
  186000    1.2218569   -7.0905241    73.962076  0.033137131  0.035666145            2 
  187000    1.2328562    -7.151979    74.171707  0.033053345  0.035660192            1 
  188000    1.2375521   -7.1706513    74.703703  0.033113343  0.035658144            2 
  189000    1.2275588   -7.1440073    75.580705  0.033324826   0.03565784            2 
  190000    1.2288927   -7.1215066    75.766611   0.03323097   0.03565726            3 
  191000    1.2241064    -7.134841    76.246858  0.033266518   0.03565722            1 
  192000    1.2037896   -7.1334908    76.558319  0.033228437  0.035654042            1 
  193000    1.2023099   -7.1509085    76.643167  0.033092904  0.035651562            2 
  194000    1.1980224   -7.1559196    77.054024  0.033098807  0.035644213            2 
  195000    1.2136017   -7.1799088    77.679755  0.033196477  0.035637399            2 
  196000    1.2510007   -7.1244941    78.268845   0.03327757  0.035633604            2 
  197000    1.2098198   -7.1561718    78.791914  0.033329913  0.035630645            1 
  198000    1.2174706   -7.2088607    78.741993  0.033140569   0.03562359            2 
  199000     1.220719    -7.184964    79.046469  0.033101536  0.035615417            1 
  200000    1.2316825   -7.1223875    79.832885  0.033263702  0.035607766            1 
  201000    1.2513178   -7.1617434    79.913593  0.033131672  0.035602205            1 
  202000    1.2283716   -7.1092344    80.352127  0.033148567  0.035596883            2 
  203000    1.1893167   -7.1325487    80.839815  0.033185474  0.035589616            1 
  204000    1.2189575   -7.1429909    81.025121  0.033098497  0.035583374            1 
  205000    1.2260598   -7.1668965    81.595042  0.033168716    0.0355769            1 
  206000    1.2397381   -7.1843542    81.773762  0.033080001  0.035569288            3 
  207000    1.1977764   -7.2022296    82.421134  0.033180811  0.035560871            2 
  208000    1.2153606   -7.2179256    83.115304  0.033299401  0.035553868            2 
  209000    1.2110982   -7.1783507    83.534876  0.033307367  0.035549251            1 
  210000    1.1952666    -7.169076    83.794759  0.033251888  0.035544432            1 
  211000    1.2084516   -7.1385702    83.995109  0.033173424  0.035536311            1 
  212000    1.1895237   -7.1238116     84.76572  0.033319858  0.035528121            2 
  213000    1.2020208   -7.1588992    84.850436  0.033196571  0.035521822            1 
  214000    1.2093687   -7.1627784    85.258833   0.03320048  0.035512513            2 
  215000    1.2204855   -7.1994233     85.25717  0.033045415  0.035502708            2 
  216000    1.1928956   -7.1971249    86.159231  0.033240444  0.035494298            3 
  217000    1.2015025   -7.1845759    86.531539  0.033230238  0.035485929            3 
  218000    1.2282896   -7.1544566    86.936517  0.033232614  0.035476544            1 
  219000     1.199375   -7.1943907     87.33181  0.033231282  0.035468168            1 
  220000    1.2211835   -7.1802454    87.755269  0.033240632  0.035462445            2 
  221000    1.2310095   -7.1100764    88.442049  0.033349189  0.035456768            1 
  222000    1.2256565   -7.1447564    88.886628  0.033365851  0.035449405            3 
  223000    1.2084731   -7.1775792    89.476286  0.033436579  0.035445603            2 
  224000    1.2165724   -7.1973163    89.609142  0.033336734   0.03544153            1 
  225000    1.2075119   -7.1963199    89.998482  0.033332771  0.035436454            2 
  226000    1.2045249   -7.1754692    90.303045  0.033297583  0.035430282            2 
  227000    1.2167854   -7.1838047     90.77063  0.033322551  0.035423016            1 
  228000    1.2131173   -7.1764499    91.011261   0.03326435  0.035417814            1 
  229000    1.2400565   -7.1400263    91.763987  0.033393008    0.0354124            2 
  230000    1.2224325   -7.1513297    92.130936  0.033380774  0.035406231            4 
  231000    1.1916373    -7.164336    92.437609  0.033346901  0.035399946            2 
  232000    1.2110329   -7.1634292    92.983299  0.033399173  0.035394834            1 
  233000    1.2118465   -7.1401459    93.319371  0.033376027  0.035387973            1 
  234000    1.2485102   -7.1739073    93.802795  0.033405554  0.035381477            2 
  235000    1.2282711   -7.1608125    94.043929  0.033348911  0.035374777            1 
  236000    1.2214387     -7.17011    94.270954  0.033287766  0.035366541            2 
  237000    1.2156727   -7.1912949    94.316317  0.033163262   0.03535715            1 
  238000    1.1879752   -7.1501994    94.967023  0.033251759  0.035346431            1 
  239000    1.2218592   -7.1499161    95.228322  0.033203738  0.035337034            1 
  240000     1.219407   -7.1666482    95.908251  0.033301476  0.035327799            2 
  241000    1.2363643   -7.1360924    96.362347  0.033320314   0.03531927            2 
  242000    1.2267944   -7.1877176    96.094739  0.033090475  0.035308306            1 
  243000    1.2282219   -7.1834154    96.716837  0.033167639   0.03529857            1 
  244000    1.2240709   -7.2204447    96.609963  0.032995206  0.035286693            2 
  245000    1.1994411   -7.1806624    97.435723  0.033141402  0.035274458            2 
  246000    1.2250249   -7.1793181     98.28756  0.033295244   0.03526471            2 
  247000      1.20631   -7.1995331    98.355677  0.033183427  0.035256101            2 
  248000    1.2197551   -7.2372277    98.847425   0.03321486  0.035246703            1 
  249000    1.2475938   -7.1683748    99.616521  0.033338862  0.035238277            1 
  250000    1.2165463   -7.1949749    99.892839  0.033297613  0.035230186            1 
  251000    1.2569721   -7.1909725    100.39274  0.033330922  0.035222546            1 
  252000    1.1926326    -7.164832    100.97185  0.033390161   0.03521585            2 
  253000    1.1961067   -7.1732069     101.3161  0.033371575  0.035208771            1 
  254000    1.2035414   -7.1045783    101.72998  0.033375978  0.035203451            3 
  255000    1.2061743    -7.177972    101.98533  0.033328539   0.03519685            2 
  256000    1.2185649   -7.1427477    102.44506  0.033348002  0.035188677            2 
  257000    1.2105137   -7.2154053     101.9744  0.033065629  0.035179483            2 
  258000    1.2056298   -7.1517176     103.1079  0.033303585  0.035171668            1 
  259000    1.2000099   -7.1729611    103.29169  0.033234134  0.035163327            3 
  260000    1.2255519   -7.1828465    103.71766  0.033242838  0.035154448            2 
  261000    1.2096342   -7.1775991    104.24632  0.033284266  0.035145462            2 
  262000     1.194782    -7.188155    104.22813   0.03315144  0.035138018            1 
  263000      1.22742    -7.226901    104.97427  0.033261808  0.035129886            1 
  264000    1.1907097   -7.1444699     105.6285   0.03334233  0.035121734            1 
  265000    1.2079633    -7.154424    105.84214  0.033283691    0.0351162            1 
  266000    1.2040285   -7.1861463    105.95298   0.03319329  0.035107838            1 
  267000    1.1886044   -7.1673553    106.41745  0.033213936  0.035098026            2 
  268000    1.2207692   -7.1389087    106.84335  0.033222436  0.035090127            2 
  269000    1.2136722   -7.1570035    107.60033  0.033333437  0.035080379            1 
  270000    1.2390669   -7.2277841    107.20192  0.033087012  0.035068995            1 
  271000    1.2067857   -7.1735021    107.87421  0.033171651  0.035057795            1 
  272000    1.1803056   -7.1398607    108.35351  0.033196541  0.035048185            1 
  273000    1.2288962   -7.1498247    109.22429  0.033340747  0.035038964            1 
  274000    1.2013017   -7.1805494    109.38552  0.033268101  0.035030418            1 
  275000    1.1980473   -7.1564873      109.847  0.033286969   0.03502301            1 
  276000    1.2299695   -7.1330825    110.32605  0.033311006  0.035015864            1 
  277000    1.1841571   -7.1318627     110.6679  0.033293591  0.035009225            2 
  278000    1.2010469   -7.1742043    111.45158  0.033408748  0.035001616            4 
  279000    1.2088952   -7.2144767    111.29233  0.033241437  0.034994871            2 
  280000    1.1994279   -7.1814343    111.80193  0.033274383  0.034987384            5 
  281000    1.2213569    -7.178939    112.12224  0.033250962  0.034980312            2 
  282000    1.1814798   -7.1791108    112.65676  0.033291005  0.034973148            2 
  283000    1.2298232   -7.2077052    112.61215  0.033160234  0.034965354            2 
  284000    1.1838961   -7.1667652    113.27533  0.033238067  0.034957642            1 
  285000    1.2220442   -7.1484129    113.87151  0.033295762  0.034949914            3 
  286000     1.193894    -7.208671     113.6248   0.03310746  0.034941896            1 
  287000    1.2247896   -7.1521585     114.4114    0.0332205  0.034932509            3 
  288000    1.1977439   -7.1996697    114.30326  0.033073859   0.03492286            1 
  289000    1.2090139   -7.2200367    114.69299  0.033071797  0.034911938            1 
  290000    1.1993915    -7.189926    115.07665  0.033068003  0.034900831            1 
  291000    1.2140017   -7.2063276    115.41178  0.033050337  0.034891056            2 
  292000    1.2084767   -7.1918567    116.18518  0.033157872  0.034880891            2 
  293000    1.1598945   -7.2148084    116.08819  0.033017119  0.034870949            1 
  294000    1.2098045   -7.2457475    116.55293  0.033036544  0.034860646            1 
  295000    1.2005907   -7.2212102    117.20079  0.033107568  0.034850509            3 
  296000    1.1972893   -7.2275964    117.09741  0.032966614  0.034839259            1 
  297000    1.1645811   -7.1979303    117.95754  0.033096954  0.034828155            1 
  298000    1.2054279   -7.2372869    118.00357  0.032998762  0.034816734            1 
  299000    1.1953545   -7.1773471    118.48952  0.033023836  0.034805983            2 
  300000    1.1976358   -7.1319306    119.07257  0.033075715  0.034794105            2 
  301000    1.2160848   -7.2200489    119.20653  0.033002915  0.034782241            3 
  302000    1.2058212   -7.2447674    119.52104  0.032980419  0.034770968            1 
  303000    1.1937896   -7.2030585    119.54782  0.032878937  0.034758447            1 
  304000    1.2054481   -7.1629937    120.26707  0.032967947  0.034746376            1 
  305000    1.1955879   -7.1791553    120.31936  0.032874143  0.034733744            3 
  306000    1.1954954   -7.1930815    120.71547  0.032874584  0.034721558            2 
  307000    1.2057089   -7.2614093    120.97207  0.032837153  0.034707831            2 
  308000    1.2124441   -7.1701441    121.92733  0.032988997  0.034694845            4 
  309000    1.2100803   -7.1580532    122.14081  0.032939808  0.034681563            1 
  310000    1.2133336    -7.144087     123.1526  0.033105538  0.034668413            3 
  311000    1.1994334   -7.1966903    123.05436  0.032972766  0.034656432            2 
  312000    1.1823946   -7.1795639    122.90278  0.032826596  0.034643979            2 
  313000    1.2032309   -7.2259046    123.62114  0.032912977  0.034630871            2 
  314000    1.2190214   -7.1602127    124.12187  0.032941047  0.034618214            2 
  315000    1.2333231    -7.224168    124.14072  0.032841461   0.03460579            5 
  316000    1.1696363   -7.1906845    125.27398  0.033036388  0.034595005            2 
  317000    1.1884178   -7.2126679    125.23965  0.032923146  0.034584696            1 
  318000    1.1954798   -7.2463308    125.14524  0.032794873  0.034572496            1 
  319000    1.2102715   -7.2180067    125.89441  0.032887777  0.034560709            1 
  320000    1.1776378   -7.1455096    127.19596  0.033123947  0.034550568            1 
  321000    1.1935185   -7.1534831    127.99155  0.033227298  0.034542223            2 
  322000    1.1873424   -7.1958811     127.9944  0.033124845  0.034534795            1 
  323000    1.2180193   -7.2063568    128.28642  0.033097632  0.034527241            1 
  324000    1.2126868   -7.2077605    128.61491  0.033079967  0.034518926            2 
  325000    1.1984001   -7.1685841    129.13966  0.033112734   0.03451109            1 
  326000    1.2008529   -7.1864493    129.47959  0.033098054  0.034503639            1 
  327000    1.2048612   -7.2261664    129.37016  0.032968949  0.034494935            2 
  328000    1.2039367   -7.1585431      130.263  0.033095275  0.034486637            2 
  329000    1.2185494   -7.2044546     130.4121  0.033032446   0.03447784            1 
  330000     1.194856   -7.1820649    130.62768  0.032986789  0.034469034            1 
  331000    1.2140251   -7.2728979    130.52496  0.032861269  0.034459991            1 
  332000    1.1899909   -7.2175394    131.70622  0.033058789  0.034451046            2 
  333000    1.2035287   -7.2247355    131.49721  0.032907211  0.034442673            2 
  334000    1.2118874   -7.2283721    132.29373  0.033007418  0.034433499            2 
  335000    1.2117194    -7.206004    132.84006  0.033044792  0.034426417            1 
  336000    1.1792227   -7.2176926    132.86954  0.032953754  0.034419297            4 
  337000    1.2036966   -7.1722682    134.00108  0.033135777  0.034412705            1 
  338000    1.1973499   -7.1770574    133.97609  0.033031579  0.034406824            1 
  339000    1.1912931   -7.1756265    134.80513  0.033137938  0.034400268            1 
  340000    1.1955829   -7.1954554    134.84362  0.033049906  0.034393893            2 
  341000    1.2050851   -7.1512819    136.25338  0.033297502   0.03438895            1 
  342000    1.2178071   -7.1962628    135.69355   0.03306373  0.034383515            1 
  343000    1.1797028   -7.2313836    136.12154  0.033071317  0.034377864            3 
  344000     1.164299   -7.2417753    136.24459  0.033004987  0.034370858            2 
  345000    1.1916826   -7.2239069     136.4864  0.032967729  0.034362807            1 
  346000    1.1607346    -7.234879    136.82425  0.032953818  0.034355039            1 
  347000    1.1903974   -7.2470332    137.41861  0.033001588  0.034346927            2 
  348000    1.2029274   -7.1587022    137.78705  0.032994983  0.034339837            2 
  349000    1.1956316    -7.231441    137.72229  0.032884979  0.034331316            6 
  350000    1.2049707   -7.2216675    138.59271  0.032998263  0.034323331            2 
  351000    1.2023098   -7.2135644     138.9343   0.03298535   0.03431588            2 
  352000    1.2005336   -7.2160955    138.87385  0.032877332  0.034306592            1 
  353000     1.175473   -7.2276909    139.67991  0.032974484  0.034298369            1 
  354000    1.1827584   -7.2172013    140.31842  0.033031643  0.034291584            2 
  355000     1.194026   -7.2058454    140.88936   0.03307262    0.0342849            1 
  356000     1.187881    -7.254352    140.91203  0.032985025  0.034277978            2 
  357000    1.2004027    -7.225048    141.07689  0.032931114  0.034270323            1 
  358000     1.198313   -7.1968531    142.00107  0.033054254  0.034262481            1 
  359000    1.1986169   -7.2433591    141.48585  0.032842583   0.03425468            5 
  360000    1.2145751   -7.2067982    142.48534  0.032982718  0.034246924            1 
  361000    1.1646485   -7.2051926     142.7484  0.032952077  0.034239868            4 
  362000    1.2085003     -7.16556    142.93692  0.032904447   0.03423266            2 
  363000     1.213758   -7.2273192    143.86874  0.033027719  0.034224656            1 
  364000    1.1984294   -7.1811429    143.85082  0.032932881  0.034217809            2 
  365000    1.1927667   -7.2121093    143.82987  0.032837869  0.034209837            2 
  366000    1.1688637   -7.2631447    144.30232   0.03285572  0.034200829            1 
  367000    1.1948983   -7.2438747    144.63309  0.032841301  0.034191437            1 
  368000    1.1900504   -7.2392741    145.27755  0.032897996  0.034182708            2 
  369000    1.1993461   -7.2093021    146.10828   0.03299645  0.034174358            2 
  370000    1.1945443   -7.2788706    145.69085  0.032813255  0.034165055            2 
  371000    1.2359892   -7.2603154    146.17937  0.032834539  0.034156498            3 
  372000    1.1872509   -7.1743967    147.00522  0.032931276  0.034148114            1 
  373000    1.1944993   -7.2405302    147.14289  0.032873746  0.034140214            3 
  374000    1.1677763   -7.2300763     147.3243  0.032826271  0.034132799            2 
  375000    1.2313971   -7.2493375    147.85731   0.03285718  0.034125209            1 
  376000    1.1833114   -7.2349795    148.34439  0.032877746  0.034117086            2 
  377000    1.2093258   -7.1882998    148.80851  0.032893128  0.034108579            2 
  378000    1.2068703   -7.2506083    148.49979  0.032738049  0.034099702            1 
  379000    1.1872484   -7.2286286    148.83225  0.032724769  0.034090818            2 
  380000    1.2039976    -7.260822    149.59272  0.032805421  0.034082208            1 
  381000    1.1800785   -7.1995057    150.22396  0.032857385  0.034072793            2 
  382000     1.204548   -7.1893335    150.53257  0.032838693  0.034064225            1 
  383000    1.2038898   -7.1939133    150.21157   0.03268311  0.034055054            5 
  384000    1.1897983   -7.2127218     150.9523  0.032758745  0.034046491            1 
  385000    1.1898418   -7.1886706     151.8485  0.032867641  0.034038122            2 
  386000    1.1978477   -7.2266726    151.43528  0.032693282  0.034027982            2 
  387000    1.1810152   -7.2785039    151.33885  0.032588039  0.034017367            3 
  388000    1.2036952   -7.1977634    152.31236  0.032713135  0.034006126            3 
  389000    1.1874531   -7.1752952    151.70781   0.03249953  0.033995318            1 
  390000    1.1969287   -7.1969447    152.42708  0.032569889  0.033983718            1 
  391000    1.1879463   -7.2474745    152.85469  0.032577725  0.033972012            2 
  392000    1.1719738   -7.2373454    153.00557  0.032526693  0.033959712            1 
  393000    1.1688828   -7.1775008       153.76  0.032603901  0.033947791            3 
  394000    1.1916587   -7.1678688    153.84278  0.032538659  0.033935444            1 
  395000    1.1825996   -7.2343152    153.63213  0.032411841  0.033922309            3 
  396000    1.1708841   -7.2102154    154.45143  0.032502405  0.033908472            2 
  397000    1.2047184   -7.2190737    154.12209  0.032351405  0.033896087            4 
  398000    1.2061761   -7.2381137    154.88895  0.032430685  0.033883517            3 
  399000    1.2055317   -7.1731367    155.34892  0.032445472  0.033871936            2 
  400000    1.1877386   -7.2166261     155.6335  0.032423646   0.03385989            2 
  401000    1.2045793   -7.1849411    156.16071  0.032452351  0.033847386            3 
  402000    1.2168638     -7.22014    156.33892  0.032408565  0.033834314            1 
  403000    1.1664538   -7.2463823    156.27532  0.032314995  0.033820898            1 
  404000    1.1776806   -7.2019134    157.16088  0.032417673  0.033807329            3 
  405000     1.168124   -7.2545184    156.35914  0.032172663  0.033793608            4 
  406000    1.2026742   -7.2280554    157.69601  0.032367818  0.033780154            2 
  407000     1.188993   -7.2649298    157.97493  0.032345399  0.033766945            1 
  408000    1.1949369   -7.2540948     157.9321  0.032257373  0.033752823            2 
  409000    1.1908232    -7.217152    158.40288  0.032274426  0.033738608            2 
  410000    1.2021874   -7.2318869    158.83436  0.032283407  0.033724831            2 
  411000    1.1563592   -7.2425923    159.45289   0.03233027  0.033711141            1 
  412000    1.1808396   -7.2166105    160.30839  0.032424837  0.033697476            1 
  413000    1.1662979   -7.2459566    160.18587  0.032321604  0.033685071            3 
  414000    1.1887439   -7.2209099    160.27477  0.032261428  0.033672273            1 
  415000    1.1946176   -7.2391273    160.24016  0.032176739  0.033658254            2 
  416000    1.1894958   -7.2588915    160.28377  0.032108126  0.033644097            1 
  417000    1.1606495   -7.2252764    161.35914  0.032246032   0.03363029            1 
  418000    1.1810222   -7.2567556    161.17167  0.032131514  0.033616967            1 
  419000    1.1889067   -7.2630837    161.41904  0.032104025  0.033603121            2 
  420000    1.2075281   -7.2809654    161.80927  0.032105015  0.033589531            1 
  421000    1.1841297   -7.2885249    162.28564  0.032123049  0.033575436            1 
  422000    1.1934976   -7.2637542    162.65013  0.032118905  0.033561228            1 
  423000    1.1855907   -7.2725826    163.40495  0.032191677  0.033547909            1 
  424000    1.1879676    -7.257961    163.16468   0.03206853  0.033533109            2 
  425000    1.1906491   -7.2496377    163.82986  0.032123501  0.033518537            1 
  426000    1.1859841   -7.1935856    164.64282  0.032207124  0.033504675            1 
  427000    1.1848102   -7.2186874    165.04952   0.03221107  0.033491586            2 
  428000    1.1938812     -7.25091      164.265   0.03198306  0.033477477            1 
  429000     1.177624   -7.2590709    165.19716  0.032089581  0.033463411            3 
  430000    1.1706074   -7.2523202    165.22166  0.032019701  0.033450006            2 
  431000    1.1971056   -7.2672566    166.09331  0.032113943  0.033436659            1 
  432000    1.1933528   -7.2698329    166.30224  0.032079908  0.033423061            3 
  433000    1.1801262   -7.2589839    167.28331  0.032194632   0.03340947            1 
  434000    1.1913939   -7.2253566    167.56986  0.032175473     0.033397            2 
  435000    1.1870806   -7.2370384    167.85972  0.032157034  0.033385441            3 
  436000    1.1958773   -7.2674284    167.21272  0.031959618  0.033372693            3 
  437000    1.1793786   -7.2214491    168.54214  0.032139996  0.033360198            1 
  438000    1.2205313   -7.2418905     168.6318  0.032083675  0.033347148            1 
  439000    1.1869758   -7.2393056    168.84039  0.032050188  0.033333833            1 
  440000     1.169027   -7.2806495    168.39351  0.031892711  0.033320797            3 
  441000    1.1963938   -7.2144693    169.09537  0.031953018  0.033307127            2 
  442000     1.185126   -7.2385866      169.272  0.031914028  0.033293257            2 
  443000    1.1808574   -7.2358991    170.01474  0.031981704  0.033279241            1 
  444000    1.1850038   -7.1946746    170.26067  0.031955831  0.033266088            1 
  445000    1.1639398   -7.2422049    170.15278  0.031863817  0.033252252            5 
  446000    1.1557173   -7.2216036    170.84871  0.031922405  0.033237973            2 
  447000    1.1973727   -7.2262037    171.28799  0.031932884  0.033224158            2 
  448000    1.1857683   -7.2534631    171.70545  0.031939257  0.033210342            1 
  449000    1.1647216   -7.2572847    171.39005  0.031809587  0.033196448            2 
  450000    1.1939667   -7.2646476    172.30481  0.031908297  0.033182936            1 
  451000    1.1809535   -7.2442225    172.76838  0.031923203  0.033170153            1 
  452000    1.1871757   -7.2599106    172.86151  0.031869748  0.033157194            3 
  453000    1.1801788   -7.2486815    173.79082   0.03197035  0.033144312            1 
  454000    1.1985854   -7.2125906    173.63988  0.031872225  0.033130778            1 
  455000    1.1779425   -7.2594264    173.65724  0.031805355   0.03311732            4 
  456000    1.1749379    -7.246406    174.36958  0.031865786  0.033104236            2 
  457000    1.1796268   -7.2432162    174.59613  0.031837369  0.033091257            2 
  458000    1.2072108   -7.2244481    175.31179   0.03189807  0.033078451            1 
  459000    1.1436183   -7.2660551     174.8897  0.031751943  0.033065972            1 
  460000    1.1883117   -7.2080718    175.83861  0.031854821  0.033052372            4 
  461000    1.1813145   -7.2334706    176.09252  0.031831619  0.033039326            2 
  462000    1.1943002   -7.2576686    176.29894  0.031799952  0.033026251            1 
  463000    1.2076636   -7.2759369    175.92002   0.03166307  0.033012914            2 
  464000     1.198737   -7.2178226    177.29305  0.031841424  0.032999614            1 
  465000    1.2028288   -7.2092225    177.15656  0.031748487  0.032986999            3 
  466000    1.1889114   -7.3186115    176.81587  0.031619433  0.032974362            2 
  467000    1.1592294   -7.2890243    177.59477  0.031690716  0.032960822            1 
  468000    1.1812578   -7.2834581    177.76728  0.031653719  0.032947337            2 
  469000    1.1834805   -7.2638455    178.29865  0.031680641  0.032933956            6 
  470000    1.1897951   -7.2659103    178.93226  0.031725577  0.032920584            1 
  471000    1.1579805   -7.2976044    179.26293  0.031716725   0.03290781            1 
  472000    1.1764535   -7.2742624    179.45696  0.031683785  0.032894591            1 
  473000      1.16428   -7.2565754    180.05838  0.031722759  0.032881684            2 
  474000    1.1819284   -7.2429829    180.42678  0.031720601   0.03286888            1 
  475000    1.2080332   -7.2424674    180.19163  0.031612566  0.032855371            2 
  476000    1.1792668   -7.2679559    180.70898  0.031636726  0.032841346            1 
  477000    1.2045791   -7.2677905    181.23358   0.03166205   0.03282778            2 
  478000    1.1884007   -7.2528812    182.14777   0.03175519  0.032815393            1 
  479000    1.1813498   -7.2571783    181.56495    0.0315875  0.032802858            4 
  480000    1.1745566   -7.2492989    182.37176  0.031661763  0.032789091            3 
  481000    1.1777442   -7.2420533    182.73557  0.031658969    0.0327759            1 
  482000    1.1558809   -7.2348002    182.74335  0.031594631  0.032762891            2 
  483000    1.1859893   -7.2898492    182.18355  0.031432634   0.03274915            1 
  484000    1.1891236   -7.3117202    183.08395  0.031522719  0.032734999            2 
  485000    1.1672112   -7.2310973    183.56049  0.031539604  0.032721651            1 
  486000    1.1936338   -7.3066223    184.38508  0.031616098  0.032708641            1 
  487000    1.1808859   -7.2470291    184.20598   0.03152053  0.032696066            1 
  488000    1.1853777   -7.2623413    184.45193  0.031497939  0.032682019            2 
  489000    1.1769148   -7.2285029    185.08904  0.031542099  0.032668426            2 
  490000    1.1676789   -7.2425064    184.46912    0.0313723  0.032654178            3 
  491000    1.1657577   -7.2273909    185.12405   0.03141956  0.032640324            2 
  492000    1.1710981   -7.2301159     185.5161  0.031422104  0.032626959            1 
  493000     1.150966   -7.2579496     185.8214  0.031409974  0.032613161            1 
  494000    1.1727866   -7.2168547    186.71787  0.031497617  0.032600111            2 
  495000    1.1830169   -7.2744535    186.95441  0.031473806  0.032587446            3 
  496000    1.1836208   -7.2579602    187.35811  0.031478177  0.032574705            3 
  497000    1.1623332   -7.2512349    187.12708  0.031376103   0.03256143            3 
  498000    1.1933287    -7.272455    187.34683  0.031349871  0.032548226            4 
  499000    1.1558031   -7.2491332    188.32114  0.031449756  0.032535179            1 
  500000     1.203037   -7.2393419    188.21345  0.031368909  0.032522357            1 
  501000    1.1600639    -7.233042    189.07827  0.031450144  0.032509722            2 
  502000    1.1619725   -7.2541949    189.39146  0.031439486  0.032497024            1 
  503000    1.1801256   -7.3017485    189.41211  0.031380403   0.03248404            2 
  504000    1.2077902   -7.2081822    190.16346  0.031442371  0.032471939            2 
  505000    1.1847812   -7.2601839    190.69637  0.031468048  0.032459249            2 
  506000    1.1722019   -7.2410831     190.1665  0.031318593  0.032446698            1 
  507000    1.1561623   -7.2203015    190.70378  0.031345132  0.032433728            1 
  508000    1.1652736   -7.2258747    191.19808  0.031364514  0.032420398            2 
  509000    1.2010235   -7.3261043     191.2814  0.031316536   0.03240729            3 
  510000    1.1764109   -7.2243888    191.84055  0.031346495  0.032394667            1 
  511000    1.1733734   -7.2640208    192.24023  0.031350331   0.03238226            2 
  512000    1.1420116   -7.2481865    192.46662  0.031325947   0.03236975            3 
  513000    1.1884552   -7.2850621    192.29311  0.031236698  0.032356459            1 
  514000    1.1950292   -7.2492536    193.55779  0.031380965  0.032343554            2 
  515000    1.1686115   -7.2760918     192.9038  0.031214208  0.032330531            1 
  516000    1.1440592   -7.2982371    192.96988  0.031164386  0.032317102            1 
  517000    1.1541991   -7.2296387    194.46161  0.031344554  0.032303894            2 
  518000    1.1481615   -7.2543815    194.42483  0.031278126  0.032291142            2 
  519000    1.1211983   -7.2741617    194.52634  0.031234159  0.032277835            3 
  520000    1.1665225   -7.2703523     194.7604  0.031211602  0.032265063            1 
  521000    1.1774263   -7.2815343    194.86237  0.031168005  0.032252315            2 
  522000    1.1417196     -7.27505    195.24731  0.031169749  0.032239519            1 
  523000    1.1863621   -7.2851037    195.85169  0.031206451  0.032226421            4 
  524000    1.1785407   -7.2576323    196.07876   0.03118301  0.032213044            3 
  525000    1.2018245    -7.289236    195.99586  0.031110455  0.032199824            1 
  526000     1.158719   -7.2473565     196.6651  0.031157335  0.032186746       -1e+20 
  527000    1.1798393   -7.2789046    196.92238  0.031138896  0.032173586            2 
  528000    1.1839765   -7.2771865    197.07969  0.031104749  0.032160596            2 
  529000    1.1615515   -7.2948037    196.68858  0.030984339  0.032147496            1 
  530000    1.1315321   -7.2862871    197.48549  0.031051177  0.032134418            1 
  531000    1.1617198   -7.2985806    198.20781  0.031106059  0.032121789            3 
  532000    1.1562379   -7.2975224    199.04081  0.031178071  0.032109356            2 
  533000    1.1516371   -7.2747246    198.89761  0.031097187   0.03209712            2 
  534000     1.179996   -7.3021812    199.31909  0.031104727  0.032084091            1 
  535000     1.172529   -7.2678333    200.19943  0.031183712  0.032072613            4 
  536000    1.1657833   -7.2676229    200.92464  0.031238284  0.032061027            2 
  537000     1.188377   -7.2791438    201.28939  0.031236715  0.032049823            3 
  538000    1.1791401   -7.2880223    200.95342  0.031126614  0.032038658            1 
  539000    1.1706914    -7.269156    201.58272  0.031166159  0.032027758            1 
  540000    1.1997579   -7.2824684    202.63275  0.031270486  0.032017902       -1e+20 
  541000    1.1883555    -7.293437    202.49839  0.031191989  0.032006935            1 
  542000    1.1631129   -7.2875396     202.7271  0.031169603   0.03199641            1 
  543000    1.1546803   -7.2893571    203.12542  0.031173331  0.031985401            2 
  544000    1.1836513    -7.268782    204.05562   0.03125852  0.031974937            2 
  545000    1.1538302     -7.27679    203.57169   0.03112717  0.031964731            1 
  546000    1.1663538   -7.3116416    203.22941   0.03101792  0.031953313            4 
  547000    1.1350391   -7.2828455    204.49985  0.031154761  0.031942604            2 
  548000    1.1796532   -7.2935908    204.59471  0.031112334  0.031932187            3 
  549000    1.1621582   -7.3073733    204.54577  0.031048235  0.031921465            1 
  550000    1.1673303   -7.2761633    204.70383  0.031015731   0.03191068            2 
  551000    1.1757337   -7.3349087    204.92192  0.030992425  0.031899455            1 
  552000    1.1545702    -7.281061    206.04557  0.031105914  0.031888339            1 
  553000    1.1690927    -7.318785    206.18868  0.031071229  0.031878024            2 
  554000     1.170642   -7.2657948    207.09771  0.031151881  0.031867266            2 
  555000    1.1747272   -7.2253138    207.64149    0.0311774  0.031857212            2 
  556000     1.145656   -7.2733126    207.94609   0.03116698  0.031846995            2 
  557000    1.1534437   -7.2954971    207.41964  0.031032263  0.031836578            2 
  558000    1.1564491   -7.2949399    207.84577  0.031040289  0.031826316            1 
  559000     1.146088   -7.2562754    209.31661  0.031204027  0.031816406            1 
  560000    1.1748356    -7.312421    208.57199  0.031037499  0.031806176            7 
  561000    1.1550276   -7.2929948    208.26985  0.030937292  0.031795138            1 
  562000    1.1900078   -7.2511821    209.24677  0.031027101   0.03178417            1 
  563000    1.1653634   -7.3314939    209.04694  0.030942412  0.031773334            1 
  564000    1.1529492    -7.288507    208.98478  0.030878365  0.031762027            1 
  565000    1.1720054   -7.3132879    208.33233  0.030727482  0.031750177            2 
  566000    1.1730335   -7.3120274    209.38313  0.030827904  0.031737561            4 
  567000    1.1548028    -7.270007     209.6917  0.030818886  0.031725178            1 
  568000    1.1891769   -7.2644536    209.72754  0.030769886  0.031712973            1 
  569000    1.1794424   -7.3242216    209.47961  0.030679497  0.031700597            3 
  570000    1.1576584   -7.2884159     210.1224  0.030719649  0.031688007            2 
  571000    1.1536175   -7.2947203    210.32959  0.030696087  0.031675673            2 
  572000    1.1515712   -7.2773977    210.64144  0.030687855  0.031663403            2 
  573000    1.1691424   -7.2817805    211.72574  0.030791992  0.031650939            1 
  574000    1.1490545   -7.3281957    210.61535  0.030577141  0.031638049            3 
  575000     1.139275   -7.3067587    211.92202  0.030713336   0.03162531            3 
  576000    1.1387525   -7.3211141    211.72412  0.030631383  0.031612119            1 
  577000    1.1653856   -7.3107016    212.10749  0.030633664  0.031599117            1 
  578000    1.1268603   -7.2952965    212.25898  0.030602506  0.031585944            1 
  579000    1.1220752   -7.3145886    212.78086  0.030624764  0.031572664            1 
  580000    1.1812123   -7.3266064    212.63765  0.030551386  0.031559028            2 
  581000    1.1495577   -7.2826579     212.9678  0.030546155  0.031545267            2 
  582000    1.1943277   -7.3214056     212.9941  0.030497437  0.031531717            2 
  583000    1.1677815   -7.2851852    212.89378  0.030430786  0.031517633            1 
  584000    1.1721395   -7.2808331    212.78804   0.03036359  0.031503245            2 
  585000     1.137551   -7.3099726    213.61834  0.030429963  0.031488473            2 
  586000    1.1753352   -7.2619875    214.08511  0.030444412    0.0314742            1 
  587000      1.13947   -7.2968687    213.40853  0.030296498  0.031459763            2 
  588000    1.1412824   -7.2855238    213.61078  0.030273636  0.031445063            1 
  589000     1.160194   -7.3130595    214.40497  0.030334602  0.031430582            4 
  590000    1.1848735   -7.3044373    214.96646  0.030362494   0.03141572            2 
  591000    1.1639296   -7.3115625    214.38774  0.030229517  0.031401055            1 
  592000    1.1428342   -7.3047979    215.79414  0.030376427  0.031386623            2 
  593000    1.1651148   -7.2896469    216.04045  0.030359816  0.031372076            1 
  594000    1.1609963   -7.3050299    216.97271  0.030439493  0.031357875            1 
  595000    1.1755249   -7.3113766    216.25398  0.030287673  0.031343499            1 
  596000    1.1889228   -7.3038994    216.90241  0.030327518   0.03132944            2 
  597000    1.1394695   -7.2889315    216.90584  0.030277197  0.031315689            2 
  598000    1.1508331   -7.3355202    217.22684  0.030271299  0.031301873            2 
  599000    1.1651315   -7.2633937    217.94022  0.030320009  0.031287738            2 
  600000    1.1651933   -7.2996176    217.81035  0.030251438  0.031274125            2 
  601000    1.1506024   -7.2575638    218.72596  0.030328058  0.031261174            1 
  602000    1.1566895   -7.3146486    218.90671  0.030302701   0.03124792            5 
  603000    1.1780622   -7.3212207    219.24688  0.030299458  0.031234418            6 
  604000    1.1608422   -7.3496845     219.2552  0.030250441  0.031220733            3 
  605000    1.1648594   -7.3390322    218.91919  0.030154158  0.031206869            2 
  606000    1.1500457   -7.3393011     219.1328  0.030133773  0.031193133            3 
  607000    1.1828803   -7.3056627    220.80631  0.030313881   0.03117975            2 
  608000    1.1462388   -7.3040862    221.22078   0.03032083  0.031166819            2 
  609000    1.1533127    -7.315806    221.25959  0.030276353  0.031153657            1 
  610000     1.143444   -7.3527946    220.76108  0.030158618   0.03114059            2 
  611000    1.1474188     -7.31812    221.72807  0.030241144  0.031127274            3 
  612000    1.1571481   -7.3448269    221.42959  0.030151088  0.031113929            1 
  613000    1.1536475   -7.3463331    222.10887  0.030194246  0.031100936            1 
  614000    1.1409887   -7.3201763     222.2985  0.030170806  0.031088311            3 
  615000    1.1280489   -7.2945822    223.51923  0.030287158   0.03107572            3 
  616000    1.1520669   -7.3166517    223.28766  0.030206664  0.031063574            1 
  617000    1.1620265   -7.2982204    224.11979  0.030270096  0.031051073            1 
  618000    1.1714346    -7.284975     224.4705  0.030268406  0.031038964            2 
  619000    1.1431486   -7.2937634    224.40813  0.030211111  0.031027361            3 
  620000    1.1594923   -7.3150641      225.189  0.030267339  0.031015586            1 
  621000    1.1799373   -7.3407144    224.96226  0.030188172  0.031003335            3 
  622000    1.1500869   -7.3073251    225.21935  0.030174082  0.030991483            1 
  623000    1.1648385   -7.3283943    226.34428   0.03027612  0.030980051            1 
  624000    1.1572987   -7.3244234    226.59576  0.030261186  0.030968643            1 
  625000    1.1341351   -7.2912124    226.66588  0.030222118   0.03095728            1 
  626000    1.1477333   -7.3221474    226.98847  0.030216782  0.030945796            1 
  627000    1.1704531   -7.3493375    226.60388  0.030117474   0.03093433            1 
  628000    1.1360717   -7.3140605    227.95105  0.030248281  0.030922931            2 
  629000    1.1636962   -7.3029718    227.73651  0.030171768  0.030911727            1 
  630000    1.1737753   -7.3396999    227.54749  0.030098874   0.03090036            2 
  631000    1.1707653   -7.3354713    228.03082  0.030115005  0.030888847            1 
  632000    1.1368578   -7.3540131    228.46105  0.030124084  0.030877467            1 
  633000    1.1582514   -7.3424258    228.60445  0.030095373  0.030865476            2 
  634000    1.1279408   -7.3229871     228.9294  0.030090616  0.030853426            3 
  635000    1.1541236   -7.3241142    229.26637   0.03008745  0.030841657            1 
  636000    1.1565342   -7.3320513    229.89274  0.030122214   0.03083009            2 
  637000    1.1583173   -7.2993247    231.11532  0.030234867  0.030819027            1 
  638000    1.1657211   -7.3178701    230.99831  0.030172193  0.030808069            1 
  639000    1.1527527   -7.3114564    230.77501  0.030095855  0.030796838            2 
  640000    1.1403933   -7.2859089    231.57138  0.030152524  0.030786071            3 
  641000    1.1571324   -7.3070719    232.20066  0.030187293  0.030775776            1 
  642000    1.1598393    -7.355061    232.60175  0.030192335  0.030765142            1 
  643000    1.1450063   -7.3113743    232.31391  0.030108075  0.030755033            1 
  644000    1.1370648   -7.2914575    233.72247  0.030243591  0.030744548            3 
  645000     1.168691   -7.2617227    234.03976  0.030237695  0.030735049            1 
  646000    1.1502075   -7.3359403    234.00628  0.030186569   0.03072575            1 
  647000    1.1504117   -7.3410047    234.50112  0.030203648  0.030715654            1 
  648000    1.1777007   -7.3404557    233.09365  0.029976035   0.03070546            2 
  649000    1.1453611   -7.2423931    235.83242  0.030281512  0.030695403            2 
  650000    1.1660722   -7.3281035    235.59681  0.030204719  0.030685705       -1e+20 
  651000    1.1290048   -7.3138275    234.95682  0.030076398   0.03067556            3 
  652000    1.1494992   -7.2990852    235.81858  0.030140411   0.03066483            4 
  653000    1.1214183   -7.3346633    235.10073  0.030002645  0.030653779            2 
  654000    1.1186762    -7.325237     235.5503  0.030014054  0.030643224            1 
  655000    1.1498513    -7.299432    235.61229  0.029976118  0.030632821            1 
  656000    1.1616284   -7.3725845    235.48152  0.029913811  0.030622487            1 
  657000     1.151899   -7.3308609    236.24624  0.029965277  0.030612056            1 
  658000    1.1508066   -7.3080327    237.40524   0.03006652  0.030601895            2 
  659000    1.1413068   -7.2918639    237.60673  0.030046374  0.030591731            1 
  660000     1.148077    -7.341549    237.24817  0.029955577  0.030581398            3 
  661000     1.136431   -7.3404528    238.23541  0.030034722  0.030571026            2 
  662000    1.1174771      -7.3491    238.10515  0.029972955  0.030560335            1 
  663000    1.1429026   -7.2852518    238.66752  0.029998431  0.030549947            2 
  664000     1.129329   -7.3747936    238.01282  0.029871087  0.030539543            2 
  665000    1.1434779   -7.3451237    238.79948  0.029924747  0.030529345            3 
  666000    1.1446895   -7.3140353    239.86528  0.030013174  0.030519033            1 
  667000    1.1280076   -7.3627229    239.18045  0.029882615  0.030508655            2 
  668000    1.1583941   -7.3101955    240.40069  0.029990106  0.030498611            2 
  669000    1.1716636   -7.3390736    240.79766  0.029994726  0.030488708            2 
  670000     1.150708   -7.3356351    241.44993  0.030031086  0.030479091            1 
  671000    1.1460499      -7.3374     241.9291  0.030045839  0.030469766            5 
  672000    1.1747539   -7.2964251    241.91021  0.029998786  0.030460336            1 
  673000    1.1229034    -7.275797    241.21811  0.029868512  0.030450612            2 
  674000    1.1213416   -7.3053988    241.36049  0.029841801  0.030440152            1 
  675000    1.1162373   -7.3262936    242.14775  0.029894783  0.030429708            2 
  676000    1.1314438   -7.3228613    241.41321  0.029760011  0.030419021            1 
  677000    1.1235738   -7.3730133    242.08294  0.029798491  0.030408234            1 
  678000    1.1411457    -7.334584    242.23477  0.029773202  0.030397108            4 
  679000    1.1461329    -7.309687    242.57969  0.029771685  0.030385884            4 
  680000    1.1371987   -7.3210296    242.89119  0.029766077  0.030374956            1 
  681000    1.1389588   -7.3189943    243.15833  0.029755058  0.030364566            2 
  682000    1.1374876   -7.3354084    243.54151  0.029758249  0.030353919            1 
  683000    1.1322047    -7.315818    244.23814  0.029799675  0.030343204            1 
  684000    1.1315041   -7.3258598    244.34699   0.02976937  0.030332623            1 
  685000    1.1489628   -7.3425333    244.57431  0.029753565   0.03032208            1 
  686000    1.1433171   -7.3207485    244.70644  0.029726244  0.030311694            1 
  687000    1.1475429   -7.3247071    246.14829  0.029857871  0.030301129            2 
  688000    1.1547889   -7.3712103    245.24505  0.029705069   0.03029081            1 
  689000     1.144164   -7.3232949    245.79001  0.029727868  0.030280547            2 
  690000    1.1391058   -7.3746653     246.2559   0.02974105  0.030270194            4 
  691000    1.1346729   -7.3491184    246.41813  0.029717574  0.030260311            1 
  692000    1.1287118    -7.312661    246.80119   0.02972076  0.030249952            1 
  693000    1.1250763   -7.3227689    247.38736  0.029748359  0.030239895            2 
  694000    1.1201974   -7.3108656    247.87678  0.029764263  0.030230047            4 
  695000    1.1274156   -7.3440394    247.10676  0.029629108  0.030219972            3 
  696000    1.1241564   -7.3125074    248.24567  0.029722901  0.030209939            2 
  697000    1.1436559   -7.3713037    246.82535  0.029510443  0.030199695            1 
  698000    1.1639726   -7.3511046    247.72416  0.029575472  0.030189398            2 
  699000    1.1415856   -7.3302691    248.67522  0.029646545  0.030179263            1 
  700000    1.1381729   -7.3678811    248.69758  0.029606855   0.03016905            1 
  701000    1.1427498   -7.3544103      248.988  0.029599144  0.030158715            1 
  702000    1.1073978   -7.3771511    249.62615  0.029632734  0.030148043            2 
  703000    1.1293247   -7.2992677    250.28665  0.029668877  0.030137931            1 
  704000    1.1307685   -7.3040023    250.56247  0.029659383  0.030127477            1 
  705000    1.1475443   -7.3576096    250.67838  0.029631014  0.030117143            7 
  706000    1.1500043   -7.3466504    250.38914  0.029554903  0.030106865            2 
  707000    1.1385096   -7.3216176    251.08883  0.029595572  0.030096377            1 
  708000    1.1559959   -7.3192881    251.99077  0.029659931  0.030086412            1 
  709000    1.1539535   -7.3747087    250.81303   0.02947967  0.030076266            2 
  710000    1.1274029   -7.3813491    251.31355  0.029496895  0.030066008            1 
  711000    1.1260308   -7.3088136    252.80407  0.029630107  0.030055963            1 
  712000     1.124339   -7.3169293     252.7264  0.029579401  0.030045987            2 
  713000    1.1153677   -7.3883388    252.75283  0.029541005  0.030035856       -1e+20 
  714000    1.1247663   -7.3477832    252.30394  0.029447239  0.030025506            3 
  715000    1.1332788   -7.3776152    253.11683  0.029500796  0.030015174            1 
  716000    1.1415452   -7.3151548    254.01295  0.029563891  0.030005315            2 
  717000    1.1245244   -7.3443717    254.24868  0.029550055  0.029995559            3 
  718000    1.1200974   -7.3855713    254.21562  0.029505063  0.029985873            1 
  719000    1.1514869   -7.3816582    254.35382  0.029480044  0.029976005            1 
  720000    1.1391249   -7.3684448    255.41711  0.029562166  0.029966172            2 
  721000    1.1279849   -7.3487549    255.79995  0.029565412  0.029956552            2 
  722000    1.1359282   -7.3419199    255.57231  0.029498189  0.029947098            1 
  723000    1.1281613   -7.3223319    256.10641   0.02951895  0.029937656            2 
  724000    1.1413946   -7.3578553    255.83186  0.029446577  0.029928366            2 
  725000    1.1362614   -7.3967362    256.69458  0.029505124  0.029918687            1 
  726000    1.1514674   -7.3584713    256.82027  0.029478911  0.029908994            2 
  727000    1.1394384    -7.344609    257.69735  0.029538899  0.029899407            2 
  728000    1.1321162   -7.3584209    256.93428  0.029410976  0.029889671            2 
  729000    1.1270168   -7.3123691     258.1209  0.029506276  0.029880302            1 
  730000     1.139787   -7.3644856    259.01446  0.029567861  0.029871101            2 
  731000    1.1466576   -7.3379797    258.90683  0.029515143   0.02986201            2 
  732000    1.1352555   -7.3650421     258.7868  0.029461157  0.029853074            2 
  733000    1.1297097   -7.3596279    259.73101  0.029528309  0.029844035            1 
  734000     1.125536   -7.3490852     259.9336   0.02951108  0.029835257            2 
  735000    1.1202153   -7.3632599    260.91173  0.029581829  0.029826467            1 
  736000    1.1395285   -7.3372117     260.3508  0.029478125  0.029817896            3 
  737000    1.1285097   -7.3591357    261.06175  0.029518516  0.029809781            2 
  738000    1.1221691   -7.3660181    260.83785  0.029453235  0.029801157            2 
  739000    1.1413831   -7.4011528    261.17733  0.029451661  0.029792591            1 
  740000    1.1210014   -7.3989515    260.99063  0.029390837  0.029783808            2 
  741000    1.1120513   -7.3714244    261.46836  0.029404899  0.029774747            1 
  742000      1.11939   -7.3319189    262.23718  0.029451615  0.029765891            3 
  743000    1.1201852   -7.3880451    261.87614  0.029371483  0.029756839            1 
  744000    1.1502076   -7.3304118    262.75551    0.0294305   0.02974806            2 
  745000    1.1132486   -7.3446747    262.69706  0.029384458  0.029739137            3 
  746000    1.1341326    -7.360213    262.43649  0.029315962  0.029730203            3 
  747000    1.1523459   -7.3596793    263.54782  0.029400694  0.029721294            2 
  748000    1.1222659   -7.3404386    264.70843   0.02949069   0.02971236            1 
  749000    1.1488307   -7.3648119    263.98368  0.029370681  0.029704075            1 
  750000    1.1301826   -7.3492096    264.26855  0.029363172  0.029695251            1 
  751000     1.135961   -7.3941965    264.64507  0.029365853  0.029686559            2 
  752000     1.119572   -7.4008916    265.01058  0.029367307  0.029677776            3 
  753000    1.1391078   -7.3526064    266.14139  0.029453451  0.029669374            2 
  754000    1.1292363   -7.3637588     266.4194  0.029445115  0.029661264            3 
  755000    1.1110957   -7.3752062    266.83887  0.029452414  0.029653272            1 
  756000    1.1422981   -7.3156732    267.87736  0.029527927  0.029645605            2 
  757000     1.127879   -7.3222966     267.6352  0.029462263  0.029638177            1 
  758000    1.1460741   -7.3699951    267.45132  0.029403179  0.029630143            2 
  759000    1.1480552   -7.3761275    268.72997  0.029504828  0.029622332            1 
  760000    1.1389134    -7.369299    268.12788  0.029399987  0.029614585            2 
  761000    1.1296603   -7.3424249    268.55917  0.029408582  0.029606837            1 
  762000     1.133257   -7.3613077    268.88553   0.02940568  0.029598915            2 
  763000    1.1308342   -7.3590623    268.64913   0.02934132  0.029591007            1 
  764000    1.1210559   -7.3759932    269.26284  0.029369856  0.029583318            2 
  765000    1.1438622   -7.3836643    269.56806  0.029364713  0.029575561            2 
  766000    1.1476422    -7.357486    270.32413   0.02940863  0.029567881            1 
  767000    1.1405493   -7.3758636     270.2445  0.029361636  0.029560229            4 
  768000     1.134668   -7.3700627    271.33088  0.029441285  0.029552421            2 
  769000    1.1556877   -7.3566369    271.59323  0.029431429  0.029545049            2 
  770000    1.1237643   -7.3963355    271.09769  0.029339577  0.029537336            1 
  771000    1.1456409    -7.380542    271.21963  0.029314703  0.029529619            1 
  772000     1.115044   -7.3772075    271.88919  0.029349005  0.029521655            2 
  773000    1.1498135   -7.3917827    271.29357  0.029246827   0.02951362            2 
  774000    1.1178205   -7.3308581    272.84977   0.02937659  0.029505774            1 
  775000    1.1463039   -7.3767735     272.3738  0.029287505  0.029497824            2 
  776000    1.1193706   -7.4004727    272.67675  0.029282297  0.029489759            1 
  777000    1.1231147   -7.3682034    272.93977   0.02927282  0.029481657            2 
  778000    1.1075986   -7.3521621    273.12564  0.029255103  0.029473488            2 
  779000    1.1345213   -7.3409152    273.84212  0.029294194  0.029465827            2 
  780000    1.1210508   -7.3602226     274.6681  0.029344882  0.029458121            4 
  781000    1.1269573   -7.3508078     274.8084  0.029322279  0.029450466            1 
  782000    1.1485852   -7.3813882    275.17994  0.029324376  0.029442865            1 
  783000    1.1238418   -7.3863634    275.86275  0.029359594  0.029435541            3 
  784000    1.1249965   -7.3934898    274.88837  0.029218577  0.029428493            5 
  785000    1.1000581   -7.3408444    276.41023  0.029342912  0.029420965            2 
  786000    1.1424134   -7.3775709    275.85952  0.029247192  0.029413613            4 
  787000    1.1133952    -7.379341    276.23839  0.029250147  0.029405861            5 
  788000    1.1035262   -7.3578065    276.91781  0.029284879  0.029398077            3 
  789000    1.0940308   -7.3231218    277.25938  0.029283839  0.029390655            4 
  790000    1.1336613   -7.3847771    277.63365   0.02928625  0.029383464            1 
  791000    1.1375172   -7.3728405    278.27285  0.029316566  0.029376303            1 
  792000    1.1387339   -7.3851459    278.27429  0.029279703  0.029369223            1 
  793000    1.1241113   -7.4168261    277.65527  0.029177729  0.029362182            2 
  794000    1.1570549   -7.3715158    278.79843   0.02926096  0.029355055            1 
  795000    1.1343863   -7.3669349    279.73166  0.029321976  0.029347983            2 
  796000    1.1407709   -7.3980743    279.19523  0.029228982  0.029341044            1 
  797000    1.1287298   -7.3194945    281.00463  0.029381497  0.029334246            1 
  798000     1.125499   -7.4049254    280.36475  0.029277856  0.029327053            2 
  799000    1.1234167   -7.3867104    279.91412  0.029194213  0.029319663            2 
  800000    1.1072877   -7.3687289    280.77724  0.029247629  0.029312652            1 
  801000    1.1154222   -7.3922402    281.38043   0.02927387  0.029305675            2 
  802000    1.1285899   -7.4123072     280.4138  0.029136929  0.029298356            3 
  803000    1.1250714     -7.36571    281.52089  0.029215534  0.029291281            2 
  804000    1.1070957   -7.3790778    281.00902  0.029126143  0.029284295            1 
  805000    1.1349678   -7.3577159    281.67528  0.029158931  0.029276989            2 
  806000    1.1175292   -7.3365761    281.74629  0.029130096   0.02926978            2 
  807000    1.1322303   -7.3963999    281.33997  0.029052041  0.029262239            2 
  808000     1.128457   -7.4039685    282.90429  0.029177422  0.029255371            1 
  809000    1.1136326   -7.3607807     284.2457  0.029279532  0.029248783            2 
  810000    1.0976493   -7.3937392    282.91406  0.029106385  0.029241984            1 
  811000    1.1059085   -7.3418087    284.11342  0.029193734  0.029235158            3 
  812000    1.1050162   -7.3977676     283.8626   0.02913204  0.029228375            2 
  813000    1.1407064   -7.3519304    284.27642  0.029138625  0.029221432            1 
  814000    1.1196537   -7.3954643    284.10221  0.029084993  0.029214184            1 
  815000      1.09543   -7.4119789    283.86949   0.02902551  0.029206992            1 
  816000    1.1026104   -7.4276441    284.51415  0.029055775  0.029199674            2 
  817000    1.1042853    -7.408247    284.90412  0.029059988  0.029192223            3 
  818000    1.1173476   -7.3965222    285.54611  0.029089865  0.029184573            2 
  819000    1.1031638   -7.4088522    284.94503  0.028993186   0.02917701            2 
  820000    1.1347263    -7.408089    285.95509  0.029060477  0.029169629            3 
  821000     1.123866   -7.4074547    285.98714  0.029028333  0.029161636            2 
  822000     1.126829   -7.3686806    286.69873  0.029065159  0.029153995            1 
  823000    1.1392122   -7.4097971    286.75959  0.029036005  0.029146318            5 
  824000    1.1140326    -7.403902    286.66814  0.028991519  0.029138842            2 
  825000    1.1158861   -7.3707742    287.99256  0.029090157  0.029131558            2 
  826000    1.1198474   -7.3998831    287.33509  0.028988608  0.029124306            4 
  827000    1.1259514   -7.4204089    287.12811    0.0289327  0.029116791            1 
  828000    1.1468548   -7.4043374    288.62277  0.029048186  0.029109418            3 
  829000    1.1288574   -7.3915739    289.02724  0.029053804  0.029101886            1 
  830000    1.1405124   -7.4050123    288.40091  0.028955914  0.029094452            2 
  831000    1.1257377   -7.4423341    288.30129   0.02891108  0.029087399            1 
  832000    1.0888932   -7.3600394     290.0284  0.029049318  0.029080334            1 
  833000    1.1122893   -7.3641586     290.1958  0.029031192   0.02907339            2 
  834000    1.1003746   -7.3924252    289.64867  0.028941714  0.029066339            3 
  835000    1.1326785   -7.4350947    290.68152  0.029010132  0.029059526            1 
  836000    1.1012144   -7.3593251    290.11422  0.028918882  0.029052706            1 
  837000    1.1230022    -7.358065    291.72987  0.029045188  0.029045692            2 
  838000    1.1184141   -7.4174276    290.61049  0.028899214  0.029038306            1 
  839000    1.1081378   -7.3715105    291.10244  0.028913631  0.029031195            3 
  840000    1.1113131   -7.3602971    293.05081  0.029072501  0.029024311            2 
  841000    1.1482282   -7.4063572    292.08283  0.028942017  0.029017271            1 
  842000    1.1038376   -7.3915103    293.38804  0.029036821  0.029010281            4 
  843000    1.1190117   -7.4082036    292.92662  0.028956764  0.029003349            2 
  844000    1.1301748   -7.4074805    292.72773  0.028902817  0.028996096            5 
  845000    1.1091165   -7.4176469    293.01743  0.028897182  0.028989112            3 
  846000    1.1130086   -7.3875981    293.90561  0.028950514  0.028982009            1 
  847000    1.1288817    -7.421487    294.63024  0.028987627  0.028975024            2 
  848000    1.1141096   -7.4129835    293.78807  0.028870683   0.02896802            3 
  849000    1.0958713   -7.3789776    294.89279  0.028945111  0.028961153            2 
  850000    1.0799904   -7.3991859    295.01077  0.028922625  0.028953995            3 
  851000    1.1477061   -7.4301473    294.74511  0.028862624  0.028946904            1 
  852000     1.125133   -7.3930958    295.42044    0.0288948  0.028939639            3 
  853000    1.1473345   -7.4063188     294.9554  0.028815494   0.02893259            3 
  854000    1.1033761   -7.3815742    296.08451  0.028891931  0.028925477            2 
  855000    1.1266081   -7.3767516    294.73924  0.028727021  0.028918145            3 
  856000    1.1137127   -7.4001698    296.71642  0.028885944  0.028911102            3 
  857000    1.1309487   -7.4346861    296.18335  0.028800403  0.028903979            1 
  858000     1.137294   -7.4004968    296.23496  0.028771849  0.028896508            2 
  859000    1.1140678    -7.394613    297.35615  0.028847124  0.028889002            1 
  860000    1.1265536   -7.4318181    296.94731  0.028773964  0.028881279            2 
  861000    1.1262543   -7.4176209    297.02522  0.028748086   0.02887356            2 
  862000    1.1197583   -7.4134011    296.63223  0.028676743  0.028865569            2 
  863000    1.0886395   -7.4138097    296.74345  0.028654254  0.028857556            1 
  864000    1.1315016   -7.4021278     296.8145  0.028627942  0.028849668            1 
  865000    1.1267815   -7.4154106      297.671   0.02867736  0.028841874            3 
  866000    1.1156132   -7.3823957    297.56312  0.028633864  0.028834315            1 
  867000    1.1654635   -7.3943274    297.54525   0.02859912  0.028826436            1 
  868000    1.1152291   -7.4276062    298.17256  0.028626398  0.028818373            1 
  869000    1.1114944   -7.4027749    299.61667   0.02873194  0.028810525            1 
  870000    1.1263039    -7.396787    299.01852  0.028641621  0.028802549            1 
  871000    1.1398627   -7.4096689    299.08438  0.028615038  0.028794619            2 
  872000    1.1103447    -7.387646    299.78203  0.028648894  0.028786926            2 
  873000    1.1028148   -7.4334098    299.44449  0.028583857  0.028779248            2 
  874000     1.114021   -7.3937405    301.03987  0.028703267  0.028771808            4 
  875000    1.1109833   -7.4196874    300.80144  0.028647756  0.028764656            2 
  876000    1.1245548   -7.4093352    300.81059  0.028615923   0.02875716            2 
  877000     1.108401   -7.4040957    300.65383  0.028568399  0.028749675            4 
  878000    1.0892657    -7.395826    301.62346  0.028627891  0.028742205            2 
  879000    1.1051038   -7.3708785    302.60957   0.02868881  0.028735075            1 
  880000    1.1043552   -7.4101742    301.33346  0.028535366   0.02872773            2 
  881000    1.0948255   -7.3994287    301.73418   0.02854088  0.028720284            2 
  882000      1.09742   -7.3959795    302.11683  0.028544674  0.028712761            3 
  883000    1.0914489   -7.3901404    304.04379  0.028694204   0.02870551            1 
  884000    1.1136025   -7.3826593    303.78942  0.028637766  0.028698393            3 
  885000    1.1287936   -7.4133126     303.5622  0.028584011  0.028691088            2 
  886000    1.0898786   -7.3738135    304.65726  0.028654746  0.028683545            2 
  887000    1.1442575   -7.4344013    304.28543  0.028587507  0.028676253            2 
  888000    1.1313799   -7.4080241    304.27075  0.028553937  0.028668912            2 
  889000    1.1223597   -7.4325389    305.19527   0.02860848  0.028661896            1 
  890000    1.1055088   -7.4420667    305.26474  0.028582841  0.028654934            1 
  891000     1.120535   -7.4111093    305.53843  0.028576359  0.028648222            2 
  892000    1.1318424   -7.5010218     306.3768  0.028622646  0.028641454            2 
  893000    1.1041667   -7.4342381    305.94726  0.028550509  0.028634516            1 
  894000    1.1045787    -7.403825     307.1851  0.028633958  0.028627679            2 
  895000    1.1015446    -7.385973    308.13727  0.028690621  0.028621231            2 
  896000    1.1019896     -7.42874    307.61404  0.028609937  0.028614514            2 
  897000    1.1147105   -7.4623821    307.82431  0.028597576  0.028607889            1 
  898000     1.104797   -7.4267337    308.44775  0.028623585   0.02860131            1 
  899000    1.1180817   -7.4285714    308.49876  0.028596474  0.028594852            1 
  900000    1.1076606   -7.3973389    308.84517  0.028596775  0.028588164            2 
  901000    1.1174701   -7.4225376    308.85413  0.028565865   0.02858168            1 
  902000    1.1074179   -7.4060159    309.77621  0.028619384  0.028575119            2 
  903000    1.1172746   -7.3845997    311.02947  0.028703347  0.028568742            1 
  904000    1.1053898   -7.4236302    311.14329  0.028682088  0.028562942            1 
  905000    1.0705653   -7.4582267    310.51644  0.028592674  0.028556598            1 
  906000    1.1133581    -7.398109    311.92309  0.028690497  0.028550205            1 
  907000    1.1239092   -7.3874533    311.07241  0.028580707  0.028543996            4 
  908000    1.0849661   -7.4247814    311.37034  0.028576573  0.028537674            2 
  909000    1.1229831   -7.4643946     311.0877  0.028519225  0.028531251            2 
  910000    1.1220552   -7.4012905    312.45045  0.028612679  0.028525042            3 
  911000    1.0920961   -7.4277481    313.12342   0.02864283  0.028518823            1 
  912000    1.1018854   -7.4405031    312.54353  0.028558437  0.028512599            1 
  913000    1.0930831    -7.416456    312.13789  0.028490132   0.02850629            2 
  914000    1.1089892   -7.3917396    312.82567  0.028521669   0.02849994            1 
  915000    1.1156492   -7.4321065    312.42565  0.028454067  0.028493094            6 
  916000    1.0865588   -7.4282984    312.87031  0.028463456  0.028486469            1 
  917000    1.1096601   -7.4490204    313.45194  0.028485273  0.028479808            2 
  918000    1.0863211   -7.4321385    313.55363  0.028463474  0.028473321            1 
  919000     1.097658    -7.431796    314.09564   0.02848165  0.028466827            1 
  920000    1.0880259   -7.3889155    314.96899    0.0285298  0.028460439            1 
  921000    1.1385757   -7.4526435    314.89369   0.02849201  0.028454284            2 
  922000    1.1106882   -7.4348313    314.50384  0.028425871  0.028447734            3 
  923000    1.0667386   -7.4426539    316.18148   0.02854654  0.028441389            2 
  924000    1.1013593   -7.4016287     316.5318   0.02854724   0.02843523            1 
  925000    1.1326473   -7.4308831    317.21717  0.028578124  0.028429398            2 
  926000    1.1001549    -7.415876    316.59997  0.028491718  0.028423535            3 
  927000    1.0955709   -7.4443654    316.40283  0.028443261  0.028417657            2 
  928000    1.1020155   -7.4029019    317.22592  0.028486523  0.028411494            2 
  929000    1.1077647   -7.4330659    317.89507  0.028515884  0.028405279            1 
  930000    1.1074979   -7.4369113    317.57164   0.02845624   0.02839923            3 
  931000    1.1022426    -7.465042    317.70663  0.028437757  0.028393138            2 
  932000      1.10583   -7.4574813    317.42576  0.028382132  0.028386865            3 
  933000    1.1033644    -7.486848    317.60555   0.02836777  0.028380652            2 
  934000     1.105464   -7.4170026    318.49264  0.028416545  0.028374431            1 
  935000    1.1054118   -7.4386398    318.63698  0.028399018  0.028368191            1 
  936000    1.0876939   -7.4431153    318.21295  0.028330925  0.028361695            2 
  937000    1.0922148   -7.4058121    318.43713  0.028320627  0.028355137            2 
  938000    1.1072869   -7.4035895     319.8216  0.028413433  0.028349002            1 
  939000    1.0987731   -7.4183001    319.71001   0.02837327  0.028342991            1 
  940000    1.1158781   -7.3710653    320.75769  0.028435965  0.028336724            3 
  941000    1.0990197    -7.436721    319.60504  0.028303669  0.028330229            1 
  942000    1.0748185   -7.4258285     320.6872  0.028369356  0.028323832            2 
  943000    1.0965679   -7.4512375    320.77292  0.028346847  0.028317635            1 
  944000    1.0896446   -7.4178136    321.57588  0.028387701  0.028311133            2 
  945000    1.1178895   -7.4326231    320.93181  0.028300865  0.028304841            2 
  946000    1.0952969   -7.4568498    320.35836  0.028220433  0.028298372            2 
  947000    1.1145666   -7.4844548    320.64316  0.028215695  0.028291823            2 
  948000    1.0948887   -7.4283901    322.67872  0.028364866  0.028285238            1 
  949000    1.0819934   -7.4327339    322.66163  0.028333476  0.028278893            1 
  950000    1.0996776    -7.473045    321.85799  0.028233157  0.028272193            5 
  951000    1.0948602   -7.4539334    323.00564  0.028304035  0.028265476            8 
  952000    1.0997231   -7.4246952    323.07792   0.02828063  0.028258869            2 
  953000    1.1264476   -7.4727622    323.66816  0.028302568  0.028252691            1 
  954000    1.1004514   -7.4260185      323.849  0.028288697  0.028246573            5 
  955000    1.0971162   -7.4416666     325.1048  0.028368656  0.028240438            1 
  956000    1.0859623   -7.4235557    324.58189    0.0282934  0.028234493            2 
  957000    1.1063244    -7.444457    325.76417  0.028366786   0.02822839            2 
  958000    1.0881078   -7.4460505    325.63228  0.028325703  0.028222433            2 
  959000    1.0991045   -7.4212683    326.77326  0.028395312   0.02821651            3 
  960000    1.0840492    -7.469743    326.41469  0.028334609  0.028210738            2 
  961000    1.1300787   -7.4514044    325.49758  0.028225597  0.028204915            3 
  962000    1.1213747   -7.4242295    327.01941  0.028328085  0.028199165            3 
  963000    1.1023701   -7.4088436    327.60897  0.028349686  0.028193416            1 
  964000    1.0904078   -7.4428834    327.36078  0.028298823  0.028187393            4 
  965000    1.0874749   -7.4263928    326.93843  0.028233025  0.028181316            2 
  966000    1.0792891   -7.4683281    326.88522  0.028199208  0.028175029            7 
  967000    1.1021565   -7.4421424    327.49953  0.028222986    0.0281688            1 
  968000    1.0944854   -7.4285952    329.50971  0.028366882  0.028162884            1 
  969000    1.1176973   -7.4559908     329.2487  0.028315162  0.028156949            1 
  970000     1.126462    -7.451379    327.70301   0.02815318  0.028150921            3 
  971000    1.1030375   -7.4650064    328.98685  0.028234368  0.028144607            1 
  972000     1.079944   -7.4579767    328.79776  0.028189108  0.028138447            2 
  973000    1.0944551   -7.4774981      329.088  0.028184995  0.028132167            2 
  974000    1.0860896   -7.4664883    329.19512  0.028165222  0.028126046            2 
  975000    1.1011627   -7.4744348    330.05353  0.028209704  0.028119829            5 
  976000    1.0779226   -7.4470884    329.45537  0.028129728  0.028113632            1 
  977000    1.1239178   -7.4399398    329.65198  0.028117705  0.028107162            1 
  978000    1.0927279   -7.4450619    330.39417  0.028152196  0.028100652            1 
  979000    1.0899848   -7.4660127    329.63886  0.028059147  0.028093952            1 
  980000    1.1098078   -7.4293184    331.35298  0.028176274  0.028087514            1 
  981000    1.0954276   -7.4454488    330.09658  0.028040824  0.028081133            1 
  982000    1.0938347   -7.4469458    330.98197  0.028087405  0.028074708            2 
  983000    1.1047032   -7.4939291    330.55412   0.02802256  0.028068245            2 
  984000    1.0699048   -7.4217728    331.98013  0.028114848  0.028061846            2 
  985000    1.0758906   -7.4564664    331.46988  0.028043137  0.028055401            2 
  986000    1.0993475   -7.4809633    331.74119  0.028037626   0.02804875            3 
  987000    1.0803773   -7.4651006    332.33821  0.028059626  0.028042264            1 
  988000    1.0846403    -7.444448    332.44438   0.02804018  0.028035795            1 
  989000    1.0850225   -7.4970289     332.2327  0.027993992   0.02802917            1 
  990000    1.1003136   -7.4476193    332.90915  0.028022656  0.028022448            3 
  991000    1.0984052     -7.45806    332.86856  0.027990965  0.028015921            1 
  992000    1.0794732   -7.4684204    333.11889  0.027983778  0.028009318            2 
  993000    1.1033041   -7.4167779     334.2487  0.028050411  0.028002832            3 
  994000    1.1072295   -7.4605685    333.82598  0.027986752  0.027996238            2 
  995000    1.0957192   -7.4224443    334.10776  0.027982224  0.027989624            4 
  996000    1.1164541   -7.4501336    334.62843  0.027997693  0.027982952            1 
  997000    1.1030715   -7.4465402    334.71519  0.027976863  0.027976223            2 
  998000    1.1114213   -7.4582165    335.01388  0.027973771  0.027969246            1 
  999000    1.0958309   -7.4787676    334.68931  0.027918694  0.027962319            2 
 1000000    1.0705128   -7.4562249    334.75721  0.027896435  0.027955782            2 
 1001000     1.106853   -7.4596261    335.11743  0.027898554  0.027949169            2 
 1002000    1.1090428   -7.4306176    335.76152  0.027924278  0.027942424            1 
 1003000     1.106106   -7.4965299    335.61638  0.027884378  0.027936037            2 
 1004000    1.0866392    -7.429643    337.23761  0.027991169  0.027929399            1 
 1005000    1.0704492   -7.4464713    337.77154   0.02800759  0.027922764            3 
 1006000    1.0855102    -7.435459    338.38781    0.0280308  0.027916403            1 
 1007000    1.0907839   -7.4512325    337.92619  0.027964763  0.027910025            3 
 1008000     1.083694   -7.4856148    337.25836  0.027881808  0.027903607            1 
 1009000    1.0742767   -7.4537342     337.7899  0.027898076   0.02789721            2 
 1010000    1.1151937   -7.4392125    338.85998  0.027958745  0.027890781            1 
 1011000    1.0973081   -7.4380576    338.03416   0.02786302  0.027884256            3 
 1012000    1.0736839   -7.4343715    339.97667  0.027995444  0.027877593            1 
 1013000    1.1047372    -7.468557    338.78541   0.02786981  0.027871091            3 
 1014000    1.0880153   -7.4063019    338.77588  0.027841541  0.027864276            2 
 1015000    1.0918965   -7.4996209    339.61874  0.027883312    0.0278575            1 
 1016000    1.0853982   -7.4305767    340.83699   0.02795579  0.027850722            1 
 1017000    1.0964255   -7.4528703     339.1388  0.027789151  0.027843961            1 
 1018000    1.0988284   -7.4364111     340.6856  0.027888474  0.027837328            1 
 1019000    1.1018982   -7.4648603     340.5805   0.02785251  0.027830591            2 
 1020000    1.0955395   -7.4672078    341.13863  0.027870803  0.027824102            2 
 1021000    1.0963959   -7.4334452    342.10176  0.027922116  0.027817562            2 
 1022000    1.0760315   -7.4384818    341.61897  0.027855428  0.027811227            2 
 1023000    1.0969372   -7.4525765    341.29911  0.027802143  0.027804805            2 
 1024000    1.0812696   -7.4843975    342.46839  0.027870149  0.027798572            3 
 1025000    1.0873786   -7.4615998    341.97918  0.027803185   0.02779208            1 
 1026000     1.098338   -7.4742942    342.38553  0.027809091  0.027785623            2 
 1027000    1.0770776   -7.4819184    342.21244  0.027767968  0.027779057            2 
 1028000    1.1112251    -7.463756    342.94472  0.027800318  0.027772588            1 
 1029000     1.099901   -7.4317001    342.90935  0.027770437  0.027766165            2 
 1030000    1.1123892   -7.4891099    343.12309  0.027760768  0.027759608            2 
 1031000    1.0803934   -7.5123256    343.20235  0.027740248  0.027752851            1 
 1032000    1.0910677   -7.4860244    343.11669  0.027706451  0.027746091            1 
 1033000    1.1004143   -7.4659514    344.70251  0.027807559  0.027739687            1 
 1034000    1.0714602   -7.4463682     343.9846  0.027722808  0.027733208            1 
 1035000      1.09661   -7.4258331    344.64486  0.027749183  0.027726484            1 
 1036000    1.0789945   -7.4545317    344.24768   0.02769045  0.027719772            2 
 1037000    1.0983749    -7.463787    344.31433  0.027669104   0.02771313            2 
 1038000    1.0997533   -7.4736444    344.60772  0.027666002  0.027706557            1 
 1039000    1.0847667   -7.5029339     345.0698  0.027676436  0.027699847            2 
 1040000     1.077447   -7.4482027    345.27291  0.027666098  0.027693147            3 
 1041000    1.0829886   -7.4456047      344.999  0.027617596  0.027686395            4 
 1042000    1.0806523    -7.488314    344.59723   0.02755896  0.027679642            3 
 1043000    1.0483728   -7.4783121    345.85412   0.02763296  0.027672774            1 
 1044000    1.1055555    -7.455731    346.06946  0.027623679   0.02766579            3 
 1045000    1.0829376   -7.4702798    346.71237  0.027648514  0.027658995            1 
 1046000    1.1100916    -7.452247     347.5354  0.027687652  0.027652107            2 
 1047000    1.0966767   -7.4348973    346.89065  0.027609889  0.027645426            1 
 1048000    1.0959381   -7.4515465    348.26033  0.027692456  0.027638734            1 
 1049000    1.0878071   -7.4833435    347.11537  0.027575101  0.027632073            2 
 1050000    1.0745114   -7.4570079    348.12871  0.027629263  0.027625188            4 
 1051000    1.0763793   -7.4723158    348.05372  0.027597028  0.027618405            2 
 1052000    1.0768966   -7.4756522    347.83011  0.027553082  0.027611375            1 
 1053000    1.0708052   -7.4629069    349.12423  0.027629331  0.027604383            1 
 1054000    1.0873271   -7.4753736    349.25492   0.02761345  0.027597456            2 
 1055000    1.0874988     -7.50781    348.87194  0.027557026  0.027590511            1 
 1056000    1.0858198   -7.4799992     349.2877  0.027563739  0.027583408            2 
 1057000    1.0792431   -7.4232215    349.97262  0.027591661  0.027576538            1 
 1058000    1.0626408   -7.4417291     349.9723  0.027565556  0.027569586            1 
 1059000    1.0914424   -7.4879208    349.94151  0.027537103  0.027562661            1 
 1060000    1.0611514   -7.5114595    350.32292   0.02754111  0.027555869            4 
 1061000    1.0771491   -7.4691637    351.57596  0.027613569  0.027549028            3 
 1062000    1.0901388   -7.4714939    351.52376  0.027583471  0.027542262            1 
 1063000    1.0695852   -7.5343043    350.03875  0.027441106  0.027535251            2 
 1064000    1.0779956   -7.4868513    351.97198  0.027566728  0.027528238            3 
 1065000    1.0739536   -7.4883187    351.78925  0.027526545  0.027521429            1 
 1066000    1.0938437   -7.5223797    351.42118   0.02747195  0.027514479            1 
 1067000    1.0850875   -7.4891382    351.27589  0.027434856  0.027507697            2 
 1068000    1.0610926   -7.4950415    351.79932  0.027450009  0.027500844            1 
 1069000    1.0737415   -7.4965305    353.13302  0.027528299  0.027494143            2 
 1070000    1.0919275   -7.5245393    352.13383  0.027424753  0.027487434            1 
 1071000    1.0773209    -7.454811    354.15538  0.027556441  0.027480681            3 
 1072000    1.0709461   -7.4947169    353.76578   0.02750045  0.027474109            1 
 1073000    1.0912222   -7.4859314    353.57565  0.027460054  0.027467518            2 
 1074000     1.090314   -7.4901111    353.56817  0.027433905  0.027460706            1 
 1075000    1.1177692     -7.50442    353.23385  0.027382469  0.027453942            1 
 1076000    1.0909926   -7.5067416     354.1669  0.027429283  0.027447226            1 
 1077000    1.0874494   -7.4638621    354.77304  0.027450715  0.027440569            1 
 1078000    1.0691551   -7.4612279    355.88306  0.027511059  0.027434151            1 
 1079000    1.0910814   -7.4959808    354.99915  0.027417296  0.027427439            2 
 1080000    1.0832267   -7.4875574    356.28842   0.02749139  0.027420805            3 
 1081000     1.102856   -7.4629439    356.48159  0.027480851   0.02741425            2 
 1082000    1.0637246   -7.5027323    355.24141  0.027359936  0.027407729            1 
 1083000    1.0787168    -7.477589    355.57937  0.027360678  0.027401264            1 
 1084000    1.0754897   -7.5274888    355.64184   0.02734024  0.027394568            2 
 1085000    1.0871023   -7.5236946    356.27228  0.027363462  0.027387553            2 
 1086000    1.0650113   -7.5102771    356.57874  0.027361782   0.02738069            4 
 1087000    1.0881774   -7.4721485     356.7919  0.027352952  0.027373798            1 
 1088000     1.107163   -7.5137787    357.15615   0.02735571  0.027366983            2 
 1089000    1.0581407   -7.5052976    357.44277  0.027352523  0.027360262            1 
 1090000    1.0791655   -7.5003344    357.41809  0.027325542  0.027353666            4 
 1091000    1.0804625   -7.4811829    358.14268  0.027355842  0.027346712            3 
 1092000    1.0643825   -7.4733776    358.31337  0.027343817  0.027340189            1 
 1093000    1.0624651   -7.4360411    358.98576  0.027370064  0.027333717            2 
 1094000     1.083924   -7.5147006    357.86303  0.027259524  0.027326889            2 
 1095000    1.0955208   -7.4553008    357.73935  0.027225217  0.027319907            1 
 1096000    1.0980342   -7.4946083    357.64226  0.027192994  0.027312859            1 
 1097000    1.0715069   -7.5237606    359.07403   0.02727697  0.027306023            2 
 1098000    1.0681561   -7.4763277    359.53122  0.027286826   0.02729908            1 
 1099000    1.0547429    -7.472585    359.14277  0.027232543  0.027292154            3 
 1100000    1.0720676   -7.4880605    360.20213   0.02728804  0.027285235            1 
 1101000    1.1069806   -7.4696036    360.48314  0.027284524  0.027278335            2 
 1102000    1.0708396   -7.5147299     360.4524  0.027257441  0.027271443            1 
 1103000    1.0690945   -7.4734731    360.58259  0.027242565  0.027264413            2 
 1104000    1.0676153   -7.4931208    361.30258  0.027272236  0.027257474            1 
 1105000    1.0621616   -7.4632054    361.04655  0.027228247  0.027250686            2 
 1106000     1.050401   -7.4757859    361.41391  0.027231308  0.027243942            1 
 1107000    1.0667978   -7.5275133    361.57779  0.027219044  0.027237231            3 
 1108000    1.0629726   -7.4631219    364.01026  0.027377426  0.027230519            2 
 1109000     1.084482   -7.5107713    361.93517  0.027196812  0.027223903            2 
 1110000     1.078717   -7.5031375    362.74522  0.027233125  0.027217446            4 
 1111000    1.0795974   -7.5218991    362.12685   0.02716223  0.027210575            1 
 1112000    1.0756499   -7.5445553    362.57934  0.027171713  0.027203815            1 
 1113000    1.0549194     -7.49563    363.29836  0.027201135  0.027196997            2 
 1114000    1.1068181   -7.4985513    362.98593  0.027153346  0.027190311            3 
 1115000    1.0837882   -7.5280654    362.41911   0.02708663  0.027183481            2 
 1116000    1.0562758   -7.4966394     363.9733  0.027178413  0.027176651            1 
 1117000    1.0788322   -7.4791243    364.33925  0.027181383  0.027169969            3 
 1118000    1.0829382   -7.4624916    365.62829  0.027253152   0.02716337            2 
 1119000    1.0830881   -7.5364425    364.58197  0.027150876  0.027156822            1 
 1120000    1.0795014   -7.5405316    365.53384  0.027197459  0.027150105            1 
 1121000    1.0944117   -7.5093381    366.20398  0.027223014  0.027143355            1 
 1122000    1.0824265   -7.5351538    363.65255  0.027009251  0.027136661            1 
 1123000    1.0774202   -7.5039855    366.81506  0.027219877  0.027129933            4 
 1124000    1.0669487   -7.4949974    366.04772  0.027138769  0.027123168            1 
 1125000    1.0824561   -7.5187799    365.15161  0.027048267  0.027116245            3 
 1126000    1.0746843   -7.5021056    366.87029  0.027151442  0.027109555            1 
 1127000    1.0733534   -7.5006821    366.38047  0.027091132  0.027102879            3 
 1128000    1.0690118   -7.4685314    367.79376  0.027171525  0.027096313            5 
 1129000    1.0483578   -7.4826576    367.87637  0.027153555  0.027089649            1 
 1130000    1.0718824   -7.4806826    368.07131  0.027143902  0.027082954            3 
 1131000    1.1027423   -7.5072597    367.77701  0.027098218  0.027076311            1 
 1132000    1.0813932   -7.5380136    367.26876  0.027036864  0.027069642            1 
 1133000    1.0593205   -7.4934445    367.08432  0.026999435   0.02706287            2 
 1134000    1.0597314   -7.4735242    368.88885  0.027108234  0.027056248            1 
 1135000     1.041998   -7.4811796    369.54989  0.027132885  0.027049806            1 
 1136000    1.0696005   -7.5170069    368.26393  0.027014666  0.027043164            2 
 1137000    1.0716884   -7.5014661    368.60373  0.027015811  0.027036609            2 
 1138000    1.0728614   -7.5093191    368.47598  0.026982717  0.027029848            2 
 1139000    1.0587277   -7.4997263    370.10906  0.027078509  0.027023033            1 
 1140000    1.0449233    -7.509273    369.82985  0.027034346  0.027016401            3 
 1141000    1.0982059   -7.5005974     370.6013  0.027066995  0.027009597            1 
 1142000    1.0670927   -7.5187746      368.377  0.026880984  0.027002917            2 
 1143000    1.0702792   -7.4975367    370.29094  0.026997006   0.02699623            3 
 1144000    1.0922158   -7.4985888    370.51255  0.026989551  0.026989466            1 
 1145000    1.0672575    -7.509038    370.88849   0.02699334  0.026982681            2 
 1146000    1.0592471   -7.4873977    371.01564  0.026979032  0.026975902            2 
 1147000    1.0880673   -7.4980988    369.93519  0.026877012   0.02696887            1 
 1148000    1.0417966   -7.5129197    370.88111  0.026922264  0.026961725            3 
 1149000    1.0633915   -7.4771071    371.63487  0.026953501  0.026954673            1 
 1150000     1.074085   -7.5384672    371.10226  0.026891468  0.026947607            1 
 1151000    1.0624118   -7.5304655    370.55003  0.026828122  0.026940563            3 
 1152000    1.0736208   -7.5131797    371.19983  0.026851839  0.026933508            1 
 1153000    1.0353125   -7.4823031    372.14581  0.026896921  0.026926548            1 
 1154000    1.0497989   -7.5150322    371.39286  0.026819241  0.026919521            2 
 1155000    1.0680724   -7.5136856     373.5085  0.026948665  0.026912508            4 
 1156000    1.0735486   -7.5332223    372.50008  0.026852659  0.026905436            2 
 1157000     1.053547   -7.5201028    372.71377  0.026844841  0.026898392            2 
 1158000    1.0620155   -7.5357205    372.81221  0.026828743  0.026891486            1 
 1159000    1.0723106   -7.5200875    373.61931  0.026863626  0.026884593            1 
 1160000    1.0588976   -7.5281151    373.41825  0.026826024  0.026877671            2 
 1161000    1.0945647   -7.5240601    373.68152  0.026821815  0.026870555            2 
 1162000    1.0779058   -7.5305741    373.28308  0.026770158  0.026863554            2 
 1163000    1.0729541   -7.5026142    374.13926  0.026808488  0.026856627            4 
 1164000    1.0543614   -7.5254423    374.37504  0.026802337   0.02684975            1 
 1165000    1.0778855   -7.5077226    375.02434  0.026825776  0.026842862            1 
 1166000    1.0730331   -7.5186059    375.21939  0.026816709  0.026835874       -1e+20 
 1167000    1.0738847   -7.5593887    375.95332  0.026846138   0.02682904       -1e+20 
 1168000    1.0649686   -7.5400948    376.12171  0.026835167  0.026822222            2 
 1169000    1.0520807   -7.4849767    375.95455  0.026800296  0.026815463            2 
 1170000    1.0562988   -7.5469758    376.24808  0.026798296  0.026808733            3 
 1171000    1.0553781   -7.5215966    376.75126  0.026811219  0.026801912            1 
 1172000    1.0768424   -7.5475818    375.84888  0.026724181  0.026795006            2 
 1173000    1.0405182    -7.530071    376.32729  0.026735386  0.026788013            4 
 1174000    1.0739073    -7.543768    376.87613  0.026751571  0.026781058            4 
 1175000    1.0682461   -7.5538437    377.03228  0.026739878   0.02677399            1 
 1176000    1.0719773   -7.5144613    377.65922  0.026761566  0.026766934            1 
 1177000     1.083039   -7.5112594    378.43531  0.026793777   0.02676006            3 
 1178000    1.0747471   -7.5335722    377.04588  0.026672742  0.026752951            1 
 1179000    1.0476779   -7.4881639    377.44853  0.026678578  0.026745763            1 
 1180000    1.0748276   -7.5279896    377.86305  0.026685243    0.0267386            1 
 1181000    1.0732957    -7.540718     377.0658  0.026606393  0.026731426            2 
 1182000     1.075861   -7.5343742    377.65549  0.026625457   0.02672425            2 
 1183000    1.0416846   -7.5324055    377.44887  0.026588396     0.026717            2 
 1184000    1.0848312   -7.5315256    376.58107  0.026504861  0.026709852            4 
 1185000    1.0498749   -7.5825908    377.57678  0.026552516  0.026702586            1 
 1186000    1.0475153   -7.5333122    378.74231  0.026612023  0.026695192            3 
 1187000    1.0518783   -7.5043555    380.13156  0.026687136  0.026688121            2 
 1188000    1.0739853     -7.51918    379.95127  0.026652025  0.026681205            4 
 1189000    1.0620838    -7.541007    379.23294  0.026579264  0.026674166            2 
 1190000    1.0800075   -7.5424536    380.50102   0.02664573  0.026667206            2 
 1191000    1.0338724   -7.5186327    381.30368  0.026679519  0.026660138            2 
 1192000    1.0499109   -7.4960077    381.26356  0.026654331  0.026653286            2 
 1193000    1.0720091   -7.4919524    382.67668  0.026730699  0.026646447            1 
 1194000    1.0690349   -7.5087038    381.28993  0.026611525  0.026639541            2 
 1195000    1.0710973   -7.5601382    380.15306  0.026509976  0.026632299            1 
 1196000    1.0226657   -7.5246457     381.5372  0.026584253  0.026625151            4 
 1197000     1.071771   -7.5088248    381.68661  0.026572446  0.026618116            1 
 1198000    1.0584232     -7.51548    382.08843  0.026578216  0.026611249            3 
 1199000    1.0500641   -7.4910578    382.17859  0.026562315  0.026604389            4 
 1200000    1.0767304   -7.5152171    383.58289    0.0266377  0.026597446            3 
 1201000    1.0588662   -7.4899311    382.84546  0.026564353  0.026590618            1 
 1202000    1.0961789   -7.5629083    382.51172  0.026519115  0.026583719            2 
 1203000    1.0830948   -7.5330261    382.92837  0.026525933  0.026576685            1 
 1204000    1.0623948   -7.5126538    382.56816   0.02647897  0.026569668            1 
 1205000    1.0712009   -7.5320673    382.72065  0.026467541  0.026562607            2 
 1206000    1.0733648   -7.5595663    382.34215  0.026419441  0.026555397            2 
 1207000    1.0411975   -7.5736506    383.56172  0.026481754  0.026548284            1 
 1208000    1.0685803   -7.5314446     382.5149  0.026387618  0.026541184            3 
 1209000    1.0538023   -7.5482944    383.87924  0.026459832  0.026534141            2 
 1210000    1.0764142    -7.504847    385.26187  0.026533187  0.026527212            3 
 1211000    1.0395203   -7.5149025    385.55217  0.026531253  0.026520208            2 
 1212000    1.0632991   -7.5260202    385.26991  0.026489955   0.02651351            5 
 1213000    1.0763761   -7.5232388    384.01508   0.02638191  0.026506505            1 
 1214000    1.0467326   -7.5594218    384.68523   0.02640618  0.026499232            2 
 1215000    1.0594119   -7.5729421     384.0481  0.026340748  0.026491769            1 
 1216000    1.0762844   -7.5729643    384.44601  0.026346355  0.026484286            1 
 1217000    1.0590581   -7.5139908    384.49045  0.026327749  0.026476924            1 
 1218000    1.0482723   -7.5384887    384.79871  0.026327224  0.026469654            3 
 1219000    1.0532754   -7.5612975    385.43449   0.02634909  0.026462336            1 
 1220000    1.0530196   -7.5314755    386.60198  0.026407239  0.026455077            2 
 1221000    1.0496745    -7.547715    384.97238  0.026274391  0.026447769            3 
 1222000    1.0520012   -7.5657455     385.7316  0.026304665  0.026440367            1 
 1223000    1.0564238   -7.6033096    386.00555  0.026301823  0.026432895            4 
 1224000    1.0419418   -7.5091258    387.29627   0.02636821  0.026425575            1 
 1225000    1.0484748     -7.50916     388.3312  0.026417088  0.026418388            3 
 1226000    1.0757032   -7.5351983    387.49633  0.026338793  0.026411465            2 
 1227000    1.0677108   -7.5675886    387.97777  0.026350025  0.026404392            5 
 1228000    1.0415839   -7.5613512    386.54405  0.026231274  0.026397149            1 
 1229000    1.0300717    -7.519506    389.25254  0.026393582  0.026390109            4 
 1230000    1.0567182   -7.5223908    388.73217  0.026336868  0.026382815            1 
 1231000    1.0597705   -7.5639694    387.47154  0.026230134  0.026375486            1 
 1232000    1.0582062   -7.5790466    388.25131  0.026261587  0.026368186            2 
 1233000    1.0389674   -7.5734715    385.33828  0.026043409   0.02636071            1 
 1234000    1.0544299   -7.5599144    388.84948  0.026259419  0.026353347            1 
 1235000    1.0496579   -7.5501957    388.49973  0.026214557  0.026345853            2 
 1236000    1.0471002   -7.5508803    387.59886  0.026132609  0.026338405            1 
 1237000    1.0602036   -7.5098197    390.59512  0.026313333  0.026330943            2 
 1238000    1.0820811   -7.5923848    387.85191  0.026107425  0.026323421            2 
 1239000    1.0526496    -7.543706     389.1272  0.026172128  0.026316007            4 
 1240000    1.0350084   -7.5273326    389.50656  0.026176516  0.026308517            1 
 1241000    1.0322715   -7.5523273    389.79064  0.026174499  0.026300992            2 
 1242000    1.0552308   -7.5319279    390.07871  0.026172753  0.026293387            2 
 1243000    1.0435186   -7.5651464    389.81585  0.026134074  0.026285947            2 
 1244000    1.0393681   -7.5007926    391.21023  0.026206473  0.026278521            6 
 1245000     1.079455   -7.5700492    389.88587  0.026096779  0.026271134            1 
 1246000    1.0696668   -7.5686294    390.47567   0.02611528  0.026263744            1 
 1247000    1.0345922    -7.530288    391.14015  0.026138743  0.026256324            2 
 1248000    1.0463321   -7.5825999    390.11784  0.026049535  0.026248834            2 
 1249000    1.0273287   -7.5191323     391.2838  0.026106472  0.026241344            1 
 1250000    1.0434404   -7.5281417    392.98082  0.026198722  0.026233989            1 
 1251000    1.0373944   -7.5467482    390.84445  0.026035468  0.026226531            3 
 1252000    1.0562319   -7.5320064    392.57723  0.026130008  0.026219033            5 
 1253000    1.0760221   -7.5335113    392.40158  0.026097471  0.026211465            1 
 1254000    1.0606354   -7.5401218    391.36782  0.026007962  0.026203768            4 
 1255000    1.0343496    -7.561264    391.40027  0.025989394  0.026196122            2 
 1256000    1.0473236   -7.5693978    391.67896  0.025987192  0.026188309            1 
 1257000    1.0568643    -7.611774    391.09635  0.025927894  0.026180373            1 
 1258000    1.0518539   -7.5554936    391.78876   0.02595315  0.026172551            1 
 1259000    1.0663451   -7.5793935    392.21017   0.02596043  0.026164791            2 
 1260000    1.0522431     -7.55336    393.07479   0.02599701  0.026157118            3 
 1261000    1.0902352   -7.5624008    393.00828  0.025971998  0.026149508            2 
 1262000    1.0447008   -7.5005295    393.44084  0.025979981  0.026141918            4 
 1263000     1.038247   -7.5264528    394.13212  0.026005022   0.02613436            3 
 1264000    1.0426515   -7.5565418    394.49915  0.026008647  0.026126669            4 
 1265000    1.0570164   -7.5302699    393.98676  0.025954332  0.026119146            3 
 1266000    1.0598684   -7.5574103    394.31186  0.025955231  0.026111673            2 
 1267000    1.0459933   -7.5706209    394.29335  0.025933527  0.026103967            1 
 1268000    1.0634097   -7.5474771    394.94664  0.025956009  0.026096265            2 
 1269000    1.0497189   -7.6143631     393.2244  0.025822459  0.026088632            1 
 1270000    1.0735453   -7.5905011       395.27  0.025936352  0.026080924            2 
 1271000    1.0559503    -7.545072    395.55979  0.025934946  0.026073236            1 
 1272000    1.0391484   -7.5746156    395.19623  0.025890739  0.026065614            3 
 1273000    1.0361529   -7.5636525    395.91066  0.025917168  0.026058018            4 
 1274000    1.0493951   -7.5599143    395.65728  0.025880251  0.026050429            4 
 1275000    1.0440755   -7.5858854    396.58015  0.025920271  0.026042841            2 
 1276000    1.0338651   -7.5810908    396.63956  0.025903837  0.026035131            3 
 1277000    1.0453122   -7.5700562    396.07809  0.025846913  0.026027571            4 
 1278000    1.0718709   -7.5842665     396.8429  0.025876559  0.026020165            5 
 1279000    1.0369692   -7.5719105    398.08058  0.025936968  0.026012885            2 
 1280000    1.0589929   -7.5370835    398.15498  0.025921548   0.02600567            1 
 1281000    1.0235609   -7.5603544    398.70442  0.025937055  0.025998451            4 
 1282000    1.0318915   -7.5762076    400.15319  0.026010998  0.025991301            1 
 1283000    1.0660419   -7.5672001    398.89736  0.025909155  0.025984157            1 
 1284000     1.057078   -7.5841039    400.43569  0.025988817  0.025977107            2 
 1285000    1.0312411   -7.5635157    399.65329  0.025917853  0.025969952            1 
 1286000    1.0235691   -7.5553259    399.92784   0.02591549  0.025962837            1 
 1287000     1.048794   -7.5859587    401.25162  0.025981068  0.025955899            3 
 1288000     1.061703   -7.5916306    400.29111  0.025898752  0.025948988            1 
 1289000     1.055405   -7.5810941    400.57922  0.025897286  0.025942142            1 
 1290000    1.0420678   -7.5395142    401.33342  0.025925931  0.025935295            1 
 1291000    1.0430981   -7.5860779     401.0299  0.025886257  0.025928312            2 
 1292000    1.0715747   -7.5323411    402.79499  0.025980069  0.025921604            1 
 1293000    1.0362087   -7.5866327    401.78979  0.025895191  0.025914823            1 
 1294000    1.0492875   -7.5858853    403.19653  0.025965774  0.025908117            5 
 1295000    1.0222463   -7.5613708    403.64431  0.025974537    0.0259014            3 
 1296000     1.042158   -7.5701624    402.23738  0.025864029  0.025894573            2 
 1297000    1.0463197   -7.5782125    402.94719  0.025889694  0.025887873            2 
 1298000    1.0365696   -7.5849518    402.53146  0.025843057  0.025881024            1 
 1299000    1.0195801    -7.596855      403.366    0.0258767  0.025874084            5 
 1300000    1.0477176   -7.5756472    403.98567  0.025896518   0.02586702            1 
 1301000    1.0455302   -7.5655899     404.4516  0.025906457  0.025860129            2 
 1302000    1.0352995   -7.5592909     405.2965  0.025940636  0.025853193            1 
 1303000    1.0337434   -7.5590231    405.24591  0.025917493  0.025846382            2 
 1304000     1.052184   -7.5787377    404.82645  0.025870811  0.025839523            5 
 1305000    1.0227259   -7.5970385    403.79145  0.025784895  0.025832703            2 
 1306000    1.0480773   -7.5544139    405.41613  0.025868819  0.025825872            1 
 1307000    1.0441067   -7.6062707    404.29716  0.025777682  0.025818974            1 
 1308000    1.0340354   -7.5819321    404.26319   0.02575581   0.02581184            3 
 1309000    1.0589427   -7.5938297    405.27699  0.025800674  0.025804765            1 
 1310000    1.0544444   -7.5969014    404.36704  0.025723094  0.025797703            2 
 1311000    1.0393685   -7.5459379    405.60633  0.025782248  0.025790667            1 
 1312000    1.0395709   -7.5829896    405.19299  0.025736344  0.025783726            2 
 1313000    1.0617318   -7.6018844    405.34852  0.025726613  0.025776718            3 
 1314000    1.0387009   -7.6020029    405.19277  0.025697157  0.025769657            3 
 1315000     1.042617   -7.5954724    406.56729   0.02576472  0.025762701            4 
 1316000    1.0429945   -7.5871594     406.3272  0.025729939   0.02575571            3 
 1317000    1.0277769    -7.596149    406.59381  0.025727272  0.025748846            1 
 1318000    1.0488263   -7.5848913    406.80867  0.025721337  0.025741886            2 
 1319000    1.0429347   -7.5430193    408.56538  0.025812824  0.025735106            2 
 1320000     1.041752   -7.5824789    407.12742  0.025702489  0.025728225            1 
 1321000    1.0439572   -7.5850725    407.73554  0.025721394   0.02572142            2 
 1322000    1.0518427   -7.5828283    407.40083  0.025680839  0.025714495            2 
 1323000    1.0365587   -7.5666767    408.71237  0.025744039  0.025707599            2 
 1324000    1.0289509   -7.5336727    409.52836  0.025775954  0.025700835            1 
 1325000    1.0451733   -7.5652459    408.77228  0.025708949  0.025694266            2 
 1326000     1.044175   -7.5470182    410.64174  0.025807047  0.025687577            3 
 1327000    1.0409372   -7.5622519    409.49032  0.025715293  0.025680747            2 
 1328000    1.0350985   -7.5705184    410.50815  0.025759799   0.02567401            4 
 1329000    1.0255126   -7.5563465     410.2068   0.02572152  0.025667343            3 
 1330000    1.0364305   -7.5579777    410.47199  0.025718797  0.025660715            1 
 1331000    1.0343285   -7.5545746    412.15339  0.025804745  0.025654066            2 
 1332000    1.0341048   -7.5686109    411.10726  0.025719924  0.025647467            1 
 1333000    1.0701355   -7.5326904    412.47735  0.025786281  0.025640909            1 
 1334000    1.0451913   -7.5828887    411.88906  0.025730201  0.025634298            2 
 1335000    1.0188108   -7.5720147    412.42674  0.025744491  0.025627657            1 
 1336000    1.0231078   -7.6010663    411.40732  0.025661634  0.025621002            2 
 1337000    1.0263985   -7.5664745    413.63392  0.025781222  0.025614395            2 
 1338000    1.0485919   -7.6081005    410.71718  0.025580293  0.025607803            2 
 1339000    1.0322331   -7.5632744    413.38581  0.025727272  0.025601347            1 
 1340000    1.0346834   -7.5523506    412.88605  0.025676993  0.025594971            4 
 1341000    1.0365094   -7.5741694    412.64211  0.025642686  0.025588476            3 
 1342000    1.0078117   -7.6180441    412.87176  0.025637839  0.025581907            4 
 1343000    1.0519606   -7.6043359     412.5905  0.025601297  0.025575277            2 
 1344000    1.0302534   -7.5999474    413.01271  0.025608427  0.025568709            2 
 1345000    1.0426272   -7.5681302    414.45208  0.025678568  0.025562365            6 
 1346000    1.0276867   -7.6407399    414.11049  0.025638341  0.025555922            1 
 1347000    1.0448786   -7.6149796     414.7348  0.025657931  0.025549404            2 
 1348000     1.035893   -7.5694725    414.70096  0.025636805  0.025542883            2 
 1349000    1.0232034   -7.6030799    414.40609  0.025599585  0.025536362            1 
 1350000    1.0391151   -7.6102299    414.71165  0.025599484  0.025529841            1 
 1351000    1.0347122    -7.628796    414.55691  0.025570991  0.025523202            2 
 1352000    1.0570231   -7.5825264    416.07847  0.025645863  0.025516726            2 
 1353000    1.0493178   -7.6100251    415.27683  0.025577533  0.025510319            1 
 1354000    1.0345324   -7.6199601    414.47968  0.025509581  0.025503802            3 
 1355000    1.0319032   -7.6473265      414.603  0.025498339  0.025497106            7 
 1356000    1.0509717   -7.5950679    416.47532  0.025594599  0.025490484            1 
 1357000    1.0378763   -7.6036572     416.1207  0.025553961  0.025483784            1 
 1358000    1.0202122   -7.6307873    415.51047  0.025497697  0.025477208            1 
 1359000    1.0285061   -7.6281564    416.58907  0.025545074  0.025470757            1 
 1360000    1.0358701   -7.6196986     417.2659  0.025567763  0.025464156            3 
 1361000    1.0427712   -7.5796932    419.22201  0.025668749  0.025457775            1 
 1362000    1.0068851   -7.5646481    418.98809   0.02563559  0.025451556            1 
 1363000    1.0252625   -7.6490504    417.26021   0.02551114   0.02544514            2 
 1364000    1.0210558   -7.6026924    416.85888  0.025467918  0.025438701            1 
 1365000    1.0271061   -7.6067772    418.47369  0.025547845  0.025432289            1 
 1366000    1.0338731    -7.705585    416.70483  0.025421232  0.025425837            3 
 1367000    1.0361787   -7.6139232     419.2881  0.025560113   0.02541939            3 
 1368000     1.029562    -7.596573    419.10554  0.025530308  0.025413174            1 
 1369000    1.0196369   -7.5657192    421.35793  0.025648766   0.02540703            1 
 1370000     1.051165   -7.6261331    419.89257   0.02554091  0.025400825            2 
 1371000    1.0393154   -7.6092042    419.05302  0.025471251  0.025394727            3 
 1372000    1.0211753   -7.5994894    421.01486  0.025571845  0.025388579            1 
 1373000    1.0176269   -7.6257447    420.22816  0.025505472  0.025382425            1 
 1374000     1.039927   -7.6384353    420.42718   0.02549898   0.02537636            2 
 1375000    1.0419042   -7.6425036    420.42529   0.02548032  0.025370182            1 
 1376000    1.0468944   -7.6483209    422.55855  0.025590997  0.025364016            2 
 1377000    1.0477426     -7.62249    421.82797    0.0255282  0.025357953            2 
 1378000    1.0322465   -7.6195248     420.7724  0.025445839  0.025351722            2 
 1379000    1.0308392    -7.633909    421.89146  0.025495012  0.025345638            3 
 1380000    1.0567563    -7.617491    422.82755  0.025533064  0.025339493            2 
 1381000    1.0220448   -7.6300171    423.27858  0.025541792  0.025333491            2 
 1382000    1.0307245   -7.5683564    424.26017    0.0255825  0.025327623            1 
 1383000    1.0419564   -7.6103216    422.70921  0.025470548  0.025321707            4 
 1384000    1.0142332   -7.6086837    423.44392  0.025496383  0.025315689            1 
 1385000    1.0320053   -7.6342164    423.45805  0.025478824  0.025309593            3 
 1386000    1.0080667   -7.6333238    422.96786  0.025430968  0.025303572            1 
 1387000    1.0249842   -7.5843379    425.11054  0.025541369  0.025297668            1 
 1388000    1.0202295   -7.6240598    423.70713  0.025438708  0.025291632            1 
 1389000    1.0399031   -7.6210147    425.22855  0.025511672  0.025285552            2 
 1390000    1.0204028   -7.6309956    423.94568  0.025416408  0.025279493            2 
 1391000    1.0637907   -7.6299375    426.38509  0.025544278  0.025273491            2 
 1392000    1.0360822    -7.599994    426.39059  0.025526257  0.025267503            3 
 1393000    1.0409182   -7.5776627    426.89379  0.025538035  0.025261583            2 
 1394000    1.0215085   -7.5847547    426.70724  0.025508563  0.025255779            3 
 1395000    1.0348499   -7.6094125    426.28318  0.025464945  0.025249954            1 
 1396000     1.004774    -7.572705    427.34144  0.025509876  0.025244062            1 
 1397000    1.0014842     -7.60857    426.17737  0.025422177  0.025238163            2 
 1398000    1.0235236   -7.6316662    426.62519  0.025430686  0.025232111            1 
 1399000     1.025984   -7.6250773    426.15824  0.025384694  0.025226086            2 
 1400000    1.0390204   -7.5976816    426.91708  0.025411731  0.025220099            4 
 1401000    1.0306866   -7.6324202    426.08672  0.025344202  0.025214034            2 
 1402000    1.0131613   -7.6516159    426.58646  0.025355829  0.025207854            2 
 1403000    1.0474698   -7.5850551    427.18484  0.025373297  0.025201763            3 
 1404000     1.017022    -7.611679    427.38931  0.025367362  0.025195637            3 
 1405000    1.0238597    -7.622233    427.79539  0.025373392  0.025189486            5 
 1406000    1.0455703   -7.6548091     426.0915  0.025254356    0.0251832            2 
 1407000    1.0381201    -7.601243    427.20503  0.025302359  0.025177023            1 
 1408000    1.0530067   -7.6271186    427.89357   0.02532514  0.025170888            2 
 1409000    1.0303772    -7.602969    428.42097  0.025338359  0.025164727            2 
 1410000    1.0222142   -7.6218754    427.51709  0.025266967  0.025158566            4 
 1411000    1.0277497   -7.6404548    428.37474  0.025299713  0.025152502            2 
 1412000    1.0218395   -7.5859872     429.6453  0.025356781  0.025146474            2 
 1413000     1.032336   -7.6044318    431.55337  0.025451366  0.025140625            2 
 1414000    1.0272421   -7.6064457    430.56383  0.025375049  0.025134769            1 
 1415000     1.020623   -7.6373438    431.48393  0.025411303  0.025128936            2 
 1416000     1.022974   -7.6317666    430.89839  0.025358898  0.025123077            2 
 1417000    1.0282107   -7.5905572    431.56006  0.025379914  0.025117118            1 
 1418000    1.0198891   -7.6306987    430.98629  0.025328296  0.025111306            1 
 1419000    1.0350962   -7.6131296     431.6288   0.02534818  0.025105569            3 
 1420000    1.0490321   -7.6230816    431.70992  0.025335089  0.025099839            2 
 1421000    1.0229329   -7.6177045    432.48305    0.0253626  0.025094047            4 
 1422000    1.0295034   -7.6286999    431.62762  0.025294633  0.025088192            1 
 1423000    0.9978476   -7.6215235    431.43925  0.025265826  0.025082381            1 
 1424000    1.0271579   -7.5958534    433.05184  0.025342453  0.025076526            2 
 1425000     1.033276   -7.6201608    431.70364  0.025245827  0.025070645            2 
 1426000    1.0081761   -7.6617983    431.50111  0.025216287   0.02506469            1 
 1427000    1.0475354   -7.6500636    431.88851   0.02522124  0.025058663            2 
 1428000    1.0342038   -7.6172311    433.83769  0.025317326  0.025052624            2 
 1429000    1.0372517   -7.6009701    432.85315  0.025242195  0.025046718            3 
 1430000    1.0243953   -7.5891821    433.50791  0.025262699  0.025040924            1 
 1431000    1.0266215    -7.635884     433.2681   0.02523108  0.025035094            1 
 1432000    1.0278986   -7.6241425    432.78009  0.025185061  0.025029276            3 
 1433000    1.0110009   -7.6170566    434.53638   0.02526962  0.025023499            2 
 1434000    1.0208298   -7.6035813    435.45589  0.025305433  0.025017803            2 
 1435000    1.0046338   -7.6488016    434.91318  0.025256282  0.025012046            1 
 1436000    1.0009475   -7.6646623    433.72797  0.025169915  0.025006204            2 
 1437000    1.0107288    -7.644108     434.3831  0.025190391  0.025000311            2 
 1438000     1.024271   -7.6286583    435.36617  0.025229843  0.024994427            1 
 1439000    1.0280596   -7.5850503    437.37468  0.025328624  0.024988695            3 
 1440000    1.0399238   -7.6035233    436.31659  0.025249803  0.024983017            5 
 1441000    1.0191169   -7.5992928    434.73288  0.025140694  0.024977197            3 
 1442000    1.0024312   -7.6291016    435.99978  0.025196474  0.024971382            2 
 1443000    1.0141651   -7.6315877    436.30253  0.025196496  0.024965561            2 
 1444000    1.0345252   -7.6186379    436.25148  0.025176101  0.024959791            1 
 1445000    1.0302792   -7.6529338    436.78527  0.025189462  0.024953855            2 
 1446000    1.0320257   -7.6525177    436.76398  0.025170815  0.024947833            2 
 1447000    1.0081089   -7.6671242     435.5728  0.025084819  0.024941766            1 
 1448000    1.0148471   -7.6583664    435.97052  0.025090385  0.024935701            2 
 1449000    1.0230812   -7.6274522    437.61553  0.025167675  0.024929576            2 
 1450000     1.026036   -7.6945086    435.56952  0.025032731  0.024923612            4 
 1451000    1.0268874   -7.6577799    437.12709  0.025104933  0.024917497            1 
 1452000    1.0360971    -7.631885     438.7752  0.025182231  0.024911454            1 
 1453000   0.99548452   -7.6250706    437.12226    0.0250701  0.024905566            2 
 1454000    1.0119987   -7.6400928    437.43831  0.025070971  0.024899571            1 
 1455000     1.035823   -7.6578409    437.75701  0.025071994  0.024893646            2 
 1456000    1.0215468   -7.6909287    437.01995  0.025012588   0.02488765            1 
 1457000   0.99417115   -7.6642202    438.37592  0.025072976   0.02488164            2 
 1458000    1.0416581   -7.6356099    438.50038  0.025062893  0.024875625            2 
 1459000    1.0218295    -7.657356     439.5328  0.025104684  0.024869614            3 
 1460000   0.99613114   -7.5793673    439.53341  0.025087523  0.024863609            2 
 1461000    1.0240326   -7.6743097    437.93256  0.024979042  0.024857563            3 
 1462000    1.0215356   -7.6346601    439.01327  0.025023556  0.024851443            1 
 1463000   0.99213225   -7.6430123    440.16283  0.025071932    0.0248453            2 
 1464000    1.0268706   -7.6169133    439.63423  0.025024717  0.024839147            3 
 1465000     1.019797   -7.5808674    441.61693  0.025120417  0.024833133            1 
 1466000    1.0072433   -7.6287285    440.65837  0.025048793  0.024827157            1 
 1467000     1.014849   -7.6343066    438.93594  0.024933875   0.02482111            2 
 1468000     1.016161    -7.635008    439.97222  0.024975716  0.024814973            2 
 1469000    1.0080461    -7.643606    440.47245  0.024987092   0.02480879            2 
 1470000   0.99649933   -7.6314542    439.30069  0.024903668  0.024802743            1 
 1471000      1.02932   -7.6216029    441.52975  0.025013016  0.024796664            2 
 1472000    1.0209676   -7.6579281    440.94461  0.024962897  0.024790652            1 
 1473000    1.0270137   -7.6518168    440.48296  0.024919833  0.024784619            4 
 1474000    1.0045181   -7.6526397    441.47168  0.024958824  0.024778516            1 
 1475000    1.0047015   -7.6032327    442.86251  0.025020481  0.024772586            2 
 1476000    0.9989346   -7.6238334    441.73303   0.02493976  0.024766663            3 
 1477000    1.0013602   -7.6729483    441.32867  0.024900061  0.024760664            2 
 1478000    1.0337481   -7.6557339    443.23723  0.024990823  0.024754691            1 
 1479000      1.02278   -7.6345101    441.90793  0.024899027  0.024748762            3 
 1480000    1.0199262   -7.6335207    443.73704  0.024985194  0.024742915            2 
 1481000    1.0045359   -7.6105612    444.74156  0.025024846  0.024737028            1 
 1482000    0.9925497   -7.6463622    442.33573   0.02487268  0.024731129            1 
 1483000     1.036461   -7.6405414    443.19151  0.024903996   0.02472515            3 
 1484000     1.024972   -7.6469259    442.85654  0.024868404  0.024719147            2 
 1485000    1.0162336   -7.6248182    442.24156  0.024817147  0.024713091            2 
 1486000    1.0094721   -7.6607762    444.15403  0.024907696  0.024707083            1 
 1487000     1.016178   -7.6687167    442.96016   0.02482404  0.024701023            2 
 1488000       1.0133   -7.6828029    444.52412  0.024894944  0.024695026            1 
 1489000   0.99348769   -7.6301657    444.51155  0.024877521  0.024688993            2 
 1490000    1.0141684   -7.6562473    443.78614  0.024820254  0.024682859            2 
 1491000    1.0072324    -7.629498    444.70816   0.02485514  0.024676852            1 
 1492000   0.99954808   -7.6687565    445.08848  0.024859723  0.024670826            3 
 1493000    1.0037568   -7.6622437    445.79963  0.024882765  0.024664816            2 
 1494000    1.0133031   -7.6758264    444.70065  0.024804811  0.024658634            1 
 1495000   0.99943853   -7.6535248    446.38906  0.024882333  0.024652617            2 
 1496000    1.0091156    -7.637646    446.43342  0.024868172  0.024646567            3 
 1497000    1.0130751   -7.6817136    444.82032  0.024761764  0.024640507            1 
 1498000    1.0027035   -7.6700279    445.94998  0.024808076  0.024634495            3 
 1499000    1.0139901   -7.6203761     446.9517  0.024847215  0.024628525            1 
 1500000    1.0072715   -7.6361465    446.80282  0.024822379  0.024622473            2 
 1501000    1.0123282   -7.6806643    446.36143  0.024781336  0.024616469            4 
 1502000   0.99136651    -7.649952    445.91892  0.024740286  0.024610366            2 
 1503000    1.0298359   -7.6927261    445.71433  0.024712482  0.024604278            2 
 1504000   0.99974111   -7.6464667    445.79695  0.024700629  0.024598222            2 
 1505000   0.98579993   -7.6495103    446.32221  0.024713301  0.024592146            1 
 1506000    1.0287728   -7.6717958    446.21271  0.024690831  0.024586033            4 
 1507000     1.015288    -7.615964     446.2028    0.0246739  0.024579862            2 
 1508000    1.0085461   -7.6720764    447.04747  0.024704215   0.02457371            4 
 1509000    1.0118835   -7.6550352    446.91623  0.024680596  0.024567617            2 
 1510000     1.016744   -7.6648457    448.20194  0.024735206  0.024561506            3 
 1511000    1.0044521   -7.6834679    447.58457  0.024684788  0.024555505            2 
 1512000    1.0055313   -7.6345332    447.56743  0.024667517  0.024549462            1 
 1513000    1.0161131   -7.7010319    448.08461  0.024679699  0.024543377            3 
 1514000    1.0004286   -7.6613946    449.39343  0.024735437   0.02453729            2 
 1515000    1.0160822   -7.6576704    448.43537  0.024666412  0.024531266            3 
 1516000    1.0074375   -7.6612703    449.32138  0.024698844  0.024525276            3 
 1517000    1.0059594   -7.6263104     450.5896   0.02475223  0.024519388            4 
 1518000    1.0017876   -7.6251194    451.69163  0.024796423  0.024513624            2 
 1519000   0.99688814   -7.6297236    451.75179  0.024783399  0.024507713            1 
 1520000    1.0077056   -7.6797657    450.73471  0.024711333  0.024501798            2 
 1521000    1.0045594   -7.6768997    449.28965  0.024615913  0.024495788            3 
 1522000    1.0127971   -7.6228069    451.61278  0.024726937  0.024489891            2 
 1523000    1.0067354   -7.6945569    451.26014  0.024691406  0.024483948            1 
 1524000    1.0152914   -7.6540287     452.1554  0.024724158  0.024478045            2 
 1525000    1.0245388   -7.6994585    451.52008  0.024673228   0.02447216            3 
 1526000    1.0030844   -7.6874747    452.11429  0.024689509  0.024466317            2 
 1527000   0.99553502   -7.6711921    452.70118  0.024705369  0.024460368            1 
 1528000    1.0152461   -7.6709535     452.3203  0.024668428  0.024454509            1 
 1529000    1.0172471   -7.6838274     452.8037  0.024678641  0.024448645            3 
 1530000    1.0027608   -7.6708326    452.70329  0.024657042  0.024442871            2 
 1531000    1.0074724   -7.6724592    451.85224  0.024594613  0.024436926            1 
 1532000   0.98759468   -7.6694145    452.99882  0.024640928  0.024431207            2 
 1533000    1.0199781   -7.6681125    452.55706   0.02460084  0.024425517            3 
 1534000   0.99929486   -7.6707297    452.69188  0.024592127  0.024419691            1 
 1535000    1.0148775   -7.6802792     454.2022    0.0246581  0.024413772            1 
 1536000    1.0066595   -7.6734983    453.46174  0.024601874   0.02440788            1 
 1537000    1.0069648   -7.6539128    454.65442  0.024650532  0.024401969            3 
 1538000    1.0085992    -7.641065     453.7702  0.024586595  0.024396131            2 
 1539000    1.0253221   -7.6942835    453.60757  0.024561813  0.024390244            6 
 1540000    1.0113515   -7.6780782    453.97605  0.024565804  0.024384292            1 
 1541000     0.995605   -7.7125033    454.53084  0.024579864  0.024378319            3 
 1542000    1.0157232   -7.6505016    454.68641  0.024572331  0.024372322            1 
 1543000    1.0147329    -7.655618    454.81085  0.024563126  0.024366403            3 
 1544000    0.9998133   -7.6814837    454.24144  0.024516485  0.024360489            1 
 1545000   0.99784397   -7.6921022    454.35592  0.024506792  0.024354544            2 
 1546000    1.0043519    -7.683397    455.47622  0.024551327  0.024348455            3 
 1547000    1.0061052   -7.6730866    454.68486  0.024492828   0.02434234            2 
 1548000    1.0305671   -7.6522066    455.30912  0.024510611  0.024336287            3 
 1549000   0.97848613   -7.6666882    454.49585  0.024451036    0.0243302            3 
 1550000   0.98708814   -7.6834714    455.40393  0.024484082  0.024324103            2 
 1551000    1.0008064   -7.6838139      455.633  0.024480604  0.024317999            4 
 1552000    1.0171514   -7.6679145    456.09981  0.024489895  0.024312015            1 
 1553000    1.0051236   -7.6353338    457.25864  0.024536308  0.024305925            2 
 1554000   0.99861656   -7.6852984    455.48308  0.024425304   0.02429985            3 
 1555000   0.99079844   -7.6949737    456.27084  0.024451814  0.024293727            5 
 1556000     1.006683   -7.6640036    457.83792  0.024520026  0.024287648            2 
 1557000    1.0001007   -7.6519879    455.80652  0.024395553  0.024281611            2 
 1558000    1.0070657   -7.6937916    457.65095  0.024478549  0.024275452            4 
 1559000   0.99516175   -7.6752656    457.44836  0.024452018  0.024269386            1 
 1560000    1.0119382   -7.6945392    457.57853  0.024443297  0.024263261            2 
 1561000    0.9868574   -7.6996105    456.72034  0.024381825  0.024257221            2 
 1562000    1.0216942   -7.6858169    458.02673  0.024435912  0.024251084            2 
 1563000    1.0013269   -7.6698219    457.10538  0.024371155  0.024244856            2 
 1564000   0.99291624   -7.6396402      458.263  0.024417253  0.024238781            3 
 1565000    1.0096715   -7.6638041    457.84021  0.024379138  0.024232675            3 
 1566000   0.98037981   -7.6877806    457.37408  0.024338765  0.024226432            1 
 1567000   0.98589694   -7.6720418    458.26845  0.024370796   0.02422013            2 
 1568000     1.012965   -7.6800719    457.28042  0.024302744  0.024213809            2 
 1569000    1.0137029   -7.6908329    458.03542  0.024327354  0.024207561            2 
 1570000    1.0099208   -7.6623592    458.90176  0.024357843  0.024201351            1 
 1571000   0.99716838   -7.6487543    459.72773  0.024386151  0.024195152            1 
 1572000   0.99764505   -7.7030327    458.58349  0.024309982  0.024188836            1 
 1573000    1.0034784   -7.6613112    460.03893  0.024371632  0.024182612            1 
 1574000   0.99140652   -7.6925693    458.25823  0.024261871  0.024176438            1 
 1575000   0.99889134     -7.67985    459.17793  0.024295129  0.024170128            2 
 1576000    0.9953064   -7.7103794    458.93779  0.024267015  0.024163968            2 
 1577000   0.98765721    -7.708293    458.82644  0.024245743  0.024157834            2 
 1578000   0.98133729    -7.647805    460.97733  0.024343965   0.02415171            2 
 1579000   0.96747753    -7.708175    459.98722  0.024276294  0.024145538            2 
 1580000    1.0030038   -7.6459356    461.62079  0.024347088  0.024139391            3 
 1581000     1.004456   -7.6849635    460.29361  0.024261734  0.024133334            1 
 1582000   0.99414895   -7.6842281    460.54886  0.024259843  0.024127217            3 
 1583000   0.99279939   -7.7054353    460.72532  0.024253807  0.024121114            2 
 1584000   0.99272996   -7.6951966    462.00847  0.024306001  0.024115042            2 
 1585000   0.99293042   -7.6629003    461.92991  0.024286536  0.024109087            2 
 1586000   0.99653411    -7.687324    462.42371  0.024297168  0.024103058            1 
 1587000    1.0198404   -7.6863379    461.41416  0.024228847  0.024097048            2 
 1588000    1.0218992   -7.6996491    461.35926  0.024210708  0.024090967            1 
 1589000   0.99483724   -7.6516004    463.53344  0.024309494  0.024084926            1 
 1590000    1.0115416   -7.7128166    463.03103  0.024267874  0.024078901            2 
 1591000    0.9982354   -7.6912135    462.73759  0.024237251  0.024072808            2 
 1592000    1.0012909   -7.6680285    462.03239  0.024185113  0.024066653            3 
 1593000    1.0083768   -7.6991066    463.23465  0.024232823  0.024060519            1 
 1594000   0.99108714   -7.7008304    462.64731  0.024186915  0.024054306            1 
 1595000    1.0108179   -7.7182162    462.21736  0.024149287   0.02404809            3 
 1596000    1.0072515   -7.7001476    463.23315  0.024187195  0.024041923            2 
 1597000    1.0010605   -7.6842302    464.21809  0.024223444  0.024035879            1 
 1598000   0.98533338   -7.6538847    464.46286   0.02422105  0.024029904            1 
 1599000    1.0168876   -7.7156786    464.30761  0.024197811  0.024023791            2 
 1600000   0.98937184    -7.680367    465.67817  0.024254072  0.024017719            3 
 1601000   0.98954382   -7.7092427      464.636  0.024184676  0.024011654            2 
 1602000    1.0050649   -7.7370382    463.48077  0.024109486  0.024005573            4 
 1603000    1.0001071   -7.7146818     465.9531  0.024222972  0.023999402            3 
 1604000     1.010541   -7.6894592     465.1456  0.024165918  0.023993337            5 
 1605000   0.99395405   -7.6681456    466.02312  0.024196424  0.023987286            2 
 1606000     0.986122   -7.6999508    465.24797  0.024141136  0.023981212            3 
 1607000    1.0052435   -7.6914469    464.78262  0.024101982   0.02397515            1 
 1608000   0.99604557   -7.6835743    465.52693  0.024125566  0.023969095            1 
 1609000    1.0081337   -7.6859755    466.28766  0.024149972   0.02396307            3 
 1610000   0.99631083   -7.6836499    466.72921  0.024157827   0.02395696            2 
 1611000    1.0051628   -7.6854922    465.59812  0.024084322  0.023950812            2 
 1612000    1.0024937   -7.7187531    465.10699  0.024043992  0.023944603            7 
 1613000   0.98529433   -7.6765036    466.94807  0.024124203   0.02393847            2 
 1614000   0.99868707   -7.7159844    466.75795   0.02409944  0.023932375            2 
 1615000   0.99666176   -7.7309921    466.15904  0.024053614  0.023926243            2 
 1616000   0.99596957   -7.6734885    466.77004  0.024070237  0.023920116            2 
 1617000    1.0112921   -7.7127667    466.30834  0.024031558  0.023913836            1 
 1618000    1.0022236   -7.7178313    466.34868  0.024018782  0.023907706            1 
 1619000    0.9921872   -7.7084788    467.04581   0.02403983  0.023901554            1 
 1620000   0.98383466   -7.6856924    468.06784  0.024077564    0.0238953            1 
 1621000   0.99496622   -7.6905609    466.84728  0.023999963   0.02388912            2 
 1622000   0.98896944    -7.697872    467.27121  0.024006947  0.023882991            2 
 1623000    0.9938292   -7.7328443    467.43332  0.024000479  0.023876774            2 
 1624000   0.99641096   -7.6531689    468.19456  0.024024762  0.023870531            1 
 1625000   0.99188835   -7.7332159    466.21195  0.023908305  0.023864275            3 
 1626000    1.0076018   -7.7266113    467.02473  0.023935257  0.023857993            1 
 1627000   0.97218836   -7.7314247     466.7425   0.02390609  0.023851702            1 
 1628000   0.99489981     -7.66193    467.74364  0.023942651  0.023845301            2 
 1629000    1.0129905   -7.6926581    468.28497  0.023955646  0.023839027            2 
 1630000   0.98720957   -7.7523694     467.5479  0.023903267  0.023832656            1 
 1631000   0.98384506   -7.7114693    467.17532  0.023869575  0.023826216            1 
 1632000   0.97974824   -7.7461067    468.15305  0.023904874  0.023819737            1 
 1633000    1.0039729   -7.7140453    467.18444  0.023840806  0.023813202            3 
 1634000   0.98636053   -7.7054525    467.37725  0.023836049  0.023806828            2 
 1635000   0.97193053   -7.6788991    468.91247  0.023899718   0.02380049            1 
 1636000   0.97718767    -7.705582    469.02879  0.023891034  0.023794105            4 
 1637000    1.0056065   -7.7052024    468.48497  0.023848756  0.023787709            1 
 1638000   0.97271772   -7.7092674    470.21578  0.023922252  0.023781298            2 
 1639000   0.98078831   -7.7096111    468.98761  0.023845211  0.023774852            2 
 1640000   0.96939919   -7.6869924    469.27016  0.023845028  0.023768472            3 
 1641000    1.0040956   -7.7218374    468.38338  0.023785465  0.023761924            2 
 1642000    0.9927958   -7.6833413     470.4956  0.023878177  0.023755545            2 
 1643000   0.99278487   -7.7160896    468.72619  0.023773899  0.023749191            3 
 1644000     0.966064   -7.7080854     469.3005  0.023788549  0.023742624            3 
 1645000    1.0123045   -7.6864574    469.97201  0.023808106  0.023736096            2 
 1646000   0.99766158   -7.7202897     470.3131   0.02381091  0.023729491            1 
 1647000    1.0019029   -7.6454842    471.18001  0.023840316  0.023722992            3 
 1648000   0.98064362   -7.7122152    469.12471  0.023721921  0.023716551            3 
 1649000   0.96619448   -7.7151997    469.74942  0.023739106  0.023710032            1 
 1650000   0.97923605   -7.7326495    469.31269  0.023702661  0.023703474            1 
 1651000   0.95633947   -7.7388061    468.48727  0.023646642  0.023696897            2 
 1652000   0.97872643   -7.7437784    468.99725  0.023658053   0.02369018            2 
 1653000   0.96261898   -7.6857349    470.47905  0.023718444  0.023683625            2 
 1654000   0.97909688   -7.6926162    470.23931  0.023692025  0.023677144            3 
 1655000   0.98209244    -7.717592    470.45038  0.023688337  0.023670619            3 
 1656000   0.98122544    -7.736404    469.97014  0.023649866  0.023664068            2 
 1657000   0.99312095   -7.7746562    469.71889  0.023622958  0.023657496            5 
 1658000   0.97515178   -7.6902612    473.33786  0.023790604  0.023650982            1 
 1659000   0.97340265   -7.7216836    470.62316  0.023639901  0.023644547            2 
 1660000   0.98426193   -7.7137915     472.2292  0.023706285  0.023638073            2 
 1661000   0.98545882   -7.7281531    470.87764  0.023624204  0.023631679            1 
 1662000   0.98263063   -7.7275796    472.28804  0.023680708  0.023625193            2 
 1663000   0.96946003   -7.7411301     471.9254  0.023648296  0.023618849            2 
 1664000    1.0236752   -7.7568346    471.26445  0.023600984  0.023612416            2 
 1665000   0.98334556   -7.7351078    472.55656   0.02365148   0.02360601            2 
 1666000   0.99105254   -7.7175726    472.98027  0.023658477  0.023599637            3 
 1667000   0.98576424   -7.6880036    474.49046  0.023719779  0.023593289            3 
 1668000   0.98793656   -7.6991977    474.76613  0.023719331  0.023587009            2 
 1669000   0.98084788   -7.7325024    472.86779  0.023610335  0.023580627            2 
 1670000   0.99474082   -7.7263371    473.13435  0.023609498  0.023574215            6 
 1671000   0.98211964   -7.7108183    474.18534  0.023647783    0.0235678            1 
 1672000    1.0009446   -7.6945727    475.17935  0.023683182   0.02356152            3 
 1673000    1.0024625   -7.7341694    473.62537   0.02359162  0.023555227            2 
 1674000   0.96149404   -7.7126655    475.59302  0.023675479  0.023548876            1 
 1675000   0.99454765   -7.6959239     476.0639  0.023684771  0.023542558            2 
 1676000   0.99604867   -7.7203303    475.66633  0.023650871  0.023536292            1 
 1677000   0.96801495   -7.7267218    474.28572  0.023568163  0.023529967            2 
 1678000   0.96772725   -7.7398111    473.98565  0.023539216  0.023523625            6 
 1679000    0.9722434   -7.7241878     475.3178  0.023591314  0.023517209            2 
 1680000   0.98491945    -7.755263    475.43152  0.023582913  0.023510836            3 
 1681000   0.97497244   -7.7605833    474.93868  0.023544452  0.023504416            3 
 1682000   0.97983776   -7.6960565    476.44058  0.023604864  0.023498043            1 
 1683000   0.98725574   -7.7293074    475.73602  0.023555952   0.02349168            4 
 1684000   0.96538792    -7.715588    476.22579  0.023566201  0.023485307            1 
 1685000   0.95414294    -7.721276    476.94489  0.023587779  0.023478991            2 
 1686000   0.96557143   -7.7119062    477.08412   0.02358067  0.023472672            2 
 1687000   0.96731868   -7.7017448    477.35543  0.023580094  0.023466374            3 
 1688000   0.97572291   -7.7178127    477.86885  0.023591471  0.023460096            2 
 1689000   0.97112394   -7.7348436    478.05424  0.023586651  0.023453882            2 
 1690000    0.9993702   -7.7118196    478.11662   0.02357577  0.023447616            2 
 1691000   0.97507748   -7.7378521    476.42968  0.023478695   0.02344132            5 
 1692000    0.9700963   -7.6874181    479.67323  0.023624568  0.023435061            2 
 1693000    0.9822314   -7.7508357    477.88349  0.023522519  0.023428886            2 
 1694000   0.98488898   -7.6836486    478.93719  0.023560468  0.023422658            1 
 1695000   0.95131552   -7.7052713    478.45467  0.023522845  0.023416452            3 
 1696000   0.98939598   -7.7519738    478.84162  0.023527988  0.023410187            2 
 1697000   0.97844244   -7.7346831    477.62478  0.023454369    0.0234039            2 
 1698000   0.97617734   -7.7134856    479.53692  0.023534399  0.023397576            2 
 1699000   0.97022126   -7.7207311    480.16797  0.023551499  0.023391415            2 
 1700000   0.98964531   -7.7582591    479.45802  0.023502844  0.023385263            1 
 1701000   0.98171653   -7.7675586     478.7657   0.02345511   0.02337903            1 
 1702000    0.9658747   -7.7614061    479.17961  0.023461595  0.023372703            3 
 1703000   0.97723667   -7.7154977    480.56019  0.023515374  0.023366529            2 
 1704000   0.99845495   -7.7724607    479.95602  0.023472028  0.023360306            7 
 1705000   0.96769352   -7.7308877    479.95528  0.023458225   0.02335415            2 
 1706000   0.96217286   -7.7242333    479.91065  0.023442295  0.023347969            1 
 1707000   0.95885373   -7.7491614    480.80537  0.023472241  0.023341879            2 
 1708000    0.9689201   -7.7209715    481.23235   0.02347933  0.023335768            1 
 1709000   0.99792868   -7.7434431    481.62926  0.023484945  0.023329713            1 
 1710000    0.9913862   -7.7715485    480.15347  0.023399292  0.023323598            3 
 1711000   0.98160901     -7.72675    483.32405  0.023540038  0.023317457            4 
 1712000   0.97570579   -7.7171602    481.91754  0.023457824  0.023311364            4 
 1713000   0.95237802   -7.7699778    481.79163  0.023438005  0.023305177            3 
 1714000   0.97612787   -7.7298641     482.7662  0.023471713  0.023299099            2 
 1715000   0.95079895   -7.7215111     483.3205  0.023484961  0.023293052            2 
 1716000   0.97873579   -7.7051785    483.88638  0.023498756  0.023286963            1 
 1717000   0.97679455   -7.7236582    482.27482  0.023406854  0.023280859            4 
 1718000   0.97666194   -7.7553677    482.38971  0.023398802  0.023274669            3 
 1719000   0.97630973   -7.7131192    483.78834  0.023452993  0.023268473            2 
 1720000   0.97676762   -7.7656932    481.27705  0.023317687  0.023262279            3 
 1721000   0.99018392   -7.7484635    482.61975  0.023369153  0.023256019            1 
 1722000   0.97848248   -7.7549701    483.17344  0.023382377  0.023249773            1 
 1723000   0.99662637   -7.7289497    484.54743   0.02343526  0.023243614            1 
 1724000   0.96065229   -7.7218077    485.02557  0.023444778  0.023237478            2 
 1725000    0.9688991   -7.7155243    484.79666  0.023420129  0.023231475            2 
 1726000   0.97043057   -7.7630365    484.85453  0.023409354  0.023225434            2 
 1727000   0.96860831   -7.7318811    485.71918  0.023437521  0.023219407            2 
 1728000   0.96832572    -7.729904    485.24837  0.023401252  0.023213387            1 
 1729000   0.97200881   -7.7786746    484.19436  0.023336917  0.023207307            2 
 1730000    1.0003942   -7.7517252    484.94778   0.02335972  0.023201185            5 
 1731000   0.98295359   -7.7198573    485.35889  0.023366016  0.023195163            2 
 1732000   0.97873136   -7.7597031    484.30379  0.023301761  0.023189082            4 
 1733000   0.95412717   -7.7091096    486.18576  0.023378811  0.023183008            2 
 1734000   0.96501244   -7.7371149    487.13956  0.023411167  0.023176949            4 
 1735000   0.98240681   -7.7337515    485.79123  0.023332912  0.023170963            2 
 1736000   0.98879036   -7.7646931    485.99557  0.023329281  0.023164995            3 
 1737000   0.94927197   -7.7568033    486.71448   0.02335034  0.023159024            1 
 1738000   0.97483255   -7.7478342    486.54165  0.023328618  0.023153171            4 
 1739000   0.98491607   -7.7827588    485.70356  0.023275041  0.023147268            1 
 1740000   0.98654015   -7.7684365    486.00962  0.023276323  0.023141319            2 
 1741000    0.9651635   -7.7755723    487.29331  0.023324397  0.023135435            3 
 1742000   0.96544864   -7.7754663    487.03345  0.023298577  0.023129491            4 
 1743000   0.97777028   -7.7684997    487.19754  0.023293055  0.023123496            2 
 1744000   0.96812841   -7.7727276    488.62042  0.023347688  0.023117588            1 
 1745000    1.0061455   -7.7817729    488.74691  0.023340349  0.023111631            3 
 1746000   0.97059551   -7.7830177    487.86571  0.023284923  0.023105739            1 
 1747000   0.98452646   -7.7684518    489.03421  0.023327333  0.023099856            1 
 1748000   0.97939613   -7.7182055    489.95644  0.023357954  0.023094006            2 
 1749000   0.97084414   -7.7642426     489.5541  0.023325429   0.02308822            4 
 1750000   0.96228607   -7.7860628    489.59291  0.023313948  0.023082466            1 
 1751000   0.97578784   -7.7331492    489.48976  0.023295724  0.023076694            4 
 1752000   0.97109245   -7.7917643    489.46774  0.023281381  0.023070941            1 
 1753000   0.96168057    -7.746376    490.23701  0.023304669  0.023065043            1 
 1754000   0.96811752   -7.7667789    489.04835  0.023234908  0.023059102            1 
 1755000   0.97155365   -7.7175299    490.78054  0.023303919  0.023053289            1 
 1756000   0.96843548   -7.7507532    490.91851  0.023297196  0.023047441            2 
 1757000    1.0012901   -7.7396638    490.23783  0.023251652   0.02304146            1 
 1758000   0.95911157   -7.7897922    488.89269  0.023174663   0.02303541            4 
 1759000   0.97355733   -7.7812365    489.98702  0.023213332  0.023029371            3 
 1760000   0.97915187   -7.7254981    489.30913  0.023168046  0.023023389            2 
 1761000   0.95838782   -7.7513789    489.18391  0.023148964  0.023017466            2 
 1762000   0.96360338   -7.7165143    490.40045  0.023193362  0.023011583            2 
 1763000   0.96962055   -7.7492095    489.94495  0.023158676  0.023005629            2 
 1764000   0.96983302   -7.7957984    490.11442  0.023153553  0.022999673            1 
 1765000   0.96755533   -7.7881983    490.56177  0.023161557  0.022993719            2 
 1766000   0.98285211   -7.7717015    492.18134  0.023224865  0.022987831            2 
 1767000   0.94922885    -7.744588    492.47181   0.02322542  0.022982055            1 
 1768000   0.98058662   -7.7613441    491.64307  0.023173221  0.022976191            2 
 1769000   0.96738879   -7.7276737    495.15818   0.02332571  0.022970377            3 
 1770000   0.96314983   -7.7454723    492.59266  0.023191745  0.022964545            1 
 1771000   0.99338437   -7.7710248     491.7039  0.023136829   0.02295866            2 
 1772000   0.99500742   -7.7587756    493.01758  0.023185552   0.02295289            2 
 1773000   0.97462668   -7.7874445    492.36172  0.023141649  0.022947089            2 
 1774000   0.99283112   -7.7495955    493.80754  0.023196521  0.022941206            2 
 1775000   0.98338716   -7.7543758    495.01097  0.023239952  0.022935421            2 
 1776000    0.9632739   -7.7385192    492.31968  0.023100585  0.022929541            2 
 1777000   0.98016036   -7.7504553    492.93318  0.023116356  0.022923632            4 
 1778000    0.9750174   -7.7589985    494.46172  0.023174996  0.022917768            1 
 1779000   0.98593466   -7.7825706    493.50067  0.023116951  0.022911949            1 
 1780000   0.94808426    -7.786065    493.45198  0.023101684  0.022906193            1 
 1781000     0.978287   -7.7897876    494.29386  0.023128105  0.022900343            1 
 1782000   0.97089667   -7.7830202    494.76555  0.023137184  0.022894556            2 
 1783000   0.96565256   -7.7757668    494.67759  0.023120097  0.022888729            4 
 1784000   0.97501878   -7.7836143    494.55863   0.02310158  0.022882845            1 
 1785000   0.97750308   -7.7216915    495.99145   0.02315553  0.022876972            4 
 1786000   0.95461922   -7.7750005    495.18216  0.023104804  0.022871078            1 
 1787000   0.94975866   -7.7630744    495.65621  0.023113981  0.022865286            3 
 1788000   0.95614665   -7.7613266    494.64021  0.023053701   0.02285947            2 
 1789000    0.9689418    -7.828884    494.15855  0.023018379  0.022853539            2 
 1790000   0.96347556   -7.7717261    496.18997  0.023100092   0.02284771            3 
 1791000   0.96938686   -7.7851009    495.19772  0.023041026  0.022841846            1 
 1792000   0.97650027   -7.7846854    495.84912   0.02305846  0.022835888            1 
 1793000   0.97224697   -7.7704112    494.66443  0.022990539  0.022829986            2 
 1794000   0.97645753   -7.7952996    495.85636   0.02303309  0.022824012            1 
 1795000   0.97490367   -7.7948452    494.99934  0.022980471  0.022818063            2 
 1796000   0.97113292   -7.7529581    496.55904  0.023040045  0.022812165            1 
 1797000   0.96803014    -7.772316    495.63214  0.022984239  0.022806317            3 
 1798000   0.94757228   -7.7281821      496.986  0.023034205  0.022800516            1 
 1799000   0.96950544   -7.7192744    497.38464  0.023039867  0.022794725            1 
 1800000   0.96134723    -7.772956     496.9841  0.023008523  0.022788954            3 
 1801000   0.95346284   -7.7611692    497.04614  0.022998618  0.022783097            3 
 1802000   0.97004931   -7.7753523    497.26021  0.022995755  0.022777169            2 
 1803000   0.95476083   -7.7360512    498.34208  0.023033004  0.022771263            2 
 1804000   0.96870727   -7.7364396    497.64241  0.022987916  0.022765408            2 
 1805000    0.9598533    -7.771527    497.82725  0.022983714  0.022759574            5 
 1806000   0.97162743   -7.7370369    499.57221  0.023051505  0.022753723            3 
 1807000   0.99021544   -7.7469661    499.05478  0.023014885  0.022747894            1 
 1808000   0.95616513   -7.7788979    497.54031  0.022932352  0.022742013            2 
 1809000   0.95322543   -7.7956956    497.12557   0.02290057   0.02273617            3 
 1810000   0.96416193   -7.7761555    498.38184  0.022945757  0.022730325            3 
 1811000   0.97806861   -7.7434397    500.08707  0.023011553  0.022724524            1 
 1812000   0.95129701   -7.8236179    496.76559    0.0228461  0.022718667            1 
 1813000   0.97315178   -7.8206708    498.63505  0.022919427  0.022712777            2 
 1814000   0.96487589   -7.7780033    498.57126  0.022903862  0.022706892            2 
 1815000   0.94925462   -7.7693582    498.47212   0.02288669  0.022701077            2 
 1816000   0.95675371    -7.771674    498.49044  0.022874928  0.022695191            3 
 1817000   0.97959881   -7.7606899    499.13547  0.022891922   0.02268926            2 
 1818000   0.96604398   -7.7800967    499.18558  0.022881627  0.022683368            1 
 1819000   0.95504079   -7.7629567    500.41662  0.022925445  0.022677424            2 
 1820000   0.97649479   -7.7649759    499.96836  0.022892324  0.022671525            3 
 1821000   0.94573951   -7.7695845     499.1379  0.022841749  0.022665638            2 
 1822000   0.94246679   -7.7862963     500.6971  0.022900526  0.022659702            5 
 1823000   0.95172314   -7.8248885    499.36465  0.022827055  0.022653751            2 
 1824000   0.96666184   -7.8068813    498.21567  0.022762047  0.022647774            1 
 1825000    0.9674595   -7.8023421    498.85248  0.022778652  0.022641808            1 
 1826000   0.96056305   -7.8019388    499.61444  0.022800951  0.022635765            2 
 1827000   0.96410885   -7.7970468    500.95788  0.022849748  0.022629775            2 
 1828000   0.96992947   -7.8111731    500.69329  0.022825187  0.022623785            2 
 1829000   0.96541676   -7.7858036    499.74214   0.02276937  0.022617881            5 
 1830000   0.95446808    -7.799029    501.05486  0.022816706  0.022611996            1 
 1831000   0.95618666   -7.8059614    500.99131  0.022801352  0.022606024            2 
 1832000   0.97610497   -7.7686313    501.88705  0.022829651  0.022600108            3 
 1833000   0.96814174   -7.8129325     500.6451  0.022760734  0.022594082            2 
 1834000   0.95646607   -7.8186285    499.95665  0.022717041  0.022588091            4 
 1835000   0.97092497   -7.7862449    500.99609  0.022751866     0.022582            6 
 1836000    0.9772543   -7.8158802      500.811  0.022731073  0.022575968            5 
 1837000   0.99222852   -7.7782529    501.13307  0.022733309  0.022569892            2 
 1838000   0.98898802   -7.7818406     501.4239  0.022734127  0.022563906            3 
 1839000   0.95186549   -7.7787995    502.20358  0.022757095  0.022557873            1 
 1840000   0.95155966   -7.7862399    501.29875  0.022703748  0.022551909            2 
 1841000   0.95820667   -7.8011704    502.03599  0.022724787  0.022545948            2 
 1842000   0.97638031    -7.774303    503.37841  0.022773182      0.02254            1 
 1843000   0.96801044    -7.755849    502.36682  0.022715085  0.022534058            2 
 1844000   0.95398383    -7.796178    503.13729  0.022737585  0.022528057            1 
 1845000   0.95201695   -7.7914234    502.08896  0.022677912  0.022522023            3 
 1846000   0.95198413   -7.7904346    503.53152  0.022730748  0.022516022            2 
 1847000   0.96837585   -7.7871241    503.57183   0.02272026  0.022510068            4 
 1848000   0.94659889   -7.7840781    503.01256  0.022682745   0.02250413            3 
 1849000   0.94415247     -7.79341    503.74039   0.02270328  0.022498151            1 
 1850000   0.95722317   -7.7611714    504.65563  0.022732235   0.02249222            3 
 1851000   0.97464508   -7.8170945    502.44227  0.022620307  0.022486313            2 
 1852000   0.95595835   -7.8608566    501.99195  0.022587831  0.022480258            2 
 1853000   0.95509894   -7.8251518     502.3177  0.022590291  0.022474305            2 
 1854000   0.95711568   -7.7749613    504.14571  0.022660271  0.022468373            2 
 1855000   0.95371277   -7.8063342    503.65371  0.022625953   0.02246243            2 
 1856000    0.9594941   -7.8012908    503.96102   0.02262756  0.022456506            1 
 1857000    0.9197368   -7.8238793    504.32023  0.022631495  0.022450524            4 
 1858000   0.95412216   -7.7947325    503.86942  0.022599095  0.022444665            2 
 1859000    0.9623592   -7.8169406    504.01199  0.022593329  0.022438768            3 
 1860000   0.94157818   -7.8595118    503.03155  0.022537256  0.022432764            2 
 1861000   0.95269698   -7.8134025    505.61228  0.022640708  0.022426824            3 
 1862000   0.95911071   -7.8257043    505.27654  0.022613522   0.02242096            2 
 1863000   0.98489523     -7.81951    505.59989  0.022615848  0.022414977            2 
 1864000    0.9466148   -7.7912025    505.46848   0.02259784  0.022409089            1 
 1865000   0.95792452    -7.826765    505.73328  0.022597555  0.022403172            4 
 1866000   0.94700217   -7.8250767    505.16585  0.022560104  0.022397226            2 
 1867000   0.96355327   -7.7909487    505.26305  0.022552359  0.022391212            1 
 1868000   0.94548952   -7.7777033     505.8192  0.022565096  0.022385302            1 
 1869000   0.96426342   -7.7774312    506.04895  0.022563267  0.022379384            2 
 1870000   0.94989422   -7.7760602    506.36249  0.022565173  0.022373457            1 
 1871000   0.96141282   -7.8185692    506.08932  0.022540946  0.022367508            3 
 1872000   0.96055823    -7.773729    507.05713  0.022571988  0.022361569            3 
 1873000   0.97128734   -7.7818103    507.15475   0.02256428  0.022355625            3 
 1874000   0.95131033   -7.8050996    507.07952  0.022548894  0.022349708            4 
 1875000   0.96403035   -7.8122673    507.14729  0.022539879  0.022343783            2 
 1876000   0.94868272   -7.8024501    506.88903  0.022516393  0.022337819            1 
 1877000   0.95519641   -7.8416545    507.06948  0.022512408  0.022331905            2 
 1878000   0.96229884   -7.7891883      506.315  0.022466942  0.022325807            2 
 1879000   0.97096545   -7.8280357     507.4019  0.022503189  0.022319823            2 
 1880000   0.96534833   -7.8404785    506.97506  0.022472299  0.022313815            2 
 1881000   0.95786505   -7.8033795    507.04644  0.022463514  0.022307837            2 
 1882000   0.94092405   -7.7881988    509.13649  0.022544124  0.022301912            4 
 1883000   0.95040912    -7.786364    509.00614  0.022526382  0.022296039            2 
 1884000   0.94587052   -7.8334952    506.83968  0.022418599  0.022290151            2 
 1885000   0.96223433   -7.8249858    508.63209  0.022485945  0.022284227            2 
 1886000   0.94857212   -7.8216792    509.68364  0.022520486    0.0222783            1 
 1887000   0.94206791   -7.7891264    508.52975  0.022457594  0.022272374            2 
 1888000   0.94062745    -7.812401    509.62851  0.022494196  0.022266474            2 
 1889000    0.9352418   -7.8215364    508.90524  0.022450381  0.022260487            1 
 1890000   0.96438076   -7.8258902    508.75414   0.02243184  0.022254546            5 
 1891000   0.93210921   -7.8080883    509.16562  0.022438111  0.022248663            3 
 1892000    0.9646741   -7.7999654    509.95123  0.022460854  0.022242847            1 
 1893000   0.95990348   -7.8058431    509.97138  0.022449876  0.022237029            1 
 1894000   0.95465095   -7.7850434    511.27844  0.022495532  0.022231162            3 
 1895000   0.94184273   -7.8355733    511.03564  0.022472983  0.022225257            1 
 1896000   0.96254732   -7.8349662     511.1456  0.022465963  0.022219424            2 
 1897000   0.93996611   -7.8064756     509.8081  0.022395365  0.022213495            1 
 1898000   0.96246147   -7.7915057    509.93794  0.022389267  0.022207777            2 
 1899000   0.92224569   -7.8197734    511.02853  0.022425335  0.022202008            3 
 1900000   0.94338118   -7.8257715    511.10356  0.022416823  0.022196198            2 
 1901000    0.9436789   -7.7973925     511.2986  0.022413581   0.02219033            2 
 1902000   0.95191639   -7.7797959    511.57261  0.022413802  0.022184499            1 
 1903000    0.9471401   -7.8376926    509.74551  0.022322014   0.02217862            1 
 1904000   0.95479701   -7.8370442    510.29176  0.022334198  0.022172665            3 
 1905000   0.93137703     -7.81488    510.83772  0.022346357  0.022166742            1 
 1906000   0.95370001   -7.8352958    510.13959  0.022304109  0.022160796            1 
 1907000   0.96485749   -7.8348337     512.7813  0.022407853  0.022154823            3 
 1908000   0.93416591   -7.8155079    513.16666   0.02241294  0.022148953            3 
 1909000   0.94337546   -7.8353037    511.90008  0.022345909  0.022143029            3 
 1910000   0.97352476     -7.81633    512.20107  0.022347342  0.022137136            2 
 1911000   0.95448591   -7.8616007     511.7134  0.022314382  0.022131249            1 
 1912000   0.97033175   -7.8656714    511.30861  0.022285069  0.022125327            1 
 1913000   0.93337711   -7.8198305    512.63355  0.022331136  0.022119417            2 
 1914000   0.94874568   -7.8018818    513.24439  0.022346064  0.022113507            4 
 1915000   0.96979143   -7.8405598    512.70065  0.022310733  0.022107646            1 
 1916000   0.95014292   -7.8472849    511.65553  0.022253633  0.022101729            8 
 1917000   0.94304865   -7.8297878    512.44844  0.022276493  0.022095773            1 
 1918000   0.93905805   -7.7933734    514.18232  0.022340212  0.022089861            2 
 1919000   0.96546233   -7.8502103    513.31599   0.02229095  0.022083999            2 
 1920000   0.93740178   -7.8519733    512.91556   0.02226196  0.022078098            4 
 1921000   0.95125101   -7.8197571    514.25319  0.022308398  0.022072187            3 
 1922000   0.95171255    -7.841356    512.79115  0.022233401  0.022066321            1 
 1923000   0.93465774   -7.8509706     512.8246  0.022223288  0.022060316            3 
 1924000   0.93536144   -7.8378485    514.20594  0.022271567  0.022054408            2 
 1925000   0.94512739     -7.79628    514.41708  0.022269137  0.022048524            2 
 1926000   0.93954663    -7.838173    514.21881  0.022248996    0.0220426            1 
 1927000   0.95847894   -7.8191097    513.39131  0.022201665  0.022036647            3 
 1928000   0.93976255   -7.8652398    513.47656  0.022193835  0.022030673            1 
 1929000   0.95388448   -7.7749285    515.21691  0.022257513  0.022024751            1 
 1930000   0.91743249   -7.8608459      514.814  0.022228584  0.022018816            3 
 1931000   0.93575357   -7.8218074     513.7182  0.022169782  0.022012883            3 
 1932000   0.94259421   -7.7976454    514.93202  0.022210663  0.022006937            5 
 1933000   0.94055867   -7.8218557    514.19965    0.0221676   0.02200102            1 
 1934000   0.93526822   -7.8383411    513.86029  0.022141516  0.021995045            1 
 1935000   0.94299967   -7.8289108    514.17473  0.022143614  0.021989076            3 
 1936000    0.9595885    -7.827703    514.78988  0.022158655    0.0219831            2 
 1937000   0.94073536    -7.847718    514.56577  0.022137574  0.021977062            3 
 1938000   0.94571556   -7.8788297    514.88222  0.022139758  0.021971043            2 
 1939000   0.93930503   -7.8687573    512.75451  0.022036897  0.021965066            1 
 1940000   0.93425917   -7.8166268    515.81222  0.022156882  0.021959061            1 
 1941000   0.92947075   -7.8518677    514.57203  0.022092222   0.02195309            2 
 1942000    0.9517035   -7.8443291    515.06595   0.02210204  0.021947044            2 
 1943000   0.93947426   -7.8537647    514.91737  0.022084293  0.021941108            1 
 1944000   0.91541997   -7.8253508    517.00776  0.022162541  0.021935112            4 
 1945000   0.93199662   -7.8291521    515.74078  0.022096863  0.021929242            3 
 1946000   0.94560917   -7.8314957     516.8645  0.022133629  0.021923402            3 
 1947000   0.91900759    -7.834431    516.29931   0.02209807  0.021917588            3 
 1948000   0.93702659   -7.8331483    517.03604  0.022118243  0.021911655            4 
 1949000   0.92633646   -7.8410975    516.50645   0.02208425  0.021905761            2 
 1950000   0.95306328   -7.8463597    516.96558  0.022092546  0.021899839            1 
 1951000   0.95255255   -7.8602946     515.7168  0.022027883  0.021893883            4 
 1952000   0.92094334   -7.8579005    516.79049  0.022062435   0.02188785            1 
 1953000   0.92466542   -7.8869326    515.98693  0.022016851  0.021881766            1 
 1954000   0.92108885   -7.8268743    516.01845  0.022006928  0.021875714            2 
 1955000   0.92779324    -7.829007     518.0286  0.022081355   0.02186967            2 
 1956000   0.93140068   -7.8611459    518.47724   0.02208918  0.021863702            3 
 1957000   0.94642122    -7.826273    518.36206  0.022072988  0.021857754            2 
 1958000   0.93840617   -7.8325237    518.76859  0.022079017  0.021851848            4 
 1959000    0.9487125    -7.868554    517.69745  0.022022182  0.021845905            3 
 1960000    0.9364315   -7.8490963    518.06595  0.022026614  0.021839994            2 
 1961000   0.92400638   -7.8488454    517.25259  0.021980817  0.021834039            1 
 1962000   0.93596514    -7.867912    518.11252  0.022006138  0.021828069            1 
 1963000   0.93935092   -7.8529575    517.44719  0.021966683  0.021822033            3 
 1964000   0.92368948     -7.84716    516.87932  0.021931403   0.02181601            2 
 1965000   0.93148697   -7.8287438      519.764  0.022042579  0.021809988            6 
 1966000   0.92807792   -7.8425662    518.27866  0.021968407  0.021804013            1 
 1967000   0.95530698   -7.8467086    519.57489  0.022012154  0.021798087            4 
 1968000    0.9352937   -7.8240209    518.75112  0.021966087  0.021792113            1 
 1969000   0.93143549   -7.8258969    517.99029  0.021922731  0.021786146            2 
 1970000     0.933371   -7.8138492     519.8049  0.021988363   0.02178024            2 
 1971000   0.92909995   -7.8229199    519.34242  0.021957653  0.021774355            1 
 1972000   0.92514329   -7.8400657    519.54893  0.021955245  0.021768407            3 
 1973000   0.94559397   -7.8524763    518.87653  0.021915718  0.021762482            2 
 1974000   0.94747755   -7.8343193     518.7352  0.021898649  0.021756532            1 
 1975000   0.93520697   -7.8298496    519.29337  0.021911112  0.021750507            2 
 1976000   0.91428152   -7.8422563    517.98368  0.021844791  0.021744495            2 
 1977000   0.91633337   -7.8390455     518.7263  0.021865044  0.021738432            3 
 1978000   0.91890162   -7.8512181    519.71444   0.02189562  0.021732403            2 
 1979000   0.93877981   -7.8291658    520.97864   0.02193779  0.021726402            2 
 1980000   0.93484087   -7.9044088    518.19421  0.021809521   0.02172035            5 
 1981000   0.92063807   -7.8411595    520.46781  0.021894153  0.021714339            4 
 1982000   0.92074395   -7.8557729    519.53362  0.021843829  0.021708321            2 
 1983000   0.94752894   -7.8241977    520.86161  0.021888621   0.02170224            1 
 1984000   0.92828097   -7.8663775    521.02437  0.021884424  0.021696178            2 
 1985000   0.92813941   -7.8752447    519.78906  0.021821539  0.021690142            1 
 1986000   0.92067903   -7.8150274    521.03406  0.021862792  0.021684119            2 
 1987000    0.9230765   -7.8439739    520.95689  0.021848553  0.021678109            2 
 1988000   0.93187584   -7.8211452    520.04747  0.021799441  0.021672044            2 
 1989000   0.92757966   -7.8975628    519.09633  0.021748631  0.021665943            5 
 1990000   0.94197083   -7.8329087    522.37745  0.021875102  0.021659848            4 
 1991000   0.91845078    -7.836422     521.5344   0.02182883  0.021653793            2 
 1992000   0.94302616   -7.8183823    521.45673  0.021814622  0.021647815            2 
 1993000   0.94351859   -7.8844282    520.93132  0.021781707   0.02164177            2 
 1994000   0.94630063   -7.8599925    520.10131  0.021736096  0.021635691            1 
 1995000     0.934534   -7.8194906    520.45401  0.021739933  0.021629658            3 
 1996000   0.92736914   -7.8586742    522.71395  0.021823395  0.021623672            2 
 1997000   0.92892839   -7.8501769    522.00539  0.021782899  0.021617659            3 
 1998000   0.94391158   -7.8868883    521.18491  0.021737776  0.021611616            3 
 1999000   0.94070715   -7.8612104     521.5705  0.021742976  0.021605541            1 
 2000000   0.92033294    -7.893601     521.5647  0.021731863  0.021599479            2 
 2001000   0.92688452   -7.8576269    522.49821  0.021759879  0.021593443            1 
 2002000   0.94220765   -7.8394317     523.4274  0.021787687  0.021587431            4 
 2003000   0.91893208   -7.8361997    522.47129  0.021737032  0.021581485            4 
 2004000   0.92219326   -7.8661477    523.43752  0.021766364  0.021575511            2 
 2005000   0.93474994   -7.8811095    522.49958  0.021716524  0.021569546            3 
 2006000    0.9196253    -7.862676    521.70035  0.021672497  0.021563524            4 
 2007000   0.91318738   -7.8707316    523.51965  0.021737238  0.021557552            1 
 2008000   0.95939374   -7.8936537    522.72634   0.02169349  0.021551521            1 
 2009000    0.9231096   -7.8433628     522.4365   0.02167067  0.021545491            2 
 2010000   0.94060888   -7.8462992     523.8872  0.021720033  0.021539481            3 
 2011000   0.93561331   -7.8378267    523.87011  0.021708525  0.021533488            5 
 2012000   0.92098232   -7.8199338     524.9885  0.021744057  0.021527604            5 
 2013000   0.93779291   -7.8068319    524.47469  0.021711984  0.021521621            1 
 2014000   0.94611979   -7.8489982    523.96713  0.021680202  0.021515651            2 
 2015000   0.92898627   -7.8514265    523.45584  0.021648298  0.021509608            3 
 2016000   0.93035518   -7.8674696    522.17315  0.021584538  0.021503507            3 
 2017000   0.92694098   -7.8900694    524.09907  0.021653407   0.02149733            4 
 2018000    0.9325172   -7.8825068    523.23659  0.021607061  0.021491274            1 
 2019000   0.93929299   -7.8778925    524.67958  0.021655918  0.021485192            1 
 2020000   0.93826256   -7.8921836    524.31122  0.021630001  0.021479071            1 
 2021000   0.92093852   -7.8836541    524.95748  0.021645946  0.021472972            2 
 2022000   0.93499819   -7.8616154    523.94438  0.021593487  0.021466923            1 
 2023000   0.91142631   -7.8779375    524.64656  0.021611738  0.021460811            1 
 2024000   0.94621371   -7.8649168    524.87774  0.021610579  0.021454714            2 
 2025000   0.92455612    -7.815811    527.25648  0.021697798  0.021448701            2 
 2026000    0.9106351   -7.8327551    525.19871  0.021602448    0.0214427            1 
 2027000   0.91316823   -7.8802159    524.46282  0.021561537  0.021436597            4 
 2028000   0.92071486   -7.8355164     526.3173  0.021627108  0.021430526            6 
 2029000   0.93183828   -7.8782483    524.07424  0.021524324  0.021424391            1 
 2030000   0.92194883   -7.8446778     524.6705  0.021538198  0.021418245            2 
 2031000   0.92396762   -7.8575755    525.21082  0.021549763  0.021412132            3 
 2032000   0.94223617   -7.8647452    525.60846  0.021555465  0.021406035            3 
 2033000   0.93577927   -7.8808332    525.76259   0.02155118  0.021399855            2 
 2034000   0.91712359   -7.8690383     523.0558  0.021429687  0.021393703            1 
 2035000   0.93014972    -7.897495    524.91512  0.021495296  0.021387505            1 
 2036000   0.92594863   -7.8720111    525.34706  0.021502417  0.021381354            2 
 2037000     0.922554   -7.9138092    524.59119  0.021460939  0.021375213            1 
 2038000   0.91701334   -7.8603091    524.96897  0.021465856   0.02136902            3 
 2039000   0.91740255   -7.8442162    526.46435  0.021516444  0.021362888            2 
 2040000    0.9450959   -7.8692932    526.46943  0.021506104  0.021356762            4 
 2041000     0.918115   -7.8871519    525.64512  0.021461911  0.021350647            2 
 2042000   0.92583578   -7.9047831    523.80735  0.021376402  0.021344511            4 
 2043000   0.93746376   -7.8630414    525.94709  0.021453218  0.021338335            3 
 2044000    0.9167913   -7.8788377    525.62071  0.021429416  0.021332148            3 
 2045000   0.91148124   -7.8790373    525.67464  0.021421134  0.021325926            3 
 2046000   0.91230507   -7.9043423    524.81649  0.021375712  0.021319684            1 
 2047000   0.91933093   -7.8770663    527.15306  0.021460392  0.021313428            2 
 2048000   0.91045107   -7.8488497    525.82841  0.021396013  0.021307216            1 
 2049000    0.9024527   -7.9021095    525.25358  0.021362192  0.021301033            1 
 2050000   0.92362369   -7.8876702    524.73617  0.021330739  0.021294755            2 
 2051000   0.89660736   -7.9151207    524.12166  0.021295371  0.021288481            3 
 2052000   0.91895825   -7.8782929    526.31849  0.021374208  0.021282217            3 
 2053000   0.92404307   -7.8743672    525.57328  0.021333547  0.021276007            2 
 2054000    0.9229132   -7.8594956    526.68883  0.021368421  0.021269844            3 
 2055000   0.92030929    -7.887716    526.48011  0.021349558  0.021263693            2 
 2056000   0.92781557    -7.887267      526.847  0.021354045  0.021257484            5 
 2057000    0.9385709    -7.899136    526.89262  0.021345512   0.02125126            5 
 2058000   0.92032263   -7.9306336    526.78524  0.021330792   0.02124496            2 
 2059000   0.92577339   -7.8750054    527.54823  0.021351313  0.021238758            2 
 2060000   0.90740489   -7.8657453    527.45243  0.021337072  0.021232564            2 
 2061000   0.93847518   -7.8888464     527.4149  0.021325202  0.021226313            3 
 2062000   0.90800679   -7.8949291    528.51426   0.02135929  0.021220107            2 
 2063000   0.88817578    -7.897131    526.31308  0.021260021  0.021213898            4 
 2064000   0.92539697   -7.8995069    528.04204  0.021319527  0.021207706            2 
 2065000   0.93312648   -7.8961509    528.34104  0.021321269  0.021201531            3 
 2066000   0.92838699   -7.8865332    527.52561  0.021278058  0.021195314            1 
 2067000   0.90547381   -7.8972625    526.84326  0.021240254   0.02118909            2 
 2068000   0.93347475   -7.8920596    527.70252  0.021264608  0.021182815            4 
 2069000   0.91724488    -7.899536     527.2438  0.021235855  0.021176616            2 
 2070000   0.91740946    -7.894892    528.38713  0.021271624  0.021170412            2 
 2071000   0.94827062   -7.9013254    528.56319  0.021268437  0.021164187            2 
 2072000   0.91580466   -7.8934106    528.46366  0.021254169  0.021157943            2 
 2073000   0.93027891   -7.9094097    529.31228   0.02127803  0.021151735            3 
 2074000   0.90877283   -7.8946844    527.41274  0.021191447  0.021145521            6 
 2075000   0.91649523    -7.865769    527.00651   0.02116492   0.02113934            1 
 2076000   0.89869788   -7.8737566    529.32595   0.02124783  0.021133103            4 
 2077000   0.93194301   -7.9030154    527.09151   0.02114795  0.021126905            1 
 2078000    0.9324029   -7.8857586    529.24386  0.021224088   0.02112065            1 
 2079000   0.91208337   -7.9133028    528.43379  0.021181409  0.021114374            1 
 2080000   0.92269605   -7.9060406    528.13354  0.021159196  0.021108117            3 
 2081000   0.91147032   -7.8878484    529.74038  0.021213374  0.021101807            2 
 2082000   0.92621807    -7.915813    528.13266  0.021138835  0.021095512            4 
 2083000   0.90804514   -7.8787144     528.6834   0.02115072  0.021089233            6 
 2084000    0.9089213   -7.8949283    529.00354  0.021153372  0.021082884            2 
 2085000   0.92992559   -7.9167612     528.3645  0.021117686  0.021076623            3 
 2086000   0.90162969   -7.9005761    528.34393   0.02110674  0.021070351            1 
 2087000   0.92202323   -7.8988501    530.20896  0.021171097   0.02106407            1 
 2088000   0.90830158   -7.8899096    530.11885  0.021157361  0.021057852            1 
 2089000   0.90383321   -7.9355437     529.5178  0.021123257  0.021051639            1 
 2090000   0.89807476   -7.8761972    531.09674  0.021176106  0.021045405            1 
 2091000   0.89232389   -7.8865404    530.89175  0.021157809  0.021039238            2 
 2092000   0.91444508   -7.8760065    530.25307  0.021122254  0.021033019            2 
 2093000    0.9215019   -7.9157326    530.90247  0.021138018  0.021026793            3 
 2094000   0.90336886   -7.8908791    530.17988  0.021099168  0.021020558            2 
 2095000   0.93626386    -7.882332    529.77789  0.021073106  0.021014338            1 
 2096000   0.92883217   -7.8890168    531.64945  0.021137462  0.021008107            1 
 2097000   0.92734839   -7.8712367    532.44434  0.021158971  0.021001888            1 
 2098000   0.89391776   -7.9057611    531.21573  0.021100084  0.020995671            2 
 2099000   0.93888247   -7.9139526    531.20873  0.021089754  0.020989447            2 
 2100000   0.91694182   -7.8807738     531.0514  0.021073468  0.020983279            4 
 2101000    0.9291659   -7.9179079     530.0002  0.021021744  0.020977106            1 
 2102000   0.91491314   -7.8650227    531.92687  0.021088125  0.020970858            3 
 2103000   0.93518676    -7.905078    529.72604  0.020990888  0.020964651            1 
 2104000   0.92893319   -7.9409438    530.03992  0.020993343  0.020958338            2 
 2105000   0.91199301   -7.9334708    531.30465  0.021033438  0.020952074            1 
 2106000   0.89155501   -7.8918756      531.478   0.02103031  0.020945802            2 
 2107000   0.92397736   -7.9077827    532.89291   0.02107629  0.020939636            2 
 2108000   0.90740583   -7.8991593    529.96682  0.020950617  0.020933462            2 
 2109000   0.92494698    -7.883573    532.51752   0.02104147  0.020927242            1 
 2110000   0.91544581     -7.92197    530.81577  0.020964288  0.020921047            1 
 2111000   0.91122084   -7.8713887    531.93441  0.020998516  0.020914852            2 
 2112000   0.92221622    -7.879268    530.90302  0.020947878  0.020908702            7 
 2113000    0.9094656   -7.9215153    531.34071  0.020955226  0.020902461            2 
 2114000   0.89731077   -7.9075628    532.01131  0.020971748  0.020896259            1 
 2115000   0.91678989   -7.9239713    533.92376  0.021037185  0.020890123            3 
 2116000   0.91837509    -7.922437    531.89282   0.02094726  0.020883901            1 
 2117000   0.92063778   -7.9206349     533.0393  0.020982495  0.020877688            2 
 2118000   0.91078368   -7.8968703    532.63417  0.020956648  0.020871458            2 
 2119000   0.91984049   -7.9008194    532.85437  0.020955418  0.020865195            3 
 2120000   0.90234265   -7.9591331    532.25285  0.020921889  0.020858916            7 
 2121000   0.91250689    -7.949706    531.54487  0.020884208  0.020852619            1 
 2122000   0.92772955   -7.9110257    533.23588  0.020940775  0.020846287            1 
 2123000   0.90877791   -7.9239689    531.41401  0.020859397  0.020840038            2 
 2124000   0.91240763   -7.9064798    532.87964   0.02090708  0.020833775            1 
 2125000   0.90360125   -7.9258943    532.83049  0.020895313  0.020827467            2 
 2126000   0.93578079   -7.8817856    534.56335  0.020953408  0.020821178            1 
 2127000   0.92133909   -7.9992246    531.03075  0.020805154  0.020814865            2 
 2128000   0.92432868   -7.9563132    532.04363  0.020835042  0.020808502            1 
 2129000   0.90245048   -7.8930043    533.82434  0.020894956  0.020802147            6 
 2130000   0.90199116   -7.8862816    533.50585  0.020872686  0.020795852            1 
 2131000   0.89503332   -7.9466641    532.21203  0.020812296  0.020789534            3 
 2132000    0.8844586   -7.9265249    533.16668  0.020839848  0.020783189            2 
 2133000   0.90651654   -7.9017978     532.7387  0.020813358  0.020776861            1 
 2134000   0.89944907   -7.8826367    535.08046  0.020895051   0.02077058            7 
 2135000   0.91986011   -7.9222963    533.12787   0.02080905  0.020764306            3 
 2136000   0.89916075   -7.9226191     534.4803  0.020852072  0.020758023            1 
 2137000   0.90688531   -7.9451561    532.88146  0.020779966  0.020751714            4 
 2138000   0.90681497   -7.9107254    534.04264  0.020815507  0.020745419            3 
 2139000   0.90181547   -7.8945771    534.27996  0.020815021  0.020739159            3 
 2140000   0.90709184    -7.946345    535.13759  0.020838691  0.020732901            1 
 2141000   0.90423777   -7.8895353    536.07316  0.020865373  0.020726642            2 
 2142000   0.93472544   -7.9201659    535.45282  0.020831498  0.020720417            3 
 2143000   0.89863386   -7.9399769    534.32548  0.020777939  0.020714129            3 
 2144000   0.91366204    -7.946346    533.97659  0.020754687   0.02070782            2 
 2145000   0.91897337   -7.9173218    534.00392  0.020746073  0.020701556            8 
 2146000   0.89479621   -7.9700299    534.57015  0.020758393  0.020695325            3 
 2147000   0.89272242   -7.9540031    534.66502  0.020752407  0.020689092            2 
 2148000   0.89179703   -7.9571769    535.09106  0.020759274  0.020682887            1 
 2149000   0.90685001    -7.894267    535.52205  0.020766327  0.020676717            3 
 2150000   0.89198361   -7.9523309    535.37628  0.020751019  0.020670497            3 
 2151000   0.94048107    -7.930674    535.34108  0.020740008  0.020664266            1 
 2152000     0.899393   -7.9518194    534.60315  0.020701795  0.020658017            2 
 2153000    0.9109971   -7.9171031    535.10838  0.020711735   0.02065176            1 
 2154000   0.91174669    -7.933625    535.16221  0.020704202  0.020645549            1 
 2155000   0.91168561   -7.9342677    534.97233  0.020687252  0.020639265            2 
 2156000   0.91413975   -7.9343862    535.73875   0.02070728   0.02063296            1 
 2157000   0.90929695   -7.9724107     534.8216  0.020662247  0.020626659            3 
 2158000   0.90140976   -7.8972311     536.5143  0.020718037  0.020620355            3 
 2159000   0.91430299   -7.9355279    534.70434   0.02063858  0.020614105            1 
 2160000   0.89224214   -7.9190151    535.79973  0.020671286  0.020607862            4 
 2161000   0.89438314   -7.9075454    536.62956  0.020693721  0.020601602            4 
 2162000    0.9077266   -7.9312227    535.51975  0.020641372  0.020595348            3 
 2163000    0.9076628     -7.91497    536.49908  0.020669559  0.020589086            5 
 2164000   0.89407418   -7.9234532    537.20614  0.020687236  0.020582852            2 
 2165000   0.88510377   -7.9247827     536.0013  0.020631305  0.020576569            2 
 2166000   0.91420965   -7.9187612    537.15705  0.020666245   0.02057031            2 
 2167000   0.91666005   -7.9606743    537.05107  0.020652633  0.020564004            2 
 2168000   0.90536823    -7.930046    535.78899  0.020594595   0.02055769            1 
 2169000   0.89392209   -7.9097119    537.46376  0.020649445  0.020551428            2 
 2170000   0.91623253   -7.9484301    536.25537  0.020593524  0.020545112            2 
 2171000   0.88073037   -7.8901863     536.2779  0.020584903    0.0205388            1 
 2172000   0.88857324   -7.9419461    536.02964  0.020565901  0.020532483            1 
 2173000   0.92319062   -7.9362357    536.10067   0.02055916  0.020526137            3 
 2174000   0.92750337   -7.9056806    536.84118  0.020578089  0.020519824            3 
 2175000   0.91018421   -7.9124786     537.5956  0.020597533  0.020513596            2 
 2176000   0.88586583   -7.9094383    537.94988  0.020601634  0.020507307            3 
 2177000   0.88767864   -7.9459483    536.95945  0.020554258  0.020501021            2 
 2178000    0.8877823   -7.9384743    537.94652  0.020582588  0.020494704            2 
 2179000   0.89026172   -7.9395183    536.53322  0.020519092  0.020488443            1 
 2180000    0.9070778   -7.9366035    537.43802  0.020544267  0.020482172            2 
 2181000   0.91201315   -7.9419478    538.54856  0.020577279  0.020475865            3 
 2182000   0.90293678   -7.9401085    535.95067  0.020468632  0.020469584            3 
 2183000   0.90531704   -7.9365832    537.53184  0.020519615  0.020463252            1 
 2184000   0.89451981   -7.9422786    536.67307  0.020477452  0.020456902            1 
 2185000   0.89228873   -7.9243136    537.01173  0.020480997  0.020450561            2 
 2186000   0.88723959    -7.939298    537.34935  0.020484498  0.020444225            4 
 2187000   0.90282125   -7.9241914    537.91674  0.020496751  0.020437895            1 
 2188000   0.89736929   -7.9064493    537.36453  0.020466352  0.020431529            4 
 2189000   0.88161436   -7.9378014    537.77112   0.02047248  0.020425171            1 
 2190000   0.90121976   -7.9555759    537.71015  0.020460812  0.020418825            2 
 2191000   0.90383131   -7.9414149    538.68561  0.020488575  0.020412478            1 
 2192000   0.90051261   -7.9559305    538.36429  0.020467012  0.020406159            2 
 2193000   0.89419924   -7.9705795     537.6909  0.020432091  0.020399788            2 
 2194000   0.91212485   -7.9314379     538.1663  0.020440835   0.02039345            1 
 2195000    0.8983479   -7.9558579    538.97066   0.02046206  0.020387122            4 
 2196000   0.88372462   -7.9057881    539.77757  0.020483363  0.020380802            5 
 2197000    0.8808947   -7.9319877    538.77058  0.020435843  0.020374488            4 
 2198000   0.89825368   -7.9307357     539.6434  0.020459638  0.020368157            1 
 2199000   0.90270224   -7.9755104    538.69725  0.020414478  0.020361828            2 
 2200000   0.90513817   -7.9643359    537.63888  0.020365109  0.020355414            2 
 2201000   0.90972757   -7.9419258    539.96426  0.020443899  0.020349069            2 
 2202000   0.90295741   -7.9657433    539.19758    0.0204056  0.020342747            2 
 2203000   0.89324647   -7.9527794    538.39195  0.020365863  0.020336378            3 
 2204000   0.91272373   -7.9508568    539.54757  0.020400316  0.020330035            2 
 2205000   0.91801561   -7.9734577    538.38755  0.020347224  0.020323666            6 
 2206000   0.91908746   -7.9518172    540.35259  0.020412231  0.020317384            5 
 2207000   0.90578684   -7.9278458    539.00622  0.020352145  0.020311096            4 
 2208000   0.89135319   -7.9189557    538.97355  0.020341695  0.020304827            2 
 2209000   0.88962953   -7.9495923    539.89246  0.020367152  0.020298553            2 
 2210000   0.91003696    -7.960696    539.78256  0.020353792  0.020292298            2 
 2211000    0.8921902   -7.9767108    539.96035  0.020351287   0.02028601            4 
 2212000    0.9110333    -7.972885    540.31097  0.020355296  0.020279688            2 
 2213000    0.8944782   -7.9464563    540.04915  0.020336239  0.020273422            2 
 2214000   0.88624635   -7.9578737    540.00689  0.020325463  0.020267115            2 
 2215000   0.87474273   -7.9669827     539.4983  0.020297152  0.020260865            1 
 2216000   0.90379007    -7.958223    539.88004  0.020302348  0.020254602            2 
 2217000   0.89006652   -7.9597441    540.68278  0.020323364  0.020248335            1 
 2218000   0.88477127    -7.941123    540.80537  0.020318807  0.020242086            1 
 2219000   0.89066883   -7.9375345    540.29662  0.020290545  0.020235866            3 
 2220000    0.9129536   -7.9236347    541.42023  0.020323582  0.020229591            2 
 2221000    0.9059971   -7.9272677    540.50243  0.020279995  0.020223321            4 
 2222000   0.89467547   -7.9552934    541.81459  0.020320079  0.020217096            3 
 2223000   0.90893332   -7.9434269    541.05541  0.020282479  0.020210845            1 
 2224000   0.88608448   -7.9349353    541.11906  0.020275744  0.020204611            1 
 2225000   0.89942478   -7.9249256    541.18342  0.020269042  0.020198364            2 
 2226000   0.90851015   -7.9410221     541.7972  0.020282914  0.020192109            2 
 2227000   0.91302568   -7.9741565    541.48859  0.020262258  0.020185837            6 
 2228000   0.89057409   -7.9875712     539.9635  0.020196121  0.020179523            2 
 2229000   0.89367688   -7.9724219    540.14155  0.020193717  0.020173179            2 
 2230000    0.8879897   -7.9653554     540.1351  0.020184421  0.020166799            3 
 2231000   0.90793539   -7.9546363    541.74007  0.020235323  0.020160444            2 
 2232000   0.90433552   -7.9621181    542.02203  0.020236784  0.020154083            2 
 2233000   0.88591761   -7.9615094    540.65389  0.020176664  0.020147748            2 
 2234000   0.89079002   -7.9439193    541.23982  0.020189489  0.020141449            2 
 2235000   0.89910803   -7.9773187    541.72609  0.020198587  0.020135122            1 
 2236000   0.88851478    -7.954543    541.14598  0.020167933  0.020128764            1 
 2237000   0.89018415   -7.9669905    541.89196  0.020186707  0.020122464            2 
 2238000   0.90675585   -7.9642887    540.95033  0.020142625  0.020116092            1 
 2239000   0.88983689   -7.9574485    541.90418   0.02016913  0.020109716            1 
 2240000   0.87966115   -7.9410006    543.27338  0.020211063  0.020103433            3 
 2241000   0.88896725   -7.9845847    541.84334  0.020148867  0.020097106            2 
 2242000   0.90204787   -7.9504931    542.14803  0.020151205  0.020090766            1 
 2243000   0.88942685   -7.9848549    542.86603  0.020168897  0.020084427            1 
 2244000   0.88353423   -7.9482429    542.50416  0.020146471  0.020078065            1 
 2245000   0.90853425   -7.9685707    540.53901  0.020064551  0.020071711            2 
 2246000   0.89388961   -7.9680994     541.4435  0.020089177  0.020065357            2 
 2247000   0.89634821   -7.9211568    543.94573  0.020173036  0.020059041            2 
 2248000    0.8973871   -7.9696054    542.14856  0.020097441  0.020052686            3 
 2249000    0.9061605   -8.0040273    540.90769  0.020042526  0.020046246            2 
 2250000    0.8950917   -7.9485651    542.03096  0.020075221  0.020039855            1 
 2251000   0.88525725   -7.9865019     540.9184  0.020025115  0.020033467            2 
 2252000   0.88304536   -7.9228482    542.89174  0.020089245  0.020027117            2 
 2253000   0.89990496   -7.9751193    543.03722  0.020085709  0.020020775            3 
 2254000   0.90867266   -7.9823466    542.43734  0.020054619  0.020014396            2 
 2255000   0.89035442   -7.9723927    541.61672    0.0200154  0.020008017            1 
 2256000   0.89262952   -7.9711471    542.39168  0.020035154  0.020001641            5 
 2257000   0.89406882   -7.9451207    544.17517  0.020092127  0.019995267            3 
 2258000   0.88261542   -7.9514759    544.23794  0.020085545  0.019989014            2 
 2259000   0.89430525   -7.9840036    542.85092  0.020025488  0.019982736            2 
 2260000   0.89267808   -7.9624219    544.48734  0.020076967  0.019976447            3 
 2261000   0.89608515   -7.9701635    543.84575   0.02004444  0.019970114            2 
 2262000   0.87516184   -7.9669425    544.42195  0.020056806  0.019963828            4 
 2263000   0.87798648   -7.9685812     543.5595  0.020016184  0.019957497            2 
 2264000    0.8914364   -7.9725516    544.05756  0.020025676  0.019951165            2 
 2265000   0.86998988   -8.0035662    543.28596  0.019988446   0.01994489            2 
 2266000    0.8819797   -7.9771599     543.4713  0.019986441  0.019938574            2 
 2267000   0.88204551   -7.9299796    544.36693  0.020010547  0.019932291            2 
 2268000   0.88708991   -7.9797654    543.11179  0.019955607  0.019926005            1 
 2269000   0.89727119   -7.9211016    544.55194  0.019999704   0.01991964            2 
 2270000   0.87255412   -7.9944389     544.3273  0.019982647  0.019913313            2 
 2271000    0.8868274   -7.9925671    542.57032  0.019909376  0.019906986            2 
 2272000   0.90700605   -7.9650386    543.08001  0.019919308  0.019900671            5 
 2273000   0.87948428   -7.9654337    544.57376  0.019965309  0.019894375            2 
 2274000   0.88263865   -7.9780624    544.20468  0.019943004  0.019888061            1 
 2275000    0.8752247    -7.911446    544.64678  0.019950431  0.019881761            2 
 2276000   0.88428827     -7.94625    545.33566  0.019966888  0.019875498            2 
 2277000   0.89790264   -7.9374747    545.09036  0.019949142  0.019869202            3 
 2278000   0.89134922   -7.9591711    545.28841   0.01994763  0.019862967            2 
 2279000   0.89186803   -7.9620612    546.13957      0.01997  0.019856673            3 
 2280000   0.88771972   -7.9919343    543.91208  0.019879827  0.019850407            2 
 2281000   0.85912916   -8.0161021    543.11337  0.019841932  0.019844062            2 
 2282000   0.87016661    -7.975753    544.61845  0.019888199  0.019837726            6 
 2283000   0.89311717   -7.9731854    543.73292  0.019847165  0.019831364            2 
 2284000   0.88796304   -7.9884256    543.18919  0.019818636  0.019824967            3 
 2285000   0.87610858   -7.9696502    545.39037   0.01989024  0.019818613            2 
 2286000   0.87076758   -7.9880994    544.28371  0.019841197  0.019812231            2 
 2287000   0.86581371   -7.9587673    544.25252  0.019831385  0.019805932            2 
 2288000   0.88407681   -7.9595588    545.40844  0.019864818  0.019799657            1 
 2289000   0.86947232   -7.9480778    545.63374  0.019864342  0.019793381            1 
 2290000   0.88222385   -7.9659517    545.65993  0.019856621  0.019787086            5 
 2291000   0.86811771   -7.9659142    545.93931  0.019858115  0.019780784            1 
 2292000   0.89358376   -7.9659951    545.55638  0.019835528   0.01977446            3 
 2293000   0.88891986   -7.9536394    545.55234  0.019826731   0.01976813            1 
 2294000   0.88169508   -7.9997907    543.52309  0.019744373  0.019761763            1 
 2295000   0.88996607   -7.9968343    544.82635  0.019783092  0.019755393            3 
 2296000   0.86851143   -8.0089992    545.21024  0.019788409  0.019749008            2 
 2297000   0.87869548   -7.9178807    544.08104  0.019738827  0.019742637            3 
 2298000   0.86928719   -7.9483386    545.93717  0.019797548    0.0197363            2 
 2299000   0.87868386   -7.9424319    546.69423  0.019816378  0.019729998            2 
 2300000   0.88654367   -7.9614841    545.42224  0.019761675  0.019723666            1 
 2301000   0.88504743   -7.9666594    545.73204  0.019764307  0.019717352            4 
 2302000   0.89068253   -7.9828487     546.7021  0.019790838  0.019711011            3 
 2303000   0.87806414   -7.9817932    545.91049    0.0197536  0.019704661            1 
 2304000   0.87462932    -7.971609    545.75162   0.01973928  0.019698321            2 
 2305000    0.8773257   -8.0053204    545.05858  0.019705661  0.019691996            2 
 2306000   0.88137492   -7.9968143    546.36964  0.019744494  0.019685661            6 
 2307000   0.88367728   -8.0065812    546.33078  0.019734532  0.019679277            2 
 2308000   0.87828021   -8.0164293    544.77981  0.019669982   0.01967287            2 
 2309000   0.88828233   -7.9620026    545.14756  0.019674735   0.01966648            2 
 2310000   0.88868885   -8.0030349    544.65901  0.019648594  0.019660029            5 
 2311000   0.88835129   -7.9793294    546.01473  0.019688978  0.019653598            3 
 2312000   0.89349103   -7.9534133    545.46885  0.019660786  0.019647242            2 
 2313000   0.87698363   -7.9907494    545.67209  0.019659608  0.019640856            3 
 2314000   0.88428674   -8.0106345    545.17331   0.01963315  0.019634424            2 
 2315000   0.86227586   -7.9701882    546.08189  0.019657375  0.019628044            2 
 2316000   0.89268744   -7.9885493    545.00515  0.019610145  0.019621616            2 
 2317000   0.88059201   -7.9480718    547.96994  0.019708313  0.019615245            2 
 2318000   0.86648019   -7.9792625    544.57769  0.019577858  0.019608826            2 
 2319000   0.87729099   -7.9886598    546.60685  0.019642333  0.019602392            5 
 2320000   0.89557024   -8.0288742    545.33117  0.019588045  0.019595978            3 
 2321000   0.88372651   -7.9927864    546.50544  0.019621766  0.019589565            2 
 2322000   0.87509347   -7.9533271    546.13947  0.019600182  0.019583145            4 
 2323000   0.83966042   -7.9949216    545.45103  0.019567048  0.019576757            1 
 2324000   0.88231799   -7.9747826    546.88934  0.019610203  0.019570371            2 
 2325000   0.88054499   -7.9947665     544.9743  0.019533129  0.019563916            3 
 2326000   0.88729671   -8.0027377    545.61198  0.019547577  0.019557483            5 
 2327000   0.87305572   -8.0262621    547.47773  0.019605992   0.01955111            1 
 2328000   0.88744444   -8.0289097     546.7749  0.019572412  0.019544684            1 
 2329000   0.88117685   -8.0166678    545.89986  0.019532699  0.019538279            2 
 2330000   0.87429708   -8.0441718    544.54542  0.019475873  0.019531862            3 
 2331000   0.87010606    -8.028491    545.21718  0.019491534  0.019525413            1 
 2332000   0.89010323   -8.0488229    545.88441  0.019507019  0.019519004            4 
 2333000   0.88042284   -7.9756169    548.54747   0.01959378    0.0195126            6 
 2334000   0.88336749   -8.0278936    546.68667  0.019518947  0.019506253            2 
 2335000   0.89147837   -7.9968112    545.77119  0.019477916  0.019499921            1 
 2336000   0.89365189   -7.9776511    548.38586  0.019562852  0.019493579            3 
 2337000   0.85861808   -8.0084631    547.39279   0.01951907  0.019487255            3 
 2338000   0.88856351   -8.0029174    547.75165  0.019523512   0.01948088            2 
 2339000   0.87958784   -8.0331837    546.96604  0.019487176  0.019474516            2 
 2340000    0.8687557   -8.0327574    547.80733  0.019508808  0.019468139            2 
 2341000   0.88078385   -8.0439385     546.1329  0.019440869  0.019461747            3 
 2342000   0.90546278    -8.013122    547.30868  0.019474405  0.019455361            2 
 2343000   0.87428156   -8.0287172    547.98296  0.019490076  0.019448921            1 
 2344000   0.88440605   -8.0242424    548.24122  0.019490942  0.019442483            2 
 2345000   0.89603428   -8.0344643    546.41211   0.01941763  0.019436068            5 
 2346000   0.88108951   -8.0093507    548.07467   0.01946841  0.019429677            2 
 2347000   0.87685386   -8.0453116    546.85014  0.019416636  0.019423317            2 
 2348000   0.87134787   -8.0151408    548.17774  0.019455485  0.019416933            1 
 2349000   0.86870112   -8.0378254    547.81945  0.019434491  0.019410561            3 
 2350000   0.86202474   -8.0513633    547.35079  0.019409602  0.019404195            3 
 2351000   0.86218559   -8.0317478    549.13593  0.019464623   0.01939784            2 
 2352000   0.87402023    -8.052588    548.50891  0.019434131  0.019391539            1 
 2353000   0.87950887   -8.0330981    548.25729   0.01941696  0.019385211            2 
 2354000   0.86503452   -8.0057197    549.62652  0.019457184  0.019378918            1 
 2355000   0.88282252   -8.0136793    548.84504  0.019421268  0.019372643            2 
 2356000   0.87499982   -8.0061641    548.93492  0.019416204  0.019366347            3 
 2357000   0.86272168   -8.0264701    548.98594   0.01940977  0.019360074            3 
 2358000    0.8838158   -8.0247059    549.84668  0.019431958  0.019353825            1 
 2359000   0.86333613   -7.9849338    549.48888  0.019411081  0.019347583            4 
 2360000   0.87534931    -8.019776    549.84278  0.019415352  0.019341314            1 
 2361000   0.87272663   -8.0458757    548.34391  0.019354225  0.019335014            1 
 2362000   0.87458984   -8.0392858    549.17357  0.019375302  0.019328704            1 
 2363000   0.86259578   -8.0411732    548.86037  0.019356058  0.019322376            2 
 2364000   0.87811105   -8.0176146    550.19409  0.019394885  0.019316091            2 
 2365000    0.8579646   -8.0426881    548.93651  0.019342372  0.019309761            2 
 2366000   0.86036186   -8.0411893    550.30924  0.019382546  0.019303382            2 
 2367000   0.87395227   -8.0563197    550.01418  0.019363969  0.019297042            1 
 2368000   0.86611252   -8.0425598    549.66494  0.019343502  0.019290714            1 
 2369000   0.86707341   -7.9931566     551.4307   0.01939745  0.019284458            5 
 2370000   0.88937898   -7.9944892    551.36441  0.019386934  0.019278241            3 
 2371000    0.8791198   -8.0038553    550.31885  0.019342009   0.01927201            1 
 2372000   0.87358094   -8.0195239    548.95751  0.019286028  0.019265745            1 
 2373000   0.85776082   -8.0310363    549.31974  0.019290622  0.019259463            1 
 2374000   0.87088162   -8.0258078    551.09816  0.019344923   0.01925315            3 
 2375000   0.87594461   -8.0188948    550.62531  0.019320186   0.01924684            3 
 2376000   0.87108939   -8.0550559    549.73244  0.019280739   0.01924051            1 
 2377000   0.86045531    -8.036275    550.42617  0.019296949  0.019234149            1 
 2378000   0.87779063   -8.0398177    550.08354  0.019276827  0.019227811            3 
 2379000   0.87763119   -8.0044676    549.37113  0.019243769  0.019221448            2 
 2380000   0.88171606   -8.0124576    549.06955  0.019225124  0.019215072            2 
 2381000   0.85913612   -8.0399145    549.78893  0.019242228  0.019208706            2 
 2382000   0.86254522   -8.0130703    551.80134  0.019304553  0.019202353            1 
 2383000   0.86553139   -8.0233056    550.44629  0.019249066  0.019196061            2 
 2384000   0.87582636   -8.0314183    551.01313  0.019260806   0.01918974            3 
 2385000   0.86688355   -8.0506994    550.05794  0.019219355  0.019183456            2 
 2386000   0.87494813   -8.0346562    551.51362  0.019262141   0.01917715            2 
 2387000   0.87115813   -8.0176939    551.15595  0.019241585  0.019170875            2 
 2388000   0.87380493   -8.0370618    550.86705  0.019223445  0.019164615            3 
 2389000   0.86742249   -8.0415414    551.03801  0.019221362   0.01915842            2 
 2390000   0.85365646   -8.0598692    552.10201  0.019250419  0.019152179            3 
 2391000   0.87830857   -8.0194879    554.05138  0.019310309  0.019145956            3 
 2392000   0.85757579   -8.0231142    554.11346  0.019304399  0.019139792            3 
 2393000   0.87623871   -8.0460537    552.25962  0.019231774  0.019133605            3 
 2394000    0.8671278   -8.0242499    552.00429  0.019214853  0.019127417            2 
 2395000   0.88326247   -8.0351676    553.00109  0.019241513  0.019121218            3 
 2396000   0.87428294   -8.0467681    552.57915  0.019218807  0.019115003            2 
 2397000   0.87690925   -8.0344321    551.49945  0.019173253  0.019108781            4 
 2398000   0.86370407   -8.0059986    552.36011  0.019195166  0.019102595            2 
 2399000   0.87029473   -8.0642222    552.12639  0.019179046  0.019096387            1 
 2400000   0.87592154   -8.0736525     552.2327  0.019174746  0.019090158            1 
 2401000   0.86184026   -8.0200378    554.28547  0.019238008  0.019083965            3 
 2402000    0.8843842   -8.0333884    552.11128  0.019154569  0.019077782            2 
 2403000    0.8733177   -8.0342358    553.02688  0.019178349   0.01907158            2 
 2404000    0.8568307   -8.0109128    552.88958  0.019165612  0.019065377            2 
 2405000   0.86855691    -8.017769    552.88107  0.019157348  0.019059175            2 
 2406000      0.87384   -8.0528936    552.71627  0.019143678   0.01905297            2 
 2407000   0.86699952   -8.0283025    553.21556  0.019153011  0.019046788            3 
 2408000   0.89255888   -8.0593148    552.40916   0.01911715  0.019040624            2 
 2409000   0.83823896    -8.066755    553.97771  0.019163474  0.019034404            4 
 2410000   0.87490494    -8.032471    555.04883   0.01919256   0.01902823            2 
 2411000   0.85190675   -8.0284053    553.08934  0.019116872  0.019022087            3 
 2412000   0.87327614   -8.0061435    554.04208  0.019141863  0.019015984            5 
 2413000   0.88009841   -8.0114861    553.63909  0.019120013  0.019009838            2 
 2414000   0.85911272   -8.0348512    553.10286  0.019093581  0.019003685            4 
 2415000   0.86836516   -8.0341339    554.53587  0.019135123  0.018997555            2 
 2416000   0.85108084   -8.0257925    553.57356  0.019094011  0.018991411            2 
 2417000   0.87201379   -8.0347822     553.7091  0.019090784  0.018985296            2 
 2418000    0.8595379   -8.0378789    554.05137  0.019094685  0.018979172            3 
 2419000   0.85172257   -8.0325231    555.11617  0.019123473  0.018973052            3 
 2420000   0.88226877   -8.0394387    553.57928  0.019062648  0.018966922            4 
 2421000   0.87209132   -8.0339996    555.26797    0.0191129  0.018960762            3 
 2422000   0.87314861   -8.0292293    555.33753  0.019107402  0.018954616            1 
 2423000   0.86730484   -8.0471225    553.94728  0.019051702  0.018948448            1 
 2424000    0.8457968   -8.0529526    555.44501  0.019095332  0.018942301            7 
 2425000   0.86840684   -8.0718771    553.93686  0.019035631  0.018936161            3 
 2426000   0.87185004   -8.0435968     554.7334  0.019055146  0.018930026            7 
 2427000   0.85270792   -8.0311036    554.65711  0.019044675  0.018923918            2 
 2428000   0.87887011   -7.9804773    554.70146  0.019038353  0.018917808            3 
 2429000   0.86618004   -8.0416338     555.7694  0.019067154  0.018911666            2 
 2430000   0.86609114   -8.0598214    555.10452  0.019036506  0.018905524            2 
 2431000   0.85132916   -8.0347128    555.94087  0.019057345  0.018899385            1 
 2432000   0.85653574   -8.0393028    553.88535  0.018979076  0.018893248            3 
 2433000   0.84209439   -8.0624942    555.07009  0.019011854  0.018887154            1 
 2434000    0.8768297   -8.0431454    555.16219  0.019007196  0.018881065            1 
 2435000   0.85799143    -8.053785    555.30858    0.0190044  0.018874925            2 
 2436000   0.86248789   -8.0647474    555.60459  0.019006725  0.018868815            3 
 2437000   0.88441316    -8.040577     555.2381  0.018986394  0.018862722            4 
 2438000   0.86445238   -8.0377125    555.59246  0.018990719  0.018856599            2 
 2439000    0.8506384   -8.0579925    556.00135  0.018996903  0.018850489            2 
 2440000   0.86386241   -8.0799582    554.61855   0.01894189  0.018844346            8 
 2441000   0.87485163    -8.023443     555.5456  0.018965779  0.018838214            2 
 2442000   0.85848951   -8.0504876    555.00458   0.01893955  0.018832083            5 
 2443000   0.84950053   -8.0358174    555.57926  0.018951401  0.018825953            2 
 2444000   0.84714296   -8.0517388    555.55648   0.01894287  0.018819832            2 
 2445000   0.86758341   -8.0663505    555.68773  0.018939595  0.018813698            2 
 2446000   0.86271464   -8.0754078    556.18296  0.018948725  0.018807566            2 
 2447000   0.87210761   -8.0686133    555.60544  0.018921313  0.018801424            3 
 2448000   0.85561687   -8.0570227    555.80079  0.018920234  0.018795292            2 
 2449000   0.86697889   -8.0310849    555.25452   0.01889392  0.018789135            3 
 2450000   0.84931315   -8.0253847    556.82754  0.018939712  0.018783052            2 
 2451000   0.85007986   -7.9906779    556.98862  0.018937462  0.018776957            2 
 2452000   0.84417048   -8.0505204    556.69177   0.01891965  0.018770892            2 
 2453000   0.86650923    -8.040919    558.20736  0.018963424  0.018764803            2 
 2454000    0.8651509   -8.0377488    557.77324  0.018940955  0.018758719            2 
 2455000   0.84186096   -8.0455273    557.81499  0.018934657  0.018752608            4 
 2456000   0.86060057   -8.0545672    555.50633  0.018848613  0.018746491            3 
 2457000   0.86043754   -8.0573152     555.6039  0.018844251  0.018740403            3 
 2458000   0.85735366   -8.0622401     557.8665  0.018913293  0.018734341            4 
 2459000   0.86193556   -8.0333643    557.08349  0.018879066    0.0187283            2 
 2460000   0.84580006    -8.059556    556.26001  0.018843496  0.018722245            3 
 2461000   0.86448612   -8.0411973    556.89854  0.018857461   0.01871618            4 
 2462000      0.85098    -8.042038    556.40336  0.018833041  0.018710072            3 
 2463000   0.83889421   -8.0564704    557.59674  0.018865771  0.018703955            4 
 2464000   0.84392555   -8.0677845     555.6694  0.018792932   0.01869785            3 
 2465000   0.84226594   -8.0292103    558.35255  0.018876016   0.01869181            1 
 2466000   0.85888389    -8.058381    558.49064  0.018873028  0.018685761            2 
 2467000   0.84588455   -8.0699897    556.91533  0.018812165  0.018679681            3 
 2468000   0.83740206   -8.1075019    557.24752  0.018815759  0.018673575            2 
 2469000   0.86896816   -8.0826726    557.96072   0.01883221  0.018667469            2 
 2470000   0.85772877   -8.0314522    558.06592  0.018828135  0.018661384            3 
 2471000   0.85410663   -8.0610049     556.7796  0.018777135  0.018655319            2 
 2472000   0.84651267   -8.0445992    558.27622  0.018819991  0.018649245            2 
 2473000   0.86533863   -8.0654784    558.09183  0.018806167  0.018643168            1 
 2474000   0.87000162   -8.0953263     556.2791  0.018737507   0.01863708            1 
 2475000   0.85227941   -8.0697848    557.42363  0.018768472  0.018631013            4 
 2476000    0.8558939   -8.0895072    557.69521  0.018770033  0.018624921            5 
 2477000   0.85123651   -8.0371067      558.374  0.018785291  0.018618812            1 
 2478000   0.85522628   -8.0442432    557.85066  0.018760111  0.018612734            4 
 2479000    0.8616135   -8.0735896    556.88758  0.018720169  0.018606601            3 
 2480000   0.84860959   -8.0483765    557.75833   0.01874188  0.018600492            4 
 2481000   0.84887999   -8.0599587    557.73843  0.018733657  0.018594412            2 
 2482000   0.87010436   -8.0938262    557.72634  0.018725703  0.018588285            1 
 2483000   0.86641865   -8.0921124    557.70206  0.018717347  0.018582175            4 
 2484000   0.85928237   -8.0911208    558.62345  0.018740722  0.018576089            5 
 2485000   0.85720185   -8.0808259    558.09654  0.018715511  0.018569993            1 
 2486000   0.83940124   -8.0918631    557.73758   0.01869595  0.018563895            4 
 2487000   0.84121918   -8.0479206    558.64402  0.018718805  0.018557785            2 
 2488000   0.86236514   -8.0539647    557.73088  0.018680697  0.018551721            4 
 2489000   0.85219577   -8.0368679    558.03324  0.018683315  0.018545634            2 
 2490000   0.85604565   -8.0274664    559.57839  0.018727523  0.018539571            3 
 2491000   0.86536183    -8.024462    558.85568  0.018695828  0.018533542            1 
 2492000   0.84708024   -8.0696761    558.54982  0.018678097  0.018527492            2 
 2493000   0.85196945   -8.0578678    557.94677  0.018650447   0.01852141            3 
 2494000   0.84282044   -8.0403789    558.56002   0.01866346  0.018515364            3 
 2495000    0.8610706   -8.0821947    558.38222  0.018650041   0.01850935            3 
 2496000   0.86175976   -8.0495695    559.58911  0.018682863  0.018503334            1 
 2497000   0.85362126   -8.0457228    560.18846  0.018695383  0.018497344            2 
 2498000   0.84351771   -8.0495461    559.74931  0.018673249  0.018491368            2 
 2499000   0.85484268   -8.0728657    560.24074  0.018682164  0.018485361            3 
 2500000   0.86392043   -8.0523846    560.60818  0.018686939   0.01847935            3 
 2501000   0.85240356   -8.0659915     559.4932  0.018642316  0.018473343            2 
 2502000   0.85787128   -8.0466209    561.02601  0.018685918  0.018467313            2 
 2503000   0.84022108   -8.0488274    561.35558  0.018689425  0.018461341            2 
 2504000   0.85861513   -8.0557795    560.96785  0.018669058   0.01845538            1 
 2505000   0.84949334   -8.0652193    560.34687  0.018640947    0.0184494            3 
 2506000   0.86032506   -8.0898408    560.65038  0.018643601  0.018443435            4 
 2507000   0.84077101   -8.1157756    559.69141  0.018604288  0.018437427            2 
 2508000   0.83417075    -8.073682    559.89393    0.0186036  0.018431398            2 
 2509000   0.84918261   -8.1075872    558.55485  0.018551709   0.01842537            2 
 2510000   0.86064492   -8.0873139    560.60337   0.01861233  0.018419345            3 
 2511000   0.85627195   -8.0773641    560.84327  0.018612879  0.018413363            3 
 2512000   0.84064185   -8.0740336    560.21759  0.018584713  0.018407384            6 
 2513000     0.840315   -8.0772081    561.44448  0.018618002   0.01840144            2 
 2514000   0.83539371    -8.095629    559.45014  0.018544489  0.018395461            3 
 2515000   0.83311214   -8.1166929    559.79112  0.018548414   0.01838945            1 
 2516000   0.85761421   -8.0588091    561.11739  0.018584969  0.018383457            2 
 2517000   0.86653572   -8.1178197    560.59518  0.018560296  0.018377475            2 
 2518000   0.85549501   -8.1041423     561.2933  0.018576029  0.018371501            1 
 2519000   0.84475007   -8.0736538    561.87445   0.01858788  0.018365531            2 
 2520000   0.87637141    -8.093822    561.20082  0.018558228   0.01835956            1 
 2521000   0.84063343   -8.1055796    559.45285  0.018493086  0.018353573            2 
 2522000   0.85809899   -8.1068292    560.16604  0.018509319  0.018347563            3 
 2523000   0.84931963   -8.0731755    560.63829  0.018517581  0.018341619            6 
 2524000   0.85312849   -8.0894324    561.40862  0.018535678  0.018335665            2 
 2525000   0.84665712   -8.0705893    562.34175  0.018559134  0.018329723            2 
 2526000   0.82478107   -8.0483305    561.93773  0.018538458  0.018323796            1 
 2527000   0.84883421   -8.0632537     561.8585  0.018528509  0.018317875            3 
 2528000   0.84989184   -8.0792768    561.96782  0.018524783  0.018311913            2 
 2529000   0.86031878   -8.0762234    561.76235  0.018510688  0.018305946            6 
 2530000   0.85445381   -8.0710557    561.60789  0.018498284  0.018299982            1 
 2531000   0.84206494   -8.0839679    562.68419  0.018526412  0.018294045            4 
 2532000   0.84629636   -8.0640803    562.82082  0.018523592  0.018288066            3 
 2533000   0.82542192   -8.0741691    561.99297  0.018489044  0.018282129            2 
 2534000   0.85573153   -8.0949043    561.77445  0.018474561  0.018276194            2 
 2535000   0.84610775   -8.0581376    561.84977  0.018469749  0.018270225            3 
 2536000   0.83742575   -8.0869719    560.91083  0.018431612  0.018264247            2 
 2537000   0.84842222   -8.1052754    560.38294  0.018407007  0.018258256            2 
 2538000    0.8601278   -8.1013241    560.31738  0.018397602  0.018252287            4 
 2539000   0.83651351   -8.0886276    561.83069  0.018440025  0.018246322            3 
 2540000   0.85047165   -8.0935392     562.5496  0.018456352   0.01824035            6 
 2541000   0.84521614   -8.0987995    562.19307  0.018437396  0.018234377            2 
 2542000   0.85764621   -8.0414999    562.45956  0.018438879  0.018228422            2 
 2543000   0.83322793   -8.0676513    562.12471  0.018420655  0.018222494            2 
 2544000   0.84695091   -8.1010284    561.87072  0.018405094  0.018216602            1 
 2545000   0.83936431   -8.0697173    563.08633  0.018437666  0.018210688            3 
 2546000   0.85785745    -8.087128    562.67079  0.018416823  0.018204796            3 
 2547000   0.84695375   -8.0752527    562.90676  0.018417313  0.018198873            4 
 2548000   0.84841992   -8.0709186    562.81962  0.018407235  0.018192981            2 
 2549000   0.85686535   -8.0917313    562.51573  0.018390079  0.018187077            2 
 2550000   0.84048475   -8.0961284     562.8928  0.018395189  0.018181176            5 
 2551000   0.82766046   -8.1099331     562.2205  0.018366016  0.018175254            2 
 2552000   0.85135667    -8.054858    563.99282  0.018416694  0.018169334            2 
 2553000   0.84772566   -8.1081472    563.51889   0.01839401   0.01816345            1 
 2554000   0.82769355   -8.0856571    563.48162  0.018385592   0.01815753            2 
 2555000   0.85207937   -8.0885772    563.55758  0.018380874  0.018151619            2 
 2556000   0.83071572    -8.097471     563.8716   0.01838392  0.018145743            2 
 2557000   0.83184291   -8.0931432    563.42974   0.01836233  0.018139887            3 
 2558000   0.84635193   -8.0886106     563.8241  0.018367999  0.018134002            1 
 2559000   0.83501875   -8.0971448    563.52549  0.018351097  0.018128112            1 
 2560000   0.85437012   -8.1345911    563.56785  0.018345308  0.018122171            3 
 2561000    0.8322962   -8.1083038    563.38089  0.018332061  0.018116213            2 
 2562000   0.85111344   -8.0713114    563.74249  0.018336667  0.018110276            6 
 2563000   0.82950617   -8.0832788    562.79552  0.018298723  0.018104346            5 
 2564000   0.84202405   -8.0914112    561.66311  0.018254781  0.018098437            2 
 2565000   0.85125981   -8.0889215    562.98824  0.018290716  0.018092534            2 
 2566000   0.84449723   -8.0992109    564.25131  0.018324607  0.018086631           10 
 2567000   0.83377618   -8.0975362    562.34052  0.018255438  0.018080724            3 
 2568000   0.83937641   -8.0865092     564.5128  0.018318821  0.018074776            3 
 2569000   0.81985618   -8.1193492    563.03647  0.018263802  0.018068835            1 
 2570000   0.84595876   -8.0707446    563.95342  0.018286427  0.018062894            2 
 2571000   0.84676298   -8.0885617    563.39532  0.018261225  0.018056958            5 
 2572000   0.83787893    -8.120426       562.32  0.018219284  0.018051003            3 
 2573000   0.84718987   -8.1138207    562.51385  0.018218482  0.018045045            2 
 2574000   0.85278078   -8.0954118    563.78616  0.018252595   0.01803909            1 
 2575000   0.82835623   -8.1280665    564.13066  0.018256656   0.01803316            3 
 2576000   0.83940315   -8.1152762    562.49699   0.01819672  0.018027213            3 
 2577000    0.8321996   -8.1001124    566.00687  0.018303158  0.018021257            1 
 2578000   0.83114192   -8.1513899    562.60808  0.018186194  0.018015297            2 
 2579000   0.84855732    -8.121858    562.79322  0.018185124    0.0180093            3 
 2580000   0.84460465    -8.125912    563.50781  0.018201157  0.018003331            4 
 2581000   0.84500446   -8.1006308    564.31141  0.018220051  0.017997391            2 
 2582000   0.85330814   -8.1554962    562.87669  0.018166689  0.017991416            3 
 2583000   0.84196304   -8.1346124    563.59458  0.018182816  0.017985445            2 
 2584000   0.82933241    -8.141576    563.78565  0.018181942  0.017979499            3 
 2585000   0.84579795   -8.1306742    562.85923  0.018145043  0.017973574            2 
 2586000   0.83050733   -8.1397562    562.73212   0.01813393  0.017967648            3 
 2587000   0.83469494   -8.1068004     563.3117   0.01814559  0.017961733            3 
 2588000   0.82667251   -8.1124111    564.86447  0.018188578  0.017955853            5 
 2589000   0.84678542   -8.1152119    565.51402   0.01820246  0.017949961            2 
 2590000   0.82935774   -8.1265946    565.24537  0.018186788    0.0179441            1 
 2591000   0.82671994   -8.1366049    564.13385  0.018144019  0.017938193            2 
 2592000     0.846033    -8.148469    563.43807   0.01811465  0.017932249            2 
 2593000   0.83511085   -8.1211278     565.4633   0.01817275  0.017926341            2 
 2594000   0.85200686   -8.1215751    565.41614   0.01816423  0.017920446            3 
 2595000   0.84368101   -8.1316344    564.72049  0.018134891  0.017914563            2 
 2596000   0.83996274   -8.1247454    565.28007  0.018145868  0.017908692            3 
 2597000   0.83523588   -8.0841577     566.1462  0.018166673  0.017902857            2 
 2598000   0.82485842   -8.1213219    566.04399  0.018156402  0.017897051            4 
 2599000   0.84947113   -8.1259116     566.5927   0.01816701   0.01789122            2 
 2600000   0.83015471    -8.091903     566.6512  0.018161897  0.017885397            1 
 2601000   0.80475577   -8.1104827    566.99951  0.018166074  0.017879561            1 
 2602000   0.83400809   -8.1669979    565.47261  0.018110191   0.01787369            4 
 2603000   0.84907255   -8.1273297    565.10366  0.018091422  0.017867828            2 
 2604000    0.8262208   -8.1084658    565.75669  0.018105373  0.017861979            4 
 2605000   0.83726718   -8.1375269    564.81675  0.018068354  0.017856114            2 
 2606000   0.81445714    -8.119153    565.52335  0.018084016  0.017850234            3 
 2607000   0.82675237   -8.1450361    565.92802  0.018090015  0.017844351            2 
 2608000     0.847999   -8.1731643    564.35825   0.01803292  0.017838448            3 
 2609000   0.82737614   -8.1550912    564.57761  0.018033014  0.017832534            2 
 2610000   0.85973458   -8.1807121    564.81194  0.018033587  0.017826636            1 
 2611000   0.84039574   -8.2026004    566.08986  0.018067467  0.017820735            2 
 2612000   0.83771654   -8.1529988     564.5078  0.018010075  0.017814862            3 
 2613000   0.83706887   -8.1549255    565.16574  0.018024166  0.017809016            2 
 2614000   0.83043287   -8.1194131    565.81578  0.018037993  0.017803203            2 
 2615000   0.83628806   -8.1602233    566.21398  0.018043785  0.017797385            3 
 2616000   0.85120627   -8.1085771    566.36079  0.018041565  0.017791575            1 
 2617000   0.83568971   -8.0890767    567.52774   0.01807183  0.017785785            3 
 2618000   0.85419563   -8.1187023     567.2061  0.018054689  0.017779983            2 
 2619000   0.84137606   -8.1434318    566.37372   0.01802131  0.017774188            2 
 2620000   0.83314384   -8.1025222    568.01562  0.018066655  0.017768387            3 
 2621000   0.85403585   -8.1061496    566.20903  0.018002322  0.017762626            3 
 2622000   0.84972266   -8.1057915    566.34998  0.017999936  0.017756856            2 
 2623000   0.84132842   -8.1374069    566.11748  0.017985687  0.017751073            3 
 2624000   0.84260743   -8.1174911    567.50251  0.018022819  0.017745309            1 
 2625000   0.82919625   -8.1232087    566.54108  0.017985431  0.017739538            2 
 2626000   0.82864944   -8.0724097    567.28128  0.018002072  0.017733783            2 
 2627000   0.84217951   -8.1409334     567.2461  0.017994103  0.017728018            7 
 2628000   0.83842418   -8.1267383    567.12505  0.017983417  0.017722266            3 
 2629000   0.83299455   -8.1066453    567.41613  0.017985803  0.017716529            2 
 2630000    0.8327545   -8.1214227    568.35714  0.018008781  0.017710763            2 
 2631000   0.82544232   -8.1070459    568.33517  0.018001241  0.017705013            2 
 2632000   0.83888959    -8.110755    568.02829  0.017984685  0.017699223            3 
 2633000   0.82482199   -8.1167342    567.68917  0.017967122   0.01769342            3 
 2634000   0.82356442   -8.1462805    567.41007   0.01795147  0.017687615            5 
 2635000   0.82368447   -8.1521601    567.45477  0.017946071  0.017681784            4 
 2636000   0.84703185   -8.1109507    567.43616  0.017938675  0.017675956            2 
 2637000    0.8223902   -8.1461037    567.19461  0.017924239  0.017670122            3 
 2638000   0.82870281   -8.1339486    566.69847  0.017901771  0.017664311            2 
 2639000   0.82371486   -8.1811533    566.16048  0.017877999  0.017658484            2 
 2640000   0.82523554   -8.1224097    566.98309  0.017897193  0.017652629            2 
 2641000   0.84428958   -8.1593638    566.56671  0.017877278  0.017646795            1 
 2642000   0.83018493   -8.1478388    567.82186  0.017910101  0.017640983            4 
 2643000   0.81620756   -8.1548619    567.15565   0.01788232  0.017635152            3 
 2644000   0.82899718    -8.172979    566.97413  0.017869835  0.017629335            2 
 2645000   0.82547088   -8.0978912    567.88552  0.017891793  0.017623521            3 
 2646000   0.83869694   -8.1080721    569.46104  0.017934651  0.017617781            4 
 2647000   0.83569001   -8.1237971    567.18846   0.01785633   0.01761203            2 
 2648000   0.81963545   -8.1567725    567.21259  0.017850346  0.017606241            3 
 2649000    0.8394031   -8.1487531     566.6875  0.017827089  0.017600434            3 
 2650000   0.81378949   -8.1305994    568.59883  0.017880466   0.01759462            5 
 2651000   0.80585548     -8.14265     569.2334  0.017893669  0.017588817            4 
 2652000   0.81757643    -8.136364    568.43832  0.017861938  0.017583031            2 
 2653000   0.81440687   -8.1207031      566.961  0.017808801  0.017577259            1 
 2654000   0.82832489    -8.173339    568.00767  0.017834956   0.01757145            2 
 2655000    0.8228889   -8.1802531    567.50802  0.017812555  0.017565641            2 
 2656000   0.83687423   -8.1704558    565.79481  0.017752096  0.017559811            3 
 2657000   0.83423391    -8.158832    568.23676  0.017822003   0.01755401            2 
 2658000   0.83444709   -8.1629186    566.81263  0.017770649  0.017548233            2 
 2659000   0.81388194   -8.1538481    568.18029  0.017806829  0.017542447            3 
 2660000   0.83550221   -8.1109174     569.8944  0.017853835  0.017536685            2 
 2661000   0.83160583   -8.1300878    567.29559  0.017765739  0.017530912            3 
 2662000   0.82444091   -8.1682701    567.61476  0.017769057  0.017525123            7 
 2663000   0.81264071   -8.1388383    568.54323  0.017791439  0.017519358            4 
 2664000    0.8186877   -8.1399996    567.77155  0.017760621  0.017513608            4 
 2665000   0.81892178   -8.1280139    567.91222  0.017758356  0.017507874            4 
 2666000   0.81380238   -8.1250876     568.7301   0.01777726  0.017502069            6 
 2667000   0.83145087   -8.1447268     567.4189  0.017729624  0.017496315            7 
 2668000   0.82736135   -8.1666307    568.83946  0.017767349  0.017490536            3 
 2669000   0.83011877   -8.1586436    568.43456   0.01774805  0.017484753            4 
 2670000   0.82124768   -8.1911672    567.43825  0.017710308  0.017478971            3 
 2671000   0.82387059   -8.1724417    568.14602  0.017725759  0.017473176            1 
 2672000   0.82412502   -8.1185249     569.1692  0.017751035  0.017467423            4 
 2673000   0.81805145   -8.1199539    569.69835  0.017760891  0.017461707            4 
 2674000   0.82663643   -8.1412221    568.12864   0.01770533   0.01745596            2 
 2675000   0.82771578   -8.1716019    568.15008  0.017699379  0.017450183            3 
 2676000   0.80791333   -8.1444084    569.07155  0.017721461  0.017444432            2 
 2677000   0.81175933   -8.1464284    569.38155  0.017724491  0.017438686            3 
 2678000   0.82608836   -8.1650378    569.46657  0.017720518  0.017432934            2 
 2679000   0.83690852   -8.1475849    569.06361  0.017701369  0.017427143            7 
 2680000   0.83749095   -8.1696036    567.94871  0.017660097   0.01742137            3 
 2681000   0.81895263   -8.1700517     567.3924  0.017636218  0.017415579            3 
 2682000   0.82748239   -8.1528732    567.91462  0.017645868  0.017409771            3 
 2683000   0.81824361    -8.134304    568.64982  0.017662126  0.017403949            2 
 2684000   0.81519245   -8.1365437    569.31859   0.01767631  0.017398179            2 
 2685000   0.82860215   -8.1516351    568.39995  0.017641215  0.017392419            3 
 2686000   0.81208924   -8.1733293    567.88366  0.017618629  0.017386624            8 
 2687000   0.82540796   -8.1737338      568.934  0.017644647  0.017380832            6 
 2688000   0.81453253   -8.1677176     568.7642  0.017632819  0.017375036            2 
 2689000   0.83253069   -8.1479759     569.2756   0.01764211  0.017369233            2 
 2690000   0.83169321   -8.1640473    569.60795  0.017645847  0.017363417            2 
 2691000    0.8246436   -8.1773277    568.17766  0.017594998  0.017357617            1 
 2692000   0.81486108   -8.1428331    567.90588  0.017580048  0.017351796            2 
 2693000    0.8247649    -8.144175    567.49305  0.017560745  0.017345972            5 
 2694000     0.824352   -8.1549741    568.85823  0.017596456  0.017340144            3 
 2695000   0.81618553   -8.1730895    567.33146  0.017542717  0.017334372            3 
 2696000   0.83121727   -8.1631718    568.46752  0.017571325  0.017328578            2 
 2697000   0.83237594   -8.1435038    569.10414  0.017584481  0.017322801            2 
 2698000   0.81990823   -8.1818846    569.12846  0.017578714  0.017317067            3 
 2699000   0.81680001   -8.1863627    568.63027   0.01755682  0.017311283            4 
 2700000   0.82544063   -8.1839383    568.44981  0.017544747  0.017305491            4 
 2701000   0.78967883   -8.2018603    567.90897  0.017521565  0.017299684            3 
 2702000   0.82925154   -8.1923842     569.4688  0.017563188  0.017293913            1 
 2703000   0.80947528   -8.1766716    570.20386  0.017579352  0.017288182            3 
 2704000    0.8070446   -8.1696814    570.51666  0.017582491  0.017282428            2 
 2705000   0.82575768    -8.185025    568.67395  0.017519222  0.017276708            1 
 2706000   0.81684966   -8.1760121    569.52494  0.017538955  0.017270997            1 
 2707000   0.82028363   -8.1691229    570.79333  0.017571522  0.017265283            3 
 2708000   0.80927503   -8.1643472    570.29792  0.017549788  0.017259521            2 
 2709000   0.82668694    -8.167711    569.20165  0.017509587  0.017253767            3 
 2710000   0.82483887   -8.1946129    569.69611  0.017518331  0.017248029            2 
 2711000   0.83167723   -8.2062383    570.00747  0.017521439   0.01724228            1 
 2712000   0.81863197   -8.1544776    570.58512  0.017532729  0.017236529            2 
 2713000   0.80579486   -8.1656405    571.22465   0.01754591  0.017230795            3 
 2714000   0.81501061   -8.1838038     570.1967  0.017507882  0.017225044            2 
 2715000   0.82679683   -8.1608218    571.26862  0.017534334  0.017219327            4 
 2716000   0.83632559    -8.208089    570.47874  0.017503643   0.01721359            2 
 2717000   0.81852157    -8.167797    571.47734  0.017527829  0.017207855            2 
 2718000   0.81007452   -8.1786042    569.86054  0.017471809  0.017202138            3 
 2719000   0.80188712   -8.1358566    570.55206  0.017486578  0.017196431            2 
 2720000   0.81884413   -8.1708749    569.58953   0.01745066  0.017190718            1 
 2721000   0.82575818   -8.1565135    570.20286   0.01746303  0.017184992            1 
 2722000   0.84409964   -8.1611111    571.49174  0.017496073  0.017179296            3 
 2723000   0.84008089   -8.1490319    570.91188  0.017471902    0.0171736            2 
 2724000   0.79046788   -8.1565345    571.02617  0.017468985  0.017167904            2 
 2725000    0.8101605   -8.1794358    572.24256  0.017499772  0.017162202            2 
 2726000   0.82316196   -8.1354356     571.8869   0.01748248  0.017156537            3 
 2727000     0.803473   -8.1709449     571.3051   0.01745829  0.017150844            2 
 2728000   0.82090138   -8.1735991    571.80433  0.017467141  0.017145147            2 
 2729000   0.83411335   -8.1768592    571.87239  0.017462819  0.017139449            3 
 2730000   0.82520721   -8.1873034    570.84203   0.01742497  0.017133766            1 
 2731000   0.81569546    -8.151954     571.9225  0.017451559  0.017128086            2 
 2732000   0.81807866   -8.1614395    570.99011  0.017416731  0.017122396            2 
 2733000    0.8088748   -8.1651962    571.30191  0.017419865  0.017116711            3 
 2734000   0.79965419   -8.1932437    570.98765  0.017403915  0.017111021            2 
 2735000   0.81283514   -8.1533657    569.71655  0.017358822  0.017105338            3 
 2736000   0.81557312   -8.1592437     570.9413  0.017389781  0.017099629            3 
 2737000   0.82387431   -8.1817869    570.06296  0.017356685  0.017093935            2 
 2738000   0.82128213   -8.1703482    572.58361  0.017427064  0.017088251            1 
 2739000   0.80870527   -8.1808687    571.88892  0.017399565   0.01708257            3 
 2740000   0.79833936   -8.1854917    571.81545  0.017390981  0.017076881            7 
 2741000   0.80226931   -8.1580318    571.90515  0.017387363  0.017071207            3 
 2742000   0.81818708   -8.1797945    571.13119    0.0173575  0.017065522            7 
 2743000   0.79552281   -8.1664834    570.91691  0.017344662  0.017059822            4 
 2744000   0.81470996   -8.1909525    570.77294  0.017333969  0.017054123            3 
 2745000   0.81039081    -8.168744     570.8279  0.017329323  0.017048413            3 
 2746000   0.80310008   -8.1499115    572.23205  0.017365624  0.017042712            2 
 2747000   0.82924626     -8.19331    571.17961  0.017327375  0.017037029            2 
 2748000   0.80487039   -8.2126001    570.86519  0.017311535  0.017031342            3 
 2749000   0.80925004   -8.1829127    569.93288  0.017276976  0.017025649            1 
 2750000   0.80551219   -8.2001456    572.42414  0.017346186  0.017019977            2 
 2751000   0.82709151   -8.1464952    572.39917  0.017339124  0.017014307            6 
 2752000   0.81680485   -8.1626007    572.73812  0.017343087  0.017008685            2 
 2753000   0.80636435   -8.1956762    573.03266  0.017345703  0.017003038            1 
 2754000   0.81053536   -8.1555697    572.65041  0.017327839  0.016997416            1 
 2755000   0.83011752   -8.1634523    572.09649  0.017304794  0.016991782            1 
 2756000   0.80239764   -8.2021811    571.15333  0.017269997  0.016986126            1 
 2757000   0.81466206   -8.1826851    571.47302  0.017273395   0.01698047            2 
 2758000   0.80246519   -8.1972027    571.34616  0.017263299  0.016974794            1 
 2759000   0.82147943   -8.1765722    572.16095  0.017281652  0.016969158            2 
 2760000    0.8006465    -8.166343    572.99922  0.017300701  0.016963514            3 
 2761000   0.80833559   -8.1621079    572.67945  0.017284784  0.016957892            2 
 2762000   0.80636902   -8.1811271    571.78472   0.01725153  0.016952253            2 
 2763000   0.81834785   -8.1625822     572.1393  0.017255981  0.016946636            4 
 2764000   0.80824367   -8.1636178    572.90485  0.017272819  0.016941027            3 
 2765000   0.82333976   -8.1705756    572.94478  0.017267775  0.016935437            1 
 2766000    0.8124025   -8.1584407    573.16503  0.017268168  0.016929845            3 
 2767000    0.7972199   -8.1800112    572.03701  0.017227955  0.016924233            3 
 2768000   0.80079094   -8.1700614    573.14566  0.017255108  0.016918612            4 
 2769000   0.80485161   -8.2174973    571.96255   0.01721327  0.016912988            1 
 2770000   0.80932459   -8.2129445    571.62883  0.017197016  0.016907354            2 
 2771000   0.81913954   -8.2184956    572.15453   0.01720662  0.016901703            2 
 2772000   0.80321525   -8.2272931     572.0997  0.017198765  0.016896068            2 
 2773000   0.81423019   -8.1982116    572.92758  0.017217441  0.016890424            6 
 2774000   0.80745454   -8.2089346    572.71506   0.01720485  0.016884793            2 
 2775000   0.81142414   -8.2244123    572.21865  0.017183743  0.016879148            1 
 2776000    0.8141157    -8.185117    571.85654  0.017166683  0.016873534            2 
 2777000   0.80680513   -8.2299626    572.93492  0.017192862  0.016867924            1 
 2778000   0.79790944   -8.2244314    573.04477  0.017189968   0.01686231            2 
 2779000   0.80421693   -8.2229456    571.87947  0.017148839  0.016856688            4 
 2780000   0.79404725   -8.2039824    573.03705   0.01717737  0.016851078            2 
 2781000   0.81711305   -8.2214346    573.11599  0.017173558  0.016845468            2 
 2782000   0.80819167   -8.1631983     574.1584   0.01719861  0.016839884            2 
 2783000   0.80911389   -8.1719163    574.10338  0.017190783  0.016834302            4 
 2784000   0.79327363   -8.1939605    572.16714   0.01712665   0.01682871            4 
 2785000   0.79769573   -8.2195209    574.02084  0.017175968  0.016823118            3 
 2786000   0.78262223   -8.2161883    573.17251  0.017144428  0.016817537            6 
 2787000   0.79692433   -8.2428486    573.04068  0.017134334  0.016811914            7 
 2788000   0.80416252   -8.2189508    573.84161  0.017152128  0.016806267            3 
 2789000   0.80536726   -8.2119494     571.8792  0.017087343  0.016800633            2 
 2790000   0.80474975   -8.2146862    574.02649  0.017145355  0.016794974            3 
 2791000   0.80948929   -8.2469255    573.45589  0.017122175   0.01678932            5 
 2792000   0.79585447   -8.2456528    572.71952  0.017094064  0.016783675            4 
 2793000   0.80061716   -8.2175867    571.97018  0.017065586  0.016778037            2 
 2794000   0.81532045   -8.2310853    571.97333  0.017059572  0.016772411            4 
 2795000   0.78656633   -8.2411706    572.52267  0.017069847   0.01676676            2 
 2796000   0.78871524   -8.2268958    574.23456  0.017114764  0.016761099            2 
 2797000   0.80162805   -8.1934078     573.9466  0.017100066  0.016755464            2 
 2798000   0.82328255   -8.1994148    573.66704  0.017085628  0.016749866            2 
 2799000   0.80884869   -8.2281807    573.19805  0.017065561  0.016744229            2 
 2800000   0.79187401   -8.2005797    574.06813  0.017085361  0.016738593            4 
 2801000   0.80068953   -8.2257886     573.3686  0.017058449  0.016732984            1 
 2802000     0.806635    -8.213932    574.16712   0.01707611  0.016727372            2 
 2803000   0.79695712   -8.2112946    573.35555   0.01704589   0.01672178            1 
 2804000   0.81366232   -8.2469869    572.62509  0.017018102  0.016716195            2 
 2805000   0.81870921   -8.2147178     573.6177  0.017041524  0.016710581            2 
 2806000   0.77658879   -8.2080485    573.34378  0.017027316  0.016704967            2 
 2807000   0.81310044   -8.2052734    573.27074  0.017019081  0.016699346            2 
 2808000     0.792814   -8.1928725     574.4607  0.017048335  0.016693713            4 
 2809000   0.78924228   -8.2180562    573.03285  0.016999906  0.016688094            3 
 2810000    0.8021686   -8.1647265    575.57636  0.017069287  0.016682478            2 
 2811000   0.79875749   -8.2277495    572.70209  0.016978006  0.016676886            2 
 2812000   0.80669989   -8.2047148    572.96533  0.016979769  0.016671276            3 
 2813000   0.80452123   -8.2372046    571.74432  0.016937561  0.016665628            1 
 2814000   0.79781948   -8.2205768    573.18376   0.01697417  0.016659977            3 
 2815000   0.79890114   -8.2317291    573.66389  0.016982353  0.016654324            5 
 2816000   0.79796889   -8.1957059    574.03917  0.016987428  0.016648689            2 
 2817000   0.80362085   -8.2293899    573.38478  0.016962039  0.016643062            5 
 2818000   0.79235521   -8.2394804    573.46501  0.016958393  0.016637434            3 
 2819000   0.81745765   -8.2185519     573.8552  0.016963912  0.016631813            3 
 2820000   0.81023316   -8.2230813    573.83456  0.016957286  0.016626186            3 
 2821000    0.8060991   -8.2447146    573.22008  0.016933123  0.016620572            4 
 2822000   0.82093039   -8.1867177    573.18426  0.016926065  0.016614992            3 
 2823000   0.80263221   -8.2066294    573.13218  0.016918532  0.016609411            3 
 2824000   0.79059742   -8.2053505    573.14378  0.016912883  0.016603837            6 
 2825000   0.79284884   -8.2219942    573.99197  0.016931916  0.016598263            1 
 2826000   0.80202443   -8.2221962    575.18414   0.01696108  0.016592688            4 
 2827000   0.78942726    -8.200104    575.73981   0.01697146  0.016587119            3 
 2828000   0.79350505   -8.2271263     574.2355  0.016921131  0.016581547            2 
 2829000   0.81091361   -8.2235857    574.94858  0.016936155  0.016575992            1 
 2830000   0.80077085   -8.2168286    575.88104  0.016957628  0.016570421            2 
 2831000   0.80126223    -8.198821    575.21876  0.016932143  0.016564871            2 
 2832000   0.80131643   -8.2041836    575.42918  0.016932356  0.016559336            3 
 2833000   0.80394591   -8.2160749    573.93104  0.016882311  0.016553797            3 
 2834000    0.8132735   -8.1916758    574.76901  0.016900994  0.016548276            1 
 2835000   0.80175784   -8.1892354    576.43763  0.016944081  0.016542753            3 
 2836000   0.79962037   -8.2141928    575.25797  0.016903443  0.016537229            2 
 2837000      0.79599   -8.2475868    574.46257  0.016874121   0.01653168            3 
 2838000   0.81294549   -8.2318777    575.91387   0.01691079  0.016526152            2 
 2839000    0.7946852   -8.1998091    575.14287  0.016882202   0.01652061            3 
 2840000   0.80315107   -8.2136874    575.04083  0.016873264  0.016515052            2 
 2841000   0.79453558   -8.2352553     574.8213  0.016860885  0.016509504            2 
 2842000    0.8002445    -8.205115    576.68692  0.016909656  0.016503964            1 
 2843000   0.80846295   -8.2290544    576.02307   0.01688425  0.016498442            2 
 2844000    0.7991835   -8.2040856    575.87063  0.016873846   0.01649293            1 
 2845000   0.79976591   -8.2299993    576.20715  0.016877772  0.016487389            2 
 2846000   0.80195542    -8.238362    575.16026  0.016841188  0.016481891            2 
 2847000   0.78013958   -8.1959996    575.66261  0.016849977  0.016476378            2 
 2848000   0.78454126   -8.1960897    577.22065  0.016889649  0.016470892            2 
 2849000   0.80234117   -8.2309706    576.44454   0.01686102  0.016465398            1 
 2850000   0.78167972   -8.1849738    576.11634  0.016845507  0.016459898            1 
 2851000   0.80611298   -8.2363346    575.77322  0.016829569  0.016454411            2 
 2852000   0.78878227   -8.2580057    576.32754  0.016839865  0.016448933            3 
 2853000   0.78854161   -8.2220334    576.19124  0.016829981  0.016443434            2 
 2854000   0.79410674   -8.2343941    576.79686  0.016841768  0.016437955            2 
 2855000   0.79190701   -8.2181239    578.38406  0.016882197  0.016432469            3 
 2856000   0.78962075   -8.2352338    575.26913  0.016785397  0.016426979            3 
 2857000   0.79351973   -8.2471666    575.93088  0.016798824  0.016421502            9 
 2858000    0.7941345   -8.2244556    576.95636  0.016822847  0.016416032            5 
 2859000   0.80732605   -8.2303055    577.11988  0.016821729  0.016410566            3 
 2860000   0.79108998   -8.2192484    576.87669  0.016808761  0.016405089            4 
 2861000   0.78891384   -8.2456408     576.6855  0.016797317  0.016399629            3 
 2862000   0.79777805    -8.246986    576.03318  0.016772455  0.016394177            3 
 2863000   0.79773902   -8.2570488    576.70152   0.01678605  0.016388721            2 
 2864000   0.78042488   -8.2480157    577.01803  0.016789398  0.016383242            3 
 2865000   0.80323086   -8.2449595    576.70467  0.016774423  0.016377751            4 
 2866000   0.79983673   -8.2464331    576.64269  0.016766768  0.016372276            3 
 2867000   0.78097895    -8.249318    577.19197  0.016776885  0.016366801            2 
 2868000   0.80656575   -8.2097019    577.56993  0.016782018  0.016361325            4 
 2869000   0.80773433   -8.2774465    577.16986  0.016764548  0.016355859            3 
 2870000   0.79233093   -8.2548836     576.1458  0.016728972   0.01635038            4 
 2871000   0.78442629   -8.2335389    576.81636  0.016742609  0.016344907            2 
 2872000    0.7830256   -8.2339405    576.96095  0.016740975  0.016339452            1 
 2873000   0.78942758   -8.2365376    576.70195  0.016727635     0.016334            4 
 2874000   0.76807048   -8.2425334    578.85799  0.016784331  0.016328601            2 
 2875000   0.77959953   -8.2216265    578.58429  0.016770559  0.016323198            2 
 2876000   0.81458792   -8.2484964    576.54962  0.016705772  0.016317787            2 
 2877000   0.79786779   -8.2544003    577.14892  0.016717325  0.016312359            1 
 2878000   0.79706222   -8.2569791    577.15303  0.016711635  0.016306909            2 
 2879000   0.79819682   -8.2571454    577.29331  0.016709891  0.016301452            2 
 2880000   0.79990413   -8.2318059    576.23997   0.01667361  0.016296004            2 
 2881000    0.7949009   -8.2389161    577.45281  0.016702904  0.016290568            2 
 2882000   0.79253026   -8.2323427     576.4408  0.016667846  0.016285136            2 
 2883000   0.78954805   -8.2527211    577.97454  0.016706398  0.016279704            2 
 2884000   0.79734864    -8.285721    576.62422  0.016661588  0.016274267            2 
 2885000   0.77396014   -8.2365749    578.65952  0.016714602   0.01626881            1 
 2886000   0.77939063   -8.2380971    577.01503  0.016661326  0.016263387            3 
 2887000   0.80444667   -8.2549738    578.14486  0.016688167   0.01625796            4 
 2888000   0.80322747    -8.268028    577.77724  0.016671781  0.016252526            5 
 2889000   0.78017076   -8.2475523    576.63924  0.016633185  0.016247088            1 
 2890000   0.77844027   -8.2624594    576.91177  0.016635288  0.016241623            3 
 2891000   0.80056372   -8.2624996    576.94003  0.016630348  0.016236198            2 
 2892000   0.80593947   -8.2765146    576.13096  0.016601284  0.016230756            2 
 2893000   0.79484824   -8.2539607    578.30372  0.016658132  0.016225334            5 
 2894000   0.78392787   -8.2606803    576.92342   0.01661263  0.016219902            5 
 2895000    0.7859566    -8.253051    577.99004  0.016637595  0.016214468            3 
 2896000   0.79125092   -8.2650439     577.8265  0.016627144  0.016209033            6 
 2897000   0.77639247    -8.244906    577.05443  0.016599196  0.016203619            4 
 2898000   0.80160668   -8.2270173    578.92803  0.016647344  0.016198204            5 
 2899000   0.79252924   -8.2220471    578.90982  0.016641078  0.016192803            2 
 2900000   0.78006769    -8.255127    577.59893   0.01659767   0.01618741            3 
 2901000   0.77955372   -8.2346471     578.4602   0.01661669  0.016182012            2 
 2902000   0.78484354   -8.2641199    577.49261  0.016583178  0.016176622            8 
 2903000   0.78315401   -8.2345114    576.90742  0.016560668  0.016171201            1 
 2904000   0.78214346   -8.2529955    577.23596  0.016564393  0.016165789            1 
 2905000    0.7694746   -8.2424999    578.22502  0.016587063  0.016160368            2 
 2906000   0.80454133     -8.26949    577.52078   0.01656116  0.016154956            2 
 2907000   0.78897012   -8.2580698    577.30184  0.016549187  0.016149546            3 
 2908000   0.80341914   -8.2756451    576.89028  0.016531702  0.016144115            2 
 2909000   0.78356573    -8.215167     577.9446  0.016556222  0.016138702            2 
 2910000   0.79050103   -8.2510183    577.95371  0.016550794   0.01613328            2 
 2911000    0.7859107   -8.2572896    578.49706  0.016560662  0.016127827            2 
 2912000    0.7963745   -8.2479258    578.46537  0.016554069  0.016122401            3 
 2913000   0.76433095   -8.2577557    577.53894  0.016521883  0.016117003            4 
 2914000   0.78993027   -8.2783481    576.74563  0.016493526  0.016111574            1 
 2915000   0.77747702   -8.2847442    577.87385  0.016520121  0.016106156            2 
 2916000    0.7786881   -8.2657755    578.23859   0.01652488   0.01610074            3 
 2917000   0.78883249   -8.2679895     577.0661  0.016485719  0.016095325            3 
 2918000   0.78054274   -8.2509364    579.05114  0.016536759  0.016089926            3 
 2919000   0.76359077   -8.2745716    578.06311  0.016502887  0.016084556            1 
 2920000   0.78823055   -8.2675501    578.99952  0.016523959  0.016079149            2 
 2921000   0.78139361   -8.2653559    578.32719  0.016499121  0.016073767            7 
 2922000    0.7864334   -8.2345222    579.61363  0.016530163  0.016068399            2 
 2923000   0.79767818   -8.2220974      579.377  0.016517762   0.01606306            3 
 2924000   0.78273264   -8.2172812    578.25683  0.016480188   0.01605772            2 
 2925000   0.78518903    -8.244545    578.54345  0.016482719  0.016052386            1 
 2926000   0.77047461   -8.2323581     580.1703  0.016523419  0.016047061            4 
 2927000   0.77098486   -8.2643517    577.52815  0.016442551  0.016041702            3 
 2928000   0.78762864   -8.2543636    580.10147  0.016510174  0.016036349            2 
 2929000   0.77451703   -8.2402183    578.29011  0.016453002     0.016031            1 
 2930000   0.78162798   -8.2675362    578.51088  0.016453665  0.016025646            2 
 2931000   0.80820676   -8.2365759    579.10267  0.016464877  0.016020313            3 
 2932000   0.77981937   -8.2452004    577.71167  0.016419727  0.016014963            2 
 2933000   0.78016594     -8.25731    579.73934  0.016471739  0.016009617            2 
 2934000   0.78433756   -8.2501718    578.69085  0.016436345  0.016004267            3 
 2935000   0.79506664    -8.271565    579.27417  0.016447308  0.015998918            3 
 2936000   0.78653754   -8.2432136    579.67686  0.016453135  0.015993574            2 
 2937000   0.76890487   -8.2557026    578.88707  0.016425124  0.015988234            2 
 2938000   0.79109196   -8.2565187    578.02402  0.016395054  0.015982893            2 
 2939000   0.80379503   -8.2389197    578.85503  0.016413038  0.015977548            3 
 2940000   0.79836881   -8.2683079    577.84096  0.016378712  0.015972186            3 
 2941000   0.79391462    -8.282824    579.44466  0.016418584  0.015966828            4 
 2942000   0.78888386   -8.2609514    578.41092  0.016383722  0.015961476            3 
 2943000   0.78430978   -8.2497402     578.8131  0.016389543   0.01595611            1 
 2944000   0.79719792   -8.2638665    578.00048  0.016360974  0.015950737            4 
 2945000    0.7699004   -8.2801127    579.21601  0.016389814  0.015945382            5 
 2946000   0.79624239   -8.2673406    579.21615  0.016384254  0.015940033           17 
 2947000   0.76662697   -8.2686613    577.11655  0.016319323  0.015934677           18 
 2948000   0.79379902   -8.2761442    578.32136  0.016347845  0.015929327            8 
 2949000    0.7731799   -8.2771313    578.53585  0.016348362  0.015923982            5 
 2950000   0.78386727   -8.2712516    577.23411  0.016306048  0.015918641            5 
 2951000   0.77637189   -8.2692708    578.67167  0.016341118  0.015913294            8 
 2952000   0.78883073   -8.2525289    579.31717  0.016353804  0.015907952            5 
 2953000   0.78153109   -8.2568051    578.45286  0.016323876  0.015902608            5 
 2954000   0.76909266   -8.2871028     578.0534  0.016307081  0.015897249            6 
 2955000   0.77033114   -8.3010471      577.568  0.016287874  0.015891894            7 
 2956000   0.78586093   -8.2794124    578.57389  0.016310721   0.01588655            3 
 2957000   0.78928438   -8.2564952    578.35879  0.016299143   0.01588121            4 
 2958000   0.77414661   -8.2941671    577.76794  0.016276987  0.015875849            2 
 2959000   0.77661475   -8.2730348    578.43576  0.016290294  0.015870502            4 
 2960000   0.76835907     -8.26194      578.929  0.016298677  0.015865153            3 
 2961000   0.77084564   -8.2666107    577.50015  0.016252959  0.015859834            2 
 2962000   0.78207993    -8.256682    579.55432  0.016305264  0.015854502            4 
 2963000   0.77222134   -8.2630788    579.40052  0.016295436  0.015849165            3 
 2964000   0.77649895   -8.2715985    579.51396  0.016293127  0.015843841            3 
 2965000   0.78335478   -8.2593292    578.65017  0.016263355  0.015838523            5 
 2966000   0.76006269   -8.2447211    579.62424  0.016285239  0.015833186            2 
 2967000   0.77742549   -8.2747862    578.73373  0.016254739  0.015827847            2 
 2968000   0.77746285   -8.2889257     577.6996  0.016220227    0.0158225            5 
 2969000   0.77244306   -8.2543003    580.49072  0.016293104   0.01581718            2 
 2970000   0.76662741   -8.2751332    578.51541  0.016232194  0.015811842            4 
 2971000   0.78101154   -8.3038354    579.73471  0.016260931  0.015806489            3 
 2972000   0.78367359   -8.2876506    579.19726   0.01624039  0.015801143            3 
 2973000    0.7837903   -8.2820812      579.941  0.016255774  0.015795801            2 
 2974000   0.79384806   -8.2746996    580.24603  0.016258855  0.015790479            2 
 2975000   0.77829534   -8.2746267    579.06579   0.01622033  0.015785178            3 
 2976000   0.78020216   -8.2788442    581.11894  0.016272372  0.015779859            1 
 2977000   0.77721158   -8.2442243    579.65989  0.016226064  0.015774584            3 
 2978000   0.78084467   -8.2670672    579.52804  0.016216925  0.015769306            2 
 2979000   0.76819276    -8.274624    578.65237  0.016186986   0.01576401            3 
 2980000   0.75806186   -8.3006419    580.69089   0.01623856  0.015758728            4 
 2981000   0.76118713   -8.2917177    581.00144  0.016241793  0.015753433            2 
 2982000   0.77630465   -8.2778943    578.57739  0.016168606  0.015748121            6 
 2983000    0.7626921   -8.2849436    579.43416   0.01618712   0.01574282            5 
 2984000   0.77797079   -8.2847757    580.12572  0.016201009  0.015737506            3 
 2985000   0.79051053   -8.3035344    579.07253  0.016166179   0.01573217            6 
 2986000   0.77075186   -8.2869339    579.61008  0.016175767  0.015726849            4 
 2987000   0.79033921   -8.2907706    580.03952  0.016182332  0.015721539            7 
 2988000   0.77009986   -8.3211522    579.37013  0.016158248  0.015716224            3 
 2989000   0.77139907   -8.3208866    579.54332   0.01615767   0.01571091           11 
 2990000   0.77835343     -8.33364     578.8729  0.016133581   0.01570557            2 
 2991000   0.77375355   -8.3104024     579.0575  0.016133331  0.015700233            2 
 2992000   0.77621667   -8.3117742    579.28882  0.016134381  0.015694908            2 
 2993000   0.77185949   -8.2812754    580.01725  0.016149272  0.015689586            2 
 2994000   0.77246546   -8.2967949    578.75511  0.016108748   0.01568427            2 
 2995000   0.77670385   -8.3025467    581.04116  0.016166977  0.015678971            2 
 2996000   0.78115895   -8.3154864     579.8563  0.016128624  0.015673683            3 
 2997000   0.77590926   -8.2759355    579.10788  0.016102432  0.015668393            4 
 2998000   0.76293669   -8.2811277    580.51598  0.016136201  0.015663122            2 
 2999000    0.7691202   -8.3092901    580.39719   0.01612752  0.015657818            5 
 3000000   0.77139339   -8.2948539    579.44583  0.016095717   0.01565252            4 
 3001000   0.77498849   -8.3068317    579.33429  0.016087257  0.015647227           10 
 3002000   0.77574456   -8.2783963     580.2697  0.016107864  0.015641936            5 
 3003000   0.78747141   -8.2980247    580.15287  0.016099258  0.015636629            3 
 3004000   0.78568813   -8.3108412    579.36838  0.016072136  0.015631326            3 
 3005000   0.74740715   -8.3226543    580.24356  0.016091058  0.015626028            2 
 3006000   0.76903532   -8.3401681    579.05616  0.016052788  0.015620724            3 
 3007000   0.77183397   -8.3276913    579.97889  0.016073021  0.015615439            2 
 3008000   0.77174888   -8.3055039    579.30456  0.016048996  0.015610146            2 
 3009000   0.76921541   -8.3004551    580.35193  0.016072669  0.015604856            1 
 3010000   0.77291231   -8.3196455    580.34475   0.01606713  0.015599559            3 
 3011000   0.76352265   -8.3109446    580.02981  0.016053078  0.015594289            4 
 3012000   0.78024502   -8.3164854    579.44435   0.01603155  0.015589015            5 
 3013000   0.77240235   -8.3047774    581.10519  0.016072165  0.015583743            2 
 3014000   0.76926873   -8.3149058    579.70896  0.016028228  0.015578461            2 
 3015000   0.78166854   -8.3326936    580.41887  0.016042534  0.015573176            2 
 3016000    0.7691824    -8.304128    579.63876   0.01601566  0.015567887            2 
 3017000   0.77075687   -8.3055792     580.9111  0.016045495  0.015562617            4 
 3018000   0.79774074   -8.3284002    581.02902  0.016043434  0.015557328            3 
 3019000   0.75964574   -8.3294594    579.01334  0.015982482  0.015552031            2 
 3020000   0.76874114   -8.2984016    580.41916  0.016015981  0.015546732            3 
 3021000   0.77121552   -8.3086124    580.43867  0.016011218  0.015541467            2 
 3022000   0.76325564   -8.3335068    580.58972  0.016010085  0.015536191            4 
 3023000   0.75359145   -8.3205928    579.37215  0.015971225  0.015530893            4 
 3024000   0.77518272   -8.3187143    580.34001  0.015992615  0.015525592            8 
 3025000   0.76923099   -8.3232786    580.90698  0.016002947  0.015520295            5 
 3026000   0.76489755   -8.2966555    580.50241  0.015986517  0.015515028            3 
 3027000   0.77993358   -8.2863148    579.99968  0.015967396  0.015509761            2 
 3028000   0.76075881   -8.2951986    581.00815  0.015989876  0.015504497            2 
 3029000   0.75782094   -8.2727258    580.40355  0.015967964  0.015499254            2 
 3030000   0.77076999   -8.3058977    580.97826    0.0159785  0.015494008            2 
 3031000    0.7614953    -8.291928    579.87763  0.015942968  0.015488767            3 
 3032000   0.75570881   -8.3178894    578.93934  0.015911921  0.015483527            3 
 3033000   0.77726999   -8.2786911    581.15122  0.015967448  0.015478283            2 
 3034000   0.76061655   -8.3288205     580.7238  0.015950445   0.01547303            4 
 3035000   0.76204622   -8.3346879    579.89964   0.01592256  0.015467764            2 
 3036000   0.77394801   -8.3173249    580.22561  0.015926263  0.015462501            4 
 3037000   0.75910655   -8.3026139    581.66771  0.015960589  0.015457237            1 
 3038000   0.77021068   -8.3144745    581.46801  0.015949858  0.015451984            2 
 3039000   0.75089428   -8.3208966    580.05938  0.015905983  0.015446731            5 
 3040000   0.75917731   -8.3490217    580.56364  0.015914574  0.015441456            1 
 3041000   0.77011967   -8.3589365    579.76808  0.015887539  0.015436175            3 
 3042000   0.75975028   -8.3271351     579.7341  0.015881386  0.015430903            1 
 3043000    0.7526842   -8.3096535    580.98134  0.015910322  0.015425621            4 
 3044000   0.76126544   -8.3346721    579.65625   0.01586882  0.015420341            2 
 3045000   0.76713561   -8.3283787    579.83809  0.015868585  0.015415077            3 
 3046000   0.78070318   -8.3200321    580.23332  0.015874188  0.015409818            2 
 3047000   0.78526311   -8.3217868       580.27  0.015869981   0.01540456            2 
 3048000   0.75594127   -8.3212962    579.78085  0.015851401  0.015399287            3 
 3049000   0.76681775   -8.3287132    580.32646  0.015861114  0.015394027            5 
 3050000   0.76105165   -8.2971686    579.89819  0.015844213  0.015388782            1 
 3051000   0.73929131   -8.3269449    581.78432  0.015890536  0.015383504            3 
 3052000   0.77456856   -8.3327159    580.42539  0.015848225   0.01537822            3 
 3053000   0.76550504   -8.3391829    580.57484  0.015847113  0.015372932            2 
 3054000   0.74964197    -8.330992    580.19958  0.015831685  0.015367656            3 
 3055000   0.76951781   -8.3199664    580.67511  0.015839474  0.015362384            2 
 3056000   0.77185865   -8.3086441      581.821  0.015865538  0.015357137            4 
 3057000    0.7497469   -8.3130014    580.11657  0.015813885  0.015351895            2 
 3058000   0.76896141   -8.3262607    580.60189   0.01582194  0.015346655            5 
 3059000   0.75507648   -8.2696911    581.27427  0.015835084  0.015341428            2 
 3060000   0.76492501   -8.3042361    581.95368  0.015848412  0.015336208            3 
 3061000   0.74914561   -8.2890018    581.11428  0.015820382  0.015330988            5 
 3062000   0.74950904   -8.2948754     580.7239  0.015804591  0.015325785            3 
 3063000   0.76455145   -8.2992669    582.51321  0.015848112  0.015320607            3 
 3064000     0.761639   -8.2922744     580.5737   0.01579019  0.015315423            2 
 3065000   0.76913832   -8.3113248    582.31914  0.015832494  0.015310221            2 
 3066000   0.74626322   -8.3405204    579.92861  0.015762356  0.015304992            5 
 3067000   0.75831672   -8.3189582    582.48388  0.015826646  0.015299773            3 
 3068000   0.76767036   -8.3206634    580.70961  0.015773295  0.015294567            1 
 3069000   0.75708895   -8.3218427    580.83737  0.015771624  0.015289349            3 
 3070000    0.7645233   -8.3043237    581.91194  0.015795655  0.015284138            2 
 3071000   0.75623175   -8.3068008    580.48954  0.015751914  0.015278948            2 
 3072000   0.76060151   -8.3076133    581.11123  0.015763651  0.015273762            2 
 3073000   0.76470276   -8.3297207    581.10994  0.015758486   0.01526855            3 
 3074000   0.75525709   -8.2957931    580.65749  0.015741094  0.015263353            3 
 3075000   0.76570393   -8.3331077    581.32997    0.0157542  0.015258154            2 
 3076000   0.75629005   -8.3135107    581.15119  0.015744235  0.015252935            3 
 3077000   0.76092473   -8.3585521    580.50687  0.015721668  0.015247705            2 
 3078000   0.74690672   -8.3333329    582.31485  0.015765509  0.015242479            2 
 3079000   0.77400372   -8.3515009    580.42952  0.015709362  0.015237243            2 
 3080000   0.75200276   -8.3417001    579.39799  0.015676353   0.01523201            2 
 3081000   0.74168168   -8.3426038    580.60388  0.015703881   0.01522676            1 
 3082000   0.77074092   -8.3508865    579.90484  0.015679884  0.015221508            2 
 3083000   0.76335496   -8.3315063    579.87213  0.015673914  0.015216274            3 
 3084000   0.76231929   -8.3491393    580.85834   0.01569548  0.015211047            1 
 3085000   0.75132193   -8.3588266    580.51544   0.01568113   0.01520583            4 
 3086000   0.75093445   -8.3532245    579.89552  0.015659309  0.015200601            5 
 3087000   0.76238286   -8.3343682    580.98067   0.01568353  0.015195388            5 
 3088000   0.76905697   -8.3072177    581.61745  0.015695635  0.015190161            2 
 3089000   0.76795416    -8.323124    581.08111  0.015676085  0.015184953            2 
 3090000   0.77678108   -8.3074932     581.0918    0.0156713  0.015179738            3 
 3091000   0.75323928   -8.3119701    580.73439  0.015656594    0.0151745            2 
 3092000   0.75060349   -8.3316785    581.06083  0.015660329   0.01516926            3 
 3093000   0.75388287   -8.3611801    581.31394  0.015662085  0.015164009            2 
 3094000   0.75399574   -8.3361888     580.1706  0.015626228  0.015158771            4 
 3095000   0.75586676   -8.3635581     580.4428  0.015628508  0.015153521            1 
 3096000     0.759498    -8.373415    580.33435  0.015620541  0.015148278            2 
 3097000   0.74222421    -8.368936    580.91651  0.015631162  0.015143052            6 
 3098000   0.75960522   -8.3581219     579.4779  0.015587419  0.015137823            3 
 3099000   0.75783249   -8.3449958    581.06476  0.015625061   0.01513259            3 
 3100000   0.74676987   -8.3502035    580.87575   0.01561494  0.015127373            3 
 3101000   0.77753042   -8.3538745    581.07677  0.015615306  0.015122154            3 
 3102000   0.75372163   -8.3524751    581.61975  0.015624859  0.015116921            3 
 3103000    0.7601355   -8.3485718    581.17104  0.015607773  0.015111685            2 
 3104000   0.76370613   -8.3585631    579.65372  0.015562009  0.015106462            1 
 3105000   0.75640145   -8.3464589    579.84004  0.015561998  0.015101245            8 
 3106000   0.74568999   -8.3366174    579.57899  0.015549984  0.015096037            3 
 3107000   0.75144654   -8.3450791     581.0397  0.015584157   0.01509082            2 
 3108000   0.76675768    -8.324742    581.06416  0.015579798  0.015085608            2 
 3109000   0.76151561   -8.3194456    580.18153  0.015551129   0.01508039            7 
 3110000   0.74108489   -8.3473641    579.99943   0.01554125  0.015075162            2 
 3111000    0.7283899   -8.3435304    579.99002  0.015536002  0.015069925            4 
 3112000   0.73736362   -8.3396157    581.44056  0.015569852  0.015064707            2 
 3113000   0.76705666   -8.3540811    581.18631  0.015558044  0.015059483            3 
 3114000   0.75832434   -8.3507548    581.41721  0.015559227  0.015054266            1 
 3115000   0.77031794   -8.3270424    580.46901  0.015528866  0.015049061            3 
 3116000    0.7499565   -8.3362266    580.36085   0.01552099  0.015043865            3 
 3117000   0.75393633   -8.3172635    580.84848  0.015529047  0.015038681            1 
 3118000   0.74873041   -8.3296595    581.11125   0.01553109  0.015033499            5 
 3119000     0.737039   -8.3223527    581.01286  0.015523481  0.015028316            2 
 3120000   0.75791537   -8.3119733    579.46826   0.01547725   0.01502314            4 
 3121000   0.75646296   -8.3386766    579.66158  0.015477453  0.015017956            3 
 3122000    0.7679041   -8.3521266    580.86923  0.015504731  0.015012759            2 
 3123000   0.75286086   -8.3361918    581.15323  0.015507344  0.015007578            6 
 3124000   0.76367238   -8.3292154    580.26241  0.015478618  0.015002378            4 
 3125000   0.74987681   -8.3539491     581.0356  0.015494283  0.014997189            3 
 3126000   0.74868139   -8.3526771    581.04582  0.015489599  0.014992007            2 
 3127000   0.75552431   -8.3462227    581.81397  0.015505116  0.014986834            5 
 3128000   0.75451341   -8.3470247    581.35005    0.0154878   0.01498166            2 
 3129000   0.74901214   -8.3631418    580.86021  0.015469804  0.014976485            2 
 3130000   0.75390083   -8.3817635      581.204  0.015474015  0.014971291            4 
 3131000   0.72908244   -8.3617487    580.46376  0.015449371  0.014966095            2 
 3132000   0.75697867   -8.3416012    579.82259  0.015427378  0.014960921            2 
 3133000   0.76077389    -8.364095    580.68514  0.015445397  0.014955734            2 
 3134000   0.76037085   -8.3336986    581.65711  0.015466313  0.014950545            2 
 3135000   0.74766708   -8.3447549    581.22399  0.015449867  0.014945357            2 
 3136000   0.76736395   -8.3629008    580.41431  0.015423424  0.014940151            1 
 3137000   0.74478266   -8.3842777    579.50015  0.015394223  0.014934939            3 
 3138000    0.7385175   -8.3839117    579.70209   0.01539468  0.014929727            2 
 3139000   0.75621259   -8.3518348    579.33783  0.015380106  0.014924532            2 
 3140000   0.73436675   -8.3728138    580.15679  0.015396942  0.014919317            2 
 3141000    0.7486915   -8.3510871    580.23223  0.015394042  0.014914109            1 
 3142000   0.75593166   -8.3829725    580.21562  0.015388702  0.014908893            2 
 3143000   0.75770873    -8.367456    580.33435  0.015386954  0.014903675            1 
 3144000   0.76680537   -8.3408119    579.88956   0.01537027  0.014898475            2 
 3145000   0.74197576   -8.3509355    580.63467  0.015385126  0.014893294            2 
 3146000   0.74854879   -8.3708704    580.51843  0.015377157  0.014888107            2 
 3147000   0.75157496   -8.3419695     579.4091  0.015342895  0.014882929            2 
 3148000   0.75334366   -8.3470418    580.45667  0.015365753  0.014877762            4 
 3149000   0.75163063   -8.3417413    581.72349  0.015394397  0.014872581            2 
 3150000   0.74009942   -8.3635768    580.79751  0.015365014  0.014867403            6 
 3151000   0.76020905   -8.3472498    580.36802  0.015348779  0.014862216            7 
 3152000   0.72423127   -8.3664795    580.23773  0.015340465  0.014857038            7 
 3153000   0.74133232   -8.3775106    579.34755  0.015312072  0.014851841            3 
 3154000   0.74810437   -8.3778015    580.76551  0.015344682  0.014846658            5 
 3155000   0.75664124   -8.3966342    580.86952  0.015342565  0.014841459            3 
 3156000   0.74230023   -8.3941836    581.08627  0.015343427  0.014836265            4 
 3157000   0.74477085   -8.3855423    580.07792   0.01531195   0.01483107            3 
 3158000   0.76418073   -8.3659179    580.87153  0.015328043  0.014825891            2 
 3159000   0.74134921   -8.3719666    580.53863  0.015314409  0.014820711            3 
 3160000   0.74127776   -8.3752291     582.0262  0.015348792  0.014815549            2 
 3161000   0.73934109   -8.3639234    580.34576  0.015299635  0.014810394            4 
 3162000    0.7219268   -8.3914879    581.16238  0.015316318  0.014805233            4 
 3163000   0.75805349   -8.3461629    581.05454  0.015308635   0.01480005            5 
 3164000    0.7435669   -8.3671157    579.91658  0.015273825    0.0147949            3 
 3165000    0.7382598   -8.4144632    580.54267  0.015285484  0.014789748            5 
 3166000   0.74290796   -8.3588269    581.18245  0.015297496  0.014784598            3 
 3167000   0.75454196   -8.4026526    580.91499  0.015285628   0.01477945            3 
 3168000   0.75559085   -8.3555445    581.02484  0.015283692  0.014774311            2 
 3169000   0.75343009   -8.3677019    581.41783  0.015289203  0.014769155            4 
 3170000   0.77232934    -8.380569    581.16887  0.015277836  0.014764015            5 
 3171000   0.74527269   -8.3430027    581.41441   0.01527947  0.014758879            4 
 3172000   0.73819682   -8.3452081    581.37183  0.015273535  0.014753751            3 
 3173000   0.74468325   -8.3522122    581.93844  0.015283602  0.014748612            3 
 3174000   0.76346609    -8.400706    581.30971   0.01526228  0.014743467            4 
 3175000   0.75718221   -8.3925487    581.04434  0.015250508  0.014738311            5 
 3176000   0.74997841   -8.3920026    581.24458   0.01525096  0.014733147            1 
 3177000   0.74324424   -8.3978819    581.01016   0.01524001  0.014728016            2 
 3178000   0.75547261   -8.4145335    578.84733  0.015178501  0.014722856            2 
 3179000   0.76699379   -8.3846846    582.04261  0.015257487  0.014717686            3 
 3180000   0.73497583    -8.407805    579.74589  0.015192502   0.01471252            1 
 3181000   0.73971042   -8.4020984    579.62913  0.015184667  0.014707356            3 
 3182000   0.73986219   -8.4085845    581.31077  0.015223936   0.01470219            3 
 3183000   0.76228703   -8.3922537    580.40325  0.015195394  0.014697027            2 
 3184000   0.73216048   -8.3835657    581.09248   0.01520866  0.014691871            2 
 3185000    0.7500373   -8.3963514    580.07011  0.015177135   0.01468672            3 
 3186000   0.74771878   -8.4170529    579.96391  0.015169594  0.014681573            2 
 3187000   0.73667908   -8.3790863    581.20041  0.015197166  0.014676429            5 
 3188000    0.7451499   -8.3816856    580.93029  0.015185338  0.014671304            6 
 3189000   0.73990064   -8.3697749    581.16463    0.0151867  0.014666173            2 
 3190000   0.74417704   -8.3929845    581.37753  0.015187501  0.014661039            2 
 3191000   0.73079469   -8.3997923    580.07207  0.015148649  0.014655919            2 
 3192000   0.74557333   -8.4019914    581.07869  0.015170183  0.014650782            4 
 3193000   0.73244925   -8.3860411    581.71552  0.015182053   0.01464567            3 
 3194000   0.73206193   -8.3879467    580.28758  0.015140043  0.014640541           12 
 3195000   0.73304719   -8.3627748    580.81735  0.015149122  0.014635412            1 
 3196000   0.73830612    -8.401774    581.08087  0.015151253  0.014630302            1 
 3197000   0.72409388   -8.3843554    582.40201  0.015180951  0.014625175            2 
 3198000   0.74303683   -8.3726875    581.60901   0.01515554  0.014620075            2 
 3199000   0.73874048    -8.407735    580.36274  0.015118337   0.01461499            2 
 3200000   0.75083764   -8.4221867    581.30549  0.015138164    0.0146099            1 
 3201000   0.73991032   -8.3730034    582.07037  0.015153347  0.014604811            5 
 3202000   0.72924049   -8.3745377    580.71161  0.015113252  0.014599726            3 
 3203000   0.74527993   -8.3926813     581.2897  0.015123574  0.014594635            2 
 3204000   0.73333385   -8.3897813    581.72796  0.015130253  0.014589532            1 
 3205000   0.75191676   -8.4220107    579.51789  0.015068068  0.014584422            1 
 3206000    0.7297781   -8.3778512    582.12784  0.015131208   0.01457931            3 
 3207000   0.73812019   -8.4008306    580.83063  0.015092782  0.014574193            2 
 3208000   0.74153762   -8.4170857    580.63557   0.01508301  0.014569063            4 
 3209000   0.76075874   -8.4113037    580.87586   0.01508455  0.014563955            3 
 3210000    0.7471198   -8.4376022    580.23511  0.015063217  0.014558831            3 
 3211000   0.72981732   -8.4003852    581.38008   0.01508824  0.014553715            1 
 3212000   0.73578325   -8.4363907    580.19052  0.015052681  0.014548585            2 
 3213000   0.72848574   -8.4048387    581.12513  0.015072236  0.014543475            2 
 3214000   0.73981829   -8.4042212    581.05241  0.015065661  0.014538369            2 
 3215000   0.73653934   -8.3636659    582.60134  0.015101123  0.014533296            1 
 3216000   0.74674117   -8.3901188    581.29316   0.01506253   0.01452821            3 
 3217000   0.74088581   -8.3870131    580.67561  0.015041851   0.01452312            2 
 3218000   0.72145896   -8.4317947    580.24138  0.015025932  0.014518027            1 
 3219000   0.73798811   -8.4333787    581.56469  0.015055522  0.014512949            5 
 3220000   0.74166072    -8.412985    580.90863  0.015033867  0.014507856            2 
 3221000   0.72777738   -8.4032893    581.90538  0.015054988  0.014502791            3 
 3222000   0.72663871   -8.4229976    582.96268  0.015077661  0.014497726            4 
 3223000   0.73719238   -8.4295139    582.17249  0.015052552  0.014492655            7 
 3224000   0.72332927   -8.4054584    581.60229  0.015033144  0.014487567            4 
 3225000   0.75006097   -8.4297655    580.61119  0.015002873  0.014482468            5 
 3226000   0.74023813    -8.430509    581.26791  0.015015187  0.014477375            5 
 3227000   0.73243949   -8.4207586    581.04149  0.015004687   0.01447229            3 
 3228000   0.72160008   -8.4358576    582.16793  0.015029118   0.01446721            3 
 3229000    0.7332082   -8.4299526    581.35663  0.015003526  0.014462121            4 
 3230000   0.71942353   -8.4443241    580.84038  0.014985562  0.014457035            2 
 3231000   0.73716922   -8.4155284    581.08466  0.014987224  0.014451942            5 
 3232000   0.73440744   -8.4328475    580.67257  0.014971962  0.014446866            1 
 3233000   0.73707268   -8.4198038     580.5166  0.014963311  0.014441784            2 
 3234000   0.74046581   -8.4022304    580.57287  0.014960134  0.014436702            4 
 3235000   0.74382613   -8.4129128    580.50158  0.014953673  0.014431615            3 
 3236000   0.75137379   -8.4414581    581.57295  0.014976642  0.014426528            2 
 3237000   0.72509149   -8.4309167     581.7349  0.014976184  0.014421459            4 
 3238000   0.73841947    -8.423046     582.4866  0.014990905  0.014416397            4 
 3239000   0.72331471   -8.4364601    582.57937  0.014988664  0.014411331            2 
 3240000   0.72485788   -8.4526881    580.46745  0.014929718  0.014406255            7 
 3241000   0.73213082   -8.4474992    581.29998  0.014946518  0.014401181            3 
 3242000   0.73347191   -8.4321726    580.45565  0.014920205  0.014396111            2 
 3243000   0.72879305   -8.4469959    580.42713  0.014914871  0.014391043            2 
 3244000    0.7389779   -8.4122298    580.95443  0.014923819  0.014385966            3 
 3245000   0.72604252   -8.4261221    581.21353  0.014925874  0.014380905            1 
 3246000    0.7508498   -8.4174358    581.97496  0.014940824  0.014375847            1 
 3247000   0.74019701   -8.3985363    581.31559    0.0149193  0.014370804            2 
 3248000     0.714378   -8.4175974     580.9219  0.014904605  0.014365766            3 
 3249000   0.72043112   -8.4251259    581.72927  0.014920726  0.014360727            1 
 3250000   0.71776611   -8.4078338    581.70424  0.014915493  0.014355681            2 
 3251000     0.734568   -8.4231927    581.17989  0.014897465   0.01435064            2 
 3252000   0.72386903   -8.4357469    579.25474  0.014843551  0.014345584            1 
 3253000   0.73737361   -8.4307837    580.47724  0.014870305  0.014340529            3 
 3254000   0.74306579   -8.4245612    580.34155  0.014862261  0.014335471            1 
 3255000   0.74880696    -8.418732    580.70878  0.014867096  0.014330434            6 
 3256000   0.72050346   -8.4205377    582.30653  0.014903423   0.01432539            3 
 3257000   0.73500013   -8.4317151    581.62203  0.014881333   0.01432034            2 
 3258000   0.73513308   -8.3856591    581.23999  0.014866994  0.014315307            4 
 3259000   0.73390843   -8.4224392     580.4191  0.014841442  0.014310266            3 
 3260000   0.72398969   -8.4160065    581.30149  0.014859445  0.014305233            2 
 3261000   0.73320402   -8.4262977    582.10467  0.014875413  0.014300208            1 
 3262000   0.73414654    -8.431901     582.1201  0.014871247  0.014295163            3 
 3263000   0.71473585   -8.4239484    582.94095  0.014887653   0.01429013            3 
 3264000   0.72776621   -8.4416071    580.42486  0.014818854  0.014285079            6 
 3265000   0.73296907   -8.4221409    580.87824  0.014825887  0.014280034            4 
 3266000    0.7269726   -8.4420076    581.02367  0.014825058  0.014274996            3 
 3267000   0.73464108   -8.4497382    582.05808  0.014846905   0.01426995            2 
 3268000    0.7407816   -8.4286763    581.26188  0.014822059  0.014264914            2 
 3269000   0.73205927   -8.4526601    580.37534  0.014794926  0.014259873            1 
 3270000   0.72247002   -8.4288784    581.64449  0.014822744  0.014254823            2 
 3271000   0.72893323    -8.419995    582.97685  0.014852157  0.014249789            2 
 3272000    0.7233863   -8.4325824    580.53904   0.01478553  0.014244767            3 
 3273000   0.71615531   -8.4069592    581.65195  0.014809348  0.014239751            3 
 3274000   0.73509912   -8.4238638    582.13481  0.014817115  0.014234725            4 
 3275000    0.7291245   -8.4280993    581.84154  0.014805128  0.014229702            2 
 3276000    0.7226146   -8.4556852    580.80348  0.014774203  0.014224661            2 
 3277000   0.73963139   -8.4337233    581.13593  0.014778149   0.01421963            2 
 3278000   0.71881776   -8.4346552     580.0032  0.014744844  0.014214602            4 
 3279000   0.72906778   -8.4238206    581.01594  0.014766086  0.014209572            6 
 3280000   0.72541553   -8.4617913    580.46495  0.014747585  0.014204537            2 
 3281000   0.73248676   -8.4404249    580.29618  0.014738804  0.014199497            4 
 3282000   0.72936944   -8.4498927    579.84127  0.014722762  0.014194454            2 
 3283000   0.71293309   -8.4308053    581.58804  0.014762617  0.014189421            3 
 3284000   0.72641771   -8.4354382    580.85191  0.014739441  0.014184398            1 
 3285000   0.72427153    -8.452374    579.98616  0.014712992  0.014179375            2 
 3286000   0.71240204   -8.4317265    581.02882  0.014734957  0.014174358            2 
 3287000   0.72480333   -8.4239065     581.1314  0.014733075  0.014169348            2 
 3288000   0.72732914   -8.4412742    582.25565  0.014757088  0.014164331            2 
 3289000   0.72783005   -8.4702426    581.51724  0.014733892  0.014159312            2 
 3290000   0.71502778   -8.4839087    578.09341   0.01464269  0.014154288            4 
 3291000   0.72171173   -8.4724674    579.69396  0.014678769  0.014149257            4 
 3292000   0.73438747   -8.4715295    579.77617  0.014676392  0.014144228            8 
 3293000   0.71456716   -8.4605398    581.50959  0.014715801  0.014139206            4 
 3294000   0.70994262   -8.4614764    581.07778  0.014700409  0.014134174            4 
 3295000   0.72075328   -8.4772835    580.48017  0.014680834  0.014129143            1 
 3296000   0.73815947   -8.4627357    581.11504  0.014692431  0.014124119            6 
 3297000   0.72517837   -8.4689619    579.72444  0.014652827  0.014119095            3 
 3298000   0.72391367    -8.444664    580.56814  0.014669702  0.014114077            7 
 3299000   0.73318098   -8.4157507    581.38482  0.014685885  0.014109075            7 
 3300000   0.71758043   -8.4402104    580.48615  0.014658741  0.014104078            4 
 3301000    0.7445304   -8.4595188    580.49871  0.014654618  0.014099065            2 
 3302000   0.71699015   -8.4576021    580.33941  0.014646159  0.014094071            1 
 3303000   0.74194917   -8.4443884    581.76307  0.014677643  0.014089075            3 
 3304000   0.73731884    -8.429498    581.75453  0.014672986  0.014084085            5 
 3305000   0.71178553   -8.4107417    582.66364  0.014691469  0.014079109            4 
 3306000   0.73448727   -8.4362392    581.03565  0.014645988  0.014074127            3 
 3307000   0.71723026   -8.4286329    580.43607  0.014626451   0.01406913            1 
 3308000   0.70630024   -8.4387713    581.68384  0.014653462  0.014064143            2 
 3309000   0.72809716   -8.4465089    581.45314  0.014643224  0.014059154            2 
 3310000   0.72325577   -8.4527495    580.79232  0.014622163  0.014054174            4 
 3311000   0.71936306   -8.4497038    581.24228  0.014629072   0.01404919            1 
 3312000   0.71113546   -8.4543729    580.77601  0.014612923  0.014044198            4 
 3313000   0.72640952   -8.4354549    580.24187  0.014595077  0.014039212            3 
 3314000   0.72160719   -8.4522123    580.61439   0.01460004  0.014034223            2 
 3315000    0.7138794   -8.4349752    581.24794  0.014611562  0.014029224            1 
 3316000   0.72892605   -8.4386981    580.51365  0.014588703  0.014024233            3 
 3317000   0.72966274    -8.437189    580.66226  0.014588038  0.014019239            3 
 3318000   0.72942168   -8.4437343    581.39347  0.014602006  0.014014255            2 
 3319000   0.71440295   -8.4523812    580.27223  0.014569454  0.014009274            4 
 3320000   0.72574346   -8.4315786    581.22949  0.014589094  0.014004298            3 
 3321000   0.72299932   -8.4585977    581.61658  0.014594414  0.013999332            2 
 3322000   0.73197976   -8.4624192    581.10257  0.014577126   0.01399436            3 
 3323000   0.72877204   -8.4259256    581.34736  0.014578879  0.013989389            4 
 3324000   0.72281735   -8.4664927    580.27664  0.014547649  0.013984425            6 
 3325000   0.74380844   -8.4356253    581.54683  0.014575109  0.013979466            2 
 3326000    0.7141963    -8.445031    578.99401  0.014506765  0.013974505            4 
 3327000   0.71879614   -8.4391225    581.04448  0.014553764  0.013969551            5 
 3328000   0.72861912    -8.427945    581.56245  0.014562361  0.013964591            2 
 3329000   0.72175794   -8.4280935    580.55618  0.014532797  0.013959622            2 
 3330000    0.7134468   -8.4692997    580.50386  0.014527124  0.013954652            3 
 3331000   0.71422983   -8.4767352    580.34606  0.014518815  0.013949672            4 
 3332000   0.71627304   -8.4607008    581.19027  0.014535571  0.013944698            2 
 3333000   0.71623592   -8.4532733    581.10858  0.014529167  0.013939735            2 
 3334000   0.71885831   -8.4315404    581.08654  0.014524259   0.01393478            8 
 3335000   0.72430242   -8.4454782    581.51313  0.014530563  0.013929833            2 
 3336000   0.72179598   -8.4623111    579.66524  0.014480047  0.013924896            6 
 3337000   0.70984976   -8.4552808    580.54432  0.014497661  0.013919946            3 
 3338000   0.72411855   -8.4605808     579.5047  0.014467363  0.013914998            5 
 3339000   0.70638168   -8.4569098    580.02897  0.014476115  0.013910053            2 
 3340000   0.71146375    -8.449001     581.6096  0.014511218  0.013905095            5 
 3341000   0.70445751   -8.4697598    581.70248  0.014509191  0.013900141            8 
 3342000   0.71725742   -8.4673147    580.40094  0.014472395  0.013895188            8 
 3343000   0.73053509   -8.4434988    580.92683  0.014481175  0.013890243            5 
 3344000   0.70321225   -8.4559177    580.79747  0.014473621  0.013885291            4 
 3345000   0.72476517   -8.4777181    580.04858  0.014450637  0.013880337            9 
 3346000   0.69649429   -8.4788458     579.6055  0.014435284   0.01387537            4 
 3347000   0.71586186   -8.4913624    580.57692  0.014455157  0.013870397            8 
 3348000   0.72054634   -8.4707008    580.65519  0.014452787  0.013865425            3 
 3349000   0.71655708   -8.4754375     580.0499   0.01443341  0.013860457            3 
 3350000   0.73374639   -8.4794921    580.79604  0.014447663  0.013855492            5 
 3351000   0.71969263   -8.4560627     580.4905  0.014435753  0.013850537            7 
 3352000   0.71901752   -8.4426273    581.28163  0.014451115  0.013845597            4 
 3353000   0.71444229   -8.4623328    581.03245  0.014440612  0.013840662            2 
 3354000   0.70348782   -8.4767449     579.6165  0.014401126  0.013835718            8 
 3355000   0.70747241   -8.4739504    580.40498  0.014416418  0.013830766            7 
 3356000   0.70804329   -8.4755287    582.05897  0.014453193  0.013825816            2 
 3357000   0.72562403   -8.4828298    580.12166  0.014400796  0.013820872            3 
 3358000   0.72387085   -8.4966259    579.59873   0.01438353  0.013815931            1 
 3359000   0.72004228   -8.4655316    580.28765  0.014396339  0.013810989            4 
 3360000   0.71615718   -8.4618752    580.98822   0.01440943  0.013806055            6 
 3361000   0.70068504   -8.4458866    581.52022  0.014418333  0.013801132            3 
 3362000   0.73379777   -8.4773615    582.07383  0.014427767  0.013796201            3 
 3363000   0.72201046   -8.4718124    581.49184  0.014409055  0.013791273            3 
 3364000   0.70417143   -8.4616267    581.22509  0.014398164  0.013786351            3 
 3365000   0.70989024   -8.4512135    580.95561  0.014387212  0.013781437            4 
 3366000   0.69983335   -8.4416985    581.39586  0.014393837  0.013776525            4 
 3367000   0.71646084    -8.470098    578.81706  0.014325737  0.013771599            3 
 3368000   0.70902637   -8.4561504    581.12576  0.014378607   0.01376669            3 
 3369000   0.71556662   -8.4689112     581.5867   0.01438574  0.013761776            3 
 3370000   0.70234255   -8.4620081    581.06846  0.014368656  0.013756867            2 
 3371000   0.71973574    -8.438224    581.72952  0.014380736  0.013751953            3 
 3372000   0.72066291   -8.4478658    581.07442  0.014360281  0.013747049            3 
 3373000    0.7280667   -8.4611516    581.22254  0.014359683  0.013742154            6 
 3374000   0.71220726   -8.4432109    581.20351  0.014354957  0.013737249            6 
 3375000   0.72294431   -8.4442968    581.89766  0.014367844  0.013732356            2 
 3376000   0.70221785   -8.4440293     581.7177  0.014359145  0.013727458            3 
 3377000   0.70971637   -8.4518071    581.95683  0.014360794  0.013722561            5 
 3378000    0.7193072   -8.4453141    580.98317  0.014332524  0.013717678            2 
 3379000   0.73605496   -8.4478304    582.09251   0.01435564  0.013712787            3 
 3380000    0.7236118   -8.4386353    581.56323  0.014338344  0.013707897            2 
 3381000   0.71226635   -8.4576084    581.74273  0.014338527   0.01370302            3 
 3382000    0.7080011   -8.4427194    581.35944  0.014324843  0.013698148            6 
 3383000   0.70541616   -8.4911368    581.22067  0.014317191  0.013693275            2 
 3384000   0.70698806    -8.438082    581.05988     0.014309  0.013688395            1 
 3385000   0.71045979   -8.4820508    582.30734  0.014335483  0.013683528            2 
 3386000   0.70451324   -8.4513835    581.86103  0.014320265   0.01367866            2 
 3387000   0.71889095   -8.4478799    582.14465  0.014323016  0.013673779            2 
 3388000   0.70053478   -8.4732551    581.04856  0.014291828  0.013668906            2 
 3389000   0.70733446    -8.448831    582.12662   0.01431412  0.013664023            2 
 3390000   0.71288734   -8.4833239    580.42039  0.014267954   0.01365914            3 
 3391000   0.70992662   -8.4604314    580.55916  0.014267157   0.01365426            4 
 3392000    0.7051811   -8.4525901     580.1582    0.0142531  0.013649389            2 
 3393000    0.7138547   -8.4750045     581.4204    0.0142799  0.013644512            2 
 3394000   0.70284234   -8.4732259    581.25927  0.014271736  0.013639631            4 
 3395000   0.71861473   -8.4838158    581.53328  0.014274258  0.013634758            1 
 3396000   0.71611667   -8.4733971    581.19077   0.01426165    0.0136299            1 
 3397000   0.71057151   -8.4615671    580.79596  0.014247767  0.013625042            2 
 3398000   0.72127023   -8.5040416    580.60127  0.014238799  0.013620177            5 
 3399000   0.69585302   -8.4718176    580.51629  0.014232526    0.0136153            1 
 3400000    0.7186318    -8.469052    581.44563  0.014251118  0.013610433            2 
 3401000   0.70550153   -8.4641662    580.91202  0.014233853  0.013605563            3 
 3402000   0.69226709   -8.4733074    580.43258  0.014217925  0.013600695            3 
 3403000   0.70375561   -8.4865045    581.44326  0.014238497  0.013595827            4 
 3404000   0.70056846   -8.4769375    580.21503  0.014204246  0.013590954            9 
 3405000   0.69465479   -8.4861853    580.05053  0.014196048   0.01358608            5 
 3406000   0.71291282   -8.4966607    581.05291  0.014216405  0.013581208            2 
 3407000   0.70060389   -8.4845225     579.8793  0.014183527  0.013576334            2 
 3408000    0.7119658   -8.4758209    579.58222    0.0141721  0.013571467            2 
 3409000    0.7075473   -8.4706131    580.58312   0.01419241  0.013566603            3 
 3410000   0.70052598   -8.4566902    580.40826  0.014183975  0.013561732            3 
 3411000    0.7032319   -8.4801719    580.87388  0.014191192  0.013556879            4 
 3412000   0.69711316   -8.4823809    581.50106  0.014202351  0.013552013            3 
 3413000   0.71687273   -8.4784604    580.86095   0.01418256  0.013547169            1 
 3414000   0.70339482   -8.4979515    580.44363   0.01416822  0.013542327            1 
 3415000    0.6899988   -8.4700015    581.30581   0.01418511  0.013537475            3 
 3416000   0.69456486   -8.4721247    581.27684  0.014180251  0.013532627            2 
 3417000   0.70490937   -8.4806658    581.43678  0.014180001  0.013527791            2 
 3418000   0.71820481   -8.4898302    581.40645  0.014175113   0.01352295            1 
 3419000   0.70294064   -8.4592822    581.52394  0.014173831  0.013518122            2 
 3420000   0.71800965   -8.4711651    580.25101   0.01413867  0.013513297            1 
 3421000    0.7052079   -8.4614008    582.07539  0.014178978   0.01350846            3 
 3422000   0.69762728   -8.4721105    580.69276  0.014141164  0.013503636            2 
 3423000   0.71060505   -8.5117215    580.71089  0.014137474  0.013498798            2 
 3424000   0.71401688   -8.4807359    580.76104  0.014134566  0.013493959            2 
 3425000   0.69954223   -8.4663418    581.23362  0.014141937  0.013489124            2 
 3426000    0.6847893    -8.486307    578.83421  0.014079447  0.013484286            8 
 3427000   0.70160317   -8.4821994    581.17996  0.014132379  0.013479445            4 
 3428000   0.70569351   -8.5293142    579.27385   0.01408192  0.013474603            3 
 3429000   0.71741121   -8.4819719    580.82798  0.014115582  0.013469768            2 
 3430000   0.68931668   -8.5134917    580.84979  0.014111997  0.013464938            7 
 3431000     0.694018    -8.516357    580.85654  0.014108048  0.013460101            7 
 3432000   0.71362524   -8.5049558    580.06019  0.014084601  0.013455265            1 
 3433000   0.71050764   -8.5026782    581.15128  0.014106983  0.013450434            1 
 3434000   0.69789525   -8.4984371    579.39802  0.014060328  0.013445603            3 
 3435000   0.71568931   -8.4899185    580.55732   0.01408436  0.013440775            7 
 3436000   0.69369696   -8.5078299    580.93778  0.014089488  0.013435945            5 
 3437000   0.68396453   -8.5005393    580.07528  0.014064477  0.013431106            2 
 3438000   0.71159427   -8.5108926    580.40693  0.014068425  0.013426278            1 
 3439000   0.71509299   -8.4840329    580.88871  0.014076008  0.013421442            8 
 3440000   0.68803538   -8.5268616    580.65968  0.014066368  0.013416596            4 
 3441000   0.68994152   -8.5149306    581.77494  0.014089289  0.013411757            5 
 3442000   0.70462887   -8.5076266    580.38796  0.014051616  0.013406931            2 
 3443000   0.69474477   -8.4774313    581.30372    0.0140697  0.013402106            3 
 3444000   0.70744531   -8.4926667    581.09382  0.014060536  0.013397295            2 
 3445000   0.68571279   -8.4974851    579.94221  0.014028597  0.013392473            5 
 3446000   0.71088988   -8.5225712    580.65822  0.014041841  0.013387662            3 
 3447000   0.69517883   -8.4964039    579.62155  0.014012706  0.013382845            6 
 3448000   0.68541961   -8.5123946    578.25339  0.013975575  0.013378028            3 
 3449000   0.69800002   -8.5221085    580.70001  0.014030637  0.013373229            6 
 3450000    0.7000824   -8.4866957    580.70455   0.01402668  0.013368417            2 
 3451000   0.70783877   -8.4806274    580.50277  0.014017743  0.013363622            2 
 3452000   0.69542427   -8.4914248    581.77402  0.014044371  0.013358834            2 
 3453000   0.69808364   -8.4697561    581.00408  0.014021722  0.013354048            4 
 3454000   0.70793481   -8.5136858    580.78322  0.014012334  0.013349268            2 
 3455000   0.67748943   -8.5017678     580.0739   0.01399117  0.013344487            2 
 3456000   0.70055851   -8.4675117    581.03363  0.014010263  0.013339702            4 
 3457000   0.68529327   -8.4913366    581.34567  0.014013732  0.013334931            2 
 3458000   0.69388612    -8.513742     579.9639  0.013976381  0.013330154            1 
 3459000   0.70158563   -8.4967841     580.6245  0.013988255   0.01332537            3 
 3460000    0.7013744   -8.4928325    579.74022  0.013962915  0.013320584            2 
 3461000   0.69382048   -8.4931444    579.62759  0.013956169   0.01331581            1 
 3462000   0.69579631   -8.4941097    579.01486  0.013937388  0.013311028            3 
 3463000   0.70345568   -8.5164655    579.90732   0.01395484  0.013306245            7 
 3464000   0.70495488   -8.5099846     580.6694  0.013969144  0.013301462            3 
 3465000   0.71188418   -8.5007934    580.61108   0.01396371  0.013296675            2 
 3466000    0.6913288   -8.4905088    580.51546  0.013957383  0.013291899            1 
 3467000   0.69899717   -8.4765773    582.03166  0.013989801   0.01328713            3 
 3468000   0.68596129   -8.5092676    580.63198  0.013952133  0.013282364            2 
 3469000   0.67694089   -8.4861249    580.65143  0.013948579  0.013277596            2 
 3470000   0.68229744   -8.5111659    580.18344   0.01393332  0.013272831            4 
 3471000   0.70068915   -8.4964988     580.9467   0.01394763  0.013268067            2 
 3472000   0.68772846   -8.5323728    580.68191  0.013937258  0.013263309            2 
 3473000    0.6963394   -8.4917858    580.56974  0.013930553   0.01325856            3 
 3474000   0.69730995   -8.4963992    580.43737  0.013923368  0.013253803            2 
 3475000   0.69955641   -8.5105939    580.96685  0.013932059  0.013249053            2 
 3476000   0.68671231   -8.4819497    581.41699  0.013938842  0.013244289            2 
 3477000   0.67888474   -8.5012181      580.752  0.013918896  0.013239529            3 
 3478000   0.68424155   -8.5366638      581.052  0.013922082  0.013234776            4 
 3479000   0.69969325   -8.5262286    580.46689  0.013904065   0.01323002            2 
 3480000   0.69989447   -8.5138901    580.88821  0.013910158  0.013225268            2 
 3481000   0.68154259   -8.4906192    581.49767  0.013920752  0.013220516            2 
 3482000   0.69934294   -8.5115253    580.21393  0.013886031   0.01321576            1 
 3483000   0.70132755   -8.5023894    581.84667  0.013921109  0.013211003            2 
 3484000   0.69266719   -8.5171991    580.11393  0.013875668  0.013206254            3 
 3485000   0.69693618   -8.5175275     579.4187  0.013855062  0.013201485            4 
 3486000   0.69250744    -8.531337    580.78909  0.013883847  0.013196726            2 
 3487000   0.69409572   -8.5660235    580.24257  0.013866805  0.013191955            2 
 3488000   0.69248801   -8.5307336    579.83979  0.013853206  0.013187195            5 
 3489000   0.68865391   -8.5385905    579.38534  0.013838381  0.013182442            1 
 3490000   0.68364619    -8.511881    580.30376  0.013856346  0.013177678            3 
 3491000   0.68784323   -8.5390316    580.71136  0.013862106  0.013172916            2 
 3492000   0.68841931   -8.5465267    579.64923   0.01383279  0.013168153            2 
 3493000   0.68747975   -8.5282549    579.38261  0.013822469  0.013163398            1 
 3494000   0.70303996   -8.5562892    580.30999  0.013840631  0.013158642            4 
 3495000   0.67766695    -8.531591    578.54126  0.013794498  0.013153887            2 
 3496000    0.6842722   -8.5166066     580.1613  0.013829169  0.013149139            3 
 3497000   0.68281083   -8.5259907    580.29974  0.013828514  0.013144382            3 
 3498000   0.68381588   -8.5074377    580.13122  0.013820546  0.013139635            3 
 3499000   0.67692754   -8.5361685    580.76903  0.013831786  0.013134889            1 
 3500000   0.68979143   -8.5337079    579.05428  0.013787007  0.013130139            2 
 3501000   0.69035785   -8.5181505    580.65965  0.013821281  0.013125399            2 
 3502000   0.70023525   -8.4986233    579.52805  0.013790407  0.013120665            1 
 3503000   0.69983652   -8.5266522     579.9007  0.013795335  0.013115938            4 
 3504000    0.6826424   -8.5351038    579.96168  0.013792848  0.013111201            2 
 3505000   0.69913849   -8.5080335     580.9753  0.013813012  0.013106467            1 
 3506000   0.70756652   -8.5218602    580.37266  0.013794749  0.013101738            3 
 3507000   0.68716943   -8.4947305    580.69685  0.013798518  0.013097022            3 
 3508000   0.68311478   -8.5205305     579.6268  0.013769166    0.0130923            2 
 3509000   0.67619146    -8.510948    582.13994  0.013824925  0.013087587            4 
 3510000   0.68464208   -8.5322058    580.36979   0.01377896  0.013082879            7 
 3511000    0.6835385   -8.5144885    580.54964  0.013779304  0.013078176            3 
 3512000   0.69764343   -8.5349216    580.42677  0.013772465  0.013073476            8 
 3513000    0.6922188   -8.5091169    581.71548  0.013799115  0.013068769           10 
 3514000   0.70049955   -8.5218105    579.47239  0.013741994  0.013064059            6 
 3515000   0.69535156   -8.5341794    579.51919  0.013739194  0.013059345            7 
 3516000   0.69853019   -8.5183999    580.46338  0.013757664  0.013054644            8 
 3517000   0.68003184   -8.5159828    580.64065  0.013757953   0.01304994            8 
 3518000    0.6840959    -8.530698    580.04603  0.013739957  0.013045248            4 
 3519000   0.68256841   -8.5371578    580.45628  0.013745768  0.013040546            3 
 3520000   0.67709174   -8.5268726    580.23465  0.013736616  0.013035837            7 
 3521000   0.67541853   -8.5412119    581.35819  0.013759306  0.013031124            9 
 3522000   0.68356283   -8.5449031    580.31268  0.013730662  0.013026412            9 
 3523000   0.69068341   -8.5261293    580.30609  0.013726608  0.013021713            5 
 3524000   0.66342827   -8.5589917    579.81405  0.013711078  0.013017007            1 
 3525000   0.69553426   -8.5299522    580.43269  0.013721813  0.013012304            4 
 3526000   0.68252467   -8.5246334    580.32437  0.013715361  0.013007601            2 
 3527000   0.68970445      -8.5275    580.36961  0.013712542  0.013002896            4 
 3528000   0.66495448   -8.5274912    579.82131  0.013695704  0.012998203            3 
 3529000   0.68072106   -8.5139534    579.73338  0.013689746  0.012993514            4 
 3530000   0.68335424   -8.5470359    579.63919  0.013683645  0.012988832            5 
 3531000   0.70073584    -8.525475    580.85243  0.013708403  0.012984154            6 
 3532000   0.68393315   -8.5498562    580.09663  0.013686689  0.012979467            4 
 3533000   0.67815965   -8.5516689    579.84245   0.01367682  0.012974781            3 
 3534000   0.68200445   -8.5488278    579.87551  0.013673729  0.012970104            3 
 3535000   0.68609374   -8.5452083    580.52734  0.013685227  0.012965428            9 
 3536000   0.68576051   -8.5444848    579.67478  0.013661265  0.012960756            7 
 3537000    0.6806905     -8.55617    579.79938  0.013660338  0.012956078            4 
 3538000   0.67582375   -8.5424644    580.22891  0.013666594  0.012951401            6 
 3539000   0.68461063   -8.5529619    580.00317  0.013657417  0.012946716            3 
 3540000   0.68117408   -8.5653223    579.52438  0.013642288  0.012942024            4 
 3541000   0.69134314   -8.5660411    580.38782  0.013658755  0.012937346            4 
 3542000   0.67603561   -8.5256694    579.79123  0.013640863   0.01293267            7 
 3543000    0.6865972   -8.5679463    580.06957  0.013643559  0.012927986            5 
 3544000   0.67873686   -8.5459042    579.93369  0.013636515  0.012923315            4 
 3545000   0.67517166   -8.5347241     580.5656  0.013647522  0.012918646            1 
 3546000   0.69268481    -8.524272    580.45083  0.013640976  0.012913988            6 
 3547000   0.68934219   -8.5469183    580.58044  0.013640176   0.01290932            3 
 3548000   0.68990557   -8.5197759    580.79539   0.01364138  0.012904655            6 
 3549000   0.68624845   -8.5545372    580.32092  0.013626395  0.012899998            3 
 3550000   0.67368608   -8.5511861    581.23408  0.013643992  0.012895333            2 
 3551000   0.68338817   -8.5439656    579.75947  0.013605545  0.012890672            4 
 3552000   0.68897879   -8.5374186    580.03683  0.013608221  0.012886008            3 
 3553000   0.67630549   -8.5818367    579.88954  0.013600937  0.012881337            3 
 3554000   0.67745173    -8.577251    579.66351   0.01359181  0.012876677            6 
 3555000   0.69053936   -8.5555973     578.3721  0.013557714  0.012872023            6 
 3556000   0.69051765   -8.5477617    579.99109  0.013591842   0.01286737           18 
 3557000   0.68193412   -8.5392922    579.22406  0.013570051  0.012862712           10 
 3558000   0.67787332   -8.5629884    579.89862  0.013582036  0.012858063            2 
 3559000   0.67364178   -8.5562471    580.63128  0.013595375  0.012853415            6 
 3560000   0.68101499   -8.5641728    579.32695  0.013561024  0.012848773            4 
 3561000   0.68638777   -8.5747752    579.37384  0.013558313  0.012844121            5 
 3562000   0.68129279   -8.5694917    579.75168  0.013563346   0.01283946            4 
 3563000   0.68369067   -8.5536211    580.00039  0.013565357   0.01283481            6 
 3564000   0.68284325    -8.558159    579.60575  0.013552323  0.012830156            2 
 3565000   0.67757569   -8.5440821    580.05327  0.013558983  0.012825503            2 
 3566000   0.68923089   -8.5488373    581.20239  0.013582034  0.012820865            2 
 3567000   0.68100532    -8.550847    579.29466  0.013533657  0.012816223            6 
 3568000   0.67813992   -8.5353635    578.94723   0.01352175  0.012811587            5 
 3569000   0.69408101    -8.563165    578.77343  0.013513903  0.012806962            2 
 3570000   0.68530127   -8.5345506    580.47209  0.013549769   0.01280233            2 
 3571000    0.6739233   -8.5484839     579.8602  0.013531695    0.0127977            4 
 3572000   0.68174978   -8.5654197     579.3296  0.013515528  0.012793067            3 
 3573000   0.67521214   -8.5535834    579.19431   0.01350859  0.012788435            3 
 3574000   0.67608474   -8.5902749    579.51469  0.013512281  0.012783802            1 
 3575000   0.67569315    -8.569223     579.4893  0.013507909  0.012779174            3 
 3576000    0.6774373   -8.5472493    579.80441  0.013511475  0.012774544            4 
 3577000   0.70542111   -8.5584782     580.1429  0.013515583  0.012769926            3 
 3578000   0.67425833   -8.5441792    580.00935  0.013508696  0.012765312            1 
 3579000   0.67836003     -8.56797     579.6643  0.013496887  0.012760696            2 
 3580000   0.68350708   -8.5663319    579.75207   0.01349516  0.012756076            2 
 3581000   0.68799678   -8.5635434    579.18231  0.013478132   0.01275145            4 
 3582000   0.65589657   -8.5636604    579.75142   0.01348761  0.012746835            2 
 3583000   0.70259367   -8.5752819     579.6902  0.013482422  0.012742214            5 
 3584000   0.67244553   -8.5767781    579.14825  0.013466059  0.012737595            3 
 3585000    0.6801666   -8.5569789    580.65528  0.013497333  0.012732987            1 
 3586000   0.67256142   -8.5718807    579.21112  0.013460009  0.012728377            5 
 3587000   0.67609292   -8.5560243    579.54866  0.013464098  0.012723761            2 
 3588000   0.67431014   -8.5848667    579.13466  0.013450731   0.01271915            3 
 3589000   0.67802098   -8.5939207    579.10733  0.013446348  0.012714532            2 
 3590000   0.67370533   -8.5929529    579.37359  0.013448783  0.012709925            3 
 3591000    0.6870645   -8.5788794    580.01668  0.013459962  0.012705327            1 
 3592000   0.67202138   -8.5711351    579.39312  0.013441748  0.012700735            2 
 3593000   0.67126321   -8.5436693     580.1384  0.013455293  0.012696147            3 
 3594000    0.6853169   -8.5693026    578.79892  0.013420491  0.012691549            6 
 3595000   0.69939289   -8.5547885    580.01543  0.013444957  0.012686955            3 
 3596000   0.66509201   -8.5895649    580.51579  0.013452813  0.012682354            1 
 3597000   0.67497787   -8.5767112    579.32459  0.013421476  0.012677743            1 
 3598000   0.68053618   -8.6051483    579.60249  0.013424182  0.012673143            4 
 3599000   0.67536994   -8.5827107    580.85221  0.013449389  0.012668546            2 
 3600000   0.68209041   -8.6087912    579.91523  0.013423964  0.012663948            1 
 3601000    0.6691459   -8.5909076    579.57281  0.013412312  0.012659353            2 
 3602000   0.67153625   -8.5781619    580.27161  0.013424755  0.012654758            3 
 3603000    0.6682988   -8.5771815    580.03654  0.013415592  0.012650159            3 
 3604000    0.6787339   -8.5901502    580.23433  0.013416443  0.012645567            2 
 3605000   0.67053523   -8.5611265    579.54502  0.013396787  0.012640977            5 
 3606000   0.66585305   -8.5865084     579.0379  0.013381353  0.012636397            1 
 3607000   0.69462067   -8.5525063    580.71412  0.013416369  0.012631819            2 
 3608000   0.67311981   -8.5978165    579.15593  0.013376661  0.012627236            2 
 3609000   0.67910511    -8.568105    579.38368  0.013378214  0.012622651            1 
 3610000   0.66980466   -8.5663519    580.59709  0.013402518  0.012618073            4 
 3611000   0.66867878   -8.5939319    578.75385  0.013356269  0.012613492            1 
 3612000   0.66370669    -8.597051    579.42589  0.013368076  0.012608909            3 
 3613000   0.65879667   -8.5752066     579.0329  0.013355312  0.012604329            3 
 3614000   0.65913798   -8.5673195    578.82788  0.013346889  0.012599759            4 
 3615000   0.67590877    -8.576492    580.33836  0.013378017  0.012595193            3 
 3616000    0.6850663   -8.5971583    580.46442  0.013377222  0.012590632            3 
 3617000   0.67917599   -8.5867952    580.23392  0.013368213  0.012586073            2 
 3618000   0.67142388   -8.5878971    579.07201  0.013337756  0.012581505            5 
 3619000   0.66040171   -8.5821032    579.41522  0.013341973  0.012576942            1 
 3620000   0.68553432   -8.5922272    579.86802  0.013348711  0.012572376            9 
 3621000   0.66812989   -8.5954951    579.17156  0.013328997  0.012567815            2 
 3622000   0.66509152   -8.5883709    578.14601  0.013301721  0.012563259            3 
 3623000   0.67526649   -8.5756851    579.65601  0.013332782  0.012558713            3 
 3624000   0.66913469   -8.5731038    579.66749  0.013329366  0.012554154            2 
 3625000    0.6688526    -8.572324    579.01051  0.013310586  0.012549607            2 
 3626000   0.68834139   -8.5886142    577.92067  0.013281869  0.012545057            8 
 3627000    0.6768551   -8.5907547    578.92466  0.013301274  0.012540501            4 
 3628000    0.6703429   -8.5734132    578.64437   0.01329117  0.012535938            2 
 3629000   0.67370029   -8.5976148    579.31199  0.013302838   0.01253138            2 
 3630000     0.670241   -8.5844429    579.93433   0.01331346   0.01252682            3 
 3631000   0.67156021   -8.6044789    578.37319  0.013273965  0.012522259            1 
 3632000   0.66779175   -8.6031456    578.75565  0.013279085  0.012517696            3 
 3633000   0.66873991   -8.5898955    578.45162  0.013268456   0.01251314            1 
 3634000   0.66937537   -8.5667345    579.59454  0.013291014  0.012508596            1 
 3635000   0.67651392   -8.5794739    578.70423  0.013266947  0.012504047            1 
 3636000   0.66687319   -8.5723442    578.86595  0.013267005  0.012499506            2 
 3637000   0.66096823   -8.5637971     579.3291  0.013273969  0.012494975            2 
 3638000   0.66199185    -8.592157    579.48171  0.013273816  0.012490442            2 
 3639000   0.66440451   -8.5812125    579.68062  0.013274723  0.012485901            3 
 3640000   0.67438417   -8.5919166    579.71798  0.013271932  0.012481367            1 
 3641000   0.67465821   -8.5829159    578.95291  0.013250776  0.012476843            2 
 3642000   0.66647806   -8.5853669    579.38661  0.013257061   0.01247231            6 
 3643000   0.67056444   -8.5940676    579.43788  0.013254595  0.012467779            3 
 3644000   0.66644393   -8.5751848    578.45254  0.013228424  0.012463246            2 
 3645000   0.66914073   -8.5659843    578.42856  0.013224247  0.012458716            3 
 3646000    0.6735633   -8.5933244    579.75316  0.013250895  0.012454191            3 
 3647000   0.65649222   -8.5639722    579.71839  0.013246467  0.012449671            3 
 3648000   0.65146445   -8.5688674    579.01179  0.013226695  0.012445149            2 
 3649000   0.67544272   -8.5955917    579.63232  0.013237241  0.012440631            4 
 3650000   0.68544721   -8.6101346     578.9635  0.013218345  0.012436111            4 
 3651000    0.6580367   -8.6096435    577.70449  0.013185988  0.012431589            2 
 3652000   0.67180946   -8.5871327    579.57446  0.013225047  0.012427072            1 
 3653000   0.66169897   -8.6052153    579.23425  0.013213666  0.012422558            1 
 3654000   0.65523732   -8.6037419     579.6584  0.013219723  0.012418033            2 
 3655000   0.67719269   -8.5813441     580.0571  0.013225196  0.012413528            5 
 3656000   0.66393998   -8.6032392     580.1191  0.013222992  0.012409017            3 
 3657000   0.66596563   -8.6083506    578.97557  0.013193318  0.012404505            2 
 3658000   0.67174188   -8.5963358    578.81859  0.013186135  0.012399993            2 
 3659000   0.66322473   -8.5930468    578.27467  0.013170144   0.01239548            4 
 3660000   0.66166967   -8.5856167    579.26429  0.013189078  0.012390969            1 
 3661000   0.67430225   -8.6187907    578.76677   0.01317415  0.012386457            6 
 3662000   0.65586094   -8.5831372    579.59099  0.013189309  0.012381956            3 
 3663000   0.66458778   -8.6033423    579.18323  0.013176432  0.012377446            3 
 3664000   0.67741554    -8.598178    578.77363   0.01316352   0.01237294            2 
 3665000   0.66440684   -8.6121936    579.06379  0.013166525  0.012368434            4 
 3666000   0.66765106   -8.6039135    579.48502  0.013172509  0.012363929            6 
 3667000   0.66710558   -8.5981687     578.2725  0.013141362  0.012359432            3 
 3668000   0.66899498   -8.5954163    579.75461  0.013171451  0.012354942            2 
 3669000   0.66369736    -8.594752    580.10664  0.013175857  0.012350445            1 
 3670000    0.6653251   -8.6331633    578.39217  0.013133337   0.01234596            2 
 3671000   0.66061314   -8.6060524    578.72479   0.01313731  0.012341463            2 
 3672000   0.67009745   -8.6081089    578.08864  0.013119296  0.012336971            3 
 3673000   0.65131081   -8.5935938    579.08487  0.013138326  0.012332485            5 
 3674000   0.68176384   -8.6116827    578.36909  0.013118515   0.01232801            2 
 3675000   0.66871398   -8.5940912    578.86443  0.013126178  0.012323534            1 
 3676000   0.66793533   -8.5793485    580.41973  0.013157865  0.012319061            2 
 3677000   0.67596039   -8.5896411    579.94461  0.013143518  0.012314585            1 
 3678000   0.66162378    -8.603323    579.25668  0.013124358  0.012310105            4 
 3679000   0.66191545   -8.6250453      578.944  0.013113709   0.01230564            2 
 3680000   0.66694092   -8.6275327    579.05498  0.013112658   0.01230117            5 
 3681000   0.65707001   -8.5923192    579.58911  0.013121188  0.012296697            4 
 3682000   0.66358466   -8.5954261    578.58027  0.013094792  0.012292235            2 
 3683000   0.66500296   -8.5943674    577.83565  0.013074388  0.012287776            3 
 3684000   0.67781517    -8.593529     579.5477  0.013109566  0.012283314            4 
 3685000    0.6598427   -8.6077597    578.47189   0.01308168  0.012278855            4 
 3686000    0.6666476   -8.6128537     579.4509  0.013100265  0.012274391            3 
 3687000    0.6646218   -8.5883223    578.64608  0.013078521  0.012269931            1 
 3688000   0.65620345   -8.5910646    578.89788  0.013080664  0.012265468            3 
 3689000   0.66382367   -8.6182162    578.14467  0.013060104  0.012261007            2 
 3690000   0.66153692   -8.6102637    578.98374  0.013075514  0.012256548            3 
 3691000   0.66656066    -8.621901    578.34274  0.013057499  0.012252096            3 
 3692000   0.65892455   -8.6114889    578.71534  0.013062372  0.012247648            4 
 3693000   0.67731291   -8.6156172    579.26881  0.013071324  0.012243191            2 
 3694000   0.65679803   -8.6089613    577.43744  0.013026472  0.012238744            5 
 3695000   0.64450113   -8.6209096    579.01931  0.013058622  0.012234299            3 
 3696000   0.65830737   -8.6242657     578.4893  0.013043139  0.012229852            3 
 3697000   0.66563339   -8.5930266    578.22764  0.013033713  0.012225408            1 
 3698000   0.65178623   -8.6087951     578.1035  0.013027391  0.012220973            7 
 3699000   0.67075532   -8.6180264     578.9827  0.013043676  0.012216538            2 
 3700000   0.66450087   -8.6027221    578.51087  0.013029524  0.012212095            6 
 3701000   0.67303274   -8.6197216    578.38794  0.013023236   0.01220766            2 
 3702000   0.64895142   -8.6143224    579.05448  0.013034722   0.01220322            3 
 3703000   0.65322494   -8.6487824     578.3573  0.013015512  0.012198778            3 
 3704000   0.65035412    -8.627317    579.93036  0.013047389  0.012194336            2 
 3705000   0.64695566   -8.6101251    578.54017  0.013012599    0.0121899            4 
 3706000   0.66031184   -8.6044004    578.66128  0.013011812  0.012185468            4 
 3707000   0.63957749   -8.6212131     578.0542  0.012994654  0.012181038            5 
 3708000   0.66694524   -8.6620008    578.39422  0.012998791  0.012176602            3 
 3709000   0.66407059   -8.6336341    577.55922  0.012976526  0.012172164            2 
 3710000   0.64906867   -8.6222115    578.01324  0.012983226   0.01216773            2 
 3711000   0.66195692   -8.6363862    578.48974  0.012990428  0.012163297            2 
 3712000   0.65199621    -8.618881    578.59752  0.012989348  0.012158871            5 
 3713000   0.67082853   -8.6454415    578.57769  0.012985405  0.012154444            5 
 3714000   0.65808621   -8.6277143      578.189  0.012973187  0.012150022            3 
 3715000   0.66603424   -8.6354228    577.15822  0.012946573  0.012145604            4 
 3716000   0.65127133   -8.6509741    577.21324  0.012944323  0.012141178            1 
 3717000   0.67412772   -8.6330452    577.63339   0.01295026  0.012136744            2 
 3718000   0.65421009   -8.6370635    578.46772  0.012965477  0.012132321            5 
 3719000   0.66527322   -8.6436186    578.82415  0.012969977  0.012127908            9 
 3720000   0.64063771   -8.6465247    578.53164  0.012959938  0.012123493            2 
 3721000   0.66870616   -8.6368134    577.37193  0.012930483  0.012119069            3 
 3722000   0.66936931   -8.6472059    578.12428  0.012943854  0.012114648            6 
 3723000   0.64872372   -8.6275782    578.92829  0.012958374  0.012110234            2 
 3724000   0.67490394   -8.6467966    578.72691  0.012950387  0.012105818            3 
 3725000   0.67121752     -8.63728    577.97041  0.012929987  0.012101399            5 
 3726000   0.65699178   -8.6513623    579.12541  0.012952348  0.012096989            1 
 3727000   0.65394568   -8.6639826    578.72773  0.012939981  0.012092577            3 
 3728000   0.64953017   -8.6423673    577.34992  0.012905712  0.012088158            3 
 3729000   0.64867628   -8.6539341    577.60403  0.012907929  0.012083737            3 
 3730000   0.66126046    -8.625648    577.61075  0.012904619  0.012079327            1 
 3731000   0.64170464   -8.6568555    578.33799  0.012917404  0.012074917            2 
 3732000   0.65035823   -8.6463822    577.57743  0.012896959  0.012070495            2 
 3733000   0.65814519   -8.6680962    577.45016  0.012890664  0.012066078            2 
 3734000   0.65537702   -8.6537127    578.79274  0.012917174  0.012061654            1 
 3735000   0.64070698   -8.6327214    577.35915   0.01288173  0.012057238            3 
 3736000    0.6487428   -8.6343406    577.90459  0.012890449   0.01205282            2 
 3737000   0.65824185   -8.6487367    577.22596  0.012871866  0.012048403            2 
 3738000   0.65335295   -8.6481057    577.80423  0.012881314  0.012043997            3 
 3739000   0.64505743   -8.6484931    576.99614  0.012859859  0.012039585            3 
 3740000   0.64524395   -8.6405337    578.27785  0.012884979  0.012035173            1 
 3741000   0.65767419   -8.6630942      578.921  0.012895861  0.012030769            2 
 3742000   0.65436727    -8.646512     578.2697  0.012877911  0.012026364            2 
 3743000   0.65104513    -8.641086    578.45687  0.012878637  0.012021964            4 
 3744000    0.6693154    -8.654283     577.7008  0.012858369  0.012017563            2 
 3745000   0.65598288   -8.6750786    578.21425  0.012866361  0.012013161            2 
 3746000   0.63835768   -8.6522872    577.63219  0.012849978  0.012008753            2 
 3747000   0.65190018   -8.6522174    577.17054  0.012836281  0.012004358            1 
 3748000   0.64729969   -8.6566064    576.96246   0.01282823  0.011999968            1 
 3749000   0.65481534    -8.650426    576.22526  0.012808421  0.011995579            4 
 3750000   0.65827716   -8.6362297    576.74456  0.012816546  0.011991197            2 
 3751000   0.64855776   -8.6481115    578.41448  0.012850228  0.011986814            1 
 3752000   0.65444728   -8.6397171    577.67285  0.012830332  0.011982436            2 
 3753000   0.65088051   -8.6594253     577.9776   0.01283368  0.011978059            3 
 3754000   0.66406594   -8.6637297    577.82301  0.012826829  0.011973683            2 
 3755000   0.63077951   -8.6576199    578.47654  0.012837917  0.011969312            1 
 3756000   0.64666281   -8.6363652    577.72789  0.012817889  0.011964944            3 
 3757000   0.65744845   -8.6745783    577.65607  0.012812884   0.01196057            2 
 3758000   0.64535474   -8.6605123    577.16889  0.012798672  0.011956201            2 
 3759000   0.64793795   -8.6518531    578.02311  0.012814204  0.011951843            2 
 3760000    0.6451979   -8.6292612    578.89695  0.012830163  0.011947489            2 
 3761000   0.65297158   -8.6495723    577.99101  0.012806678  0.011943128            2 
 3762000   0.65463373   -8.6304064    578.59305   0.01281661  0.011938764            2 
 3763000   0.63968319   -8.6661162    577.91504  0.012798189  0.011934415            1 
 3764000    0.6545233   -8.6449119    577.60241  0.012787868  0.011930061            2 
 3765000   0.64340907   -8.6388285    577.79546  0.012788744  0.011925714            3 
 3766000   0.63777841   -8.6576687    577.92604  0.012788238  0.011921366            3 
 3767000   0.64267803   -8.6652985    577.89693  0.012784199  0.011917023            4 
 3768000   0.65254475   -8.6385321    577.87839  0.012780396  0.011912679            4 
 3769000    0.6591957   -8.6559825    577.94794  0.012778543   0.01190833            1 
 3770000   0.64347164   -8.6398071    578.19784  0.012780677  0.011903986            2 
 3771000   0.65403737   -8.6379725    577.48966  0.012761638  0.011899646            2 
 3772000   0.64263958   -8.6666856    576.95529  0.012746449    0.0118953            2 
 3773000   0.64556327   -8.6361989    578.06936  0.012767677  0.011890949            1 
 3774000   0.65688358   -8.6552647    578.15134  0.012766104  0.011886605            3 
 3775000   0.65551554   -8.6616864    577.42996  0.012746798  0.011882257            4 
 3776000   0.67290509   -8.6542041    576.87497  0.012731174  0.011877907            1 
 3777000   0.64247906   -8.6615097     578.2418   0.01275796  0.011873562            3 
 3778000   0.65609325   -8.6405935    578.18119  0.012753247  0.011869223            2 
 3779000   0.67101318   -8.6510284    577.73132  0.012739951  0.011864887            2 
 3780000   0.64598595   -8.6591769    576.69471  0.012713728  0.011860544            2 
 3781000   0.65408988   -8.6704569    577.08448  0.012718956  0.011856209            2 
 3782000   0.64349921    -8.664834    577.13838  0.012716781  0.011851868            2 
 3783000   0.64216444   -8.6631957     577.4995  0.012721374  0.011847536            1 
 3784000   0.63440955     -8.67728    576.52385  0.012696526  0.011843203            2 
 3785000    0.6467053   -8.7031036     576.3787  0.012689976  0.011838866            1 
 3786000   0.64721906   -8.6574479    577.49292  0.012711149  0.011834531            3 
 3787000   0.65473104   -8.6783673    577.54378  0.012708912  0.011830202            3 
 3788000   0.64812139   -8.6757302    577.00779  0.012693765  0.011825875            2 
 3789000    0.6447067   -8.6601511    576.59788    0.0126814  0.011821552            2 
 3790000   0.64258888   -8.6726897    577.19084  0.012691091   0.01181723            2 
 3791000   0.63697715   -8.6622294    576.50005  0.012672559  0.011812911            2 
 3792000   0.64019674   -8.6666448     577.9424  0.012700914  0.011808591            4 
 3793000   0.65204853    -8.677156    576.63817  0.012668911  0.011804262            2 
 3794000     0.643284   -8.6656086    576.81617  0.012669482  0.011799948            4 
 3795000   0.64086796   -8.6537187    576.80559  0.012665911  0.011795636            2 
 3796000   0.65051408   -8.6482169    578.13906  0.012691848  0.011791329            4 
 3797000   0.63301674   -8.6668291    577.48845  0.012674226  0.011787027            3 
 3798000    0.6464222   -8.6611422     578.4755  0.012692546  0.011782715            2 
 3799000   0.64709838   -8.6672752    577.25695  0.012662476  0.011778404            3 
 3800000   0.63588952   -8.6740641    576.72254  0.012647424  0.011774097            4 
 3801000   0.64263031   -8.6651309    576.80174  0.012645833  0.011769795            5 
 3802000   0.64562523   -8.6697488    577.45225  0.012656765  0.011765487            2 
 3803000   0.63841105   -8.6685662    577.42064  0.012652744  0.011761178            2 
 3804000   0.63956229   -8.6630091    577.73956  0.012656405  0.011756886            3 
 3805000   0.65948232   -8.6605091    577.05168  0.012638013    0.0117526            3 
 3806000   0.63854042   -8.6576823    577.41432  0.012642633  0.011748303            4 
 3807000    0.6412899   -8.6502133    576.91809   0.01262845  0.011744013            3 
 3808000   0.65426337   -8.6635091    577.99721  0.012648748   0.01173973            2 
 3809000   0.63596332   -8.6671881    577.18676  0.012627697  0.011735443            4 
 3810000   0.63992803   -8.6768607    577.03372  0.012621035  0.011731164            4 
 3811000   0.64567656   -8.6536528    577.16618   0.01262062  0.011726885            4 
 3812000   0.62988046   -8.6479054    577.36234  0.012621597  0.011722612            4 
 3813000   0.65235698   -8.6805199    577.20044  0.012614749  0.011718338            2 
 3814000   0.64970756   -8.6731737    576.79243  0.012602526  0.011714065            1 
 3815000   0.64308898   -8.6623113    576.25887  0.012587568  0.011709789            6 
 3816000   0.64078807   -8.6529517    578.09954  0.012624466  0.011705512            4 
 3817000   0.64078463   -8.6760899    575.92428  0.012573668  0.011701233            2 
 3818000   0.65042186   -8.6520235    576.09722  0.012574149  0.011696959            2 
 3819000   0.63859933   -8.6500674    577.06401  0.012591953  0.011692683            3 
 3820000    0.6490963   -8.6674512    577.07832  0.012588969   0.01168841            2 
 3821000   0.63563113   -8.6835665    576.42465  0.012571418  0.011684135            2 
 3822000   0.65068546    -8.641396    578.03636   0.01260327  0.011679868            8 
 3823000   0.64948409   -8.6659584    577.73796  0.012593468    0.0116756            2 
 3824000   0.64837373   -8.6863689    575.73422  0.012546509  0.011671328            3 
 3825000   0.63924862   -8.6821518     577.2322  0.012575865  0.011667062            5 
 3826000   0.64893656   -8.6746375    577.07121  0.012569071  0.011662798            2 
 3827000   0.63386438   -8.6597427    577.56781  0.012576601  0.011658542            2 
 3828000   0.63633425   -8.6837933    577.43847    0.0125705  0.011654286            3 
 3829000   0.63514959   -8.6756052    577.31757  0.012564585  0.011650026            2 
 3830000   0.63752375   -8.6476201    577.67696  0.012569124  0.011645775            3 
 3831000   0.63545889   -8.6715293    576.77515  0.012546227  0.011641519            3 
 3832000   0.62861797   -8.6827803    577.08763  0.012549748  0.011637269            3 
 3833000   0.65207321   -8.6695911    576.71669   0.01253841  0.011633019            3 
 3834000   0.63518938   -8.6485643    576.92833  0.012539739  0.011628768            4 
 3835000   0.65597079   -8.6435313    576.69567  0.012531414  0.011624519            5 
 3836000   0.63119827   -8.6795845    576.68015   0.01252781  0.011620277            5 
 3837000    0.6389999    -8.661829    577.05341  0.012532652  0.011616032            3 
 3838000   0.64188345   -8.6718647    576.88512  0.012525732  0.011611788            4 
 3839000   0.62897932   -8.6816514    576.08049  0.012505003  0.011607544            3 
 3840000   0.62459402    -8.668361    577.20986  0.012526256  0.011603311            3 
 3841000   0.64432194   -8.6738678     576.5242  0.012508118   0.01159908            4 
 3842000   0.62977027   -8.6627961    577.27797  0.012521212  0.011594847            8 
 3843000   0.63438873   -8.6847193    576.49892  0.012501061  0.011590616            2 
 3844000   0.64196727   -8.6580912    576.87426  0.012505946  0.011586386            1 
 3845000   0.63675775   -8.6666965    576.39136  0.012492227  0.011582155            5 
 3846000   0.62777772   -8.6462006    578.79243  0.012541004  0.011577935            2 
 3847000   0.63513118   -8.6745885     576.1848  0.012481258  0.011573713            4 
 3848000   0.63593763   -8.7002239    576.91338  0.012493793  0.011569493            3 
 3849000   0.62516346   -8.6711075    576.56408  0.012482984  0.011565263            3 
 3850000   0.63720056   -8.6795482    576.45476  0.012477376  0.011561043            3 
 3851000   0.63396698   -8.6846293    575.87079  0.012461499  0.011556817            6 
 3852000   0.63591976      -8.6821    576.47114  0.012471252  0.011552595            3 
 3853000   0.63091979   -8.6696462    577.44967  0.012489179  0.011548381            4 
 3854000   0.61637663   -8.6679402    576.43522  0.012464003  0.011544165            2 
 3855000    0.6280591    -8.677847    576.57994  0.012463898   0.01153995            4 
 3856000   0.64350249   -8.7012852    576.97937  0.012469298  0.011535736            2 
 3857000   0.64533343   -8.6885341     576.7288  0.012460652  0.011531519            3 
 3858000   0.62951274   -8.6982703    576.54117  0.012453369  0.011527305            2 
 3859000   0.63430997   -8.6904229    577.06795  0.012461518  0.011523091            3 
 3860000   0.63191301   -8.6916132    576.30205  0.012441754  0.011518884            8 
 3861000    0.6427857   -8.6957575    576.83939  0.012450129  0.011514671            5 
 3862000   0.63554601   -8.6915771    576.47614  0.012439067  0.011510462            3 
 3863000   0.61542525   -8.7043093    576.03558  0.012426344  0.011506249            3 
 3864000   0.63937503   -8.6858679     576.3398  0.012429689  0.011502041            4 
 3865000   0.63776205   -8.6765751    576.78946  0.012436168  0.011497832            4 
 3866000   0.64637616   -8.6820775    576.81699  0.012433544  0.011493631            1 
 3867000   0.64139401   -8.6804248    577.24415  0.012439534  0.011489432            2 
 3868000   0.63211848   -8.6955009    577.31679  0.012437883  0.011485229            4 
 3869000   0.62833023    -8.683806    576.11029  0.012408682  0.011481028            4 
 3870000   0.62499209   -8.7084311    575.60011   0.01239449  0.011476827            2 
 3871000   0.63497289   -8.6778497    575.94457  0.012398703  0.011472633            7 
 3872000   0.63001953   -8.6810487    577.11543  0.012420701  0.011468438            5 
 3873000   0.64174377    -8.681871    575.90945  0.012391545  0.011464243           11 
 3874000   0.62712222   -8.6787797    576.62325  0.012403701  0.011460055            2 
 3875000   0.63690133   -8.7164561    576.49526  0.012397748  0.011455871            2 
 3876000   0.65014578   -8.7141934    576.12152  0.012386514  0.011451681            1 
 3877000   0.64242655   -8.6783323    576.35588  0.012388356  0.011447494            4 
 3878000   0.61658395   -8.6986963    576.26462  0.012383201  0.011443315            2 
 3879000   0.62579096   -8.7183048    575.57103  0.012365108  0.011439133            5 
 3880000   0.63256212   -8.7090847      575.436  0.012359021  0.011434943            2 
 3881000    0.6317355   -8.7277387    575.73359  0.012362226  0.011430755            2 
 3882000    0.6317529   -8.7129741    576.62411  0.012378158  0.011426567            3 
 3883000   0.62643973   -8.7110674    576.53686  0.012373098  0.011422382            3 
 3884000   0.63150453   -8.7129724    575.98803  0.012358137  0.011418198            1 
 3885000   0.63582639   -8.7077711    576.07937  0.012356915  0.011414019            3 
 3886000   0.62436795   -8.6948843    577.54957  0.012385263  0.011409838            5 
 3887000   0.62838049   -8.6746049    576.47911  0.012359127  0.011405666            2 
 3888000   0.63047813   -8.6923247    576.49738   0.01235634  0.011401495            1 
 3889000   0.63086875   -8.6952401    576.48826  0.012352967  0.011397326            1 
 3890000   0.62746414   -8.6815212    576.34558  0.012346735   0.01139316            2 
 3891000    0.6336099   -8.7199177    576.22893  0.012341063  0.011388992            2 
 3892000   0.62619069   -8.7019836    575.57171   0.01232382  0.011384834            2 
 3893000   0.64145278   -8.7063126    577.03723  0.012352026  0.011380669            3 
 3894000   0.63969375   -8.7028254    576.25251   0.01233206   0.01137651            2 
 3895000   0.64274729   -8.7022633    576.25499  0.012328947  0.011372354            2 
 3896000   0.62001576   -8.7010804    576.10515  0.012322578  0.011368199            2 
 3897000   0.63035646   -8.6859683    578.32913  0.012366973  0.011364048            2 
 3898000   0.62359443   -8.7009199    576.90396  0.012333332  0.011359898            2 
 3899000   0.63067017   -8.7186757    576.47179  0.012320932  0.011355747            4 
 3900000   0.62327465   -8.7106586    576.70896  0.012322841  0.011351607            2 
 3901000    0.6081312   -8.7106135    575.95503  0.012303577  0.011347464            2 
 3902000    0.6383958   -8.7044355    575.96913  0.012300725  0.011343321            3 
 3903000   0.64307442   -8.7128746     575.7096  0.012292032   0.01133918            4 
 3904000   0.61635959   -8.7130719    576.25705  0.012300569  0.011335041            1 
 3905000   0.63715869   -8.6965903    577.55834  0.012325189  0.011330901            3 
 3906000   0.62101516   -8.7045383    576.10917  0.012291115  0.011326767            4 
 3907000   0.62351351   -8.6920955    576.09992  0.012287772  0.011322629            1 
 3908000   0.62178915    -8.691722     576.0143  0.012282802  0.011318493            4 
 3909000   0.63748033   -8.7027831    577.03888  0.012301503  0.011314357            3 
 3910000   0.61536707   -8.6865201    576.71883  0.012291535  0.011310227            1 
 3911000   0.63814708   -8.7087806    576.46743  0.012283036  0.011306095            3 
 3912000   0.60972686   -8.7080382    576.99309  0.012291094  0.011301969            2 
 3913000   0.62295556   -8.7130232    576.28266  0.012272823  0.011297835            3 
 3914000   0.63591867   -8.7324989    575.78809  0.012259157  0.011293702            4 
 3915000   0.63356498   -8.7255758    576.14994  0.012263728  0.011289566            2 
 3916000   0.62427346   -8.7080536    575.60362   0.01224897  0.011285433            3 
 3917000   0.63920679   -8.7133881    575.33107  0.012240045  0.011281303            2 
 3918000   0.63120948   -8.7171512    575.67832  0.012244307  0.011277178            2 
 3919000   0.63855281   -8.7175429    576.09586  0.012250061  0.011273052            3 
 3920000   0.63724236   -8.7256088    575.39584  0.012232054  0.011268929            1 
 3921000    0.6246789   -8.7012945     575.8688  0.012238987  0.011264811            8 
 3922000   0.62740191   -8.7378659    575.10566  0.012219651  0.011260691            4 
 3923000   0.62859781   -8.7205693    575.76357  0.012230512  0.011256567            3 
 3924000   0.64096907   -8.7167395    575.63672  0.012224701  0.011252446            4 
 3925000   0.61212291   -8.7130858    576.69447  0.012244044  0.011248333            2 
 3926000   0.63101999   -8.7227253    576.46231  0.012235997  0.011244223            2 
 3927000   0.63337307   -8.7090736    575.43422  0.012211065  0.011240114            3 
 3928000   0.61512056   -8.7024215    576.37127  0.012227836  0.011236006            3 
 3929000   0.62618174   -8.7248411    575.74241  0.012211386  0.011231898            1 
 3930000   0.62676507   -8.7235987     576.3027  0.012220159  0.011227797            5 
 3931000   0.62957262   -8.7267631    576.32949  0.012217618  0.011223698            9 
 3932000   0.63082037    -8.715512    575.86841  0.012204739  0.011219604            2 
 3933000   0.61577405   -8.7188171    575.46317   0.01219305  0.011215512            3 
 3934000   0.62069862   -8.7286422    575.99207  0.012201154  0.011211421            3 
 3935000   0.62333531   -8.7166706    575.32397  0.012183905  0.011207329            1 
 3936000   0.63209589   -8.7059491    576.46171  0.012204897   0.01120324            1 
 3937000   0.62689135   -8.7168042    576.11571  0.012194473  0.011199149            4 
 3938000   0.61414145   -8.7115478    576.31448  0.012195583  0.011195067            2 
 3939000   0.63718284   -8.7295919    575.09521  0.012166692  0.011190981            3 
 3940000   0.62420542   -8.7250025    574.96719  0.012160896  0.011186893            2 
 3941000   0.63248619   -8.7542641    575.52397  0.012169584  0.011182804            2 
 3942000   0.62326667   -8.7101152    576.48052  0.012186718  0.011178718            1 
 3943000   0.63583343   -8.6792083    576.35554  0.012180986  0.011174639            3 
 3944000   0.61508718    -8.722975    576.46478  0.012180206   0.01117056            4 
 3945000   0.63240247   -8.7024586    576.69573  0.012181997  0.011166482            4 
 3946000   0.61574415   -8.6973742    576.02893  0.012164828  0.011162407            3 
 3947000   0.61700889   -8.7170963    575.65152  0.012153777  0.011158334            3 
 3948000   0.60591333   -8.7113565    574.14754  0.012118953  0.011154256            2 
 3949000   0.62046374   -8.7126406    575.36318  0.012141538  0.011150186            3 
 3950000   0.62061404    -8.708192    576.43967  0.012161175  0.011146111            3 
 3951000   0.62137663    -8.726836    575.34824  0.012135076  0.011142041            4 
 3952000   0.62403229   -8.7243284    574.99278   0.01212451  0.011137973            3 
 3953000   0.61065875   -8.7252235    574.78163  0.012116992  0.011133901            4 
 3954000   0.61778938   -8.7321498    575.49826  0.012129031  0.011129834            3 
 3955000   0.61111068   -8.7362859    576.04562  0.012137497  0.011125772            2 
 3956000   0.61658966   -8.7202434    575.12043   0.01211494  0.011121708            4 
 3957000   0.62678589   -8.7198773    575.85454  0.012127338  0.011117647            6 
 3958000   0.62005248   -8.7232262    575.49764   0.01211676  0.011113585            6 
 3959000   0.61789429   -8.7210552    575.82577  0.012120606  0.011109526            4 
 3960000   0.62255528   -8.7410862    575.99247  0.012121054  0.011105471            3 
 3961000   0.62772769   -8.7297818    575.27649   0.01210293  0.011101422            4 
 3962000   0.62477533   -8.7345629    575.80948  0.012111086  0.011097373            4 
 3963000   0.61860698   -8.7110726    576.60525  0.012124763  0.011093326            3 
 3964000   0.61925681   -8.7184601    575.60538  0.012100685   0.01108928            2 
 3965000   0.60760213   -8.7383454    575.29217   0.01209105  0.011085232            6 
 3966000    0.6126384    -8.707007    576.50889  0.012113567  0.011081184            3 
 3967000   0.62048568   -8.7251462    576.37289  0.012107657  0.011077134            4 
 3968000   0.61411524   -8.7349036    575.80259  0.012092628  0.011073082            2 
 3969000    0.6261584   -8.7558445    575.73164  0.012088092  0.011069037            2 
 3970000   0.61954286     -8.74465    574.54802  0.012060202  0.011064995            5 
 3971000   0.60920101   -8.7416808    575.44212  0.012075928  0.011060956            2 
 3972000   0.61186271   -8.7444245    575.25534  0.012068969  0.011056919            4 
 3973000   0.61533535   -8.7642215    574.26738  0.012045209  0.011052876            1 
 3974000   0.60919889   -8.7272364    575.07474  0.012059108  0.011048834            6 
 3975000   0.61963129   -8.7238564    575.15722  0.012057803  0.011044792            9 
 3976000   0.58900976   -8.7413792    575.98871  0.012072198  0.011040759            4 
 3977000   0.61845287   -8.7413018     576.8068  0.012086305  0.011036729            8 
 3978000   0.62361643   -8.7372438    575.46286  0.012055113    0.0110327            6 
 3979000   0.62472175   -8.7366275    576.09057  0.012065229   0.01102867            5 
 3980000   0.62896303   -8.7669636    575.81515  0.012056431  0.011024641            2 
 3981000   0.60652749   -8.7321819    575.05194  0.012037426  0.011020617            2 
 3982000   0.61937027   -8.7659897    575.55913  0.012045018  0.011016597            2 
 3983000   0.61134565   -8.7551435    576.04169   0.01205209  0.011012575            2 
 3984000   0.61332662   -8.7231323    575.76601  0.012043298  0.011008554            2 
 3985000   0.60606299   -8.7372229    576.38181  0.012053154  0.011004534            3 
 3986000   0.62980301   -8.7421427    575.38603  0.012029311  0.011000518            4 
 3987000   0.60922822   -8.7564351    575.20691  0.012022551  0.010996505            4 
 3988000   0.60288338   -8.7289576    574.84469  0.012011967  0.010992489            4 
 3989000   0.61134325   -8.7295821    574.75501  0.012007082  0.010988478            6 
 3990000   0.62681961   -8.7504611    575.25511  0.012014518  0.010984465            5 
 3991000   0.61028848    -8.722753    575.48542  0.012016316  0.010980455            4 
 3992000   0.62207337   -8.7389993    576.36698  0.012031709  0.010976446            6 
 3993000   0.60994667   -8.7190622    575.76938  0.012016224  0.010972443            7 
 3994000   0.60665233    -8.753206    574.74237  0.011991787  0.010968439            4 
 3995000   0.61934267   -8.7297138     576.2644  0.012020534  0.010964434            4 
 3996000   0.59828355   -8.7499887    575.58035   0.01200326  0.010960435            4 
 3997000   0.62126518   -8.7389136    575.26365  0.011993655  0.010956436            2 
 3998000   0.62130257   -8.7182016    574.57149  0.011976227  0.010952439            2 
 3999000   0.61710763   -8.7512066    575.87215  0.012000337  0.010948448            3 
 4000000   0.60161863   -8.7428708    575.12648  0.011981802  0.010944456            5 
 4001000   0.61501395   -8.7541113    573.32923  0.011941374  0.010940459            3 
 4002000   0.60413364   -8.7422231    575.03586  0.011973927  0.010936463            1 
 4003000   0.61427346   -8.7535696    575.26363  0.011975677   0.01093247            4 
 4004000    0.6063606   -8.7449066    573.94051  0.011945149  0.010928475            3 
 4005000   0.62230434   -8.7700829    574.88699   0.01196186  0.010924487            2 
 4006000   0.60262352   -8.7491482    575.70366  0.011975863  0.010920501            7 
 4007000   0.61539222   -8.7668184    574.76419  0.011953336  0.010916516            4 
 4008000   0.61508424   -8.7339325    575.53066  0.011966289  0.010912532            1 
 4009000   0.60173843    -8.738106    576.54703  0.011984432   0.01090855            4 
 4010000   0.60649527   -8.7658467    575.36371  0.011956852  0.010904572           11 
 4011000   0.62013819   -8.7648255     574.2796  0.011931347  0.010900594            3 
 4012000   0.61434172   -8.7392637     574.5102  0.011933163  0.010896619            6 
 4013000   0.60307033   -8.7626731    575.30663  0.011946728  0.010892643            3 
 4014000   0.59547132   -8.7562119      574.409  0.011925116  0.010888669            2 
 4015000   0.59557762   -8.7558245    574.80472  0.011930359  0.010884695            2 
 4016000   0.60514406   -8.7758734    573.43285  0.011898922  0.010880718            2 
 4017000   0.60690893   -8.7625754    574.26889  0.011913304  0.010876749            4 
 4018000   0.61482473   -8.7364632    575.18887  0.011929419   0.01087278            2 
 4019000   0.60703861   -8.7540236    573.88777  0.011899473   0.01086882            2 
 4020000    0.6168729   -8.7646288    575.85205  0.011937231   0.01086486            3 
 4021000   0.60626753   -8.7636592    574.70906  0.011910575  0.010860894            2 
 4022000   0.59529452   -8.7629387    574.52718  0.011903845  0.010856937            2 
 4023000   0.62447164   -8.7552737    575.14937  0.011913774  0.010852983            2 
 4024000   0.60081714   -8.7618461    574.96802  0.011907058  0.010849028            1 
 4025000   0.61344722   -8.7645434    575.17587  0.011908403  0.010845071            2 
 4026000   0.60001704   -8.7681765    573.99623  0.011881028  0.010841116            2 
 4027000   0.60356933   -8.7462745    574.81532  0.011895028  0.010837162            3 
 4028000   0.60638906   -8.7615056    574.63017  0.011888244  0.010833209            2 
 4029000   0.62109202   -8.7426327    575.90373  0.011911635  0.010829261            1 
 4030000   0.61123952   -8.7622791    574.72564  0.011884318  0.010825311            3 
 4031000   0.59827275    -8.748236     575.4187  0.011895698  0.010821365            3 
 4032000   0.60935878   -8.7605575    574.93322  0.011882714  0.010817417            2 
 4033000   0.60220488   -8.7512687    574.80725  0.011877164  0.010813478            2 
 4034000   0.61616786    -8.782964    574.59183   0.01186977  0.010809537            2 
 4035000   0.60396076   -8.7681096    575.12316  0.011877802  0.010805596            3 
 4036000   0.61283073   -8.7728244    574.66572  0.011865414  0.010801655            4 
 4037000   0.61182843   -8.7540334    575.11272  0.011871702  0.010797723            2 
 4038000   0.60155917    -8.783441    574.51067  0.011856337   0.01079379            3 
 4039000   0.60292439   -8.7489625    574.36152  0.011850324  0.010789861            2 
 4040000   0.59916368   -8.7623602    575.30464  0.011866845   0.01078593            2 
 4041000   0.61046789   -8.7565371     574.1395  0.011839881  0.010782002            3 
 4042000   0.60754191   -8.7491147    575.76507  0.011870466  0.010778077            2 
 4043000    0.6022277   -8.7669919    575.14804  0.011854812  0.010774154            2 
 4044000    0.6055656   -8.7657202    574.48669  0.011838252  0.010770225            4 
 4045000   0.61031044   -8.7666193    574.79214  0.011841618  0.010766301            2 
 4046000    0.6009286   -8.7547944    575.73262  0.011858062  0.010762386            4 
 4047000   0.59639668   -8.7527313    575.80878    0.0118567  0.010758471            4 
 4048000    0.6012347   -8.7790944    575.07177  0.011838599  0.010754558            3 
 4049000   0.61027879    -8.777489    574.30538  0.011819902  0.010750647            3 
 4050000   0.60739008   -8.7465862    574.79641  0.011827087  0.010746731            1 
 4051000   0.59179557   -8.7580326    573.52028  0.011797916  0.010742817            3 
 4052000   0.60162308   -8.7638314    574.74515  0.011820195  0.010738909            1 
 4053000   0.60623069   -8.7746507    574.31996  0.011808536  0.010735003            3 
 4054000   0.59662852   -8.7497609    574.51233  0.011809578  0.010731101            1 
 4055000   0.61257228   -8.7512886    575.15933  0.011819961  0.010727204            2 
 4056000   0.60856197   -8.7429535    575.40666  0.011822129  0.010723311            2 
 4057000   0.61095053   -8.7694269    574.53504  0.011801311  0.010719416            2 
 4058000   0.59849113   -8.7601509    573.87138  0.011784775  0.010715517            4 
 4059000   0.59679958   -8.7605063    575.54786   0.01181629  0.010711619            3 
 4060000    0.6085527   -8.7595332    575.50701  0.011812541  0.010707722            2 
 4061000   0.61131124   -8.7501715    575.01657  0.011799568  0.010703836            1 
 4062000   0.61218768   -8.7594333    575.32723  0.011803037  0.010699951            3 
 4063000   0.61503277   -8.7603415    575.54629  0.011804625  0.010696069            3 
 4064000   0.60402539   -8.7629662    575.16944  0.011793993  0.010692185            3 
 4065000   0.60261746   -8.7594383    575.75817  0.011803161  0.010688301            3 
 4066000   0.60625199    -8.772102    575.03493  0.011785435  0.010684417            4 
 4067000   0.60969925   -8.7732148    574.41699  0.011769875  0.010680536            2 
 4068000   0.60707687   -8.7617487    575.30875   0.01178525  0.010676655            1 
 4069000   0.61179677   -8.7818634    574.99012  0.011775828  0.010672781            2 
 4070000    0.5924861   -8.7582647    574.90298   0.01177115   0.01066891            6 
 4071000   0.60358226   -8.7939566    574.71743  0.011764461  0.010665036            3 
 4072000   0.60459557   -8.7747023    573.28795  0.011732317  0.010661163            3 
 4073000    0.6112927   -8.7637725     574.7324   0.01175899  0.010657291            4 
 4074000   0.59235206   -8.7745293    574.09589  0.011743084   0.01065342            3 
 4075000   0.59413399    -8.764932    574.59282  0.011750364  0.010649548            3 
 4076000   0.59549471    -8.785669    574.54529   0.01174651  0.010645679            1 
 4077000   0.58870335   -8.7850919    574.03764  0.011733252  0.010641811            1 
 4078000   0.61218576   -8.7704673    575.17314  0.011753579  0.010637946            2 
 4079000   0.60652595   -8.7703438    574.92328  0.011745593  0.010634085            5 
 4080000   0.59312371   -8.7703815    574.72704  0.011738706  0.010630227            1 
 4081000    0.5984679   -8.7706728    573.93578  0.011719672  0.010626359            5 
 4082000   0.60460188   -8.7703005    574.46772  0.011727661  0.010622497            2 
 4083000   0.61039391    -8.772848    575.14732  0.011738659  0.010618642            1 
 4084000   0.58324606   -8.7595738    573.57725  0.011703747  0.010614785            5 
 4085000   0.59799597   -8.7596058    574.34095  0.011716462  0.010610932            3 
 4086000   0.59064278   -8.7576328     575.6679  0.011740657  0.010607082            4 
 4087000   0.59882654   -8.7525062    574.95887  0.011723327  0.010603232            3 
 4088000   0.59099872   -8.7414046    574.25092  0.011706028  0.010599383            2 
 4089000   0.59583851    -8.770071    574.44632  0.011707148   0.01059554            4 
 4090000   0.61596793   -8.7849648    574.69074  0.011709265  0.010591695            3 
 4091000   0.58571035   -8.7542583    575.28388  0.011718485   0.01058785            3 
 4092000   0.59524695   -8.7687962    574.78664  0.011705495  0.010584012            5 
 4093000   0.59933123   -8.7733741    574.59779   0.01169879  0.010580177            2 
 4094000   0.58712294   -8.7929184    574.00298  0.011683825  0.010576341            2 
 4095000   0.58598038   -8.7604107    574.82778  0.011697757  0.010572504            3 
 4096000   0.60181677   -8.7712682    575.13195  0.011701089  0.010568668            2 
 4097000   0.58945029   -8.7835049    574.41881  0.011683728  0.010564834            3 
 4098000   0.59537595   -8.7716104    575.41193  0.011701072     0.010561            7 
 4099000   0.59562874   -8.7712109    574.75159  0.011684793  0.010557166            1 
 4100000   0.59437721   -8.7689144    574.41493    0.0116751  0.010553334            4 
 4101000   0.59412933   -8.7843431    574.47457  0.011673465  0.010549508            2 
 4102000   0.60679963   -8.7637165    574.89579  0.011679177  0.010545686            3 
 4103000    0.5902206   -8.7834175    574.90149  0.011676446  0.010541857            2 
 4104000   0.60112711   -8.7715223    574.90019  0.011673574  0.010538034            6 
 4105000   0.58862933   -8.7736123    574.74786  0.011667638  0.010534215            3 
 4106000   0.59678658   -8.7699877    574.39562  0.011657648  0.010530394            3 
 4107000   0.58668348   -8.7947261    574.20297    0.0116509   0.01052658            1 
 4108000   0.59451334     -8.76868    575.04253  0.011665095  0.010522761            4 
 4109000   0.60588929   -8.7741921     574.0897  0.011642932  0.010518949            1 
 4110000   0.60454587   -8.7606424    573.79447  0.011634113  0.010515136            1 
 4111000   0.58560025   -8.7658285    574.28887  0.011641305  0.010511325            4 
 4112000    0.5956259   -8.7842958    574.45022  0.011641744  0.010507516            3 
 4113000   0.58095191    -8.787122    575.03174  0.011650696  0.010503704            2 
 4114000   0.59917328   -8.7863935    574.23945  0.011631815  0.010499898            3 
 4115000   0.60300701   -8.7729077     575.4792  0.011654095  0.010496092            3 
 4116000   0.60196978   -8.7924653    574.31611  0.011627715  0.010492288            3 
 4117000   0.58422184    -8.759318    575.22798  0.011643348  0.010488485            1 
 4118000   0.59941706   -8.7860198    575.13881  0.011638716  0.010484683            2 
 4119000   0.59022328   -8.8092533    574.99602  0.011633002  0.010480883            5 
 4120000   0.60678789   -8.7737698    574.24122  0.011614911  0.010477088            3 
 4121000    0.5786559   -8.7899594    574.43034  0.011615917  0.010473296            4 
 4122000   0.59947059   -8.7726553     574.3256  0.011610982  0.010469506            2 
 4123000    0.5930744   -8.7676195    574.92394  0.011620259  0.010465715            2 
 4124000   0.59011448   -8.7519318     574.7228  0.011613377   0.01046193            1 
 4125000   0.59378778   -8.7762331    574.61138  0.011608311  0.010458145            3 
 4126000   0.59962627   -8.7785825    573.47985  0.011582644  0.010454355            2 
 4127000   0.59564076   -8.7845348    573.81136  0.011586531  0.010450573            2 
 4128000   0.59080354   -8.7848237    574.30284  0.011593646  0.010446793            3 
 4129000   0.59258694    -8.819142    574.37734  0.011592341  0.010443015            1 
 4130000   0.58679413    -8.781365    574.80182    0.0115981  0.010439232            2 
 4131000   0.57971752    -8.778896    574.14467  0.011582036  0.010435451            1 
 4132000   0.57755922   -8.7893717    574.92209  0.011594912  0.010431676            3 
 4133000     0.585882   -8.7794547    574.21924  0.011577934  0.010427903            1 
 4134000   0.58832239   -8.7889228    575.11927  0.011593277  0.010424127            1 
 4135000   0.59176172   -8.7553223    574.93881  0.011586836  0.010420356            2 
 4136000   0.57646909   -8.7618276    574.81611  0.011581563  0.010416588            3 
 4137000   0.57718132   -8.7809881     574.6359  0.011575133   0.01041282            1 
 4138000   0.58497526   -8.7793249      574.974  0.011579145  0.010409056            3 
 4139000   0.59329325   -8.7973151     574.4185  0.011565163  0.010405295            1 
 4140000   0.58862104    -8.789076    573.52128  0.011544309  0.010401531            2 
 4141000   0.58498114   -8.7754465    572.95928  0.011530212  0.010397776            5 
 4142000   0.58527239   -8.7795987    575.30684  0.011574659  0.010394019            1 
 4143000   0.58868087   -8.7584311    574.64884   0.01155863   0.01039026            3 
 4144000    0.5720728   -8.7877732     574.0441   0.01154368  0.010386499            2 
 4145000   0.58737517    -8.763963     574.9432  0.011558971  0.010382745            2 
 4146000     0.586386   -8.7800607    573.89696  0.011535154  0.010378989            2 
 4147000    0.5803474    -8.801232    573.83942  0.011531216  0.010375231            1 
 4148000   0.57842433   -8.7812269    573.96663  0.011530991  0.010371477            2 
 4149000   0.58151574   -8.7875087    574.12123  0.011531317  0.010367729            1 
 4150000   0.58719578   -8.8058718     574.3187  0.011532504  0.010363978            3 
 4151000   0.57421712   -8.7852639    574.23944  0.011528135   0.01036023            2 
 4152000   0.59407747   -8.7831782    573.94898  0.011519528  0.010356483            3 
 4153000   0.58723636   -8.7933802    573.34262  0.011504587  0.010352738            4 
 4154000   0.59704269   -8.7863035    574.17963  0.011518609  0.010348988            3 
 4155000   0.57505938   -8.7747814     575.1256  0.011534809  0.010345246            3 
 4156000   0.59369621   -8.8024889      573.796  0.011505374  0.010341504            2 
 4157000   0.58042888   -8.7772408    574.48197  0.011516357  0.010337763            3 
 4158000   0.60628169   -8.7998242    573.84042   0.01150073  0.010334025            1 
 4159000    0.5856312   -8.7918534    574.41025  0.011509382  0.010330285            1 
 4160000   0.58050296   -8.8087516    574.17228  0.011501849  0.010326548            1 
 4161000   0.58629783   -8.7739367    573.92953  0.011494223  0.010322811            2 
 4162000   0.59274635   -8.7941091    573.84964  0.011489861  0.010319078            2 
 4163000   0.57403926   -8.7683797    573.60684  0.011482241  0.010315348            3 
 4164000   0.57004893   -8.7887928     575.2837  0.011513042  0.010311625            2 
 4165000   0.59008973   -8.7769911    574.21677  0.011488931  0.010307898            3 
 4166000   0.59020414   -8.7924176    574.54547  0.011492748  0.010304174            2 
 4167000   0.59116959   -8.8100833     574.1604  0.011482289  0.010300449            2 
 4168000   0.59026872   -8.8134072    573.74306   0.01147119  0.010296725            3 
 4169000   0.57280798   -8.7980381    573.31425  0.011459867  0.010292999            4 
 4170000   0.58137413   -8.7946639    574.16861  0.011474193   0.01028928            2 
 4171000   0.58777717   -8.7972406    573.71157  0.011462311  0.010285564            1 
 4172000   0.59085217   -8.7957982    573.02693  0.011445888  0.010281849            2 
 4173000   0.57009558   -8.7960255     574.6822    0.0114762   0.01027814            1 
 4174000   0.56715477   -8.7995545    573.90953  0.011458025  0.010274429            2 
 4175000   0.58132837   -8.7818741     574.6073  0.011469208  0.010270721            2 
 4176000   0.59082084   -8.7746421     573.9492  0.011453329  0.010267015            1 
 4177000   0.57430092   -8.8088834     574.1896  0.011455383  0.010263307            2 
 4178000   0.58585813   -8.7922321    574.54912  0.011459812    0.0102596            2 
 4179000   0.59109193   -8.7624904    574.34783  0.011453056  0.010255904            1 
 4180000   0.58004452   -8.7918218    574.90148  0.011461353  0.010252209            1 
 4181000   0.57707105   -8.8046676    573.74032  0.011435468  0.010248515            2 
 4182000   0.57474111   -8.7909936    573.37199  0.011425394  0.010244814            2 
 4183000   0.58533885   -8.7968259    572.69178  0.011409112  0.010241115            2 
 4184000   0.58756563     -8.79441    573.76361  0.011427733  0.010237418            8 
 4185000   0.58132706   -8.7952243    574.93559  0.011448339  0.010233724            1 
 4186000   0.58299138   -8.8045156    574.14217  0.011429809  0.010230025            1 
 4187000   0.58096086   -8.7824305    574.06357  0.011425515  0.010226337            2 
 4188000   0.59072725   -8.7895846    573.35286  0.011408645  0.010222648            2 
 4189000   0.58029048   -8.7931381    572.37451  0.011386459   0.01021896            7 
 4190000   0.58294286   -8.7829648     573.5139  0.011406402  0.010215279            2 
 4191000   0.58198723   -8.8057728    573.30944  0.011399615  0.010211596            1 
 4192000   0.57086392   -8.7911935    574.13372  0.011413282  0.010207916            3 
 4193000   0.58267417    -8.790879    574.40354  0.011415922  0.010204241            2 
 4194000   0.58409666   -8.7904209    573.58343  0.011396905  0.010200563            2 
 4195000   0.58582786    -8.792363    573.59855  0.011394489  0.010196888            3 
 4196000   0.56600699   -8.7881193    573.62493  0.011392297  0.010193215            2 
 4197000   0.57728757   -8.8010139    575.84469  0.011433657  0.010189541            2 
 4198000   0.58038054   -8.7936186    573.38105  0.011382028  0.010185871            4 
 4199000   0.58936673   -8.7873095    572.94208  0.011370606    0.0101822            3 
 4200000   0.57477074   -8.8169323    574.14572   0.01139178  0.010178529            2 
 4201000   0.58460528   -8.8025463    573.44591  0.011375187  0.010174856            3 
 4202000    0.5717632   -8.7977077     573.5718  0.011374976  0.010171187            2 
 4203000   0.56939565   -8.7919331    573.96495  0.011380065  0.010167521            3 
 4204000    0.5870149   -8.8064624    573.43919  0.011366936  0.010163856            4 
 4205000   0.58619475   -8.7964538    572.44456  0.011344522  0.010160194            3 
 4206000   0.57374357   -8.8004987    573.17721   0.01135634  0.010156536            3 
 4207000   0.58769312   -8.8064794    573.36572  0.011357375  0.010152879            1 
 4208000   0.56742631   -8.7868462    573.54523  0.011358231  0.010149223            2 
 4209000   0.58174563   -8.8049339      573.909  0.011362735  0.010145566            3 
 4210000   0.58098144    -8.803961    573.92384  0.011360329  0.010141911            2 
 4211000   0.56840619   -8.7911802    574.22483  0.011363588  0.010138254            3 
 4212000    0.5759278   -8.7899215    573.55038  0.011347546  0.010134602            3 
 4213000   0.57249571    -8.787172    573.98323  0.011353415  0.010130946            3 
 4214000   0.58296421   -8.8051282     573.2271  0.011335768   0.01012729            3 
 4215000   0.59168348    -8.807879    573.73103  0.011343041  0.010123637            3 
 4216000    0.5754898   -8.8062389    573.16445  0.011329152  0.010119987            2 
 4217000   0.57879404   -8.8267115    572.81574  0.011319574  0.010116337            2 
 4218000   0.58557848   -8.8065567    573.83515  0.011337031  0.010112689            1 
 4219000   0.57240059   -8.8028062    573.22033    0.0113222  0.010109045            2 
 4220000   0.57835159   -8.8203741    573.90037  0.011332946  0.010105401            4 
 4221000   0.56964892   -8.8127647    572.66703  0.011305912  0.010101763            3 
 4222000   0.58279174    -8.805131    574.05002  0.011330531  0.010098125            2 
 4223000   0.58849803   -8.8111456    573.77878  0.011322495   0.01009449            1 
 4224000   0.57417612   -8.7991242    572.54921  0.011295557  0.010090853            2 
 4225000   0.57262653   -8.7964236    573.62288  0.011314061  0.010087214            2 
 4226000   0.56442419   -8.8085748    573.56015  0.011310147  0.010083582            2 
 4227000   0.57666914   -8.8201524    572.65843  0.011289694  0.010079948            2 
 4228000   0.58922194   -8.8146319    573.65378  0.011306642  0.010076315            3 
 4229000   0.57664017   -8.8266999    573.68116  0.011304508  0.010072685            2 
 4230000   0.57375316   -8.8195774    573.18834  0.011292127  0.010069057            2 
 4231000   0.57216798   -8.8052458    573.94075  0.011304277  0.010065428            3 
 4232000   0.58921472   -8.8114943    574.20753  0.011306859  0.010061803            6 
 4233000   0.56837202   -8.8143362     573.0261   0.01128093  0.010058182            2 
 4234000   0.58276734   -8.8225084    573.34943  0.011284629  0.010054558            4 
 4235000   0.58682048   -8.8081247    573.76593   0.01129016   0.01005094            5 
 4236000   0.57848011   -8.8248312    574.12255   0.01129451  0.010047318            2 
 4237000   0.57096358   -8.8357009    573.01701  0.011270101  0.010043698            3 
 4238000   0.56071767    -8.824582    573.15005  0.011270058  0.010040079            4 
 4239000    0.5580672   -8.8122453    573.69888  0.011278188  0.010036458            3 
 4240000   0.58253587   -8.8100014    573.29608  0.011267612  0.010032848            3 
 4241000   0.56683066   -8.8034339    573.24399  0.011263931  0.010029236            2 
 4242000   0.57924027   -8.8298406    574.04667  0.011277044  0.010025625            2 
 4243000   0.58105134   -8.8400689    573.68401  0.011267264  0.010022015            3 
 4244000   0.57943946    -8.812202    572.99489  0.011251078  0.010018408            3 
 4245000   0.57268179   -8.8328879    571.92863  0.011227496  0.010014801            4 
 4246000    0.5678329   -8.8210215    572.95819  0.011245058  0.010011198            2 
 4247000   0.56907015    -8.800046    572.96511  0.011242546    0.0100076            1 
 4248000   0.57819272   -8.7944184    573.75195  0.011255335     0.010004            3 
 4249000   0.57007873   -8.8069543    573.67231  0.011251124  0.010000397            4 
 4250000   0.56500648   -8.8273957    573.80205  0.011251021 0.0099967956            2 
 4251000   0.56221146    -8.807791    573.85707  0.011249452 0.0099931992            2 
 4252000   0.55961714   -8.8366906    572.97603   0.01122954 0.0099895978            2 
 4253000   0.58191312   -8.8192498    573.11468  0.011229616 0.0099860033            3 
 4254000   0.56854086   -8.8315836    573.62873  0.011237046 0.0099824088            2 
 4255000   0.58190602   -8.8143998    574.24863  0.011246546 0.0099788211            3 
 4256000   0.57089774   -8.8114185    572.63442  0.011212297 0.0099752326            4 
 4257000   0.56295263   -8.8255018    573.13106  0.011219385 0.0099716437            3 
 4258000   0.57130819   -8.8251997    573.15326  0.011217185 0.0099680577            2 
 4259000   0.57616292   -8.8402442     573.7552  0.011226329 0.0099644757            3 
 4260000   0.56957882   -8.8460284    573.52812  0.011219251  0.009960897            4 
 4261000   0.57274763   -8.8199814    572.95861   0.01120548  0.009957317            3 
 4262000   0.55938324   -8.8205304    573.83385  0.011219964 0.0099537374            1 
 4263000   0.56769045   -8.8258749    573.67233  0.011214175 0.0099501574            3 
 4264000   0.56319468   -8.8159673    573.95781  0.011217124 0.0099465813            3 
 4265000   0.56640795   -8.8418075    572.70296  0.011189976  0.009943005            2 
 4266000   0.56876468    -8.813018    573.16903  0.011196457 0.0099394339            4 
 4267000   0.57370634   -8.8144251    573.49964   0.01120029 0.0099358616            5 
 4268000   0.55933367   -8.8284725    572.94369  0.011186811 0.0099322935            2 
 4269000    0.5638572   -8.8153632    572.93776  0.011184074 0.0099287301            1 
 4270000   0.57109853   -8.8126522    573.02975   0.01118325 0.0099251667            3 
 4271000   0.58719181   -8.8206223    573.38449  0.011187553 0.0099216052            2 
 4272000   0.57315321   -8.8147473    572.12667  0.011160399 0.0099180467            1 
 4273000   0.56443333   -8.8300443    573.84424  0.011191283 0.0099144888            3 
 4274000   0.56480621   -8.8349935    573.64365  0.011184754 0.0099109332            2 
 4275000   0.56800711   -8.8069907    574.73244  0.011203361 0.0099073815            4 
 4276000   0.56437414    -8.822414    572.34503  0.011154214 0.0099038247            5 
 4277000   0.57583022   -8.8196296    573.27336  0.011169694 0.0099002706            3 
 4278000   0.57480745   -8.8412001    573.45251  0.011170572 0.0098967157            1 
 4279000   0.57417352   -8.8256237    572.48306  0.011149082  0.009893163            2 
 4280000   0.56830349    -8.831633    573.46037  0.011165506 0.0098896126            1 
 4281000   0.56774365   -8.8260059    573.04473  0.011154807 0.0098860654            5 
 4282000   0.57436327   -8.8299733    574.08652  0.011172476 0.0098825184            1 
 4283000   0.55918104   -8.8259096    573.14507   0.01115155 0.0098789734            2 
 4284000   0.56383548   -8.8438928    573.30311  0.011152021 0.0098754286            2 
 4285000   0.55495609   -8.8434716    573.81589  0.011159391 0.0098718846            1 
 4286000   0.56805122   -8.8150827    573.08798  0.011142635 0.0098683447            3 
 4287000   0.57738394   -8.8278064     573.0643  0.011139575 0.0098648004            1 
 4288000   0.56603344   -8.8491808    573.04789  0.011136658 0.0098612576            2 
 4289000   0.56055198   -8.8421652    572.85969  0.011130405 0.0098577183            2 
 4290000   0.58121014   -8.8280015    573.73837  0.011144879 0.0098541821            2 
 4291000   0.56799624    -8.831824    572.43094  0.011116891 0.0098506475            3 
 4292000   0.56048941   -8.8446255    573.09796  0.011127252 0.0098471127            3 
 4293000   0.56196493   -8.8336979    573.14408  0.011125555 0.0098435785            2 
 4294000   0.55575631   -8.8394507    572.24497  0.011105515 0.0098400441            2 
 4295000   0.56254275   -8.8375275    573.29951   0.01112339 0.0098365116            1 
 4296000   0.56522865   -8.8376608    572.42064  0.011103752 0.0098329832            3 
 4297000    0.5712011   -8.8361845    572.95998  0.011111628 0.0098294563            3 
 4298000   0.55655063   -8.8435715    572.17507  0.011093824 0.0098259297            3 
 4299000   0.57972099   -8.8240561    573.05088  0.011108221 0.0098224042            3 
 4300000   0.56311418   -8.8346757    572.32401  0.011091551 0.0098188817            3 
 4301000   0.56069789   -8.8319115    573.21569  0.011106248 0.0098153566            2 
 4302000   0.55889812   -8.8238298    572.15665  0.011083152 0.0098118353            2 
 4303000   0.57311972   -8.8308621    573.41634  0.011104972 0.0098083177            3 
 4304000   0.56590754   -8.8582033     572.5541  0.011085697 0.0098047995            2 
 4305000    0.5625052   -8.8268152    573.21054  0.011095829  0.009801282            2 
 4306000   0.56419215   -8.8606097    572.96792  0.011088557 0.0097977631            1 
 4307000   0.56722093   -8.8421326    572.59936  0.011078851  0.009794247            2 
 4308000   0.56227709    -8.830465     572.7499  0.011079192  0.009790732            3 
 4309000    0.5753974   -8.8309001    573.23771  0.011086055 0.0097872246            3 
 4310000    0.5645995   -8.8379901    572.59587  0.011071073 0.0097837174            4 
 4311000   0.56073364    -8.848729     572.6245  0.011069058 0.0097802058            6 
 4312000   0.55193879   -8.8360912    572.65031   0.01106699 0.0097766974            1 
 4313000   0.56659762   -8.8396846    572.25174  0.011056723 0.0097731934            2 
 4314000   0.55559708   -8.8459056    572.19876  0.011053136 0.0097696902            2 
 4315000   0.55848761   -8.8285681    572.71474   0.01106054 0.0097661846            2 
 4316000   0.54915973   -8.8224815    572.73652  0.011058397 0.0097626843            3 
 4317000   0.55541873   -8.8366273    571.74839  0.011036761 0.0097591837            2 
 4318000   0.56315696   -8.8305189    572.96304  0.011057647 0.0097556866            1 
 4319000   0.56568379     -8.83583    572.12637  0.011038944 0.0097521884            1 
 4320000   0.56692451   -8.8409839    573.13467  0.011055839 0.0097486936            1 
 4321000   0.56926979   -8.8468534    571.80906  0.011027715  0.009745199            4 
 4322000   0.55840374   -8.8298297    571.98129  0.011028484 0.0097417053            2 
 4323000   0.56044859    -8.861014     572.9266  0.011044155 0.0097382121            1 
 4324000    0.5425029   -8.8557817    572.13899  0.011026422 0.0097347222            2 
 4325000   0.56518657   -8.8373045    572.97584  0.011039997 0.0097312362            3 
 4326000   0.57333298   -8.8337537    572.47921  0.011027878 0.0097277506            2 
 4327000   0.56156083   -8.8585668    572.61066  0.011027861 0.0097242628            2 
 4328000   0.55453813   -8.8386219    571.92911   0.01101219 0.0097207781            2 
 4329000   0.53970802   -8.8408387    571.72131  0.011005646 0.0097172948            3 
 4330000    0.5565276   -8.8415616    572.50231  0.011018135 0.0097138159            1 
 4331000    0.5483974   -8.8509438    572.18027  0.011009395 0.0097103376            2 
 4332000   0.56102464   -8.8443667    572.12244  0.011005741 0.0097068655            3 
 4333000   0.56126866   -8.8408468    571.98038  0.011000469 0.0097033944            3 
 4334000   0.56113883   -8.8572934    572.72583  0.011012264   0.00969992            4 
 4335000   0.55691106   -8.8331291    571.81963  0.010992304 0.0096964445            3 
 4336000   0.57127433    -8.843165    572.43351  0.011001566 0.0096929716            3 
 4337000   0.56156057   -8.8471989    572.79503  0.011005976 0.0096895043            2 
 4338000   0.55542735   -8.8590959    572.71544   0.01100191 0.0096860341            3 
 4339000   0.55394568   -8.8564194    572.06918  0.010986963  0.009682566            3 
 4340000   0.55498992   -8.8367302     572.3201  0.010989249 0.0096791015            3 
 4341000   0.56011636   -8.8514922    572.61605  0.010992399 0.0096756339            5 
 4342000   0.55396823   -8.8394107    572.64707  0.010990463 0.0096721728            3 
 4343000   0.56385359   -8.8794243     571.9898  0.010975321  0.009668708            2 
 4344000   0.56393037   -8.8630828    571.94102  0.010971858 0.0096652436            3 
 4345000   0.54646953   -8.8557849     572.1686  0.010973698 0.0096617841            1 
 4346000   0.55944693   -8.8498647    573.31446  0.010993144 0.0096583277            3 
 4347000   0.56500065   -8.8424595    572.36743  0.010972461 0.0096548754            6 
 4348000   0.54654388   -8.8542765    572.43064  0.010971148 0.0096514252            4 
 4349000   0.57140846   -8.8706734    572.08808  0.010962062 0.0096479732            3 
 4350000   0.54587632   -8.8360591    572.24267  0.010962503 0.0096445212            4 
 4351000    0.5413114   -8.8591993    571.77576  0.010951041  0.009641068            3 
 4352000   0.55720254   -8.8410362    571.99859  0.010952792 0.0096376151            5 
 4353000   0.55894528   -8.8626138     571.5161  0.010941039 0.0096341645            5 
 4354000   0.56320312   -8.8572611    571.29194  0.010934236 0.0096307193            3 
 4355000   0.55523334   -8.8539553    572.03946  0.010946029 0.0096272734            6 
 4356000   0.56277152   -8.8294646    572.06258  0.010943958 0.0096238317            3 
 4357000   0.55091616   -8.8532236     571.3229  0.010927299  0.009620392            3 
 4358000   0.54805302   -8.8542983    571.90637  0.010935949 0.0096169557            3 
 4359000   0.55514414   -8.8275312    573.43008  0.010962569 0.0096135196            1 
 4360000   0.53670994   -8.8587488    572.18527  0.010936263 0.0096100842            2 
 4361000   0.56648078   -8.8456504    572.41054   0.01093806 0.0096066481            3 
 4362000   0.55186415   -8.8626652    571.68361  0.010921665 0.0096032143            2 
 4363000   0.55380556   -8.8484535    572.32937  0.010931495 0.0095997826            2 
 4364000   0.54899457   -8.8719141     571.5857   0.01091479 0.0095963528            3 
 4365000   0.55751929   -8.8677207    570.25832  0.010886948 0.0095929205            4 
 4366000    0.5568706   -8.8509323    572.54221  0.010928046 0.0095894933            4 
 4367000   0.54677733   -8.8515583    571.85517  0.010912434 0.0095860682            3 
 4368000   0.54632377   -8.8508131    571.67987  0.010906591 0.0095826403            2 
 4369000   0.55942701   -8.8577194    572.23388  0.010914662 0.0095792178            3 
 4370000   0.54190843   -8.8578787    572.39996  0.010915331 0.0095757934            3 
 4371000   0.55414166   -8.8529258    572.59797  0.010916609 0.0095723735            3 
 4372000   0.55136863   -8.8420414    572.08767  0.010904385 0.0095689525            2 
 4373000   0.55045368   -8.8611881    570.95394  0.010880287 0.0095655365            2 
 4374000   0.56158539   -8.8728559    571.39248  0.010886154 0.0095621187            2 
 4375000   0.54606756   -8.8567539    571.86057  0.010892582 0.0095587028            2 
 4376000   0.54888605   -8.8547937    571.97447  0.010892262  0.009555291            2 
 4377000   0.54702352    -8.859815    572.24811  0.010894983 0.0095518778            4 
 4378000   0.54079881   -8.8634618    571.45982   0.01087749 0.0095484673            2 
 4379000   0.53788408   -8.8622997    573.18701  0.010907875 0.0095450579            2 
 4380000   0.56469436   -8.8540527    572.60318  0.010894277 0.0095416537            4 
 4381000   0.55257873   -8.8637652    571.63249  0.010873326  0.009538248            1 
 4382000   0.55389521   -8.8651325    571.83178  0.010874635 0.0095348491            2 
 4383000   0.54746289   -8.8871406    571.81029  0.010871745 0.0095314457            1 
 4384000   0.55631958   -8.8605213    571.99187  0.010872716 0.0095280506            2 
 4385000   0.54558619   -8.8519584     571.8156  0.010866887 0.0095246574            3 
 4386000   0.55816662   -8.8792774    571.71337  0.010862467 0.0095212637            2 
 4387000   0.55145369   -8.8679517    571.93234   0.01086415  0.009517871            4 
 4388000   0.55050008   -8.8441609    572.55708  0.010873539 0.0095144795            3 
 4389000   0.53460419   -8.8536486     571.9915  0.010860323 0.0095110859            4 
 4390000   0.55807512   -8.8736664    571.97031  0.010857447 0.0095076966            1 
 4391000   0.55463311   -8.8734299    572.25255  0.010860331 0.0095043091            6 
 4392000   0.55865055   -8.8560821    572.53482  0.010863214 0.0095009218            1 
 4393000   0.55212482   -8.8505385     571.5977  0.010842964 0.0094975359            2 
 4394000   0.54656657   -8.8676505    572.21838  0.010852268 0.0094941519            2 
 4395000   0.54279576   -8.8590004    572.11685  0.010847874 0.0094907721            3 
 4396000   0.55784682   -8.8682958    573.11163  0.010864264 0.0094873909            2 
 4397000   0.54493847   -8.8618929    572.26791  0.010845802 0.0094840159            3 
 4398000   0.55207628   -8.8403503    572.11571  0.010840452   0.00948064            3 
 4399000   0.55194735    -8.859241    572.03442  0.010836448 0.0094772654            2 
 4400000   0.55645905   -8.8348828     571.5728  0.010825242 0.0094738937            2 
 4401000   0.54664448   -8.8556417    571.89247  0.010828836 0.0094705216            2 
 4402000   0.54672523   -8.8635373    572.34452  0.010834933 0.0094671515            1 
 4403000   0.55378944   -8.8553213    572.38771   0.01083329 0.0094637793            5 
 4404000   0.55220094    -8.868967    571.36263  0.010811433 0.0094604117            3 
 4405000   0.54961353   -8.8594781    572.55805  0.010831594 0.0094570452            3 
 4406000    0.5415607   -8.8795035    571.40027  0.010807238 0.0094536798            2 
 4407000    0.5541859    -8.862969    571.99955  0.010816117 0.0094503163            1 
 4408000   0.53854591   -8.8732016     571.9216   0.01081219 0.0094469546            3 
 4409000   0.55309288   -8.8760461    572.70495  0.010824544 0.0094435962            3 
 4410000   0.53406832   -8.8729141    572.04194   0.01080956 0.0094402392            1 
 4411000   0.54939793    -8.844552    572.58893  0.010817444 0.0094368819            2 
 4412000   0.52766138   -8.8700994    572.44139  0.010812205 0.0094335292            5 
 4413000   0.55265095   -8.8692874    571.86113  0.010798798 0.0094301758            1 
 4414000   0.53728395    -8.871506    571.38402  0.010787344 0.0094268228            2 
 4415000   0.53496615   -8.8621754    571.49323  0.010786962 0.0094234711            3 
 4416000   0.53715039   -8.8961771    571.45264  0.010783753 0.0094201208            3 
 4417000   0.54477225   -8.8671491    572.83678  0.010807426 0.0094167711            4 
 4418000   0.54510695   -8.8631211    572.31796  0.010795193 0.0094134256            2 
 4419000    0.5416526   -8.8829289    571.78202  0.010782643 0.0094100821            2 
 4420000   0.53458781   -8.8749915      571.427  0.010773511 0.0094067345            4 
 4421000   0.55082923    -8.875153    572.13458  0.010784411  0.009403391            2 
 4422000   0.54517737     -8.88596    571.14766  0.010763374 0.0094000502            2 
 4423000   0.53275709   -8.8619822    571.24828  0.010762836  0.009396709            3 
 4424000   0.54583485   -8.8501671    572.25123  0.010779295 0.0093933686            3 
 4425000   0.54519429   -8.8700783     571.7028  0.010766531 0.0093900336            2 
 4426000   0.54604936   -8.8640465     571.5751  0.010761694 0.0093866946            3 
 4427000   0.52879968   -8.8655646    571.81953  0.010763864  0.009383358            2 
 4428000   0.54217789   -8.8746289    571.01801  0.010746349 0.0093800223            1 
 4429000   0.54479123    -8.881269    571.84249  0.010759436 0.0093766909            7 
 4430000   0.53273065   -8.8804161    571.88598  0.010757825 0.0093733597            2 
 4431000   0.54016397   -8.8725152    571.51601  0.010748439 0.0093700315            4 
 4432000   0.53309943    -8.885789    571.04371  0.010737134 0.0093667026            5 
 4433000   0.54529095   -8.8671673     572.0735   0.01075407 0.0093633756            4 
 4434000   0.53835305   -8.8706119    571.57229  0.010742225 0.0093600517            3 
 4435000   0.54992036   -8.8719713     572.1403  0.010750475 0.0093567304            2 
 4436000   0.54150865   -8.8591144    571.37502  0.010733676 0.0093534073            4 
 4437000   0.54525587   -8.8767369    571.33839  0.010730569 0.0093500887            3 
 4438000   0.53548726   -8.8674678       571.99  0.010740386   0.00934677            2 
 4439000   0.54668729   -8.8699389    571.84639  0.010735271 0.0093434538            5 
 4440000   0.54588662     -8.86748     571.1441  0.010719672 0.0093401366            3 
 4441000   0.54167122   -8.8773211    571.34887    0.0107211 0.0093368216            2 
 4442000   0.55540709   -8.8776756    572.16319  0.010733963 0.0093335076            1 
 4443000   0.53457319    -8.877256    570.98953  0.010709534 0.0093301961            3 
 4444000   0.54537006   -8.8694499    571.94018  0.010724951 0.0093268831            1 
 4445000   0.55225219   -8.8643564    571.37958  0.010712028 0.0093235739            6 
 4446000   0.55159302   -8.8744814    571.35873  0.010709228 0.0093202635            7 
 4447000     0.540769   -8.8599483    571.00721  0.010700233 0.0093169528            6 
 4448000   0.53821727   -8.8864202    571.06916  0.010698987 0.0093136469            2 
 4449000   0.54082864   -8.8684599    571.14648  0.010698031 0.0093103441            4 
 4450000   0.54082785    -8.892692    571.33761  0.010699206 0.0093070458            2 
 4451000    0.5418429   -8.8844763    571.73234  0.010704193 0.0093037462            2 
 4452000   0.53195644    -8.868624    571.07102   0.01068941 0.0093004466            3 
 4453000   0.55193511   -8.8803504    571.04182  0.010686463 0.0092971492            1 
 4454000   0.53893552   -8.8730465    570.67744  0.010677246 0.0092938542            3 
 4455000   0.54650948   -8.8753406    571.75748  0.010695052 0.0092905562            1 
 4456000   0.53339972   -8.8801646     571.6434  0.010690518 0.0092872644            2 
 4457000   0.53528169   -8.8841188    572.06477  0.010695998 0.0092839768            3 
 4458000    0.5345559   -8.8863219    571.07466  0.010675091 0.0092806859            2 
 4459000   0.52797384   -8.8638636    571.86632  0.010687492 0.0092773962            2 
 4460000   0.54394479   -8.8740575    571.85472  0.010684879 0.0092741116            3 
 4461000   0.53506611    -8.884961    571.26451  0.010671458 0.0092708265            1 
 4462000   0.54571567   -8.8781085    571.44881  0.010672509 0.0092675428            2 
 4463000   0.55977645    -8.891085    571.56405  0.010672269 0.0092642612            4 
 4464000   0.54126581   -8.8845495    572.87605  0.010694371 0.0092609795            2 
 4465000   0.54415098   -8.8829064    572.55935  0.010686065  0.009257698            1 
 4466000    0.5423041   -8.8775895    571.20203  0.010658345 0.0092544174            1 
 4467000   0.53863987   -8.8908626    571.62586  0.010663866 0.0092511393            2 
 4468000   0.54016037   -8.8704441    572.13108  0.010670902  0.009247863            2 
 4469000   0.53811336    -8.882057    570.88495  0.010645278 0.0092445897            2 
 4470000   0.52414662   -8.8890245    571.03357  0.010645667 0.0092413195            1 
 4471000   0.53520446   -8.8885591    571.42948  0.010650665 0.0092380496            3 
 4472000   0.54282965   -8.8746237    571.41336  0.010647983 0.0092347823            5 
 4473000   0.52767655    -8.887215    571.22001     0.010642 0.0092315143            1 
 4474000   0.51487347    -8.881845    571.10102  0.010637405 0.0092282483            1 
 4475000   0.54105317   -8.8842456    572.87603  0.010668082 0.0092249826            2 
 4476000    0.5422566   -8.8817996     571.1522  0.010633605 0.0092217223            2 
 4477000   0.53744688   -8.8910773    571.37936  0.010635458 0.0092184606            3 
 4478000   0.54211928   -8.8790661    571.49277  0.010635194 0.0092152022            3 
 4479000   0.53151928   -8.8760402    571.28069  0.010628873 0.0092119421            6 
 4480000   0.52799614   -8.8924135    571.84937  0.010637079 0.0092086839            3 
 4481000   0.52364914   -8.8933853    571.34871  0.010625394 0.0092054279            4 
 4482000   0.53622166   -8.8904601    571.56377  0.010627022 0.0092021735            3 
 4483000   0.54254853   -8.8916617    570.57415  0.010606256 0.0091989203            3 
 4484000   0.54029898   -8.8981009    571.87894   0.01062814 0.0091956687            2 
 4485000    0.5472602   -8.8864779    571.43211  0.010617468 0.0091924157            2 
 4486000   0.54576514   -8.8930562    571.76236  0.010621236 0.0091891684            3 
 4487000   0.52541247   -8.8748618    570.62114  0.010597674 0.0091859219            1 
 4488000   0.53454167   -8.8819942    571.19557  0.010605978 0.0091826733            3 
 4489000   0.53637814   -8.8821683     571.3669  0.010606796 0.0091794251            4 
 4490000   0.52756369   -8.8873392    570.05323  0.010580052 0.0091761804            5 
 4491000   0.53877584   -8.8711288     571.8902  0.010611783 0.0091729395            3 
 4492000   0.53852591   -8.8996482    571.17241  0.010596104 0.0091697008            2 
 4493000   0.53614568   -8.8782312    571.20119   0.01059428 0.0091664613            1 
 4494000   0.52533734   -8.8899486    571.46653  0.010596843 0.0091632216            1 
 4495000   0.52146889   -8.8927845    571.37044  0.010592704 0.0091599837            3 
 4496000   0.53075368   -8.9092156    570.79768  0.010579732  0.009156746            3 
 4497000   0.52458967   -8.8984166    571.91209   0.01059803 0.0091535093            3 
 4498000   0.54246844   -8.9129173    571.48073  0.010587682 0.0091502749            2 
 4499000   0.51824228   -8.8636841    570.99787  0.010576385 0.0091470416            3 
 4500000   0.52704761   -8.8961341    571.43244  0.010582082 0.0091438075            2 
 4501000   0.53614252   -8.9043908    571.29884  0.010577258 0.0091405798            1 
 4502000   0.54272004   -8.9003944    571.71745  0.010582657 0.0091373489            1 
 4503000    0.5387262   -8.8868532    570.73782  0.010562177 0.0091341214            2 
 4504000   0.52733897   -8.8915046    571.74677    0.0105785 0.0091308945            2 
 4505000   0.52425398   -8.8948925    571.08377  0.010563888 0.0091276709            2 
 4506000   0.53830565   -8.8906057    570.59158  0.010552441 0.0091244506            2 
 4507000    0.5283314   -8.8936953    571.27377  0.010562713 0.0091212307            1 
 4508000   0.54013014   -8.8941347    571.64615  0.010567254 0.0091180154            4 
 4509000   0.51484237   -8.8840277    570.62086  0.010545961 0.0091147975            2 
 4510000   0.52716214   -8.8895159    571.05038  0.010551559 0.0091115824            1 
 4511000   0.52592021   -8.8989575    571.59097  0.010559206 0.0091083697            2 
 4512000    0.5236986   -8.8982598    570.84863  0.010543156 0.0091051571            4 
 4513000   0.52641493   -8.8952564    571.86325  0.010559555 0.0091019412            2 
 4514000   0.53322548    -8.868203    571.48917   0.01055031 0.0090987307            2 
 4515000   0.52651645    -8.884211    571.93849  0.010556266 0.0090955228            2 
 4516000   0.53910692   -8.9096223    570.93575  0.010535425 0.0090923136            1 
 4517000   0.51843529   -8.8871159    571.68371  0.010546892 0.0090891032            2 
 4518000   0.52884638   -8.8960424    571.21909  0.010535987 0.0090858965            2 
 4519000   0.50899291   -8.9022114    571.05027  0.010530543 0.0090826903            3 
 4520000    0.5298946   -8.9108564    571.72799  0.010540708 0.0090794884            4 
 4521000   0.52869856   -8.8746542    570.91559  0.010523402  0.009076286            3 
 4522000   0.53316473   -8.9133247    571.06615  0.010523849 0.0090730877            4 
 4523000   0.53494921   -8.8898075    571.96052  0.010538001 0.0090698948            4 
 4524000   0.54078434   -8.8811192    570.46301  0.010508087  0.009066698            5 
 4525000   0.51619544   -8.8998867    571.55081  0.010525798  0.009063504            4 
 4526000   0.52184866   -8.8958175    571.42454  0.010521147 0.0090603141            4 
 4527000   0.53301944   -8.9045659    571.52223  0.010520621 0.0090571186            3 
 4528000   0.52196772   -8.8982506    571.26052  0.010513481 0.0090539287            5 
 4529000   0.53356658   -8.9087002    571.62952   0.01051795 0.0090507396            3 
 4530000   0.53083822     -8.88773    570.83463  0.010501005 0.0090475519            2 
 4531000   0.52474699   -8.9087806    571.64737  0.010513635 0.0090443673            1 
 4532000   0.52354634   -8.9035029    570.65069  0.010492988 0.0090411843            2 
 4533000   0.52851211   -8.9003579    570.82306  0.010493843  0.009038004            6 
 4534000   0.52571088   -8.8891897    571.57538  0.010505355 0.0090348204            3 
 4535000   0.54099596   -8.8920438    571.72475  0.010505784 0.0090316429            2 
 4536000   0.52772198   -8.9131235    570.52136  0.010481359 0.0090284638            3 
 4537000   0.51593539   -8.8954529    571.18336  0.010491208 0.0090252898            6 
 4538000   0.52503244   -8.9057337    571.85018  0.010501142 0.0090221104            4 
 4539000    0.5290366   -8.8921684    570.95821  0.010482452  0.009018936            3 
 4540000   0.53151981   -8.8940553    571.23405  0.010485207 0.0090157619            3 
 4541000   0.52890079     -8.89475    570.64608  0.010472107 0.0090125911            2 
 4542000   0.51936879   -8.8937294    570.96541  0.010475661 0.0090094207            2 
 4543000   0.52068487   -8.8834122    569.84355  0.010452776 0.0090062493            2 
 4544000   0.52623766   -8.9075447    570.78923  0.010467819 0.0090030796            3 
 4545000   0.52398793   -8.9129199    571.21196  0.010473267 0.0089999126            3 
 4546000   0.52908118   -8.8864897    570.95227  0.010466202 0.0089967486            9 
 4547000   0.52334837   -8.9061723    570.71711  0.010459591 0.0089935844            3 
 4548000    0.5181828   -8.9073607    570.28399  0.010449355 0.0089904215            3 
 4549000   0.51662139   -8.9074619    572.70069  0.010491329 0.0089872593            4 
 4550000    0.5239223   -8.9008988    570.35296  0.010446025  0.008984102            4 
 4551000   0.51712974   -8.9013751    570.94219  0.010454519 0.0089809448            5 
 4552000   0.51750039   -8.9103432    571.30394  0.010458845 0.0089777864            3 
 4553000   0.53260105   -8.9027508    571.47721  0.010459719 0.0089746306            4 
 4554000    0.5283178    -8.903316    570.71079  0.010443398 0.0089714773            4 
 4555000   0.52578394   -8.8899039    570.82963  0.010443279  0.008968324            4 
 4556000   0.52001332    -8.926816    571.55139  0.010454188 0.0089651725            6 
 4557000    0.5209312   -8.9122133    570.08723  0.010425119 0.0089620204            4 
 4558000   0.52848695   -8.9200881    570.70846   0.01043419 0.0089588692            4 
 4559000   0.52054968   -8.9149718    570.04584  0.010419789 0.0089557204            4 
 4560000   0.53037461   -8.9185533    570.78289  0.010430974 0.0089525725            3 
 4561000   0.51424349   -8.9135036    570.77595   0.01042856 0.0089494256            2 
 4562000   0.52345334   -8.9153555     570.7302  0.010425438 0.0089462842            5 
 4563000   0.52600364   -8.9213365    570.32494  0.010415753 0.0089431403            7 
 4564000   0.52207546   -8.9066393    571.14238  0.010428396 0.0089399977            2 
 4565000   0.51068698   -8.9101597    571.11763   0.01042566 0.0089368579            4 
 4566000   0.51839679   -8.9062426    570.21007  0.010406813 0.0089337204            4 
 4567000   0.52757992   -8.9288569    570.61853  0.010411987 0.0089305855            4 
 4568000   0.51579084   -8.9200224    570.41067  0.010405916  0.008927447            5 
 4569000   0.52227971    -8.915691    571.25313  0.010419004 0.0089243147            7 
 4570000   0.52695174   -8.8775781    570.89891  0.010410265 0.0089211836            5 
 4571000   0.51571622   -8.9083435    571.02927  0.010410364 0.0089180555            4 
 4572000   0.51683179   -8.9170176    571.10682    0.0104095 0.0089149239            4 
 4573000   0.51471179   -8.9072415    570.97875   0.01040489 0.0089117958            4 
 4574000     0.514774   -8.9094826    570.88149  0.010400843 0.0089086709            6 
 4575000   0.52236516   -8.9124775    570.36358  0.010389136  0.008905549            5 
 4576000   0.50773771   -8.9281692    570.79813  0.010394779 0.0089024268            4 
 4577000   0.52206509   -8.9112344    570.63017   0.01038945 0.0088993023            4 
 4578000   0.52679272   -8.8952989    570.68768  0.010388228 0.0088961842            2 
 4579000   0.52641319   -8.9041663     570.6731  0.010385694 0.0088930654            4 
 4580000   0.52126646   -8.9194322    570.10994  0.010373179  0.008889944            3 
 4581000   0.51911608   -8.9000962    569.95686   0.01036813 0.0088868268            4 
 4582000    0.5186743   -8.9166484    569.18246  0.010351783 0.0088837105            2 
 4583000   0.52037559   -8.9144228    570.68836  0.010376907 0.0088805945            3 
 4584000   0.52786057   -8.9253565    570.55067   0.01037214 0.0088774828            2 
 4585000   0.51031999   -8.9255578    570.59672  0.010370715 0.0088743727            5 
 4586000     0.523715   -8.9039663    571.16177  0.010378721 0.0088712622            3 
 4587000   0.52172124   -8.9129313    570.69576  0.010367992 0.0088681549            4 
 4588000   0.51380834   -8.9145944    570.71565  0.010366094 0.0088650488            5 
 4589000   0.50600536   -8.8992947    570.60921  0.010361902 0.0088619397            1 
 4590000   0.51239078   -8.9116646    570.93519  0.010365563 0.0088588315            3 
 4591000   0.52211411   -8.9197325    571.14963  0.010367197 0.0088557272            3 
 4592000    0.5155774   -8.9193894    571.17209  0.010365347 0.0088526231            3 
 4593000   0.50757277   -8.9094988    570.45595  0.010350097 0.0088495198            5 
 4594000   0.51566358   -8.9219436    570.34059  0.010345752 0.0088464206            5 
 4595000    0.5202242   -8.9210471    570.30975  0.010342941 0.0088433223            4 
 4596000   0.50629873   -8.9201354    570.45239  0.010343277 0.0088402277            3 
 4597000   0.50797026   -8.9286084     571.0171  0.010351264 0.0088371306            3 
 4598000   0.51924136   -8.9241464     570.5996  0.010341446 0.0088340346            2 
 4599000   0.51115224   -8.9148667    569.86468   0.01032588 0.0088309432            3 
 4600000   0.50803198   -8.9107459    570.70548  0.010338867 0.0088278541            3 
 4601000   0.52300868   -8.9247664    570.68922  0.010336326 0.0088247637            3 
 4602000   0.51777673   -8.9192248    570.04339  0.010322385 0.0088216769            1 
 4603000   0.51313393   -8.9221599    569.98882  0.010319154 0.0088185899            2 
 4604000    0.5126082   -8.9148357    570.81625   0.01033189  0.008815504            5 
 4605000   0.51084875   -8.9438818    570.45104  0.010323037 0.0088124193            1 
 4606000   0.51510784   -8.9199902    570.44195  0.010320632 0.0088093364            3 
 4607000    0.5237847   -8.9148684    569.88601  0.010308335 0.0088062528            2 
 4608000   0.50207227   -8.9168736    570.77191  0.010322119 0.0088031744            3 
 4609000   0.51749276   -8.9188917    569.98604  0.010305671 0.0088000943            4 
 4610000    0.5072803   -8.9242948    570.45898  0.010311984 0.0087970182            3 
 4611000    0.5026857    -8.935921    570.47381  0.010310016 0.0087939438            3 
 4612000   0.51539927   -8.9188514    571.32677  0.010323193 0.0087908672            1 
 4613000   0.51161649   -8.9200289    570.55393  0.010306993 0.0087877946            2 
 4614000   0.51851755   -8.9129102    571.19406  0.010316321 0.0087847216            2 
 4615000    0.5311361   -8.9396225    570.51013  0.010301736 0.0087816524            1 
 4616000   0.50467785    -8.919012    570.57699  0.010300711 0.0087785821            2 
 4617000   0.51400067   -8.9306138    571.08601  0.010307667 0.0087755132            2 
 4618000   0.51160837   -8.8945312    570.34712  0.010292102 0.0087724466            1 
 4619000   0.51711955    -8.905393    570.10109  0.010285435 0.0087693818            1 
 4620000   0.50218677   -8.9100854    570.98454  0.010299144 0.0087663174            3 
 4621000   0.51988198   -8.9222971    570.36305  0.010285707 0.0087632542            2 
 4622000   0.52546574   -8.9264376    570.05573  0.010277941 0.0087601923            3 
 4623000   0.51839164   -8.9292149    570.38711  0.010281691 0.0087571305            1 
 4624000   0.51092323   -8.9202539    570.58145   0.01028297 0.0087540705            2 
 4625000   0.51187638   -8.9107215    570.27778  0.010275275 0.0087510172            2 
 4626000   0.51032243   -8.9212198    570.17409  0.010271186   0.00874796            1 
 4627000   0.50771931   -8.9233164     570.2859   0.01027098 0.0087449035            2 
 4628000   0.51280545    -8.923167     570.9494  0.010280708 0.0087418523            1 
 4629000   0.50703261   -8.9182506    569.92781  0.010260096 0.0087387992            2 
 4630000   0.51322191   -8.9132348    570.96818  0.010276605 0.0087357481            3 
 4631000   0.52191233    -8.914765    570.36922  0.010263608 0.0087326973            3 
 4632000   0.51186263    -8.921457      570.529  0.010264267 0.0087296484            3 
 4633000   0.50764928   -8.9414877    570.13636  0.010254989 0.0087265975            2 
 4634000   0.51936137   -8.9399486    570.02185  0.010250717  0.008723553            2 
 4635000    0.5190252    -8.913972    570.15211  0.010250847 0.0087205037            1 
 4636000   0.50239958   -8.9308151    570.71569  0.010258766 0.0087174621            2 
 4637000   0.50969793   -8.9344334    570.20777  0.010247426 0.0087144215            1 
 4638000   0.51592182   -8.9230293    569.27532  0.010228463 0.0087113796            2 
 4639000   0.51447208   -8.9195784    570.76179   0.01025296 0.0087083403            1 
 4640000   0.50959754   -8.9208275    570.03975  0.010237783 0.0087053017            2 
 4641000   0.50617469   -8.9161595    570.39166  0.010241896 0.0087022649            2 
 4642000   0.51345725    -8.910452     570.7909  0.010246857 0.0086992313            4 
 4643000   0.50558287   -8.9381537    570.05713   0.01023148 0.0086961962            3 
 4644000   0.49909269   -8.9178775    569.34026  0.010216413 0.0086931627            1 
 4645000    0.5014615   -8.9262415    570.11857  0.010228177 0.0086901311            1 
 4646000   0.51668042   -8.9238583    570.77635  0.010237774 0.0086871018            3 
 4647000   0.50839227   -8.9176585    569.78148   0.01021773 0.0086840739            1 
 4648000   0.50410667   -8.9439772    569.95766   0.01021869  0.008681046            1 
 4649000   0.50296527   -8.9424611     570.6114   0.01022821 0.0086780208            2 
 4650000   0.51159954   -8.9293788    570.66825   0.01022703 0.0086749954            3 
 4651000    0.5089704   -8.9361119    571.13989  0.010233281 0.0086719716            1 
 4652000   0.51040684   -8.9245967    569.68917  0.010205094   0.00866895            2 
 4653000   0.49869833   -8.9400727    569.69837  0.010203066 0.0086659265            3 
 4654000   0.49899729     -8.91675    569.87511  0.010204038 0.0086629045            4 
 4655000   0.50277325   -8.9333537    569.62863  0.010197433 0.0086598841            3 
 4656000   0.51391524   -8.9162698    569.94888  0.010200975 0.0086568671            3 
 4657000   0.50798754   -8.9380536    570.87834  0.010215417 0.0086538526            6 
 4658000   0.51319033   -8.9353323    570.39851  0.010204639 0.0086508369            3 
 4659000   0.48966683   -8.9405603    569.32846  0.010183309 0.0086478229            2 
 4660000   0.51393878   -8.9298819    569.81847  0.010189887 0.0086448112            4 
 4661000   0.50786368   -8.9422905    569.35068  0.010179337 0.0086418009            4 
 4662000   0.50614228   -8.9437817    569.56619  0.010181006 0.0086387906            2 
 4663000   0.51435615   -8.9222721    569.79481  0.010182908 0.0086357838            2 
 4664000   0.50790091   -8.9459713    569.97137   0.01018388 0.0086327766            3 
 4665000   0.50109916   -8.9416093    569.57833  0.010174675 0.0086297695            5 
 4666000   0.49071273   -8.9356633    570.41003  0.010187349 0.0086267652            6 
 4667000   0.51529732    -8.937561    570.30929  0.010183367 0.0086237642            3 
 4668000   0.51051479    -8.939634    570.22839  0.010179741 0.0086207613            2 
 4669000   0.51153486   -8.9434195    569.64829  0.010167207 0.0086177587            4 
 4670000   0.51105098   -8.9297573    570.06732  0.010172508 0.0086147621            2 
 4671000   0.50807283   -8.9530168    570.01081  0.010169321 0.0086117659            3 
 4672000   0.51044749    -8.931812    570.36689  0.010173496  0.008608768            3 
 4673000    0.4959004   -8.9226532    569.38814  0.010153865 0.0086057754            2 
 4674000   0.50180706   -8.9369786    570.10188  0.010164418 0.0086027811            3 
 4675000   0.50229648   -8.9361212    570.12731  0.010162697 0.0085997906            6 
 4676000   0.49717096   -8.9337707    570.92672   0.01017477 0.0085967996            3 
 4677000    0.5064814   -8.9225892    569.71184  0.010150949 0.0085938103            2 
 4678000   0.49635893   -8.9461543    569.67394  0.010148104 0.0085908233            2 
 4679000   0.50421295   -8.9353523    569.22217  0.010137889 0.0085878346            2 
 4680000   0.51059442   -8.9423613    570.15628  0.010152355 0.0085848466            2 
 4681000   0.50322646   -8.9340154    570.46065  0.010155605 0.0085818642            2 
 4682000   0.49632467   -8.9274319     569.5502  0.010137231 0.0085788813            2 
 4683000   0.50592983   -8.9454799    569.88984   0.01014111 0.0085758968            2 
 4684000   0.49356624   -8.9322445    570.30986  0.010146418 0.0085729181            4 
 4685000   0.49233188   -8.9303046    570.16024  0.010141591 0.0085699398            2 
 4686000   0.51036374   -8.9394048    569.84191  0.010133766  0.008566962            1 
 4687000   0.48726052   -8.9261766    570.89191  0.010150272 0.0085639855            3 
 4688000   0.50787528   -8.9272152    568.46435  0.010104955 0.0085610086            1 
 4689000   0.49704071   -8.9259514    569.91743  0.010128624 0.0085580368            2 
 4690000   0.50530535   -8.9553227    570.13984  0.010130417 0.0085550616            3 
 4691000   0.49869651   -8.9372118    569.92066  0.010124363 0.0085520903            3 
 4692000   0.49515381   -8.9374722    570.36173  0.010130039 0.0085491226            3 
 4693000   0.49861964   -8.9380879    569.14845  0.010106336 0.0085461519            3 
 4694000   0.49160441   -8.9438503    569.86214  0.010116854 0.0085431841            2 
 4695000   0.49483926   -8.9587524    569.11781  0.010101488 0.0085402206            2 
 4696000    0.4964378    -8.941267     570.6169  0.010125939 0.0085372548            3 
 4697000   0.49152573   -8.9208109    569.81765  0.010109603 0.0085342919            2 
 4698000   0.49859515   -8.9311464    569.95204  0.010109835 0.0085313302            6 
 4699000   0.50841534   -8.9461321    569.67346  0.010102743 0.0085283669            2 
 4700000   0.48513916   -8.9497848    570.62446  0.010117455 0.0085254078            5 
 4701000   0.49168141   -8.9244297    569.68374  0.010098627   0.00852245            4 
 4702000   0.50288937   -8.9462389    569.74056  0.010097486 0.0085194933            4 
 4703000   0.50284459   -8.9378539    569.90925  0.010098328 0.0085165372            2 
 4704000     0.497774   -8.9322434    570.15771  0.010100583  0.008513583            2 
 4705000   0.48830356   -8.9349827    570.70135  0.010108065 0.0085106305            1 
 4706000    0.4928643    -8.942881    570.49331  0.010102233 0.0085076805            4 
 4707000    0.4924023   -8.9460496    569.21029  0.010077372 0.0085047316            1 
 4708000   0.49893158   -8.9397174    569.65352  0.010083077 0.0085017832            5 
 4709000   0.49564977   -8.9434792    570.76087  0.010100532 0.0084988349            3 
 4710000   0.49549021   -8.9463156    569.88263  0.010082849 0.0084958906            5 
 4711000   0.48645563   -8.9439487    569.62859  0.010076215 0.0084929495            2 
 4712000   0.51577027    -8.954225    569.16451  0.010065869 0.0084900064            1 
 4713000   0.50096394   -8.9499247    569.66455  0.010072575 0.0084870627            2 
 4714000   0.48963593   -8.9384012    570.07838  0.010077754  0.008484122            1 
 4715000    0.5015266   -8.9497762    569.56506  0.010066544 0.0084811821            1 
 4716000   0.50196744   -8.9429648    569.88286  0.010070025 0.0084782423            5 
 4717000   0.50041864   -8.9354363    569.89056  0.010068026 0.0084753063            2 
 4718000   0.49732362   -8.9497607     569.8797    0.0100657  0.008472371            2 
 4719000    0.4920078   -8.9522506    569.74284  0.010061151 0.0084694353            2 
 4720000   0.49730137   -8.9658239    569.20368    0.0100495 0.0084665038            3 
 4721000   0.49627824   -8.9364978    569.63264  0.010054943 0.0084635716            3 
 4722000   0.48602528   -8.9358151     569.3833  0.010048413 0.0084606388            3 
 4723000   0.48557717   -8.9453768     570.1427  0.010059685 0.0084577099            3 
 4724000   0.48730612   -8.9539287    570.10696  0.010056925 0.0084547824            2 
 4725000   0.48492098   -8.9315731     569.9086  0.010051298 0.0084518561            3 
 4726000    0.5033342   -8.9455853    570.19104  0.010054152 0.0084489299            1 
 4727000   0.48890016   -8.9411254    568.96968  0.010030493 0.0084460066            1 
 4728000   0.49571984   -8.9581672    569.39187  0.010035813 0.0084430829            2 
 4729000   0.48773645   -8.9577213    569.30538  0.010032166 0.0084401604            2 
 4730000   0.48217606   -8.9613717    570.18631  0.010045566 0.0084372392            2 
 4731000   0.48803816    -8.939764    569.51561  0.010031628 0.0084343203            4 
 4732000    0.4919443   -8.9428798    570.04785  0.010038882 0.0084314031            2 
 4733000   0.49308671   -8.9426292    569.76272   0.01003174 0.0084284855            3 
 4734000   0.50021947   -8.9508663    569.30566  0.010021575 0.0084255702            2 
 4735000   0.50817538   -8.9471654    569.74449  0.010027182 0.0084226525            3 
 4736000   0.49589177   -8.9576929    569.31703  0.010017544   0.00841974            2 
 4737000   0.47853013   -8.9612601    569.00595  0.010009956  0.008416829            3 
 4738000   0.48647048   -8.9518498    568.61035  0.010000885 0.0084139162            3 
 4739000   0.49274703   -8.9533928    569.76926  0.010019154  0.008411007            2 
 4740000   0.48167387   -8.9430491     569.7043  0.010015898 0.0084080986            2 
 4741000   0.49461552    -8.936188    569.57041  0.010011432 0.0084051921            2 
 4742000   0.49819398   -8.9391203    569.36444  0.010005701 0.0084022847            2 
 4743000   0.48641105   -8.9578319    569.42941  0.010004733 0.0083993802            2 
 4744000   0.49904382   -8.9485124    569.29671  0.010000293  0.008396478            1 
 4745000   0.49003119   -8.9451477    570.09899  0.010012276 0.0083935748            2 
 4746000   0.49642428   -8.9548562    570.91525  0.010024499 0.0083906774            1 
 4747000   0.49588291   -8.9483315    569.77931  0.010002446 0.0083877798            2 
 4748000   0.49151247   -8.9597009    569.96609  0.010003617 0.0083848815            2 
 4749000   0.49782177   -8.9455989    570.00175  0.010002136 0.0083819875            3 
 4750000   0.48491887   -8.9506078     569.8967 0.0099981878 0.0083790925            2 
 4751000    0.4933523   -8.9503531    569.82998  0.009994913 0.0083761982            3 
 4752000   0.48728284    -8.953493    569.28725 0.0099832922 0.0083733056            2 
 4753000    0.4904358    -8.959465    568.91288 0.0099746279 0.0083704162            2 
 4754000   0.48989833   -8.9481716    569.30289 0.0099793663 0.0083675257            5 
 4755000   0.49267924   -8.9525036    568.51955 0.0099635393 0.0083646358            5 
 4756000   0.49545074    -8.951915     569.5296 0.0099791421  0.008361747            3 
 4757000   0.49162883   -8.9583041    568.63208 0.0099613215 0.0083588606            2 
 4758000   0.49556646   -8.9520329    569.01809 0.0099659887 0.0083559752            2 
 4759000    0.4829562   -8.9638729    569.63924 0.0099747713 0.0083530907            4 
 4760000    0.4828655   -8.9464178    568.86368  0.009959098 0.0083502076            2 
 4761000   0.48820706   -8.9533522    568.90217 0.0099576799 0.0083473272            2 
 4762000   0.49173699   -8.9662932    569.12775 0.0099595365 0.0083444484            2 
 4763000   0.49145275   -8.9638687    569.97046 0.0099721895  0.008341569            5 
 4764000   0.49774235   -8.9570706    569.70878 0.0099655188 0.0083386926            2 
 4765000   0.48988953   -8.9541181    568.17071 0.0099365287 0.0083358139            3 
 4766000   0.50778666   -8.9645102    568.91552 0.0099474667 0.0083329405            3 
 4767000   0.48648012   -8.9513197    569.67729 0.0099586967 0.0083300676            3 
 4768000   0.48842487    -8.941396    569.52965 0.0099540276 0.0083271974            2 
 4769000   0.48342547   -8.9613452    569.90767 0.0099585459 0.0083243262            3 
 4770000   0.48612077   -8.9445415    568.77943 0.0099367475 0.0083214564            7 
 4771000   0.48036295   -8.9588765    569.00721 0.0099386434  0.008318588            3 
 4772000    0.4881428   -8.9615204    568.75707 0.0099321924 0.0083157194            5 
 4773000   0.48554358   -8.9586838    569.18763 0.0099376289  0.008312855            3 
 4774000   0.49730756   -8.9676646    569.04854 0.0099331194 0.0083099898            1 
 4775000   0.48557365   -8.9608608    569.33352 0.0099360126  0.008307124            2 
 4776000   0.48161614   -8.9635091    568.49175 0.0099192447 0.0083042611            2 
 4777000   0.48712465   -8.9770663    569.27941 0.0099309087 0.0083014023            1 
 4778000   0.49522428   -8.9673683    569.60109 0.0099344406  0.008298542            3 
 4779000   0.48095419   -8.9485954    569.29088 0.0099269526 0.0082956827            1 
 4780000   0.48712865   -8.9582181    569.64295 0.0099310137 0.0082928235            1 
 4781000    0.4861226   -8.9556869    568.86555 0.0099153865  0.008289968            4 
 4782000   0.48726053   -8.9594644    568.46572 0.0099063453 0.0082871094            4 
 4783000    0.4883127   -8.9562366    568.76741 0.0099095305 0.0082842539            3 
 4784000   0.48799263   -8.9625665    569.54725 0.0099210432 0.0082813997            4 
 4785000   0.48016116    -8.957041    569.31543 0.0099149326 0.0082785497            3 
 4786000   0.47928753   -8.9711796    569.81596 0.0099215761 0.0082757011            2 
 4787000   0.48652799   -8.9583398    569.32604 0.0099109749 0.0082728518            3 
 4788000   0.47776229   -8.9461708    568.49252 0.0098943978 0.0082700042            3 
 4789000   0.48747855   -8.9719631    569.30584 0.0099064843 0.0082671589            4 
 4790000   0.47800079   -8.9650558    568.75593 0.0098948491 0.0082643114            3 
 4791000   0.47649298   -8.9561714     569.6007 0.0099074776 0.0082614691            3 
 4792000   0.48393561   -8.9899636    568.70354 0.0098898083 0.0082586243            3 
 4793000   0.48867201   -8.9685886    568.61376  0.009886184 0.0082557805            2 
 4794000   0.49314263   -8.9732167    569.11596 0.0098928515 0.0082529398            1 
 4795000   0.48568917   -8.9777995    569.72652 0.0099013994 0.0082501054            3 
 4796000   0.49918175   -8.9565847    568.56493 0.0098791515 0.0082472691            2 
 4797000   0.47410881   -8.9826991     568.3468 0.0098733028 0.0082444332            3 
 4798000   0.48424928   -8.9726318    568.57502 0.0098752088    0.0082416            5 
 4799000   0.49808018   -8.9800274    569.73478 0.0098932899 0.0082387661            2 
 4800000   0.47361806   -8.9698122    570.16574 0.0098987107 0.0082359315            2 
 4801000   0.48870288    -8.962224    569.01149 0.0098766141 0.0082330998            3 
 4802000   0.46707776   -8.9492769    569.05462 0.0098753058  0.008230268            2 
 4803000   0.48062792   -8.9710266    569.05441 0.0098732461 0.0082274382            3 
 4804000   0.48219345   -8.9460284    570.17419 0.0098906154 0.0082246123            3 
 4805000    0.4826093   -8.9673041    569.63816 0.0098792605 0.0082217871            1 
 4806000     0.482191   -8.9722924    568.23096 0.0098528048  0.008218962            3 
 4807000   0.49091802   -8.9776234    568.01101 0.0098469421 0.0082161397            1 
 4808000   0.47305318   -8.9576827     568.7913 0.0098584182 0.0082133174            1 
 4809000    0.4725865   -8.9743276    568.92578 0.0098586986 0.0082104974            2 
 4810000    0.4869729   -8.9763142    569.58255 0.0098680276 0.0082076768            2 
 4811000   0.48322504   -8.9655164    569.12681 0.0098580823 0.0082048585            3 
 4812000   0.48303726   -8.9731847     569.6575  0.009865224 0.0082020401            2 
 4813000   0.48371217   -8.9756088    568.74441 0.0098473649 0.0081992248            6 
 4814000    0.4849205   -8.9598929    568.80302 0.0098463339 0.0081964096            3 
 4815000   0.48073014   -8.9625174    568.34986 0.0098364461 0.0081935954            7 
 4816000   0.49149983   -8.9603876    568.85456 0.0098431367 0.0081907831            3 
 4817000   0.48129553   -8.9582847    569.59281  0.009853865 0.0081879698            1 
 4818000   0.48762399   -8.9724663    568.49218  0.009832783 0.0081851585            1 
 4819000   0.48375158   -8.9725404    568.59209 0.0098324703 0.0081823503            5 
 4820000   0.47038899   -8.9536532    568.60065 0.0098305784 0.0081795434            1 
 4821000   0.48419526   -8.9754778    570.18022 0.0098558429 0.0081767391            2 
 4822000   0.47508467   -8.9661773    568.93021 0.0098321964 0.0081739335            3 
 4823000   0.48281615   -8.9649174    569.44489 0.0098390506 0.0081711303            3 
 4824000   0.48018237     -8.95876    568.16856 0.0098149626 0.0081683279            5 
 4825000   0.47503436   -8.9794678    569.37921 0.0098338379 0.0081655262            1 
 4826000   0.49021255   -8.9857919    568.90948 0.0098236891  0.008162727            2 
 4827000   0.47678943   -8.9812875    569.11824 0.0098252579 0.0081599276            2 
 4828000   0.48072388   -8.9701098     569.6501 0.0098324031 0.0081571285            1 
 4829000   0.48309163    -8.972361    568.40553 0.0098088896 0.0081543307            7 
 4830000   0.48879431   -8.9681021    569.25856 0.0098215762 0.0081515349            2 
 4831000   0.48230537   -8.9829242    569.28768 0.0098200455 0.0081487409            1 
 4832000   0.47687267   -8.9898366    568.89294 0.0098112055 0.0081459463            3 
 4833000   0.48286699   -8.9538719    569.09114 0.0098125929 0.0081431564            3 
 4834000   0.47815696   -8.9744203    568.20143 0.0097952252 0.0081403676            5 
 4835000   0.48836024   -8.9643693     568.4421 0.0097973475   0.00813758            1 
 4836000   0.48854404   -8.9704258    569.36697 0.0098112589 0.0081347959            2 
 4837000   0.47841975   -8.9879928     568.8888 0.0098009923 0.0081320124            2 
 4838000   0.47353023   -8.9693764    569.26885 0.0098055127  0.008129228            4 
 4839000   0.48809927   -8.9715575    569.50226 0.0098075059 0.0081264446            8 
 4840000   0.49556167   -8.9841424     568.1877 0.0097828461 0.0081236631            2 
 4841000   0.49624652   -8.9811658    568.86542 0.0097924915 0.0081208823            4 
 4842000   0.47305905   -8.9767707    568.87208 0.0097905837 0.0081180998            2 
 4843000   0.48089122   -8.9674174    569.08554 0.0097922352 0.0081153186            3 
 4844000   0.47832441   -8.9802196    568.86057 0.0097863433 0.0081125418            5 
 4845000   0.48046868   -8.9825008    569.75749 0.0097997505 0.0081097634            3 
 4846000   0.48156191   -8.9932694    568.61029 0.0097780006 0.0081069855            2 
 4847000   0.48292267   -8.9805585     568.3961 0.0097723007 0.0081042115            5 
 4848000   0.48236777   -8.9827343    568.98411 0.0097803925 0.0081014352            2 
 4849000   0.49531309   -8.9863758    568.75124 0.0097743734 0.0080986613            5 
 4850000   0.48003105   -8.9701388    567.53081 0.0097513886 0.0080958888            5 
 4851000   0.46823994   -8.9576533    569.17114 0.0097775569 0.0080931194            3 
 4852000   0.47882474   -8.9739425    568.61407 0.0097659741 0.0080903503            1 
 4853000   0.47368607   -8.9775378    568.77112 0.0097666585  0.008087582            2 
 4854000   0.46699108   -8.9666154    569.10285 0.0097703415 0.0080848165            2 
 4855000   0.47036378   -8.9868015    568.31246 0.0097547625 0.0080820495            3 
 4856000   0.47940272   -8.9722896    569.05043 0.0097654179 0.0080792844            2 
 4857000    0.4738712   -8.9828078    568.81972 0.0097594489   0.00807652            3 
 4858000   0.46872868   -8.9602074    568.68503 0.0097551295 0.0080737602            2 
 4859000   0.46377017   -8.9786581    568.13403 0.0097436721 0.0080710001            2 
 4860000   0.46928903   -8.9873349    568.40398  0.009746296 0.0080682412            4 
 4861000   0.46531204   -8.9832497    569.30539  0.009759744 0.0080654824            3 
 4862000   0.47262053   -8.9791513    568.94262  0.009751519  0.008062727            2 
 4863000   0.46854063   -8.9881022    568.63879 0.0097443072 0.0080599714            2 
 4864000   0.48047737   -8.9920472    568.69959 0.0097433455 0.0080572159            1 
 4865000   0.46006592   -8.9775565    568.87514 0.0097443497 0.0080544641            3 
 4866000   0.46880608   -8.9738913    569.44708 0.0097521421 0.0080517148            5 
 4867000   0.47325301   -8.9685048    567.99154 0.0097252165 0.0080489654            1 
 4868000   0.46538872   -8.9873842    569.45696 0.0097483046 0.0080462171            2 
 4869000   0.47409996   -8.9873275    568.36487 0.0097276113 0.0080434682            5 
 4870000   0.47246739   -9.0183497    567.68209 0.0097139303 0.0080407181            2 
 4871000   0.47575805   -8.9698635    568.20494 0.0097208811 0.0080379728            2 
 4872000   0.47109384   -8.9809505    569.03382 0.0097330634 0.0080352279            2 
 4873000   0.47442452   -8.9782404    568.78969 0.0097268912 0.0080324846            1 
 4874000   0.47135641   -8.9889878    569.32509 0.0097340495 0.0080297418            6 
 4875000   0.47420444   -8.9989693    568.37879 0.0097158768     0.008027            2 
 4876000   0.46801657   -8.9921923    568.28325 0.0097122513 0.0080242588            2 
 4877000   0.47013458   -8.9919894    568.24844 0.0097096651 0.0080215179            3 
 4878000   0.47054563   -8.9733901    567.40612 0.0096932847 0.0080187801            5 
 4879000   0.46935658   -8.9865554    568.73904 0.0097140644 0.0080160435            6 
 4880000    0.4758685   -8.9850674    568.66767  0.009710855 0.0080133067            3 
 4881000   0.46825724   -8.9855197    569.36739 0.0097208118 0.0080105696            1 
 4882000   0.46695852   -8.9924608    568.78453 0.0097088716  0.008007838            2 
 4883000   0.46759125   -8.9949715    569.04125 0.0097112645 0.0080051047            5 
 4884000   0.46613594   -9.0008421    568.36733 0.0096977772 0.0080023747            5 
 4885000   0.47677121   -8.9850355    568.25498 0.0096938754 0.0079996462            2 
 4886000   0.46876697   -8.9903222    568.35792 0.0096936471  0.007996917            5 
 4887000   0.46864667   -8.9858072     569.0656  0.009703731 0.0079941912            1 
 4888000   0.47340821   -8.9818061    568.05173 0.0096844608 0.0079914651            2 
 4889000    0.4745577   -8.9762785     567.8912 0.0096797436  0.007988742            2 
 4890000   0.47250062   -8.9861806    568.84041 0.0096939402 0.0079860186            3 
 4891000   0.46811637   -8.9863346    568.67121 0.0096890754 0.0079832959            3 
 4892000   0.46684901   -8.9801759    567.86541 0.0096733682 0.0079805768            5 
 4893000   0.47682161   -8.9707492    568.36577  0.009679913 0.0079778573            3 
 4894000    0.4667079   -8.9893157    568.37583 0.0096781064 0.0079751386            5 
 4895000   0.47520183   -8.9972777    568.25644 0.0096740967 0.0079724213            1 
 4896000   0.46329286   -8.9985206    568.19577 0.0096710881 0.0079697037            3 
 4897000   0.47315066   -8.9891934    568.55977 0.0096753075 0.0079669873            3 
 4898000   0.48210255   -8.9956124    568.04119 0.0096645092 0.0079642745            3 
 4899000   0.47284076   -8.9910524    568.42735  0.009669105 0.0079615616            6 
 4900000   0.46449542   -8.9921797    568.45791 0.0096676515 0.0079588518            6 
 4901000   0.46837839   -8.9837806    568.54986 0.0096672424  0.007956142            5 
 4902000   0.46917776   -8.9928198    569.20801 0.0096764588 0.0079534337            6 
 4903000   0.46334035   -8.9901272    568.29203 0.0096589168 0.0079507276            4 
 4904000   0.46901248   -9.0073373    568.23162 0.0096559207 0.0079480198            8 
 4905000   0.46906787   -8.9721864    567.52297 0.0096419124 0.0079453141            3 
 4906000   0.45589531   -9.0007687    568.77661 0.0096612414 0.0079426087            3 
 4907000   0.47272525   -8.9880912    568.61697 0.0096565616 0.0079399058            7 
 4908000   0.46467283   -8.9904846    568.31249 0.0096494242 0.0079372031            2 
 4909000   0.46008635   -8.9923437    567.82831 0.0096392393 0.0079345003            3 
 4910000   0.46426766    -8.996789    568.84383 0.0096545117 0.0079318002            4 
 4911000   0.45715579   -8.9858561     568.2184  0.009641933  0.007929101            5 
 4912000   0.46379662   -8.9883191    567.74498 0.0096319385 0.0079264028            3 
 4913000   0.47246437   -8.9957203    568.29143 0.0096392467 0.0079237046            4 
 4914000   0.46766677   -9.0058048    568.67645 0.0096438145 0.0079210086            2 
 4915000   0.45807261   -8.9752361    568.47081 0.0096383657 0.0079183114            2 
 4916000   0.46650863   -8.9907284    568.11981 0.0096304552  0.007915619            4 
 4917000   0.45681207   -9.0020484    568.09991 0.0096281593 0.0079129276            4 
 4918000   0.47325794   -8.9964067    568.10555  0.009626297  0.007910237            2 
 4919000    0.4674339   -9.0149995    569.43611 0.0096468814 0.0079075478            2 
 4920000   0.46525396   -8.9893019    567.98943 0.0096204172 0.0079048603            1 
 4921000   0.46990945   -8.9989767    568.19874 0.0096220068 0.0079021733            4 
 4922000   0.45292193   -8.9848998    567.58378   0.00960964 0.0078994889            7 
 4923000   0.47168471   -8.9957015    567.63353 0.0096085302 0.0078968037            4 
 4924000   0.46113286   -9.0004225     568.0407 0.0096134697 0.0078941203            4 
 4925000   0.46979729   -8.9873343    568.38915 0.0096174137 0.0078914387            2 
 4926000   0.45515568   -8.9774477    567.66999 0.0096032952 0.0078887592            2 
 4927000    0.4624672   -9.0048165    568.02596 0.0096073669 0.0078860799            4 
 4928000   0.46044915    -9.004968    567.57075 0.0095977197 0.0078834006            5 
 4929000   0.46201225   -8.9991833    568.65627  0.009614125 0.0078807234            2 
 4930000   0.46153948   -8.9912439    567.55142 0.0095934993 0.0078780461            3 
 4931000   0.46682316   -8.9989039    567.99994 0.0095991337 0.0078753704            2 
 4932000   0.45476611   -8.9922123    568.63045 0.0096078408 0.0078726961            4 
 4933000   0.46738453   -8.9930317    568.08023 0.0095965982 0.0078700229            4 
 4934000   0.46934821   -8.9992219    567.74208 0.0095889421 0.0078673508            4 
 4935000   0.46144047   -9.0088328    568.45946 0.0095991128 0.0078646808            2 
 4936000   0.46487743   -8.9803141    567.91392 0.0095879579 0.0078620119            1 
 4937000   0.45783136   -9.0050341    567.42341 0.0095777362 0.0078593417            5 
 4938000   0.46425209   -8.9953159    568.51793 0.0095942678 0.0078566738            2 
 4939000   0.45898985   -8.9913161    568.51759 0.0095923194 0.0078540086            2 
 4940000   0.46526426   -8.9800036    568.70493 0.0095935379 0.0078513469            3 
 4941000   0.46261399    -8.991776    568.55794 0.0095891173  0.007848683            4 
 4942000   0.45129069   -9.0028462    567.81432 0.0095746379 0.0078460197            2 
 4943000   0.47527133    -8.992746    568.30385 0.0095809537 0.0078433576            2 
 4944000    0.4580266   -9.0175919     568.6612 0.0095850392 0.0078406965            1 
 4945000   0.44922355   -9.0093594    568.04113 0.0095726513 0.0078380372            7 
 4946000   0.45343198   -8.9898468    567.24467 0.0095572966 0.0078353784            7 
 4947000   0.44969681   -9.0133576    567.89574 0.0095663321 0.0078327207            2 
 4948000   0.46086299   -9.0283561    568.22752 0.0095699865 0.0078300664            3 
 4949000   0.45705403   -8.9911412    568.34338 0.0095700037 0.0078274116            2 
 4950000   0.45993225   -8.9972983    568.18961 0.0095654816 0.0078247567            3 
 4951000   0.45764683   -8.9977798    567.66234 0.0095546748 0.0078221052            3 
 4952000   0.46145428   -8.9947715    567.98744 0.0095582162 0.0078194539            3 
 4953000   0.47709984   -8.9985507    568.65003 0.0095674344 0.0078168027            2 
 4954000   0.46143014   -9.0028209    568.78264 0.0095677338 0.0078141567            4 
 4955000   0.46257624   -8.9948363    568.49791 0.0095610142 0.0078115111            2 
 4956000   0.44626347   -8.9993906    567.89666 0.0095489753  0.007808866            1 
 4957000   0.46452562   -8.9982712     567.2656 0.0095364401  0.007806221            3 
 4958000   0.44600232   -9.0017102    568.30949 0.0095520621 0.0078035776            1 
 4959000   0.46101103     -8.99631     568.0307 0.0095454511 0.0078009385            4 
 4960000   0.46325624   -8.9966023    568.39002 0.0095495635 0.0077982984            4 
 4961000   0.45998155   -9.0160723    568.45284 0.0095486938 0.0077956603            3 
 4962000   0.45961433   -9.0030618    568.14717 0.0095416359 0.0077930205            2 
 4963000   0.46507486   -9.0009554    567.41881 0.0095274835 0.0077903834            3 
 4964000   0.45876464   -9.0165479    568.38284 0.0095417479 0.0077877494            2 
 4965000    0.4658985   -8.9972133    567.57433  0.009526256 0.0077851154            4 
 4966000    0.4543654   -9.0228649     568.5758 0.0095411432 0.0077824824            2 
 4967000   0.45037172   -9.0015462    567.86054  0.009527222 0.0077798512            3 
 4968000   0.44727292   -9.0164941    567.31012 0.0095160714 0.0077772203            4 
 4969000   0.45322041   -8.9958638    568.05969 0.0095267272 0.0077745909            4 
 4970000   0.45347576   -8.9954201     567.6783 0.0095184155 0.0077719587            4 
 4971000   0.44899873    -8.989019    567.54508 0.0095142674 0.0077693294            4 
 4972000   0.44728864   -9.0090824    568.27138 0.0095245269 0.0077667024            3 
 4973000   0.45786103   -8.9940158    568.55268 0.0095273255 0.0077640775            5 
 4974000   0.46084343   -8.9992109    568.07951 0.0095174827  0.007761453            3 
 4975000   0.45510682   -8.9988659    568.36376  0.009520331 0.0077588297            1 
 4976000   0.45646692   -9.0108026    567.96607 0.0095117577 0.0077562081            2 
 4977000   0.45904524   -9.0130911    567.45171 0.0095012342 0.0077535844            4 
 4978000   0.45092127   -9.0111438    568.02884 0.0095089869 0.0077509654            2 
 4979000   0.44691045   -9.0209995    567.60041 0.0094999065 0.0077483456            3 
 4980000   0.45153521   -9.0214888    567.95258  0.009503892  0.007745726            3 
 4981000   0.44489525    -9.016678    567.16915 0.0094888769 0.0077431075            3 
 4982000   0.45418525    -9.004254    566.87486 0.0094820497 0.0077404899            2 
 4983000   0.45460245   -9.0266917    567.52797 0.0094910692 0.0077378749            3 
 4984000   0.45368268   -9.0168743    567.87106 0.0094949014 0.0077352599            2 
 4985000   0.45734433   -9.0053841    568.36064 0.0095011808 0.0077326442            2 
 4986000    0.4525546   -9.0037627     568.0164 0.0094935219 0.0077300305            2 
 4987000   0.44722789   -9.0080487    567.53155 0.0094835163 0.0077274191            2 
 4988000    0.4522321   -9.0159883    568.55203  0.009498664 0.0077248093            2 
 4989000   0.43876012   -9.0081366    567.96507 0.0094869559  0.007722199            5 
 4990000   0.44724946    -9.009627    567.66219 0.0094799965 0.0077195924            2 
 4991000   0.45189966   -9.0056125    567.64339 0.0094777832  0.007716983            5 
 4992000   0.43998853   -9.0234682    568.84858 0.0094960032 0.0077143788            2 
 4993000   0.46192663   -9.0063103    568.49031 0.0094881219 0.0077117743            3 
 4994000   0.44865844   -9.0170186     567.7605 0.0094740438 0.0077091718            6 
 4995000   0.44664536   -9.0174802    567.82761 0.0094732668 0.0077065702            2 
 4996000   0.45383756   -9.0132116    567.43798 0.0094648716   0.00770397            2 
 4997000   0.45780967     -9.00668    568.43321 0.0094795745 0.0077013711            2 
 4998000   0.45044076   -9.0270185    567.30947 0.0094589414 0.0076987731            1 
 4999000   0.45427639   -9.0138138    568.38849 0.0094750365 0.0076961755            4 
 5000000   0.45598945   -9.0156343    567.73682 0.0094622804 0.0076935758            2 
 5001000   0.44869549   -9.0158186    567.90345 0.0094631648 0.0076909792            3 
 5002000   0.44256503   -9.0135752     568.0592 0.0094638677 0.0076883853            1 
 5003000   0.45462704   -9.0292362    566.97026  0.009443838 0.0076857917            2 
 5004000   0.45222837   -9.0267747    567.35388 0.0094483393 0.0076831993            2 
 5005000   0.44741135   -9.0186829    567.43161 0.0094477457 0.0076806098            4 
 5006000   0.44445444   -9.0118418    567.93287 0.0094542027 0.0076780214            1 
 5007000   0.44340776    -9.014636    568.34796  0.009459223 0.0076754356            3 
 5008000   0.45629638   -9.0080139    568.11485 0.0094534553 0.0076728477            1 
 5009000   0.44720228    -9.024742    567.82381  0.009446726 0.0076702617            2 
 5010000   0.44435659   -9.0015397    568.72361 0.0094598073 0.0076676759            4 
 5011000   0.45186599   -9.0152373    567.38929 0.0094357295 0.0076650926            1 
 5012000   0.44048405   -9.0203149    567.23412 0.0094312669 0.0076625119            3 
Loop time of 12332.4 on 48 procs for 5000000 steps with 4000 atoms

Performance: 70059.584 tau/day, 405.437 timesteps/s
99.4% CPU use with 48 MPI tasks x no OpenMP threads

MPI task timing breakdown:
Section |  min time  |  avg time  |  max time  |%varavg| %total
---------------------------------------------------------------
Pair    | 831.23     | 894.35     | 968.97     | 109.2 |  7.25
Neigh   | 81.285     | 84.87      | 89.062     |  20.0 |  0.69
Comm    | 781.75     | 847.03     | 920.3      | 118.6 |  6.87
Output  | 14.929     | 14.934     | 15.018     |   0.3 |  0.12
Modify  | 10344      | 10382      | 10416      |  16.2 | 84.18
Other   |            | 109.5      |            |       |  0.89

Nlocal:        83.3333 ave          89 max          78 min
Histogram: 5 6 1 6 7 6 5 5 4 3
Nghost:        2182.94 ave        2206 max        2160 min
Histogram: 2 4 7 4 7 3 11 7 2 1
Neighs:        14518.0 ave       16182 max       13182 min
Histogram: 4 4 5 9 3 11 6 4 1 1
FullNghs:      29036.1 ave       31183 max       27139 min
Histogram: 5 5 3 4 8 8 7 3 4 1

Total # of neighbors = 1393731
Ave neighs/atom = 348.43275
Neighbor list builds = 266952
Dangerous builds = 0

#clear
#
#next RN
#
#jump SELF
Total wall time: 3:25:35
