
units lj                  # Use reduced LJ style units
atom_style atomic         # Uncharged point particles
atom_modify map hash      # Needed for indexing of clusters etc
                          # Used to be able to find where atoms are in relation to each other.

lattice fcc 1.0 spacing 1 1 1
Lattice spacing in x,y,z = 1.5874011 1.5874011 1.5874011
region box block 0 10 0 10 0 10 units lattice
create_box 2 box
Created orthogonal box = (0.0000000 0.0000000 0.0000000) to (15.874011 15.874011 15.874011)
  3 by 4 by 4 MPI processor grid
create_atoms 1 box
Created 4000 atoms
  using lattice units in orthogonal box = (0.0000000 0.0000000 0.0000000) to (15.874011 15.874011 15.874011)
  create_atoms CPU = 0.002 seconds
set type 1 type/fraction 2 0.11 78393
Setting atom values ...
  470 settings made for type/fraction
mass 1 1.0
mass 2 1.0
pair_style lj/cut  3.5
pair_modify tail  yes
pair_coeff 1  1  1.0  1.0   # Intearaction between 1 and 1 set with epsilon = 1 and sigma = 1
pair_coeff 1  2  1.5  0.8
pair_coeff 2  2  0.5  0.88

write_data data.0
System init for write_data ...
Neighbor list info ...
  update every 1 steps, delay 10 steps, check yes
  max neighbors/atom: 2000, page size: 100000
  master list distance cutoff = 3.8
  ghost atom cutoff = 3.8
  binsize = 1.9, bins = 9 9 9
  1 neighbor lists, perpetual/occasional/extra = 1 0 0
  (1) pair lj/cut, perpetual
      attributes: half, newton on
      pair build: half/bin/atomonly/newton
      stencil: half/bin/3d
      bin: standard
WARNING: Not all mixed pair coeffs generated from mixing. Use write_data with 'pair ij' option to store all pair coeffs. (../write_data.cpp:312)


#############################
#   M E L T   S Y S T E M   #
#############################

velocity all create 2.4 2750902 mom yes dist gaussian # Assign velocities
                                                    # Temperature 2.4, random number seed, zero linear momentum
                                                                                # Gaussian distribution

timestep 0.002   # simulation timestep
thermo 1000       # output thermodynamic data every 1000 steps bf 100

# Define a fix  in this case with index 1 applied to all
# particles in the simulation. This fix is for simulations
# in the anisotropic NPT ensemble. Note that we use the MTK
# correction.
fix 1 all npt temp 2.4 2.4 0.1 iso 5.68 5.68 0.5 mtk yes tchain 5 pchain 5 # Use NPT ensemble
                                                                         # Set temperature and pressure and damping
                                                                         # Numbers of thermostats in chain and in barostat
run 10000          # run for 10000 steps
Per MPI rank memory allocation (min/avg/max) = 3.642 | 3.644 | 3.648 Mbytes
Step Temp E_pair E_mol TotEng Press Volume 
       0          2.4   -7.6169122            0   -4.0178122   -3.1065461         4000 
    1000    2.3873999   -4.6977287            0   -1.1175241    5.7302525    4750.7993 
    2000    2.3308294   -4.6244491            0    -1.129079    5.5940306    4810.2892 
    3000    2.3806772   -4.6085324            0   -1.0384094    5.7341876    4813.3354 
    4000    2.4418998   -4.6481033            0  -0.98616932    5.8344612    4777.4824 
    5000    2.3460703   -4.6296194            0   -1.1113937    5.5691041    4808.6908 
    6000    2.4145434   -4.6153405            0   -0.9944309    5.5020867     4832.347 
    7000    2.3870562   -4.7065999            0   -1.1269107     5.543169    4763.1708 
    8000    2.3878713   -4.6064067            0   -1.0254952    5.7236818    4811.9207 
    9000    2.4540215   -4.6496836            0  -0.96957163    5.8323769     4778.368 
   10000    2.4161911   -4.6459797            0   -1.0225991    5.7389695    4783.9032 
Loop time of 2.19201 on 48 procs for 10000 steps with 4000 atoms

Performance: 788318.956 tau/day, 4562.031 timesteps/s
99.4% CPU use with 48 MPI tasks x no OpenMP threads

MPI task timing breakdown:
Section |  min time  |  avg time  |  max time  |%varavg| %total
---------------------------------------------------------------
Pair    | 0.88979    | 0.96575    | 1.1291     |   3.9 | 44.06
Neigh   | 0.18812    | 0.19742    | 0.22562    |   1.3 |  9.01
Comm    | 0.58227    | 0.75966    | 0.86297    |   5.7 | 34.66
Output  | 0.00023614 | 0.00024192 | 0.0002995  |   0.0 |  0.01
Modify  | 0.22059    | 0.25465    | 0.30509    |   4.6 | 11.62
Other   |            | 0.01428    |            |       |  0.65

Nlocal:        83.3333 ave          93 max          76 min
Histogram: 5 6 5 3 9 9 3 3 4 1
Nghost:        1454.54 ave        1492 max        1415 min
Histogram: 1 3 2 9 9 8 7 3 4 2
Neighs:        7961.52 ave        9064 max        7025 min
Histogram: 2 8 4 5 7 10 2 7 0 3

Total # of neighbors = 382153
Ave neighs/atom = 95.538250
Neighbor list builds = 902
Dangerous builds = 205

# Equilibrate just above the melting temperature to avoid step fn in T

fix 1 all npt temp 1.25 1.25 0.1 iso 5.68 5.68 0.5 mtk yes tchain 5 pchain 5
run 2000
Per MPI rank memory allocation (min/avg/max) = 3.642 | 3.644 | 3.648 Mbytes
Step Temp E_pair E_mol TotEng Press Volume 
   10000    2.4161911   -4.6459797            0   -1.0225991    5.7389695    4783.9032 
   11000    1.2546796    -6.282501            0   -4.4009521    5.5843473    3936.1554 
   12000    1.2556041   -6.2648138            0   -4.3818785    5.8087965     3925.161 
Loop time of 0.564133 on 48 procs for 2000 steps with 4000 atoms

Performance: 612621.941 tau/day, 3545.266 timesteps/s
99.3% CPU use with 48 MPI tasks x no OpenMP threads

MPI task timing breakdown:
Section |  min time  |  avg time  |  max time  |%varavg| %total
---------------------------------------------------------------
Pair    | 0.20469    | 0.22618    | 0.2859     |   3.0 | 40.09
Neigh   | 0.031097   | 0.032971   | 0.035831   |   0.5 |  5.84
Comm    | 0.1463     | 0.21156    | 0.27832    |   8.1 | 37.50
Output  | 4.821e-05  | 4.9454e-05 | 6.1258e-05 |   0.0 |  0.01
Modify  | 0.03794    | 0.089121   | 0.15382    |  12.8 | 15.80
Other   |            | 0.00425    |            |       |  0.75

Nlocal:        83.3333 ave          91 max          73 min
Histogram: 1 1 3 5 6 9 11 4 6 2
Nghost:        1658.90 ave        1687 max        1627 min
Histogram: 2 1 1 5 13 8 6 8 2 2
Neighs:        9714.44 ave       10816 max        8314 min
Histogram: 2 0 2 5 10 9 8 5 4 3

Total # of neighbors = 466293
Ave neighs/atom = 116.57325
Neighbor list builds = 142
Dangerous builds = 5

#############################
# L I N E A R  Q U E N C H  #
#############################

# Define solid atoms. This closely follows ten Wolde  Ruiz-Montero and Frenkel  Faraday Discuss  1996  104  93-110
# Compute components of the per-atom q6 vector
compute q6 all orientorder/atom degrees 1 6 components 6 nnn NULL cutoff 1.3 # compute the Q6 parameter.
                                                                             # Use all neighbours within 1.3 unit cell.

# get number of connections
compute coord_number all coord/atom orientorder q6 0.5

# An atom is solid if it has 8 or more connections (of a possible 14)
variable is_solid atom c_coord_number>=8
group solid dynamic all var is_solid    # Must be dynamic to update
dynamic group solid defined

# do clustering
compute cluster solid cluster/atom 1.3 # Create a cluster where all atoms within are solid and max 1.3 units from another member

# define chunks one chunk per cluster
compute clus_chunks solid chunk/atom c_cluster nchunk every compress yes  # Says which atoms are in which chunk

# count the size of each chunk
compute size_chunks solid property/chunk clus_chunks count


# Find the maximum entry in the vector of chunk sizes
variable max_n equal max(c_size_chunks)


# Thermo style which includes this variable
# thermo_style custom step temp pe vol v_max_n

thermo ${N}  # Print the thermo information every 100 steps
thermo 1000  

# Reset the npt fix at a lower temperature (below freezing)
fix 1  all npt temp  ${temp} ${temp}  0.1  iso  5.68  5.68  0.5  mtk yes tchain  5  pchain  5
fix 1  all npt temp  0.45 ${temp}  0.1  iso  5.68  5.68  0.5  mtk yes tchain  5  pchain  5
fix 1  all npt temp  0.45 0.45  0.1  iso  5.68  5.68  0.5  mtk yes tchain  5  pchain  5

dump dmp2 all dcd ${N} traj.dcd
dump dmp2 all dcd 1000 traj.dcd


compute msd all msd com yes
variable twopoint equal c_msd[4]/6/(step*dt+1.0e-6)
fix 9 all vector 10 c_msd[4]
variable fit equal slope(f_9)/6/(10*dt)
thermo_style custom step temp pe c_msd[4] v_twopoint v_fit v_max_n

fix 1 all npt temp 1.25 ${temp} 0.1 iso 5.68 5.68 0.5 mtk yes tchain 5 pchain 5
fix 1 all npt temp 1.25 0.45 0.1 iso 5.68 5.68 0.5 mtk yes tchain 5 pchain 5
run 5000000 # 5000000  # Run for this many steps
Neighbor list info ...
  update every 1 steps, delay 10 steps, check yes
  max neighbors/atom: 2000, page size: 100000
  master list distance cutoff = 3.8
  ghost atom cutoff = 3.8
  binsize = 1.9, bins = 9 9 9
  4 neighbor lists, perpetual/occasional/extra = 1 3 0
  (1) pair lj/cut, perpetual
      attributes: half, newton on
      pair build: half/bin/atomonly/newton
      stencil: half/bin/3d
      bin: standard
  (2) compute orientorder/atom, occasional
      attributes: full, newton on
      pair build: full/bin/atomonly
      stencil: full/bin/3d
      bin: standard
  (3) compute coord/atom, occasional
      attributes: full, newton on
      pair build: full/bin/atomonly
      stencil: full/bin/3d
      bin: standard
  (4) compute cluster/atom, occasional
      attributes: full, newton on
      pair build: full/bin/atomonly
      stencil: full/bin/3d
      bin: standard
Per MPI rank memory allocation (min/avg/max) = 9.751 | 9.758 | 9.765 Mbytes
Step Temp PotEng c_msd[4] v_twopoint v_fit v_max_n 
   12000    1.2556041   -6.2648138 7.253576e-31 5.0372054e-33 8.3333333e+20            2 
   13000    1.2435564   -6.1995019   0.56665808 0.0036324235  0.046186532            2 
   14000    1.2635577   -6.2380924    1.1393365 0.0067817649  0.046675266            4 
   15000    1.2410445   -6.2498541    1.6750377  0.009305765  0.046724185            3 
   16000    1.2536854     -6.28065    2.2213948  0.011569764  0.046244377            2 
   17000    1.2665525    -6.275978    2.7199326  0.013333003  0.045530592            1 
   18000    1.2320619   -6.2619254    3.2657183  0.015119066  0.045399185            2 
   19000    1.2734262   -6.2424068    3.7582307  0.016483468  0.044942329            2 
   20000    1.2451752   -6.1971079    4.3288644  0.018036935  0.044663153            1 
   21000    1.2714249   -6.2421163     4.933341   0.01957675  0.044918572            3 
   22000    1.2492708   -6.2294045    5.4522877  0.020652605  0.045037247            2 
   23000    1.2506336   -6.2444149    6.0339038   0.02186197  0.045171396            4 
   24000    1.2480846   -6.2698856     6.565239  0.022795968  0.045374232            1 
   25000     1.233068   -6.2782461    7.0527401  0.023509133  0.045300757            1 
   26000    1.2423413   -6.2713573    7.4849403  0.023990193  0.045142851            3 
   27000    1.2012098   -6.2636165    8.0092625  0.024719945  0.044991659            2 
   28000    1.2323128   -6.3040874    8.5763626  0.025524888  0.044828609            2 
   29000    1.2655907   -6.2815065    9.0629611  0.026042991  0.044709075            2 
   30000    1.2530735   -6.2528391    9.6742256  0.026872848  0.044624492            3 
   31000    1.2290642   -6.2415234     10.13748  0.027251291  0.044569941            2 
   32000    1.2708475   -6.2367637    10.624853  0.027668888  0.044439633            6 
   33000    1.2328121   -6.2634625    11.210208  0.028308606  0.044338093            4 
   34000    1.2288061   -6.2230124    11.841587  0.029023497  0.044347684            2 
   35000    1.2253667   -6.2527933    12.346178  0.029395662  0.044377906            2 
   36000    1.2481145   -6.2603093    12.820195  0.029676377  0.044374117            6 
   37000    1.2760398   -6.2269756    13.373918  0.030121437  0.044314088            4 
   38000    1.2683247   -6.2643271    13.884098  0.030447583  0.044311338            3 
   39000    1.2469173   -6.2574256     14.43276  0.030839231  0.044303139            4 
   40000    1.2565943   -6.2635071    14.943308  0.031131892  0.044277786            4 
   41000    1.2587477   -6.2575976    15.473782  0.031450777   0.04426022            4 
   42000     1.262781   -6.2953975    16.008469  0.031762835  0.044282406            6 
   43000    1.2116283    -6.231316     16.54603  0.032065949  0.044285287            2 
   44000    1.2423707   -6.2978309    17.040563  0.032273793  0.044281119            2 
   45000    1.2508649   -6.2886011    17.708699  0.032793887  0.044311478            2 
   46000    1.2469629   -6.2649882     18.45789  0.033438207  0.044398574            2 
   47000    1.2566414   -6.2821757    18.719422  0.033190464  0.044464698            2 
   48000    1.2552244   -6.2644296    19.420856  0.033716764  0.044472408            5 
   49000    1.2740688   -6.2902301    19.900429  0.033844266  0.044510674            2 
   50000    1.2413556   -6.2598619    20.430621  0.034051035  0.044543199            3 
   51000    1.2759187   -6.2109582     21.14002  0.034542515   0.04460551            3 
   52000    1.2176238   -6.2571944    21.669969  0.034727514  0.044697677            2 
   53000    1.2187302   -6.2481706    22.257425  0.034995951  0.044759916            8 
   54000     1.216851    -6.261852    22.747005  0.035103402  0.044813181            3 
   55000    1.2191565   -6.2873193     23.26184  0.035245212  0.044853589            1 
   56000    1.2470786   -6.2821327     23.69788  0.035264702  0.044879698            5 
   57000    1.2279123   -6.2330701    24.435417  0.035724293   0.04489891            6 
   58000     1.243017   -6.2890047     25.09333  0.036053635  0.044947544            7 
   59000    1.2196505   -6.2602588    25.661321  0.036244804  0.045019732            2 
   60000    1.2370012   -6.2613574    26.136682  0.036300947  0.045069535            2 
   61000    1.2367082   -6.2755789    26.498812  0.036200563  0.045080962            3 
   62000    1.2170171   -6.2809663    26.814989  0.036041651  0.045055303            3 
   63000    1.2475456   -6.2601297    27.475662  0.036343468   0.04504007            2 
   64000    1.2357973   -6.2684714    27.910985  0.036342428  0.045024751            3 
   65000    1.2267699   -6.2386803    28.420397  0.036436406  0.044989734            2 
   66000    1.2533993   -6.2944227    28.887339  0.036473912  0.044953891            4 
   67000    1.2430299   -6.2866882    29.239406   0.03636742  0.044905499            2 
   68000    1.2315462   -6.2759453    29.792624  0.036510568  0.044845911            2 
   69000    1.2574631   -6.2786026    30.370653  0.036679533  0.044795571            2 
   70000    1.2382947   -6.2636706    30.967091  0.036865584  0.044758329            1 
   71000    1.2424115   -6.2826057     31.53251  0.037009989  0.044730288            3 
   72000    1.2239281   -6.3182603    31.918825  0.036943085  0.044708327            2 
   73000    1.2545685   -6.2682222    32.527184  0.037131489  0.044669641            4 
   74000    1.2552663   -6.2575843    33.197595  0.037384679  0.044653187            1 
   75000    1.2418559   -6.3018945    33.742513   0.03749168  0.044645621            1 
   76000    1.2487649     -6.25715    34.222124  0.037524258  0.044636287            2 
   77000     1.224963   -6.2567043    34.983023  0.037860414  0.044623869            3 
   78000    1.2534965    -6.269849    35.206693  0.037613988  0.044602079            1 
   79000    1.2454307   -6.2908136    35.646178  0.037601453  0.044579698            4 
   80000     1.244145   -6.2484755    36.485463  0.038005691  0.044562294            5 
   81000    1.2186409   -6.2876365    37.124919  0.038194361  0.044581015            4 
   82000    1.2449055   -6.2728067    37.760863   0.03837486  0.044610695            4 
   83000    1.2365003   -6.2602536    38.468532  0.038623023  0.044644742            2 
   84000    1.2075437     -6.25376    38.910266  0.038601454  0.044673075            2 
   85000    1.2423855   -6.2602292    39.527547  0.038752497  0.044692927            4 
   86000    1.2148846   -6.2474962    39.932774  0.038694548  0.044710861            1 
   87000    1.2498743   -6.2512425    40.220824  0.038525694   0.04471571            2 
   88000    1.2297847   -6.2477931    40.733042  0.038572956  0.044706149            2 
   89000    1.2459438   -6.3057562     40.98988  0.038380037    0.0446837            3 
   90000    1.2176206   -6.2782663    41.504378  0.038429979  0.044658002            1 
   91000    1.2425904   -6.2835491    42.105396  0.038558055  0.044634482            2 
   92000    1.2352814   -6.2891212    42.454891  0.038455517  0.044611871            2 
   93000    1.2226986   -6.2929708     43.21481  0.038722948  0.044591452            2 
   94000    1.2361952   -6.2294944    43.726555  0.038764676  0.044576549            3 
   95000    1.2458125   -6.2522103    44.059285  0.038648495  0.044559181            3 
   96000     1.241318   -6.2773344    44.528613   0.03865331  0.044537632            2 
   97000    1.2384479   -6.2839483    45.142575  0.038782281  0.044506873            2 
   98000    1.2356782   -6.2948097    45.685079  0.038847856  0.044477661            2 
   99000    1.2528375    -6.277524    46.034287    0.0387494  0.044447531            3 
  100000    1.2593148   -6.2867089    46.418283  0.038681902  0.044405033            3 
  101000    1.2316127   -6.2628642     47.33424  0.039054653  0.044371875            2 
  102000    1.2330962   -6.2614062    47.598153   0.03888738  0.044335377            2 
  103000    1.2541536   -6.2830586    47.878633  0.038736758  0.044303055            3 
  104000    1.2328424   -6.2952335    48.088568  0.038532506  0.044259079            2 
  105000    1.2459409    -6.280936    48.821666  0.038747354  0.044222104            2 
  106000    1.2195713   -6.2998855    49.404231  0.038839804  0.044186573            4 
  107000    1.2683178   -6.3246759    50.093416  0.039013564  0.044156214            1 
  108000    1.2257587   -6.2878393    50.389947  0.038881132  0.044124258            2 
  109000    1.2435761   -6.2900047    51.176917  0.039126083  0.044101037            2 
  110000     1.234189    -6.321795    51.743254  0.039199435  0.044080325            2 
  111000    1.2192667   -6.2601348    52.072263  0.039093291  0.044053533            2 
  112000    1.2464006   -6.3274194    52.344676  0.038946931  0.044023161            5 
  113000    1.2324396   -6.2860626    53.051426   0.03912347  0.043992551            2 
  114000    1.2292983   -6.2594891    53.529483  0.039129739  0.043964777            3 
  115000    1.2374069   -6.2532717    54.009393  0.039137241  0.043935955            1 
  116000    1.2185699   -6.2535389    54.428943  0.039101252  0.043898468            4 
  117000    1.2254669   -6.2678282    55.094288  0.039240946   0.04386378            9 
  118000    1.2222416   -6.2929182     55.08187  0.038899625  0.043826852            2 
  119000    1.2551164   -6.2843334    55.956366   0.03918513  0.043787413            1 
  120000    1.2212402   -6.2762312    56.241859  0.039056846  0.043748479            2 
  121000    1.2462966   -6.2668895    56.932812  0.039209925  0.043713936            2 
  122000    1.2448307   -6.3009289    57.472091  0.039256893  0.043687727            2 
  123000     1.225948   -6.3022908    57.936158  0.039252139  0.043664359            2 
  124000    1.2124023   -6.2772412    58.650508  0.039415664  0.043641906            3 
  125000    1.2138316   -6.3056398    58.890429  0.039260286  0.043625298            1 
  126000    1.2374673   -6.2741864    59.739445  0.039510215   0.04360433            3 
  127000    1.2365914    -6.292254    60.542701  0.039726182  0.043592642            2 
  128000    1.2288307   -6.3215603    60.763236  0.039559398  0.043582662            2 
  129000    1.2460568   -6.3426109    61.335547  0.039622446  0.043569364            2 
  130000    1.2269095   -6.2614132    61.915451  0.039689391  0.043560947            4 
  131000    1.2458759   -6.2739859    62.445027    0.0397233  0.043549724            3 
  132000    1.2416068   -6.2964688    62.849771  0.039677885  0.043536649            2 
  133000    1.2325494   -6.2544202    63.274408  0.039645619  0.043523533            1 
  134000    1.2279244    -6.261738    63.898485  0.039737864  0.043515489            3 
  135000    1.2469584   -6.2619704    64.176681  0.039615235  0.043501687            1 
  136000    1.2246857   -6.2685321     64.90179  0.039768253  0.043482877            4 
  137000     1.233703   -6.2919167    65.081166  0.039587083  0.043466365            4 
  138000    1.2388091   -6.2400557    65.455624  0.039526343  0.043441236            3 
  139000    1.2429563   -6.3086928    65.875889  0.039493938  0.043413252            2 
  140000    1.2541161   -6.2908682    66.493941  0.039579727    0.0433855            1 
  141000    1.2501546   -6.2644901    67.047755  0.039626333  0.043360016            6 
  142000    1.1982564   -6.2856744    67.835811  0.039809748  0.043335796            3 
  143000    1.2191354   -6.3247682    67.501438  0.039336502  0.043307465            4 
  144000    1.2447801   -6.2965478    68.207071  0.039471684  0.043279384            2 
  145000    1.2232974   -6.2930604    68.607772  0.039429754  0.043251581            4 
  146000    1.2335921   -6.2669255     69.06992   0.03942347   0.04322177            3 
  147000        1.202   -6.2845058    69.801674   0.03957011  0.043196436            2 
  148000    1.2329779   -6.3113455    70.358741  0.039616408  0.043174122            3 
  149000    1.2209522    -6.247329    71.228208  0.039836805  0.043153653            3 
  150000    1.2750622   -6.2835257    71.105691  0.039503162  0.043134194            3 
  151000    1.2362604   -6.2636377    71.960686  0.039713403  0.043114583            3 
  152000    1.2229709   -6.3191206    72.292031  0.039633789  0.043097517            2 
  153000    1.2095558   -6.2783894    73.318254  0.039933689  0.043082279            3 
  154000    1.2368131   -6.3090142    73.702127  0.039882103  0.043074836            4 
  155000     1.218128   -6.3246008    74.227335  0.039907169  0.043069208            1 
  156000    1.2033705   -6.3141268    75.013306   0.04007121  0.043063018            2 
  157000    1.2281482     -6.31835    75.564989  0.040108805  0.043061796            3 
  158000    1.2244957    -6.339737    75.996604  0.040082597  0.043062825            1 
  159000    1.2438155   -6.2886536    77.087717  0.040402368  0.043061191            3 
  160000    1.2312241   -6.2950751    77.332783  0.040277491  0.043063663            3 
  161000    1.2119244    -6.292526    77.775273  0.040256353  0.043064152            2 
  162000    1.2231308    -6.268072    78.136142  0.040193489  0.043064269            2 
  163000    1.2279482   -6.3020664    78.670672   0.04022018  0.043060838            2 
  164000    1.2220463     -6.30291    79.043205   0.04016423  0.043054507            1 
  165000    1.2270662   -6.2912162    79.579616  0.040191725  0.043048058            4 
  166000    1.2283822   -6.2897777    79.993499  0.040157379  0.043041994            1 
  167000    1.2311046    -6.327942    80.341446  0.040090542  0.043037939            3 
  168000    1.2361019   -6.3199343    81.260879  0.040307975  0.043037696            2 
  169000    1.2186539   -6.2472485    81.738221  0.040304842  0.043037604            4 
  170000     1.275446   -6.3035095    81.961158  0.040177038  0.043034567            3 
  171000    1.2279911   -6.3140104    82.404663  0.040158218  0.043029819            2 
  172000    1.2268754   -6.2830728    83.209209  0.040314539  0.043021931            2 
  173000    1.1968246   -6.2872625    83.544174  0.040242858  0.043012869            1 
  174000    1.2416613   -6.2739081    84.224214  0.040337267  0.043006662            6 
  175000    1.2493512   -6.2722157    84.651421    0.0403102   0.04300134            4 
  176000    1.2048032   -6.3030654    84.759878  0.040132518  0.042995486            4 
  177000    1.2227218    -6.300964     85.41487  0.040214157  0.042988746            2 
  178000    1.1958323    -6.287309     86.20819  0.040359639   0.04298101            3 
  179000    1.2243985    -6.318017    86.202228  0.040131391  0.042973047            3 
  180000     1.219923     -6.32274    86.304552  0.039955811  0.042963486            1 
  181000    1.1897592   -6.3282389    87.216426  0.040154892  0.042953241            4 
  182000    1.2137262   -6.2898945    88.401673  0.040476956  0.042949146            2 
  183000    1.2266101    -6.271165    89.157693  0.040600042  0.042949169            2 
  184000    1.1937284   -6.3269274    89.162263   0.04038146  0.042946892            2 
  185000    1.2231359   -6.3344778    89.975132  0.040529339  0.042946099            1 
  186000    1.1914555   -6.3488633     90.31146  0.040462124  0.042946585            1 
  187000    1.2247079   -6.2934794    91.173083  0.040629716  0.042948449            2 
  188000    1.2216055   -6.2969571    91.845264  0.040711553  0.042948196            6 
  189000    1.2249408   -6.2961244    91.981397  0.040556172  0.042948553            4 
  190000    1.2238596    -6.287281    92.495349  0.040568135   0.04294823            2 
  191000    1.2314204   -6.2985024    92.974852  0.040564944  0.042946121            1 
  192000    1.2131753   -6.2954438    93.603056  0.040626326  0.042945601            4 
  193000    1.2417489    -6.285817    94.232794  0.040687735   0.04294611            2 
  194000    1.2387959   -6.2962496    94.628242   0.04064787  0.042947737            4 
  195000    1.2350075   -6.2754567    95.273693  0.040715253  0.042949721            2 
  196000    1.2220217   -6.3039535    95.838859  0.040747814  0.042951851            3 
  197000    1.2279866    -6.300719    96.702987  0.040906509  0.042955733            2 
  198000    1.1802829   -6.2662075    97.347535  0.040971184    0.0429594            1 
  199000     1.203328   -6.3070835    97.719829  0.040921201  0.042968212            2 
  200000    1.2259818    -6.298788    98.356315  0.040981798  0.042978817            2 
  201000    1.2009149    -6.315825    98.740404  0.040937149   0.04298798            3 
  202000    1.2113837    -6.302698    99.484158  0.041041319  0.042997787            3 
  203000    1.2121713   -6.3037932    100.05607  0.041073922  0.043005906            3 
  204000    1.2225856   -6.3035531    100.50033  0.041054058  0.043014734            1 
  205000    1.2106981   -6.2969301    101.00404  0.041058551  0.043021376            2 
  206000    1.1911248   -6.2755779    101.63105  0.041112884   0.04302871            2 
  207000    1.2395646   -6.3091836    101.83461  0.040996219  0.043036501            2 
  208000    1.2513187   -6.2941948    102.27491  0.040975526  0.043043747            2 
  209000    1.2261082   -6.2997263    102.73396  0.040962504  0.043046292            5 
  210000    1.2087003   -6.3079344    102.90175  0.040834028  0.043048319            2 
  211000    1.2136448   -6.3057993    103.27866   0.04078936  0.043048364            3 
  212000    1.2161035   -6.2904503    104.12443  0.040929413  0.043047835            1 
  213000    1.2236356   -6.3051779    104.70887  0.040965912  0.043049714            4 
  214000    1.2002299   -6.3041981    105.04669   0.04090603  0.043050098            2 
  215000    1.2038681   -6.3533993    105.80527  0.041009795  0.043051718            6 
  216000    1.2130516   -6.3279999    106.20977  0.040975991  0.043053503            2 
  217000    1.2282935   -6.3369876    106.73723  0.040989718  0.043055748            2 
  218000    1.1863229   -6.3521081    107.45434  0.041075817  0.043059528            3 
  219000    1.2254529   -6.3146204    108.30354  0.041211391  0.043064861            3 
  220000    1.2164919   -6.3071429    108.62782  0.041146903  0.043070335            1 
  221000    1.2449207   -6.3085805    109.40992  0.041255624  0.043075777            2 
  222000    1.2203988   -6.2601934    110.27157  0.041393233  0.043080879            2 
  223000     1.220542    -6.351311    109.66835  0.040982194  0.043086193            1 
  224000    1.2559072   -6.3039825    110.29767  0.041033358  0.043085837            1 
  225000    1.1940576   -6.3184432    110.22392  0.040823675  0.043083346            4 
  226000    1.2110096   -6.2957692     111.1632  0.040989381  0.043078663            2 
  227000    1.2223359   -6.3400914    111.44374  0.040911799  0.043074113            3 
  228000    1.2177676   -6.3606714    112.38474  0.041076292  0.043074635            4 
  229000    1.2295997   -6.3211224    113.11236  0.041161701  0.043076597            1 
  230000    1.2373384   -6.3041032    113.53463  0.041135734  0.043078326            3 
  231000    1.2225454   -6.3075864     114.0354  0.041138312  0.043081483            2 
  232000    1.2169586   -6.3035571    114.94608  0.041288103  0.043084158            1 
  233000    1.2356232   -6.3275439    115.04548  0.041146451  0.043086429            4 
  234000    1.2164068    -6.301366    116.23856  0.041395499  0.043092367            1 
  235000    1.2176276   -6.3031312     116.7314  0.041394114  0.043098421            3 
  236000    1.2094346   -6.3318324    116.85776  0.041263332  0.043103722            2 
  237000    1.2251892   -6.3222748    116.94467  0.041119787  0.043106719            2 
  238000    1.2100129   -6.3004626    118.31457  0.041426671  0.043112325            5 
  239000    1.2098805   -6.3359498    118.61966  0.041359715  0.043119199            4 
  240000    1.2100911   -6.3591316    119.27908  0.041416348  0.043124355            5 
  241000    1.2079973   -6.3226529    119.41954  0.041293065  0.043126697            2 
  242000    1.2269163   -6.2913453    120.41118  0.041463905  0.043130819            4 
  243000    1.2371568   -6.2942225    120.70238  0.041393134   0.04313504            5 
  244000    1.2013395   -6.3125579    121.08219  0.041353206  0.043139416            1 
  245000    1.2128037   -6.3037584    121.11191  0.041194528  0.043139747            3 
  246000    1.1979168   -6.3164464    121.39213  0.041121996  0.043136903            2 
  247000    1.2101322   -6.3124955    121.56322  0.041013231  0.043132528            3 
  248000     1.203273   -6.3450374    122.09428  0.041026305  0.043128134            3 
  249000    1.2305856   -6.2950549    122.15833  0.040882976  0.043123373            3 
  250000    1.2434443   -6.3547134    122.90297  0.040967656  0.043116355            1 
  251000    1.1989267   -6.3432556    123.53727  0.041015029  0.043110434            1 
  252000    1.1792721    -6.333092    124.13876  0.041051177  0.043105129            2 
  253000    1.2148671    -6.304152    125.37774  0.041297017   0.04310108            1 
  254000    1.2011101    -6.297928    125.39868    0.0411413   0.04309629            4 
  255000    1.1986016   -6.3150532    125.60528  0.041047477  0.043090166            3 
  256000    1.2343292   -6.3370674    126.28326  0.041107833  0.043083433            4 
  257000    1.2039259   -6.3304107    126.27029  0.040943672  0.043076541            3 
  258000    1.2176178   -6.3057353    127.07415   0.04104462   0.04306862            2 
  259000    1.1965958   -6.3482538    127.21173  0.040930415  0.043060122            3 
  260000    1.1875983    -6.318054    127.92901  0.041002887  0.043050531           12 
  261000    1.2127685   -6.3136835     128.3805  0.040989942  0.043040992            3 
  262000    1.2041591   -6.2811145    128.69772   0.04093439  0.043033121            3 
  263000     1.203353   -6.3197227    129.24082  0.040950831  0.043024075            4 
  264000    1.2323236   -6.3245984    129.64684  0.040923877  0.043016943            3 
  265000    1.2148761   -6.3307955    130.31746  0.040980332  0.043009946            3 
  266000    1.2347476   -6.3221315    130.62949  0.040924027  0.043001127            4 
  267000     1.241955   -6.2904045    131.32422  0.040987584  0.042990404            4 
  268000    1.2070365   -6.2899224    131.48592  0.040884927  0.042980129            1 
  269000    1.2125409   -6.3117697    131.89313  0.040859087  0.042970396            1 
  270000    1.1879787   -6.3358177    133.09474  0.041078624  0.042962663            2 
  271000     1.204505   -6.3025651    133.48624  0.041047429  0.042954833            3 
  272000    1.1757516   -6.3337146    134.22835  0.041123882  0.042947673            2 
  273000    1.2038896   -6.3214525    134.38856   0.04102215  0.042939015            2 
  274000    1.2067088    -6.326392    135.50572  0.041212202  0.042934121            3 
  275000    1.2096338   -6.3350196    135.81925  0.041157349  0.042929362            2 
  276000     1.188747   -6.3307476    136.23124   0.04113262  0.042925751            6 
  277000    1.2011008   -6.3541404    136.03459  0.040924968  0.042920509            2 
  278000    1.2001573   -6.2997941    136.97516  0.041059701  0.042915986            2 
  279000    1.2198711   -6.3418793    137.43523  0.041049949  0.042911345            3 
  280000    1.2176245   -6.3528245    137.89417  0.041039931  0.042906114            5 
  281000    1.2102745   -6.3506736    138.79221  0.041160205  0.042900711            2 
  282000    1.2065499   -6.3166535    138.77731  0.041009843  0.042895049            1 
  283000    1.2132143    -6.313537    139.42652  0.041056102  0.042889535            3 
  284000    1.2452044   -6.3016511    140.18778  0.041134912  0.042884118            2 
  285000    1.2321987    -6.357788    140.86107  0.041187448  0.042877838            2 
  286000    1.1994238   -6.3086374    140.63544  0.040977692  0.042872884            2 
  287000    1.1880789   -6.3386582    141.62444  0.041122078  0.042867127            5 
  288000    1.2195235   -6.3236917    142.17506  0.041138616  0.042860555            2 
  289000    1.2094166   -6.3495114    142.35961  0.041049484  0.042854528            2 
  290000     1.201021   -6.3291089    142.94806  0.041077028  0.042847751            5 
  291000    1.1875243   -6.3343588    143.22598  0.041015459  0.042841564            3 
  292000    1.1905654   -6.2793954    143.66765  0.041001041   0.04283576            3 
  293000    1.2107201   -6.3410945    144.75908  0.041171524  0.042830893            3 
  294000    1.2205674   -6.3218451     145.3738  0.041205725  0.042826195            2 
  295000    1.2095591   -6.3113512    145.68402  0.041153679   0.04282269            2 
  296000    1.2224181   -6.3854698    146.56798  0.041263507  0.042819816            3 
  297000    1.2330104   -6.3093358    146.68198  0.041156561  0.042815228            2 
  298000    1.2053111   -6.3371381    147.03032   0.04111586  0.042810367            4 
  299000    1.2054253   -6.3486238     147.5008  0.041109477   0.04280524            2 
  300000     1.196807   -6.2869464    148.34333   0.04120648  0.042799968            4 
  301000    1.2220475   -6.3207397    148.21902  0.041035165  0.042793273            2 
  302000    1.1869907   -6.3264513    148.71343  0.041035714  0.042784896            2 
  303000    1.2117467   -6.3188104     149.9703  0.041245957  0.042777529            4 
  304000    1.1943115   -6.3174945    149.35516  0.040941656   0.04277034            3 
  305000    1.1746967   -6.3216783    149.56123  0.040863725  0.042762195            3 
  306000    1.1973617   -6.2913634    149.75901  0.040784043  0.042752492            1 
  307000    1.1997083   -6.3249802    150.35039  0.040811724  0.042742617            2 
  308000    1.1982907   -6.3226349    151.50228  0.040990878  0.042733002            2 
  309000    1.2216287   -6.3318887    151.49013  0.040854943  0.042723014            2 
  310000    1.1939968   -6.3510581    151.89974  0.040833263  0.042711224            2 
  311000    1.1753198    -6.349656    152.55049  0.040876338  0.042699939            3 
  312000    1.2030358   -6.2981389     153.2953  0.040944259  0.042689759            3 
  313000    1.2009353   -6.3304139    153.52397  0.040874325  0.042679056            2 
  314000    1.2084773     -6.40236    153.53915  0.040748182  0.042668635            1 
  315000      1.17436   -6.3356418    154.43831  0.040856694   0.04265713            2 
  316000    1.1866062   -6.3328608    154.62611  0.040776927   0.04264567            2 
  317000    1.2116441   -6.3367453    155.80954  0.040959395   0.04263592            4 
  318000    1.1913379   -6.3259294    155.66039  0.040791506  0.042627245            2 
  319000     1.208262   -6.3361905    156.73352   0.04094397   0.04261656            2 
  320000    1.2115374   -6.3111078    156.95683  0.040874175  0.042606537            3 
  321000    1.1817987   -6.3026602    157.97917  0.041012246  0.042597223            1 
  322000    1.2091605   -6.3281654     158.2412   0.04095269  0.042587598            3 
  323000    1.2340823   -6.3505042    158.37335  0.040859997  0.042578379            5 
  324000    1.1854406   -6.3355807    158.88349  0.040865095  0.042568258            2 
  325000    1.2074619   -6.3166483    158.44649  0.040627304  0.042557431            5 
  326000    1.1855123   -6.3470989    159.24251  0.040706164  0.042546268            1 
  327000    1.2100021   -6.3845971    159.82638  0.040730474  0.042535592            2 
  328000    1.1933173   -6.3713471    160.21713  0.040705571  0.042524674            3 
  329000    1.1886008   -6.3511646    161.31009  0.040858684  0.042513288            1 
  330000    1.2032278    -6.322363    161.48915  0.040780089  0.042502666            3 
  331000    1.2013533   -6.3308805    162.12752  0.040817604  0.042492594            2 
  332000    1.1991141   -6.3355225    162.74745  0.040850264  0.042483604            2 
  333000    1.2062974   -6.3673313    162.39571  0.040639566   0.04247496            2 
  334000    1.1777053   -6.3504547    163.28643  0.040740127  0.042465401            4 
  335000    1.2040689   -6.3207221    164.30278  0.040871337  0.042455881            3 
  336000     1.217418    -6.333905    164.36089  0.040764109  0.042447042            4 
  337000     1.193782   -6.3256731    164.84851  0.040763726  0.042437826            2 
  338000    1.1893771   -6.3313459    165.57677  0.040822674  0.042428503            2 
  339000    1.1978847   -6.3508838    165.95318  0.040794783  0.042418219            4 
  340000    1.1820341   -6.3564516    166.16903  0.040727704  0.042406863            2 
  341000     1.205017   -6.3880896    166.30734  0.040642066  0.042396435            2 
  342000    1.1783195    -6.399465     167.0475  0.040703582  0.042386715            3 
  343000    1.1996857   -6.3473207    167.94144  0.040802099  0.042377556            6 
  344000    1.1618925   -6.3659776    168.21337  0.040749363  0.042367834            3 
  345000    1.1861775   -6.3291773    168.47223  0.040693775  0.042357735            1 
  346000    1.1819203   -6.3593509    168.58333   0.04060292  0.042347566            3 
  347000    1.2505244   -6.3158944    169.37343  0.040675657  0.042338457            2 
  348000    1.2066913   -6.3516831     170.4652   0.04082021  0.042329761            4 
  349000    1.2006617   -6.3204943    170.71284  0.040762378  0.042321346            4 
  350000     1.168383   -6.3308114    171.14944  0.040749866  0.042312687            9 
  351000    1.2106052   -6.3085416    172.32983  0.040914015   0.04230396            3 
  352000    1.1849627   -6.3331946    171.86824  0.040688503  0.042295527            4 
  353000    1.1916434   -6.3034575    172.92118  0.040821808   0.04228502            1 
  354000    1.2054996   -6.3418622    172.71473  0.040657893  0.042274474            2 
  355000    1.1851831   -6.3558101    172.77065  0.040556491  0.042263502            3 
  356000    1.1832439   -6.3405695    173.30102  0.040566719  0.042251443            3 
  357000     1.218019   -6.3028132    173.89963  0.040592818  0.042238643            2 
  358000    1.1899033   -6.3345706     173.6146  0.040413081  0.042225745            3 
  359000    1.1903198   -6.3412292    173.68106  0.040315938  0.042212137            3 
  360000    1.1804657   -6.3376134    174.69908  0.040439602  0.042197812            3 
  361000    1.1980905   -6.3783018    174.57314  0.040298509  0.042184306            1 
  362000    1.1836318   -6.3519931    175.24737  0.040342396  0.042170352            2 
  363000     1.219758   -6.3150365    177.07834  0.040651594  0.042158455            3 
  364000    1.1716595   -6.3572118    176.83082  0.040483246  0.042146859            4 
  365000    1.1895027    -6.347502    177.17216  0.040450264  0.042135127            2 
  366000    1.1956384   -6.3382605    177.65764  0.040450282  0.042121494            3 
  367000    1.1832297   -6.3135867    178.20012  0.040463243  0.042108395            2 
  368000    1.1865097    -6.361858    178.38689  0.040395582  0.042096146            2 
  369000    1.1775738   -6.3421956    178.98601  0.040421412  0.042082687            2 
  370000    1.1870247   -6.3766891      179.684   0.04046937  0.042069724            1 
  371000    1.1823566   -6.3923282    180.24336  0.040485929  0.042056836            4 
  372000    1.1921718   -6.3297613    180.58442  0.040453499  0.042045811            1 
  373000    1.2062103   -6.3394911    181.24324  0.040492235  0.042035454            2 
  374000    1.2002619   -6.3590423     181.1734  0.040368405  0.042024265            2 
  375000    1.2126535   -6.3486083    182.27239  0.040504975  0.042013368            4 
  376000    1.1783051   -6.3755651     182.8871  0.040533489  0.042003229            2 
  377000    1.1954781   -6.3753779    183.14442  0.040482852  0.041991686            2 
  378000    1.2034486   -6.3859001    183.06857  0.040359032  0.041980924            1 
  379000    1.1874931   -6.3706079    183.97324   0.04045146    0.0419698            4 
  380000    1.2165308   -6.3712057    184.92489  0.040553703  0.041959178            4 
  381000     1.191527   -6.3544394    185.24104  0.040516413  0.041948565            4 
  382000    1.1834497   -6.3843142    185.36259  0.040436866  0.041936972            3 
  383000    1.2146569   -6.3497234    185.98187   0.04046603  0.041925692            6 
  384000    1.2098939   -6.3506993    186.56689  0.040487605  0.041915013            2 
  385000    1.1781606   -6.3466762    186.69946  0.040411138  0.041905663            3 
  386000    1.1974632   -6.3390845    187.34033  0.040444803  0.041895693            3 
  387000    1.2079329   -6.3645586     187.9777  0.040477541  0.041886058            1 
  388000    1.1876139   -6.3631584     189.0314  0.040599527  0.041875387            1 
  389000    1.1960566   -6.3577843    188.40589  0.040361159  0.041865388            1 
  390000    1.2069803   -6.3069621    189.74823  0.040544494  0.041855328            5 
  391000    1.1780542    -6.371977    189.84676  0.040461798  0.041845555            2 
  392000    1.1948091   -6.3614022    190.61528  0.040521956   0.04183674            3 
  393000     1.200932   -6.3596166    190.70001  0.040436813  0.041827463            2 
  394000    1.1959474   -6.3852738    191.44267  0.040491258  0.041818662            2 
  395000    1.2073373   -6.3761746    192.36305  0.040582922  0.041810775            2 
  396000    1.2021312   -6.3551695    192.75694  0.040563329  0.041802848            2 
  397000    1.1869515   -6.3849687    193.19601  0.040553318  0.041793944            4 
  398000    1.1954477   -6.3860929    193.35142  0.040483965   0.04178515            3 
  399000    1.1872834   -6.3877084    193.35586   0.04038343  0.041775127            8 
  400000    1.1931201   -6.3249259    194.37196  0.040494158   0.04176606            3 
  401000    1.1738354   -6.3474793    194.85839  0.040494261  0.041757259            2 
  402000    1.1861135   -6.3573138    195.48537  0.040523501  0.041748343            2 
  403000    1.2276747   -6.3758976     194.9082  0.040303598  0.041738975            2 
  404000    1.1793747   -6.3253992    196.14325  0.040458591  0.041729141            6 
  405000    1.1976872   -6.3527264     195.9288  0.040314567  0.041718732            3 
  406000     1.177193   -6.3489118    196.93213  0.040421208  0.041709058            2 
  407000    1.2250135   -6.3534534    197.18038  0.040372724  0.041699547            5 
  408000    1.2082507   -6.3621828    197.61839  0.040363234  0.041689466            1 
  409000    1.1566851   -6.3687452    197.16284  0.040171728  0.041679168            9 
  410000    1.1731376   -6.3643904    197.84168  0.040211723    0.0416686            2 
  411000    1.1659852   -6.3959912    198.37296  0.040221606  0.041657638            3 
  412000    1.1894675   -6.3284503    199.29395  0.040310265  0.041647432            2 
  413000    1.1843872   -6.3362299     200.3232  0.040420339  0.041637501            2 
  414000    1.1910442    -6.355152    201.02263  0.040463492  0.041627507            3 
  415000    1.1707221   -6.3766183    200.97725  0.040356878   0.04161788            3 
  416000    1.1904819   -6.3765258    201.84118   0.04043293  0.041608209            2 
  417000    1.2046796   -6.3851678    201.15915  0.040199671  0.041598826            3 
  418000    1.1933551   -6.3574474     201.6857  0.040208472  0.041588939            2 
  419000    1.2147006   -6.3670576    201.12903  0.040001796   0.04157684            3 
  420000    1.1626105   -6.3561287    202.80843  0.040239767   0.04156461            3 
  421000    1.1766199   -6.3869551    202.95901  0.040173992  0.041553067            2 
  422000    1.2109328   -6.3493445    203.48382  0.040182429  0.041542532            3 
  423000    1.1792173    -6.385873    204.04414  0.040197822  0.041531772            4 
  424000    1.1804467    -6.364112    204.63721  0.040219578  0.041521692            3 
  425000    1.1590947    -6.364789    205.59034  0.040311831  0.041512323            1 
  426000    1.1764116   -6.3388432    205.68693  0.040236097  0.041501991            2 
  427000    1.1847139   -6.3676089    205.72386  0.040149075  0.041492002            2 
  428000    1.2099857   -6.3809269     206.1263  0.040133625  0.041482028            2 
  429000    1.1893582   -6.3466316    207.40635  0.040288723  0.041472252            4 
  430000    1.1929135   -6.3573682    207.95575  0.040301503  0.041463029            3 
  431000    1.1879685   -6.3450657    207.74451  0.040167152  0.041451624            4 
  432000    1.1974673    -6.363152    207.60678  0.040047603  0.041440595            3 
  433000    1.1801575   -6.3599692    207.70647  0.039974301  0.041428331            2 
  434000     1.191503   -6.3760877    208.61071  0.040055819  0.041416046            4 
  435000     1.173976    -6.385348    208.49694  0.039941943  0.041403259            4 
  436000    1.1916482   -6.3368251     209.3319  0.040009919   0.04139108            2 
  437000    1.1981897   -6.3419244    209.20562  0.039894284  0.041378043            2 
  438000    1.1799215   -6.3308867    210.05745  0.039965268  0.041364011            1 
  439000    1.1607724   -6.3155799    210.09592  0.039881534  0.041349875            3 
  440000    1.1774494   -6.3431977    210.57272  0.039881197  0.041336452            2 
  441000    1.1874367   -6.3925988    211.05598  0.039882083  0.041323177            2 
  442000    1.1704345   -6.3482011     211.6954  0.039912405  0.041310579            2 
  443000    1.1539905    -6.395653    212.01832  0.039883055  0.041297705            3 
  444000    1.1908755   -6.3747566    213.06667  0.039989991  0.041285361            3 
  445000    1.1563073   -6.4242924     212.9158  0.039871873  0.041272899            2 
  446000    1.1676179   -6.3918915    212.48191  0.039701403  0.041259549            3 
  447000    1.1737813   -6.3491222    214.19347  0.039931668  0.041246897            3 
  448000    1.1967652   -6.3693445    214.91762  0.039977235  0.041234623            1 
  449000    1.1895754   -6.3872385    214.65132  0.039838776  0.041222111            3 
  450000    1.1511511   -6.3829199    215.31375  0.039872916  0.041208884            3 
  451000    1.1706872   -6.3174166    215.36947  0.039794802  0.041195747            3 
  452000    1.1500092   -6.3851368    216.13143   0.03984724    0.0411833            1 
  453000    1.1580628   -6.3728599    216.13311  0.039759586  0.041170771            4 
  454000    1.1940112   -6.3601407     217.1334  0.039855617  0.041158451            2 
  455000     1.157064   -6.3738112    217.45485  0.039826896  0.041146211            2 
  456000    1.1926421   -6.3462741    217.62455  0.039770569  0.041133953            1 
  457000    1.1915445   -6.3920862    216.93206  0.039557268  0.041121031            3 
  458000    1.1829898   -6.3524037     219.3203  0.039905439  0.041107881            5 
  459000    1.1845261   -6.4039702    218.63808   0.03969464  0.041095702            5 
  460000    1.1734084   -6.3816536     218.4216  0.039569131  0.041082981            3 
  461000     1.202563   -6.3635038    219.47153  0.039673089    0.0410695            4 
  462000    1.1725722    -6.357962    220.64948  0.039799689  0.041057178            4 
  463000    1.1694815   -6.3927105    221.11153  0.039796892  0.041045838            2 
  464000    1.1896901   -6.3834948    220.54921  0.039610131  0.041032992            2 
  465000    1.1916536    -6.365852    221.15772     0.039634   0.04101979            1 
  466000     1.163276   -6.3517861     221.9192  0.039685122  0.041006107            3 
  467000    1.1686945   -6.3835817    221.41751   0.03951062  0.040992391            2 
  468000    1.1694129   -6.3753199    221.96025  0.039522836  0.040978237            5 
  469000    1.1759649   -6.3692837    222.54796  0.039542992  0.040963517            4 
  470000    1.1702996   -6.3885571    222.76276  0.039496944  0.040948631            3 
  471000    1.1687854   -6.3779285    222.98414  0.039452255  0.040934419            3 
  472000    1.1627415     -6.36477    224.64415   0.03966175  0.040920202            8 
  473000    1.1625477   -6.3727337    224.04714  0.039472716  0.040906949            4 
  474000    1.1536177   -6.3573036    225.60591  0.039663487  0.040894902            3 
  475000    1.2061716   -6.3927016    225.16221  0.039502141  0.040882082            3 
  476000    1.1598699   -6.3969446    224.88887  0.039371301  0.040867933            2 
  477000     1.161804   -6.4109016    226.28832  0.039533249  0.040853915            3 
  478000    1.1483353   -6.3777932    226.82505  0.039544117  0.040840872            2 
  479000    1.1488792   -6.3873552    227.24003  0.039533756  0.040828048            5 
  480000    1.1810841   -6.3995141    226.53062  0.039328233   0.04081473            3 
  481000    1.1618688   -6.3768272    227.92175  0.039487482  0.040801948            3 
  482000    1.1973296    -6.411783    228.34325  0.039478431  0.040789023            5 
  483000    1.1710104   -6.4171139    228.97039  0.039504898  0.040776525            3 
  484000    1.1803263   -6.3855251    229.11215  0.039447684   0.04076255            2 
  485000    1.1614843   -6.3760934    229.35647  0.039408329  0.040749413            1 
  486000     1.180795   -6.3947685    230.67338  0.039553049  0.040736491            4 
  487000    1.1492009   -6.4182462    230.07729  0.039369831  0.040723253            2 
  488000    1.1679153   -6.3966096     230.6358  0.039384529  0.040709954            2 
  489000    1.1719082   -6.3989915    230.85387  0.039341151  0.040696881            8 
  490000    1.2076209   -6.3708972    232.45749  0.039533587  0.040683847            2 
  491000    1.1623042   -6.3957596    231.93699   0.03936473  0.040670714            2 
  492000    1.1793422   -6.3883895    232.36742  0.039357625  0.040657778            3 
  493000     1.170106   -6.3912636    233.22402  0.039422587  0.040645246            3 
  494000    1.1727606   -6.3609645    233.91008  0.039458515  0.040633231            3 
  495000     1.183923   -6.3803155    233.55166  0.039318462  0.040620226            2 
  496000    1.1688244   -6.3831298    234.62066  0.039418794  0.040606975            5 
  497000    1.1808829   -6.3943784    235.17386  0.039432237  0.040594053            5 
  498000    1.1686359   -6.3920796    235.44481  0.039398395  0.040581998            2 
  499000    1.1748234   -6.3781815    235.74908  0.039370254  0.040570864            2 
  500000    1.1556067   -6.3812064    236.08676  0.039347793  0.040558984            5 
  501000    1.1857654   -6.3791572    236.18323    0.0392853  0.040546813            4 
  502000     1.151977   -6.3934793    236.10649  0.039194305  0.040533586            5 
  503000    1.1899531   -6.4078725    236.69558  0.039213979  0.040520354            3 
  504000    1.1731857   -6.4017809    237.88822   0.03933337  0.040507466            3 
  505000    1.1507703   -6.3968232    238.05563  0.039283108  0.040494905            3 
  506000    1.1856945   -6.4019251    238.29832  0.039245441  0.040481602            4 
  507000    1.1589656   -6.3627909    238.56564  0.039211972  0.040468055            4 
  508000     1.194087   -6.4155617    238.95025  0.039197875  0.040455163            3 
  509000    1.1305928   -6.3723066    239.29285  0.039176957  0.040441732            2 
  510000    1.1956532   -6.3787674    240.85075  0.039354697  0.040429154            3 
  511000    1.2001148   -6.4317932    240.05283  0.039147559  0.040416622            3 
  512000    1.1815673   -6.3904608    240.28256   0.03910849  0.040403202            4 
  513000    1.1819203   -6.4079524    240.29138  0.039033687  0.040389701            3 
  514000    1.1766971   -6.3723928    240.78845  0.039038336  0.040375786            4 
  515000    1.1894113   -6.4345656    241.10003  0.039012949   0.04036238            3 
  516000    1.1805279   -6.3879238    242.72117  0.039199156  0.040349334            1 
  517000    1.1438559    -6.397707    243.33414  0.039222137  0.040336795            3 
  518000    1.1732623     -6.42638    242.83139  0.039065539  0.040323647            2 
  519000    1.1809394    -6.404793    243.30753   0.03906672  0.040310666            3 
  520000    1.1786279   -6.3869595    244.01452  0.039104891  0.040297999            3 
  521000    1.2192949   -6.4040203    244.39831   0.03909122  0.040285887            3 
  522000    1.1669958   -6.4098077    245.60478  0.039208937  0.040273182            6 
  523000    1.1675888   -6.3805354    244.92284  0.039025308   0.04025972            3 
  524000    1.1432422   -6.4352171     244.7627  0.038925365  0.040246103            2 
  525000     1.180135   -6.3842788    245.48135  0.038965294  0.040232336            3 
  526000    1.1886744   -6.3702434    246.23926  0.039011289  0.040218325            1 
  527000     1.182665   -6.3958482    246.60918  0.038995759  0.040204472            5 
  528000    1.1981336   -6.3776695    246.17779  0.038853818  0.040189959            2 
  529000    1.1761323   -6.3548915    247.46531  0.038983193  0.040175658            4 
  530000    1.1568099   -6.4092653    247.02017   0.03883965  0.040161586            2 
  531000    1.1619904   -6.4230317    248.19327  0.038950607  0.040147328            3 
  532000    1.1718688   -6.3964276    249.33547  0.039056308  0.040134251            1 
  533000    1.1514747    -6.388866    248.83627  0.038904983  0.040120855            2 
  534000    1.1640933   -6.3383851    250.15594  0.039038069  0.040107943            2 
  535000    1.1930808   -6.3751258    249.26563  0.038826422  0.040094425            4 
  536000    1.1734614   -6.3952803    250.07651  0.038880055  0.040080539            3 
  537000    1.1391848   -6.4019755    250.41536  0.038860236  0.040067279            2 
  538000    1.1771763   -6.3957583    251.17832  0.038906184  0.040053974            2 
  539000    1.1771733   -6.4272613    251.14319   0.03882857  0.040040815            4 
  540000    1.1774463   -6.4165785     251.7552  0.038851111  0.040027526            2 
  541000    1.1506378   -6.4156309    252.06935  0.038827687  0.040014591            4 
  542000    1.1665775   -6.4243629    253.23053  0.038934584  0.040001188            3 
  543000    1.1783858   -6.4109618    252.99321   0.03882646  0.039988235            3 
  544000    1.1613118   -6.4156437     252.3664  0.038659069  0.039974983            7 
  545000    1.1727178   -6.3680857     253.7628  0.038801651  0.039961648            9 
  546000    1.1569713   -6.4272636    253.93618  0.038757047  0.039948118            2 
  547000    1.1719048   -6.3909845    254.56264  0.038781633  0.039934608            2 
  548000    1.1698226   -6.4153062      255.469  0.038848692  0.039922288            3 
  549000    1.1595962   -6.4082355    255.01849  0.038709546  0.039909253            3 
  550000    1.1555666   -6.4189849    256.06696  0.038798025  0.039896189            2 
  551000    1.1779179   -6.4261858    255.75918  0.038681062  0.039883267            3 
  552000     1.170239   -6.4031784     256.9952  0.038797584  0.039870197            2 
  553000    1.1746469   -6.3917294    256.78672   0.03869601  0.039856556            3 
  554000    1.1487049   -6.4077961     256.7135  0.038615148  0.039842494            5 
  555000    1.1737873   -6.4653931    257.74411  0.038700317  0.039828845            5 
  556000     1.150937   -6.3936737    257.72477  0.038627813  0.039815245            2 
  557000    1.1668651   -6.4351318    257.50808  0.038526045  0.039801698            2 
  558000    1.1733817   -6.4151946    258.90722  0.038665952  0.039788085            3 
  559000    1.1945232   -6.4187132    258.74622  0.038572782  0.039774748           13 
  560000    1.1449263    -6.384951    259.59721  0.038630537  0.039761699            4 
  561000    1.1676038   -6.3656376    260.60598  0.038711523  0.039748294            3 
  562000    1.1612578   -6.3952809    260.66442  0.038651308  0.039734903            2 
  563000    1.1624471   -6.4103787    261.65935  0.038729921  0.039721762            2 
  564000    1.1741616   -6.3845922     262.5071  0.038786511  0.039708849            2 
  565000     1.151255    -6.421288    262.05974   0.03865188   0.03969674            2 
  566000    1.1856711   -6.4009631    262.19391  0.038603343  0.039684232            1 
  567000    1.1518712   -6.4287828    263.60132   0.03874211  0.039671633            1 
  568000    1.1571854   -6.4069088    262.98806  0.038583929  0.039659217            4 
  569000    1.1492495   -6.3912001    263.87783  0.038646431  0.039646232            3 
  570000    1.1534382   -6.4183086    263.69575  0.038552011  0.039633476            3 
  571000    1.1638589   -6.3640456    264.63824  0.038622043  0.039620762            2 
  572000     1.140061   -6.4026421    264.11858  0.038478814  0.039607317            4 
  573000    1.1454243   -6.3876362    264.32203  0.038441249  0.039593399            2 
  574000    1.1530618   -6.3825355    265.06782  0.038482552  0.039579338            2 
  575000    1.1635034   -6.4112136    264.52553  0.038337033  0.039564871            4 
  576000    1.1572629   -6.4193161    264.57977  0.038278323  0.039550666            2 
  577000    1.1657121   -6.3984438    265.20326   0.03830203   0.03953567            3 
  578000    1.1531176   -6.4302013     266.1448  0.038371511  0.039521219            3 
  579000    1.1490832   -6.3555654    267.40824   0.03848708  0.039507727            2 
  580000    1.1672726   -6.3967336     267.9388  0.038496954  0.039494314            1 
  581000    1.1504451   -6.3789158    267.19012  0.038323311   0.03948057            3 
  582000    1.1804013     -6.47145    267.19546  0.038258228  0.039466475            2 
  583000    1.1886897   -6.3970541    268.48514  0.038376949  0.039452158            1 
  584000    1.1206434    -6.416057    268.62282  0.038330882  0.039438203            2 
  585000    1.1629677   -6.4605856    267.69975  0.038133868  0.039423896            3 
  586000    1.1584124   -6.3926608    269.12765   0.03827185  0.039409504            2 
  587000    1.1663139   -6.4533192    269.30204  0.038231408  0.039395388            4 
  588000    1.1695029   -6.4182107    269.39698  0.038179844  0.039381712            2 
  589000    1.1421944   -6.4249936    269.85299   0.03817954  0.039368076            4 
  590000    1.1682043   -6.4198509    271.46598  0.038342652  0.039354387            4 
  591000    1.1413062   -6.4047136    270.44686  0.038134075  0.039340659            2 
  592000    1.1750702   -6.4204671    272.23779  0.038321761   0.03932735            3 
  593000    1.1784486   -6.4357102      272.066  0.038232996  0.039314183            4 
  594000    1.1684636   -6.3708658    272.59365  0.038242656  0.039300487            2 
  595000    1.1356076   -6.4239191    272.95879  0.038229522  0.039287146            4 
  596000    1.1595149   -6.3793096    274.05313  0.038318391   0.03927405            1 
  597000    1.1398024   -6.4035038    274.98767  0.038384655  0.039261545            6 
  598000    1.1519249   -6.4633041    274.73976   0.03828592   0.03924887            2 
  599000    1.1499795   -6.4192961    274.94626  0.038250732  0.039236876            3 
  600000    1.1486543    -6.424714    276.43134  0.038393242  0.039224982            5 
  601000    1.1509088   -6.4282335    276.99636  0.038407704  0.039213528            2 
  602000    1.1455252   -6.4216082    278.23595  0.038515497  0.039202795            4 
  603000    1.1719111   -6.4170314    278.77592  0.038526247  0.039192563            5 
  604000    1.1409512   -6.4136203    279.32782  0.038538607  0.039182256            4 
  605000     1.165043   -6.4284182    279.20667  0.038458218  0.039172051            3 
  606000    1.1397725   -6.4112157    279.34169  0.038413324  0.039162125            3 
  607000     1.128275   -6.4075914      279.105  0.038317545  0.039152048            3 
  608000    1.1268846   -6.4273217    280.24007  0.038410098  0.039141914            2 
  609000    1.1470817   -6.4061833    280.25743  0.038349402  0.039131552            6 
  610000    1.1557725   -6.4261185    280.72161  0.038349946  0.039120929            3 
  611000     1.135363   -6.4580172    281.65031  0.038413845  0.039109837            1 
  612000    1.1460098   -6.3976694    281.51752  0.038332995  0.039099105            5 
  613000     1.162997   -6.4330382     281.8391  0.038314179   0.03908811            2 
  614000    1.1497026   -6.4445044    281.13175  0.038155775  0.039076645            6 
  615000    1.1558701   -6.4249134    282.29109  0.038250825  0.039065061            4 
  616000    1.1499438   -6.4165497    282.30578  0.038190717  0.039053444            3 
  617000    1.1534072   -6.4137352    283.10374  0.038236593  0.039042233            4 
  618000    1.1554223    -6.456897    284.23397  0.038327127  0.039031297            3 
  619000    1.1158469   -6.3875078    284.42723  0.038291226   0.03902035            4 
  620000    1.1478264   -6.4224157    283.78477  0.038143114  0.039009441            5 
  621000    1.1840733    -6.440334    284.34977   0.03815751  0.038997966            6 
  622000    1.1723164   -6.4232912    283.61447  0.037997651  0.038986442            4 
  623000    1.1609864   -6.4439673    285.01557  0.038124073  0.038974347            3 
  624000    1.1506522    -6.462875    285.13579  0.038079031  0.038961946            1 
  625000    1.1362936   -6.4285263    285.78936  0.038105248  0.038949781            4 
  626000    1.1388668    -6.426055    286.26997  0.038108356  0.038938376            3 
  627000    1.1510502   -6.4652634    286.11629  0.038027152  0.038926882            5 
  628000    1.1280814   -6.4033323    287.71679   0.03817898  0.038915484            2 
  629000    1.1413993   -6.4115737    288.09024  0.038167758  0.038904837            2 
  630000    1.1523917   -6.4329834    288.22881  0.038125504  0.038893978            3 
  631000    1.1491876   -6.4247208    288.90358  0.038154197  0.038883114            2 
  632000     1.154554   -6.4104783    289.51806   0.03817485  0.038872552           12 
  633000    1.1772972   -6.3908358    289.39158  0.038097891   0.03886122            3 
  634000    1.1224807   -6.3983609    290.46471  0.038178852  0.038849964            3 
  635000    1.1645318    -6.425153    289.72176  0.038021228  0.038838128            2 
  636000    1.1498146   -6.4500978    290.46388  0.038058684  0.038826784            4 
  637000    1.1568737   -6.4334615    290.28905  0.037976067  0.038815069            3 
  638000    1.1524109   -6.4076774    290.94981  0.038002849  0.038803542            2 
  639000    1.1589214   -6.4351172    291.48509  0.038013183  0.038792132            4 
  640000     1.175571   -6.4383272    292.09395  0.038033066  0.038780506            4 
  641000    1.1269043   -6.4612494    291.49678  0.037896097  0.038769068            6 
  642000    1.1620916   -6.4247337    292.05686  0.037909769    0.0387575            3 
  643000    1.1453166   -6.4290667    292.58138  0.037918789  0.038745581            2 
  644000    1.1462464   -6.3598019    293.73006  0.038008548  0.038734193            2 
  645000    1.1410844   -6.4189453    293.81276  0.037960305  0.038723027            3 
  646000    1.1198793   -6.4536496    294.03016  0.037929587  0.038711616            4 
  647000    1.1572552   -6.4554092    293.70903  0.037829603  0.038700107            2 
  648000    1.1406065   -6.4013504    294.91144  0.037925853  0.038688754            1 
  649000    1.1559219   -6.4068352    294.82036  0.037855721  0.038677565            4 
  650000    1.1627181   -6.4326961    294.92024  0.037810287  0.038665753            3 
  651000    1.1313524   -6.4416493    296.55569  0.037961558  0.038653836            7 
  652000    1.1364758   -6.4140199    295.41508  0.037757551  0.038642054            4 
  653000    1.1139343   -6.4009073     297.3022  0.037940556  0.038630655            2 
  654000    1.1374132   -6.4551585    296.90337  0.037831725  0.038618952            2 
  655000    1.1456175   -6.4443382    296.99672  0.037785843  0.038607353            4 
  656000    1.1268739   -6.4462589    297.33832  0.037771636  0.038596026            3 
  657000    1.1559362   -6.4619197    297.75922  0.037767532   0.03858463            3 
  658000    1.1677313    -6.441473    298.72741  0.037832752  0.038573204            2 
  659000    1.1277739    -6.475673    297.95098   0.03767716  0.038561759            2 
  660000    1.1206219   -6.4512669    298.54438  0.037694998  0.038550387            5 
  661000    1.1453608   -6.4268605    299.30167  0.037733443  0.038539216            3 
  662000    1.1691764   -6.4172319    299.37361    0.0376855   0.03852768            3 
  663000    1.1254484   -6.4341738    301.59097  0.037907362  0.038516241            5 
  664000    1.1259938   -6.4210561    301.10295  0.037789025  0.038504951            1 
  665000     1.139146   -6.4589529     300.0361  0.037598508  0.038493601            3 
  666000    1.1553426   -6.4511348    300.67294   0.03762174  0.038481708            1 
  667000    1.1164887   -6.4273308    302.05388  0.037737866  0.038470188            2 
  668000     1.152465   -6.4535698    301.88109  0.037659816  0.038458419            5 
  669000    1.1498038   -6.4330842    302.13366  0.037634985  0.038446473            2 
  670000    1.1538003   -6.4836031    301.63478  0.037516764  0.038434455            2 
  671000    1.1291806   -6.4459127    303.89706  0.037741811  0.038422404            5 
  672000    1.1352194   -6.4471811    304.44714  0.037753861  0.038410946            2 
  673000    1.1391157    -6.432952    303.31463  0.037557532  0.038399662            2 
  674000    1.1319387   -6.3987596    305.52781  0.037775446  0.038388808            3 
  675000    1.1571001   -6.4171874    305.26252   0.03768673  0.038378016            1 
  676000    1.1286184   -6.4281695    305.47964  0.037657746  0.038367324            2 
  677000    1.1600243   -6.4466029    305.97905  0.037663596  0.038356654            2 
  678000    1.1406476   -6.4396539    305.73628  0.037578206  0.038345509            3 
  679000    1.1359116   -6.4324098    307.17263  0.037699145  0.038334016            3 
  680000    1.1476363   -6.4421743    307.48431    0.0376819  0.038322853            3 
  681000     1.164328   -6.4148419    307.50541  0.037629149  0.038311789            1 
  682000    1.1600898   -6.4739508     307.2289  0.037540188  0.038300512            3 
  683000    1.1379951   -6.4468201    308.07808  0.037588833  0.038289384            4 
  684000     1.137956   -6.4475545    308.62591  0.037600623  0.038278648            4 
  685000    1.1403043   -6.4598988    308.81247  0.037568428  0.038268212            5 
  686000    1.1345329   -6.4486907    309.39004  0.037583824  0.038257403            1 
  687000    1.1496772   -6.4538997     309.0846  0.037492067  0.038246732            7 
  688000    1.1409074   -6.4281083    310.22066  0.037575177  0.038235851            2 
  689000     1.109937   -6.4474494    310.74004  0.037583459  0.038224882            3 
  690000    1.1258305   -6.4389959    311.02257  0.037563112  0.038214237            2 
  691000    1.1353376   -6.4354777    311.66827  0.037586622  0.038203042            5 
  692000    1.1689683   -6.4426715     312.3626   0.03761592  0.038192594            2 
  693000    1.1714502   -6.4317511    312.35851  0.037561148  0.038182126            2 
  694000    1.1654376   -6.4686707    313.27729   0.03761735  0.038171827            5 
  695000    1.1324645   -6.4410619    313.41459  0.037579687  0.038160646            2 
  696000    1.1415755   -6.4395976    313.32979  0.037515539  0.038149911            3 
  697000    1.1357758   -6.4087042     315.0813  0.037671126  0.038139703            7 
  698000    1.1597239   -6.4732946    313.45889  0.037423459  0.038129313            3 
  699000    1.1536577   -6.4256321    314.52987    0.0374976  0.038118955            4 
  700000     1.135734   -6.4618543    315.81346  0.037596841  0.038108729            8 
  701000    1.1469693   -6.4322691    316.43554  0.037617159  0.038098719            2 
  702000    1.1524858   -6.4148402     317.2997  0.037666156  0.038089147            1 
  703000    1.1325004   -6.4555287    316.99478  0.037576431  0.038079735            3 
  704000    1.1160633   -6.4428155    316.66099  0.037483545  0.038069985            3 
  705000    1.1398689   -6.4682361    316.65844  0.037430076  0.038059864            6 
  706000    1.1388178   -6.4392212    317.90614  0.037524332  0.038049888            3 
  707000    1.1385741   -6.4344679    318.23822  0.037510398  0.038039769            2 
  708000     1.140022   -6.4304607    318.12113  0.037443635  0.038029801            2 
  709000    1.1384527   -6.4299374    319.10805  0.037506822  0.038020001            2 
  710000     1.157446   -6.4285496     318.8018  0.037418052  0.038010763            4 
  711000    1.1468854   -6.4301337    320.28578  0.037539356  0.038001283            5 
  712000    1.1441378   -6.4788754    319.66127  0.037413538  0.037991674            2 
  713000    1.1541193   -6.4024176    320.89604  0.037505381  0.037982331            3 
  714000    1.1193831   -6.4470952    321.64157  0.037539865  0.037973151            2 
  715000    1.1669532   -6.4712157    321.27775  0.037444959  0.037963845            1 
  716000    1.1672448   -6.4585097    321.77706  0.037450775  0.037954031            3 
  717000    1.1105724   -6.4790262    322.49518  0.037482005  0.037944256            4 
  718000    1.1215003    -6.425204     322.9766  0.037485678  0.037934596            2 
  719000    1.1462823   -6.4408615    322.19687  0.037343169  0.037924436            4 
  720000    1.1071381   -6.4182406    323.39078  0.037429488   0.03791447            4 
  721000    1.1376682   -6.4542258    322.34759  0.037257003  0.037904241            2 
  722000    1.1229681   -6.4253799    323.55134  0.037344337  0.037894396            7 
  723000    1.1479114   -6.4754285    324.02007  0.037346711  0.037884791            3 
  724000    1.1138114   -6.4597434    324.59439  0.037361233  0.037875157            7 
  725000    1.1466099   -6.4366578    326.77012  0.037559784  0.037865267            3 
  726000    1.1141985   -6.4466998    324.01299  0.037191574  0.037855572            2 
  727000    1.1181948   -6.4842179    325.44194  0.037304211  0.037845771            4 
  728000    1.1392367   -6.4174192    326.55944  0.037380889  0.037835649            3 
  729000    1.1436557   -6.4523619    326.49791  0.037322578  0.037825881            2 
  730000    1.1618946   -6.4186374    327.10748  0.037341036  0.037815888            2 
  731000    1.1301811   -6.4535476    327.00849  0.037278669   0.03780594            4 
  732000    1.1551904   -6.4339526    327.98961  0.037339437  0.037795881            3 
  733000    1.1269083   -6.4584804    326.88326  0.037162717  0.037785422            4 
  734000     1.142343   -6.4650084    327.36216  0.037166458  0.037774887            2 
  735000    1.1541966    -6.431209    327.48246  0.037129531  0.037763918            2 
  736000    1.1322756   -6.4473174    327.99773  0.037137425  0.037753407            2 
  737000    1.1280307   -6.4700365    329.08625  0.037210114   0.03774312            2 
  738000    1.1345586   -6.4853069    328.54423   0.03709849  0.037732627            3 
  739000     1.116305   -6.4618951    329.69005  0.037177497  0.037721553            5 
  740000    1.1346359   -6.4476205    329.13514  0.037064768  0.037710843            5 
  741000     1.154583   -6.4508803    329.64904  0.037072542  0.037700244            3 
  742000    1.1257778    -6.473562    329.60209  0.037017306  0.037689475            3 
  743000    1.1125004   -6.4787719      330.252  0.037040377  0.037678936            4 
  744000    1.1327663   -6.4647741    330.79468  0.037051375  0.037667943            3 
  745000    1.1654114   -6.4292223    331.73135  0.037106415  0.037657128            4 
  746000    1.1292934   -6.4255051    331.22965  0.037000632   0.03764627            4 
  747000    1.1400152   -6.4341957    331.49852  0.036981094  0.037635138            3 
  748000    1.1376332   -6.4530845    331.71821  0.036956129  0.037623675            2 
  749000    1.1630419   -6.4382501    332.31547  0.036973239  0.037612596            3 
  750000    1.1284061   -6.4622105    332.77268  0.036974742  0.037601243            3 
  751000    1.1113702   -6.4647406    332.90727  0.036940442  0.037589869            3 
  752000    1.1222092   -6.4442352    333.00474  0.036902121  0.037578605            2 
  753000    1.1295677   -6.4988231     333.5074  0.036908743  0.037567163            3 
  754000    1.1211435   -6.4531223    333.92195  0.036905609  0.037556153            3 
  755000    1.1440496   -6.4354262    335.24466  0.037002722  0.037544652            4 
  756000    1.1225496   -6.4641416    334.79504  0.036904215   0.03753347            3 
  757000    1.1293873   -6.5179953    335.34086  0.036915551  0.037522403            4 
  758000    1.1473138   -6.4509797    334.82641  0.036810291  0.037511509            3 
  759000    1.1324342   -6.4282656    336.08871  0.036900385  0.037500677            3 
  760000    1.1055614   -6.4592933    336.94149  0.036945339   0.03749006            2 
  761000    1.1338547   -6.4257905    337.58906  0.036967703  0.037479381            5 
  762000    1.1545979   -6.4548204    337.43074  0.036901874  0.037468623            4 
  763000    1.1215532   -6.4553146    337.69561  0.036882439  0.037457757            2 
  764000    1.1311105   -6.4331576    338.14875  0.036883589  0.037447484            3 
  765000    1.1286483   -6.4590575    339.02667   0.03693101   0.03743718            3 
  766000    1.1137281   -6.4883008    337.43161   0.03670927  0.037426251            4 
  767000    1.1345136   -6.4324215    339.20259  0.036853823  0.037415264            3 
  768000    1.1359038   -6.4202846    340.49405  0.036945969  0.037404419            4 
  769000    1.1607321   -6.5080353    338.84043  0.036718728  0.037393839            1 
  770000    1.1423325   -6.5055183    340.70747  0.036873103  0.037383114            5 
  771000    1.1253081   -6.4521849    340.46416  0.036798979  0.037372614            2 
  772000    1.1067239   -6.4604247    341.38239  0.036850431   0.03736224            1 
  773000    1.1251756   -6.4599625    341.78987  0.036846687  0.037352192            4 
  774000    1.0877302   -6.4564098    341.79464  0.036799596  0.037342011            2 
  775000    1.1320852   -6.4772555    343.08116  0.036890447  0.037332151           10 
  776000    1.1090259   -6.4653965    341.97295  0.036723899  0.037321617            5 
  777000    1.1255947   -6.5002464    343.01551  0.036788451  0.037311219            2 
  778000    1.1386266   -6.4839846    342.54821   0.03669111  0.037300592            3 
  779000    1.1311695   -6.4745259    344.35036  0.036836795  0.037290225            4 
  780000    1.1325314   -6.5330842    343.81223  0.036732075   0.03727998            2 
  781000    1.1254955   -6.4817554    344.57649   0.03676659  0.037269462            6 
  782000    1.1227259   -6.4614338    343.73939   0.03663037  0.037258713            3 
  783000     1.124725   -6.4177649    346.07075   0.03683171  0.037248408            1 
  784000    1.1264882    -6.504936    345.46276  0.036720107  0.037238047            4 
  785000    1.0940636    -6.435476    345.64076  0.036692225  0.037227887            4 
  786000    1.1438208   -6.4328449    345.56793  0.036637821  0.037217519            3 
  787000     1.177181   -6.4772801    346.16456  0.036654443  0.037207412            5 
  788000    1.1223372    -6.460839    346.79061  0.036674134  0.037197102            2 
  789000    1.1068709    -6.487359     346.4503  0.036591709   0.03718682            3 
  790000    1.1205314   -6.4916051    347.45594   0.03665147  0.037176641            6 
  791000    1.1616663   -6.4589673    347.42722  0.036602109  0.037166355            4 
  792000    1.1258767   -6.4689003    347.79521  0.036594614  0.037155827            6 
  793000    1.1308965   -6.4633295    348.30762  0.036602314  0.037145611            3 
  794000    1.1418248   -6.4962825    348.73809  0.036601395  0.037134849            2 
  795000     1.117531   -6.4752512    349.18027  0.036601706  0.037124113            2 
  796000    1.1143633   -6.4835856    348.31326  0.036464956  0.037113246            6 
  797000    1.1011408   -6.4317574    349.57371  0.036550994  0.037102262            2 
  798000    1.1155593   -6.4744491    349.85192  0.036534244  0.037091411            3 
  799000    1.1181658   -6.4351787     349.5858  0.036460763    0.0370803            4 
  800000    1.1164754   -6.5293278    349.77117  0.036434497  0.037069275            1 
  801000    1.1170267   -6.4886161    350.67627  0.036483174  0.037058355            4 
  802000    1.1102048   -6.4943404    351.66356   0.03654027  0.037048227            4 
  803000    1.1387923   -6.4930792    351.49988  0.036477779   0.03703804            2 
  804000    1.1024659   -6.4697912    351.94113  0.036478144  0.037027762            4 
  805000    1.1536167    -6.512443    352.36621  0.036476833  0.037017231            5 
  806000    1.1269911   -6.4859301    352.20082  0.036414477  0.037007217            3 
  807000     1.125604    -6.475108    355.40363  0.036700086  0.036997282            5 
  808000    1.1096779   -6.5065398    353.94739  0.036504475   0.03698764           13 
  809000    1.1414468    -6.466607    354.26502   0.03649207  0.036977955            5 
  810000    1.1601725   -6.4270908    357.12681  0.036741441  0.036968194            3 
  811000    1.1345382   -6.4726795    356.26097  0.036607169   0.03695892            3 
  812000    1.1153861   -6.4306588    357.10605  0.036648815  0.036949285            2 
  813000    1.1053986   -6.4742891    357.88897  0.036683986  0.036939852            2 
  814000    1.1185689   -6.4846348    357.20731  0.036569135  0.036930489            3 
  815000     1.120807   -6.5156411    356.98065  0.036501089  0.036921357            2 
  816000    1.1256577   -6.5259143    357.89966   0.03655021  0.036912415            3 
  817000    1.1383727   -6.4869027    358.34372  0.036550767  0.036903509            2 
  818000    1.1226613   -6.4637269     359.4066  0.036614364  0.036894372            2 
  819000    1.1406924   -6.4156658    360.70572  0.036701843  0.036885604            3 
  820000    1.1207307   -6.4999041    360.26531  0.036612328  0.036877285            2 
  821000    1.1223652   -6.4485561    361.39256  0.036682152  0.036868507            2 
  822000    1.1258841   -6.4814241     360.9005  0.036587642  0.036860015            3 
  823000    1.1277263   -6.5077394    361.28939  0.036582563  0.036851617            5 
  824000    1.1338175   -6.5003267    361.58648  0.036568212  0.036843024            5 
  825000    1.1280188   -6.4484714    362.62225   0.03662851  0.036834456            3 
  826000    1.1145856   -6.4589493    363.63868  0.036686711  0.036825958            2 
  827000    1.1156489   -6.4819952    363.53332  0.036631734   0.03681766            3 
  828000     1.123136   -6.4956748    363.22415  0.036556376  0.036809531            1 
  829000    1.1468139   -6.5341476    363.36509  0.036526446  0.036801132            4 
  830000    1.1393183   -6.4906228    364.21779  0.036568051  0.036793123            3 
  831000    1.1235593   -6.5194656    363.10535   0.03641249   0.03678486            4 
  832000    1.1159209   -6.5555995    363.56201  0.036414464  0.036776316            4 
  833000    1.1373303   -6.4746413    365.94208  0.036608851  0.036768232            4 
  834000    1.1259752   -6.4956387    365.40145  0.036510936  0.036760169            5 
  835000    1.1236507   -6.5092223    366.21312  0.036548215  0.036752461            6 
  836000    1.1143216    -6.518199     367.1052  0.036593421  0.036745025            6 
  837000    1.1213505   -6.4699981    368.98829  0.036737185  0.036737779            3 
  838000     1.104124    -6.489964    368.91815  0.036686371  0.036730968            2 
  839000    1.1136462   -6.5115926    368.94046  0.036644861  0.036723816            5 
  840000    1.1213832   -6.4821117    369.66824  0.036673437  0.036716577            5 
  841000    1.1151548   -6.5034645    369.75212  0.036638142  0.036709168            3 
  842000    1.0796113   -6.4754793    369.63928   0.03658346  0.036701714            2 
  843000    1.0967753   -6.4710299    369.85373  0.036561262  0.036694594            3 
  844000    1.0974398    -6.465651    371.17131  0.036648036  0.036686891            6 
  845000    1.1048618   -6.4952111    370.89594  0.036577509   0.03667933            3 
  846000    1.1087504   -6.4930418    370.65515  0.036510554  0.036671736            2 
  847000    1.1019689   -6.5159112    371.85854  0.036585847  0.036664233            2 
  848000    1.1386001   -6.4611406    372.11278  0.036567687  0.036656908            4 
  849000    1.1125584   -6.4929408    372.56627  0.036569127  0.036649587            3 
  850000    1.1401215   -6.4667743    373.84856   0.03665182  0.036642509            7 
  851000     1.143656    -6.503448    373.80211  0.036604202  0.036635201            1 
  852000    1.1162472   -6.5236702    373.15355  0.036497804  0.036628071            3 
  853000    1.1063166   -6.4790846    374.75525  0.036611493     0.036621            5 
  854000    1.1362187   -6.5057856    373.03511  0.036400772  0.036614101            3 
  855000    1.1086935   -6.4998845    375.18781  0.036568013  0.036607101            2 
  856000    1.0907309   -6.4955402    374.84077  0.036491508  0.036599816            2 
  857000    1.1212527    -6.532142    375.14302  0.036478317  0.036592897            4 
  858000    1.1201516   -6.5243139    375.62556  0.036482669  0.036585856            3 
  859000    1.1348434   -6.4890134    376.38218  0.036513599  0.036579172            1 
  860000    1.1278447   -6.4910682    377.60855  0.036589976  0.036572668            3 
  861000    1.1090743   -6.4922909    378.56204  0.036639764  0.036565873            3 
  862000    1.0969969   -6.5235614    377.98625  0.036541594  0.036559032            2 
  863000    1.1094601   -6.4843066    377.66081  0.036467826  0.036551992            1 
  864000    1.1199187   -6.5129527    378.46531  0.036503213   0.03654529            3 
  865000    1.0941925   -6.5023329    379.42614  0.036553578  0.036538557            4 
  866000    1.1043121   -6.5061253    380.40074  0.036605152  0.036531894            8 
  867000    1.1131378   -6.5076339    380.25806  0.036549217  0.036525109            2 
  868000    1.1068842    -6.465197    380.73687  0.036553079   0.03651896            4 
  869000    1.1093117   -6.4738352     380.8848  0.036525202  0.036512527            2 
  870000    1.1140555    -6.519632    380.56939  0.036453007  0.036506008            2 
  871000    1.1229059   -6.5111093    383.06251  0.036649685   0.03649959            3 
  872000    1.1043446   -6.4776821    382.04796    0.0365107   0.03649285           10 
  873000    1.1067145   -6.5168239    381.95923  0.036460408  0.036486136            3 
  874000     1.123311   -6.4857839    383.29006  0.036545581  0.036479661            3 
  875000    1.1122219   -6.4561706    383.67976  0.036540929  0.036473503            2 
  876000    1.1143227   -6.5237805    383.61488  0.036493044  0.036466905            3 
  877000    1.1171628   -6.4954107    384.31383  0.036517848  0.036460115            2 
  878000    1.0819512   -6.4516025    383.82973  0.036430309    0.0364536            1 
  879000    1.1076857   -6.4918927    384.45001  0.036447669   0.03644677            1 
  880000    1.0876595   -6.4883686    385.00704     0.036459  0.036439875            2 
  881000    1.0995305    -6.496591    386.17871  0.036528444  0.036433381            3 
  882000      1.10853   -6.5311336    384.99492  0.036375181  0.036426463            4 
  883000    1.1022752   -6.5356226    384.30399   0.03626878  0.036419226            2 
  884000    1.1083506   -6.5176498    386.29254   0.03641521  0.036412045            2 
  885000    1.0850744   -6.5147443    386.28866  0.036373696  0.036405159            3 
  886000    1.0954728   -6.4786542    386.29135  0.036332896  0.036398347            2 
  887000    1.1058651   -6.5239933    387.74131  0.036428158  0.036391349            4 
  888000    1.0958339   -6.4836586    387.40108  0.036355206  0.036384099            3 
  889000    1.1118988   -6.4906681    387.19964  0.036295429  0.036376948            2 
  890000     1.122238   -6.4970355    388.03927  0.036333265  0.036369721            2 
  891000    1.1132829   -6.5121006    387.86256  0.036275959  0.036362592            4 
  892000    1.0954405   -6.4790705    387.27614  0.036180506   0.03635541            2 
  893000    1.1079832    -6.502721    389.06877  0.036307276    0.0363479            4 
  894000    1.1110334   -6.4801868    388.73777   0.03623581  0.036340465            3 
  895000    1.0983824    -6.534018    388.93834  0.036213998   0.03633263            4 
  896000    1.1487078   -6.5488577    387.57418  0.036046706  0.036324545            5 
  897000    1.1246549   -6.4964343    387.84759   0.03603192  0.036316843            4 
  898000    1.1186944   -6.4960219    389.46774  0.036142144  0.036308608            2 
  899000    1.0957851    -6.450364    391.80296  0.036318405  0.036300713            3 
  900000    1.1009874   -6.5172619    389.82693  0.036095087  0.036293033            3 
  901000    1.1076202   -6.5060664    390.64694  0.036130868  0.036285328            3 
  902000    1.1061906     -6.48371    392.74334  0.036284492  0.036277895            2 
  903000    1.0983824   -6.5392384    391.87027  0.036163739  0.036270185            2 
  904000    1.1348369    -6.490183    392.76877  0.036206561  0.036262493            1 
  905000    1.0966909    -6.512454    392.37311  0.036130121  0.036255268            5 
  906000    1.0897219   -6.5281425    393.46236   0.03619043  0.036247868            2 
  907000    1.1233126   -6.5092184    392.53231  0.036065078   0.03624062            3 
  908000    1.1089225   -6.4921872    394.24389  0.036182442  0.036233488            3 
  909000    1.0800531   -6.5298574    393.92274  0.036113195  0.036226271            5 
  910000    1.1038465   -6.5208448    395.18136  0.036188769  0.036218923            3 
  911000    1.1347326   -6.5020454    395.19177  0.036149997  0.036211817            3 
  912000    1.1054261   -6.5122202     395.4349  0.036132575  0.036204742            2 
  913000    1.1037077   -6.4977109    396.10454   0.03615412  0.036197783            4 
  914000     1.103868   -6.4920076    396.84256  0.036181853  0.036190518            2 
  915000    1.0903459   -6.5046105    395.92384  0.036058638  0.036183316            2 
  916000    1.0943819   -6.5337529    395.33567  0.035965763  0.036175799            4 
  917000    1.0989139   -6.4792952    397.53195  0.036126132  0.036168524            2 
  918000    1.1035342   -6.5203648    398.02738  0.036131752  0.036161368            7 
  919000    1.0894361   -6.5146938    398.38207  0.036124598  0.036154194            2 
  920000    1.0891764   -6.4940567    398.46793   0.03609311  0.036147158            3 
  921000    1.1215577   -6.5219549    399.19217  0.036119451  0.036140276            8 
  922000    1.0948553   -6.5001492    400.32747  0.036182888  0.036133187            6 
  923000    1.0974892   -6.4951027    400.34513  0.036145281  0.036126301            4 
  924000    1.1182746   -6.5134529    400.52583  0.036122459  0.036119381            3 
  925000    1.1068541   -6.5032427    401.45178  0.036166827  0.036112562            4 
  926000    1.0914219   -6.5349825    401.64813   0.03614544  0.036105657            3 
  927000     1.124411   -6.4643122    403.29517   0.03625451  0.036098748            3 
  928000    1.0975576   -6.5123591    401.68436  0.036070794  0.036091847            7 
  929000     1.116311   -6.4884138    402.57084  0.036111485  0.036084893            2 
  930000    1.1048195    -6.505938    401.06428  0.035937659  0.036078036            4 
  931000    1.1100035   -6.5030846    403.78657  0.036142729  0.036071086            5 
  932000    1.0985925   -6.5170133    404.33463  0.036152953  0.036064129            3 
  933000    1.1332262   -6.5180625    404.24441  0.036106146  0.036057232            2 
  934000     1.104852   -6.5002346     403.4411  0.035995816  0.036050468            2 
  935000    1.1142611   -6.5330365    403.72058  0.035982227   0.03604346            2 
  936000    1.1169734   -6.5153272    404.49584  0.036012807  0.036036117            6 
  937000    1.0891577   -6.4948095    405.75623  0.036086466  0.036028871            4 
  938000    1.1036587   -6.5093227    404.69438  0.035953659  0.036021564            4 
  939000    1.0849066    -6.519574    406.19755   0.03604877  0.036014762            3 
  940000    1.0857824   -6.4904367    407.44866  0.036121335   0.03600825            4 
  941000    1.1074632   -6.5468526    405.78879  0.035935954  0.036001674            3 
  942000    1.1060373   -6.5418164    406.57611  0.035967455  0.035995123            4 
  943000    1.0947903   -6.5137953    407.70917  0.036029442  0.035988325            2 
  944000    1.0964097   -6.5328958    407.02434  0.035930821  0.035981431            3 
  945000    1.0979044   -6.5381506    407.17801   0.03590635  0.035974584            3 
  946000    1.0842076   -6.5158814    407.50546  0.035897239  0.035967695            2 
  947000    1.1053964   -6.5416155    408.88132  0.035980404  0.035960746            2 
  948000    1.0741808   -6.5295777    410.17224  0.036055929   0.03595385            3 
  949000     1.095968   -6.4963724    408.92802  0.035908678  0.035946922            2 
  950000    1.0846809   -6.5622729    410.21146  0.035983461  0.035940299            2 
  951000    1.1244502   -6.5396481    410.47359  0.035968593  0.035933529            2 
  952000    1.0921212   -6.5444156    410.82608  0.035961667  0.035926707            3 
  953000    1.0719706   -6.5591597    410.44702  0.035890785  0.035919945            2 
  954000    1.0916765   -6.5054709    411.63471   0.03595691  0.035913452            3 
  955000    1.1059018   -6.5404373    411.03558  0.035866979  0.035906855            4 
  956000    1.1238234   -6.5082408    413.62649  0.036055308   0.03590046            4 
  957000    1.1071777   -6.5307678    413.33768  0.035992484   0.03589417            2 
  958000    1.1009216   -6.4886308     413.9101  0.036004706  0.035887503            2 
  959000    1.1124707   -6.4857035      413.093  0.035896159  0.035880996            3 
  960000    1.0958664    -6.516795    413.79278  0.035919512  0.035874259            2 
  961000     1.099511   -6.5072666     414.3232  0.035928131  0.035867316            3 
  962000    1.1014834   -6.5253922    414.22612  0.035882373  0.035860415            2 
  963000    1.0778197   -6.5338039    413.99413  0.035825037  0.035853827            3 
  964000    1.1027583   -6.5306994    415.52422  0.035920144  0.035847152            3 
  965000    1.1172059   -6.4862636     414.8532  0.035824974  0.035840521            1 
  966000    1.1090918   -6.5271503    415.74062  0.035864443  0.035833916            2 
  967000    1.0916494   -6.5201642    415.16612  0.035777846  0.035827297            3 
  968000     1.075822    -6.494598    415.83533  0.035798496  0.035820572            4 
  969000    1.0985971   -6.4983765     416.9609  0.035858351  0.035813771            2 
  970000    1.1104395   -6.5445336    417.10137  0.035833451  0.035806716            5 
  971000    1.0797376   -6.5539004    416.63354  0.035756397  0.035799339            2 
  972000    1.0929554   -6.4926933    417.64641  0.035806448  0.035792217            2 
  973000    1.0821882   -6.5012851    416.63383  0.035682924  0.035785132            4 
  974000    1.1046093   -6.4827351    419.21713  0.035867311  0.035778017            1 
  975000    1.1168719   -6.5621542    417.94115  0.035721465  0.035770936            2 
  976000    1.0902472   -6.5468366    417.70164  0.035664416  0.035763634            4 
  977000    1.1016283   -6.5309274    418.50553   0.03569648  0.035756501            3 
  978000    1.1023648   -6.5089753    418.38243  0.035649491  0.035749136            3 
  979000    1.1090985   -6.5330493    417.31132  0.035521903  0.035741555            2 
  980000    1.1066051   -6.5218638     420.0103  0.035715162  0.035734116            2 
  981000    1.0932897   -6.5321755    419.15227  0.035605867  0.035726739            4 
  982000    1.1023626   -6.5309634    420.92911  0.035720393  0.035719406            3 
  983000    1.0794699   -6.5203926    420.56461  0.035653154  0.035712003            2 
  984000    1.0891714   -6.5397772      418.618  0.035452067  0.035704323            2 
  985000    1.0996603   -6.5582155     420.8453  0.035604509  0.035696746            3 
  986000    1.0951848   -6.4984195    422.09059  0.035673647  0.035689334            3 
  987000    1.1024144   -6.5564842     420.2364  0.035480952  0.035681791            3 
  988000    1.0700188   -6.5352589    420.96905  0.035506836  0.035674159            3 
  989000    1.0975892   -6.5286129     422.1139    0.0355674   0.03566671            2 
  990000    1.0920882   -6.5227023    422.20158  0.035538853  0.035658957            4 
  991000    1.0805263   -6.5071228    422.80118  0.035553412  0.035651501            3 
  992000    1.1035764   -6.5344688    422.70121  0.035509174  0.035644079            3 
  993000    1.0769638   -6.5054864    423.36946  0.035529495  0.035636736            3 
  994000    1.0886888   -6.5339715    424.00517  0.035547046   0.03562926            3 
  995000     1.090886   -6.5499672    425.58525  0.035643656  0.035621733            3 
  996000    1.0855895   -6.5523878    424.34901  0.035504435   0.03561448            5 
  997000    1.0958905   -6.5470568    425.13356    0.0355344  0.035607331            5 
  998000    1.0951479   -6.5618045    427.02659  0.035656863  0.035600466            3 
  999000    1.0921414   -6.5454611     426.2503  0.035556415  0.035593587            2 
 1000000    1.0978681   -6.5415321    427.67966  0.035639972  0.035586789            6 
 1001000    1.0600518   -6.5330644    426.84237  0.035534663  0.035580038            2 
 1002000    1.0747453    -6.564209    427.94865  0.035591205  0.035573378            2 
 1003000    1.0804886   -6.5430891    429.56165  0.035689735  0.035566889            4 
 1004000    1.0804406    -6.547338    428.81952  0.035592589  0.035560444            3 
 1005000    1.0683108   -6.5692135    428.10648   0.03549805   0.03555392            5 
 1006000    1.0788514    -6.569928    429.25061  0.035557539  0.035547329            4 
 1007000    1.0848371   -6.5138631    430.09895  0.035592432  0.035540639            4 
 1008000    1.0879722    -6.539486    430.82324  0.035617001   0.03553411            3 
 1009000    1.0877006   -6.5567939    432.04074  0.035682254   0.03552761            2 
 1010000    1.0776261   -6.5270831      430.084  0.035485479  0.035520846            3 
 1011000    1.0921095   -6.5368858    430.24099  0.035463319  0.035514339            2 
 1012000    1.0987621   -6.5453125    433.05167  0.035659723  0.035507857            3 
 1013000     1.101167   -6.5452254    432.26921  0.035560152  0.035501787            2 
 1014000    1.0955325   -6.5703752    433.45417  0.035622467  0.035495565            6 
 1015000    1.0779405   -6.5434174    433.03824  0.035553222  0.035489221            3 
 1016000    1.1132354   -6.5337745     434.4017   0.03563006  0.035483564            2 
 1017000    1.0872821   -6.5439171    434.15332  0.035574674   0.03547741            2 
 1018000    1.0898002   -6.5733021    433.31899   0.03547143  0.035470989            5 
 1019000    1.0775923   -6.5238511    435.72234  0.035633165  0.035464565            5 
 1020000    1.0891686   -6.5424738    434.59369   0.03550602  0.035458317            3 
 1021000    1.1023857   -6.5431731     436.1962  0.035602041  0.035452456            8 
 1022000    1.0780493   -6.5325846    435.63263  0.035521251  0.035446324            3 
 1023000    1.0897129   -6.5751548     436.0024   0.03551665  0.035440325            3 
 1024000    1.0975999   -6.5677216    437.54253  0.035607302  0.035434215            5 
 1025000    1.1136769   -6.5483947    436.84994  0.035516255  0.035428155            4 
 1026000    1.0975356   -6.5641335    438.08721  0.035582132  0.035422125            4 
 1027000    1.1068374   -6.5337991    440.68097   0.03575795  0.035416415            4 
 1028000    1.0673064   -6.5875295    438.68844  0.035561644  0.035410583            4 
 1029000    1.0666055   -6.5156143    439.20549  0.035568957  0.035404548            3 
 1030000    1.0524841   -6.5444912    437.99441  0.035436441  0.035398568            3 
 1031000    1.1004808   -6.5700858    438.85403  0.035471551  0.035392229            2 
 1032000    1.1061569   -6.5252998    440.15202  0.035541991  0.035386201            4 
 1033000    1.0912967   -6.5653185    439.20752  0.035431391  0.035379977            3 
 1034000    1.0860446   -6.5351395     440.8903  0.035532745  0.035373585            2 
 1035000    1.0848881   -6.5446175    439.80672  0.035411169  0.035367319            4 
 1036000     1.073355   -6.5211272    438.95456  0.035308442  0.035360944            2 
 1037000    1.0867514    -6.511682    441.39716  0.035470682  0.035354445            5 
 1038000    1.0700095   -6.5338163    441.30047  0.035428747   0.03534775            2 
 1039000    1.0994833     -6.58161    440.53781  0.035333479  0.035340948            2 
 1040000     1.101386   -6.5506954    440.35343   0.03528473  0.035334141            4 
 1041000    1.0808213   -6.5547529    441.46265  0.035339629  0.035327096            3 
 1042000    1.0794309   -6.5909712    440.59396  0.035236241  0.035320096            2 
 1043000    1.0799249   -6.5705694     441.6317  0.035285371  0.035313162            6 
 1044000    1.0715603   -6.5389673    442.88032  0.035351239  0.035306232            2 
 1045000    1.1064457   -6.5506071    441.99131  0.035246516  0.035299431            3 
 1046000    1.0673721   -6.5512633    442.57943  0.035259674  0.035292472            8 
 1047000    1.0893204   -6.4962898    443.57451  0.035305198  0.035285453            2 
 1048000    1.1034111   -6.5833879    443.35052  0.035253699  0.035278628            2 
 1049000    1.0893426   -6.5053773    444.83772  0.035338236  0.035271885            2 
 1050000    1.1040451   -6.5310318    443.57649  0.035204483   0.03526495            6 
 1051000    1.0956357   -6.5681867    444.16828   0.03521791     0.035258            4 
 1052000    1.0965753   -6.5382919    446.28597  0.035352184  0.035251081            2 
 1053000    1.0954572   -6.5407773    444.58615  0.035184089  0.035244341            3 
 1054000    1.0814724   -6.5700471    443.84259  0.035091919  0.035237314            2 
 1055000    1.0795871   -6.5559334    447.00832  0.035308714  0.035230294            2 
 1056000    1.0677201   -6.5323931    446.96963  0.035272225  0.035222925            4 
 1057000    1.0787747   -6.5793331    446.32301  0.035187875  0.035215934            2 
 1058000    1.0957312   -6.5124598    447.97869  0.035285026  0.035209016            4 
 1059000    1.0796391   -6.5226289     447.2901  0.035197521  0.035202304            4 
 1060000    1.0804966   -6.5853146    447.15905  0.035154013  0.035195327           10 
 1061000    1.0674099   -6.5392842    450.34122  0.035370815  0.035188603            2 
 1062000    1.1034902   -6.5811857    449.16656  0.035245336  0.035182126            6 
 1063000    1.0741187   -6.5725915    450.02261  0.035279289  0.035175643            2 
 1064000    1.1108064   -6.5436806    449.20208  0.035181868  0.035169276            3 
 1065000    1.0647824   -6.5458299    451.55177  0.035332689  0.035163026            2 
 1066000    1.0644343   -6.5472877    452.53248   0.03537621  0.035156837            2 
 1067000     1.068109   -6.5426664    451.49839  0.035262292  0.035150844            2 
 1068000      1.08265   -6.5424896    451.21904  0.035207478  0.035144658            4 
 1069000    1.0845849   -6.5652269    451.82824  0.035222033   0.03513854            5 
 1070000    1.0797623   -6.5741682    450.94178  0.035120076  0.035132071            5 
 1071000    1.0669201   -6.5444604    452.96248  0.035244513  0.035125705            2 
 1072000    1.0821054   -6.5315437    451.96895  0.035134402  0.035119264            7 
 1073000    1.0597858   -6.5637172    453.68671  0.035235066  0.035113263            7 
 1074000    1.0670413   -6.5453915    454.51961  0.035266885  0.035107111            3 
 1075000    1.0874904   -6.5572203    454.88621  0.035262497  0.035101102            2 
 1076000    1.0895272   -6.5726201    455.23459  0.035256706  0.035094868            5 
 1077000    1.0656827   -6.5231929    456.57116  0.035327388  0.035088826            4 
 1078000    1.0786156   -6.5420745    455.55427  0.035216007  0.035082907            1 
 1079000     1.071391   -6.5665142    454.89186   0.03513221  0.035076915            3 
 1080000    1.0905902   -6.5779634    456.87142  0.035252425  0.035070911            3 
 1081000    1.0865129   -6.5169324     457.5237  0.035270097  0.035065008            3 
 1082000    1.0790602   -6.5563414    457.77866  0.035257137  0.035058931            3 
 1083000    1.0677566   -6.5628166    457.44665  0.035199034  0.035052733            9 
 1084000    1.0867259   -6.5796742    457.44043  0.035166085  0.035046296            3 
 1085000    1.1034181   -6.5646586    458.03773  0.035179549  0.035040061            2 
 1086000    1.0944952   -6.5445491    456.78159  0.035050766  0.035033908            3 
 1087000     1.095299   -6.5681275    458.74059  0.035168705  0.035027568            3 
 1088000    1.0829047   -6.5491781    459.67422  0.035207891  0.035021335            3 
 1089000    1.0733105   -6.5673874    459.04061  0.035127075  0.035015267            3 
 1090000    1.0639385   -6.5457644    459.59459  0.035137201  0.035008944            2 
 1091000    1.0727797   -6.5519473    460.98678  0.035211334  0.035003073            3 
 1092000    1.0696495    -6.527645    460.32486  0.035128576  0.034996924            4 
 1093000     1.049573    -6.566097    460.83472   0.03513531  0.034990879            6 
 1094000     1.086507   -6.5778145    462.03549   0.03519466  0.034985018            4 
 1095000    1.0619919   -6.5814211    461.97172  0.035157665  0.034979226            4 
 1096000     1.079407   -6.5971035    463.06774  0.035208922  0.034973326            2 
 1097000    1.0489394   -6.5794399    463.16729  0.035184389  0.034967706            3 
 1098000    1.0841825   -6.5648378    461.51576     0.035027  0.034961772            4 
 1099000    1.0594474   -6.5458812    463.22539  0.035124764  0.034955605            4 
 1100000     1.055995   -6.5699941    464.15948  0.035163597  0.034949848            2 
 1101000    1.0754456   -6.5762335    464.54517  0.035160852  0.034944072            3 
 1102000    1.0834256   -6.5948548    466.32585    0.0352636  0.034938264            2 
 1103000    1.0881918   -6.5871823    465.08709  0.035138039  0.034932163            2 
 1104000    1.0770998   -6.5508887    464.49505  0.035061522  0.034926257            2 
 1105000    1.0604456    -6.563339    464.94109  0.035063431  0.034920314            1 
 1106000    1.0444935   -6.5658735    466.22544  0.035128499  0.034914468            3 
 1107000    1.0639447   -6.5882221    464.94918  0.035000691  0.034908435            5 
 1108000    1.0512574    -6.533331    465.53458  0.035013131  0.034902477            3 
 1109000    1.0588492   -6.5430107    465.53513    0.0349816  0.034896681            6 
 1110000    1.0958839   -6.5779054    466.67414  0.035035596   0.03489086            4 
 1111000    1.0614601   -6.5463792    468.30946  0.035126722  0.034885111            3 
 1112000     1.080238   -6.5694728     467.3803  0.035025502  0.034879262            2 
 1113000    1.0928459    -6.571993    467.84094  0.035028522   0.03487351            3 
 1114000    1.0922969    -6.597674    467.97014  0.035006743   0.03486745            3 
 1115000    1.0648201   -6.5730966    467.80279  0.034962839  0.034861545            3 
 1116000    1.0981027   -6.5893814    469.95849   0.03509248  0.034855559            4 
 1117000    1.0831018   -6.5596608    470.14723  0.035075144   0.03484985            6 
 1118000    1.0752011   -6.5818854    468.58166  0.034927076  0.034843874            2 
 1119000    1.0880982    -6.562883    470.75148  0.035057453  0.034838086            3 
 1120000    1.0595634   -6.5555462    471.35753  0.035071245  0.034832367            4 
 1121000    1.0903374   -6.5741523    471.48288  0.035049277  0.034826581            2 
 1122000    1.0593621   -6.5865844    470.88685   0.03497377  0.034821069            6 
 1123000    1.0486434   -6.5790792    473.16647  0.035111789  0.034815527            5 
 1124000    1.0712628    -6.552413    473.43411  0.035100394  0.034810064            3 
 1125000    1.0552416   -6.5644566    472.75802  0.035019113  0.034804569            2 
 1126000    1.0744487   -6.5598362    474.46821   0.03511458  0.034798692            4 
 1127000    1.0830772   -6.6000132    472.68449   0.03495153  0.034792971            5 
 1128000    1.0771516   -6.5641585    474.00601  0.035018174  0.034787261            4 
 1129000    1.0903618   -6.6220347    472.59365  0.034882909  0.034781458            5 
 1130000    1.0676372   -6.5864805    475.28037  0.035050175   0.03477563            3 
 1131000    1.0825855   -6.5499931    475.38109  0.035026606  0.034769856            3 
 1132000    1.0627406   -6.6221441    475.06397  0.034972318  0.034764134            2 
 1133000    1.0550101   -6.5702182    473.80151  0.034848596  0.034758303            3 
 1134000    1.0667293   -6.5445957    477.14291  0.035063412  0.034752742            5 
 1135000     1.074273   -6.5686073    475.93934  0.034944151  0.034747362            3 
 1136000    1.0618786   -6.5578508     475.5745  0.034886627  0.034741952            5 
 1137000    1.0728973   -6.5864696    478.46967  0.035068137  0.034736325            4 
 1138000    1.0447254   -6.5997107    477.02868  0.034931801  0.034730675            6 
 1139000    1.0478244   -6.5801432    477.35662  0.034925126  0.034725137            4 
 1140000    1.0747217   -6.5721667    478.94043  0.035010265  0.034719665            3 
 1141000    1.0745526    -6.602913    477.80643   0.03489676  0.034713911            2 
 1142000    1.0743202   -6.5774707    478.80207  0.034938855  0.034708083            4 
 1143000    1.0455059   -6.5891524    478.90125  0.034915518  0.034702384            3 
 1144000    1.0641703   -6.5897766    478.13726  0.034829346  0.034696415            3 
 1145000    1.0629243   -6.5901345    478.70796  0.034840463  0.034690326            4 
 1146000    1.0562772    -6.626969    480.78265  0.034960926  0.034684251            4 
 1147000    1.0554719   -6.5637524    479.34534   0.03482602   0.03467837            4 
 1148000    1.0433441   -6.5927557    480.90263  0.034908728  0.034672638            3 
 1149000    1.0741001     -6.55861    480.35843  0.034838876  0.034667055            3 
 1150000     1.067817   -6.6176013    478.45904  0.034670945  0.034661087            4 
 1151000    1.0730645   -6.5513325    480.90721  0.034818072  0.034655269            3 
 1152000    1.0898092   -6.5507455    483.21487  0.034954779  0.034649482            3 
 1153000    1.0597756   -6.5736475     480.7213   0.03474424  0.034643626            2 
 1154000     1.080048   -6.5720235    480.90202  0.034727183  0.034637571            2 
 1155000    1.0872698   -6.5466878    482.43913  0.034808018  0.034631627            3 
 1156000    1.0875911   -6.5913747    481.53318    0.0347126  0.034625655            3 
 1157000    1.0682661   -6.5760709    482.76137  0.034771058  0.034619509            5 
 1158000    1.0733255   -6.5775054    480.95249  0.034610859  0.034613479            5 
 1159000    1.0757275   -6.5847972    485.05203  0.034875757  0.034607473            3 
 1160000    1.0782851   -6.5874853     481.9073  0.034619777  0.034601507            4 
 1161000     1.066736   -6.5717805    485.20432   0.03482661  0.034595493            5 
 1162000     1.081763   -6.5882857    484.38231  0.034737687  0.034589602            2 
 1163000    1.0663355   -6.5621087    485.62838  0.034797104  0.034583814            2 
 1164000    1.0591484   -6.5700156    485.87699  0.034785008  0.034577913            2 
 1165000    1.0791694   -6.6192118    487.59837  0.034878281  0.034572205            4 
 1166000    1.0681098   -6.5933273    484.99905  0.034662597   0.03456636            5 
 1167000    1.0679043   -6.5796154    485.92119  0.034698743  0.034560537            4 
 1168000    1.1007514   -6.5984518    486.13968  0.034684623  0.034554809            4 
 1169000    1.0882034   -6.5405718    488.25622  0.034805833  0.034549272            3 
 1170000    1.0808973   -6.6011337    486.90298    0.0346797  0.034543813            4 
 1171000    1.0662742   -6.5900521    488.39628  0.034756354  0.034538347            3 
 1172000    1.0682747   -6.5802121    489.21388  0.034784832  0.034532787            7 
 1173000    1.0850658   -6.5751083    489.73887  0.034792475  0.034527116            4 
 1174000    1.0638819   -6.5876581    489.09688  0.034717268  0.034521441            3 
 1175000    1.0271336   -6.5970728    488.82202  0.034668228  0.034515768            3 
 1176000    1.0750159   -6.5577518    490.72458  0.034773567  0.034509913            4 
 1177000    1.0622493    -6.569364    491.92743  0.034829187  0.034504365            3 
 1178000    1.0737273   -6.5955954     490.9438  0.034730037  0.034498755            2 
 1179000    1.0657219   -6.6110247    489.57648  0.034603935  0.034492998            3 
 1180000    1.0438709   -6.5743143    490.18723  0.034617742  0.034487176            6 
 1181000    1.0493374   -6.5870013    490.93437  0.034641149  0.034481263            2 
 1182000    1.0956692   -6.6081037    490.66671  0.034592971  0.034475281            4 
 1183000    1.0602878    -6.585062    490.22272  0.034532454  0.034469192            5 
 1184000    1.0815304   -6.5867836    490.93679  0.034553547  0.034463223            4 
 1185000    1.0538838   -6.5738496    492.55991  0.034638531  0.034457248            2 
 1186000    1.0647893   -6.5947663    491.32345  0.034522446   0.03445099            3 
 1187000     1.040179   -6.5630536    494.67033   0.03472833  0.034445202            4 
 1188000    1.0449643   -6.6364677    491.98154  0.034510489  0.034439253            3 
 1189000    1.0548323    -6.585966    492.77507  0.034537081   0.03443325            2 
 1190000    1.0781681   -6.5972857    493.89943  0.034586795  0.034427036            6 
 1191000    1.0600923   -6.6277546    493.42819  0.034524782  0.034420896            7 
 1192000    1.0637644    -6.582461    493.54311  0.034503853  0.034414722            6 
 1193000    1.0556523   -6.5663305     493.4332  0.034467254  0.034408556            3 
 1194000    1.0839674   -6.6034634    493.81481   0.03446502  0.034402448            4 
 1195000    1.0588857   -6.5696997    495.21756     0.034534  0.034396334            2 
 1196000     1.060304   -6.5940228    496.09015  0.034565925  0.034390285            4 
 1197000    1.0874262   -6.6117694    496.06176  0.034535071  0.034384204            3 
 1198000     1.043735   -6.5733857    496.11467  0.034509925  0.034377896            2 
 1199000    1.0580152   -6.5930064    496.26715  0.034491739  0.034371623            3 
 1200000    1.0524476   -6.5866618    495.99403   0.03444403  0.034365339            3 
 1201000    1.0950359   -6.6033802    496.27684  0.034434974  0.034359112           10 
 1202000     1.073653   -6.6245321    494.49816  0.034283012  0.034352652            5 
 1203000    1.0662791    -6.603477    496.97094  0.034425806  0.034346204            2 
 1204000    1.0404411   -6.5923603    497.29193  0.034419431  0.034340052            5 
 1205000    1.0591481   -6.6056318    496.94662  0.034366986  0.034333703            3 
 1206000    1.0598867   -6.5872607    498.83815  0.034469192  0.034327504            3 
 1207000    1.0412568   -6.6329311    498.38818  0.034409567  0.034321309            4 
 1208000    1.0628601   -6.5927792    499.45766  0.034454861  0.034315149            3 
 1209000    1.0752612    -6.595924    499.43605  0.034424873  0.034308927            2 
 1210000    1.0567847   -6.5852117     498.8831   0.03435834  0.034302715            3 
 1211000    1.0535176   -6.5832778    499.85508  0.034396854   0.03429649            2 
 1212000    1.0571917   -6.6273966    499.49461  0.034343689  0.034290267            2 
 1213000     1.070343   -6.6343217    500.32158  0.034372188  0.034284135            4 
 1214000    1.0810715   -6.5637243     500.7319  0.034372041  0.034277962            3 
 1215000    1.0797775   -6.5832733    501.44357  0.034392563  0.034271631            3 
 1216000    1.0493542   -6.6515158    500.77633  0.034318553  0.034265318            5 
 1217000    1.0718204   -6.6258691       501.76   0.03435771  0.034259043            6 
 1218000     1.061389   -6.6124864     501.4708  0.034309716  0.034252905            3 
 1219000    1.0553315   -6.6305214    501.78767  0.034303232  0.034246436            3 
 1220000    1.0763707   -6.6311653    500.49105  0.034186547  0.034239848            4 
 1221000    1.0811354   -6.6194996    502.89446  0.034322581  0.034233264            8 
 1222000    1.0653307   -6.6356338    502.42136  0.034262231  0.034226729            4 
 1223000     1.057576   -6.5890649    502.45934  0.034236804  0.034220066            3 
 1224000     1.046748   -6.6122573    501.85426  0.034167638  0.034213222            2 
 1225000    1.0502799   -6.5888727    502.21933   0.03416458   0.03420623            3 
 1226000    1.0410878   -6.5971456    503.26936  0.034208086  0.034199432            4 
 1227000    1.0610816   -6.5667445    503.05365  0.034165556  0.034192493            6 
 1228000    1.0693483   -6.6024376    502.24901   0.03408313  0.034185697            3 
 1229000    1.0457778    -6.623802    504.21206  0.034188504  0.034178864            2 
 1230000    1.0604053   -6.5838129    504.90673  0.034207773  0.034172075            8 
 1231000    1.0740057   -6.5989283    505.23523  0.034202222  0.034165478            4 
 1232000    1.0658892   -6.6358793    504.61045    0.0341322  0.034158726            5 
 1233000    1.0503176   -6.5843026    505.20103  0.034144433    0.0341519            3 
 1234000    1.0522705   -6.5963169    506.36499  0.034195367  0.034145172            4 
 1235000    1.0352341   -6.6145191    505.09322  0.034081864  0.034138537            2 
 1236000    1.0603956   -6.6022248     508.2491  0.034267064   0.03413181            2 
 1237000    1.0582558   -6.6151338    507.40217  0.034182307  0.034125429            3 
 1238000    1.0468803   -6.5735027     506.9413  0.034123674  0.034119056            5 
 1239000    1.0591081   -6.6023418     508.6731  0.034212611  0.034112749            3 
 1240000    1.0344696   -6.6124172    508.75429  0.034190476  0.034106475            4 
 1241000    1.0690049   -6.6212283    508.55106  0.034149279  0.034100295            4 
 1242000    1.0547324    -6.617968    510.52823  0.034254444  0.034094286            5 
 1243000    1.0475508   -6.6236448    509.63436  0.034166959  0.034088192            3 
 1244000    1.0478164   -6.5913939    509.74907  0.034147178  0.034081997            3 
 1245000    1.0578807   -6.5704597    510.20297  0.034150132  0.034075887            3 
 1246000    1.0259661   -6.6002528     510.9195  0.034170646  0.034069646            4 
 1247000    1.0680406   -6.5809537    510.71223  0.034129392  0.034063222            4 
 1248000    1.0532746   -6.6295471    510.46796  0.034085735  0.034056698            6 
 1249000    1.0470264   -6.5888999    511.78289  0.034146176  0.034050303            3 
 1250000    1.0498808   -6.6205764    511.49783  0.034099856   0.03404368            3 
 1251000    1.0407619   -6.6180323    510.56903  0.034010727  0.034037084            6 
 1252000    1.0447337   -6.6041894    510.90106  0.034005662  0.034030256            3 
 1253000    1.0440913   -6.6145907    511.40795  0.034012234  0.034023244            6 
 1254000    1.0712697   -6.5742792    511.97844  0.034023023  0.034016415            6 
 1255000    1.0531662   -6.6155221    511.63583  0.033973163   0.03400961            3 
 1256000    1.0508068   -6.5896882    512.68314  0.034015601  0.034002904            4 
 1257000    1.0350632   -6.6140483    513.83842   0.03406513  0.033996308            1 
 1258000     1.055636    -6.616517    512.00247  0.033916433  0.033989553            3 
 1259000    1.0402677   -6.6247071    512.55409  0.033926005  0.033982733            2 
 1260000    1.0282159   -6.6050228    513.48036  0.033960341  0.033975814            2 
 1261000    1.0526245   -6.6097267    512.95866  0.033898933  0.033968983            4 
 1262000    1.0514997   -6.5987213    514.52649    0.0339756  0.033962236            3 
 1263000    1.0587902   -6.6334332    514.02341  0.033915506  0.033955635            3 
 1264000    1.0664881   -6.5899417    515.10557  0.033960019  0.033948894            2 
 1265000    1.0567681     -6.59168    516.18518  0.034004294  0.033942194            3 
 1266000    1.0434055     -6.63074    514.97748  0.033897938  0.033935252            4 
 1267000    1.0575251   -6.6037246    515.74693  0.033921792  0.033928364            3 
 1268000    1.0472669   -6.6177195    514.15936  0.033790704  0.033921636            2 
 1269000    1.0366586   -6.5793836    517.15938  0.033961083  0.033914963            6 
 1270000    1.0437764   -6.6018991    517.18925  0.033936303  0.033908177            3 
 1271000    1.0338169   -6.5798431    517.65765  0.033940313  0.033901497            4 
 1272000    1.0549569   -6.6282026    517.35991  0.033894124  0.033894986            2 
 1273000    1.0536379   -6.6232373    519.49726  0.034007414  0.033888513            2 
 1274000    1.0692154   -6.6332535    518.44257  0.033911733  0.033882077            2 
 1275000    1.0454521   -6.6038729    517.87442  0.033848001   0.03387558            4 
 1276000    1.0314324   -6.5948774    518.99779   0.03389484  0.033869146            3 
 1277000    1.0558648   -6.6322688    518.14015   0.03381233  0.033862717            5 
 1278000    1.0646554   -6.6042268    520.20629  0.033920598  0.033856298            4 
 1279000    1.0328245   -6.6527205    520.72866  0.033928112  0.033849838            4 
 1280000    1.0425538   -6.6058676    519.46794  0.033819527  0.033843392            3 
 1281000    1.0359386   -6.6199553    519.41894  0.033789939    0.0338369            8 
 1282000    1.0389215   -6.6230841    520.75568  0.033850473  0.033830153            3 
 1283000    1.0255791   -6.6207997    522.08392  0.033910361  0.033823615            2 
 1284000    1.0534283   -6.6130418     521.4062  0.033839966  0.033817238            5 
 1285000    1.0460165   -6.6213735    520.78555  0.033773382  0.033810846            3 
 1286000    1.0457369   -6.6153949    523.56095  0.033926967  0.033804462            3 
 1287000     1.048292   -6.6382127     523.4944  0.033896296  0.033797914            5 
 1288000    1.0340808   -6.6302951    524.34857  0.033925244  0.033791588            4 
 1289000    1.0581855   -6.6447452    523.09219    0.0338177  0.033785253            4 
 1290000    1.0311968   -6.6357371    524.92878  0.033910128  0.033778922            3 
 1291000    1.0454943   -6.6359049    525.13432  0.033897129  0.033772753            5 
 1292000    1.0621928   -6.5971345    526.53042   0.03396094   0.03376661            3 
 1293000    1.0362324   -6.6405925    524.28955  0.033790252  0.033760393            6 
 1294000    1.0542862   -6.6161866    524.42131  0.033772624  0.033754119            4 
 1295000    1.0521291   -6.6496999    525.60481  0.033822704  0.033747733           14 
 1296000    1.0459095    -6.637503    524.32921  0.033714584  0.033741096            5 
 1297000    1.0420919   -6.6248672    527.16299  0.033870663   0.03373462            3 
 1298000    1.0316716   -6.6410531    525.47383  0.033736121  0.033728226            4 
 1299000    1.0357237    -6.598897     526.1981  0.033756614  0.033721759            2 
 1300000    1.0445571   -6.6022667    525.70882  0.033699283  0.033715426            5 
 1301000     1.034011   -6.6242849    527.11197  0.033763257  0.033708989            5 
 1302000    1.0617692   -6.6554312    527.92829  0.033789573  0.033702517            3 
 1303000     1.034164   -6.6161432    527.73825  0.033751487  0.033695965            5 
 1304000    1.0186708   -6.6148526    528.09085  0.033748137  0.033689537           10 
 1305000     1.035063   -6.6211014    529.43779  0.033808288  0.033683132            2 
 1306000    1.0293685   -6.6440939    528.50488  0.033722874  0.033676844            7 
 1307000    1.0568159   -6.6155616    529.18804   0.03374063  0.033670644            2 
 1308000    1.0418209   -6.6226287     529.5862  0.033740201  0.033664354            4 
 1309000    1.0624222    -6.668191     530.3316   0.03376188  0.033658101            5 
 1310000    1.0521421   -6.6124183     531.5472  0.033813435  0.033651824            3 
 1311000    1.0371336   -6.6183046    530.63397  0.033729594  0.033645664            3 
 1312000    1.0542274   -6.6003675     534.3666  0.033940968  0.033639612            5 
 1313000     1.047129   -6.6163507    532.48577  0.033795745  0.033633688            2 
 1314000    1.0172385   -6.6180442    533.05311  0.033806006  0.033627468            3 
 1315000     1.031654   -6.6255851    531.88679  0.033706387  0.033621371            6 
 1316000    1.0231088   -6.6382885    531.94086  0.033684198  0.033615444            5 
 1317000    1.0540345   -6.6187134    533.47051  0.033755411  0.033609268            4 
 1318000    1.0285034   -6.6867085    532.90872  0.033694279  0.033603179            4 
 1319000    1.0267135   -6.6324715    533.67341  0.033717046  0.033596967            2 
 1320000    1.0397483   -6.6186959    534.64928  0.033753111  0.033590865            9 
 1321000    1.0422577   -6.6170607      534.488  0.033717386  0.033584901            2 
 1322000    1.0495706   -6.6374825    533.95772  0.033658454  0.033579019            3 
 1323000    1.0397996   -6.6240962     535.9829  0.033760576  0.033573133            2 
 1324000    1.0281072   -6.6239909     536.0833  0.033741396  0.033567542            7 
 1325000    1.0480915   -6.6398312    535.02036  0.033649079   0.03356188            3 
 1326000    1.0176897    -6.643473    538.46566  0.033840225  0.033556015            4 
 1327000    1.0189985   -6.6457273    536.53944   0.03369376  0.033550289            2 
 1328000    1.0270664   -6.6205104    537.61068   0.03373561   0.03354438            5 
 1329000    1.0284214   -6.6155971    539.31459  0.033817067   0.03353866            3 
 1330000    1.0436289   -6.6591619    537.27729  0.033663991  0.033532779            3 
 1331000    1.0197351   -6.6493244    537.93332  0.033679772  0.033526993            2 
 1332000    1.0601647   -6.6625723    536.34389  0.033555048  0.033521087            6 
 1333000     1.056058   -6.6574326    539.08177  0.033701036  0.033515186            5 
 1334000    1.0471188   -6.6497015    539.93541  0.033729099  0.033509288            4 
 1335000    1.0345313   -6.6447252    539.74774  0.033692119   0.03350327            3 
 1336000    1.0583173   -6.6989212    537.99375  0.033557494  0.033497296            9 
 1337000    1.0402367   -6.6500268    539.05442  0.033598505  0.033491219           12 
 1338000    1.0471898   -6.6415027    540.05676  0.033635822  0.033485176            4 
 1339000    1.0188802   -6.6404917    539.43173  0.033571803  0.033479123            3 
 1340000    1.0308074   -6.6651478    541.32831  0.033664696  0.033473102            6 
 1341000    1.0297605   -6.6622609    540.79184  0.033606254  0.033467109            3 
 1342000    1.0505505   -6.6333837    540.57054   0.03356747  0.033461064            3 
 1343000    1.0405814   -6.6698423    539.63632  0.033484507  0.033455147            2 
 1344000    1.0428536   -6.6314051    542.39471  0.033630624  0.033449093            3 
 1345000    1.0400753   -6.6415649    542.13181  0.033589331  0.033442934            2 
 1346000    1.0285183   -6.6487216    542.69871  0.033599475  0.033436796            5 
 1347000    1.0399688   -6.6202664    541.68449  0.033511785  0.033430586            4 
 1348000    1.0255718   -6.6363146     541.9397  0.033502702  0.033424468            2 
 1349000    1.0402214   -6.6517282    542.45441  0.033509662  0.033418292            3 
 1350000    1.0376802    -6.669678    542.31337  0.033476134  0.033411973            2 
 1351000     1.014196   -6.6251605    542.25814  0.033447948  0.033405533            5 
 1352000    1.0237723   -6.6525103    544.22737  0.033544586   0.03339912            7 
 1353000    1.0402657   -6.6081496    544.24936  0.033521148  0.033392884            9 
 1354000    1.0568723   -6.6698088    543.88338  0.033473867  0.033386581            8 
 1355000    1.0370697   -6.6490443    542.46309  0.033361813  0.033380107            3 
 1356000    1.0280698   -6.6570801    543.61126  0.033407771  0.033373607            6 
 1357000    1.0087087   -6.6721895    542.88994  0.033338857   0.03336705            3 
 1358000    1.0161057   -6.6204309    545.76233   0.03349057  0.033360642            3 
 1359000     1.020384   -6.6085558    545.40135  0.033443791  0.033354228            7 
 1360000    1.0371223   -6.6580937    543.46604  0.033300615  0.033347912            3 
 1361000    1.0303473   -6.6497358    543.39937  0.033272065  0.033341485            3 
 1362000    1.0123197   -6.6469496    543.78868  0.033271456  0.033334992            4 
 1363000    1.0435454   -6.6299134    547.62646  0.033481686   0.03332855            3 
 1364000    1.0277671   -6.6252308    548.64129   0.03351914  0.033322112            4 
 1365000    1.0233121   -6.6681575    545.75676  0.033318483  0.033315669            4 
 1366000    1.0545728   -6.6439273    546.44952  0.033336354  0.033309229            2 
 1367000    1.0335884   -6.6608922    546.93785  0.033341737  0.033302566            3 
 1368000    1.0165355    -6.657135      546.343  0.033281128  0.033295905            3 
 1369000    1.0356213   -6.6533005    547.02398   0.03329827  0.033289145            2 
 1370000    1.0072519   -6.6314844    548.84261  0.033384587  0.033282579            3 
 1371000     1.041514    -6.659272    548.08059  0.033313919  0.033276103            5 
 1372000    1.0253095   -6.6652336     547.2527  0.033239353  0.033269492            5 
 1373000      1.02027    -6.623896    548.96761  0.033319229  0.033262895            6 
 1374000    1.0345867   -6.6624328    547.24933  0.033190765  0.033256377            5 
 1375000    1.0310387   -6.6511095    549.75019  0.033318194  0.033249949            3 
 1376000     1.053219   -6.6357384    548.81361  0.033237259  0.033243421            2 
 1377000    1.0321758   -6.6309722    549.10969  0.033231039  0.033236884            3 
 1378000    1.0592733   -6.6408907    551.15611  0.033330679  0.033230239            3 
 1379000    1.0683461   -6.6296368    550.49453   0.03326653  0.033223709            3 
 1380000     1.039258   -6.6593449    549.42488  0.033177831   0.03321713            5 
 1381000    1.0430415   -6.6379243    552.09199  0.033314747  0.033210623            3 
 1382000    1.0304444   -6.6486489    551.25861  0.033240389  0.033204216            4 
 1383000    1.0554065   -6.6664612     551.4845  0.033229965  0.033197915            3 
 1384000    1.0180699   -6.6848734    552.22725  0.033250678  0.033191601            4 
 1385000    1.0449776   -6.6563319    552.42421  0.033238521  0.033185103            9 
 1386000    1.0528263   -6.6774176    553.46966  0.033277396  0.033178664            7 
 1387000    1.0226579   -6.6969413    552.15758  0.033174572  0.033172215            2 
 1388000     1.021109   -6.6288187    553.47262  0.033229624  0.033165875            6 
 1389000    1.0511826    -6.666736    554.56852  0.033271449  0.033159587            3 
 1390000   0.99845316   -6.6437908    555.13449  0.033281444  0.033153366            3 
 1391000    1.0278356   -6.6863609    554.05993  0.033193142  0.033147121            2 
 1392000    1.0253079   -6.6472988     555.6829  0.033266457  0.033140751            4 
 1393000    1.0383548   -6.6179053    556.94076  0.033317825  0.033134721            6 
 1394000    1.0291765   -6.6533371    555.07483  0.033182379  0.033128474            2 
 1395000    1.0231883   -6.6440531    556.52434  0.033245181  0.033122215            5 
 1396000    1.0224879     -6.63789    557.23495  0.033263787  0.033116024            3 
 1397000    1.0299693   -6.6830311    555.18697   0.03311781  0.033109772            7 
 1398000    1.0004452   -6.6512109    555.76404  0.033128519  0.033103444            2 
 1399000    1.0207293   -6.6336364    557.12804  0.033186088  0.033097117            4 
 1400000    1.0284957   -6.6455939    556.09609  0.033100958  0.033090915            6 
 1401000    1.0127623   -6.6928864    557.57226  0.033165135  0.033084646            4 
 1402000    1.0370397   -6.6472238    559.64818  0.033264871  0.033078532            3 
 1403000    1.0183351    -6.704693    556.56071  0.033057775  0.033072318            9 
 1404000    1.0183965    -6.676933    558.20087  0.033131581  0.033066076            4 
 1405000    1.0133463   -6.6586204    559.91515  0.033209677  0.033059773            6 
 1406000    1.0424878   -6.6665323     558.9676  0.033129896  0.033053523            5 
 1407000    1.0326718   -6.6986693    560.83924  0.033217202  0.033047217            3 
 1408000    1.0390989   -6.6692007    559.62333  0.033121646  0.033040856            2 
 1409000    1.0227902   -6.6399718    560.80554  0.033168059   0.03303468            3 
 1410000    1.0449177   -6.6623302    560.89071  0.033149569  0.033028445            1 
 1411000    1.0394729   -6.6519438    561.47736  0.033160723  0.033022338            2 
 1412000    1.0457309   -6.6701505    561.42983  0.033134433  0.033016267            4 
 1413000    1.0224469   -6.6729223    561.75757  0.033130312  0.033010155            4 
 1414000    1.0347541   -6.6719597    564.22307  0.033252185  0.033004168            4 
 1415000     1.035457   -6.6540221    563.08632  0.033161738  0.032998187            3 
 1416000    1.0102063   -6.6829707    562.02366   0.03307578  0.032992189            2 
 1417000    1.0225138   -6.6772122    563.42328  0.033134749  0.032986076            7 
 1418000    1.0381271   -6.6193495    564.88637  0.033197365  0.032980042            4 
 1419000     1.003748   -6.6739113    563.77797  0.033108878  0.032974112            3 
 1420000    1.0506116   -6.6660608    565.54189  0.033189078  0.032968217            7 
 1421000    1.0323779   -6.6499046    564.74459  0.033118965  0.032962398            3 
 1422000   0.99572173   -6.6931239    563.89067  0.033045633  0.032956452            4 
 1423000    1.0228577    -6.666016    563.98323   0.03302783  0.032950397            4 
 1424000    1.0331027   -6.6877959    565.01351  0.033064929  0.032944301            5 
 1425000    1.0206707   -6.6570522    565.61747  0.033077045  0.032938275            3 
 1426000    1.0143231   -6.6765773    566.25871  0.033091322  0.032932327            3 
 1427000    1.0428261   -6.6704376    567.96002  0.033167486  0.032926246            2 
 1428000    1.0302147   -6.6827861    567.53928  0.033119706  0.032920192            3 
 1429000    1.0070036   -6.6744671    566.00356  0.033006972   0.03291422            4 
 1430000    1.0152655   -6.6752689    567.90022  0.033094418  0.032908221            3 
 1431000    1.0279053   -6.6974461    566.66514  0.032999368  0.032902176           14 
 1432000    1.0095389   -6.6624368    568.76073  0.033098274   0.03289628            5 
 1433000    1.0331324   -6.6948784    567.02424  0.032974194  0.032890335            4 
 1434000    1.0255503   -6.6451579    569.51383  0.033095876    0.0328844            5 
 1435000    1.0256577   -6.6669716    568.09096  0.032990183  0.032878575            3 
 1436000   0.99662318   -6.6843159    568.35407  0.032982479  0.032872473            3 
 1437000     1.044085   -6.7106838     568.5326   0.03296988  0.032866445            4 
 1438000    1.0164696   -6.6664566    568.13203  0.032923738  0.032860536            4 
 1439000    1.0090845   -6.7189416    569.25741   0.03296603  0.032854497            5 
 1440000    1.0400433   -6.6895566     570.2587  0.033001082  0.032848375            4 
 1441000   0.99510582   -6.6376889    570.71269  0.033004435  0.032842153            4 
 1442000    1.0142381   -6.6707621    568.62419  0.032860852  0.032836035            4 
 1443000    1.0463466   -6.7144964    569.15506  0.032868737  0.032829871           10 
 1444000    1.0262523   -6.6636576     570.0429  0.032897213  0.032823543            5 
 1445000    1.0038363   -6.7227852    570.31758  0.032890287  0.032817297            4 
 1446000    1.0205416   -6.6886089    570.48214  0.032877025  0.032811025            3 
 1447000    1.0271679   -6.6861386    570.66312  0.032864727  0.032804822            2 
 1448000    1.0073655   -6.6567959    572.28598  0.032935427  0.032798616            5 
 1449000    1.0287074   -6.6644432    570.88901  0.032832356  0.032792335            5 
 1450000    1.0200628   -6.6769858     572.2447  0.032887627  0.032786253            9 
 1451000    1.0135692   -6.6867172    572.43715  0.032876014  0.032779953            2 
 1452000    1.0219475   -6.6317632    573.23894  0.032899388  0.032773551            4 
 1453000    1.0038325    -6.691354    572.82156  0.032852808  0.032767214            6 
 1454000    1.0408293   -6.6729133    573.61554  0.032875719  0.032760985            3 
 1455000    1.0325058   -6.6649037    575.18426   0.03294297   0.03275464            3 
 1456000    1.0077839   -6.6794402     572.4456  0.032763599   0.03274824            2 
 1457000    1.0323973   -6.6589675    574.02267  0.032831313  0.032741786            4 
 1458000    1.0189757   -6.6819133    571.77054  0.032680072  0.032735334            4 
 1459000    1.0170868    -6.674125    574.00142  0.032785094  0.032728873            4 
 1460000   0.99900089   -6.6721505    574.07262  0.032766702  0.032722471            2 
 1461000    1.0135321   -6.6215911    574.98686  0.032796421  0.032716154            2 
 1462000    1.0372323   -6.6826304    572.26527  0.032618859   0.03270955            3 
 1463000     1.000136   -6.6683104     572.5839  0.032614713  0.032702839            3 
 1464000    1.0200589   -6.6713876    573.68183  0.032654931  0.032696143            2 
 1465000    1.0137909   -6.6671937    573.82229  0.032640631  0.032689587            3 
 1466000    1.0186284   -6.6829485    575.08364  0.032690066  0.032683057            2 
 1467000    1.0243801   -6.6889001    575.74626  0.032705422   0.03267654            4 
 1468000    1.0167331   -6.6649442    574.50008  0.032612402  0.032669991            9 
 1469000    1.0164775   -6.6467164    577.78701  0.032776663  0.032663437            5 
 1470000    1.0387135   -6.6837146    577.51389  0.032738883  0.032656943            5 
 1471000    1.0238117   -6.6948979     575.8852   0.03262436   0.03265044            3 
 1472000    1.0206732   -6.6590598    576.05922  0.032612048  0.032643854            3 
 1473000    1.0047618   -6.6491143    576.24647  0.032600502  0.032637375            2 
 1474000    1.0038331   -6.6648868    576.58847   0.03259772   0.03263084            4 
 1475000    1.0171331   -6.6848728    579.08593  0.032716719  0.032624292            7 
 1476000    1.0196711   -6.6933513    577.77512  0.032620547  0.032617785            2 
 1477000   0.99660095   -6.7069963    577.78292  0.032598901  0.032611268            3 
 1478000     1.030935   -6.6938935    579.16913  0.032655003   0.03260469            5 
 1479000    1.0111059   -6.6316313    578.89557   0.03261751  0.032598197            3 
 1480000   0.99835036    -6.691025    579.76027  0.032644159  0.032591863            6 
 1481000    1.0086622   -6.6523843    578.37401  0.032544115  0.032585382            4 
 1482000    1.0164294   -6.7231706    578.83883  0.032548292   0.03257863            5 
 1483000   0.99250648   -6.6379971    581.57338  0.032680005  0.032572145            3 
 1484000    1.0089844   -6.6913423     581.2973  0.032642481  0.032565647           20 
 1485000    1.0040923   -6.7027851    578.80138  0.032480437  0.032559124            2 
 1486000    1.0290892   -6.6878179    580.40619  0.032548575  0.032552462            6 
 1487000    1.0102572   -6.6587275    580.88611  0.032553581  0.032545721            4 
 1488000    1.0227465   -6.6689504    581.40438  0.032560729  0.032539123            5 
 1489000    1.0142004   -6.6669644    582.68221  0.032610377  0.032532503            5 
 1490000    1.0324998   -6.6921091     582.0701  0.032554256  0.032525962            3 
 1491000    1.0229884   -6.7345837    581.93458  0.032524848  0.032519363            2 
 1492000   0.99792714   -6.7305691    579.58384  0.032371752  0.032512542            4 
 1493000    1.0101126   -6.7127969    581.78895   0.03247315  0.032505749            4 
 1494000    1.0131332   -6.6736659    581.40421  0.032429953  0.032498966            5 
 1495000    1.0217764   -6.6557763    582.62124    0.0324761  0.032492205            5 
 1496000    1.0410348   -6.6608537    582.77788  0.032463117  0.032485473            5 
 1497000     1.019171   -6.6982858    583.32562  0.032471923  0.032478761            4 
 1498000   0.99881619   -6.7023109    583.97868  0.032486576  0.032472053            4 
 1499000    1.0058738   -6.6581118    584.50278  0.032494039   0.03246539            2 
 1500000    1.0126222   -6.6733434    582.85833  0.032381018  0.032458611            2 
 1501000    1.0086973    -6.683799    583.92391  0.032418605  0.032451738            4 
 1502000    1.0250685    -6.701459    583.72391  0.032385925  0.032444841            4 
 1503000    1.0125102    -6.675062    584.51575  0.032408281  0.032437946            2 
 1504000    1.0130188   -6.7038314    583.36312  0.032322868  0.032431026            4 
 1505000    1.0146505   -6.6747099    583.40271  0.032303583  0.032424106            4 
 1506000    1.0143643   -6.7021211     584.6014  0.032348462   0.03241718            4 
 1507000    1.0103909   -6.6842879    585.62796  0.032383762  0.032410119            3 
 1508000    1.0119666   -6.6938474    585.04906  0.032330297  0.032403071            2 
 1509000    1.0018636    -6.687088    587.00065  0.032416647  0.032396199            7 
 1510000   0.99416164   -6.6810476    586.20402  0.032351215  0.032389344            5 
 1511000    1.0118532   -6.7315834      586.291  0.032334602  0.032382583            3 
 1512000    1.0099105   -6.6950442    585.05872    0.0322453  0.032375691            5 
 1513000    1.0094346   -6.6885255    585.82261  0.032266061  0.032368637            3 
 1514000    1.0062742   -6.6949929    584.45432  0.032169437  0.032361624            4 
 1515000    1.0164589   -6.6811249    586.58686  0.032265504  0.032354648            3 
 1516000   0.99469112   -6.6933631    587.46806  0.032292659  0.032347541            3 
 1517000   0.99917449   -6.6900715    586.01037  0.032191297  0.032340363            2 
 1518000    1.0157039   -6.6671225    587.16756  0.032233617   0.03233314            4 
 1519000   0.99060284   -6.6994424     585.9283  0.032144409  0.032326014            3 
 1520000   0.99034969   -6.6933038    586.36222  0.032147052  0.032318885            5 
 1521000    1.0116202   -6.7303704    585.25618  0.032065318  0.032311714            4 
 1522000   0.99245065   -6.6656901    588.47922   0.03222072  0.032304674            3 
 1523000    1.0017318   -6.6828638    588.76758  0.032215342   0.03229766           14 
 1524000    1.0051807   -6.6764431    589.68384  0.032244305   0.03229075            5 
 1525000     1.022496   -6.6693666    589.60147  0.032218659  0.032283695            3 
 1526000    0.9916664   -6.6909611    588.81925   0.03215483  0.032276588            5 
 1527000    1.0231026   -6.7058889    590.07972  0.032202561  0.032269456            2 
 1528000    1.0149713   -6.6949497    587.88897  0.032062008  0.032262257            6 
 1529000    1.0069964   -6.6678851    591.35551  0.032229971  0.032255041            4 
 1530000    1.0025565   -6.7079523    589.59596   0.03211307  0.032248008            5 
 1531000    1.0001418   -6.7043062    589.25211  0.032073379  0.032241025            4 
 1532000    1.0164317   -6.6726098    592.44876  0.032226325  0.032233986            6 
 1533000   0.99614639   -6.6908447    592.35226  0.032200058   0.03222707            4 
 1534000    1.0133107   -6.6768358    591.88418  0.032153638  0.032220064            3 
 1535000   0.99189294   -6.7484158    591.91846  0.032134553  0.032213189            7 
 1536000    1.0020517   -6.6858152    592.12507  0.032124841  0.032206293            2 
 1537000    1.0218106   -6.7301559    593.36135  0.032170969  0.032199415            3 
 1538000   0.99717033   -6.7007052    592.64138  0.032111041  0.032192414            2 
 1539000    1.0000997   -6.7086976    591.85894  0.032047809  0.032185437            3 
 1540000   0.99645855   -6.6797397    594.99178  0.032196525  0.032178554            6 
 1541000    1.0221147    -6.675369    593.65547  0.032103367  0.032171649            3 
 1542000   0.98643115    -6.705187    592.85132   0.03203909  0.032164849            2 
 1543000    1.0293242   -6.7101807     593.0279  0.032027862  0.032157922           10 
 1544000    1.0057339   -6.6566689    596.48664  0.032193795  0.032151061            2 
 1545000   0.99631469   -6.6885181    594.05256   0.03204167  0.032144182            2 
 1546000    1.0163676    -6.687379    595.29417  0.032087871  0.032137246            3 
 1547000    1.0060822   -6.7364799    594.84277  0.032042812  0.032130259            3 
 1548000    1.0078152   -6.7176508    596.86074  0.032130746  0.032123351            2 
 1549000    1.0039468   -6.7512561    595.64755  0.032044736  0.032116488            3 
 1550000   0.99900488   -6.6851123    595.91074  0.032038212  0.032109541            5 
 1551000    1.0132524   -6.6697749    596.05513  0.032025313  0.032102623            2 
 1552000   0.99502202   -6.7006667    596.18983  0.032011911  0.032095615            4 
 1553000    1.0255214   -6.7179717    596.92159  0.032030564  0.032088503            4 
 1554000    1.0219426   -6.7026303    598.17644  0.032077244  0.032081412            4 
 1555000    1.0159299    -6.707781    596.22959  0.031952282  0.032074356            4 
 1556000   0.99552711   -6.7186325    595.48029  0.031891618  0.032067243            6 
 1557000   0.99673855    -6.726827    596.28179  0.031914033  0.032060106            4 
 1558000    1.0116043   -6.7016688    596.32508  0.031895864  0.032052984            3 
 1559000    1.0053859    -6.679513    597.19296  0.031921796  0.032045863            3 
 1560000   0.99757795   -6.6911209     598.9517  0.031995283   0.03203877            5 
 1561000   0.97917804   -6.7074526    598.94527  0.031974443  0.032031715            5 
 1562000   0.99325173   -6.7284836    597.84824  0.031895446  0.032024562            6 
 1563000   0.99888307    -6.662872    600.52418   0.03201771  0.032017482            2 
 1564000     1.001128    -6.719556    600.14931  0.031977265  0.032010486            7 
 1565000   0.98228992   -6.7137645    599.73702  0.031934879  0.032003485            7 
 1566000   0.97900391   -6.7350966    598.88002  0.031868881  0.031996379            8 
 1567000   0.99686285   -6.7024728    600.36987  0.031927774   0.03198927            3 
 1568000    1.0037536    -6.689149    601.66664  0.031976331  0.031982267            9 
 1569000    1.0084555   -6.6414381    603.04043  0.032028916  0.031975336            3 
 1570000    1.0216354   -6.7061041    601.22785  0.031912306  0.031968488            3 
 1571000    1.0103326   -6.7109898    601.07572  0.031883923  0.031961668            3 
 1572000    1.0104543   -6.7406262    599.80839  0.031796458  0.031954798            4 
 1573000    1.0050683   -6.7249795    603.85953  0.031990863  0.031947773            4 
 1574000   0.98948173   -6.7418937    600.13978  0.031773601   0.03194064            5 
 1575000   0.99708714   -6.7085898    599.90649  0.031741084  0.031933384            5 
 1576000    1.0078619   -6.7393617    601.85585  0.031824019  0.031926355            4 
 1577000   0.98266483   -6.7364052    602.72308  0.031849666  0.031919364            4 
 1578000   0.98675304   -6.6810458    603.27383  0.031858567  0.031912505            5 
 1579000    1.0161738   -6.7472571    602.85626  0.031816353  0.031905641            3 
 1580000   0.99547463   -6.6959356     602.8445  0.031795596  0.031898652            9 
 1581000    1.0061075    -6.713853    605.76952  0.031929661  0.031891685            5 
 1582000    1.0068959   -6.7413622    602.44966  0.031734601  0.031884679            4 
 1583000    1.0077441   -6.7138606    605.01875  0.031849797  0.031877665            3 
 1584000   0.98142342    -6.750704    603.73177  0.031761983  0.031870662            2 
 1585000   0.98693947   -6.6950005    604.33605  0.031773715  0.031863619            4 
 1586000   0.98260956   -6.7174976    606.48059  0.031866362  0.031856684            1 
 1587000     1.007223   -6.6999372    605.32017  0.031785348  0.031849725            5 
 1588000    1.0032118   -6.6867069    605.87396  0.031794394  0.031842748            5 
 1589000    1.0449713   -6.7116371     606.2899  0.031796198  0.031835784            3 
 1590000   0.99874704    -6.733561    604.68746  0.031692215  0.031828626            7 
 1591000   0.98546869   -6.7480036    606.39807  0.031761894  0.031821553            4 
 1592000   0.99086536   -6.7015827    606.25773  0.031734596  0.031814572            4 
 1593000    1.0087487   -6.7305206    605.74233  0.031687713  0.031807658            4 
 1594000     1.022961   -6.7315535    607.18437  0.031743223  0.031800696            1 
 1595000     0.997808   -6.7232741    605.06893  0.031612797  0.031793699            4 
 1596000    0.9916565   -6.7094506    609.17922  0.031807604  0.031786732            3 
 1597000   0.99946346   -6.7275369    607.63393  0.031707051  0.031779689            4 
 1598000   0.99731954   -6.7186943    607.26644  0.031668045  0.031772679            4 
 1599000    1.0074138   -6.6888337    607.14489  0.031641906  0.031765705            4 
 1600000   0.97757774   -6.6971379    608.81219  0.031708968  0.031758795            2 
 1601000   0.99144515   -6.7008904    609.10052   0.03170417  0.031751901            6 
 1602000   0.97986279   -6.6931085     610.7978  0.031772669  0.031745022            5 
 1603000    1.0005377   -6.7192574     609.7781  0.031699839  0.031738111            8 
 1604000   0.98485177   -6.7561233    609.97013  0.031690052  0.031731055            8 
 1605000   0.97286119   -6.6882757    609.50263  0.031646035  0.031724125            4 
 1606000   0.98969277   -6.7501617    608.78941  0.031589322  0.031717057            2 
 1607000    1.0191092   -6.7042703    610.27154  0.031646523  0.031710125            6 
 1608000    1.0156366   -6.7198657    610.59359  0.031643532  0.031703287            3 
 1609000   0.98699622   -6.7225576    610.99566  0.031644689  0.031696244            2 
 1610000   0.99744433   -6.7322665    611.43309  0.031647676  0.031689356            2 
 1611000    1.0057291   -6.7391683    613.21908  0.031720416  0.031682394            4 
 1612000   0.99664566   -6.7332695    612.47665  0.031662358  0.031675387            4 
 1613000   0.98774288   -6.7164114    612.05263  0.031620822  0.031668429            2 
 1614000   0.99112127   -6.7000194    613.11354  0.031656007  0.031661339            4 
 1615000   0.98429717   -6.7311474     612.0412  0.031581073  0.031654271            6 
 1616000   0.99114392   -6.6897748    610.70538  0.031492645  0.031647156            3 
 1617000   0.97541917   -6.7039048    614.00988  0.031643469  0.031640077            5 
 1618000   0.98879438   -6.7205828    612.66606    0.0315547  0.031632897            4 
 1619000   0.99919153   -6.6898121    614.02535  0.031605176  0.031625789            4 
 1620000   0.97780923   -6.7332395    610.32552  0.031395346  0.031618551            7 
 1621000   0.97783239   -6.7127029    610.12186  0.031365508  0.031611238            4 
 1622000   0.97039475   -6.7547286    610.89564  0.031385925  0.031603773            5 
 1623000    1.0062971    -6.683056     612.4788  0.031447874    0.0315964            2 
 1624000   0.96742294   -6.7344477    612.68846  0.031439268   0.03158914            4 
 1625000   0.97629679   -6.7415917    612.41608  0.031405953   0.03158177            2 
 1626000    1.0019716   -6.7324888    612.22207  0.031376695  0.031574537            7 
 1627000   0.99028376   -6.6972173    613.72812  0.031434548  0.031567375            3 
 1628000   0.99043136   -6.7461282    614.43081  0.031451208  0.031560132            8 
 1629000    1.0094348   -6.7092962    614.47053  0.031433933  0.031553003            4 
 1630000    1.0136322   -6.7528205    614.20806   0.03140123  0.031545948            1 
 1631000    0.9749539   -6.7355272    613.94569  0.031368572  0.031538786            5 
 1632000   0.99392588    -6.714098    615.75846  0.031441915  0.031531733            3 
 1633000   0.98689659   -6.7626012    613.84922   0.03132523  0.031524545            5 
 1634000   0.98690727   -6.7179268    616.20222  0.031426062   0.03151737            4 
 1635000   0.97423602   -6.7408322    615.26719  0.031359184  0.031510174            3 
 1636000    1.0129889   -6.7219507    615.29604  0.031341485  0.031502884            5 
 1637000   0.99204839   -6.7273121    615.50587  0.031333021  0.031495628            2 
 1638000   0.99574232   -6.7632431    616.06483  0.031342329   0.03148848            4 
 1639000    0.9909157   -6.7111222    617.58633  0.031400566  0.031481313            6 
 1640000   0.97220502   -6.7828366     615.8073  0.031291022  0.031474101            5 
 1641000   0.96719414   -6.7226724    616.12727  0.031288202  0.031466804            2 
 1642000   0.99529975   -6.7395911    618.88926  0.031409321  0.031459665            4 
 1643000   0.98782743   -6.7509851    616.43797  0.031265874  0.031452464            3 
 1644000   0.97183012   -6.7429844    617.46305  0.031298817  0.031445317            3 
 1645000   0.96598333   -6.7293426    617.89941  0.031301895  0.031438166            6 
 1646000    1.0036296   -6.7667658    617.61863  0.031268663  0.031431117            4 
 1647000   0.97736994   -6.7298282    618.93421  0.031316242  0.031423997            4 
 1648000   0.99390297   -6.7158782    620.41662    0.0313722  0.031417016            2 
 1649000   0.99791628   -6.7537244    619.58661  0.031311229  0.031409955            3 
 1650000   0.97656363   -6.7224219    620.07341  0.031316839  0.031402917            4 
 1651000    1.0057202   -6.7084009    619.64802  0.031276399  0.031396022            4 
 1652000   0.99975613   -6.7331336    622.39524  0.031396047  0.031389135            5 
 1653000   0.97363381   -6.7458958      619.149    0.0312134  0.031382148            2 
 1654000   0.96030744   -6.7245842    622.33976  0.031355288  0.031375137            3 
 1655000   0.99367967   -6.7230377    622.43721  0.031341249  0.031368191            5 
 1656000    1.0061239   -6.7687738    620.60306  0.031230025  0.031361298            8 
 1657000   0.99916941   -6.7344145    622.96019  0.031329722  0.031354406            6 
 1658000   0.95979897   -6.7121055    622.96787  0.031311212  0.031347539            4 
 1659000   0.98178235   -6.7046916    624.78726  0.031383728  0.031340631            3 
 1660000   0.97967188   -6.7545403    621.86001  0.031217872  0.031333695            6 
 1661000   0.97653785   -6.7098105    624.56099  0.031334587  0.031326724            3 
 1662000   0.98229104   -6.7645548    622.81434  0.031228156  0.031319731            2 
 1663000   0.98940009   -6.7000802    624.68814  0.031303274  0.031312843            5 
 1664000     1.001856     -6.74309    623.87899   0.03124394  0.031305854            8 
 1665000   0.97248948   -6.7258961    625.43626  0.031303116  0.031298867            5 
 1666000   0.96705124   -6.7441729    623.37641  0.031181293  0.031291795            2 
 1667000   0.99079279   -6.7316219    623.44093  0.031165814  0.031284822            3 
 1668000   0.98059609   -6.7236282    625.11817  0.031230924  0.031277893            3 
 1669000    1.0137777    -6.737521    624.95619  0.031204124  0.031270891            4 
 1670000   0.99680275   -6.7350892    623.19821  0.031097715  0.031263816            3 
 1671000   0.97972589   -6.7619691    625.01896  0.031169906  0.031256664            4 
 1672000    1.0133543   -6.7386427    625.53325  0.031176897  0.031249552            3 
 1673000    1.0088627   -6.7412193    624.54036  0.031108804   0.03124236            4 
 1674000   0.98772827   -6.7565557    625.31054  0.031128561  0.031235155            8 
 1675000    1.0007351   -6.7539718    624.10964  0.031050231  0.031227864            4 
 1676000   0.99393755   -6.7493935     625.9775  0.031124577  0.031220649            7 
 1677000   0.96406753   -6.7507219    625.10975  0.031062897  0.031213325            4 
 1678000   0.97695448   -6.7270663    624.51982  0.031015088   0.03120612            5 
 1679000   0.99025534   -6.7815399    626.95593  0.031117527  0.031198903            5 
 1680000   0.99538386   -6.7827744    625.23658  0.031013719  0.031191694            6 
 1681000   0.96342734   -6.7638501    627.73217  0.031118985  0.031184585            7 
 1682000   0.97349553    -6.739996    626.33746  0.031031384  0.031177374            6 
 1683000   0.99710315    -6.739257    628.47851   0.03111896  0.031170203           12 
 1684000    1.0012868   -6.7559763    628.15666  0.031084554  0.031163085            4 
 1685000   0.97778573   -6.7607545    627.59422   0.03103829  0.031155914            5 
 1686000   0.98263796   -6.7833538    627.56433  0.031018403  0.031148701            4 
 1687000   0.96126231   -6.7321054    627.75165  0.031009269   0.03114152            3 
 1688000    0.9863025    -6.732032    627.45574   0.03097629  0.031134341           14 
 1689000   0.95471633   -6.7762386    628.89561  0.031028992  0.031127199            4 
 1690000   0.97389364   -6.7556976    627.60658   0.03094707  0.031119887            3 
 1691000   0.98297651   -6.7354368    627.49454  0.030923248  0.031112634            3 
 1692000   0.98664135   -6.7411594    628.92074  0.030975214   0.03110545            3 
 1693000   0.97173144   -6.7822869    631.70691   0.03109406  0.031098293            3 
 1694000   0.97510347   -6.7514887    628.69843  0.030927707  0.031091087            2 
 1695000    0.9488681   -6.7211132    631.39125  0.031041851  0.031083889            3 
 1696000   0.97144474   -6.7690989    630.43452  0.030976539   0.03107684            3 
 1697000   0.98918461    -6.780837    629.25866  0.030900543  0.031069624           14 
 1698000   0.98084928   -6.7656083    630.55047  0.030945744   0.03106255            4 
 1699000   0.98602344   -6.7870174    628.51355  0.030827621  0.031055385            3 
 1700000   0.96703229   -6.7542563    633.04239   0.03103149  0.031048196            2 
 1701000   0.97351144   -6.8111251    631.13403  0.030919755  0.031041041            3 
 1702000   0.98899388   -6.7502132     632.7031  0.030978413  0.031033913            2 
 1703000   0.98595699    -6.766907    630.20854  0.030838155  0.031026763            3 
 1704000   0.97779665    -6.751288    631.71281  0.030893623  0.031019569            5 
 1705000   0.98709642   -6.7651005    633.89703   0.03098226   0.03101239            3 
 1706000   0.99652919   -6.7589715    632.37421  0.030889713  0.031005247            7 
 1707000    0.9736491   -6.7954609    630.67888  0.030788854  0.030997957            3 
 1708000   0.98671737   -6.7571226    633.22818  0.030895208  0.030990672            8 
 1709000   0.96803983   -6.7220737    633.66537  0.030898448  0.030983455            5 
 1710000   0.95516204   -6.7298923    634.49215   0.03092067  0.030976385            7 
 1711000   0.97503656   -6.7507021    632.88586  0.030824365  0.030969213            5 
 1712000   0.97673797   -6.7569437    633.49292  0.030835909  0.030962142            3 
 1713000   0.99005538   -6.7751332    634.35263  0.030859731  0.030954868            7 
 1714000   0.97865165   -6.7120079    634.48103  0.030847969  0.030947783            4 
 1715000    0.9640966   -6.7590943    632.60218  0.030738687  0.030940698            4 
 1716000   0.99790602    -6.750403     637.2603  0.030946984  0.030933609            4 
 1717000     0.971431   -6.7433552    635.54408  0.030845665   0.03092644            3 
 1718000   0.98628457    -6.765784    634.79583  0.030791416  0.030919145            3 
 1719000   0.98240408   -6.7658777    634.78932  0.030773188  0.030911869           11 
 1720000   0.98299198   -6.7351417    635.21923  0.030776125  0.030904657            6 
 1721000   0.98377068   -6.7740924    635.54357  0.030773948  0.030897447            8 
 1722000   0.97344168   -6.7611869    635.63716  0.030760606  0.030890194            5 
 1723000   0.98518913   -6.7796003    635.24782  0.030723923  0.030882886            4 
 1724000   0.98324613   -6.7436886    636.84207  0.030783163   0.03087563            5 
 1725000   0.96547973   -6.7363633    638.68461  0.030854329  0.030868394            4 
 1726000   0.98821208   -6.7080393    638.22343  0.030814186  0.030861256            4 
 1727000   0.97315603   -6.7826283    638.18168  0.030794329  0.030854079            2 
 1728000   0.96922342   -6.7263715    638.06266  0.030770769  0.030846904           10 
 1729000    0.9640362   -6.7720471    637.31676  0.030717021  0.030839761            6 
 1730000   0.97925126   -6.7433303    637.76171  0.030720699  0.030832559            4 
 1731000   0.99114655   -6.7602247    637.92391   0.03071076  0.030825513            2 
 1732000    0.9588155   -6.7863088    637.69184  0.030681863  0.030818299            3 
 1733000   0.96717701   -6.7197175     640.8683  0.030816902  0.030811156            3 
 1734000   0.97977039   -6.7652682     639.6837    0.0307422  0.030804037            5 
 1735000   0.98201441   -6.7578129    639.47375  0.030714397  0.030796938            4 
 1736000   0.97431333   -6.7678837    638.96226  0.030672151  0.030789767            5 
 1737000   0.97123416   -6.7955808    639.93734  0.030701273  0.030782549            3 
 1738000   0.95988292   -6.8205019     639.6432  0.030669505  0.030775338            2 
 1739000   0.97870258   -6.7761465    641.34535  0.030733436  0.030768125            3 
 1740000   0.98195599   -6.7705787    640.82411   0.03069081  0.030760975            3 
 1741000   0.97671913   -6.7935799    642.18531  0.030738336  0.030753849            6 
 1742000   0.97739942   -6.7488495    640.86795  0.030657671  0.030746783            3 
 1743000   0.96359027   -6.7751038    641.88844  0.030688872  0.030739767            3 
 1744000   0.97341816   -6.7648318    642.43322  0.030697306  0.030732691            4 
 1745000   0.97675294   -6.7717925    642.58356  0.030686894  0.030725652            7 
 1746000   0.95874421   -6.7533844    642.15519  0.030648873  0.030718646            4 
 1747000   0.98134802   -6.7224376    643.73699  0.030706783  0.030711658            6 
 1748000   0.95865802   -6.7713478    643.81531  0.030692949  0.030704782            6 
 1749000   0.95788157   -6.7671453    643.80966  0.030675131   0.03069783            2 
 1750000   0.97696395   -6.7658377    642.21015  0.030581436  0.030690931            5 
 1751000   0.96198832   -6.7762262    644.83837  0.030689052  0.030683969            6 
 1752000   0.98923429   -6.8048455    644.87292  0.030673179  0.030676996           11 
 1753000   0.97137502   -6.7871153    644.41901  0.030634104  0.030670073            4 
 1754000   0.97206776   -6.7513759    644.62766  0.030626552  0.030663202            3 
 1755000     0.980626    -6.768974    644.90818  0.030622421  0.030656201            4 
 1756000   0.99049265   -6.7710453    645.30209  0.030623675  0.030649232            3 
 1757000   0.97410958   -6.7583465    646.79339  0.030676978  0.030642428            9 
 1758000   0.97547669    -6.752134    646.30429  0.030636343  0.030635582            3 
 1759000   0.95205872   -6.7455745    647.10447  0.030656835  0.030628704            3 
 1760000   0.95017217   -6.7827497    646.99403  0.030634187  0.030621957            4 
 1761000   0.97978073   -6.7678105      649.686  0.030744179  0.030615164            5 
 1762000   0.97626015   -6.7987805     645.6893  0.030537708  0.030608346            2 
 1763000   0.97677419   -6.7423994    648.71756  0.030663526  0.030601511            4 
 1764000   0.96717599   -6.7763218    648.88703  0.030654149  0.030594757            4 
 1765000   0.95217832   -6.8017507    648.75698  0.030630641  0.030588046            5 
 1766000   0.98257967   -6.7634194     646.7665   0.03051937   0.03058135            2 
 1767000   0.96881332   -6.7886237    649.78848  0.030644618   0.03057457            4 
 1768000   0.97111339   -6.7659322    649.83108  0.030629293   0.03056777            7 
 1769000   0.97367124   -6.7611592    647.88437  0.030520273  0.030560995            4 
 1770000   0.96285557   -6.7744842    649.06027  0.030558393   0.03055419            5 
 1771000    0.9906666   -6.7761502    649.03503  0.030539951  0.030547344            5 
 1772000   0.97747688   -6.7781961    647.66632  0.030458348  0.030540482            6 
 1773000   0.98612125    -6.803803    649.57004  0.030530647    0.0305335            6 
 1774000   0.97577871    -6.763199     648.6445  0.030469959   0.03052662            5 
 1775000   0.97253716   -6.7568623     649.1253  0.030475366  0.030519768            4 
 1776000   0.94772035   -6.7722196    649.49206  0.030475416  0.030512946            4 
 1777000   0.95218725   -6.7846529    650.20134  0.030491528  0.030506044            3 
 1778000   0.97045381   -6.7690037    649.38584  0.030436157  0.030498992            7 
 1779000   0.99918276   -6.7863184    649.95909  0.030445901  0.030492001            4 
 1780000   0.96375364    -6.795325    649.97759  0.030429662  0.030485058            5 
 1781000   0.96872787   -6.7703666    650.82252  0.030452111  0.030478189            5 
 1782000   0.96999933   -6.7212461    653.08763  0.030540948  0.030471347            4 
 1783000    0.9615355    -6.750321    651.43114  0.030446398  0.030464517            6 
 1784000   0.94358984   -6.7517044    651.77905  0.030445584  0.030457718            6 
 1785000   0.96808128   -6.7747981    651.87472  0.030432993  0.030450854            3 
 1786000   0.99277077    -6.749399    651.87183  0.030415819  0.030444041            4 
 1787000   0.94154269   -6.7801408     650.9575   0.03035616  0.030437158            4 
 1788000   0.96395133   -6.7775883    650.92058  0.030337462  0.030430174            6 
 1789000     0.966703   -6.7722427    653.27239  0.030430053  0.030423199            6 
 1790000   0.96804278   -6.7426921    654.65238  0.030477299  0.030416383            3 
 1791000   0.96197279   -6.8153478    652.69017  0.030368982  0.030409391            6 
 1792000   0.98242239    -6.782467    652.52161  0.030344197  0.030402482            3 
 1793000   0.96548839   -6.7779054    653.02142  0.030350503  0.030395656            3 
 1794000   0.98221574   -6.7652544     654.2755  0.030391839  0.030388832            6 
 1795000   0.94929362   -6.7961385     653.6623  0.030346439  0.030381979            5 
 1796000    0.9875318   -6.8151431    654.29522   0.03035891   0.03037513            7 
 1797000   0.94542298   -6.7624114    654.01006  0.030328791  0.030368283            4 
 1798000   0.97190736    -6.760615    654.50685  0.030334949  0.030361463            5 
 1799000   0.96083006   -6.8065592    655.37229  0.030358176  0.030354552            8 
 1800000   0.96245244   -6.7629562     655.7695  0.030359699  0.030347708            3 
 1801000   0.96996337   -6.7897451    655.24209  0.030318438  0.030340837            4 
 1802000   0.97500838   -6.7567701    654.14708  0.030250975  0.030333855            4 
 1803000   0.97456933   -6.7851304    655.04624  0.030275755  0.030326922            7 
 1804000    0.9778141   -6.8062652    655.34885  0.030272951  0.030320056            3 
 1805000   0.95792166   -6.7654909    654.61989  0.030222525  0.030313242            3 
 1806000   0.95557385   -6.8025903    656.73324  0.030303306  0.030306417            8 
 1807000   0.97108174   -6.7917448    656.46372  0.030274106  0.030299534            6 
 1808000     0.960632   -6.8091457    656.71954  0.030269153  0.030292672            3 
 1809000   0.97475243   -6.8069954    655.83735  0.030211781  0.030285842            2 
 1810000   0.96904637   -6.7909385    658.70305  0.030327028  0.030279026            3 
 1811000   0.96040681   -6.7602404     656.6514  0.030215875  0.030272187            1 
 1812000   0.95710256   -6.7964718    659.01925  0.030308097  0.030265337            5 
 1813000   0.96687241   -6.7925894    658.30614  0.030258602  0.030258425            3 
 1814000   0.97095838    -6.779736     658.2648  0.030240022  0.030251652            5 
 1815000   0.96511561   -6.7960441    658.16885  0.030218955  0.030244852            4 
 1816000    0.9517886    -6.779349    657.29704  0.030162309  0.030238007            4 
 1817000   0.98871286   -6.7908431     658.5333  0.030202408  0.030231192            8 
 1818000   0.95170507   -6.7784483     661.1569  0.030306055  0.030224423            3 
 1819000   0.96543605   -6.7485438    660.54965  0.030261575  0.030217719            5 
 1820000   0.94577578   -6.7894053    660.38892  0.030237588     0.030211            5 
 1821000   0.94661689   -6.7815767    660.07923  0.030206811  0.030204283            3 
 1822000   0.97353771   -6.7837877    660.85629  0.030225773  0.030197646            6 
 1823000    0.9780436   -6.7855845    659.62613  0.030152959  0.030190802            3 
 1824000   0.96589633   -6.8087815    659.84497  0.030146426  0.030183896            7 
 1825000   0.96337056   -6.7936151    662.39832  0.030246499  0.030177118            4 
 1826000   0.93550832   -6.8046805    661.65884  0.030196186  0.030170286            6 
 1827000   0.96183266   -6.7673059    660.51884  0.030127661    0.0301635            5 
 1828000   0.93879232    -6.772418     660.8064  0.030124289  0.030156796            2 
 1829000    0.9437415    -6.776029    661.84588  0.030155179  0.030149929           14 
 1830000   0.94978833   -6.7757892    663.24318  0.030202331  0.030143182            5 
 1831000   0.96151778   -6.7840703    661.98321  0.030128491  0.030136417            3 
 1832000   0.98046489   -6.7828891    663.42254  0.030177517   0.03012965            3 
 1833000   0.95246289   -6.7741516    662.84528   0.03013481  0.030122847            2 
 1834000   0.95657056   -6.7673747    663.28689  0.030138445  0.030116074            3 
 1835000   0.95848197     -6.79608    663.92035  0.030150788  0.030109233            3 
 1836000   0.96154751   -6.8088199    661.60144  0.030029114  0.030102351           11 
 1837000   0.95630807    -6.791937    662.58445   0.03005736  0.030095527            6 
 1838000   0.95546804   -6.7694162    667.23736  0.030251966  0.030088666            4 
 1839000   0.95495745   -6.8046106    664.26338  0.030100751  0.030081898            4 
 1840000   0.96480573    -6.805998    662.47909  0.030003582  0.030075006            6 
 1841000   0.95929812   -6.8007481    665.69102  0.030132673  0.030068225            3 
 1842000   0.97213536   -6.8134948     663.8314  0.030032184  0.030061338            6 
 1843000   0.95602027   -6.8106741    662.15162  0.029939936  0.030054474            3 
 1844000   0.95963602   -6.7947542    664.66524  0.030037294   0.03004754            9 
 1845000   0.96133063   -6.8097919    663.50477  0.029968599  0.030040641            4 
 1846000   0.96907677   -6.8259576    665.00016   0.03001987  0.030033728            4 
 1847000   0.95966558   -6.7915038    665.43536  0.030023252  0.030026754            3 
 1848000   0.95559234   -6.7865976    665.25771  0.029998995  0.030019848            4 
 1849000    0.9522615   -6.7789871    666.82364  0.030053346  0.030012931            3 
 1850000   0.95817329   -6.8131747    664.10153  0.029914483  0.030005947            5 
 1851000   0.96012511    -6.785232    665.04114  0.029940624  0.029999048            2 
 1852000   0.95437319   -6.8217083    665.62932  0.029950923  0.029992122            3 
 1853000   0.96476982   -6.8236246    664.63636  0.029890104  0.029985153            4 
 1854000   0.96642858   -6.7594669    667.01725  0.029980998   0.02997823            4 
 1855000   0.95486325   -6.7630513    664.97799  0.029873225  0.029971446            6 
 1856000    0.9617742   -6.7894315    669.07546  0.030041104  0.029964463            4 
 1857000   0.94366725   -6.7940628       667.63  0.029960061  0.029957588            2 
 1858000   0.94788191   -6.7808484    667.13315  0.029921652   0.02995076            5 
 1859000   0.96067955   -6.8047554     667.2243  0.029909642  0.029943902            4 
 1860000   0.94404996   -6.7972327    669.05063  0.029975386  0.029936969            3 
 1861000   0.93271473   -6.8110281    668.26673  0.029924177  0.029930139            3 
 1862000   0.95636958   -6.7918411    668.63429  0.029924556  0.029923319            6 
 1863000    0.9637683   -6.7841331    670.81527  0.030006051  0.029916484            3 
 1864000   0.95799566   -6.7605394    671.53774  0.030022252  0.029909779            4 
 1865000   0.97683383   -6.8082843    669.76587  0.029926982   0.02990314            6 
 1866000   0.93427421   -6.8228975    669.19159  0.029885298  0.029896416            3 
 1867000   0.94509765    -6.778753    669.47493  0.029881937   0.02988965            5 
 1868000   0.95385294   -6.8017924    670.40748  0.029907543  0.029882908            3 
 1869000   0.97728632   -6.7794331    671.48365  0.029939524  0.029876241            2 
 1870000   0.96367096   -6.8050345    671.21818  0.029911684  0.029869451            3 
 1871000   0.96719609   -6.7903144    671.07961  0.029889525  0.029862739            5 
 1872000   0.93959755   -6.8069654    669.80454  0.029816797   0.02985588            4 
 1873000   0.93075697   -6.8088479    670.36135  0.029825652  0.029848966            2 
 1874000   0.97645673   -6.7661611    669.71739  0.029781101  0.029842135            5 
 1875000   0.94614519   -6.8221251    669.44333  0.029753037  0.029835169            2 
 1876000   0.93460356   -6.7890971    670.93833  0.029803586  0.029828247           11 
 1877000   0.98349672   -6.8392012    670.60571   0.02977294  0.029821271            4 
 1878000    0.9514684   -6.8032959    671.23784  0.029785136  0.029814444            2 
 1879000   0.94869418   -6.7848944    672.14195  0.029809382  0.029807598            4 
 1880000   0.96474437   -6.8102487     672.0128  0.029787801  0.029800707            8 
 1881000   0.96391958   -6.8062375    671.52024  0.029750143  0.029793859            7 
 1882000     0.950481    -6.779752    673.97354  0.029842966  0.029786964            3 
 1883000   0.94366242    -6.761677    674.05301  0.029830634  0.029780233            3 
 1884000   0.94693806   -6.7907706    673.29212  0.029781145  0.029773533            3 
 1885000   0.94469846   -6.7694335    675.62243  0.029868366  0.029766772            9 
 1886000   0.95038458   -6.8228683    671.64311  0.029676702  0.029759996            4 
 1887000   0.96058904   -6.8046264    673.91127   0.02976114  0.029753188            5 
 1888000   0.95282341   -6.7892568    677.38758  0.029898816    0.0297465            3 
 1889000   0.93563211   -6.7963001    673.87805  0.029728165  0.029739858            8 
 1890000   0.96526777   -6.8006945    675.07662  0.029765283  0.029733066            7 
 1891000   0.94713096   -6.8120967    673.55448  0.029682464  0.029726288            5 
 1892000   0.94651622   -6.8270537    674.15047  0.029693026   0.02971956            3 
 1893000   0.92142884   -6.7999456    675.46179  0.029735068  0.029712847            3 
 1894000   0.97282792   -6.7994489    676.38913   0.02976017  0.029706191            2 
 1895000   0.95207781   -6.7726674    677.31874  0.029785345  0.029699551            5 
 1896000   0.96385035   -6.8238997    676.83513  0.029748379  0.029692897            7 
 1897000   0.95878207   -6.8013114    677.18213  0.029747941  0.029686168            6 
 1898000   0.96611978   -6.7971265    675.89749  0.029675864  0.029679407            5 
 1899000   0.94320175   -6.8244637    677.76537  0.029742205  0.029672595            2 
 1900000   0.94560059   -6.8080047    677.69733  0.029723567   0.02966574            3 
 1901000   0.96985361   -6.8187356    676.11474  0.029638556  0.029658977            5 
 1902000    0.9268921   -6.8319805    674.98862  0.029573634  0.029652116            3 
 1903000   0.92884418   -6.8462487    676.22089  0.029612055  0.029645316           14 
 1904000   0.95378528   -6.8391411     675.8838  0.029581749  0.029638486            4 
 1905000   0.93592748   -6.8001008     677.4853  0.029636277  0.029631694            7 
 1906000   0.95627293   -6.8145878    678.27475  0.029655244  0.029624914            5 
 1907000   0.92718784   -6.8068101    676.73678  0.029572487  0.029618216            7 
 1908000   0.95087172   -6.8329429    678.71338  0.029643317  0.029611361            5 
 1909000   0.93868936   -6.8064026    679.19949  0.029649009  0.029604598            4 
 1910000   0.93912376   -6.8378527    680.20233  0.029677239  0.029597968            5 
 1911000   0.97743886   -6.8410526    678.44478  0.029585068    0.0295913            4 
 1912000     0.962755   -6.7946914     680.5548  0.029661559  0.029584644            3 
 1913000   0.93114556   -6.8258964    680.98844  0.029664944  0.029578041            5 
 1914000    0.9490001   -6.8199603     680.6361  0.029634104  0.029571434            5 
 1915000    0.9466004   -6.7838126    682.32883   0.02969229  0.029564769            3 
 1916000   0.94981328   -6.8176354     683.3201  0.029719907  0.029558092            5 
 1917000   0.94654059    -6.799863    681.08875  0.029607405  0.029551392            8 
 1918000   0.95849483   -6.8135033    680.81431  0.029580045  0.029544671            7 
 1919000   0.94170961   -6.8135558    681.62272  0.029599736  0.029537924            5 
 1920000   0.93857116   -6.8418836    678.96313  0.029468886  0.029531138            3 
 1921000   0.94951907   -6.8136124    681.00973  0.029542328  0.029524331            2 
 1922000   0.93257566   -6.8259411    681.91639  0.029566267  0.029517567            2 
 1923000   0.93664545   -6.8035827    682.54236  0.029578019   0.02951093            5 
 1924000   0.94444426   -6.8396695     682.8643  0.029576589  0.029504373            3 
 1925000   0.94941497   -6.8437552    683.68612  0.029596802  0.029497816            3 
 1926000   0.94483411   -6.8414593    681.97705  0.029507488  0.029491225            4 
 1927000   0.92350616   -6.8025729    683.21032  0.029545508  0.029484779            5 
 1928000   0.94383559   -6.8053073    682.56266   0.02950219  0.029478336            2 
 1929000   0.95273662   -6.8318003    684.83619  0.029585113    0.0294718            6 
 1930000   0.95276122   -6.8111447    684.47718  0.029554282  0.029465203            9 
 1931000   0.92553054   -6.8268719    684.42903  0.029536899   0.02945862            4 
 1932000   0.96163827   -6.8429047    684.68544  0.029532671  0.029452021            4 
 1933000   0.94099167   -6.7934043    686.45581  0.029593715  0.029445474            6 
 1934000   0.93430581    -6.797098     685.6703  0.029544566  0.029438997            3 
 1935000   0.94824542   -6.8196755    687.33375  0.029600936  0.029432596            3 
 1936000   0.93471736   -6.8149401    685.87203  0.029522728  0.029426279            5 
 1937000   0.93454562   -6.8136249    689.09775  0.029646264  0.029419849            2 
 1938000   0.93600886   -6.8541942     686.0419  0.029499566  0.029413462           10 
 1939000   0.94554958   -6.8331808    686.91723  0.029521971  0.029407027            6 
 1940000   0.91538987   -6.8373531    688.70954  0.029583743   0.02940062            4 
 1941000   0.95603813   -6.8073633      687.897  0.029533617  0.029394147            7 
 1942000   0.93252084   -6.8103475    687.72988  0.029511238  0.029387711            3 
 1943000   0.93963903   -6.8216869    687.83514  0.029500564  0.029381304            5 
 1944000   0.95275395    -6.823786    686.42805  0.029425071  0.029374847            5 
 1945000   0.92901305   -6.8188663    687.74501  0.029466367  0.029368339            8 
 1946000   0.93057708    -6.825911    688.10344  0.029466574  0.029361769            5 
 1947000    0.9372679   -6.8292108    688.37877  0.029463224   0.02935525            6 
 1948000   0.91817955    -6.813191    687.96704  0.029430486  0.029348593            2 
 1949000   0.92877139   -6.8187562    687.42517  0.029392217  0.029342137            3 
 1950000   0.95328391   -6.8190345    688.10721  0.029406291  0.029335549            4 
 1951000   0.94292854   -6.8276561    688.15929  0.029393443  0.029328965            3 
 1952000   0.93777318   -6.8453745    685.78381  0.029276973  0.029322291            2 
 1953000   0.91733966   -6.8325037    690.56741  0.029466095   0.02931562            3 
 1954000   0.95552914   -6.8397146     687.5821  0.029323699  0.029309078            5 
 1955000   0.95500005   -6.8313547    687.34015  0.029298387  0.029302342            3 
 1956000   0.92923047   -6.8387771    687.35174  0.029283902  0.029295617            3 
 1957000   0.94595771   -6.8412295     689.5873  0.029364133  0.029288928            5 
 1958000   0.93321454   -6.8163233     691.2243  0.029418807  0.029282299            5 
 1959000   0.95480664   -6.8300855    691.66131   0.02942238  0.029275672            6 
 1960000   0.94002491   -6.8164715    689.07855  0.029297558   0.02926904            5 
 1961000   0.96063798   -6.8099704    691.73747  0.029395609  0.029262457            7 
 1962000   0.91574781    -6.837944    689.33127  0.029278426  0.029255811            6 
 1963000   0.95149482   -6.8381656    690.69729  0.029321502   0.02924911            5 
 1964000   0.93969174   -6.7929051    689.93171  0.029274088  0.029242526            5 
 1965000   0.95532739   -6.8162719    692.40705  0.029364167   0.02923593            4 
 1966000   0.93935702   -6.8532664    691.12148  0.029294739  0.029229267            8 
 1967000   0.92567113   -6.8434753     689.4527  0.029209147  0.029222576            4 
 1968000   0.94540186   -6.8461653    693.11643  0.029349442  0.029215833            3 
 1969000   0.94470091   -6.8519408    693.06859  0.029332512  0.029209267            2 
 1970000   0.93615735   -6.8284025    693.30196  0.029327494  0.029202698            5 
 1971000    0.9378736   -6.7942145    692.42527  0.029275548  0.029196147            3 
 1972000   0.93873066   -6.8628595    692.90077  0.029280796  0.029189577            7 
 1973000   0.93051861   -6.8324748    692.32779  0.029241755  0.029183029            7 
 1974000     0.923021   -6.8570608    692.99822  0.029255244   0.02917649            7 
 1975000    0.9531617   -6.8789606     692.3663  0.029213768  0.029169938            7 
 1976000   0.92917422    -6.834133    695.48344  0.029330442  0.029163362            4 
 1977000   0.95078187   -6.8443245    694.09246  0.029256974  0.029156833            7 
 1978000   0.93241158   -6.8639385    692.55348  0.029177346  0.029150245            8 
 1979000   0.92208645   -6.8454625    693.82511  0.029216149   0.02914361            9 
 1980000   0.93408401   -6.8685755    694.41648  0.029226283  0.029137004            5 
 1981000   0.93000093   -6.8625939    694.65748  0.029221668  0.029130393            6 
 1982000   0.92630695    -6.874756    692.56117  0.029118785  0.029123698            2 
 1983000   0.92800753   -6.8638922    694.14419  0.029170625  0.029117047            4 
 1984000   0.93089563   -6.8558226     693.7695  0.029140184  0.029110335            9 
 1985000   0.92914371   -6.8501711    694.63328  0.029161767  0.029103595            2 
 1986000   0.94474257   -6.8402747    695.22946  0.029172099  0.029096894            5 
 1987000   0.95510728   -6.8545984    693.12798  0.029069283  0.029090147            5 
 1988000   0.93431015   -6.8347182    693.63246  0.029075807  0.029083402            5 
 1989000   0.92320047   -6.8602027    695.37571  0.029134226   0.02907671            5 
 1990000   0.93267831   -6.8243401     695.0548  0.029106148  0.029070033            9 
 1991000   0.91296595   -6.8463603    695.34607   0.02910372  0.029063364            5 
 1992000   0.92716399   -6.8445734    696.71512  0.029146382  0.029056665            7 
 1993000   0.92453536   -6.8559084    696.75264  0.029133327  0.029049962            9 
 1994000   0.92814477   -6.8484021    696.51947  0.029108971  0.029043243           10 
 1995000   0.92512078   -6.8477598    696.64008  0.029099419   0.02903651            8 
 1996000   0.92491686   -6.8459016    697.67308  0.029127968  0.029029853            7 
 1997000    0.9345429   -6.8473358    696.25429  0.029054177  0.029023139            5 
 1998000   0.94690626   -6.8329625    698.61582  0.029138131  0.029016491            3 
 1999000   0.92769176   -6.8444524    697.80766  0.029089864  0.029009799           10 
 2000000     0.913786    -6.850245     697.2026  0.029050108  0.029003067            5 
 2001000   0.93436681    -6.855718    694.91036  0.028940128  0.028996297            5 
 2002000    0.9161346   -6.8318196    698.89706  0.029091619  0.028989653            7 
 2003000   0.92795391   -6.8341517    697.76768  0.029030108   0.02898304            5 
 2004000   0.93785795   -6.8433423     696.5404  0.028964588  0.028976355            3 
 2005000   0.93609614   -6.8339799    695.81616   0.02892004  0.028969673           10 
 2006000   0.92981732   -6.8508289    698.05183  0.028998498   0.02896299            7 
 2007000   0.93310193   -6.8160953    699.95966  0.029063264   0.02895635            3 
 2008000   0.91103074   -6.8176158    698.70019  0.028996522  0.028949738            5 
 2009000   0.93370019    -6.886759    699.32137  0.029007855  0.028943047            7 
 2010000    0.9132766   -6.8637959    697.98343  0.028937953  0.028936286            8 
 2011000   0.91370867   -6.8840713    699.60568  0.028990787  0.028929576            5 
 2012000   0.94291303   -6.8811891    698.59255  0.028934416  0.028922962            4 
 2013000   0.92679738   -6.8496534    700.69292  0.029006993  0.028916238            5 
 2014000   0.92447442   -6.8311369     698.9309  0.028919683  0.028909604           12 
 2015000   0.92487288   -6.8476937    699.81865  0.028942045  0.028903004            5 
 2016000   0.91444116   -6.8839769    701.33442  0.028990345  0.028896347            4 
 2017000   0.94270662   -6.8344786    701.54763  0.028984781  0.028889726            4 
 2018000   0.93559941   -6.8571878    701.43797  0.028965889  0.028883123            6 
 2019000   0.93597742   -6.8706452    699.97507  0.028891162  0.028876487            8 
 2020000   0.91530605   -6.8693736    700.50306  0.028898641  0.028869837            7 
 2021000   0.93571182   -6.8750404    700.55483  0.028886476  0.028863204            3 
 2022000   0.93632636   -6.8442815    701.85312  0.028925697  0.028856579            5 
 2023000   0.91629659   -6.8394862    702.63786  0.028943725  0.028850048            4 
 2024000   0.93006112   -6.8730708    702.06926  0.028906014  0.028843496            8 
 2025000    0.9158286   -6.8910583    702.11608  0.028893666  0.028836956            4 
 2026000   0.95275026    -6.879347    704.15655  0.028963333  0.028830452            2 
 2027000   0.93018278   -6.8661627    704.43561  0.028960517  0.028823939            7 
 2028000   0.90921244   -6.8865512    704.17997  0.028935732  0.028817397            3 
 2029000   0.94444623   -6.8467663    703.07032  0.028875896  0.028810845            4 
 2030000   0.92386464   -6.8505699    703.55743  0.028881668  0.028804316            3 
 2031000   0.92996024   -6.8688182    704.90533  0.028922753  0.028797797            3 
 2032000   0.92313766   -6.8463299    704.78969  0.028903777   0.02879135            4 
 2033000   0.92678434   -6.8519075    705.34022  0.028912126  0.028784906            5 
 2034000   0.93539772   -6.8474453    705.92991  0.028922071  0.028778486            3 
 2035000   0.91824929   -6.8706966    706.98725  0.028951157  0.028772066            4 
 2036000   0.92688617   -6.8145451    707.23469  0.028947065  0.028765658            5 
 2037000   0.91908999   -6.8783368    705.61947  0.028866776  0.028759278            8 
 2038000   0.93276769   -6.8872062     706.9413  0.028906661  0.028752762            3 
 2039000   0.91781363    -6.881375     706.7385  0.028884196    0.0287463            4 
 2040000   0.92682793   -6.8704232    705.82176  0.028832588  0.028739805            6 
 2041000   0.92419233   -6.8624412     708.5998  0.028931888  0.028733318            4 
 2042000   0.90012624   -6.8668686    705.22561   0.02878002  0.028726814           11 
 2043000   0.92768189   -6.8690408     705.8722  0.028792307  0.028720211            4 
 2044000   0.92358501   -6.8613267    706.76249  0.028814518  0.028713651            5 
 2045000   0.92120875   -6.8496015    707.73893  0.028840217  0.028707222            4 
 2046000   0.91256718   -6.8483995    707.18957  0.028803746  0.028700764            4 
 2047000   0.90768923   -6.8688255    707.84744  0.028816456  0.028694271            5 
 2048000    0.9401136   -6.8537292    709.56409  0.028872237  0.028687866            4 
 2049000    0.9282424   -6.8383406    709.64082  0.028861267  0.028681562            4 
 2050000   0.92690201   -6.8645242     709.0534  0.028823309  0.028675208            6 
 2051000   0.92086403   -6.8588927    710.78621  0.028879661  0.028668866            5 
 2052000   0.95104513   -6.8998279    708.39984  0.028768674  0.028662502           12 
 2053000   0.92450693   -6.8630265    711.88542  0.028896145  0.028656162            3 
 2054000   0.92488864   -6.8989855    709.25256  0.028775258  0.028649884            6 
 2055000   0.91976317   -6.8557364    711.28516   0.02884368  0.028643631            6 
 2056000   0.94947207   -6.8787687     710.6065  0.028802144  0.028637369            5 
 2057000   0.89354994   -6.8315238    711.47989  0.028823525  0.028631037           12 
 2058000   0.92395729   -6.8672002     710.8838  0.028785382  0.028624767           11 
 2059000   0.92609512   -6.8341852    711.23976  0.028785809  0.028618469            3 
 2060000   0.92392313   -6.8760088    711.85683  0.028796797  0.028612259            6 
 2061000   0.92720077   -6.8939059    711.94092  0.028786225  0.028606013            5 
 2062000   0.93731236   -6.8942919    711.15142  0.028740358  0.028599669            5 
 2063000   0.90133554   -6.8690873    710.76313  0.028710742    0.0285934            5 
 2064000   0.93019248   -6.8930247     713.1513  0.028793253  0.028587154            7 
 2065000   0.91421329   -6.8845771    712.59898  0.028757021  0.028580871            5 
 2066000   0.92914084   -6.8774795    712.87835  0.028754371  0.028574656            7 
 2067000   0.89807671    -6.893613    713.00587    0.0287456  0.028568379            4 
 2068000   0.93566147   -6.8585786    711.84429  0.028684893  0.028562077            9 
 2069000   0.92206428   -6.8617909    714.17341  0.028764839   0.02855588            8 
 2070000   0.91936497   -6.8722173    712.28791  0.028675037  0.028549547            7 
 2071000   0.93390442   -6.8466818    714.63456  0.028755616  0.028543304            4 
 2072000   0.96036355   -6.8564659    715.13965  0.028762052  0.028536975            9 
 2073000   0.92213495   -6.8553584    713.66915  0.028689064  0.028530624            5 
 2074000   0.90076066    -6.869755    713.33667  0.028661872  0.028524279            9 
 2075000   0.90986084   -6.8546873    714.10123  0.028678764  0.028517851            3 
 2076000   0.91256637   -6.8675174    715.01137  0.028701484   0.02851153            4 
 2077000   0.91856513   -6.8652134    714.24401  0.028656877  0.028505236            5 
 2078000   0.90873098   -6.8767603    714.66039  0.028659785  0.028498954           10 
 2079000   0.91609839    -6.870472    716.20339  0.028707848  0.028492726            4 
 2080000   0.93605963   -6.8632256    715.47755  0.028664966  0.028486593            6 
 2081000   0.93260159   -6.8657065    715.86287  0.028666621  0.028480484            3 
 2082000   0.90765346   -6.8996308    715.32116   0.02863117  0.028474301            7 
 2083000   0.92944117    -6.880542    716.90781  0.028680901   0.02846803            4 
 2084000    0.9266075   -6.8593368    717.64225  0.028696507  0.028461853            4 
 2085000   0.93449391   -6.8865966    717.19647  0.028664927  0.028455642            2 
 2086000   0.91243855    -6.880591    716.62386   0.02862831  0.028449432            4 
 2087000    0.9234123   -6.8911327    715.25964   0.02856012  0.028443182            4 
 2088000   0.93392089   -6.8631593     718.7718  0.028686614  0.028436921            5 
 2089000   0.91744329   -6.8689445    717.68266  0.028629434  0.028430654            4 
 2090000   0.93398044    -6.888799    718.41165  0.028644803  0.028424426            4 
 2091000   0.92802079    -6.862486    718.76166  0.028645052  0.028418137            5 
 2092000   0.93284328   -6.8962358    718.23948  0.028610559  0.028411859            4 
 2093000   0.90442162   -6.8919233    717.54937  0.028569413   0.02840561            4 
 2094000   0.91614283   -6.8905912     717.4649  0.028552408   0.02839932            2 
 2095000   0.94220559   -6.9109286    719.21454  0.028608375  0.028392993            6 
 2096000   0.91213537   -6.8813277    719.08186  0.028589451  0.028386683            5 
 2097000   0.90753562    -6.883681    717.80254  0.028524978  0.028380294            4 
 2098000   0.89466014   -6.9154109    718.25035  0.028529169  0.028373932            3 
 2099000   0.93045061   -6.8994185    718.74276  0.028535126   0.02836763            5 
 2100000   0.91592429   -6.8750569    721.17496  0.028618054  0.028361351           10 
 2101000    0.8928119   -6.8800368    717.94142  0.028476179  0.028355019            4 
 2102000   0.90775344   -6.8873456    719.22738  0.028513613  0.028348635            4 
 2103000   0.92690317   -6.8914748    718.80822  0.028483445  0.028342202            3 
 2104000   0.91052092   -6.8822073    719.55042  0.028499304  0.028335838            4 
 2105000   0.90008944   -6.8611338    721.56397  0.028565478   0.02832954            4 
 2106000   0.92904823   -6.8715565    718.81316  0.028443066  0.028323164            8 
 2107000   0.89964506   -6.8760145    720.18069  0.028483653  0.028316777            5 
 2108000   0.89897123   -6.8186673    718.79529  0.028415373  0.028310399            7 
 2109000   0.92454095   -6.8752023    720.16595  0.028456059  0.028304076            5 
 2110000   0.89966159   -6.8595321    722.67838    0.0285418  0.028297702            6 
 2111000   0.90471725   -6.8567228    720.91619  0.028458716  0.028291346            3 
 2112000   0.92101662   -6.8777965    719.12133  0.028374421   0.02828495           10 
 2113000   0.91843165   -6.8855517    719.86903  0.028390481  0.028278506            4 
 2114000   0.93116105   -6.8969997    720.67029  0.028408636  0.028272044           14 
 2115000   0.92134641     -6.87425    721.62834  0.028432953  0.028265602            7 
 2116000   0.92450131   -6.9206767    719.79934  0.028347485  0.028259176            5 
 2117000   0.92239132   -6.8818511    722.33504   0.02843391  0.028252713            4 
 2118000   0.91015011   -6.8828779    721.93639    0.0284048  0.028246358            2 
 2119000   0.91870115   -6.8688041     720.9736  0.028353532  0.028240035            2 
 2120000   0.90372232   -6.8705811     723.1009  0.028423777  0.028233693            4 
 2121000   0.91920187   -6.8831551    721.93413  0.028364534   0.02822728            5 
 2122000   0.89455577   -6.9047419    721.78225  0.028345203  0.028220867            5 
 2123000   0.90620093    -6.887851    722.66892  0.028366656  0.028214476            3 
 2124000   0.90941968   -6.8758521    721.74596  0.028317089   0.02820812           11 
 2125000   0.91043757   -6.8877718    723.10499  0.028357058  0.028201697            7 
 2126000   0.90682998   -6.8894654    722.41496  0.028316673  0.028195264            4 
 2127000   0.90742273   -6.8907165    723.32337  0.028338951   0.02818877            3 
 2128000   0.91718656   -6.8987921     721.4385  0.028251821  0.028182295            3 
 2129000   0.89497595   -6.8684582    724.16568  0.028345298  0.028175786            7 
 2130000   0.92398248   -6.8890176    723.60185  0.028309932  0.028169351            8 
 2131000   0.92847059   -6.8816407    721.77877  0.028225355   0.02816292           10 
 2132000   0.91131213   -6.9417719    724.39571  0.028314404  0.028156487            4 
 2133000   0.91173471   -6.9125126    723.45726  0.028264465  0.028150108            3 
 2134000   0.88982781   -6.9198633    722.68455  0.028221046   0.02814367            8 
 2135000    0.8900619   -6.9026055    724.05512  0.028261324   0.02813718            5 
 2136000   0.90717064   -6.8959467    724.04936  0.028247868  0.028130729            3 
 2137000    0.9050813   -6.9073063    722.05947  0.028157053  0.028124235            5 
 2138000   0.89904209   -6.8932591    723.02385  0.028181472  0.028117739           11 
 2139000   0.90449478   -6.8859003    724.64808  0.028231576  0.028111214            4 
 2140000   0.91189302   -6.8935161    723.94674  0.028191072  0.028104719           10 
 2141000   0.91334574   -6.9342035    726.01169  0.028258279  0.028098219            6 
 2142000   0.91041648   -6.8892209    724.29248  0.028178201  0.028091632            8 
 2143000   0.90897049   -6.8605098    724.46345    0.0281717   0.02808505            7 
 2144000   0.91974196   -6.8859577    725.78755  0.028210026  0.028078549            3 
 2145000   0.91407781   -6.8767983    724.06044  0.028129776   0.02807206            5 
 2146000   0.90721484   -6.8725592    726.12275  0.028196752  0.028065586            4 
 2147000   0.89866717    -6.905157    724.25201  0.028111008  0.028059056           22 
 2148000   0.90562688   -6.9226475    723.98335  0.028087498  0.028052463            5 
 2149000   0.92194012   -6.8821932    725.78222  0.028144184  0.028045928            6 
 2150000   0.91322732   -6.8733063    725.98767  0.028139057  0.028039425            7 
 2151000    0.9088791   -6.8776779    726.88182  0.028160616  0.028032935           20 
 2152000   0.91841163   -6.8901131    726.40697  0.028129142  0.028026428            4 
 2153000    0.9100903   -6.8904848    725.39723  0.028076994  0.028019925            8 
 2154000   0.93528779   -6.9164118    724.47443  0.028028259  0.028013424            6 
 2155000   0.89198356    -6.865897    728.96465  0.028188888  0.028006902           16 
 2156000    0.9133404   -6.8975553    727.96323  0.028137107  0.028000413            3 
 2157000   0.89019305   -6.9191409     725.9715  0.028047114  0.027993856            6 
 2158000   0.91264938   -6.8996612    727.10375   0.02807784  0.027987321            2 
 2159000   0.89902189   -6.9043189    727.23527  0.028069912  0.027980767            5 
 2160000   0.89022629   -6.9165064    725.18512  0.027977821  0.027974262            6 
 2161000   0.90467839   -6.9022612     727.2922  0.028046128  0.027967784            3 
 2162000    0.9154323   -6.9065552    728.00886  0.028060779  0.027961327           10 
 2163000    0.8992242   -6.8633868    729.25095   0.02809566  0.027954863            4 
 2164000   0.92113069   -6.8805044    727.82052  0.028027593   0.02794841            6 
 2165000   0.90269622   -6.9208387     727.3239  0.027995531  0.027941898            6 
 2166000   0.91653689   -6.8837373    728.94925  0.028045139  0.027935448            5 
 2167000   0.89179776   -6.9133579    729.23331  0.028043121  0.027928982            6 
 2168000   0.90136994   -6.9173598    731.00067  0.028098119  0.027922547            7 
 2169000   0.92286372   -6.9040934    730.95641  0.028083464  0.027916202           10 
 2170000   0.91308314    -6.889666     730.5421  0.028054612  0.027909885            6 
 2171000   0.87553979   -6.9022121    729.84503  0.028014933  0.027903522            7 
 2172000   0.88386651   -6.8926109    729.78467  0.027999719  0.027897175            8 
 2173000   0.92418659   -6.8857332     728.8987  0.027952857   0.02789083            5 
 2174000    0.9029377   -6.9192939    730.56466  0.028003858  0.027884482            3 
 2175000   0.90854792    -6.927037    730.34832  0.027982694  0.027878052            6 
 2176000   0.91261809   -6.8935431    732.71671  0.028060536  0.027871612            7 
 2177000    0.8969816   -6.8983899    733.03198  0.028059714  0.027865218            7 
 2178000   0.87560611   -6.8842838    730.10627  0.027934889  0.027858749            8 
 2179000   0.89908002   -6.9255879    729.20551  0.027887621  0.027852295            8 
 2180000    0.8936132   -6.9257834    729.18733  0.027874133  0.027845741           10 
 2181000   0.90414593   -6.9171156    731.03802  0.027932066  0.027839215            4 
 2182000   0.91023858   -6.9298578     731.2307  0.027926623  0.027832653            8 
 2183000   0.87937513   -6.8972568    730.94395  0.027902884  0.027826156            7 
 2184000   0.90995221   -6.9525005    731.10471  0.027896242  0.027819611           10 
 2185000   0.90830729    -6.905025    731.92381  0.027914714  0.027813016           13 
 2186000   0.88757814    -6.906664    730.89608  0.027862766  0.027806428            2 
 2187000   0.88814456   -6.8973124    732.27001  0.027902378   0.02779986            5 
 2188000   0.88416065    -6.868997    734.33994  0.027968462  0.027793389           10 
 2189000   0.91330953    -6.878481    730.26126  0.027800413  0.027786939            4 
 2190000   0.89682764   -6.9209034    730.94473  0.027813726  0.027780349            4 
 2191000   0.89750295   -6.8822714    732.78366  0.027870974  0.027773714            6 
 2192000   0.90507231   -6.9016607    732.57079  0.027850167   0.02776711            9 
 2193000   0.91256801   -6.8822309    735.95884  0.027966212  0.027760591            4 
 2194000   0.89660776   -6.9055232    733.92663  0.027876277  0.027754089            8 
 2195000   0.90911204   -6.8816201    734.78179  0.027896044  0.027747559            6 
 2196000   0.91533256    -6.903908    734.77574  0.027883111  0.027741042            4 
 2197000   0.90884482   -6.8860447    734.42098  0.027856963  0.027734499            4 
 2198000   0.87741487    -6.889612    734.03783  0.027829763  0.027728023            5 
 2199000   0.90065593   -6.9286098    734.07962  0.027818691  0.027721585            4 
 2200000   0.90680668   -6.8762507    735.64463  0.027865327  0.027715124            5 
 2201000   0.92934124   -6.9129217    737.01384  0.027904507  0.027708727            7 
 2202000   0.90133294   -6.9393386    735.58211  0.027837652  0.027702239            7 
 2203000   0.87559409   -6.9273738    734.81734  0.027796087  0.027695724            6 
 2204000    0.9003602   -6.9026012    735.87709  0.027823544   0.02768922            7 
 2205000    0.9016144   -6.9175441    736.19283  0.027822858  0.027682777            6 
 2206000   0.88990124   -6.9325436    734.12761  0.027732231  0.027676288            2 
 2207000   0.89801111   -6.9101328    733.17052  0.027683527  0.027669754            6 
 2208000   0.89409009   -6.9348005    732.31166  0.027638574  0.027663123            3 
 2209000   0.90532399   -6.9186385     734.1022  0.027693609  0.027656528            7 
 2210000   0.89465427   -6.9054387    736.64101   0.02777681  0.027649956            5 
 2211000   0.92028953   -6.9134886    735.14193  0.027707747  0.027643442            3 
 2212000    0.8944016   -6.9202886    735.67229  0.027715201  0.027636944            3 
 2213000   0.88893399   -6.9526731    736.96501  0.027751356  0.027630483            6 
 2214000   0.89862947   -6.9302052    736.81094  0.027733023  0.027623982            5 
 2215000   0.88520022   -6.9238753    738.13492  0.027770313  0.027617518            6 
 2216000   0.90003619   -6.9227489    736.43916  0.027694012  0.027611037            4 
 2217000   0.90122127     -6.93398    736.02556  0.027665973  0.027604491            3 
 2218000   0.91828571   -6.9137658    737.04773  0.027691905  0.027597978            6 
 2219000   0.88047843   -6.9370278    736.32801  0.027652396  0.027591443            5 
 2220000   0.91428387   -6.9337759    735.16387  0.027596241  0.027584952           12 
 2221000   0.90493016   -6.9197261    737.97904  0.027689443  0.027578465            2 
 2222000   0.89425545   -6.9518975    738.66699  0.027702783  0.027571993            4 
 2223000    0.8990684   -6.9301514    738.64304  0.027689423   0.02756551            3 
 2224000   0.89497314   -6.9392777    737.81641  0.027645998  0.027559091            3 
 2225000   0.88831925   -6.9428928    738.20901  0.027648277  0.027552632            8 
 2226000   0.90368869   -6.9445296    738.29424  0.027639048  0.027546153            5 
 2227000   0.90671411   -6.9176885    740.78868  0.027719977  0.027539757            4 
 2228000   0.89075908   -6.9471481    738.06846  0.027605792  0.027533316            4 
 2229000   0.89206277   -6.9616335    739.79629  0.027658004  0.027526854            4 
 2230000   0.90718128   -6.9334591    741.43008  0.027706655  0.027520407            6 
 2231000   0.90601224   -6.9195114    738.95169  0.027601662  0.027514066           10 
 2232000   0.89941069   -6.9233531    738.92089  0.027588146  0.027507658            6 
 2233000   0.89392056   -6.9176275    740.91322  0.027650143  0.027501256            2 
 2234000   0.90073692   -6.9276706    739.44709  0.027583075  0.027494802            4 
 2235000   0.91805033   -6.9362892    740.70746  0.027617728  0.027488334            9 
 2236000   0.88913139   -6.9384975    740.94963  0.027614402  0.027481878            6 
 2237000   0.90267398   -6.9359883    739.15185  0.027535086   0.02747542            6 
 2238000   0.89726615   -6.9128088      740.478  0.027572163  0.027469036            7 
 2239000   0.90247151   -6.9389733    739.97464  0.027541113  0.027462624            5 
 2240000   0.91448552   -6.9500882    741.91084   0.02760085  0.027456197            7 
 2241000   0.87707752   -6.9266909    742.38715  0.027606245  0.027449783            5 
 2242000   0.90702698   -6.9103806    741.98805  0.027579098  0.027443364           12 
 2243000   0.88304034   -6.9101267     743.1677  0.027610629  0.027436952            6 
 2244000   0.89403358   -6.9216641    740.02703  0.027481693  0.027430421            6 
 2245000   0.88750256   -6.9667806    741.45461  0.027522443  0.027423884            5 
 2246000   0.88883532   -6.8958138    742.33648  0.027542909  0.027417377            4 
 2247000   0.88780282   -6.9446934    740.81295  0.027474149   0.02741092            4 
 2248000   0.88742371   -6.9423304    742.13573  0.027510963  0.027404427            6 
 2249000    0.8859371   -6.9051469     743.2941  0.027541652   0.02739801            6 
 2250000   0.85862686   -6.9130777    744.20908  0.027563299  0.027391674            1 
 2251000   0.88054424   -6.9024438    745.29713  0.027591334   0.02738536            4 
 2252000   0.87124379   -6.8891049    746.74589  0.027632693   0.02737897            4 
 2253000   0.88205246   -6.9361471     741.0817  0.027410923  0.027372577            3 
 2254000   0.91054569   -6.9204923    745.17719  0.027550177  0.027366188            3 
 2255000   0.90202472   -6.9580068    743.52505  0.027476905  0.027359718            6 
 2256000   0.89351985    -6.927793    744.24363  0.027491269   0.02735331            4 
 2257000   0.89444802   -6.9185577    744.11114  0.027474197  0.027346904            8 
 2258000   0.90245257   -6.9226357    745.50542  0.027513486  0.027340601            3 
 2259000   0.88811303   -6.9469917    746.92121  0.027553535  0.027334322            4 
 2260000   0.89904051   -6.9370233    746.66622   0.02753194  0.027327993            3 
 2261000    0.8809253    -6.938398    743.28259  0.027395054  0.027321657            6 
 2262000   0.89718056   -6.8903506    746.65348  0.027507128  0.027315348            3 
 2263000   0.87041843   -6.9555049    746.01791  0.027471568  0.027309009            4 
 2264000   0.89652515   -6.9634486    745.84688  0.027453139  0.027302661            7 
 2265000   0.90183853   -6.9519521    747.47096  0.027500771  0.027296292            9 
 2266000   0.87695396    -6.959345    745.73918  0.027424948   0.02728999            4 
 2267000   0.92212139   -6.9296193    746.06665  0.027424888  0.027283737            3 
 2268000   0.88769727   -6.9038565    747.05154  0.027448984   0.02727745            5 
 2269000    0.8774321   -6.9339736    745.83684  0.027392274  0.027271081            3 
 2270000   0.89052482   -6.9430963     747.8714  0.027454897  0.027264765            8 
 2271000   0.88658931   -6.9419849    747.21794   0.02741883  0.027258447           13 
 2272000   0.89300268   -6.9061717     748.9986  0.027472073  0.027252144            6 
 2273000   0.88330719   -6.9294334    747.29656  0.027397586  0.027245866            4 
 2274000   0.87280353   -6.9463098    747.65118  0.027398533  0.027239576            5 
 2275000   0.88948623   -6.8978356    748.31604  0.027410844  0.027233305            4 
 2276000    0.8867283   -6.9342768    748.00735  0.027387498  0.027227084            8 
 2277000   0.88973022   -6.9253988    747.64672  0.027362272  0.027220813            4 
 2278000    0.8875704    -6.924048    748.76836  0.027391292  0.027214506            3 
 2279000   0.88761847   -6.9584553    748.41516  0.027366358  0.027208227            3 
 2280000   0.88946015   -6.9638933    749.75787  0.027403431  0.027201918            6 
 2281000   0.87337278   -6.9118355    749.86701  0.027395405  0.027195721           10 
 2282000   0.89318614   -6.9222192    747.86316  0.027310223  0.027189447            3 
 2283000   0.90920203   -6.9418631    748.56804   0.02732399  0.027183285            4 
 2284000   0.87737297   -6.9432725    750.62959  0.027387244  0.027177075            4 
 2285000   0.88364576   -6.9768706    748.10853  0.027283316   0.02717083            4 
 2286000   0.88491246   -6.9408683    750.31383  0.027351773  0.027164653            2 
 2287000   0.89105425   -6.9499902    752.48246  0.027418833  0.027158545            4 
 2288000     0.874917   -6.9504878    752.37376   0.02740289  0.027152413            7 
 2289000    0.8837011   -6.9389913    751.90786  0.027373957  0.027146234           11 
 2290000   0.87827573   -6.9716071    752.92742  0.027399105  0.027140145            3 
 2291000   0.87127113   -6.9577849    752.64459  0.027376858  0.027134008            5 
 2292000   0.90908431   -6.9450058    754.36305  0.027427394  0.027127946           11 
 2293000   0.86874372   -6.9214905    753.70105  0.027391374   0.02712187            4 
 2294000   0.88489183   -6.9459783    755.16965  0.027432783  0.027115809            3 
 2295000   0.88369776   -6.9360434    754.17922  0.027384866   0.02710972            4 
 2296000   0.88011332   -6.9339272    756.06554  0.027441403   0.02710364            8 
 2297000   0.88526946   -6.9485198    753.51457  0.027336909  0.027097518           11 
 2298000   0.88494112   -6.9310239    753.46527  0.027323226  0.027091441           11 
 2299000   0.88922989   -6.9209166    754.96892  0.027365845  0.027085436            1 
 2300000    0.8911692   -6.9349721     753.9993  0.027318815  0.027079359            5 
 2301000   0.86314426   -6.9743152    752.65073  0.027258103  0.027073196            4 
 2302000   0.87041257   -6.9607541    753.31585  0.027270339  0.027067033            4 
 2303000   0.89051182   -6.9423438    754.84652  0.027313885  0.027060955           14 
 2304000   0.88126205   -6.9228868      753.578  0.027256149  0.027054824            6 
 2305000   0.88450507   -6.9765261    756.71909  0.027357885  0.027048649            5 
 2306000   0.88003663   -6.9482517     752.5234  0.027194399  0.027042529           12 
 2307000   0.89235441   -6.9383892    757.26355  0.027353834  0.027036381            4 
 2308000    0.8884995   -6.9324502    756.08521  0.027299437   0.02703026            2 
 2309000   0.89206569   -6.9430293    757.27271  0.027330472  0.027024205            3 
 2310000   0.87975197   -6.9545513    754.13924    0.0272056  0.027018134            7 
 2311000   0.87965786   -6.9448418    756.03033   0.02726202  0.027012066            5 
 2312000   0.88353526   -6.9535696    756.86262  0.027280227  0.027006051            7 
 2313000   0.88745238   -6.9504903    758.19955    0.0273166  0.027000063            8 
 2314000   0.87900539   -6.9751751    756.40103  0.027240026  0.026993994            5 
 2315000   0.87489136   -6.9522395    756.09285  0.027217165  0.026987876            5 
 2316000   0.87041873   -6.9381652    754.25766   0.02713938  0.026981745            7 
 2317000   0.87581466   -6.9433187    756.69171   0.02721521  0.026975653            2 
 2318000    0.8911987   -6.9507057    757.68697   0.02723925  0.026969563            4 
 2319000   0.88982515   -6.9165715    757.44486  0.027218803  0.026963473            5 
 2320000   0.88334297   -6.9331217    756.08609  0.027158265  0.026957366            7 
 2321000   0.89808378   -6.9320359    756.74635   0.02717027  0.026951261            3 
 2322000   0.87604419   -6.9640249    757.96828  0.027202422  0.026945165            5 
 2323000   0.88382052   -6.9895346    756.77539  0.027147919  0.026938996            6 
 2324000    0.8777366    -6.940667    757.28846  0.027154635  0.026932882            5 
 2325000   0.88105666   -6.9536195    757.12041  0.027136932  0.026926731            3 
 2326000   0.88127988   -6.9582159    756.60636  0.027106849  0.026920605            6 
 2327000   0.87498365   -6.9346034    758.80031  0.027173769  0.026914448            7 
 2328000   0.88303189    -6.947849    757.99732  0.027133352  0.026908338            3 
 2329000   0.88757616   -6.9273893    757.60696  0.027107734  0.026902271            4 
 2330000   0.85765566   -6.9272792    757.91951  0.027107279  0.026896162            5 
 2331000   0.89132372   -6.9737611    757.03444  0.027064008  0.026890022            6 
 2332000   0.89255203   -6.9356619    758.79324  0.027115253    0.0268839            7 
 2333000   0.89050691   -6.9370111    759.15982  0.027116725  0.026877801           10 
 2334000   0.87372935   -6.9827532    759.68545  0.027123874  0.026871706            7 
 2335000   0.88513992   -6.9193322    759.22587  0.027095855  0.026865601            4 
 2336000   0.86726865   -6.9579193     759.0644  0.027078496  0.026859443            6 
 2337000   0.85983346   -6.9687806    757.80763  0.027022095  0.026853221            4 
 2338000   0.88840174   -6.9558899    759.46578  0.027069638  0.026847066            4 
 2339000   0.88577394   -6.9394527    758.57743  0.027026416   0.02684088            3 
 2340000   0.87627677   -6.9593459    758.16989  0.027000352  0.026834654            5 
 2341000   0.87874836   -6.9373978    761.35674  0.027102262  0.026828494           10 
 2342000   0.87571049   -6.9515248    759.97753  0.027041614  0.026822416            8 
 2343000   0.86522897   -6.9487236    760.34706  0.027043216  0.026816242            7 
 2344000   0.88905632   -6.9192289    761.90938  0.027087222  0.026810148            3 
 2345000   0.87223667   -6.9690701    761.32171  0.027054787  0.026804017            5 
 2346000   0.87299301   -6.9350155     762.1265  0.027071842  0.026797902            3 
 2347000    0.8907666   -6.9529659    761.55418  0.027039987  0.026791798            7 
 2348000    0.8610695    -6.945201    759.96227  0.026971971  0.026785616            7 
 2349000   0.90661637   -6.9526609    760.36129  0.026974645  0.026779454            6 
 2350000   0.87209189   -6.9599279    762.45876  0.027037545  0.026773363            4 
 2351000   0.85054444   -6.9463654    761.36339  0.026987218  0.026767181            6 
 2352000    0.8831522   -6.9486641    760.22468  0.026935398   0.02676101            6 
 2353000   0.87903723     -6.92615    760.52143  0.026934461  0.026754825            3 
 2354000   0.85352635    -6.944016    762.54661  0.026994711   0.02674861            5 
 2355000   0.87995299   -6.9828127    761.21566  0.026936152    0.0267424            6 
 2356000   0.87710831   -6.9811636    761.38045  0.026930548  0.026736141            9 
 2357000   0.87780889   -6.9830265    762.44073  0.026956609  0.026729974            4 
 2358000   0.87004198   -6.9615464    762.00668  0.026929838  0.026723802            7 
 2359000   0.86307902   -6.9588663    761.63239  0.026905199  0.026717631            4 
 2360000   0.87673211   -6.9331478    763.11183  0.026946039  0.026711437            6 
 2361000   0.86476342    -6.958188    763.62355  0.026952688  0.026705256            5 
 2362000   0.87321076   -6.9830927    761.88064  0.026879785   0.02669906            8 
 2363000   0.87347259   -6.9987347    763.48236  0.026924896  0.026692854            4 
 2364000   0.87828796   -6.9350718    764.17963  0.026938086  0.026686695            9 
 2365000   0.87387593   -6.9602704    761.36537  0.026827532  0.026680527            6 
 2366000   0.87031063    -6.953672    762.27235  0.026848139  0.026674324            4 
 2367000   0.85839422   -6.9758125    761.13049  0.026796595  0.026668073            7 
 2368000   0.87629756   -6.9491168    764.10112   0.02688982  0.026661785            5 
 2369000   0.86924161   -6.9642542    763.13633  0.026844531  0.026655534            7 
 2370000   0.87394588    -6.966348    762.89638  0.026824767  0.026649247            7 
 2371000   0.88352166   -6.9698089    760.45705  0.026727719  0.026642946            3 
 2372000   0.87719353    -6.953989    762.53369  0.026789407  0.026636669            6 
 2373000   0.88310292     -6.97847    764.23057  0.026837708  0.026630438            3 
 2374000   0.87479377   -6.9699856     765.4975  0.026870876   0.02662421            3 
 2375000   0.86721947   -6.9631175    764.78516  0.026834567  0.026618008            4 
 2376000   0.88360734   -6.9558721    763.56537  0.026780491  0.026611848            6 
 2377000   0.87575167   -6.9407814    765.26804  0.026828917  0.026605594            6 
 2378000   0.86652312   -6.9594484    764.24118  0.026781651  0.026599333            5 
 2379000   0.87505056   -6.9738342    764.17325  0.026768013  0.026593086            9 
 2380000   0.86733542   -6.9843063    762.10567  0.026684372  0.026586814            7 
 2381000   0.86858079   -6.9722766    766.14229  0.026814444  0.026580549           22 
 2382000   0.87455374   -6.9637116    765.83937  0.026792589  0.026574269            8 
 2383000   0.86929992   -6.9738715    764.01977  0.026717715  0.026568021            8 
 2384000   0.86353482   -6.9762092    764.38955  0.026719433  0.026561752            9 
 2385000   0.88336055   -6.9989565    764.34151  0.026706552  0.026555446            8 
 2386000   0.89091517   -6.9638639    767.31126   0.02679908   0.02654914           10 
 2387000   0.88595471   -6.9843378    766.17918  0.026748331  0.026542905            4 
 2388000   0.87351951   -6.9723199    765.25617  0.026704919  0.026536564            3 
 2389000   0.85936324     -6.99583    763.94675  0.026648066  0.026530208           11 
 2390000   0.86791445   -6.9753558    763.97116  0.026637767  0.026523891            6 
 2391000   0.85145727   -6.9748255    766.97226  0.026731223  0.026517535            6 
 2392000   0.86736129   -6.9600885    765.69888  0.026675685  0.026511201            7 
 2393000   0.87421044   -6.9931822    764.67559  0.026628904  0.026504901            8 
 2394000   0.84905985   -6.9939504    765.79252   0.02665666  0.026498638            4 
 2395000   0.89840862   -6.9813964    765.13345  0.026622598  0.026492312            5 
 2396000   0.85604892   -6.9812899    765.38398    0.0266202  0.026486015           15 
 2397000   0.88220945   -6.9651679    766.39706  0.026644314  0.026479721            7 
 2398000   0.87843549   -6.9787671    766.20255  0.026626444  0.026473434            7 
 2399000   0.87897013   -6.9525192    766.38609   0.02662172  0.026467151            6 
 2400000   0.87217927   -6.9588638    769.36194  0.026713956  0.026460844            6 
 2401000   0.86864433   -6.9701347    767.86074  0.026650727  0.026454514            5 
 2402000   0.89389999    -6.967379    766.90146  0.026606351  0.026448247           11 
 2403000   0.88258326   -6.9804781    766.40198  0.026577957  0.026441985            8 
 2404000   0.85447158   -6.9780557    766.75427  0.026579114  0.026435689            4 
 2405000   0.87963131   -6.9588379    768.36494  0.026623872  0.026429353            7 
 2406000    0.8634704   -6.9609711    767.39694  0.026579279  0.026423124            3 
 2407000   0.85123374   -7.0158836    766.40651  0.026533946  0.026416853           14 
 2408000   0.85822359    -6.980467    768.14345  0.026583037  0.026410526            7 
 2409000   0.87300377   -6.9885982    767.63752  0.026554501  0.026404221            2 
 2410000   0.85790356   -6.9964136    769.04303  0.026592083  0.026397915            6 
 2411000   0.85572244   -6.9543402    767.47592  0.026526888  0.026391627            4 
 2412000   0.86624406   -6.9978327    768.89391  0.026564881  0.026385346            4 
 2413000   0.86425978   -6.9681047    769.47572  0.026573965  0.026379136           13 
 2414000   0.86500244   -6.9782784    767.79005  0.026504766  0.026372864            6 
 2415000   0.87795636   -6.9919316    769.59188  0.026555965  0.026366604            7 
 2416000   0.87151395   -6.9819024    769.22734    0.0265324  0.026360343            7 
 2417000   0.86271923   -7.0058166    767.69273  0.026468512  0.026354094            5 
 2418000   0.84683423    -6.978669     769.8681  0.026532537  0.026347807           10 
 2419000   0.86450891   -6.9860086    771.12318  0.026564806  0.026341522            4 
 2420000   0.85962954   -6.9765318    770.53151  0.026533454  0.026335204            4 
 2421000   0.87214132   -6.9878872    768.69205  0.026459178  0.026328902            7 
 2422000   0.85870096   -7.0283213     767.7152  0.026414643  0.026322562           11 
 2423000   0.83435699   -6.9955376    769.76031  0.026474079  0.026316219            9 
 2424000   0.86236806   -6.9717333    770.46545  0.026487399  0.026309943            9 
 2425000   0.86394504   -6.9729893    770.77848  0.026487233  0.026303649            4 
 2426000   0.84955316   -7.0143314    770.32706  0.026460809  0.026297345           11 
 2427000   0.87040743   -7.0273904    769.53545  0.026422725  0.026291046            5 
 2428000   0.86940245   -7.0035446    771.71888  0.026486782  0.026284813           12 
 2429000   0.88782997   -6.9708385    773.50607  0.026537192  0.026278613            8 
 2430000   0.87969749   -6.9846654    772.81712  0.026502645  0.026272453            6 
 2431000   0.86774908   -6.9964313     770.1945  0.026401841  0.026266208            8 
 2432000   0.86630788   -7.0132679    770.99265  0.026418334  0.026259924            9 
 2433000   0.85615563   -6.9767557    771.15563  0.026413057  0.026253661            7 
 2434000   0.86363033   -6.9797736    770.65023  0.026384903  0.026247342            3 
 2435000   0.86312964   -6.9721192    771.28644   0.02639584  0.026241032            4 
 2436000   0.87427414   -7.0073724    772.37182  0.026422134  0.026234732            4 
 2437000   0.85035473   -6.9869793    772.33516  0.026410038  0.026228381            4 
 2438000   0.85740487    -7.005496    770.09236  0.026322545  0.026222025            5 
 2439000   0.86904565   -7.0136401    769.73559  0.026299562   0.02621562            4 
 2440000   0.85777478   -6.9929117    771.56247  0.026351177  0.026209311            6 
 2441000   0.85386286   -7.0075528    772.10483  0.026358898  0.026202957            5 
 2442000   0.86163965   -7.0138657    771.64468  0.026332401  0.026196593           11 
 2443000   0.87900558   -7.0043802    771.10696   0.02630328  0.026190256           11 
 2444000   0.87266844   -7.0039422    772.01586  0.026323509  0.026183953           16 
 2445000   0.86229211   -6.9891393    772.25244  0.026320806   0.02617765            6 
 2446000   0.84970936   -6.9951735    772.61464  0.026322385  0.026171337            9 
 2447000   0.86822702    -7.026775    772.32205  0.026301664  0.026165016            6 
 2448000   0.86193952   -6.9926934    773.25624  0.026322721  0.026158659           13 
 2449000   0.85756255   -7.0201806    769.45939  0.026182775  0.026152287           15 
 2450000   0.85815756   -7.0041775    773.78262  0.026319137  0.026145892            3 
 2451000   0.84509666    -6.987782    773.97347  0.026314887  0.026139571            8 
 2452000   0.83730172   -6.9947427     772.0441  0.026238584   0.02613319            7 
 2453000   0.86161854   -6.9855446     773.1329  0.026264876  0.026126814            7 
 2454000    0.8614019   -7.0160984    773.71579  0.026273967  0.026120423            3 
 2455000   0.84838883   -7.0265998    773.91381  0.026269987  0.026114054            4 
 2456000   0.88309297   -7.0164836    774.57141  0.026281603  0.026107758            5 
 2457000   0.84888818   -7.0268185    772.81822  0.026211444  0.026101438            8 
 2458000   0.84389766   -7.0018327    773.66844  0.026229605  0.026095055            8 
 2459000   0.85492023   -7.0055855     774.5937  0.026250295  0.026088702            9 
 2460000   0.88901383   -6.9797626    772.76583  0.026177704  0.026082382            4 
 2461000   0.85718163   -7.0017241    774.62976  0.026230183  0.026076134            7 
 2462000    0.8723934   -7.0083787    773.74626  0.026189624  0.026069817           16 
 2463000   0.85260998   -6.9950979     775.5052  0.026238503  0.026063538            5 
 2464000   0.85681176    -7.005766    775.40363  0.026224419  0.026057293            4 
 2465000   0.85638599   -6.9776903    776.34551  0.026245622  0.026051086            6 
 2466000   0.86570408    -6.985948    774.68428  0.026178842   0.02604487            4 
 2467000   0.84449825   -7.0260214     777.3407  0.026257962  0.026038587            6 
 2468000   0.86015992   -6.9947766    774.56346  0.026153547   0.02603231            6 
 2469000   0.86058913   -6.9892285    774.86922  0.026153275   0.02602602           11 
 2470000    0.8647042   -7.0153793    775.65105  0.026169064  0.026019747            3 
 2471000   0.85918046   -6.9898414    774.92753  0.026134073  0.026013429            6 
 2472000   0.85927589   -7.0008196    777.65369  0.026215402  0.026007131            8 
 2473000   0.84893256   -7.0084659    776.69189  0.026172391  0.026000829            4 
 2474000   0.85528797   -7.0287213    776.31118  0.026148989  0.025994549            7 
 2475000   0.86617961   -7.0208489    777.79137  0.026188261  0.025988263            7 
 2476000   0.84105804    -6.982375    775.94053  0.026115392  0.025981961           12 
 2477000   0.85952325   -6.9988296    778.37503  0.026186752  0.025975722            8 
 2478000   0.85587088   -7.0049943    777.67328  0.026152586  0.025969446           10 
 2479000    0.8549763   -7.0017814    778.23119   0.02616079  0.025963167            8 
 2480000    0.8594864   -6.9951191    778.82939  0.026170342  0.025956906            4 
 2481000   0.85675208   -6.9915677    776.69377  0.026088062  0.025950619           11 
 2482000   0.85051484   -6.9894957    777.60731  0.026108223  0.025944289            5 
 2483000   0.84879987    -7.008227     777.8007  0.026104198  0.025938012            8 
 2484000   0.83916057   -6.9954899    779.11533  0.026137793  0.025931754            4 
 2485000   0.84316899   -7.0465929    776.87438  0.026052125  0.025925458            7 
 2486000   0.83255801   -7.0339917    777.95638  0.026077915  0.025919167            5 
 2487000    0.8516242   -7.0159448    777.51712  0.026052711  0.025912823            7 
 2488000   0.86443531   -7.0231423    777.70396  0.026048498  0.025906532            8 
 2489000   0.86472033   -7.0215826    776.75746  0.026006343  0.025900244            7 
 2490000   0.84121785   -7.0016391    779.39818  0.026084276  0.025894003            4 
 2491000   0.83872211   -7.0206527    779.14295  0.026065267  0.025887755            3 
 2492000   0.86448333    -6.973131    779.83111  0.026077819  0.025881559            4 
 2493000   0.85001507   -7.0142696    779.63586  0.026060832  0.025875331            8 
 2494000   0.86878316   -6.9833746    777.93065  0.025993406  0.025869102            3 
 2495000   0.86556404   -7.0214258    779.37271  0.026031153  0.025862809            3 
 2496000   0.86542344    -6.991208    777.30633  0.025951734  0.025856482            6 
 2497000   0.86019366   -7.0179686    778.36394  0.025976637  0.025850123            6 
 2498000   0.87547053   -7.0085626    780.16316   0.02602626   0.02584378           17 
 2499000   0.85879614   -7.0163134    780.55493  0.026028909  0.025837462           12 
 2500000   0.85396969   -7.0039607    781.13264  0.026037755  0.025831152            4 
 2501000   0.85422124   -6.9836169    779.30214  0.025966351  0.025824893            6 
 2502000   0.85223799   -7.0173127    781.87411  0.026041637  0.025818635            5 
 2503000   0.84993356   -6.9955999    779.88133  0.025964886  0.025812355            6 
 2504000   0.85999144   -7.0055552    779.26681  0.025934066  0.025806044            7 
 2505000     0.831844   -7.0102528    780.26461  0.025956906  0.025799674            4 
 2506000   0.84566171   -7.0181703     780.7019   0.02596109  0.025793324            9 
 2507000   0.83647647    -7.027026    777.61254  0.025848044  0.025786947            5 
 2508000   0.83701231   -6.9970516    779.47236  0.025899533  0.025780546            7 
 2509000   0.85401308   -7.0099335    779.70163  0.025896826  0.025774178            7 
 2510000   0.83609453   -6.9888634    781.90407   0.02595963  0.025767821            8 
 2511000   0.84992239   -7.0084061    779.55578  0.025871359  0.025761435            4 
 2512000   0.87339003   -7.0469345    777.38468  0.025789035  0.025754972            8 
 2513000   0.82728228   -7.0312241    780.03022  0.025866501  0.025748478           16 
 2514000   0.85573897   -7.0300541    779.47813  0.025837912   0.02574205            6 
 2515000   0.83148029   -7.0126316    779.90033  0.025841628  0.025735617            8 
 2516000    0.8536729   -7.0246261     779.1108  0.025805207  0.025729185            9 
 2517000   0.85224048   -7.0337125    777.92128  0.025755571   0.02572275            4 
 2518000   0.83726547   -7.0143776    780.21693  0.025821318  0.025716283            7 
 2519000   0.85675457   -6.9787485    781.14789  0.025841865  0.025709888            5 
 2520000   0.85764248   -7.0156348    779.52461   0.02577793  0.025703475            9 
 2521000   0.83750929   -7.0213358    780.02048  0.025784096  0.025697036           10 
 2522000   0.85185072   -6.9829771    782.56051  0.025857802  0.025690604            4 
 2523000   0.85113975   -7.0388098    780.80326  0.025789512  0.025684171            9 
 2524000   0.84735913   -7.0595341    778.42808  0.025700874  0.025677692            9 
 2525000   0.85041819   -7.0163598    778.71727   0.02570024  0.025671221            5 
 2526000   0.86286752   -7.0146292     781.7562  0.025790321  0.025664791            9 
 2527000   0.85347923   -7.0346785    780.87759  0.025751141  0.025658333            4 
 2528000   0.84688419   -7.0409796    779.86423   0.02570755  0.025651823           18 
 2529000   0.85074796   -7.0105292    782.69902  0.025790794  0.025645321           18 
 2530000   0.85733557   -7.0092625    781.53884  0.025742386  0.025638832            9 
 2531000    0.8310435   -7.0225057    781.71364  0.025737971  0.025632383            6 
 2532000   0.83736415   -7.0657797    780.85839  0.025699657  0.025625858           10 
 2533000   0.82463352   -7.0286038    780.24307  0.025669268  0.025619347            2 
 2534000    0.8604682   -7.0219078    783.03537  0.025750966  0.025612849            3 
 2535000   0.86683292   -7.0327159    779.83388  0.025635565  0.025606286           17 
 2536000   0.84580181   -7.0391612    780.60768  0.025650883  0.025599744            8 
 2537000    0.8523652   -7.0257859    782.38063  0.025699009  0.025593176            8 
 2538000   0.83544726   -7.0147514    780.35259  0.025622294   0.02558663            9 
 2539000   0.84556282   -7.0185462    782.55821  0.025684594  0.025580059            4 
 2540000    0.8379137   -7.0442429     781.4641  0.025638586  0.025573492            7 
 2541000   0.83447915   -7.0232423    780.44302  0.025595009  0.025566913            4 
 2542000   0.85630396   -7.0418656    779.49031  0.025553708  0.025560285           12 
 2543000   0.84007435   -7.0239269    781.98603  0.025625443  0.025553649            4 
 2544000   0.83076486   -7.0040502    782.33226  0.025626712  0.025547043            6 
 2545000    0.8332606   -7.0162843    782.25186   0.02561401    0.0255405           17 
 2546000   0.85880801   -7.0083926     780.9458  0.025561201  0.025533937            7 
 2547000   0.85683038   -7.0257524    783.76119  0.025643279  0.025527451            5 
 2548000   0.86851524   -7.0442225    781.61157  0.025562911   0.02552094            5 
 2549000    0.8474986   -7.0440947    782.81286  0.025592156  0.025514424            8 
 2550000    0.8241611   -6.9819831    785.89345  0.025682793   0.02550799            5 
 2551000   0.84348835    -7.032841    782.89597  0.025574806   0.02550152            8 
 2552000   0.83243909   -7.0141753     783.7433  0.025592454  0.025494974            6 
 2553000   0.84925806   -7.0184444    783.80956  0.025584592  0.025488482            4 
 2554000   0.85625557   -7.0218392    783.72176   0.02557171  0.025481944            5 
 2555000   0.83560847   -7.0305964    781.42003  0.025486629  0.025475407            4 
 2556000   0.83593176   -7.0336926    783.55604  0.025546298  0.025468856            4 
 2557000   0.85458563   -7.0537097     784.5024  0.025567149  0.025462238            6 
 2558000   0.84592761   -7.0369547    784.22375  0.025548076  0.025455645            8 
 2559000   0.86581537    -7.048556    781.22152  0.025440326  0.025449067            6 
 2560000   0.84373053   -7.0448241    781.86028  0.025451181  0.025442529            6 
 2561000   0.83126225   -7.0273458    782.88111   0.02547446   0.02543598            5 
 2562000   0.84810539   -7.0474281    783.81482  0.025494887  0.025429455            4 
 2563000   0.83008139   -7.0371966    784.55123  0.025508884  0.025422927            5 
 2564000   0.84758849   -7.0167497    785.51167   0.02553015  0.025416462            6 
 2565000   0.84393829   -7.0422868    783.82091  0.025465267  0.025410017            6 
 2566000   0.85700532   -7.0253713    783.70144  0.025451463  0.025403499            6 
 2567000   0.83532226   -7.0516905    784.37832  0.025463522  0.025396955            5 
 2568000   0.85081988   -7.0495324    784.84974  0.025468904  0.025390399            3 
 2569000   0.84414557   -7.0549412    785.40962  0.025477151  0.025383823            8 
 2570000   0.83943123   -7.0309584    782.37442   0.02536882  0.025377291            7 
 2571000   0.85651983   -6.9941862    786.58173  0.025495324  0.025370796           13 
 2572000   0.83735999   -6.9931438     784.6963  0.025424323  0.025364293            8 
 2573000   0.81257992   -7.0273743    785.06297  0.025426317   0.02535777            9 
 2574000   0.83912732   -7.0256248    783.46386  0.025364668  0.025351208            6 
 2575000    0.8514774   -7.0400983    783.95571  0.025370735   0.02534466            4 
 2576000    0.8513626   -7.0320268    785.01021  0.025394999  0.025338072            3 
 2577000   0.84874436   -7.0343181    783.96367  0.025351302   0.02533148            7 
 2578000   0.83484562   -7.0578948    782.52382  0.025294926  0.025324889           13 
 2579000     0.863384    -7.056458     782.4832  0.025283805  0.025318256            7 
 2580000   0.83777353   -7.0530717    783.56656  0.025308997  0.025311634           18 
 2581000   0.83373536   -7.0388861    783.49328  0.025296825  0.025305015           11 
 2582000   0.85258777   -7.0421968    783.17663  0.025276808  0.025298343            6 
 2583000   0.84421032   -7.0265774    785.56123  0.025343955  0.025291661            6 
 2584000   0.84138613   -7.0197547    783.81657  0.025277882  0.025285039           11 
 2585000   0.82673124   -7.0301627    784.16755  0.025279418  0.025278448            7 
 2586000   0.82533442   -7.0298246    785.03357   0.02529755  0.025271866            9 
 2587000   0.83009202   -7.0396076    784.35472  0.025265904  0.025265241            4 
 2588000   0.85799347   -7.0540299    784.11991   0.02524858  0.025258592            5 
 2589000   0.84415135   -7.0505747    782.91142   0.02519993  0.025251954            6 
 2590000   0.82486462    -7.023184    787.77346  0.025346637  0.025245315            6 
 2591000     0.853697   -7.0609437    783.62064  0.025203288  0.025238713            9 
 2592000   0.83967769   -7.0662442    785.00085  0.025237939   0.02523214           11 
 2593000   0.83308924   -7.0384271    787.72685  0.025315814  0.025225562            7 
 2594000   0.85817564   -7.0432841    784.52575  0.025203217  0.025218996            4 
 2595000     0.844084   -7.0223064    785.56068   0.02522674  0.025212421           17 
 2596000   0.84300422    -7.035889    786.75906  0.025255491  0.025205865            6 
 2597000   0.84353434   -7.0690683    785.63647  0.025209744  0.025199248           11 
 2598000   0.83307754   -7.0412293      786.818   0.02523794  0.025192643            5 
 2599000   0.85452473   -7.0604673    786.30824  0.025211884  0.025186044            8 
 2600000    0.8390951    -7.038387    787.78313  0.025249459  0.025179445            6 
 2601000   0.83503801    -7.059869    788.23486  0.025254225  0.025172885            7 
 2602000   0.83294691   -7.0594868    786.96538  0.025203862  0.025166288            7 
 2603000   0.84207074   -7.0355578    787.17684  0.025200949  0.025159746            5 
 2604000   0.84220343   -7.0709148    788.76009  0.025241938  0.025153178            4 
 2605000    0.8247433   -7.0609134    787.09917  0.025179116  0.025146651            5 
 2606000   0.85033762   -7.0576135    789.12417  0.025234209  0.025140098            6 
 2607000   0.83975292   -7.0527726    786.87382  0.025152596  0.025133517           10 
 2608000   0.83500566   -7.0513976    788.56657   0.02519704  0.025126973            7 
 2609000    0.8195619   -7.0226842    786.21631  0.025112313  0.025120454           24 
 2610000   0.84101853   -7.0533431    789.83593  0.025218261  0.025113928            6 
 2611000    0.8359573   -7.0831344    788.29133  0.025159304  0.025107378            7 
 2612000   0.83759583     -7.06382    788.04873  0.025141933   0.02510079            8 
 2613000   0.83712094   -7.0652966     787.8674  0.025126528   0.02509418            5 
 2614000   0.82583011   -7.0421806    788.91816  0.025150413  0.025087608            7 
 2615000   0.85787254   -7.0413258      788.566  0.025129573  0.025081036            9 
 2616000   0.81405331   -7.0171819    790.49032  0.025181267  0.025074478            3 
 2617000   0.82507318   -7.0202995    785.46411  0.025011594  0.025067872           10 
 2618000   0.83343472   -7.0364108    788.68137  0.025104449  0.025061274            5 
 2619000   0.83981232   -7.0816204    788.28074  0.025082116  0.025054696            4 
 2620000   0.81869827   -7.0654228    787.38505  0.025044054  0.025048072            7 
 2621000   0.83755727   -7.0485015    790.54649  0.025135015   0.02504148            5 
 2622000   0.82667094   -7.0474519    788.86008  0.025071831  0.025034878            6 
 2623000   0.84671521   -7.0487492    789.41073  0.025079767  0.025028293            7 
 2624000   0.84528356   -7.0606178    787.63624  0.025013854   0.02502169           12 
 2625000   0.83640435   -7.0518012    789.66861  0.025068845   0.02501511            5 
 2626000   0.81672742   -7.0591199    790.24724  0.025077661  0.025008553            5 
 2627000   0.84651803   -7.0648883    789.21767  0.025035454  0.025002003            8 
 2628000   0.85216368   -7.0739078    788.90844  0.025016123  0.024995413            4 
 2629000   0.83740066   -7.0652693    790.49849  0.025057008  0.024988846            7 
 2630000   0.85260381   -7.0799625    790.13708  0.025036029  0.024982288            9 
 2631000   0.82169906   -7.0624311    791.12299  0.025057741  0.024975742            4 
 2632000   0.81172067     -7.03869    789.41656  0.024994192  0.024969231            9 
 2633000   0.84300765    -7.062448    789.74303  0.024995032  0.024962749            5 
 2634000   0.82738037   -7.0583586    791.99054  0.025056648   0.02495624            6 
 2635000   0.83301757   -7.0752714    791.01757  0.025016368  0.024949734           12 
 2636000   0.81558093   -7.0730902    791.12563  0.025010294  0.024943232            4 
 2637000    0.8223318   -7.0643571    790.36367  0.024976731  0.024936783            6 
 2638000   0.82625999   -7.0493682    790.66463   0.02497677  0.024930262            9 
 2639000   0.82596614   -7.0789858    790.96117   0.02497667  0.024923731            3 
 2640000   0.83506591   -7.0664076    790.92724  0.024966138  0.024917212           11 
 2641000   0.82364082   -7.0479605     790.9974  0.024958898  0.024910651            6 
 2642000   0.82636204   -7.0303035    792.62629  0.025000829  0.024904174            7 
 2643000   0.80711327   -7.0698939    790.08358  0.024911199  0.024897698           14 
 2644000   0.84541591   -7.0598762    791.73911  0.024953956   0.02489121            5 
 2645000   0.82168108   -7.0730762    791.14734  0.024925877  0.024884679            8 
 2646000     0.832915   -7.0570617    790.73665  0.024903522  0.024878127            9 
 2647000   0.84164824     -7.06172     792.0899  0.024936718  0.024871594            6 
 2648000   0.82595431   -7.0570167    793.41198  0.024968907  0.024865062            4 
 2649000   0.83183696   -7.0717571    793.00935  0.024946815  0.024858517            5 
 2650000   0.83036289   -7.0749573    791.55121  0.024891547  0.024852008            9 
 2651000   0.83616894   -7.0775663     790.7164  0.024855916  0.024845478           10 
 2652000   0.83980744   -7.0426801    793.51681   0.02493454  0.024838949            7 
 2653000   0.81928812   -7.0924823    793.44037  0.024922741  0.024832447            9 
 2654000   0.85307784   -7.0580564    794.84272  0.024957382  0.024825979            5 
 2655000   0.82419069   -7.0736816     793.4518  0.024904325  0.024819536            4 
 2656000   0.83733297   -7.0102371    793.06223  0.024882725  0.024813093           11 
 2657000   0.82570233   -7.0748095    791.62104   0.02482816  0.024806617            4 
 2658000   0.81253305   -7.0576065    793.12901  0.024866096  0.024800128            6 
 2659000   0.82097581   -7.0511248    793.57681  0.024870779  0.024793628            9 
 2660000   0.82579785   -7.0437587    793.82303  0.024869142  0.024787141            5 
 2661000    0.8243871   -7.0775976      795.562  0.024914255  0.024780647           12 
 2662000   0.81373312   -7.0481436    794.97477  0.024886513  0.024774145            5 
 2663000   0.82237076   -7.0507293    794.20248  0.024853001  0.024767634            6 
 2664000   0.81556867   -7.0291863    795.37865  0.024880463  0.024761162            3 
 2665000   0.82668912   -7.0684556    795.44959  0.024873346  0.024754699            7 
 2666000    0.8310411   -7.0789669    794.35403  0.024829771  0.024748148            6 
 2667000   0.82462715   -7.0599958    793.65568   0.02479864  0.024741549           13 
 2668000   0.82649597   -7.0590617    792.34534  0.024748418  0.024734937           10 
 2669000   0.85144681   -7.0797399    792.94091  0.024757741  0.024728345            5 
 2670000   0.83592822   -7.0906297    793.48994  0.024765604  0.024721783            9 
 2671000   0.83074015   -7.0582029    793.45193  0.024755146  0.024715201            7 
 2672000   0.80712641   -7.0778895    795.01253  0.024794552  0.024708612            3 
 2673000   0.81932826   -7.0814537    794.10033  0.024756838  0.024702017            4 
 2674000   0.83395126   -7.0451517    794.32998  0.024754736   0.02469549            6 
 2675000   0.82267953   -7.0833734    795.70141  0.024788206   0.02468895            9 
 2676000   0.81851445   -7.0517889     793.5345  0.024711463  0.024682416            7 
 2677000   0.82303906   -7.0930261    794.88763  0.024744354  0.024675874           13 
 2678000   0.83351104   -7.0591572    795.71476  0.024760853  0.024669331           10 
 2679000   0.81802923    -7.098473    795.09952  0.024732472  0.024662811            4 
 2680000   0.84013757   -7.0652377    794.58424  0.024707221  0.024656249            7 
 2681000   0.81739111   -7.0427171    792.72902   0.02464034   0.02464972            8 
 2682000   0.81980478   -7.0764786    794.43897  0.024684283  0.024643188            5 
 2683000   0.82656651   -7.0763647    796.46565  0.024738031  0.024636657            4 
 2684000   0.82993313   -7.0605132    794.49596  0.024667659  0.024630123           10 
 2685000   0.82187442   -7.0824484    795.14359  0.024678572  0.024623593           20 
 2686000   0.81794467   -7.0845006    793.22772  0.024609944  0.024617023           11 
 2687000   0.80720498   -7.0635748    796.88262  0.024714136  0.024610514            8 
 2688000    0.8192858   -7.0733611    795.11101  0.024650019   0.02460401            7 
 2689000    0.8082661   -7.0607428    795.97269  0.024667556  0.024597476            4 
 2690000   0.82689558   -7.0590498    796.40575  0.024671801  0.024590975           15 
 2691000   0.81306336   -7.0684789    797.56085  0.024698404  0.024584534            4 
 2692000   0.82121076   -7.0848929    794.87603  0.024606118  0.024578059            7 
 2693000   0.82388664   -7.0384461    797.75286  0.024686003  0.024571612            5 
 2694000   0.84416657   -7.0845137    796.43157  0.024635968  0.024565127            9 
 2695000   0.82995966   -7.0810961    796.04765  0.024614955  0.024558653            7 
 2696000   0.82385877   -7.0926686    795.96227  0.024603186  0.024552155           10 
 2697000   0.80893209   -7.0517541    797.66477  0.024646668  0.024545663            7 
 2698000    0.8142282   -7.0716842    796.93994  0.024615145  0.024539141            3 
 2699000   0.80507544   -7.0818815    796.59995  0.024595528  0.024532621           11 
 2700000   0.82840001   -7.0952074    797.64503  0.024618674  0.024526095           10 
 2701000   0.81966654   -7.0707698    797.58422  0.024607683  0.024519584            7 
 2702000   0.80480058   -7.0950373    796.68066  0.024570709  0.024513094            7 
 2703000    0.8140349   -7.0557949    798.05988   0.02460414  0.024506632           13 
 2704000   0.81276388   -7.0843219    797.82916   0.02458793  0.024500149            4 
 2705000   0.80852363   -7.1062898    798.91018  0.024612144  0.024493672            7 
 2706000   0.81069395     -7.08938    796.44799  0.024527223  0.024487191            4 
 2707000   0.81301741   -7.0771066    798.34394  0.024576528  0.024480741            6 
 2708000   0.82066906    -7.061053    800.15498  0.024623184   0.02447429            5 
 2709000   0.82088949   -7.0621267    799.41308  0.024591272  0.024467863            5 
 2710000   0.81189136   -7.0944597    799.67039   0.02459011  0.024461422           12 
 2711000   0.80709071   -7.0450441    799.85407  0.024586686  0.024454956           17 
 2712000   0.81717983   -7.0940844    799.58663  0.024569402   0.02444848            8 
 2713000   0.81890887   -7.0697731    798.83845  0.024537365  0.024442016            8 
 2714000   0.81833712     -7.07031    798.09135  0.024505384  0.024435564            4 
 2715000    0.8100123   -7.0950102    798.85005  0.024519645  0.024429082           14 
 2716000   0.81777484   -7.0834834     799.2791  0.024523782  0.024422605            6 
 2717000   0.83973494    -7.063954    797.43674  0.024458249  0.024416172            8 
 2718000    0.8084773   -7.0857768    800.98058  0.024557904  0.024409723           10 
 2719000   0.82188543   -7.0891205    798.61801  0.024476462  0.024403264            3 
 2720000   0.81533421    -7.090622    798.50175  0.024463902  0.024396775            6 
 2721000   0.81103637   -7.0772597    798.64357  0.024459254  0.024390299            6 
 2722000   0.82934185   -7.0574594     800.0224  0.024492481  0.024383829            8 
 2723000    0.8276539   -7.0894632    797.92208  0.024419209  0.024377339            5 
 2724000   0.80907684   -7.0509663    800.64471  0.024493536  0.024370896            6 
 2725000    0.8273511   -7.0964218    799.52333  0.024450255  0.024364403            6 
 2726000   0.82671352   -7.0755693    800.06963  0.024457986  0.024357883           11 
 2727000   0.82063013   -7.0861175    798.81743  0.024410751  0.024351416           11 
 2728000   0.80370812   -7.0984495    800.77453  0.024461587  0.024344929            7 
 2729000   0.80090309    -7.074042    799.95172  0.024427498  0.024338435           14 
 2730000   0.80191362   -7.0870773    800.01916  0.024420609  0.024331986            5 
 2731000   0.82225349   -7.0728736    800.12739   0.02441497  0.024325492            8 
 2732000   0.81518472   -7.0969439    799.67129  0.024392121   0.02431905            8 
 2733000    0.8001612   -7.0669899    800.31912  0.024402949  0.024312583            7 
 2734000   0.80303173    -7.133562    798.71144  0.024345021  0.024306122           11 
 2735000   0.83041456   -7.0978912    799.26074  0.024352856  0.024299599            9 
 2736000   0.79521294    -7.094596    800.03129  0.024367425  0.024293077            6 
 2737000   0.80415781   -7.0877591    800.28933  0.024366378    0.0242866            3 
 2738000   0.83633059   -7.0905748    801.67857  0.024399762  0.024280126            6 
 2739000   0.81797038   -7.0736576    802.94994  0.024429535  0.024273691            9 
 2740000   0.83198559   -7.0856746    800.63433  0.024350193  0.024267246            7 
 2741000   0.80976261   -7.0947585    801.84904  0.024378239  0.024260741           15 
 2742000   0.81101771   -7.0745106    799.36937  0.024293988  0.024254258            7 
 2743000   0.81526446   -7.0982413    802.16509  0.024370066  0.024247804            9 
 2744000   0.80430499   -7.0859877    800.05939  0.024297236  0.024241327            9 
 2745000   0.80443775   -7.1126905    799.93205  0.024284519  0.024234848           10 
 2746000   0.82413437   -7.0918334    801.25703  0.024315885  0.024228342            5 
 2747000   0.82696227    -7.090228    801.85795  0.024325262  0.024221897            5 
 2748000   0.80876399   -7.0582883    803.87075  0.024377449   0.02421548            6 
 2749000   0.80731782   -7.0836988    802.81283  0.024336511  0.024209035            7 
 2750000   0.80109825   -7.0849005    802.13227  0.024307039  0.024202622           14 
 2751000   0.80651569   -7.1031352    802.02724  0.024295021  0.024196164            5 
 2752000   0.82443358   -7.0997561    801.88196  0.024281794  0.024189697            6 
 2753000   0.81217433   -7.1017402     803.3904  0.024318634  0.024183241           11 
 2754000   0.81230665   -7.0764871    803.91323  0.024325624  0.024176801           13 
 2755000   0.79615743   -7.0955394      803.435  0.024302329  0.024170401            4 
 2756000   0.81060806   -7.0910302    802.44941   0.02426371   0.02416399           17 
 2757000   0.84086276   -7.1051628    802.29015  0.024250095  0.024157578            7 
 2758000   0.80939519   -7.1126913    803.33648  0.024272918  0.024151158           12 
 2759000   0.80271592   -7.1018114    804.38064  0.024295658  0.024144728            7 
 2760000   0.80007937   -7.0696023    805.32701  0.024315429  0.024138372            5 
 2761000   0.82136497    -7.094363    804.06799  0.024268622  0.024132005            5 
 2762000   0.82853723   -7.0755118    804.94739  0.024286368  0.024125674            5 
 2763000   0.83032654    -7.104979    805.18052   0.02428461  0.024119353            5 
 2764000   0.80690673   -7.0923359    805.50108  0.024285488  0.024113007            4 
 2765000   0.81323228   -7.1068405    802.91655  0.024198811  0.024106676            7 
 2766000   0.79469218    -7.099916    804.38474  0.024234296  0.024100335           18 
 2767000   0.81158032   -7.0962183    804.84755  0.024239476  0.024093994            6 
 2768000   0.82428969    -7.063575    806.14308  0.024269722  0.024087677            5 
 2769000   0.80722891   -7.0839889    804.55552  0.024213179  0.024081389            4 
 2770000   0.81246705   -7.0747006    805.32693  0.024227645  0.024075077            5 
 2771000   0.80109686   -7.0912759    806.84608  0.024264588  0.024068764            7 
 2772000   0.80638702   -7.1175857    804.38157  0.024181745  0.024062443            4 
 2773000   0.81000164   -7.0625933    805.90734  0.024218877   0.02405615            3 
 2774000   0.84242328    -7.054081    806.03848  0.024214085  0.024049901            5 
 2775000   0.80413128   -7.1149073    805.93419  0.024202228  0.024043657            4 
 2776000   0.81103793   -7.0879479    806.12317  0.024199183  0.024037373            7 
 2777000   0.80044987    -7.130413    806.71994  0.024208377  0.024031038            9 
 2778000   0.81385587   -7.1121608    803.93862  0.024116229  0.024024673            8 
 2779000   0.81681277   -7.1106307    805.93328  0.024167365  0.024018323            5 
 2780000   0.77923582   -7.0808097    808.54608  0.024236993  0.024012024            6 
 2781000   0.81968738   -7.0817208    806.23349   0.02415898  0.024005726            9 
 2782000   0.79792709   -7.0930814    807.97038  0.024202324  0.023999438            9 
 2783000   0.81021177   -7.1087735    804.32086  0.024084347  0.023993159            5 
 2784000   0.81638763   -7.1079049    805.17872  0.024101375  0.023986821            9 
 2785000   0.81277594   -7.1076198    806.21212  0.024123642  0.023980503            4 
 2786000    0.8148625   -7.0796539    808.01243  0.024168833  0.023974215            6 
 2787000   0.80351688    -7.114837    808.84697  0.024185115   0.02396792            6 
 2788000   0.81795515   -7.0829697     807.3126  0.024130578  0.023961618            5 
 2789000   0.80566502   -7.0797609    807.62092  0.024131138  0.023955307            6 
 2790000   0.79079916   -7.1158359    807.12907  0.024107798  0.023949009            7 
 2791000   0.79302739   -7.1096906    807.44709  0.024108656  0.023942627            4 
 2792000   0.80686053   -7.1140696    805.50625  0.024042092  0.023936272            3 
 2793000   0.79580277   -7.1152316    806.99389   0.02407787  0.023929919           12 
 2794000    0.7933509   -7.1240959    808.75346  0.024121733  0.023923541            5 
 2795000   0.80153107   -7.1204774    806.12782  0.024034819  0.023917214            7 
 2796000   0.77855164   -7.0921775    806.62921  0.024041166  0.023910886            6 
 2797000   0.80089858   -7.1136463    805.57088  0.024001039  0.023904551           10 
 2798000   0.80471233   -7.0864242    810.22004  0.024130928  0.023898224            8 
 2799000   0.79723021   -7.0927872     806.3131  0.024005987  0.023891947            4 
 2800000   0.81271432   -7.1433863    807.12508   0.02402158   0.02388566            9 
 2801000    0.8313911   -7.1137018    807.10324  0.024012354  0.023879335            5 
 2802000   0.79927147    -7.129983    808.09985  0.024033424  0.023873053            9 
 2803000   0.81010536   -7.1212018    808.63845  0.024040863  0.023866751            7 
 2804000   0.80219863   -7.1353588    808.90391  0.024040178  0.023860396            4 
 2805000   0.79538609   -7.1222925    808.93819  0.024032626  0.023854063            7 
 2806000   0.81782702   -7.1294103     808.9281  0.024023762  0.023847783            5 
 2807000   0.79104601   -7.1215489     808.4885  0.024002153  0.023841502           15 
 2808000     0.807078   -7.1044662     808.0033  0.023979205    0.0238352            6 
 2809000    0.8180887   -7.1440035     807.8812  0.023967047  0.023828914            8 
 2810000   0.80865522   -7.1002764    808.40086  0.023973928  0.023822652            7 
 2811000   0.80630483   -7.1293521    810.16739  0.024017769  0.023816387           10 
 2812000   0.80132886    -7.091167    811.20143  0.024039872  0.023810131            7 
 2813000   0.81091256   -7.1404832    808.88059  0.023962572  0.023803886            6 
 2814000   0.78788543   -7.0938141    807.62036  0.023916737  0.023797549           10 
 2815000   0.80101122   -7.1084391    811.70699  0.024029218  0.023791303           12 
 2816000   0.78501188   -7.1391484    807.88803  0.023907671  0.023785035            8 
 2817000   0.77894433   -7.1218531    809.41802  0.023944445  0.023778745            5 
 2818000   0.80646596   -7.0959821    808.64375  0.023913052  0.023772461            6 
 2819000   0.80149145   -7.0995153    810.63899  0.023963551  0.023766214           10 
 2820000   0.79489774    -7.130454    808.95083  0.023905166  0.023759949            5 
 2821000   0.80989726   -7.0874637    810.34574  0.023937899  0.023753644            3 
 2822000   0.80765625   -7.0967308     811.3594  0.023959349  0.023747402            4 
 2823000   0.80352198   -7.1071899    813.02999  0.024000177  0.023741186            4 
 2824000   0.82042689   -7.0955507     811.2065  0.023937869  0.023734947           21 
 2825000   0.80264661   -7.0950992    810.69753  0.023914381  0.023728771            6 
 2826000   0.80263778   -7.1362872    809.78471  0.023879002  0.023722515            5 
 2827000   0.80384392   -7.1453969    808.75033  0.023840064  0.023716206            5 
 2828000   0.79914741   -7.1114238    811.77115  0.023920649  0.023709932            6 
 2829000   0.78548498   -7.1064597    812.38823  0.023930371  0.023703634            9 
 2830000   0.79113079   -7.0874761    811.14884  0.023885419  0.023697365            8 
 2831000   0.80209561   -7.1132298    810.43997  0.023856116  0.023691081           21 
 2832000   0.80580591   -7.1206414    811.37979  0.023875347  0.023684785            5 
 2833000   0.81111463   -7.1108153    811.43653  0.023868588  0.023678516            8 
 2834000   0.79913507   -7.1156189    811.93241  0.023874747  0.023672269            7 
 2835000     0.810053   -7.1177101    808.13216   0.02375462  0.023666002            9 
 2836000   0.82709292   -7.1185129    810.98627  0.023830109  0.023659717            5 
 2837000   0.79326969   -7.0949759    810.55155   0.02380894  0.023653463            8 
 2838000   0.80803389   -7.1293877    809.52968  0.023770545  0.023647207           13 
 2839000   0.79756346   -7.1108498    813.00685  0.023864238  0.023640947           16 
 2840000   0.80075927   -7.1382464    811.06514   0.02379886  0.023634683            7 
 2841000   0.80356295   -7.1328502     810.1595  0.023763918  0.023628402           10 
 2842000   0.79147021   -7.1024241    813.17535  0.023843987  0.023622149            5 
 2843000   0.80958453   -7.1122432     812.4938  0.023815623  0.023615901            7 
 2844000   0.80127786   -7.1299364    812.07165   0.02379488   0.02360964           31 
 2845000   0.79922582   -7.1220507    811.01644  0.023755607  0.023603408            7 
 2846000   0.80521509   -7.1295445    812.21762  0.023782432  0.023597128            4 
 2847000   0.79930432   -7.1270136    809.65652  0.023699114  0.023590864            7 
 2848000   0.79944558   -7.1229105      810.121  0.023704383  0.023584558            4 
 2849000   0.78366742   -7.1442562    811.24454  0.023728927   0.02357824            8 
 2850000   0.78333646   -7.1536236    811.50974  0.023728355  0.023571965           10 
 2851000    0.7987384   -7.1584528    811.14382  0.023709336  0.023565657            7 
 2852000   0.79551041   -7.1600969    810.55902  0.023683936   0.02355935            9 
 2853000   0.81137201   -7.1385347     811.5827  0.023705535  0.023553035            9 
 2854000    0.8140582   -7.1206964    813.08946  0.023741225  0.023546782            6 
 2855000    0.7936893   -7.1121248    814.31243  0.023768606  0.023540511            5 
 2856000     0.812203   -7.1169983    810.31086  0.023643524  0.023534236            7 
 2857000   0.81496126   -7.1374907    812.89834   0.02371072  0.023527967            7 
 2858000   0.80070657   -7.1300765    813.75551  0.023727417  0.023521724            5 
 2859000   0.78775208   -7.1234873    812.18432  0.023673322  0.023515457            8 
 2860000   0.76531561   -7.1211445    814.31577  0.023727149  0.023509209            8 
 2861000   0.79760583   -7.1200064    814.26187  0.023717286   0.02350299           10 
 2862000   0.79785621   -7.1295128    811.95008  0.023641686  0.023496763            7 
 2863000   0.79669272    -7.139389    811.70167  0.023626198  0.023490541            4 
 2864000   0.80190838   -7.1332722    813.88979  0.023681616  0.023484311            9 
 2865000   0.80196766   -7.1196784    813.91505  0.023674085  0.023478089            5 
 2866000   0.79865768   -7.1039076    813.51393  0.023654162   0.02347182           10 
 2867000   0.80355421   -7.1280979    813.71987  0.023651897  0.023465586           12 
 2868000   0.79188066   -7.1238683    813.91071  0.023649195  0.023459347           12 
 2869000   0.79752982   -7.1420308     811.8921   0.02358232  0.023453051            7 
 2870000   0.78288917     -7.10914    815.02272  0.023665003  0.023446777            4 
 2871000   0.80281148    -7.134485    812.99783  0.023597987  0.023440498            5 
 2872000   0.78878236   -7.0958949    814.86505  0.023643949  0.023434229            9 
 2873000   0.79596479   -7.1313759    814.93266   0.02363768  0.023427988           12 
 2874000   0.76181211   -7.1272299    812.69639  0.023564614  0.023421733           11 
 2875000   0.77979959   -7.1367154    813.79635    0.0235883  0.023415479            3 
 2876000    0.7811173   -7.1299375    814.61567  0.023603838  0.023409222            4 
 2877000    0.8064916   -7.1264094    814.33423  0.023587482  0.023402986            8 
 2878000   0.79349494   -7.1380981    815.55058  0.023614506  0.023396748            6 
 2879000   0.79325093   -7.1580415    814.54859  0.023577301  0.023390484            8 
 2880000   0.79286809   -7.1339912    813.67337   0.02354379  0.023384225            4 
 2881000   0.80967017   -7.1047804    816.02957  0.023603771  0.023378006            5 
 2882000   0.79398617   -7.1464888    813.24536  0.023515075  0.023371764            6 
 2883000   0.81573774   -7.1447512    815.09977  0.023560521  0.023365476            9 
 2884000   0.78615711   -7.1551314     814.6581  0.023539589  0.023359199            5 
 2885000   0.76855713   -7.1527036    814.36103  0.023522849  0.023352881            9 
 2886000   0.79335373   -7.1375296    814.08483  0.023506723  0.023346586            5 
 2887000    0.7821887   -7.1415931    815.07891  0.023527275  0.023340323           10 
 2888000   0.78215617   -7.1331272    815.33002  0.023526374  0.023334074           11 
 2889000   0.78845823   -7.1421395    815.82513  0.023532512  0.023327814            3 
 2890000   0.79689416   -7.1469274    816.01044  0.023529713  0.023321534            6 
 2891000   0.81153935   -7.1600047    812.47597  0.023419692   0.02331524           10 
 2892000   0.79612303   -7.1359469    814.93285   0.02348239  0.023308943           27 
 2893000   0.80053402   -7.1602761    813.77067  0.023440796   0.02330264            8 
 2894000   0.78735781   -7.1398441    814.58789  0.023456228   0.02329634           20 
 2895000   0.78862337   -7.1742133    814.57568  0.023447774   0.02329003            8 
 2896000   0.77819243   -7.1351193    815.47512   0.02346556   0.02328374            5 
 2897000   0.78527338    -7.128081    814.24401  0.023422046  0.023277436            5 
 2898000   0.79458187   -7.1497682    814.91258  0.023433189  0.023271115            6 
 2899000   0.79841821   -7.1390815    816.22409  0.023462806  0.023264828            9 
 2900000   0.79319352   -7.1852483    815.27299  0.023427385  0.023258537            9 
 2901000   0.78140255   -7.1501028    813.72259  0.023374773  0.023252242           13 
 2902000   0.79187789   -7.1365227    815.13052  0.023407148  0.023245944           13 
 2903000   0.79427807   -7.1481257     817.1899  0.023458201  0.023239657            4 
 2904000   0.77890957   -7.1764222    814.62475  0.023376514  0.023233351           21 
 2905000   0.78490239   -7.1451444    814.31741   0.02335965  0.023227051           10 
 2906000   0.79379535   -7.1594179    815.44356  0.023383906  0.023220772           10 
 2907000    0.7685095   -7.1333676    815.42994  0.023375471  0.023214517            6 
 2908000   0.78425083   -7.1581968    815.68829  0.023374836  0.023208268            8 
 2909000   0.79308543   -7.1765369    816.34201  0.023385528  0.023202005            7 
 2910000   0.77845659   -7.1502994    817.14754   0.02340056  0.023195759            7 
 2911000   0.78137425   -7.1223647    816.45833  0.023372791   0.02318951           11 
 2912000   0.79230557   -7.1292898    815.48059  0.023336784  0.023183246            4 
 2913000   0.79827087   -7.1764428    814.68303  0.023305957  0.023176976           13 
 2914000   0.80922614   -7.1486349     815.5268  0.023322089   0.02317068            8 
 2915000   0.80094316   -7.1408748    817.16024  0.023360785  0.023164378            5 
 2916000   0.79180843   -7.1671433    816.48787  0.023333558   0.02315807            5 
 2917000   0.79578074   -7.1603079    817.10567  0.023343209  0.023151773            6 
 2918000   0.78515488    -7.167205    816.79423  0.023326314  0.023145484            9 
 2919000   0.78984832   -7.1722559    815.81253  0.023290297  0.023139166           13 
 2920000   0.78215911   -7.2102403    816.56003  0.023303654  0.023132847            4 
 2921000    0.7836261   -7.1325575    815.18469  0.023256439  0.023126526           10 
 2922000   0.77586627   -7.1416893    815.47432   0.02325674  0.023120231            6 
 2923000   0.78429265    -7.166188    814.33634   0.02321634  0.023113941            6 
 2924000   0.78904082   -7.1651298    816.52518  0.023270781  0.023107684            5 
 2925000   0.78160653   -7.1645373    816.97768  0.023275717  0.023101428            9 
 2926000   0.78386963   -7.1612178     818.0203  0.023297457  0.023095131           14 
 2927000   0.77982098   -7.1678531    818.37444   0.02329958  0.023088862            7 
 2928000   0.78685877   -7.1669944    816.64834  0.023242496  0.023082601            4 
 2929000   0.76822648   -7.1574174     816.4303  0.023228357  0.023076345            7 
 2930000   0.79175836   -7.1852707    817.38167  0.023247488  0.023070101            3 
 2931000   0.79660689   -7.1640105    817.43079  0.023240953  0.023063832            7 
 2932000   0.78447159   -7.1534211    816.14669   0.02319653   0.02305757           12 
 2933000   0.78855849   -7.1421285    817.80434  0.023235718  0.023051317           12 
 2934000   0.79009548   -7.1773051    816.55795  0.023192398  0.023045033           21 
 2935000   0.75714144   -7.1399668    817.38519  0.023207984  0.023038771           10 
 2936000   0.77402064   -7.1728399    817.97924   0.02321694  0.023032518            8 
 2937000   0.76472289   -7.1556162    818.69092  0.023229228  0.023026255           12 
 2938000   0.78433526   -7.1847147    819.23608  0.023236785  0.023019991            7 
 2939000   0.78812105   -7.1623999    816.64659  0.023155455  0.023013713            5 
 2940000   0.78449302   -7.1385755    818.30056   0.02319446  0.023007487            4 
 2941000   0.80062976   -7.1464226    817.21832  0.023155908  0.023001258            3 
 2942000   0.78024181   -7.1729334    818.96281  0.023197451  0.022995028            3 
 2943000   0.78217286    -7.162263    819.80466  0.023213406  0.022988774           15 
 2944000   0.78204112   -7.1499853    819.15042  0.023187002  0.022982532            9 
 2945000   0.77916169   -7.1522092     820.0777  0.023205368  0.022976308            5 
 2946000   0.77751626   -7.1447791    819.29827  0.023175443  0.022970103            5 
 2947000    0.7586294   -7.1788536    819.27168  0.023166827  0.022963901            5 
 2948000   0.79227578   -7.1467841    818.65302  0.023141481  0.022957712            5 
 2949000   0.77813751   -7.1697967    818.97454  0.023142719  0.022951474            6 
 2950000   0.77588394   -7.1717929    819.32701  0.023144831  0.022945263            9 
 2951000   0.77752422    -7.170625    817.76317  0.023092827  0.022939026           13 
 2952000   0.79815203   -7.1650498    820.48589  0.023161865   0.02293281           14 
 2953000   0.77276317   -7.1604509    818.47021  0.023097139  0.022926617            8 
 2954000   0.77243763   -7.1682867     819.0985  0.023107044  0.022920364            5 
 2955000   0.77028925   -7.1753536    819.05562  0.023098015  0.022914107            6 
 2956000   0.78288036   -7.1761862    818.78857  0.023082673  0.022907876            7 
 2957000   0.78752852   -7.1809006    818.72534  0.023073085  0.022901618           10 
 2958000   0.78850809    -7.158626    820.43099  0.023113336  0.022895354            7 
 2959000   0.77802866   -7.1850012    818.09323  0.023039688  0.022889094            5 
 2960000   0.76538884    -7.173351    818.32143  0.023038328  0.022882844            7 
 2961000   0.79665729   -7.1710838    820.21254  0.023083771  0.022876613           11 
 2962000   0.78663431   -7.1839392    818.00808  0.023013957  0.022870368           13 
 2963000   0.76697458   -7.1671877    819.05524  0.023035641  0.022864118            6 
 2964000   0.78533643   -7.1255875    818.60785  0.023015291  0.022857898            4 
 2965000   0.77144091   -7.1645071    819.36326  0.023028759  0.022851678            7 
 2966000   0.78330117   -7.1754299    821.57237  0.023083063  0.022845463            9 
 2967000   0.80562949   -7.1544391    820.19324  0.023036548  0.022839247            8 
 2968000   0.78229941   -7.1685016    822.46607  0.023092601  0.022833064           17 
 2969000   0.78399174   -7.1413507    820.89066  0.023040605  0.022826904            5 
 2970000   0.77930969    -7.156722     819.5451  0.022995093  0.022820724            8 
 2971000   0.78285914    -7.153574    822.00343  0.023056306  0.022814537            6 
 2972000   0.77229613   -7.1948792    821.46678  0.023033501  0.022808312           19 
 2973000    0.7749783   -7.1946174    819.90685  0.022982029  0.022802075            6 
 2974000   0.77722012    -7.189763    817.86239  0.022917014  0.022795838           10 
 2975000   0.78350382   -7.1796448    820.41842  0.022980908  0.022789603            6 
 2976000   0.77936756   -7.1974517    821.79189  0.023011646  0.022783372            8 
 2977000   0.76272374   -7.1810581    822.53852  0.023024816  0.022777163            7 
 2978000   0.76067522   -7.1894296    819.52267  0.022932692  0.022770942            6 
 2979000   0.79239107   -7.1831751    818.63381  0.022900129  0.022764739           12 
 2980000   0.76886167   -7.1917761    821.65575  0.022976951  0.022758526           10 
 2981000   0.77382617   -7.1606941    821.21226  0.022956845    0.0227523            9 
 2982000   0.75765559   -7.1752992    822.71343  0.022991098  0.022746097           10 
 2983000   0.78215215   -7.1697717    821.56504  0.022951309   0.02273988            3 
 2984000   0.78425121    -7.184022    821.50363  0.022941902  0.022733661            5 
 2985000   0.77689549   -7.1726177    821.73501  0.022940676  0.022727436            5 
 2986000   0.76644089   -7.1571769    822.49438  0.022954186  0.022721258            6 
 2987000   0.76828624   -7.1419494    820.94427  0.022903255  0.022715059            6 
 2988000   0.74908148   -7.1907458    822.87646  0.022949477  0.022708845           13 
 2989000   0.78663441   -7.1493175     824.7751  0.022994734  0.022702656            5 
 2990000   0.76666798   -7.1741156    822.20806  0.022915498  0.022696452           19 
 2991000   0.74788865   -7.1488245    822.66289  0.022920508  0.022690243            8 
 2992000   0.76926501   -7.1536393    823.17029   0.02292698  0.022684017            9 
 2993000   0.79023351    -7.158588    821.25257  0.022865925  0.022677813            5 
 2994000   0.78409217   -7.1874856    821.74957  0.022872121  0.022671602            8 
 2995000   0.77551373   -7.1897877    822.41444  0.022882984  0.022665425            5 
 2996000   0.76661031   -7.1514335    823.85377  0.022915381  0.022659245           20 
 2997000   0.77650223   -7.1596027    823.15608  0.022888335  0.022653065            9 
 2998000   0.77902018   -7.1578422    823.28848  0.022884381  0.022646884            5 
 2999000   0.77729254   -7.1851094    822.83621  0.022864183   0.02264072            4 
 3000000   0.77517011   -7.1930107    821.96442  0.022832345  0.022634543            5 
 3001000   0.78036477    -7.176592    822.01929   0.02282626  0.022628363           12 
 3002000   0.76067736   -7.1671907    822.76938  0.022839479  0.022622192            7 
 3003000   0.77088427   -7.1650308    822.00795  0.022810743  0.022616012           11 
 3004000   0.77147556    -7.181065    822.04003   0.02280404  0.022609813            8 
 3005000   0.75466356   -7.1834248    821.83758  0.022790837   0.02260361            9 
 3006000   0.78008822   -7.1945667    822.68925  0.022806865  0.022597417            8 
 3007000   0.77000962   -7.2093282    823.04207  0.022809059  0.022591192           15 
 3008000   0.76140312   -7.1721044    821.35552  0.022754752  0.022584992           12 
 3009000   0.78370419   -7.1702363    823.64177  0.022810507  0.022578814            3 
 3010000   0.77279129   -7.1916831    825.10959  0.022843566   0.02257262            7 
 3011000   0.75925679   -7.1770023    822.26796  0.022757333  0.022566426            8 
 3012000   0.75438954   -7.1692012    822.79298  0.022764303  0.022560253            6 
 3013000   0.76667778     -7.20863    821.96469  0.022733839  0.022554081            5 
 3014000   0.76643693    -7.192618    822.99039  0.022754656  0.022547881           13 
 3015000   0.77182645   -7.1742312    822.25303  0.022726728  0.022541658            8 
 3016000    0.7677417   -7.1644039    822.31548  0.022720919  0.022535447           11 
 3017000   0.76949162   -7.1662024    822.80195  0.022726824  0.022529272            6 
 3018000   0.77540728   -7.1950572    823.12939  0.022728335  0.022523062           22 
 3019000   0.76895548    -7.207851    823.36591  0.022727336  0.022516826            8 
 3020000   0.78303368   -7.1589879    824.88193  0.022761643  0.022510635            5 
 3021000    0.7652828   -7.1587012    822.67688  0.022693283  0.022504428            5 
 3022000   0.77012182   -7.1488887    823.24084  0.022701325  0.022498196           10 
 3023000   0.77536054   -7.1618856    823.57087  0.022702913  0.022491982           12 
 3024000   0.77321765   -7.2056424    821.84699    0.0226479  0.022485738            5 
 3025000   0.77592846    -7.178974    822.79491  0.022666527  0.022479491            7 
 3026000   0.76128811     -7.20057    822.30395  0.022645515  0.022473226            5 
 3027000   0.78405493   -7.1890123     822.3233  0.022638567  0.022466969            6 
 3028000   0.76184057   -7.1856736    821.87338  0.022618708  0.022460739            6 
 3029000   0.77535272    -7.189355    823.31929   0.02265102  0.022454492           11 
 3030000    0.7753587   -7.1928335    822.48204  0.022620518  0.022448254            5 
 3031000   0.78397946    -7.167263    823.42324  0.022638932  0.022442024            9 
 3032000   0.74391395   -7.1922528    823.05429  0.022621325  0.022435786            5 
 3033000   0.77090817   -7.2251319    823.46341  0.022625107  0.022429519            9 
 3034000   0.76313532   -7.1812531    824.30885  0.022640872   0.02242326           26 
 3035000   0.75600954   -7.2098331    822.93794   0.02259577  0.022417004           27 
 3036000   0.76734105   -7.1769752    823.86071  0.022613656  0.022410767            7 
 3037000   0.77586928   -7.2160125     821.7792  0.022549095  0.022404525           11 
 3038000   0.77407346   -7.1902489    824.88387  0.022626834   0.02239831            6 
 3039000   0.77476189   -7.1868954    823.15228  0.022571906  0.022392061           20 
 3040000   0.75064938   -7.1799323    826.13498  0.022646244  0.022385818            9 
 3041000   0.77899294   -7.2145341     822.6696  0.022543834  0.022379563            7 
 3042000   0.77775126   -7.2093491    824.17022  0.022577532  0.022373314            9 
 3043000   0.77836165   -7.2023688    824.04864  0.022566783  0.022367058            6 
 3044000   0.76331228    -7.203374    822.99038  0.022530398  0.022360818            8 
 3045000   0.76915911   -7.1988283      824.224   0.02255676  0.022354587            9 
 3046000   0.76296434   -7.2040686    821.64387  0.022478766  0.022348336            9 
 3047000   0.74200244   -7.1872184    823.83563  0.022531332  0.022342119            5 
 3048000   0.76080702   -7.2285749    822.46692  0.022486519  0.022335838            9 
 3049000   0.76956536   -7.2098414    822.38463  0.022476895  0.022329557            7 
 3050000   0.76518852   -7.1982298    824.15657  0.022517939  0.022323288            6 
 3051000    0.7634445    -7.192469    822.62742  0.022468792  0.022317005            8 
 3052000   0.76622901   -7.2001357    823.09961  0.022474323  0.022310722           10 
 3053000   0.77216165   -7.2179507    821.51066   0.02242359  0.022304427            8 
 3054000    0.7784883   -7.1980121    823.03909  0.022457954  0.022298129           13 
 3055000   0.74616998    -7.176909    825.24822  0.022510862  0.022291838            8 
 3056000   0.76877844   -7.1913835    821.76844  0.022408607  0.022285537            9 
 3057000   0.75453626   -7.2076676     821.6888  0.022399106   0.02227925           12 
 3058000   0.76784974   -7.1922507    822.64003  0.022417703  0.022272944           11 
 3059000   0.76583554   -7.1856585    824.04741  0.022448714  0.022266688           11 
 3060000   0.78197744   -7.1846667    824.78504  0.022461466  0.022260465            6 
 3061000   0.78370671   -7.1935478    824.36913  0.022442805  0.022254258            5 
 3062000   0.77184179    -7.196897    825.34654  0.022462077  0.022248031            8 
 3063000   0.77292212   -7.1907178    825.87668  0.022469166  0.022241784           10 
 3064000   0.76475541   -7.2038676    824.12589  0.022414216  0.022235525           10 
 3065000   0.76147133   -7.2171282    824.63875  0.022420847  0.022229262           12 
 3066000   0.75545398   -7.2024959    824.78533  0.022417518  0.022222998            4 
 3067000   0.77667485   -7.2136146    824.36356  0.022398749  0.022216749            9 
 3068000   0.74854287   -7.2012629    824.16021  0.022385925   0.02221053            6 
 3069000   0.76877452   -7.2017854    823.64239   0.02236457  0.022204294           11 
 3070000   0.76705092   -7.2164327    823.88857  0.022363968  0.022198059            9 
 3071000   0.74918344   -7.2137478    826.17406  0.022418703  0.022191854            6 
 3072000   0.75908363   -7.2256995    825.81723  0.022401726  0.022185631            6 
 3073000    0.7703115   -7.1756792     824.8676  0.022368684  0.022179408            9 
 3074000   0.76187359   -7.2302375    824.50842   0.02235167  0.022173209            5 
 3075000    0.7837604   -7.2086428      824.695  0.022349458  0.022167001           12 
 3076000   0.74604348   -7.1920151    826.36999   0.02238757  0.022160788           10 
 3077000   0.76877219    -7.198577    824.82905  0.022338562  0.022154591           19 
 3078000   0.75539073   -7.2228846    825.30021   0.02234406  0.022148407           15 
 3079000   0.76878027   -7.1943685    826.90674  0.022380284  0.022142207            8 
 3080000   0.76215263   -7.1859886    825.25097  0.022328219  0.022136015           14 
 3081000    0.7533988   -7.2165266    825.40046  0.022325015  0.022129798            8 
 3082000   0.77906746   -7.1922248    827.65517  0.022378736  0.022123594           11 
 3083000   0.75562906   -7.2173032    825.39577  0.022310406  0.022117413            5 
 3084000   0.77435246   -7.2187145    824.98091  0.022291962  0.022111209           10 
 3085000    0.7425868   -7.1588655    828.43591  0.022378063  0.022105026            6 
 3086000   0.75991675   -7.1856829    829.91666  0.022410798  0.022098877           16 
 3087000   0.75657313   -7.1936799    826.70861  0.022316937  0.022092713            9 
 3088000   0.76269854   -7.2085693    828.46678  0.022357156  0.022086553            6 
 3089000   0.74649506   -7.2041554    826.74015  0.022303338  0.022080375           11 
 3090000   0.74509343   -7.1998822    824.91614  0.022246929  0.022074182           12 
 3091000   0.75862013   -7.1893039    826.17391  0.022273641   0.02206801            8 
 3092000    0.7619239   -7.1854287    825.53203  0.022249138  0.022061848            8 
 3093000   0.74116545   -7.1977863    826.95535  0.022280293  0.022055684            6 
 3094000   0.76910683   -7.2048118    826.10778  0.022250263  0.022049515            7 
 3095000   0.76840627   -7.2039504    827.61928  0.022283772  0.022043366            5 
 3096000   0.77619838   -7.2238248    827.81762  0.022281913  0.022037223            8 
 3097000   0.74971422   -7.1995457    827.35888  0.022262374  0.022031086           13 
 3098000   0.74925937   -7.2048928    827.13127  0.022249066  0.022024953           21 
 3099000   0.74355389    -7.210534    828.07639  0.022267301  0.022018813           12 
 3100000   0.75351196    -7.222736    828.05452   0.02225953   0.02201269           22 
 3101000   0.75017451    -7.142081    828.45092  0.022263004  0.022006584            8 
 3102000   0.75939765   -7.2109191    829.39187  0.022281105  0.022000499            8 
 3103000   0.76478841   -7.2067346    827.52537  0.022223799  0.021994387           19 
 3104000   0.75498696   -7.2305942     828.3449  0.022238641  0.021988262           12 
 3105000   0.76210472   -7.2257989    829.21945   0.02225495  0.021982158            7 
 3106000   0.73507986   -7.1976487    828.42841  0.022226562  0.021976038           11 
 3107000   0.75480034   -7.2061307    827.96914   0.02220709  0.021969929           18 
 3108000   0.75855383    -7.203383    828.45506  0.022212973  0.021963809           10 
 3109000   0.75670681   -7.2212568      829.268  0.022227619  0.021957714            7 
 3110000   0.76388247   -7.1987439    825.90276  0.022130299  0.021951621           10 
 3111000   0.74793744    -7.218227    827.64694  0.022169906  0.021945541           16 
 3112000   0.75992653   -7.2266057    828.74464  0.022192177  0.021939409            9 
 3113000   0.73927663   -7.2169742    828.34383  0.022174318  0.021933267            9 
 3114000   0.73882684   -7.2315522     827.9343  0.022156238  0.021927115            7 
 3115000   0.75045257   -7.2149946    828.05417  0.022152332  0.021920975            3 
 3116000   0.75516438   -7.2155851    827.91347   0.02214146   0.02191484           13 
 3117000   0.75897165   -7.2152096    828.52073  0.022150592  0.021908703           11 
 3118000   0.75725724   -7.2133735    828.46249  0.022141931  0.021902581            7 
 3119000   0.76655673   -7.2076323    829.74725  0.022169158  0.021896461            7 
 3120000   0.75614608   -7.2052635    829.47181  0.022154696  0.021890383            4 
 3121000   0.77496795    -7.211189    828.54472  0.022122843  0.021884291            5 
 3122000   0.74286518   -7.2305978    830.80419  0.022176067  0.021878166            9 
 3123000   0.73561607   -7.2144317    829.61512  0.022137238   0.02187204           10 
 3124000    0.7503854   -7.2234457    828.29125  0.022094837  0.021865926           10 
 3125000   0.74753226   -7.1898791    830.59599  0.022149226  0.021859809           16 
 3126000   0.73535094   -7.2043825     830.8605  0.022149192   0.02185373            7 
 3127000   0.74658959   -7.2189915    829.25498  0.022099322  0.021847655            7 
 3128000   0.76608091   -7.2176817    829.27375  0.022092758  0.021841554            6 
 3129000   0.73627172   -7.2205225    828.11894  0.022054941  0.021835432           10 
 3130000   0.75450678   -7.2339895          829  0.022071353  0.021829306           17 
 3131000   0.74405556   -7.2241848    829.01378   0.02206467  0.021823184            5 
 3132000   0.75437449   -7.2223355    826.69591  0.021995953  0.021817089           16 
 3133000   0.74065189   -7.2410242    828.30059  0.022031615  0.021810976           10 
 3134000    0.7707873    -7.241569    828.26027  0.022023513  0.021804843            6 
 3135000   0.74020965   -7.2275286    829.33055  0.022044938  0.021798702            9 
 3136000   0.75813431   -7.2372903    828.39857  0.022013142  0.021792586            5 
 3137000   0.74898675   -7.2300651    831.10433  0.022078003  0.021786478            9 
 3138000   0.73458879   -7.2503536    827.84119   0.02198431  0.021780349            9 
 3139000   0.74841688   -7.2310612    830.05704  0.022036133  0.021774218            4 
 3140000   0.75017184   -7.2247665    827.69466  0.021966419  0.021768067           10 
 3141000   0.73942602   -7.2497902    828.40107  0.021978167   0.02176189           18 
 3142000   0.74778827   -7.2240017    828.09831  0.021963142  0.021755745           16 
 3143000   0.73430573   -7.2236754    830.48312  0.022019385  0.021749636            9 
 3144000   0.74124893   -7.2309287    829.44882  0.021984967  0.021743514            8 
 3145000   0.76519912    -7.243061    827.84477  0.021935474  0.021737387            5 
 3146000   0.73589529   -7.2209948    829.20811  0.021964614  0.021731264           17 
 3147000   0.74870499   -7.2584215    828.05248  0.021927033  0.021725145            7 
 3148000   0.74164427   -7.2227793    829.56708  0.021960162  0.021719004           11 
 3149000   0.75310165   -7.2226775    830.18578  0.021969561  0.021712887            5 
 3150000    0.7479279   -7.2189235    829.35409  0.021940584  0.021706777            6 
 3151000   0.73915752   -7.2182991    830.32133  0.021959201  0.021700644            8 
 3152000   0.75535825   -7.2168996    831.19613  0.021975363   0.02169454           12 
 3153000   0.74656736   -7.2266562    831.05386  0.021964633  0.021688454           13 
 3154000   0.75326223   -7.2349185    831.84909   0.02197868   0.02168236            6 
 3155000   0.75407212   -7.1836741    831.57981  0.021964601  0.021676284           16 
 3156000   0.75209261   -7.2259599     829.1577  0.021893687  0.021670213            8 
 3157000   0.73836946   -7.2212212    831.97466  0.021961109  0.021664128           10 
 3158000   0.76064603    -7.213226    830.80859  0.021923385  0.021658042           16 
 3159000    0.7470574   -7.2177611    831.27376  0.021928716  0.021651964           10 
 3160000   0.76433854    -7.248239    830.07682  0.021890211   0.02164589            8 
 3161000   0.73274213   -7.2136651    832.82376  0.021955704  0.021639807           15 
 3162000   0.73533243   -7.2232091    831.32882  0.021909362  0.021633743            3 
 3163000    0.7359304   -7.2232147    830.30065  0.021875346  0.021627689            8 
 3164000   0.73063666   -7.2088171     830.4992  0.021873662  0.021621633           11 
 3165000    0.7516057   -7.2387483    830.57007  0.021868617  0.021615553            7 
 3166000   0.74003913    -7.233512    830.59114  0.021862264  0.021609474           10 
 3167000   0.73186377   -7.2263221    830.11743  0.021842896   0.02160337            6 
 3168000   0.74186871    -7.256929    831.93642  0.021883849  0.021597295           12 
 3169000   0.73004951   -7.2435275    830.07076  0.021827884  0.021591206           11 
 3170000   0.73652452   -7.2447124    831.37198  0.021855205  0.021585109            8 
 3171000   0.74109951   -7.2386536    828.91919  0.021783853  0.021579016            9 
 3172000   0.75523918   -7.2173113    831.06176  0.021833274   0.02157292           10 
 3173000   0.74839166   -7.2401759     830.2877  0.021806064  0.021566829           13 
 3174000   0.74430164   -7.2279039    830.19689   0.02179681  0.021560754           18 
 3175000   0.74281584   -7.2378095    831.18045   0.02181576   0.02155468           12 
 3176000   0.75064501   -7.2289872    831.27025  0.021811247  0.021548582            6 
 3177000   0.75495004   -7.2429987    831.08467  0.021799514  0.021542486            5 
 3178000   0.74199528   -7.2337698    832.46992  0.021828978  0.021536405            7 
 3179000   0.75479821   -7.2322133    833.72044  0.021854893  0.021530329            4 
 3180000   0.73375395   -7.2365148      831.662  0.021794078  0.021524263            9 
 3181000   0.73906819   -7.2299435    831.10079  0.021772524  0.021518178            9 
 3182000   0.71885979    -7.222328    831.47175  0.021775397  0.021512112            7 
 3183000   0.71743415     -7.24254    831.45252  0.021768052  0.021506023           11 
 3184000   0.73851958     -7.24741     831.5441  0.021763612  0.021499918            8 
 3185000   0.75287811   -7.2374186    832.36692  0.021778308  0.021493842            8 
 3186000    0.7431257   -7.2492453    831.37642  0.021745564  0.021487784           16 
 3187000   0.74580023   -7.2457144    832.15846   0.02175919  0.021481725           13 
 3188000   0.76312734   -7.2322869    832.34944  0.021757357   0.02147568           11 
 3189000   0.73854482   -7.2438903    832.73669  0.021760654   0.02146965           20 
 3190000   0.73983316   -7.2276234    833.55617  0.021775239  0.021463615           12 
 3191000    0.7473969   -7.2433143    831.93543   0.02172609  0.021457591            6 
 3192000   0.74108678   -7.2459878    832.98011  0.021746557  0.021451567            5 
 3193000   0.74017963   -7.2810477    832.95132  0.021738995  0.021445528            9 
 3194000    0.7382437   -7.2626405    832.44946  0.021719095  0.021439493           12 
 3195000    0.7460021   -7.2512364    834.13994  0.021756389  0.021433475           11 
 3196000   0.74783915   -7.2266387    832.87246  0.021716533  0.021427481            6 
 3197000   0.76199758   -7.1989653    834.12153  0.021742298  0.021421483            6 
 3198000   0.73533846   -7.2247086    834.65862  0.021749495  0.021415464           11 
 3199000   0.72120741   -7.2273845    832.25772  0.021680153  0.021409443           12 
 3200000   0.72307857   -7.2511876    833.90712  0.021716331  0.021403417           15 
 3201000   0.74761347   -7.2487592    832.34984  0.021669005  0.021397408           12 
 3202000   0.74278322   -7.2603702    833.70305  0.021697456  0.021391403           17 
 3203000   0.73716011   -7.2474399    832.28893   0.02165389  0.021385369            8 
 3204000   0.72708672   -7.2389777     833.0058  0.021665777  0.021379349            9 
 3205000   0.73617428   -7.2417632    832.33379  0.021641544  0.021373322            7 
 3206000   0.73494877   -7.2257579    834.13684   0.02168166  0.021367287            7 
 3207000   0.74888623   -7.2279872     833.8853  0.021668363  0.021361245            9 
 3208000   0.75483071    -7.222136    833.24985  0.021645102  0.021355238            7 
 3209000    0.7554442   -7.2481329    834.62475  0.021674061   0.02134924            4 
 3210000   0.74655045   -7.2369493    833.89333  0.021648321   0.02134326            6 
 3211000   0.71574981   -7.2408096    834.01504  0.021644738  0.021337292            9 
 3212000   0.74002363   -7.2478327    834.79287  0.021658179  0.021331312            9 
 3213000   0.72494858   -7.2195566    835.38729  0.021666856  0.021325335            9 
 3214000   0.75797178   -7.2495429    832.90646  0.021595791  0.021319327            7 
 3215000   0.74294116   -7.2291496    835.22402  0.021649145  0.021313328            8 
 3216000    0.7325871   -7.2497813    833.00475  0.021584908  0.021307319           10 
 3217000   0.73169047   -7.2273691    833.22746  0.021583967  0.021301326            6 
 3218000   0.75342006   -7.2553545    832.80425    0.0215663  0.021295298           10 
 3219000   0.75656117   -7.2498791    834.23774  0.021596711  0.021289277           11 
 3220000   0.73762681   -7.2994774    833.48666  0.021570566  0.021283242            4 
 3221000   0.72163428    -7.274864    832.63324  0.021541789  0.021277173            8 
 3222000   0.74099274    -7.263827    831.98659  0.021518378  0.021271109            7 
 3223000   0.75849617    -7.238081    833.46189  0.021549847  0.021265083           25 
 3224000   0.72467537   -7.2640878    831.94211   0.02150388  0.021259058            5 
 3225000   0.74398674   -7.2479513    834.81281  0.021571391  0.021253024           10 
 3226000   0.73567707   -7.2538039    833.80163  0.021538583  0.021247022           13 
 3227000   0.74286461   -7.2610825    833.56069  0.021525687  0.021240991            4 
 3228000   0.74262374   -7.2669936    832.76321  0.021498431  0.021234922           13 
 3229000   0.73808506    -7.274395    832.11747  0.021475108   0.02122885           12 
 3230000    0.7347582   -7.2815269    832.40793  0.021475953  0.021222771           12 
 3231000   0.74021267     -7.28134    831.25204  0.021439494  0.021216675            7 
 3232000   0.73015713   -7.2540849    832.67286  0.021469494  0.021210597           16 
 3233000   0.73867447   -7.2659443    833.80758  0.021492102  0.021204532           12 
 3234000   0.73541038   -7.2907142    832.93126  0.021462875  0.021198477            8 
 3235000   0.72660389   -7.2630941    833.07663  0.021459985  0.021192414           10 
 3236000   0.72653594   -7.2662371    833.16413  0.021455607   0.02118635            8 
 3237000   0.72812172    -7.281505    832.09669  0.021421498  0.021180271            6 
 3238000   0.73783016   -7.2606258    832.86979  0.021434779  0.021174194            9 
 3239000   0.74332841   -7.2827604    831.74432  0.021399206  0.021168114            6 
 3240000   0.73566669   -7.2663652    832.27363  0.021406215  0.021162033            7 
 3241000    0.7369215   -7.2543218     832.1703  0.021396953  0.021155993           16 
 3242000   0.71370765   -7.2510112     834.6431  0.021453915  0.021149969            8 
 3243000   0.73272944   -7.2845312    834.56578  0.021445312  0.021143935           13 
 3244000   0.73085698   -7.2326335    833.51901  0.021411812  0.021137887            9 
 3245000   0.73762835   -7.2835521    834.61477  0.021433353  0.021131829           13 
 3246000    0.7332901   -7.2999094     832.7087  0.021377816  0.021125765           13 
 3247000   0.73559014   -7.2924798    833.75364  0.021398051  0.021119688           11 
 3248000   0.72702073   -7.2871265    831.56755  0.021335374  0.021113628           15 
 3249000   0.72821323   -7.2555392    835.22808  0.021422696  0.021107594            9 
 3250000   0.72021112   -7.2584283    832.45467  0.021344992  0.021101546           16 
 3251000    0.7122291    -7.253979    832.77557  0.021346652  0.021095475           13 
 3252000   0.73980489   -7.2557948    832.85792  0.021342198  0.021089428            6 
 3253000   0.73054403   -7.2770513    833.66227  0.021356242  0.021083361           37 
 3254000   0.72504411   -7.2617339    832.38214  0.021316896  0.021077307           11 
 3255000   0.72376217   -7.2520199    832.97081  0.021325418  0.021071221           14 
 3256000   0.72519179   -7.2847863    834.57884  0.021360024  0.021065129           24 
 3257000   0.72815846   -7.2877343    832.56343  0.021301899  0.021059045           12 
 3258000   0.74058877   -7.2644119    833.63053  0.021322655  0.021052959           16 
 3259000   0.72576053   -7.2983308    832.49117  0.021286979  0.021046872            8 
 3260000   0.71275812   -7.2843235    831.78158   0.02126231  0.021040787            9 
 3261000   0.72181413   -7.2605908    831.52355  0.021249196  0.021034697           11 
 3262000   0.73717027   -7.2721834    832.79897  0.021275265  0.021028614           14 
 3263000   0.72803556    -7.264118    834.72542  0.021317944  0.021022532            8 
 3264000   0.72440499   -7.2472749    833.21144  0.021272759  0.021016453           11 
 3265000   0.73238964   -7.2612888    833.88824  0.021283518  0.021010377            6 
 3266000   0.72711241   -7.2580195    833.23823  0.021260416  0.021004329            5 
 3267000   0.73006677     -7.26991     834.1686   0.02127764  0.020998281            5 
 3268000   0.72295114   -7.2652593    831.57051  0.021204878  0.020992201           13 
 3269000   0.73452696   -7.2708712    833.53067   0.02124836   0.02098614           11 
 3270000   0.72625379   -7.2516077     834.9127  0.021277082  0.020980094            8 
 3271000   0.73460844   -7.2714323    832.98782  0.021221538  0.020974055            5 
 3272000   0.72104811   -7.2838269      832.896  0.021212714   0.02096798            6 
 3273000   0.71338497   -7.2651897    833.66334   0.02122577  0.020961922            9 
 3274000   0.72195948   -7.2651127     833.9741  0.021227197  0.020955836           10 
 3275000   0.73905064   -7.2755692    832.82867  0.021191569  0.020949743           12 
 3276000   0.73735704   -7.2958849      834.315  0.021222909  0.020943661            7 
 3277000   0.73329458   -7.2785345    832.63336  0.021173669  0.020937558           10 
 3278000   0.71535124   -7.2943706    832.56948  0.021165586  0.020931468            9 
 3279000   0.73785331   -7.2684946    832.82975  0.021165745  0.020925372            8 
 3280000   0.72386825   -7.2782152    832.84191  0.021159601  0.020919283            6 
 3281000   0.71013444   -7.2821458    835.29444  0.021215443  0.020913214            9 
 3282000   0.71969323   -7.2566248    833.79522  0.021170913  0.020907151            8 
 3283000   0.72446797   -7.2626855    835.26067  0.021201662  0.020901074            5 
 3284000   0.73359247   -7.2580863    834.48685   0.02117557     0.020895           10 
 3285000   0.72026016   -7.2787228    833.43385  0.021142411   0.02088892            7 
 3286000   0.74113352    -7.271248    834.22327  0.021155997  0.020882799           12 
 3287000   0.73544531   -7.2788395    833.14595  0.021122248  0.020876684            8 
 3288000   0.71731998    -7.304745    830.89959  0.021058891  0.020870569            8 
 3289000   0.72834909   -7.2749427    834.34224  0.021139714  0.020864448           11 
 3290000   0.72997046   -7.3047939    833.15176  0.021103135   0.02085833            7 
 3291000   0.72745037   -7.2916282    833.53153  0.021106339  0.020852199           22 
 3292000   0.72880711   -7.3056697    833.47539  0.021098506  0.020846072           17 
 3293000    0.7315258   -7.2835306     831.5288  0.021042838  0.020839949            9 
 3294000   0.73891715   -7.2993606     833.8986  0.021096402  0.020833842           16 
 3295000   0.73255539    -7.286643    835.25747  0.021124367  0.020827725            6 
 3296000   0.73887259   -7.2574465    833.97645   0.02108557  0.020821636           12 
 3297000   0.72788858   -7.2608685    834.78004  0.021099485  0.020815566           18 
 3298000   0.72381587    -7.289491    833.55254  0.021062071  0.020809502           15 
 3299000   0.74277647   -7.2928664    834.17928  0.021071519  0.020803405           10 
 3300000   0.71957818   -7.2849417    832.08937  0.021012358  0.020797307            8 
 3301000   0.73172727   -7.3033722    833.35173  0.021037861  0.020791217           14 
 3302000    0.7170646   -7.2879534    831.47164  0.020984041  0.020785152            6 
 3303000   0.72927273   -7.2850872    833.95033  0.021040224  0.020779051           19 
 3304000   0.72464466   -7.2757255    835.50861  0.021073159  0.020772969            9 
 3305000   0.73470051   -7.2944075    832.59863   0.02099341  0.020766892            5 
 3306000   0.73332272   -7.2780829    833.87701  0.021019283   0.02076083            7 
 3307000   0.72085245   -7.2536578    835.28086  0.021048303  0.020754787           11 
 3308000   0.70980004   -7.2683394    833.74433  0.021003233  0.020748724           12 
 3309000   0.71539244   -7.2771069    835.20713  0.021033725  0.020742665           11 
 3310000   0.72409372   -7.2846652    833.00601  0.020971954  0.020736584           14 
 3311000    0.7192325   -7.2822849    832.93625  0.020963864  0.020730483            6 
 3312000   0.71051066   -7.2883633    833.81562   0.02097966   0.02072438            7 
 3313000   0.73265034   -7.2740803     834.1728  0.020982312  0.020718293            9 
 3314000   0.74281235   -7.2814235    834.15769  0.020975601  0.020712214           14 
 3315000   0.72746537   -7.3009975    833.03348  0.020941012  0.020706113            8 
 3316000   0.72218392   -7.2657911    834.74324  0.020977665  0.020700025            5 
 3317000    0.7175342   -7.3105579    832.58979  0.020917239  0.020693927            8 
 3318000     0.708741   -7.2965943     831.0949   0.02087339  0.020687817            7 
 3319000     0.720663   -7.2911579    833.83133  0.020935807  0.020681708           17 
 3320000   0.71752141   -7.2821697    833.31549  0.020916553  0.020675604            7 
 3321000   0.72601471   -7.3245874    832.52351  0.020890382  0.020669477           12 
 3322000   0.73296271   -7.2868467    833.34849  0.020904789  0.020663332           14 
 3323000   0.71791584   -7.2772056    833.19326  0.020894605  0.020657207            6 
 3324000   0.70678828   -7.2823239     833.7748  0.020902898    0.0206511            7 
 3325000   0.72829859   -7.2818991    833.65372  0.020893577  0.020645006            7 
 3326000   0.73194336   -7.3054138     832.9095  0.020868649    0.0206389            6 
 3327000   0.72073956   -7.2865691     833.0877  0.020866839  0.020632798            7 
 3328000   0.70980994   -7.2581585    832.57696   0.02084778  0.020626696           11 
 3329000   0.72062092   -7.2979623    833.36475  0.020861238  0.020620582            8 
 3330000   0.70449823   -7.3063846    834.08874  0.020873092   0.02061446           12 
 3331000   0.73115826   -7.2944248    835.27861  0.020896593  0.020608345           18 
 3332000   0.69445002   -7.2812617    833.72915  0.020851569  0.020602234           31 
 3333000   0.71953356   -7.3092878    832.51823  0.020815037  0.020596115           32 
 3334000   0.72054945   -7.2751651     833.7848  0.020840452  0.020589991           35 
 3335000   0.72159221   -7.3073929    832.92178  0.020812638  0.020583877           14 
 3336000   0.71770105   -7.2892705    834.63292  0.020849144  0.020577777           38 
 3337000   0.70609115   -7.2964523    832.70102  0.020794651  0.020571676           36 
 3338000   0.72684893   -7.2957461    832.25829  0.020777369  0.020565589           15 
 3339000   0.72505375   -7.2809626    832.05621  0.020766103  0.020559502           30 
 3340000    0.7163507   -7.2899053    834.14684  0.020812047  0.020553409           16 
 3341000   0.71447257    -7.301241    833.80003  0.020797167  0.020547314            8 
 3342000   0.70716715   -7.3029869    833.52344  0.020784047  0.020541208           10 
 3343000   0.72813041   -7.2974625    832.54082  0.020753336  0.020535089           12 
 3344000   0.71822148   -7.2971596    835.06346  0.020809994  0.020528971           14 
 3345000   0.72336847   -7.3214664    831.93523   0.02072584  0.020522853           13 
 3346000   0.70288809   -7.2925486    832.09849  0.020723712  0.020516725           12 
 3347000   0.70448821   -7.3149808    831.53977  0.020703609  0.020510597           15 
 3348000   0.73077967   -7.3080782    832.15188  0.020712661  0.020504483           25 
 3349000   0.72912223   -7.3057293    833.03986  0.020728572  0.020498372           14 
 3350000   0.70772159    -7.302234    835.08227  0.020773191  0.020492292           15 
 3351000   0.70431577   -7.3054223    833.42765  0.020725844  0.020486186            7 
 3352000    0.7268584   -7.2995506    833.90306   0.02073148  0.020480092           10 
 3353000   0.72168334   -7.2970609    833.94776  0.020726408  0.020474003           17 
 3354000   0.71285163   -7.3374476      833.045  0.020697799  0.020467894           10 
 3355000   0.71400629   -7.3381757    831.02194   0.02064138  0.020461753           16 
 3356000   0.69567217   -7.3076959    831.47116  0.020646384  0.020455616           22 
 3357000   0.73966142   -7.3015289    833.23175  0.020683938   0.02044948           14 
 3358000   0.71336078    -7.300951    833.93397  0.020695205  0.020443357           23 
 3359000   0.72246969   -7.3100458    834.38916  0.020700336  0.020437222           10 
 3360000   0.72214597   -7.2769899    833.34023  0.020668161  0.020431099            8 
 3361000   0.71270281   -7.3132099    830.16125  0.020583191  0.020424968           19 
 3362000   0.72568474   -7.3136493    831.57891  0.020612208  0.020418852            9 
 3363000   0.70252599   -7.3095175    834.12858  0.020669258  0.020412738           16 
 3364000   0.71479083   -7.2874913    834.30751  0.020667546  0.020406633           10 
 3365000   0.71654503   -7.3056854    832.17633  0.020608626  0.020400524           10 
 3366000   0.69137313   -7.2912905     836.2021  0.020702171  0.020394423           15 
 3367000   0.69776486   -7.3083058    832.60469  0.020606987  0.020388348           15 
 3368000   0.71423193   -7.3224903    834.53336  0.020648589  0.020382244           14 
 3369000   0.70019279   -7.3338034    833.01674  0.020604946  0.020376141            8 
 3370000   0.70829587   -7.3044115    833.36655  0.020607481  0.020370031           23 
 3371000   0.69494151   -7.3312258    832.92174  0.020590372  0.020363919            9 
 3372000   0.73243438   -7.3135598    832.95416  0.020585067    0.0203578           11 
 3373000   0.71070927   -7.3238363    833.54956  0.020593674  0.020351698            9 
 3374000   0.71397247   -7.3116503    833.98147  0.020598238   0.02034559            7 
 3375000   0.72401214   -7.3058281    833.09679  0.020570291  0.020339491            8 
 3376000   0.71655338   -7.3238028    834.34757  0.020595072  0.020333386           10 
 3377000   0.71102923   -7.2917931    834.80569  0.020600279  0.020327299           26 
 3378000    0.7186131   -7.2868136    835.37627  0.020608256  0.020321215           20 
 3379000    0.7177154   -7.3082559    833.82383  0.020563871   0.02031512           15 
 3380000   0.71720148   -7.3154815    832.84738  0.020533713   0.02030903            9 
 3381000   0.72430291    -7.293101    833.76858  0.020550345  0.020302923            6 
 3382000   0.71433037   -7.3150464     834.8313  0.020570454  0.020296829            8 
 3383000   0.70739818   -7.3258574    831.99912  0.020494608  0.020290724           11 
 3384000   0.71576595   -7.3045609     832.1537  0.020492359  0.020284642           10 
 3385000    0.7122206   -7.2973709    834.19395  0.020536532   0.02027857           12 
 3386000   0.71208802   -7.2938009    833.13721   0.02050446  0.020272506           20 
 3387000   0.71338701   -7.2959928     834.9602  0.020543259   0.02026645           15 
 3388000   0.73542974   -7.3230978    833.88755  0.020510811  0.020260376           13 
 3389000   0.69636387   -7.3103351    833.49056  0.020494997    0.0202543           11 
 3390000   0.71527012   -7.2897363    834.20469  0.020506507  0.020248216           10 
 3391000   0.71291064   -7.3306356    832.32656  0.020454304  0.020242139           13 
 3392000   0.70403767   -7.3047905    834.10008  0.020491846  0.020236078           17 
 3393000   0.71185002   -7.3169846    833.30894  0.020466375  0.020230017            4 
 3394000    0.7044857   -7.3069784    834.03236  0.020478107  0.020223962            6 
 3395000   0.71321729   -7.3241998    834.59823  0.020485965  0.020217908           10 
 3396000   0.71335073   -7.3237279    833.61672  0.020455848   0.02021185           15 
 3397000   0.70258173   -7.3125225    836.16277  0.020512285  0.020205788           20 
 3398000   0.71624083   -7.3313774    835.06772  0.020479393  0.020199703           18 
 3399000   0.71067304   -7.3143711     834.5391  0.020460407  0.020193603           13 
 3400000   0.70126556   -7.3301947    834.08859  0.020443348  0.020187505           21 
 3401000   0.71317466   -7.3165372    833.58056  0.020424889  0.020181407           25 
 3402000   0.70792984   -7.3266653    832.53252  0.020393213  0.020175332            9 
 3403000   0.70824301   -7.3080579    833.77194  0.020417571  0.020169254           18 
 3404000   0.69597827   -7.3151164    834.18239  0.020421621  0.020163156           10 
 3405000   0.71864662   -7.3089132    834.21871  0.020416513  0.020157092           22 
 3406000   0.70820719   -7.3077881    835.21098  0.020434796  0.020151032           17 
 3407000   0.70928498   -7.2976976    832.14288  0.020353754  0.020144971            9 
 3408000   0.70424454   -7.3025555    833.94294  0.020391797  0.020138902           12 
 3409000   0.70857274    -7.309503    834.03618  0.020388095  0.020132851            8 
 3410000   0.69068021   -7.3364494    833.92293  0.020379348  0.020126797            6 
 3411000   0.70053945   -7.3110401    834.73194  0.020393138  0.020120722           10 
 3412000   0.71411801   -7.3259567    834.61272   0.02038425  0.020114671           13 
 3413000   0.69633936   -7.3135718    833.69251  0.020355809  0.020108619           11 
 3414000   0.71357938   -7.3105147    834.13511   0.02036065  0.020102557            7 
 3415000   0.70702559   -7.3244813    834.16706  0.020355467  0.020096487           10 
 3416000   0.71396656    -7.325727    834.13496  0.020348726   0.02009041           15 
 3417000   0.69457954   -7.3282426    834.13888  0.020342866  0.020084331           14 
 3418000   0.72437945   -7.3323926    832.39706  0.020294448  0.020078265           12 
 3419000   0.69338004   -7.3119731    835.02235  0.020352499  0.020072198            8 
 3420000    0.7130971   -7.3401131    833.30398  0.020304678  0.020066111           13 
 3421000   0.71316385   -7.3777962    832.04694  0.020268122  0.020060017           18 
 3422000   0.69785077   -7.3537891    833.90189  0.020307371   0.02005393           13 
 3423000   0.70294938   -7.3431884    835.07316  0.020329953   0.02004786            9 
 3424000   0.70523418   -7.3244608    832.98374  0.020273164  0.020041782            9 
 3425000   0.72921885   -7.3273175    835.10817  0.020318934   0.02003572           19 
 3426000   0.71635209   -7.3154095    833.14277  0.020265197  0.020029656           11 
 3427000   0.70384052   -7.3387715    832.34273  0.020239829  0.020023585            9 
 3428000   0.69680905    -7.335685    833.67542  0.020266322  0.020017528           12 
 3429000   0.70653639   -7.3320327    834.42946  0.020278737  0.020011479            9 
 3430000   0.70637517    -7.332489    832.61823   0.02022882  0.020005404            9 
 3431000   0.71058712   -7.3451913    833.60346  0.020246854  0.019999347           12 
 3432000   0.70967361   -7.3264073    834.60669  0.020265314   0.01999328           10 
 3433000   0.69589637   -7.3451541    833.79169  0.020239627  0.019987221            7 
 3434000    0.7043527    -7.335712     832.0353  0.020191111  0.019981163           11 
 3435000   0.70585164    -7.352441    834.41159  0.020242882  0.019975094           12 
 3436000   0.69377956   -7.3276134     832.4804  0.020190153  0.019969037           15 
 3437000   0.71323234   -7.3350591    833.67454  0.020213232  0.019962986           15 
 3438000   0.69550906   -7.3326313    835.11199  0.020242195  0.019956957           12 
 3439000   0.69891277   -7.3509995    834.25217  0.020215474  0.019950931           14 
 3440000   0.69171192   -7.3365603    833.88425  0.020200684  0.019944894            9 
 3441000   0.70020511   -7.3208258    835.42518  0.020232132  0.019938872           12 
 3442000   0.69999005   -7.3211877    834.70064  0.020208712  0.019932848           12 
 3443000   0.68802152   -7.3409793    836.13908  0.020237658  0.019926822            7 
 3444000   0.69245438   -7.3352233    834.93536  0.020202656  0.019920817            9 
 3445000   0.70037741   -7.3254222    835.27545  0.020205018  0.019914798           15 
 3446000   0.70842864   -7.3018243    837.22981  0.020246416  0.019908791           13 
 3447000   0.69192236   -7.3325821    835.69398  0.020203413  0.019902785            8 
 3448000   0.69643865   -7.3367129    834.68899  0.020173264  0.019896764           12 
 3449000   0.69918985   -7.3292303    836.30249    0.0202064  0.019890744           15 
 3450000   0.68291262   -7.3122824    833.82911    0.0201408  0.019884736            7 
 3451000   0.69734347   -7.3101311    834.28455  0.020145961  0.019878719            8 
 3452000   0.70080134   -7.3232262    833.48786  0.020120893  0.019872694            8 
 3453000   0.70578415   -7.3169525    837.44451  0.020210554  0.019866686            4 
 3454000   0.70296203    -7.305261     834.3567  0.020130204  0.019860691           15 
 3455000   0.72432994   -7.3317037    834.91812  0.020137919  0.019854689           13 
 3456000   0.70227394   -7.3340297    834.44144  0.020120598  0.019848705            8 
 3457000   0.70317873   -7.2970859      835.841  0.020148515  0.019842741            7 
 3458000    0.7011699   -7.3139938    835.73352  0.020140098  0.019836766            9 
 3459000   0.70263222   -7.3069232    835.12878  0.020119707  0.019830776           10 
 3460000   0.70803975   -7.3450337     835.3842  0.020120043  0.019824786           11 
 3461000   0.69392515   -7.3170433    835.63545   0.02012028  0.019818818           13 
 3462000   0.69563941   -7.2906646    838.27098  0.020177907   0.01981286           22 
 3463000    0.6918516   -7.2986289     836.7011  0.020134303  0.019806902           14 
 3464000   0.69912066   -7.3262206    836.16377  0.020115564  0.019800921           16 
 3465000   0.66805733   -7.3567739     835.3833  0.020090988  0.019794948           13 
 3466000   0.69531727   -7.3358926    836.90676  0.020121821  0.019788976           14 
 3467000   0.68140816   -7.3550958    835.62997  0.020085328     0.019783           22 
 3468000   0.69055821   -7.3158395    836.07918   0.02009033  0.019777018           12 
 3469000   0.69737707   -7.3512467    835.34869  0.020066991  0.019771025           11 
 3470000   0.69760116   -7.3206811    835.42177  0.020062963  0.019765036           20 
 3471000   0.68900091   -7.3344647    835.54597  0.020060164  0.019759038            7 
 3472000   0.69185127   -7.3416249    836.33161  0.020073243  0.019753065           11 
 3473000   0.68793547    -7.337589    836.93704  0.020081991  0.019747075           18 
 3474000   0.70945921   -7.3212722    835.43984  0.020040295  0.019741104           15 
 3475000   0.69880335   -7.3219941    836.18362  0.020052365  0.019735137           16 
 3476000   0.70143992   -7.3471756    833.69644  0.019986969  0.019729152            9 
 3477000   0.69788533   -7.3749466    834.61824  0.020003313  0.019723172            9 
 3478000   0.69141544   -7.3471344    836.38399   0.02003987  0.019717183            9 
 3479000   0.69489237   -7.3379073    834.82072  0.019996664  0.019711219           11 
 3480000   0.68757965   -7.3504788     836.1911  0.020023733  0.019705251            7 
 3481000   0.69161776   -7.3319439    837.12562  0.020040353  0.019699285            7 
 3482000   0.69315584   -7.3193246    837.25427  0.020037676  0.019693346           10 
 3483000    0.6843085   -7.3509922    834.70831  0.019971009  0.019687394           16 
 3484000    0.6765126   -7.3358852    836.13612  0.019999429  0.019681431            9 
 3485000   0.70183536   -7.3570593    833.98038  0.019942142  0.019675462           12 
 3486000   0.68453529   -7.3300436    835.54608   0.01997385  0.019669513           12 
 3487000   0.70779836   -7.3622146    835.83097   0.01997493   0.01966355           20 
 3488000   0.69541968   -7.3769242    836.74953  0.019991149  0.019657587           11 
 3489000   0.70489139   -7.3457351    836.36775  0.019976301  0.019651628           17 
 3490000   0.67500132   -7.3633779    836.11065  0.019964438  0.019645662           10 
 3491000   0.70911304   -7.3627334    834.56508  0.019921825  0.019639699            7 
 3492000     0.689914    -7.373167    835.97522  0.019949771   0.01963373           19 
 3493000    0.6831435   -7.3570333    834.31799  0.019904523  0.019627765           15 
 3494000   0.69565306   -7.3370985    835.18217  0.019919437  0.019621803           11 
 3495000   0.69702465   -7.3420777    835.91853  0.019931295  0.019615841           13 
 3496000   0.70353496   -7.3295805    837.39237  0.019960726  0.019609884           13 
 3497000   0.68731635   -7.3473708    836.09754  0.019924162  0.019603941           21 
 3498000     0.681132   -7.3793818    835.42493  0.019902443  0.019597989           23 
 3499000   0.69690283   -7.3549177    835.94437  0.019909126   0.01959204            8 
 3500000   0.69923544   -7.3504035    836.61263  0.019919348  0.019586103           15 
 3501000   0.67425599   -7.3675486    835.83464   0.01989514  0.019580148           18 
 3502000   0.67724179   -7.3596106    835.98508  0.019893039  0.019574197           30 
 3503000   0.68368511   -7.3624577    836.01599  0.019888096   0.01956826           19 
 3504000   0.67952659   -7.3294711    837.16547  0.019909757   0.01956235           11 
 3505000   0.68846111   -7.3528033    837.98636  0.019923594  0.019556415           12 
 3506000    0.7055597   -7.3518749    836.01246  0.019870994  0.019550477           13 
 3507000   0.68915471   -7.3727092     834.5123  0.019829681  0.019544547           20 
 3508000   0.68780412   -7.3640706    834.65623  0.019827448  0.019538616           15 
 3509000   0.68241283   -7.3349722    835.19511  0.019834595  0.019532691           21 
 3510000   0.68930145   -7.3452285    835.87429  0.019845069  0.019526775            9 
 3511000   0.69560115   -7.3677326     836.5646  0.019855801  0.019520835            9 
 3512000   0.69791456   -7.3671982    836.53594  0.019849467   0.01951488           13 
 3513000    0.6934841   -7.3637003    835.85537  0.019827673  0.019508938           27 
 3514000   0.68306084    -7.356574    834.99167  0.019801548  0.019503001           13 
 3515000   0.67616586   -7.3522043    834.68629  0.019788674  0.019497049           11 
 3516000   0.70589479   -7.3638088    836.58611  0.019828074  0.019491106            7 
 3517000   0.69165831   -7.3703167    834.83285  0.019780894  0.019485172            9 
 3518000   0.69331608   -7.3374772    838.50241  0.019862195  0.019479232            8 
 3519000   0.69292276   -7.3518023    836.34091  0.019805364   0.01947331           12 
 3520000   0.69740052   -7.3695187    837.80154  0.019834317    0.0194674            9 
 3521000   0.69548751   -7.3310794    835.71529  0.019779307  0.019461487           22 
 3522000   0.68330786   -7.3556596    836.88274  0.019801314  0.019455562           16 
 3523000   0.68013444   -7.3467886    837.66556   0.01981421  0.019449646           11 
 3524000   0.67943472   -7.3624761     837.8941  0.019813992   0.01944374            8 
 3525000   0.68750949   -7.3717008    837.72344  0.019804337  0.019437829           14 
 3526000   0.67854725   -7.3579597    836.37455   0.01976684  0.019431953            8 
 3527000   0.68074311   -7.3400249    836.63952  0.019767496  0.019426073           15 
 3528000   0.67927714   -7.3668058    838.42633  0.019804099  0.019420185           10 
 3529000   0.68123779   -7.3591684     836.5222  0.019753523  0.019414313           14 
 3530000   0.70086939   -7.3529059    838.38723  0.019791955  0.019408425            7 
 3531000   0.68254645   -7.3586135    836.45103  0.019740655  0.019402548            8 
 3532000   0.68226696   -7.3571958    836.75291  0.019742188  0.019396667           17 
 3533000   0.70138683   -7.3711593    838.15404  0.019769649  0.019390786            7 
 3534000   0.69992612   -7.3684527    836.62607  0.019728025  0.019384911           14 
 3535000   0.70743211    -7.374437      836.899  0.019728878  0.019379046           18 
 3536000   0.68703541   -7.3835047     837.4952  0.019737349  0.019373195           15 
 3537000   0.68969362   -7.3630071    837.97271  0.019743019  0.019367344            8 
 3538000   0.68014092   -7.3738107    838.26019   0.01974421  0.019361491            8 
 3539000   0.67518255   -7.3687735    839.08167  0.019757975  0.019355645           11 
 3540000   0.68112119   -7.3590925    839.46613  0.019761444  0.019349786           17 
 3541000   0.69512018   -7.3827765    836.67137  0.019690092  0.019343927            9 
 3542000   0.68729089   -7.3722096    836.08778  0.019670802  0.019338061            9 
 3543000   0.68472248   -7.3646378    835.83513  0.019659308  0.019332177           12 
 3544000   0.69185694   -7.3879123    835.31627   0.01964156  0.019326296           14 
 3545000   0.67302507   -7.3798913    836.79094  0.019670685  0.019320399           19 
 3546000   0.69638046   -7.3663683    835.28628  0.019629777  0.019314518           14 
 3547000   0.67450269   -7.3856543    837.08354  0.019666468   0.01930864           16 
 3548000   0.67914902   -7.3555403    836.94348  0.019657635  0.019302778           10 
 3549000   0.68686681   -7.3449041    838.90828  0.019698231   0.01929692           19 
 3550000   0.68536353   -7.3657878    837.17365  0.019651964  0.019291056           18 
 3551000    0.6808415   -7.3829556    834.44146  0.019582311  0.019285182           10 
 3552000   0.67712912   -7.3939618    837.15304  0.019640415  0.019279307           10 
 3553000    0.6967265   -7.3480845    838.12362  0.019657651  0.019273455            9 
 3554000   0.68907599   -7.3664926    835.70467  0.019595401  0.019267589            9 
 3555000   0.67789796   -7.3827823    837.63632  0.019635169   0.01926172           10 
 3556000   0.68518856    -7.399596    837.03228  0.019615492  0.019255856           20 
 3557000   0.68331204   -7.3831277    838.25846  0.019638705  0.019249982            8 
 3558000   0.67455543   -7.3759845     838.4338  0.019637291  0.019244099           10 
 3559000   0.69996023   -7.3863269    835.88124  0.019572006  0.019238234           13 
 3560000   0.68782485   -7.3785208    836.32007  0.019576781  0.019232367           14 
 3561000   0.69339178    -7.380688    836.69853   0.01958014  0.019226515           12 
 3562000    0.7065782   -7.3675134    836.11565  0.019561006  0.019220668           11 
 3563000   0.66319364   -7.3732434    835.91342  0.019550786  0.019214819           22 
 3564000   0.68662402   -7.3696194    838.95092  0.019616323   0.01920898           17 
 3565000   0.67909111   -7.3557048    838.35129  0.019596804   0.01920316           15 
 3566000   0.67001544   -7.3770605    836.87502   0.01955681  0.019197334           19 
 3567000   0.68890346    -7.367269    837.96028  0.019576682  0.019191509           12 
 3568000   0.68326914   -7.3546208    838.83656  0.019591661  0.019185709           14 
 3569000   0.68628837   -7.3479753    837.45561  0.019553928  0.019179918            8 
 3570000   0.67172804   -7.3800497    838.29844  0.019568124  0.019174105           13 
 3571000   0.68835015    -7.365738    837.12264  0.019535206   0.01916828           13 
 3572000     0.680916   -7.3470625    839.22145  0.019578701  0.019162478           15 
 3573000   0.67113494   -7.3726811    838.97388  0.019567448  0.019156675            9 
 3574000   0.68332963   -7.3802547    839.02213  0.019563098  0.019150874           14 
 3575000   0.67830618   -7.4089986    838.48628  0.019545135   0.01914506           14 
 3576000   0.66977737   -7.3836348    838.43181    0.0195384  0.019139241            7 
 3577000   0.68551846   -7.3750059    838.90342  0.019543925  0.019133423           16 
 3578000   0.66017492   -7.3645371    836.51792  0.019482903  0.019127616            9 
 3579000   0.68639245   -7.3713007    837.24222  0.019494324  0.019121806            9 
 3580000   0.68966748   -7.3847784    839.17585  0.019533888   0.01911601           14 
 3581000   0.68761946    -7.371996    838.09344  0.019503245  0.019110182           14 
 3582000    0.6936921    -7.361003    838.17425   0.01949968  0.019104388           16 
 3583000   0.68876676   -7.3956738    838.56167  0.019503249  0.019098595           13 
 3584000   0.68644813   -7.3736686    839.75373  0.019525524  0.019092798           10 
 3585000   0.66615302   -7.3973291    837.52699  0.019468317  0.019086995           10 
 3586000   0.68482478    -7.362131    839.77857  0.019515211  0.019081199           11 
 3587000   0.66927852   -7.3874691    837.42421  0.019455074  0.019075403           21 
 3588000   0.67105717   -7.3697043    838.64676  0.019478046  0.019069608           11 
 3589000   0.67844332   -7.3936571    838.31527  0.019464922  0.019063823           29 
 3590000   0.67262967   -7.3815799    838.34616  0.019460217  0.019058015           19 
 3591000    0.6719168    -7.396344    839.05071  0.019471148  0.019052215           21 
 3592000   0.68145409   -7.3791186    835.57804  0.019385163  0.019046404           20 
 3593000   0.67566279   -7.3888767    838.47723  0.019447009  0.019040621           18 
 3594000   0.68083825   -7.3766271    838.44359  0.019440818   0.01903482            8 
 3595000   0.68835701   -7.3796425    838.24821  0.019430881  0.019029025           24 
 3596000    0.6706046   -7.3774131     838.3333  0.019427449  0.019023215           15 
 3597000   0.69190452   -7.4066794    837.75374  0.019408621  0.019017404           17 
 3598000   0.67765361   -7.3710859    838.73353   0.01942592  0.019011615           25 
 3599000   0.68020919   -7.3708451    838.31578   0.01941085  0.019005822           22 
 3600000   0.67888452   -7.3954287    838.74623  0.019415422  0.019000045           16 
 3601000   0.67650703   -7.3849333     838.0447  0.019393796  0.018994255            8 
 3602000   0.67865509   -7.4121016    837.51064  0.019376056  0.018988473           12 
 3603000   0.68693834   -7.3798966    838.40035  0.019391256  0.018982698           16 
 3604000   0.68088919   -7.3745365    836.93854  0.019352075  0.018976923           19 
 3605000   0.67874075   -7.3755813    838.75304  0.019388651  0.018971163           14 
 3606000   0.67992466   -7.4034646    838.00257  0.019365931  0.018965401            9 
 3607000   0.65221112   -7.3673409    838.98909  0.019383354  0.018959645            7 
 3608000   0.67553947   -7.3839625    839.73131  0.019395125  0.018953902            9 
 3609000   0.67097829   -7.4025746    838.16938  0.019353685   0.01894816           10 
 3610000   0.67657693    -7.403598    839.90292  0.019388341  0.018942412           13 
 3611000    0.6680932   -7.4081003    840.19333  0.019389673  0.018936657           36 
 3612000   0.67487394   -7.4010071    837.86622  0.019330616  0.018930908           12 
 3613000    0.6835554   -7.3671416      840.392  0.019383522  0.018925163           12 
 3614000   0.66307577   -7.3631729    839.38769  0.019355001  0.018919448           16 
 3615000   0.65539508   -7.3848037    840.79523  0.019382094  0.018913723           18 
 3616000   0.67552932   -7.3801163    839.79606  0.019353707  0.018907985           18 
 3617000   0.66850831   -7.3979848      838.647  0.019321883  0.018902249           15 
 3618000   0.67253956   -7.3847147    839.25973  0.019330655  0.018896519           29 
 3619000   0.67500709   -7.3737605    840.66414  0.019357653  0.018890801           44 
 3620000   0.68148017   -7.3916662    839.61088  0.019328059  0.018885082           40 
 3621000   0.68745216   -7.3862579      840.152  0.019335174  0.018879352           60 
 3622000   0.66137424   -7.3989855    839.32062  0.019310708  0.018873649           48 
 3623000   0.67875859   -7.4008194    840.21866  0.019326034   0.01886793           13 
 3624000   0.66949262   -7.4013187    838.44099  0.019279824  0.018862231           34 
 3625000   0.67356776   -7.3892646    841.57178  0.019346478  0.018856525           14 
 3626000   0.68072293   -7.3840506    839.75326  0.019299349  0.018850821           22 
 3627000   0.67308187   -7.3833458    840.55238  0.019312388  0.018845119           18 
 3628000   0.66607688      -7.3995    838.86398  0.019268283  0.018839426           19 
 3629000   0.65492154   -7.3967325     840.9738  0.019311422  0.018833721           21 
 3630000   0.66630217   -7.4048671    841.09641  0.019308917  0.018828019           44 
 3631000   0.69299635   -7.3910971    838.77223  0.019250258  0.018822311            8 
 3632000   0.67878114   -7.3908234    840.01236  0.019273411  0.018816597           17 
 3633000   0.67193692   -7.4241466      840.716  0.019284246   0.01881089           22 
 3634000   0.66116661   -7.4080933    840.96058  0.019284548   0.01880517           44 
 3635000   0.67387869   -7.4165563    839.94851  0.019256041  0.018799473           53 
 3636000   0.66927093   -7.4012696    839.74323   0.01924604  0.018793756           88 
 3637000   0.66233586   -7.4185945    840.19669  0.019251138  0.018788043           44 
 3638000   0.66838596   -7.3755168    839.89425  0.019238919  0.018782346          105 
 3639000   0.66869022   -7.3944332    838.78066  0.019208131  0.018776654          103 
 3640000   0.68292654   -7.4180948    838.06622  0.019186498  0.018770935          119 
 3641000   0.67819186    -7.397349    840.92977  0.019246768  0.018765238           53 
 3642000   0.66744431   -7.4011527     841.0134  0.019243397  0.018759543           57 
 3643000   0.66820576   -7.4025768    838.73764  0.019186056  0.018753845           44 
 3644000   0.67937932   -7.3863836    840.37286  0.019218187  0.018748151           19 
 3645000   0.66036106   -7.4062132    840.74118  0.019221335  0.018742462           46 
 3646000   0.67164134   -7.3869352    840.14156  0.019202358  0.018736764           24 
 3647000   0.65513356    -7.378332    839.36057  0.019179247  0.018731088           39 
 3648000   0.67779358   -7.3946865    839.36945  0.019174193  0.018725419           20 
 3649000   0.65752589   -7.3923252    840.91045   0.01920413  0.018719744           19 
 3650000    0.6593379   -7.4059545    841.17863  0.019204992  0.018714058           22 
 3651000   0.66979034   -7.3952943    839.62122  0.019164184  0.018708372           12 
 3652000   0.67519936    -7.394825    840.82001  0.019186291  0.018702695           13 
 3653000   0.65082017   -7.4075442    839.37573  0.019148091  0.018697019           16 
 3654000   0.65775659   -7.3905833    839.74568  0.019151288  0.018691334           22 
 3655000   0.66973136   -7.3836809    839.34665  0.019136951  0.018685649           19 
 3656000   0.68600079   -7.3860791    840.95353  0.019168343  0.018679973           17 
 3657000    0.6697758   -7.3942231    839.23693  0.019123984  0.018674293           12 
 3658000   0.67311926   -7.4198347    839.20452  0.019118018  0.018668601           25 
 3659000   0.65819112   -7.3862533    839.77746  0.019125842  0.018662901           22 
 3660000   0.66137258   -7.4332406    839.43554  0.019112831  0.018657202           13 
 3661000   0.67468693   -7.4102704    839.65187  0.019112535  0.018651481           14 
 3662000    0.6702481   -7.3965427    839.13494  0.019095552  0.018645783            9 
 3663000   0.67669908   -7.3917185    837.90673  0.019062397  0.018640091           18 
 3664000   0.66021647    -7.388257    838.68974  0.019075003  0.018634391           23 
 3665000   0.67502844   -7.3938212    837.13461  0.019034439  0.018628704            5 
 3666000   0.65491039   -7.4031861     838.7748   0.01906653  0.018623017           11 
 3667000   0.67384364   -7.4094676    839.87454  0.019086323  0.018617326           15 
 3668000    0.6601216   -7.4283105    838.70899  0.019054639  0.018611644           36 
 3669000   0.65608027   -7.4071359    839.65213  0.019070867  0.018605976           26 
 3670000    0.6566008   -7.3947114      839.496  0.019062125  0.018600309           25 
 3671000   0.66529965   -7.4067534    840.37997  0.019076999  0.018594639           37 
 3672000   0.66307964   -7.4008215    841.45839  0.019096278  0.018588974           25 
 3673000   0.68100339   -7.3956207    839.42498  0.019044945  0.018583313           10 
 3674000   0.65676167   -7.4115495     840.7376  0.019069534  0.018577662           10 
 3675000   0.66418683   -7.4193263    839.72009  0.019041272  0.018572012           19 
 3676000   0.65163183   -7.4259445       839.64  0.019034276   0.01856635           16 
 3677000   0.66087724   -7.4107234    839.20157  0.019019163  0.018560693           19 
 3678000   0.66433481   -7.4024167    840.45374  0.019042363  0.018555036           13 
 3679000    0.6645186   -7.4261593    840.02223  0.019027413  0.018549369           19 
 3680000   0.65747389   -7.4133774    839.77005  0.019016532   0.01854371           17 
 3681000   0.66193261   -7.4249987    839.61207  0.019007789   0.01853807           11 
 3682000   0.66574236   -7.4307038    838.65998  0.018981079  0.018532427           11 
 3683000   0.67187899   -7.3984694    838.41537   0.01897039  0.018526785           19 
 3684000   0.66166101   -7.4011096    839.90368  0.018998907  0.018521146           27 
 3685000   0.67371006   -7.4336091    839.97666  0.018995402  0.018515487           14 
 3686000    0.6578246   -7.4161603    839.93751  0.018989363  0.018509833           14 
 3687000    0.6576254   -7.4054673    839.45282  0.018973258  0.018504187           12 
 3688000   0.66166635   -7.4147191    840.20392  0.018985085  0.018498559           10 
 3689000   0.65711743    -7.423141    840.72835  0.018991785  0.018492931           14 
 3690000   0.65402105    -7.404622    839.76738  0.018964936  0.018487301            9 
 3691000   0.64850137   -7.4239372     841.5257  0.018999497  0.018481659           13 
 3692000    0.6512595   -7.4237834    840.42781   0.01896957  0.018476037           16 
 3693000   0.64919697   -7.4162027    841.54745  0.018989698  0.018470406            8 
 3694000    0.6564386   -7.4419804    839.58951  0.018940388  0.018464775           20 
 3695000    0.6552088   -7.4363421    839.14085  0.018925143  0.018459137           30 
 3696000   0.65135505   -7.4285083    839.29154   0.01892342  0.018453503           16 
 3697000   0.66412697   -7.4402329      840.559  0.018946871  0.018447864           12 
 3698000   0.65857371   -7.3952782    841.23235  0.018956922  0.018442236           23 
 3699000   0.66364359   -7.4068159    840.25118  0.018929692  0.018436613           15 
 3700000    0.6580379   -7.4217654     838.0107  0.018874115   0.01843098           26 
 3701000   0.65713258   -7.4010369    840.54138  0.018925997  0.018425356           14 
 3702000   0.67024407   -7.4058947    841.68421   0.01894661  0.018419722           34 
 3703000   0.66321106   -7.4401501    840.46585  0.018914075  0.018414094           30 
 3704000   0.65692219   -7.4377699    841.51455  0.018932563  0.018408463           32 
 3705000   0.66401501   -7.4338735    840.61306  0.018907176  0.018402853           30 
 3706000   0.67388494   -7.4246184    841.41419  0.018920089  0.018397234           25 
 3707000    0.6685437   -7.4136565    840.11902   0.01888587  0.018391619           16 
 3708000   0.66449944   -7.4104873    841.20736  0.018905235  0.018386013           10 
 3709000   0.65626517   -7.4140507    840.60168   0.01888653  0.018380426           18 
 3710000   0.67475494   -7.4193653    841.16895  0.018894181  0.018374837           28 
 3711000   0.66509136   -7.4353048    840.33369  0.018870334  0.018369232           16 
 3712000   0.65950064   -7.4342333    840.80706  0.018875877   0.01836363           25 
 3713000   0.66710301   -7.4312041    839.00912  0.018830441  0.018358028           12 
 3714000   0.66559053   -7.4484525    838.71443  0.018818759  0.018352424           12 
 3715000   0.65238707   -7.4369076    840.83044  0.018861158  0.018346802           15 
 3716000   0.64629552   -7.4442595    840.17526   0.01884139  0.018341195            7 
 3717000   0.64639115   -7.4225682    839.52241  0.018821684    0.0183356           15 
 3718000    0.6393587    -7.418959    841.82427  0.018868215  0.018330009           22 
 3719000   0.66102462   -7.4402198    840.16569  0.018825977   0.01832441           10 
 3720000   0.65789938   -7.4021572    839.72329  0.018811006  0.018318814           25 
 3721000   0.65578475   -7.4458894    840.16931  0.018815939  0.018313219            7 
 3722000    0.6465363   -7.4523689    839.20218   0.01878923  0.018307614            3 
 3723000   0.67190239   -7.4334166     840.2428  0.018807476  0.018302037            9 
 3724000    0.6572518   -7.4580918    839.53289   0.01878654  0.018296437            6 
 3725000    0.6634809   -7.4453336    839.22439  0.018774595   0.01829085           13 
 3726000   0.66232875   -7.4402832    839.16708  0.018768274  0.018285281           11 
 3727000   0.64088025   -7.4258801    838.85534  0.018756268  0.018279708           11 
 3728000   0.65675455   -7.4201587    839.40102  0.018763435  0.018274144           10 
 3729000   0.64285214   -7.4053776    842.32032  0.018823642  0.018268594           14 
 3730000   0.65897799    -7.410242    842.82486  0.018829867  0.018263051            9 
 3731000   0.64372448    -7.417571    841.09603  0.018786206  0.018257512           16 
 3732000   0.65344191   -7.4064814     839.4949   0.01874542   0.01825197           14 
 3733000   0.65921361   -7.4125315    841.32707  0.018781299  0.018246431           10 
 3734000   0.65052044   -7.4397846    839.94447  0.018745413  0.018240874           18 
 3735000   0.65103834   -7.4419846    841.90792  0.018784202  0.018235306           18 
 3736000   0.64629229   -7.4031448    842.27065  0.018787265  0.018229761           13 
 3737000   0.65736866   -7.4305764    840.78747  0.018749163  0.018224214           18 
 3738000   0.63453053   -7.4162851    840.80564  0.018744552  0.018218655           20 
 3739000   0.66598889   -7.4196072     841.6224  0.018757743  0.018213109           16 
 3740000   0.66034222   -7.4176929    840.47299  0.018727116  0.018207565           10 
 3741000   0.64302766   -7.4202659    841.05751  0.018735131  0.018202012           10 
 3742000    0.6334695   -7.4307228    841.35362  0.018736719  0.018196461           12 
 3743000   0.64536766   -7.4366183    841.11706  0.018726446  0.018190898           13 
 3744000   0.64483019   -7.4407355    839.33253  0.018681725  0.018185323           13 
 3745000    0.6647842   -7.4369938    840.15538  0.018695046  0.018179751           14 
 3746000   0.65244238   -7.4459211    840.66278  0.018701343  0.018174192            9 
 3747000   0.65809058   -7.4329255    842.00271  0.018726152   0.01816863           23 
 3748000   0.64695359   -7.4470848    839.59063  0.018667526  0.018163061           16 
 3749000   0.65134267   -7.4383377    841.27367  0.018699957  0.018157489           28 
 3750000   0.65644845   -7.4278071    841.78919  0.018706427  0.018151924            9 
 3751000   0.65231564   -7.4414562     841.6986  0.018699427  0.018146371           17 
 3752000   0.65245725    -7.425248    841.94544  0.018699925  0.018140828           13 
 3753000   0.64410726   -7.4348915    840.46777  0.018662132  0.018135287            9 
 3754000   0.65857401   -7.4474115    840.00187  0.018646818  0.018129742           12 
 3755000   0.64295195   -7.4549261     840.2604   0.01864759  0.018124204           11 
 3756000   0.66346727   -7.4234546    840.58448  0.018649815  0.018118664           25 
 3757000   0.66001618   -7.4268013     842.2217  0.018681166   0.01811313           13 
 3758000   0.65775212   -7.4541183    841.04654  0.018650136  0.018107585           10 
 3759000   0.64362532   -7.4414136     839.2607  0.018605584  0.018102046            6 
 3760000   0.64089901   -7.4365711    841.01591  0.018639537  0.018096513           11 
 3761000   0.65540074   -7.4400438    841.33602  0.018641674  0.018090966           18 
 3762000   0.64311081   -7.4601862    840.99154  0.018629088  0.018085417           30 
 3763000   0.64264159    -7.458536    840.87983  0.018621663  0.018079872           17 
 3764000   0.64753137   -7.4546207    839.76086  0.018591943  0.018074329           24 
 3765000   0.64674868   -7.4527357    838.18524   0.01855213  0.018068788           13 
 3766000   0.64441587   -7.4635356    839.87488  0.018584592  0.018063262            8 
 3767000   0.65666147   -7.4438403    840.11862   0.01858505  0.018057727           25 
 3768000   0.64398405   -7.4408193    838.92662  0.018553756  0.018052196           14 
 3769000   0.64920805   -7.4477228    839.96872  0.018571874  0.018046662           25 
 3770000   0.64900917   -7.4476338    838.83803  0.018541955  0.018041122            9 
 3771000   0.65011779   -7.4345836    839.57292  0.018553278  0.018035594            9 
 3772000   0.65230692   -7.4539805    840.34457  0.018565407  0.018030056           12 
 3773000   0.63698357   -7.4530735    839.86587  0.018549913  0.018024516            8 
 3774000   0.64685365    -7.459855    839.54022  0.018537807  0.018018971           13 
 3775000   0.64684113   -7.4546234    841.28972  0.018571517  0.018013424           13 
 3776000   0.66332667    -7.458396    840.41294  0.018547249   0.01800788           14 
 3777000   0.64711213   -7.4409589    838.76572  0.018505995  0.018002337            7 
 3778000   0.65556605   -7.4486461    839.76345  0.018523104    0.0179968           24 
 3779000   0.65147657    -7.461454     840.2567   0.01852908   0.01799127           14 
 3780000   0.64832308   -7.4464062    841.07265  0.018542166  0.017985724           22 
 3781000   0.64420858   -7.4785938     838.4477  0.018479408  0.017980183           24 
 3782000   0.66276878   -7.4482971     839.5296  0.018498361  0.017974642           12 
 3783000   0.62555825   -7.4780045    840.07335  0.018505449  0.017969104           11 
 3784000   0.65145697   -7.4231681    841.25856   0.01852666  0.017963572            7 
 3785000   0.64095953   -7.4502823    838.92709  0.018470434  0.017958035           38 
 3786000   0.64333415    -7.441807    839.99618  0.018489086  0.017952495           15 
 3787000   0.64438553   -7.4537094    841.10556  0.018508616  0.017946949            6 
 3788000   0.66176812   -7.4702718    838.47964  0.018445962  0.017941404           14 
 3789000   0.64490091   -7.4606239    840.66212  0.018489094  0.017935855           18 
 3790000   0.62840898   -7.4581249    839.52823  0.018459284  0.017930307           22 
 3791000   0.64743933   -7.4615037    840.43486  0.018474344  0.017924772           19 
 3792000   0.65197681   -7.4553535    840.01077  0.018460152   0.01791925           12 
 3793000   0.63846512   -7.4516586     840.2168  0.018459812  0.017913723           12 
 3794000   0.65303987   -7.4764551    840.08245  0.018451996  0.017908199           11 
 3795000   0.65708687    -7.479478    838.77806  0.018418491  0.017902665           14 
 3796000   0.63682237   -7.4832913    839.58996  0.018431462  0.017897134           14 
 3797000   0.63435063   -7.4564035    839.37475  0.018421885  0.017891597           29 
 3798000   0.65294279   -7.4501076    840.62912  0.018444557   0.01788608           13 
 3799000   0.65987397   -7.4639575    839.28003  0.018410109  0.017880553           14 
 3800000   0.64589767   -7.4542229    839.21474  0.018403832  0.017875027           22 
 3801000   0.64345216   -7.4362829    840.01192  0.018416468  0.017869511           19 
 3802000    0.6391027   -7.4691953    839.19643   0.01839375  0.017863993           21 
 3803000   0.63994871   -7.4595027    838.52552  0.018374212  0.017858483           19 
 3804000   0.63853205   -7.4410211    840.40646  0.018410587  0.017852978           15 
 3805000   0.64551402   -7.4584096    843.23672  0.018467734  0.017847491           27 
 3806000   0.63198862    -7.457748    841.10644  0.018416238  0.017842011           29 
 3807000   0.62814672    -7.455528    839.29735  0.018371801  0.017836516           15 
 3808000    0.6535279   -7.4346585     840.9108  0.018402285  0.017831024           16 
 3809000   0.64033134   -7.4478491    839.38447   0.01836406  0.017825528           24 
 3810000   0.63925434    -7.439863    841.17637  0.018398433  0.017820038           11 
 3811000   0.64276449   -7.4527449    840.63564  0.018381782  0.017814561           14 
 3812000   0.64037422   -7.4684857    840.39844  0.018371774  0.017809079           18 
 3813000   0.66329729   -7.4452305    841.50545   0.01839115  0.017803588           18 
 3814000   0.63999858   -7.4833444    838.94581  0.018330401  0.017798103           32 
 3815000   0.64514608   -7.4583655    839.30301  0.018333399  0.017792605           14 
 3816000   0.64056824   -7.4711351     839.4657  0.018332147  0.017787103           24 
 3817000   0.64324716   -7.4759029    840.39821  0.018347703  0.017781594           13 
 3818000   0.62553602   -7.4605797    840.53875  0.018345965  0.017776099           13 
 3819000   0.63997703   -7.4581162    841.22824  0.018356207  0.017770602           16 
 3820000   0.63978489    -7.463184    840.72053  0.018340326  0.017765094           11 
 3821000   0.65145026   -7.4594694    838.78645  0.018293345  0.017759595           17 
 3822000   0.64105524   -7.4313911    839.48179   0.01830372  0.017754097           24 
 3823000   0.62787017   -7.4694016    840.86685  0.018329123  0.017748607           15 
 3824000   0.63439246   -7.4601744    839.11502  0.018286154  0.017743125           18 
 3825000   0.64007486   -7.4516156    840.67951  0.018315458  0.017737617           24 
 3826000   0.64187456   -7.4487506    839.87608  0.018293171  0.017732112           21 
 3827000   0.63796871   -7.4625001    838.94231  0.018268058  0.017726598           32 
 3828000   0.62905947   -7.4515332    838.59659   0.01825576  0.017721083           15 
 3829000   0.63603809    -7.456562    838.23858  0.018243201  0.017715569            8 
 3830000   0.63763158   -7.4880266    838.28181  0.018239378  0.017710063           13 
 3831000   0.65105773   -7.4600367    839.53748  0.018261931  0.017704554           12 
 3832000   0.64891573    -7.475469    837.77834   0.01821891  0.017699044           10 
 3833000    0.6489782   -7.4725415    838.60448  0.018232118  0.017693536            9 
 3834000   0.64607278   -7.4977499     838.4471  0.018223942  0.017688021           12 
 3835000   0.65374992   -7.4609291    838.56457  0.018221742   0.01768252           10 
 3836000   0.62378671   -7.4813568     838.6588  0.018219039  0.017677011           19 
 3837000   0.64576835   -7.4845177    838.79716  0.018217296  0.017671501           17 
 3838000   0.62969266   -7.5081437    837.13453  0.018176449  0.017665991           28 
 3839000   0.63021066   -7.4826798    839.12672  0.018214959  0.017660478           22 
 3840000   0.63664614   -7.4750575    837.65429  0.018178261  0.017654957           24 
 3841000   0.63533692   -7.5091559    837.74209  0.018175434  0.017649442           32 
 3842000   0.62773662   -7.4986923    840.29256  0.018226023   0.01764393           15 
 3843000    0.6410371   -7.4933824    838.39853  0.018180209  0.017638425           13 
 3844000   0.63526936   -7.4786296    836.94086  0.018143879  0.017632918           35 
 3845000   0.64044393   -7.4751082    840.04987  0.018206542  0.017627428           12 
 3846000   0.62264709    -7.486499    837.48569  0.018146249  0.017621937           42 
 3847000   0.63788193   -7.4670989    837.55472  0.018143027  0.017616437           29 
 3848000    0.6471256   -7.4695783    839.06482  0.018171016  0.017610947           22 
 3849000   0.63859074   -7.4766744    839.65691  0.018179114  0.017605454           18 
 3850000   0.62913381   -7.4689852    838.67209  0.018153075  0.017599961           15 
 3851000   0.62787184   -7.4798346    839.48423  0.018165936  0.017594483           27 
 3852000   0.63714277   -7.4598774      838.806  0.018146547  0.017588998           23 
 3853000   0.63151028   -7.5001167     839.1739  0.018149795  0.017583516            8 
 3854000   0.63613149   -7.4996337    839.42803   0.01815058  0.017578044           16 
 3855000   0.63182992   -7.4926891    837.97208  0.018114399  0.017572562           14 
 3856000   0.63968875   -7.4799214    837.26669  0.018094456  0.017567079           13 
 3857000   0.64203806    -7.477433    838.64228  0.018119486  0.017561591           15 
 3858000   0.65299588   -7.5038229    837.33927  0.018086644  0.017556111           26 
 3859000   0.63896948    -7.489971    838.92166  0.018116128  0.017550615           27 
 3860000   0.63591265   -7.4970264    838.80272  0.018108867  0.017545128           18 
 3861000   0.64463869   -7.4993879    838.20912  0.018091365  0.017539652           18 
 3862000   0.64462083   -7.5173523    839.19852   0.01810803  0.017534173           39 
 3863000   0.63160862    -7.477221    839.01303   0.01809934  0.017528698           33 
 3864000   0.62762758   -7.4692064    839.72282  0.018109964  0.017523235           11 
 3865000   0.62416001   -7.4927761    837.05683  0.018047797  0.017517772           23 
 3866000   0.63361614   -7.4719075    838.62488  0.018076929  0.017512303           14 
 3867000   0.63869561   -7.4792268    839.11073  0.018082724   0.01750684           10 
 3868000   0.63304198    -7.484143    839.28789  0.018081866  0.017501388           25 
 3869000   0.61939879   -7.4895171    840.87587  0.018111395  0.017495929           19 
 3870000   0.63789272   -7.4893668     840.0605  0.018089158  0.017490484           22 
 3871000   0.63702182   -7.4989602      838.254  0.018045596  0.017485029           32 
 3872000    0.6341403   -7.4900549    838.98495  0.018056666  0.017479574           11 
 3873000   0.63115145   -7.4701033    838.00554  0.018030931  0.017474113           24 
 3874000   0.64587773   -7.4865696    839.61675  0.018060935  0.017468672           18 
 3875000    0.6366191   -7.5092447    839.86585  0.018061631  0.017463221           16 
 3876000   0.62619414   -7.4848662    839.44821  0.018047992  0.017457762           18 
 3877000   0.61427595   -7.4916563    839.45651  0.018043515  0.017452317           25 
 3878000   0.63085283    -7.474374    839.04035   0.01802992  0.017446882           10 
 3879000   0.63791895   -7.4814057    839.42296  0.018033491  0.017441443           17 
 3880000   0.62740287   -7.4793408    838.72033  0.018013753   0.01743601           17 
 3881000   0.64152773   -7.4706959    840.47275  0.018046739  0.017430582           20 
 3882000   0.62797201   -7.4809434    839.28534  0.018016601  0.017425161           20 
 3883000   0.63876743   -7.4699597    838.38427  0.017992623  0.017419738           11 
 3884000   0.64329889   -7.4990065    838.69699    0.0179947  0.017414317           15 
 3885000   0.63292399    -7.494214    839.15622  0.017999919  0.017408895           14 
 3886000   0.62303248   -7.5049054    838.82748  0.017988237  0.017403464           14 
 3887000   0.62690981   -7.4932966    839.29482  0.017993629  0.017398029           19 
 3888000   0.63863407   -7.4847075     838.4861  0.017971667  0.017392608            8 
 3889000   0.63971324   -7.4767816    837.24607  0.017940475  0.017387169           10 
 3890000   0.63113747   -7.4902601    838.61122  0.017965108  0.017381745            9 
 3891000   0.64783016   -7.4835317    839.05468  0.017969988  0.017376323            7 
 3892000   0.63725027   -7.4781763    838.57628  0.017955128  0.017370898            6 
 3893000   0.63722437   -7.4893499    839.49737  0.017970232  0.017365485            9 
 3894000   0.62452866   -7.4789024    839.93827  0.017975053  0.017360081           14 
 3895000    0.6191232   -7.4965989    840.49817  0.017982417  0.017354683           11 
 3896000   0.61990538   -7.5024061    839.30035  0.017952181  0.017349271           18 
 3897000   0.62673696   -7.5006068    839.95957  0.017961671  0.017343878            7 
 3898000   0.63681066   -7.5001813    840.75566  0.017974082  0.017338474           14 
 3899000   0.63990788    -7.489133    838.67086  0.017924914  0.017333078           13 
 3900000   0.63821963   -7.4824781    840.35958  0.017956401  0.017327688            9 
 3901000   0.62448156   -7.4944641    839.32312  0.017929657  0.017322299           18 
 3902000    0.6191242   -7.4877653    838.48307  0.017907122  0.017316916           22 
 3903000   0.63143802     -7.49828    839.02418  0.017914087  0.017311534           16 
 3904000   0.63934811   -7.4711384    839.51842  0.017920048  0.017306155            8 
 3905000   0.63142307   -7.5116521    840.21794  0.017930387  0.017300775            7 
 3906000   0.62637127   -7.4878278    838.93055  0.017898331  0.017295386           15 
 3907000   0.63391944   -7.4898423     840.1906  0.017920625  0.017289996           28 
 3908000   0.62586421   -7.4908943    840.19333  0.017916098  0.017284612           13 
 3909000   0.63502146   -7.4962059    838.80052  0.017881822  0.017279219           10 
 3910000    0.6352695   -7.4886458    840.61033  0.017915821  0.017273838           13 
 3911000   0.63063169    -7.513686    838.63669  0.017869187  0.017268459           24 
 3912000   0.62740592   -7.4908266    839.81899  0.017889805  0.017263079            8 
 3913000   0.63962666   -7.4897362    839.69374  0.017882565  0.017257701           12 
 3914000   0.61454456   -7.5021136    839.08723  0.017865083  0.017252326            6 
 3915000   0.62537476   -7.4904844    838.86175  0.017855721  0.017246956           11 
 3916000   0.60471448   -7.4949487    839.99909  0.017875364  0.017241589           20 
 3917000   0.62836765   -7.5013291    838.67823  0.017842699  0.017236209           16 
 3918000   0.61998489   -7.5087794    839.25816   0.01785048  0.017230835           17 
 3919000   0.62399874    -7.527317    839.64953  0.017854247  0.017225448           18 
 3920000   0.62369207   -7.5115909    839.33504  0.017843007  0.017220068           15 
 3921000   0.60967868   -7.5085563    839.05422  0.017832488  0.017214677           12 
 3922000   0.63188857   -7.4913416    838.87572  0.017824148  0.017209299           11 
 3923000    0.6307607    -7.482634    837.52677   0.01779095  0.017203935           13 
 3924000   0.63966635   -7.5180711    840.39002  0.017847223  0.017198566           16 
 3925000   0.62656584   -7.5066217    839.39711  0.017821595  0.017193208           23 
 3926000   0.62344875   -7.5022615    838.05546  0.017788577  0.017187827           16 
 3927000   0.62538183   -7.5003645    838.65313   0.01779673  0.017182465           39 
 3928000   0.62255682   -7.4851416    840.29855  0.017827108  0.017177116            9 
 3929000   0.62781327   -7.4797068    841.14954   0.01784062  0.017171766           12 
 3930000   0.61541458   -7.4952988     839.8746  0.017809046  0.017166414           28 
 3931000   0.61027168   -7.5017917     839.0797  0.017787664   0.01716106           21 
 3932000   0.62397388   -7.5016072    838.76955  0.017776567  0.017155707           37 
 3933000   0.62369584   -7.4956243    839.24988  0.017782225  0.017150346           25 
 3934000   0.63185966   -7.4992994    838.40664  0.017759842  0.017144995           39 
 3935000    0.6240197   -7.5221188    837.25262   0.01773089  0.017139634           57 
 3936000   0.63186231   -7.4879919    838.27628  0.017748058  0.017134289           29 
 3937000   0.62643667   -7.4800439    839.50425  0.017769542  0.017128944           28 
 3938000   0.62556787   -7.5064139     838.0424  0.017734095  0.017123608           26 
 3939000   0.62498318   -7.4831632    840.44703  0.017780465  0.017118278           23 
 3940000    0.6202251   -7.5055409    839.65869  0.017759279  0.017112956           34 
 3941000   0.62273601   -7.4891832    841.25745  0.017788578  0.017107626           35 
 3942000   0.61691124   -7.5073966    839.65202  0.017750127  0.017102299           28 
 3943000   0.61074485   -7.4837102    840.05948  0.017754237  0.017096961           33 
 3944000      0.61949   -7.5005316    839.78691  0.017743976  0.017091633           45 
 3945000   0.62023898   -7.5077071    839.54415  0.017734351  0.017086286           50 
 3946000   0.61814961   -7.4934606    839.05254  0.017719474  0.017080947           18 
 3947000    0.6025921   -7.5048898    839.80447   0.01773086  0.017075609           27 
 3948000   0.60456591   -7.5065678    838.69842  0.017703023   0.01707027           31 
 3949000   0.62683644   -7.5203378    839.38177   0.01771296  0.017064933           44 
 3950000   0.60717821   -7.5180453    839.52545  0.017711507  0.017059595           34 
 3951000   0.62686611   -7.5269897     839.4186  0.017704771  0.017054263           31 
 3952000   0.61393478   -7.5183691    836.78558   0.01764477  0.017048927           55 
 3953000   0.62355543   -7.5136505    839.29296  0.017693165  0.017043594           21 
 3954000   0.62917258   -7.5307491    839.47379  0.017692501   0.01703826           25 
 3955000   0.61831828   -7.5215942    839.73312  0.017693492  0.017032929           58 
 3956000    0.6253186   -7.5163347    838.81232  0.017669622  0.017027591           32 
 3957000   0.63253431   -7.5027125    839.68086  0.017683448  0.017022257           44 
 3958000   0.62616949   -7.5118949    837.86993  0.017640853  0.017016932           51 
 3959000   0.61827301   -7.5036379     839.4437  0.017669523  0.017011605           42 
 3960000   0.61016733   -7.4955597    839.16667  0.017659231  0.017006292           36 
 3961000   0.61961702    -7.522268    838.73989  0.017645794  0.017000975           63 
 3962000   0.62665793   -7.4984904    838.40937  0.017634389  0.016995659           41 
 3963000   0.61505975   -7.5224807    838.54903  0.017632875  0.016990339           32 
 3964000   0.61930669   -7.5142921    837.77541  0.017612164  0.016985031           64 
 3965000    0.6266032   -7.5045689    839.89362  0.017652241  0.016979721           52 
 3966000   0.60525626   -7.4974846    839.34601  0.017636284  0.016974408           71 
 3967000   0.62062925   -7.5239932    838.87261  0.017621893  0.016969101           49 
 3968000   0.61423251   -7.5187658     837.2577  0.017583537  0.016963792           44 
 3969000   0.62711432   -7.5143651    840.28014  0.017642566  0.016958475           57 
 3970000   0.61401058   -7.5047252    838.48547  0.017600451  0.016953164           35 
 3971000   0.62463121   -7.5067181    837.85397  0.017582766  0.016947853           42 
 3972000   0.62703635   -7.5194528    839.69177  0.017616897  0.016942544           59 
 3973000   0.59808835   -7.5401786     838.6974  0.017591606  0.016937239           51 
 3974000   0.62443409    -7.533034     837.6938  0.017566134   0.01693193           47 
 3975000   0.62460798   -7.5090203    839.49534  0.017599483  0.016926623           34 
 3976000   0.61150524   -7.5255437     839.0384  0.017585479  0.016921319           45 
 3977000   0.62224737   -7.5244906    838.98605  0.017579961  0.016916015           48 
 3978000   0.60453043   -7.5272756    839.17756  0.017579553  0.016910716           58 
 3979000   0.61754472   -7.5402771    838.31566  0.017557084  0.016905422           36 
 3980000   0.62119506   -7.5211336    838.96826  0.017566337  0.016900127           36 
 3981000   0.61207293   -7.5467036    839.88086  0.017581028  0.016894837           43 
 3982000   0.60317496   -7.5233028    840.04336  0.017580013   0.01688955           45 
 3983000   0.61732157    -7.513401    838.54442  0.017544238  0.016884258           78 
 3984000   0.60134495   -7.5027525    840.66455  0.017584182  0.016878972          130 
 3985000   0.60244068   -7.5458208    839.71888  0.017559993  0.016873695           82 
 3986000   0.61276941   -7.5043028     839.1087  0.017542831   0.01686841           39 
 3987000   0.60709229   -7.5146902    837.34607   0.01750159  0.016863127           42 
 3988000   0.60997371   -7.5270582    838.95267  0.017530773  0.016857849           78 
 3989000   0.60862208   -7.4993812    838.22896  0.017511259  0.016852568           39 
 3990000    0.6148832   -7.5170918    839.85042  0.017540736  0.016847298           25 
 3991000   0.61254619   -7.5227021    839.84389  0.017536204  0.016842025           46 
 3992000   0.61131041   -7.5301215    837.68425  0.017486729  0.016836756           47 
 3993000   0.60978803   -7.5396857     838.1691  0.017492468  0.016831489           61 
 3994000   0.60360157   -7.5315489    839.10505  0.017507617  0.016826213           66 
 3995000   0.60963676   -7.5367195    838.17837  0.017483904  0.016820932           86 
 3996000   0.61165669     -7.52686    839.05706  0.017497853  0.016815655           65 
 3997000   0.61139598   -7.5126342    839.79891  0.017508942  0.016810385           67 
 3998000   0.60836744   -7.5364433     837.8028  0.017462956  0.016805111          119 
 3999000   0.62247942    -7.541128    838.73506  0.017478017   0.01679985           58 
 4000000   0.60016752   -7.5275045    839.37941  0.017487071  0.016794593           45 
 4001000   0.62547275   -7.5286882    839.83841   0.01749226  0.016789337           41 
 4002000    0.6132122   -7.5316393    838.36224  0.017457151   0.01678408           58 
 4003000   0.60430416   -7.5299363    838.62872  0.017458338  0.016778824           94 
 4004000   0.62233062   -7.5190551     837.3646  0.017427668  0.016773571           53 
 4005000   0.63290923   -7.5303918    839.55394  0.017468871   0.01676832           80 
 4006000     0.620279   -7.5388996     839.7632  0.017468863  0.016763064           68 
 4007000   0.60392302   -7.5145792     839.2491  0.017453812  0.016757817           84 
 4008000   0.61634104   -7.5480635    839.54177  0.017455543   0.01675256           57 
 4009000    0.6184397   -7.5358617    839.12742  0.017442576   0.01674731           51 
 4010000   0.61430217   -7.5316806    839.23818  0.017440527  0.016742059           97 
 4011000   0.59729083   -7.5361974    838.83605  0.017427825  0.016736814           52 
 4012000   0.59509859   -7.5299245    838.42879  0.017415021  0.016731569           42 
 4013000   0.62688283   -7.5478121    839.00417   0.01742263  0.016726326           52 
 4014000   0.61133067   -7.5401925    837.78914  0.017393065  0.016721085           46 
 4015000   0.59781804   -7.5531411    840.03012  0.017435245  0.016715836           36 
 4016000   0.61096819   -7.5408696    838.98883  0.017409297  0.016710597           62 
 4017000   0.61799576    -7.525919    838.89439  0.017403004   0.01670536           25 
 4018000   0.60058887   -7.5499592    839.15579  0.017404094  0.016700113           25 
 4019000   0.60783067   -7.5380389    840.06216  0.017418557  0.016694878           30 
 4020000   0.60570112   -7.5395253    840.02842  0.017413524  0.016689647           31 
 4021000   0.61008325   -7.5228062    838.85979  0.017384975  0.016684409           32 
 4022000   0.60653605    -7.541635    839.46526  0.017393197  0.016679167           22 
 4023000   0.61460585    -7.534671    838.55373  0.017369992  0.016673934           39 
 4024000   0.60668367   -7.5545018    838.06114  0.017355474  0.016668714           44 
 4025000   0.61204678   -7.5399102     838.8861  0.017368242  0.016663496           44 
 4026000   0.62211772   -7.5320591      838.299  0.017351776  0.016658271           49 
 4027000   0.61038205   -7.5507464    837.45701  0.017330043  0.016653033           85 
 4028000   0.59629558   -7.5336962    839.30446  0.017363962  0.016647814           41 
 4029000   0.59799371   -7.5473534    837.99046  0.017332474  0.016642604           29 
 4030000   0.61218679   -7.5500239    837.00601  0.017307817  0.016637388           23 
 4031000   0.60483579   -7.5284173    839.12051  0.017347236   0.01663217           56 
 4032000   0.61233736   -7.5292681    839.83912  0.017357786  0.016626956           41 
 4033000   0.59765021   -7.5389762    839.30134   0.01734237  0.016621745           38 
 4034000    0.6130194   -7.5504438    838.31075  0.017317608  0.016616526           51 
 4035000   0.60515879   -7.5368127    838.56029  0.017318469  0.016611307           49 
 4036000   0.59780211    -7.538664    838.34214  0.017309674  0.016606076           31 
 4037000   0.60195105   -7.5321361    839.65815  0.017332552  0.016600854           30 
 4038000   0.59508785   -7.5505914    837.75995  0.017289086  0.016595626           45 
 4039000   0.60682868   -7.5312029    838.07692  0.017291345  0.016590402           44 
 4040000   0.60666771   -7.5498889    839.17539  0.017309723  0.016585185           33 
 4041000    0.6022441    -7.537309    839.39868  0.017310044  0.016579982           36 
 4042000   0.60402895    -7.548981    838.80922  0.017293609  0.016574776           36 
 4043000   0.60884244   -7.5582274    837.56289  0.017263643  0.016569567           35 
 4044000    0.6021462   -7.5612957    837.69454  0.017262087  0.016564362           23 
 4045000   0.61661829   -7.5590854    836.63702  0.017236033  0.016559156           45 
 4046000    0.6022967   -7.5521721    838.49746  0.017270091  0.016553955           60 
 4047000   0.58992067   -7.5181197    838.11724  0.017257994  0.016548752           39 
 4048000   0.59033446   -7.5635581    838.63883  0.017264469  0.016543545           27 
 4049000   0.61582406   -7.5442444    837.60046  0.017238834  0.016538335           42 
 4050000    0.6067441   -7.5449362    838.70721   0.01725735  0.016533132           38 
 4051000   0.61152579   -7.5476075    838.73814  0.017253726  0.016527931           62 
 4052000   0.60071546   -7.5523186    839.19976  0.017258962   0.01652273           63 
 4053000   0.59233059    -7.536108    838.15244   0.01723317  0.016517547           40 
 4054000   0.60284022   -7.5479613    838.02652   0.01722633  0.016512356           51 
 4055000   0.61060722   -7.5394152    837.91505  0.017219791  0.016507163           60 
 4056000   0.59532577   -7.5601828     837.3731  0.017204411  0.016501966           44 
 4057000    0.6161642   -7.5642001    838.05622  0.017214202  0.016496768           35 
 4058000   0.61127935   -7.5418853    836.63428   0.01718076  0.016491572           27 
 4059000   0.60161192   -7.5348102    839.23598  0.017229941  0.016486389           34 
 4060000   0.58721907   -7.5560466    837.43907  0.017188815  0.016481208           23 
 4061000   0.60439755   -7.5575293    836.36893  0.017162623  0.016476023           53 
 4062000   0.61840787   -7.5286646    838.11257  0.017194169  0.016470837           32 
 4063000   0.60715776   -7.5725781    838.54317  0.017198769  0.016465662           37 
 4064000     0.599704   -7.5526263    838.30362  0.017189625  0.016460487           53 
 4065000   0.59464286   -7.5470298    837.49262   0.01716877    0.0164553           20 
 4066000     0.619581   -7.5561876    838.25456  0.017180164  0.016450116           24 
 4067000   0.61137229   -7.5566547    836.81069  0.017146355  0.016444942           37 
 4068000   0.61598037   -7.5609343    838.00587  0.017166623  0.016439759           16 
 4069000   0.61856245   -7.5424529    837.42432  0.017150494   0.01643458           42 
 4070000   0.61383744   -7.5391185    838.29124   0.01716403  0.016429418           23 
 4071000   0.59374831   -7.5749516    837.98173  0.017153479  0.016424252           37 
 4072000   0.59439274   -7.5337198    839.30986  0.017176446  0.016419091           23 
 4073000   0.60051521   -7.5289665     840.2634  0.017191738  0.016413942           32 
 4074000   0.59730507   -7.5380689    838.81871  0.017157967  0.016408791           25 
 4075000   0.60294745   -7.5363292    839.17478  0.017161038  0.016403639           56 
 4076000   0.59207716    -7.543659    839.03922  0.017154057  0.016398484           61 
 4077000   0.59267198   -7.5473389     839.3414  0.017156026  0.016393337           98 
 4078000   0.60112923   -7.5557189    838.76145  0.017139968  0.016388187           56 
 4079000   0.58669474   -7.5531329    838.61962  0.017132868  0.016383033           53 
 4080000   0.61079601   -7.5516707    836.91073  0.017093765  0.016377879           15 
 4081000   0.60989195   -7.5859814    837.45858  0.017100763  0.016372717           35 
 4082000   0.59839852   -7.5614755    838.47397  0.017117303  0.016367557           52 
 4083000   0.60010849   -7.5566184    837.90858  0.017101571  0.016362394           26 
 4084000   0.59900287   -7.5507777    837.74532  0.017094052  0.016357231           80 
 4085000   0.59240399   -7.5661286    836.23437  0.017059045  0.016352065           24 
 4086000   0.60396278   -7.5461972    838.37371  0.017098501  0.016346912           64 
 4087000   0.58137643   -7.5681762     837.1047  0.017068443   0.01634176           37 
 4088000   0.59328743   -7.5752541    837.33892  0.017069042  0.016336612           41 
 4089000   0.59281068   -7.5518376    837.65956  0.017071402  0.016331461           58 
 4090000   0.59261539   -7.5491361    837.29622  0.017059825  0.016326315           18 
 4091000   0.58763874   -7.5432984    835.62924  0.017021699  0.016321172           35 
 4092000   0.60181855   -7.5799752    837.00316  0.017045519  0.016316026           40 
 4093000   0.59139513   -7.5606989     838.4858  0.017071541  0.016310881           37 
 4094000   0.60819814   -7.5690248    838.33538  0.017064309  0.016305744           39 
 4095000   0.58975136   -7.5469593    838.49964  0.017063485   0.01630061           43 
 4096000    0.5924912   -7.5553489    837.52018  0.017039392  0.016295477           52 
 4097000   0.60282994   -7.5478562    838.43566  0.017053854  0.016290348          115 
 4098000   0.59297761   -7.5607442    839.45796  0.017070481  0.016285221           43 
 4099000    0.5795944   -7.5714821    838.88938  0.017054757  0.016280105           26 
 4100000   0.60936014   -7.5464184    838.60782  0.017044874  0.016274989           46 
 4101000   0.60992715   -7.5541759    838.28884  0.017034236  0.016269879           43 
 4102000   0.60070265   -7.5507505    839.75586  0.017059887  0.016264772           46 
 4103000   0.59782453   -7.5710303    837.89915  0.017018018  0.016259654           81 
 4104000   0.59467802    -7.570549     837.8809  0.017013501  0.016254539           77 
 4105000   0.58521145   -7.5583069    836.41474  0.016979593  0.016249419           27 
 4106000   0.60750381   -7.5723463    837.15847  0.016990552    0.0162443           55 
 4107000   0.59507147   -7.5498458    837.10784  0.016985388  0.016239175           89 
 4108000   0.58831146   -7.5615449    838.02517  0.016999861  0.016234052           54 
 4109000   0.59159057   -7.5751913    839.02383  0.017015978  0.016228943           65 
 4110000   0.57691691   -7.5497712    837.24545   0.01697578   0.01622383           64 
 4111000   0.59620035   -7.5741152    836.12757   0.01694899   0.01621872           95 
 4112000   0.58732245   -7.5689213     837.0942  0.016964458  0.016213608           77 
 4113000   0.60377084    -7.571217    837.22722  0.016963028  0.016208492           47 
 4114000   0.59051286   -7.5646833    838.21412  0.016978896  0.016203381          110 
 4115000   0.59354198   -7.5764824    837.70981  0.016964557  0.016198271           87 
 4116000   0.58567998   -7.5832306    838.05046  0.016967332  0.016193176           75 
 4117000   0.57058842   -7.5742184    838.33246  0.016968919   0.01618807           76 
 4118000   0.58698403   -7.5684379    838.59646   0.01697014  0.016182954           90 
 4119000   0.59898304   -7.5800371    838.84704   0.01697109   0.01617785           59 
 4120000   0.59283201   -7.5781437    838.17719  0.016953422   0.01617274           63 
 4121000   0.59086707   -7.5833866    837.69004  0.016939457  0.016167643           37 
 4122000   0.59671485   -7.5732803    837.23024  0.016926052  0.016162542           71 
 4123000   0.58779479   -7.5546043    835.35138  0.016883972  0.016157438           47 
 4124000   0.58856468   -7.5610499     837.2487  0.016918216   0.01615234           99 
 4125000   0.57676492   -7.5679812    836.08987  0.016890704  0.016147238           46 
 4126000   0.57634994   -7.5632832    835.88736   0.01688252  0.016142139          102 
 4127000    0.6020194   -7.5743879    837.87866  0.016918639  0.016137042           39 
 4128000   0.60175976   -7.5844345    837.60003  0.016908915  0.016131947           60 
 4129000    0.5970038   -7.5916916    837.62041  0.016905231   0.01612685           67 
 4130000    0.5773304   -7.5669965    838.18735  0.016912578  0.016121764           63 
 4131000   0.59697253   -7.5929036    837.48105  0.016894236  0.016116674           60 
 4132000   0.58505434   -7.5870275    837.36375  0.016887781  0.016111582           44 
 4133000   0.58520791   -7.5595087    837.01573  0.016876678    0.0161065           27 
 4134000   0.57759508   -7.5733111    837.55806  0.016883528  0.016101423           45 
 4135000    0.5980887   -7.5733689    837.73603  0.016883032  0.016096349           55 
 4136000   0.57944139   -7.5634972    837.32857   0.01687074  0.016091275           78 
 4137000   0.60284357   -7.5571795    837.94423  0.016879063    0.0160862           44 
 4138000   0.59836022   -7.5646966     838.1847  0.016879827  0.016081129           58 
 4139000   0.60232838     -7.58863    836.62095  0.016844265  0.016076061           39 
 4140000    0.6036437    -7.599165    836.92149  0.016846246  0.016070985           48 
 4141000    0.5950331   -7.5795161    837.50596  0.016853939  0.016065914           52 
 4142000   0.59954984    -7.585727    838.56644  0.016871206  0.016060842           75 
 4143000   0.58337921   -7.5906967    836.61018  0.016827785  0.016055768           60 
 4144000    0.5825467    -7.597643    837.54999  0.016842624  0.016050704           90 
 4145000   0.59536614   -7.5943183     837.1654  0.016830828   0.01604564           71 
 4146000   0.58377355   -7.5892716    837.16157  0.016826692  0.016040576           79 
 4147000   0.59444783   -7.5703859     836.6638  0.016812632  0.016035511           96 
 4148000   0.57762294   -7.5763885    836.28597  0.016800988  0.016030448           87 
 4149000   0.58991845   -7.5882632    837.89585  0.016829273  0.016025383           78 
 4150000   0.58936096   -7.5942756    837.50299  0.016817329  0.016020316          101 
 4151000   0.58788472   -7.5937381    837.18229   0.01680684  0.016015252          127 
 4152000   0.58429472   -7.5821558    836.83381  0.016795797  0.016010187          128 
 4153000   0.59192952    -7.584375    838.36427  0.016822463  0.016005124           77 
 4154000   0.58697104   -7.5778257    837.18001  0.016794656  0.016000068           91 
 4155000   0.56978922   -7.6039865    838.38915  0.016814865  0.015995005           72 
 4156000   0.59566606   -7.5787315    838.02551  0.016803527  0.015989944           74 
 4157000   0.58639163   -7.5872851    837.52325  0.016789416  0.015984887           46 
 4158000   0.58506745     -7.58913    837.13769  0.016777651  0.015979834           92 
 4159000   0.57872164   -7.5772126    838.82169  0.016807359  0.015974789           58 
 4160000   0.57367831   -7.5768643    837.38959  0.016774631  0.015969751           88 
 4161000   0.58057224   -7.5686808    836.03591  0.016743489  0.015964709           95 
 4162000   0.60571905   -7.5877253    836.29143  0.016744583  0.015959663           80 
 4163000     0.583262   -7.6031127    837.59236  0.016766602  0.015954618          140 
 4164000   0.59263025   -7.6011837    836.84564  0.016747631  0.015949576           58 
 4165000   0.58041613   -7.5819847    837.59803  0.016758664  0.015944529           46 
 4166000   0.59258989   -7.5833061    836.65651  0.016735808  0.015939482           43 
 4167000   0.58183441   -7.5810325    838.20255   0.01676271  0.015934438           68 
 4168000    0.5888854   -7.5931262    835.31403  0.016700936  0.015929393           61 
 4169000   0.58024867   -7.6138981    837.00487  0.016730728  0.015924344           48 
 4170000   0.58214904   -7.6110366     836.7531  0.016721685  0.015919304           80 
 4171000   0.58305839   -7.5926211    836.65446  0.016715705  0.015914254           98 
 4172000   0.57412334   -7.5993108    836.70975  0.016712803  0.015909213          115 
 4173000   0.59338659   -7.6062291    837.80511  0.016730672  0.015904164           73 
 4174000   0.58922975   -7.6076718    836.58964  0.016702397   0.01589912           83 
 4175000   0.58277139   -7.6032606    836.65351  0.016699671  0.015894075          137 
 4176000   0.57409911   -7.6195872    837.43207  0.016711208  0.015889036           74 
 4177000    0.5870197   -7.5905593    836.13356  0.016681302  0.015883999           91 
 4178000   0.59175923   -7.6068885    835.10088  0.016656711  0.015878973           96 
 4179000   0.58432026   -7.5960258     836.1393  0.016673433  0.015873946           64 
 4180000   0.58204794   -7.5815046    835.59451  0.016658583  0.015868922           82 
 4181000   0.56962042   -7.6040735     837.4164  0.016690911  0.015863905           96 
 4182000   0.58300875    -7.593199    836.66618  0.016671971  0.015858885           52 
 4183000   0.58959575   -7.6109732    837.43089   0.01668322  0.015853864          161 
 4184000   0.58479648   -7.6013184    835.80063  0.016646762  0.015848841           99 
 4185000   0.58692747   -7.6072843    837.08739  0.016668407  0.015843825          120 
 4186000   0.58440078   -7.6026225    835.58303  0.016634477  0.015838802           76 
 4187000   0.57638679   -7.6029066    836.64693  0.016651678  0.015833782           70 
 4188000   0.57327119   -7.6131765    835.57511  0.016626375  0.015828758           69 
 4189000    0.5815704   -7.6072467    835.98551   0.01663057  0.015823735           76 
 4190000   0.56413437    -7.617373    836.36215  0.016634092   0.01581872           73 
 4191000   0.58707938   -7.5824427        835.8  0.016618945  0.015813708          100 
 4192000   0.59234107   -7.6204586    836.49516    0.0166288  0.015808698          134 
 4193000    0.5770853   -7.6087309    837.09164  0.016636689  0.015803689           81 
 4194000   0.57417986   -7.6092117    836.32082  0.016617406  0.015798677           65 
 4195000    0.5771632   -7.6131308     834.0416  0.016568169  0.015793663          105 
 4196000   0.58584759    -7.583443    835.47802  0.016592747  0.015788653           73 
 4197000   0.58792728   -7.6100044    836.87543   0.01661654  0.015783641           98 
 4198000   0.57407232   -7.6011964    836.03675  0.016595933  0.015778629           51 
 4199000   0.57969037   -7.5905212    836.82254  0.016607576  0.015773623           60 
 4200000   0.58452954   -7.5971615    835.21508  0.016571728  0.015768614          137 
 4201000   0.56779181   -7.6113473    836.14341  0.016586198  0.015763609          137 
 4202000   0.58145258    -7.629723    835.79548  0.016575351  0.015758603           80 
 4203000   0.59044452   -7.6157036    835.76785  0.016570859  0.015753605           58 
 4204000   0.56918061   -7.6082885    837.94926  0.016610158  0.015748605           45 
 4205000   0.57542648   -7.6183419    836.47704  0.016577032  0.015743606           66 
 4206000   0.56187894   -7.6254322     834.8517  0.016540888  0.015738601           99 
 4207000   0.58328842   -7.5960448    836.78219  0.016575196  0.015733599           65 
 4208000   0.56914661   -7.6019075    836.16804  0.016559095  0.015728599          100 
 4209000   0.59290115   -7.6016735     835.8758  0.016549374  0.015723602           58 
 4210000   0.59241862   -7.6201614    835.39816  0.016535989  0.015718607           84 
 4211000   0.58016087   -7.6046605    835.22408  0.016528617  0.015713612           66 
 4212000   0.58018617   -7.6135451    833.46025  0.016489796  0.015708614           92 
 4213000   0.56765532   -7.6278943    835.70259  0.016530236  0.015703623          119 
 4214000   0.57268482   -7.6158432    836.31071  0.016538339  0.015698634           76 
 4215000   0.58447954   -7.6234707    835.78464  0.016524014  0.015693652           67 
 4216000   0.56327684   -7.6149692    836.97813  0.016543685  0.015688661           62 
 4217000   0.57900792   -7.6180746    835.71806  0.016514862  0.015683672           58 
 4218000   0.56829024   -7.6081412    835.82657   0.01651309  0.015678683          117 
 4219000    0.5775865   -7.6156796    835.00068  0.016492863  0.015673695          104 
 4220000   0.58474777    -7.625647    836.01135  0.016508913  0.015668706          119 
 4221000   0.57661473    -7.617099    835.40689  0.016493068  0.015663724          106 
 4222000    0.5756572    -7.624594    835.77329  0.016496394  0.015658747          126 
 4223000   0.58228913   -7.6226316    835.78105  0.016492641  0.015653768           95 
 4224000   0.58403362   -7.6298978    835.66417   0.01648643   0.01564879          128 
 4225000   0.57743659   -7.6213607    835.33716  0.016476078  0.015643806           56 
 4226000   0.57294083   -7.6084549     834.9391   0.01646433  0.015638822           92 
 4227000   0.57598728   -7.6330667     835.0292  0.016462211  0.015633847          100 
 4228000   0.58393883   -7.6153377    836.74784  0.016492192  0.015628875          180 
 4229000   0.57943438   -7.6143012    835.10898  0.016455998    0.0156239          138 
 4230000   0.58252059   -7.6196618    834.69423  0.016443937  0.015618923          101 
 4231000   0.56701392   -7.6292432    833.95232  0.016425438  0.015613951           82 
 4232000   0.57345729   -7.6220292     835.7698  0.016457345  0.015608982          109 
 4233000   0.57364574    -7.613615    834.83316  0.016435018  0.015604008          181 
 4234000   0.57351672   -7.6241616    834.81114  0.016430703  0.015599047          227 
 4235000   0.57776177   -7.6121193    834.63076  0.016423274  0.015594089          104 
 4236000   0.58789654   -7.6117878    836.29605  0.016452157  0.015589135          125 
 4237000   0.56284571   -7.6336904    836.48499   0.01645199  0.015584179           95 
 4238000   0.57781173   -7.6106542    836.91238  0.016456512  0.015579228          125 
 4239000   0.58717831   -7.6083926    835.48608  0.016424591  0.015574279          159 
 4240000   0.59498139    -7.610654    835.82412  0.016427361  0.015569333          129 
 4241000   0.56810698   -7.5994709    836.29142   0.01643267  0.015564389          107 
 4242000   0.56574612   -7.6200159    834.69461  0.016397427  0.015559453          123 
 4243000   0.56779059   -7.6290846    836.29738  0.016425041  0.015554508          101 
 4244000   0.57106281   -7.6289762     836.7624  0.016430302  0.015549557          114 
 4245000   0.57522027   -7.6108381     836.7482  0.016426152  0.015544618           99 
 4246000   0.57349408   -7.6095762    836.11272  0.016409812  0.015539684          147 
 4247000   0.56108684   -7.6422303    835.90521  0.016401876  0.015534747          130 
 4248000   0.57631178   -7.6407069    834.42309   0.01636894  0.015529809          118 
 4249000   0.56924354   -7.6315984    835.03184  0.016377027  0.015524873          121 
 4250000   0.56056157   -7.6185382    834.71802   0.01636702  0.015519938          118 
 4251000   0.57988668    -7.628419      836.171  0.016391653  0.015515007          160 
 4252000   0.57092565   -7.6331798    836.50922  0.016394427  0.015510075           77 
 4253000   0.57007695   -7.6257733    836.29684   0.01638641  0.015505144          111 
 4254000   0.56865358   -7.6357556      837.001  0.016396352  0.015500215           99 
 4255000    0.5581112    -7.625197     835.4507  0.016362137  0.015495287           87 
 4256000   0.56462084   -7.6152177    836.05561  0.016370137  0.015490357          135 
 4257000    0.5618509    -7.636481    836.32913  0.016371645  0.015485437           94 
 4258000   0.57008436    -7.623586    836.72632  0.016375574  0.015480515           45 
 4259000    0.5728645   -7.6334942    837.07106  0.016378474  0.015475591          130 
 4260000   0.55788133    -7.622817    836.20344  0.016357657  0.015470669          115 
 4261000   0.57030326   -7.6480118    836.34214  0.016356531  0.015465753          117 
 4262000   0.58056513    -7.640005    836.34664  0.016352781  0.015460835          145 
 4263000   0.57935102   -7.6320324    836.42748  0.016350525   0.01545591          130 
 4264000   0.57673781   -7.6338101    836.13658  0.016341006  0.015450995           64 
 4265000   0.55494116   -7.6288564    835.95851  0.016333695  0.015446079           99 
 4266000   0.56904072   -7.6298117    835.95025  0.016329705   0.01544117          122 
 4267000   0.55519494   -7.6318282    835.44249  0.016315962   0.01543626          117 
 4268000   0.58169836   -7.6291459    835.45129   0.01631231  0.015431354           78 
 4269000    0.5800703   -7.6367976    835.12928  0.016302204  0.015426449          155 
 4270000   0.56534672   -7.6155678    835.10109  0.016297835  0.015421542          129 
 4271000   0.56958166   -7.6334896    836.03848  0.016312309  0.015416635          100 
 4272000   0.57042473   -7.6312278    837.23872  0.016331904  0.015411727          107 
 4273000   0.56050807   -7.6291985    835.30655    0.0162904  0.015406825          144 
 4274000   0.57675281   -7.6432463    836.06383  0.016301354  0.015401931          161 
 4275000   0.55830277   -7.6233295    834.78303  0.016272574  0.015397037          142 
 4276000    0.5735776   -7.6340661    836.86998   0.01630944  0.015392147          159 
 4277000   0.56410967   -7.6225489    834.45548  0.016258582  0.015387253          139 
 4278000   0.57219438   -7.6481284    833.60179  0.016238152  0.015382359          153 
 4279000   0.57268835   -7.6119751    834.97672  0.016261134  0.015377464          141 
 4280000   0.58185333   -7.6362194    834.42313  0.016246556  0.015372576          138 
 4281000   0.56152922   -7.6397398    834.51225  0.016244496  0.015367687          129 
 4282000   0.55007896   -7.6374341    834.35358  0.016237614    0.0153628          125 
 4283000   0.56489278   -7.6468945    835.17179  0.016249743  0.015357909          157 
 4284000   0.57336798   -7.6224943    835.09589  0.016244473  0.015353026          146 
 4285000   0.57132234   -7.6371006    835.09882  0.016240739  0.015348142           53 
 4286000   0.56502573   -7.6423156    834.94596  0.016233978   0.01534326          142 
 4287000   0.56084661   -7.6258499    833.94527  0.016210739  0.015338384          182 
 4288000   0.56714573   -7.6351533      833.855  0.016205204   0.01533351          156 
 4289000   0.56010078   -7.6464251    834.91786  0.016222077  0.015328637          169 
 4290000   0.56866602   -7.6278457    835.33354   0.01622637  0.015323773          108 
 4291000   0.56757996   -7.6344956    835.20406  0.016220074    0.0153189          151 
 4292000   0.56799411   -7.6406535    834.53594  0.016203323  0.015314034          120 
 4293000   0.55948808   -7.6537999    834.86717  0.016205978  0.015309166          108 
 4294000   0.56216784   -7.6222429    836.38936  0.016231745  0.015304299          145 
 4295000   0.57330206   -7.6470026    833.78666  0.016177467  0.015299435           65 
 4296000   0.55691027   -7.6232347    834.86261  0.016194573  0.015294572           93 
 4297000   0.56789127   -7.6262666    833.78808  0.016169965  0.015289706          161 
 4298000   0.56740223   -7.6494373    835.39906  0.016197438   0.01528485          109 
 4299000   0.57118216   -7.6579029    835.68238  0.016199162  0.015279989          111 
 4300000    0.5633534   -7.6273363    835.06371  0.016183405   0.01527513           44 
 4301000   0.56253074   -7.6422821    835.20168  0.016182316  0.015270277          163 
 4302000   0.54911779   -7.6357701    834.74494  0.016169707  0.015265425           57 
 4303000   0.56481299    -7.621719    835.65474  0.016183569  0.015260577          135 
 4304000   0.56419525   -7.6447809    836.00042  0.016186501  0.015255728           87 
 4305000   0.56508294    -7.640029    834.85514  0.016160572  0.015250881           70 
 4306000    0.5618172   -7.6393595    835.24487  0.016164361  0.015246044          125 
 4307000   0.55801687   -7.6433702    833.68411   0.01613041  0.015241198          157 
 4308000    0.5531617    -7.617685     835.7379  0.016166394  0.015236363           93 
 4309000   0.57895704   -7.6394372    835.70368   0.01616198   0.01523152           86 
 4310000   0.56841182   -7.6566841    834.41249  0.016133266  0.015226682          125 
 4311000   0.55996458   -7.6464479    834.74479  0.016135947  0.015221838          190 
 4312000   0.56697601   -7.6596063     836.1008  0.016158411     0.015217          168 
 4313000   0.56012936   -7.6246738    835.19601  0.016137182   0.01521216          161 
 4314000   0.56641991   -7.6480196    834.73995  0.016124632  0.015207316          183 
 4315000   0.55528723   -7.6532474    835.53249  0.016136201  0.015202475           87 
 4316000   0.56651451   -7.6332423     835.0107  0.016122388  0.015197643          163 
 4317000   0.56759932   -7.6425058    835.47135  0.016127545  0.015192814          120 
 4318000   0.55901757   -7.6265336    834.48351  0.016104746  0.015187984           75 
 4319000   0.56058168   -7.6430123    833.97778  0.016091259  0.015183153          110 
 4320000   0.56762193   -7.6416599    834.58173  0.016099185  0.015178313           60 
 4321000   0.55394207   -7.6337816    834.10276  0.016086221  0.015173482           49 
 4322000   0.55704196   -7.6246916    835.20405  0.016103734  0.015168657           72 
 4323000   0.55577301    -7.652698    834.66139  0.016089548  0.015163836          162 
 4324000   0.56013324    -7.642871     833.5201  0.016063832   0.01515901          223 
 4325000   0.55444678   -7.6421562    835.37803  0.016095916  0.015154189           54 
 4326000   0.57066717   -7.6460631    835.07043   0.01608627  0.015149368           62 
 4327000   0.56510819   -7.6524427    833.76685  0.016057446  0.015144547          177 
 4328000   0.54681254   -7.6521448    833.76701  0.016053739  0.015139737           76 
 4329000   0.56203386   -7.6471813    833.33929  0.016041797  0.015134922          154 
 4330000   0.56383446    -7.630138    835.83796  0.016086181  0.015130116          136 
 4331000   0.56745902    -7.633925    834.47793  0.016056298  0.015125307           57 
 4332000   0.57034182   -7.6495545    833.50378  0.016033852  0.015120501          116 
 4333000   0.55978734    -7.648952    834.40481  0.016047481  0.015115694          158 
 4334000   0.55085507   -7.6459306    833.95371  0.016035104  0.015110893           84 
 4335000   0.56545994   -7.6470454    835.39349  0.016059083  0.015106094          153 
 4336000   0.54875506   -7.6193969    834.86529  0.016045228  0.015101299           75 
 4337000   0.55748987   -7.6363587    834.98918  0.016043909  0.015096507          185 
 4338000   0.56382885   -7.6276923    835.98682  0.016059375  0.015091716          193 
 4339000    0.5597805   -7.6703732    835.22084  0.016040963  0.015086926          148 
 4340000   0.55918616   -7.6493932    833.85765  0.016011092  0.015082137          171 
 4341000   0.56073102   -7.6497087    834.07514  0.016011578  0.015077345          223 
 4342000   0.55805812   -7.6597676    834.71162  0.016020106  0.015072555          162 
 4343000   0.54470117   -7.6479778    835.71343   0.01603564  0.015067773          120 
 4344000   0.54741873   -7.6582025     835.7756  0.016033142     0.015063          141 
 4345000   0.55822154   -7.6426346    833.69383  0.015989525  0.015058216          175 
 4346000   0.55619663   -7.6610489    834.42405  0.015999848  0.015053434          170 
 4347000   0.56011255   -7.6632396    834.21762  0.015992209  0.015048651          175 
 4348000   0.54833895   -7.6554889    835.45134  0.016012177  0.015043872           74 
 4349000    0.5625661   -7.6773735    834.90668  0.015998059  0.015039095           95 
 4350000    0.5601274    -7.658766    835.11742  0.015998418  0.015034319          157 
 4351000   0.55393728   -7.6575961    835.78025  0.016007436  0.015029545           81 
 4352000   0.55916347   -7.6606737    835.30182  0.015994597  0.015024768           68 
 4353000   0.56137013   -7.6424848    834.39289  0.015973522  0.015019995          184 
 4354000   0.56388419   -7.6521796    834.94034  0.015980331  0.015015223          132 
 4355000   0.55041077   -7.6525223    835.89589  0.015994946  0.015010457           77 
 4356000    0.5602384   -7.6574086    833.93554  0.015953771  0.015005691           74 
 4357000   0.55313693   -7.6563903    832.84479  0.015929248  0.015000925          130 
 4358000   0.55946478   -7.6405949    832.85634  0.015925813   0.01499616           98 
 4359000   0.54450609   -7.6512414    835.36751  0.015970167  0.014991397          154 
 4360000   0.55511203   -7.6479506    834.23385  0.015944837  0.014986635          164 
 4361000   0.54372547   -7.6615465    835.19721  0.015959589  0.014981875          161 
 4362000   0.55310768   -7.6630357    834.31826  0.015939138  0.014977124          152 
 4363000   0.55314257   -7.6460316    833.79487  0.015925488  0.014972374          168 
 4364000   0.56597678   -7.6424547    835.36971  0.015951912  0.014967627          211 
 4365000   0.56569698   -7.6715915    834.93025  0.015939867  0.014962881          118 
 4366000   0.57039337   -7.6781017    834.29785  0.015924146  0.014958141          166 
 4367000   0.56297665    -7.664324    832.25615  0.015881539   0.01495339          173 
 4368000   0.55164294   -7.6721532    836.35925  0.015956182   0.01494865           79 
 4369000   0.55010008   -7.6489632    835.35904  0.015933452  0.014943909          106 
 4370000   0.54958849   -7.6821963    835.19323  0.015926644  0.014939169          119 
 4371000   0.55085207   -7.6476975    834.86918  0.015916823  0.014934433           62 
 4372000   0.54424423   -7.6648879    836.16926  0.015937962    0.0149297          164 
 4373000   0.54352312   -7.6330209     835.2854  0.015917475   0.01492497          103 
 4374000   0.55699763   -7.6705063    834.51453  0.015899149   0.01492024           91 
 4375000   0.55683903   -7.6562358    833.86156  0.015883077  0.014915511           92 
 4376000   0.55709642   -7.6468435    833.84447  0.015879122  0.014910785          150 
 4377000   0.55420913   -7.6576546    834.99874  0.015897471  0.014906064          101 
 4378000   0.56192821   -7.6403326    835.60931  0.015905461  0.014901345          111 
 4379000   0.56164188   -7.6609978    833.42168  0.015860198  0.014896621          100 
 4380000   0.55030014   -7.6486165    834.79669  0.015882738  0.014891901          129 
 4381000   0.54431668   -7.6570857    834.17917  0.015867366  0.014887176          108 
 4382000    0.5407031   -7.6719429    834.90432  0.015877535  0.014882451           99 
 4383000   0.55728417   -7.6523091    834.27425  0.015861933  0.014877724           85 
 4384000   0.54036842   -7.6786625    834.98876  0.015871897  0.014872997           73 
 4385000   0.53672734   -7.6550662    835.43715  0.015876799  0.014868276          100 
 4386000   0.53800464   -7.6739118     834.3664  0.015852835   0.01486356           81 
 4387000   0.56722868   -7.6465192    834.39056   0.01584968   0.01485884           78 
 4388000   0.55486439   -7.6653309     834.0901  0.015840362  0.014854123          101 
 4389000   0.54610813   -7.6594698    834.67665   0.01584789  0.014849408           89 
 4390000   0.54843964   -7.6616441    834.45195  0.015840014   0.01484469           63 
 4391000   0.54372711   -7.6403747    833.72731  0.015822654  0.014839975           97 
 4392000   0.53812539   -7.6398852    835.03099  0.015843788   0.01483526           81 
 4393000   0.54117331   -7.6504516    834.55859   0.01583122  0.014830555           55 
 4394000     0.551959   -7.6597044    835.21426  0.015840052  0.014825839          101 
 4395000   0.54180391   -7.6545798    833.23917  0.015798998  0.014821128          109 
 4396000   0.55502394    -7.654865    834.08482  0.015811435  0.014816419           84 
 4397000   0.55574938    -7.672713    833.16489  0.015790404   0.01481171          101 
 4398000   0.54923861   -7.6645602    832.91866  0.015782148  0.014807003          204 
 4399000   0.53426249   -7.6533552    833.64571  0.015792334  0.014802297           76 
 4400000   0.55529545   -7.6760343    834.86402  0.015811818  0.014797597          120 
 4401000   0.55513997   -7.6644372    835.27214  0.015815954  0.014792902          160 
 4402000   0.55370491   -7.6612386    833.72425  0.015783058  0.014788207           76 
 4403000   0.55561263   -7.6409283    834.14264  0.015787392  0.014783511          117 
 4404000   0.55752754   -7.6657412    834.22174  0.015785304  0.014778818          152 
 4405000   0.55171277   -7.6787627     834.4679  0.015786377  0.014774131          236 
 4406000   0.55630363   -7.6493134    833.38362  0.015762287   0.01476944          140 
 4407000   0.55712015   -7.6567206    834.96083  0.015788534  0.014764754          182 
 4408000   0.55919625   -7.6581472    834.77733  0.015781483  0.014760066          101 
 4409000   0.55296054    -7.675018    832.78557  0.015740258  0.014755381          101 
 4410000   0.54860729   -7.6803436    833.35682  0.015747483  0.014750691          177 
 4411000   0.53560555   -7.6675903    835.48261  0.015784074  0.014746005          208 
 4412000   0.53109373   -7.6727827    833.35184  0.015740251  0.014741324          210 
 4413000   0.55611007   -7.6713078    833.46504  0.015738822  0.014736638          207 
 4414000   0.53921778    -7.660683     834.0985  0.015747215  0.014731964          113 
 4415000   0.54545291   -7.6541451    834.88143  0.015758426   0.01472729           94 
 4416000   0.54464095   -7.6558802    833.70327  0.015732625  0.014722613           96 
 4417000   0.53855385   -7.6635654    834.83452  0.015750406  0.014717935          241 
 4418000   0.54355357   -7.6671989    833.56715  0.015722936   0.01471326          147 
 4419000   0.54527617   -7.6836435    832.81843  0.015705258  0.014708582          107 
 4420000   0.53984382   -7.6823335    834.67127  0.015736638  0.014703909          112 
 4421000     0.547003   -7.6603501    834.81915  0.015735866  0.014699231          124 
 4422000   0.54526121   -7.6774995    833.49058   0.01570727  0.014694556           89 
 4423000   0.55567374   -7.6699813    834.27097  0.015718422  0.014689886          117 
 4424000   0.55003561    -7.675146    834.60636  0.015721187  0.014685217          109 
 4425000   0.54460873   -7.6911326    832.08006  0.015670058  0.014680545          119 
 4426000   0.53361702   -7.6670151    834.07956  0.015704164   0.01467588          130 
 4427000   0.55527879   -7.6662458    833.82833  0.015695888  0.014671211          131 
 4428000   0.55434774    -7.691378    832.34794  0.015664483  0.014666545          225 
 4429000   0.54984472   -7.6638375    832.45471  0.015662955   0.01466188          136 
 4430000   0.54254299   -7.6684737    832.82107  0.015666311  0.014657222          197 
 4431000   0.54111926   -7.6605381    833.27368  0.015671287  0.014652567          201 
 4432000    0.5403777   -7.6930187    834.43883  0.015689659  0.014647909           92 
 4433000   0.54496086   -7.6779162    833.02944  0.015659626  0.014643256          102 
 4434000   0.54464762   -7.6740264    832.17111  0.015639962  0.014638609          109 
 4435000   0.55606408   -7.6720934    835.16876  0.015692761   0.01463396           96 
 4436000   0.54087695   -7.6802095    833.89965  0.015665383  0.014629313           99 
 4437000   0.54614376    -7.673187    832.48106  0.015635209  0.014624668           75 
 4438000   0.53561818   -7.6815343    832.34615  0.015629153  0.014620021          149 
 4439000   0.54045857   -7.6937371     832.3107  0.015624966  0.014615372          102 
 4440000   0.54645763    -7.687667    833.06728  0.015635647   0.01461072          286 
 4441000   0.55613977   -7.6759118    833.46938  0.015639672  0.014606076          134 
 4442000   0.53603271   -7.6522286    832.95268  0.015626457  0.014601432          118 
 4443000   0.55212613   -7.6968985    835.16669  0.015664466  0.014596794          246 
 4444000   0.54158368   -7.6759602    834.71114  0.015652399  0.014592156          252 
 4445000   0.54326455   -7.6767912    832.59587  0.015609221  0.014587522          257 
 4446000   0.53475654   -7.6814693    833.26745  0.015618298  0.014582882           79 
 4447000   0.53429685   -7.6858561    835.33079  0.015653452  0.014578243          101 
 4448000   0.55027008   -7.6749045    834.11737  0.015627199  0.014573613          165 
 4449000   0.53326233   -7.6806629    832.69706  0.015597083  0.014568977          240 
 4450000   0.54241958   -7.6907759    834.30757  0.015623737  0.014564348          225 
 4451000   0.53409241   -7.6703947    834.60839  0.015625859   0.01455972           87 
 4452000   0.53344347   -7.6988532    833.88497  0.015608808  0.014555094           54 
 4453000   0.53820396   -7.6849039    833.75495   0.01560287  0.014550471          122 
 4454000    0.5571758   -7.6755864    832.82772  0.015582018  0.014545851          128 
 4455000   0.53093533   -7.6732669    834.35531  0.015607095  0.014541238          229 
 4456000   0.53628509   -7.6713207    832.98192  0.015577908   0.01453662          121 
 4457000   0.52574373   -7.6836522    834.11999  0.015595692  0.014532005          108 
 4458000   0.52895437    -7.694925    832.05645   0.01555362   0.01452739           99 
 4459000   0.54411232   -7.6887953    833.68134  0.015580499  0.014522779          183 
 4460000   0.53968939   -7.6683963    832.57057  0.015556251  0.014518174          134 
 4461000   0.53417337   -7.6907955    833.46342  0.015569443  0.014513564          120 
 4462000   0.54019813   -7.6797497       831.69  0.015532833  0.014508957          140 
 4463000   0.53839944   -7.6766553    833.34792  0.015560309  0.014504355          152 
 4464000    0.5405354   -7.6847131    832.58098  0.015542506   0.01449975          149 
 4465000   0.53698409   -7.6824821    833.96265  0.015564813  0.014495148          205 
 4466000   0.53753837   -7.6882094    832.95756  0.015542573  0.014490549          131 
 4467000   0.54761363   -7.6945208      833.778  0.015554399  0.014485954          224 
 4468000    0.5436393   -7.6819206    833.51431  0.015545999  0.014481357          148 
 4469000   0.54183306   -7.6851878    834.11098  0.015553647  0.014476759          113 
 4470000   0.53018548   -7.6661006    834.01441  0.015548367  0.014472163          136 
 4471000   0.52832627   -7.6877459    833.76787  0.015540294  0.014467576          127 
 4472000   0.53664431   -7.6806841    833.27363  0.015527609  0.014462984          132 
 4473000   0.53563293   -7.6680311    833.10031  0.015520909  0.014458398          145 
 4474000   0.53576968   -7.6960311    832.31541   0.01550282  0.014453805          160 
 4475000   0.54109726   -7.6739474    832.14069  0.015496102  0.014449212          167 
 4476000    0.5349225    -7.706588    832.84012  0.015505662  0.014444623          269 
 4477000   0.52749349    -7.697216    833.74047  0.015518957  0.014440032          156 
 4478000   0.53666325   -7.6862219    832.16991  0.015486264  0.014435442          119 
 4479000   0.54427726   -7.6796674    833.02377  0.015498693  0.014430856          121 
 4480000    0.5404937   -7.6959275     833.3337  0.015500999  0.014426271          158 
 4481000   0.54132245   -7.6814493    833.24491  0.015495888  0.014421686          139 
 4482000   0.52818786   -7.6884299    833.14984  0.015490663  0.014417112          130 
 4483000   0.52752456   -7.6879875    831.28533  0.015452549  0.014412534          132 
 4484000   0.54167889   -7.6769726    832.60326  0.015473596  0.014407957          120 
 4485000   0.53659934   -7.6897313    832.86198  0.015474953  0.014403385          147 
 4486000   0.52732682   -7.6813028     831.7912  0.015451612  0.014398809          140 
 4487000   0.53855844   -7.6912672    835.01481  0.015508038  0.014394234          109 
 4488000   0.54475463   -7.6884655    832.44776  0.015456918  0.014389664          124 
 4489000   0.53511553   -7.6899368    832.88315  0.015461557  0.014385094          128 
 4490000   0.54079928   -7.6897507    832.25472   0.01544645  0.014380518           94 
 4491000   0.52505401   -7.6777747      830.684  0.015413865  0.014375951          104 
 4492000   0.54030378   -7.6833248    832.62246  0.015446395  0.014371387          152 
 4493000   0.53762218   -7.6786014    832.09679  0.015433207  0.014366817          163 
 4494000   0.52709743   -7.7086074    833.14971  0.015449297  0.014362245          166 
 4495000   0.53252034   -7.6949885      832.266  0.015429477  0.014357675          151 
 4496000   0.52407474   -7.7147295    832.90138  0.015437822  0.014353107          150 
 4497000   0.53474201   -7.7077038    831.63427  0.015410909   0.01434854           81 
 4498000   0.53025318   -7.6957813    832.27119  0.015419283  0.014343974           85 
 4499000   0.53906464   -7.6958378    832.59248  0.015421806  0.014339415          117 
 4500000   0.53536442   -7.6881265    833.56011  0.015436298  0.014334854           89 
 4501000   0.52603822   -7.7106062    831.20474  0.015389261  0.014330294          140 
 4502000   0.51700368   -7.6891096    832.32677  0.015406611  0.014325735          116 
 4503000    0.5333863   -7.7248927    832.64907  0.015409154  0.014321178           89 
 4504000   0.53588881   -7.6942881    832.15978   0.01539668  0.014316621          171 
 4505000   0.53015596   -7.6970678    832.89835  0.015406925  0.014312071          128 
 4506000   0.53212992   -7.6955304    831.95947  0.015386142  0.014307519          133 
 4507000   0.54077713   -7.7087822    831.97956    0.0153831  0.014302968          174 
 4508000   0.53189936   -7.7148575    831.13878  0.015364145   0.01429841          122 
 4509000   0.54045157   -7.7009378    832.20521  0.015380447  0.014293865          110 
 4510000   0.52546346   -7.7095715    830.70494  0.015349315  0.014289316          133 
 4511000   0.53430039   -7.6768536    833.97385    0.0154063  0.014284766           95 
 4512000   0.52726148   -7.6923776    831.68038  0.015360527  0.014280222          122 
 4513000   0.53110486   -7.6973848    831.71956  0.015357847  0.014275678          216 
 4514000   0.53026593   -7.6938989    832.27398   0.01536468  0.014271135          109 
 4515000   0.52274027   -7.6868214    832.36864  0.015363024  0.014266597          108 
 4516000   0.52211483   -7.6855812    831.71624  0.015347583  0.014262063           95 
 4517000   0.51869593   -7.7157653    831.66222  0.015343189  0.014257524          118 
 4518000   0.52754177   -7.7059645    831.57233  0.015338135  0.014252984          108 
 4519000   0.53117509   -7.6984584    831.85696   0.01533999  0.014248443          159 
 4520000   0.51968583   -7.7083478    832.73215  0.015352731   0.01424391          113 
 4521000   0.53221187   -7.7151519    833.04735  0.015355145  0.014239377           68 
 4522000   0.52345548    -7.713068      831.877  0.015330182  0.014234845          173 
 4523000   0.52337745   -7.7100854    832.66007   0.01534122  0.014230317           94 
 4524000   0.52615182   -7.7127568     832.3167  0.015331504  0.014225783          182 
 4525000   0.53006243   -7.7096742    831.99114   0.01532212  0.014221258          104 
 4526000    0.5267966   -7.6983646    832.21857  0.015322923  0.014216736          200 
 4527000   0.53465525   -7.7055142    832.90313  0.015332139  0.014212215          160 
 4528000   0.51880528   -7.7249266     831.4402  0.015301829  0.014207692          176 
 4529000    0.5210453   -7.6991354    830.71787   0.01528516   0.01420317          154 
 4530000   0.51263098   -7.7167493    832.38904  0.015312528  0.014198653          179 
 4531000   0.53982528   -7.7187776    833.49534  0.015329496   0.01419414          171 
 4532000   0.52001298   -7.6955835    831.84065  0.015295687  0.014189624          199 
 4533000   0.52178273   -7.7055462    832.93106  0.015312359   0.01418511          202 
 4534000    0.5267395   -7.6915242    831.54241  0.015283458  0.014180598           96 
 4535000    0.5245902   -7.7113314    831.84266  0.015285606  0.014176086           90 
 4536000   0.52900058   -7.7106035    831.20634  0.015270546   0.01417158           89 
 4537000   0.52692166   -7.7025859    832.96418  0.015299467  0.014167068          121 
 4538000   0.52952364   -7.7169407    830.44746   0.01524988  0.014162558          145 
 4539000   0.52611969   -7.7146869    831.58371  0.015267381  0.014158051          187 
 4540000    0.5246662   -7.7163105    832.19657  0.015275267  0.014153543          187 
 4541000    0.5164185   -7.6968612    831.49883  0.015259099  0.014149043          107 
 4542000   0.53013278   -7.7143379    832.29758  0.015270395   0.01414454          106 
 4543000   0.52599736   -7.7184157    832.31065  0.015267273  0.014140033          100 
 4544000    0.5306199    -7.698213    831.01907  0.015240227  0.014135532          130 
 4545000     0.515519   -7.7190519     832.4763  0.015263592  0.014131032          234 
 4546000   0.53030622   -7.7110918    832.35545  0.015258019  0.014126537          124 
 4547000   0.52905237   -7.7063011    831.23986  0.015234218   0.01412204          105 
 4548000   0.52014822    -7.702869     830.6332  0.015219752  0.014117547          138 
 4549000   0.51341148   -7.7019382    832.36816  0.015248189  0.014113055           86 
 4550000   0.51896459   -7.7035815    832.11795  0.015240255  0.014108561          179 
 4551000   0.52433867   -7.7223528    830.95335  0.015215582   0.01410407           97 
 4552000   0.52314494   -7.7125058    831.70976  0.015226087   0.01409958           84 
 4553000   0.51486415   -7.7112877    831.20964  0.015213589  0.014095096          199 
 4554000   0.53165136   -7.7191912    830.67684  0.015200499  0.014090617          181 
 4555000   0.51510108   -7.7053749    831.51389  0.015212475  0.014086136           93 
 4556000    0.5238821   -7.7020595    831.61056  0.015210904  0.014081653          239 
 4557000   0.52487736   -7.7030977    832.95228  0.015232102   0.01407717           94 
 4558000   0.52885197   -7.7106616    830.68837   0.01518737  0.014072693           79 
 4559000   0.52532401   -7.7056901    830.83755  0.015186765  0.014068217           75 
 4560000   0.51831555   -7.7198144    831.60443  0.015197449   0.01406374           87 
 4561000   0.52602366   -7.7211696    830.97999  0.015182708  0.014059273           84 
 4562000   0.51719088   -7.7043316     831.3821  0.015186725  0.014054801          116 
 4563000   0.51598472   -7.7094398     832.5902  0.015205461  0.014050332           85 
 4564000   0.52705127    -7.717579    832.02158  0.015191747  0.014045861           91 
 4565000    0.5265968   -7.7235903    833.30652  0.015211875  0.014041393          191 
 4566000   0.52428017    -7.698087    831.76459  0.015180402  0.014036925           66 
 4567000   0.51398536    -7.716005    831.96979  0.015180822  0.014032461          142 
 4568000   0.52558011   -7.7265965    832.61684  0.015189303  0.014027998           83 
 4569000   0.52831397   -7.7189549    832.15366  0.015177531  0.014023534          114 
 4570000   0.51173063   -7.7324108    830.96803   0.01515259  0.014019074          105 
 4571000    0.5282704   -7.7101313    829.58978  0.015124148  0.014014614           88 
 4572000   0.53660146   -7.7310972    831.48189  0.015155328  0.014010161          121 
 4573000   0.52761707   -7.7097282    831.20062  0.015146888  0.014005707           85 
 4574000   0.53419897   -7.7079549    831.05861  0.015140989  0.014001251          158 
 4575000   0.51936307   -7.7043668    830.68615  0.015130895  0.013996801          108 
 4576000   0.51952804   -7.7234848    831.40018  0.015140592  0.013992346          129 
 4577000   0.50418872   -7.7211798    831.81248  0.015144791  0.013987887          183 
 4578000    0.5140185    -7.709208    830.41644   0.01511607  0.013983431          109 
 4579000   0.52938623   -7.7246685    831.06721  0.015124612  0.013978978          124 
 4580000   0.52625335   -7.7346479    831.29207  0.015125402   0.01397453           99 
 4581000   0.53250863   -7.7305645    831.26745  0.015121652   0.01397008          101 
 4582000     0.509429   -7.7100024    830.44642   0.01510342  0.013965637          199 
 4583000   0.50621332   -7.7291266    831.70545  0.015123017  0.013961198           86 
 4584000    0.5140197   -7.7241077    830.82021  0.015103625  0.013956761          215 
 4585000   0.50693105   -7.7188533    831.12104  0.015105799  0.013952323          112 
 4586000   0.50962093   -7.7124502    830.65837  0.015094097  0.013947883          121 
 4587000   0.51363624   -7.7137758    832.44476  0.015123261  0.013943448           96 
 4588000   0.51121595   -7.7140233    830.79613   0.01509002  0.013939017          221 
 4589000   0.50998878   -7.7369334    830.41681  0.015079843  0.013934584          113 
 4590000   0.50999712   -7.7166611    831.41544  0.015094688  0.013930152          128 
 4591000   0.52318526    -7.732282    832.65769  0.015113949  0.013925717          194 
 4592000   0.51059208   -7.7308363      831.077  0.015081972  0.013921291          183 
 4593000    0.5116446   -7.7242386    832.90103  0.015111783  0.013916866           83 
 4594000   0.51278821   -7.7133714    831.49891   0.01508306  0.013912444          159 
 4595000   0.51297707    -7.686779    831.14393  0.015073339  0.013908024           94 
 4596000   0.51170271   -7.7075056    831.73108  0.015080706  0.013903606          123 
 4597000   0.51539282   -7.7314353    830.64491  0.015057735  0.013899191          157 
 4598000   0.52799521   -7.7244338    831.03886    0.0150616  0.013894777          128 
 4599000    0.5167841   -7.7241317    831.14107  0.015060177  0.013890363          193 
 4600000   0.51280648   -7.7116431    832.41634  0.015080006   0.01388595          227 
 4601000   0.50949568   -7.7407451     829.2772  0.015019872  0.013881535          106 
 4602000   0.51292411   -7.7405073    831.85392  0.015063268  0.013877123          120 
 4603000   0.51489943   -7.7097063    832.07931  0.015064076  0.013872714          138 
 4604000   0.51497845   -7.7352418    831.49197  0.015050173  0.013868306          126 
 4605000   0.51518789   -7.7121234    831.66529  0.015050041  0.013863904          118 
 4606000   0.50502173   -7.7296031    831.93393  0.015051634  0.013859498          135 
 4607000   0.51396643   -7.7219773     831.2472  0.015035945  0.013855095          129 
 4608000   0.51160199   -7.7183468    831.52068  0.015037628  0.013850694           89 
 4609000   0.50813572   -7.7288602    830.73918  0.015020235  0.013846293          106 
 4610000   0.52502529   -7.7205044    831.08294  0.015023191  0.013841892          221 
 4611000   0.50697052   -7.7195725    832.03489  0.015037137  0.013837492          124 
 4612000    0.5143846   -7.7262919     831.2476  0.015019652  0.013833093          116 
 4613000    0.5013827   -7.7195705    831.28109  0.015017001  0.013828692          186 
 4614000   0.51511915   -7.7196213    831.86785  0.015024343  0.013824297          117 
 4615000   0.51570041   -7.7215758    829.89801  0.014985518  0.013819902           74 
 4616000   0.51035926   -7.7254086    830.88808  0.015000146  0.013815513          204 
 4617000   0.51592693    -7.725023    828.66731  0.014956814  0.013811119          144 
 4618000   0.51095734   -7.7305042    829.90235  0.014975862  0.013806727          241 
 4619000   0.51305414   -7.7244057    831.49926   0.01500143  0.013802342          104 
 4620000   0.51544924   -7.7363831    830.51403  0.014980412  0.013797957          131 
 4621000   0.52165359   -7.7293875    829.71242  0.014962714  0.013793568          127 
 4622000    0.5045186   -7.7292942    830.46097  0.014972973  0.013789183          138 
 4623000   0.51584856   -7.7479093    830.53243  0.014971022  0.013784801          113 
 4624000   0.50930297   -7.7022853    829.55155  0.014950107  0.013780417          128 
 4625000   0.50450169   -7.7251541    831.05611  0.014973984  0.013776041          112 
 4626000   0.51340846   -7.7241971    829.99536  0.014951639  0.013771658          144 
 4627000   0.50339715   -7.7353598    829.91986  0.014947047  0.013767282          192 
 4628000   0.51157956   -7.7176808    829.38734  0.014934229  0.013762908          105 
 4629000   0.50781751   -7.7323284    830.05313  0.014942989  0.013758539          176 
 4630000   0.50988947   -7.7315537    830.70405  0.014951477  0.013754167          151 
 4631000   0.50645915   -7.7311591     830.2305  0.014939727  0.013749797          233 
 4632000   0.50910797   -7.7458473    830.78558  0.014946488  0.013745432          211 
 4633000    0.5024366   -7.7454189    830.40479  0.014936412  0.013741064          134 
 4634000   0.51239214   -7.7459627    830.36391  0.014932454  0.013736698          192 
 4635000   0.50712842   -7.7467367    830.42739  0.014930374  0.013732331          126 
 4636000   0.50039425   -7.7451231    830.62486  0.014930703  0.013727968          189 
 4637000   0.51968763   -7.7383764    830.92677  0.014932909  0.013723607          204 
 4638000   0.49957164   -7.7383094    830.26449  0.014917789   0.01371925          140 
 4639000    0.5109177   -7.7505108    830.63681  0.014921262  0.013714893          118 
 4640000     0.509817   -7.7373059    829.44066  0.014896564  0.013710534          178 
 4641000   0.51393478   -7.7416925    831.27638  0.014926316  0.013706182          123 
 4642000   0.51934219   -7.7403804    830.88468  0.014916069  0.013701832           87 
 4643000   0.51369802   -7.7366761     829.3357  0.014885055  0.013697477          215 
 4644000    0.5103868   -7.7478397    829.22976  0.014879948  0.013693125          216 
 4645000    0.5148764   -7.7366283    829.70227  0.014885222  0.013688776          215 
 4646000   0.50522211    -7.750005    830.59201  0.014897977  0.013684431          151 
 4647000   0.50034183   -7.7371209    831.50219  0.014911093  0.013680083          107 
 4648000   0.50855756   -7.7263851      830.962    0.0148982  0.013675743          107 
 4649000    0.5117044    -7.738253     830.7509  0.014891211  0.013671401          192 
 4650000   0.51838794   -7.7545186    829.80149  0.014870994  0.013667061          188 
 4651000   0.49538418   -7.7307983    829.40904  0.014860765   0.01366272          310 
 4652000   0.49816654   -7.7470593    829.96898  0.014867601   0.01365838          195 
 4653000   0.51123559    -7.742718    828.89681  0.014845204   0.01365404           94 
 4654000   0.51065734   -7.7270634     830.6161  0.014872799  0.013649706          200 
 4655000   0.50400234   -7.7463266    829.76357  0.014854343  0.013645366          244 
 4656000   0.50459277   -7.7371216    829.33177  0.014843424  0.013641026          119 
 4657000   0.51755516   -7.7534746    829.97985  0.014851833  0.013636693          135 
 4658000   0.49774676   -7.7467401    829.46423   0.01483942  0.013632364          129 
 4659000   0.50817842   -7.7548197     830.7833  0.014859829  0.013628034          195 
 4660000   0.50968471   -7.7496176    830.76409  0.014856296  0.013623706           95 
 4661000    0.5007518   -7.7555597    829.49505   0.01483042  0.013619376          221 
 4662000   0.51814213   -7.7551665    830.33306  0.014842218  0.013615051          187 
 4663000   0.51888014    -7.731118    829.49566   0.01482407  0.013610733          118 
 4664000   0.50753974   -7.7476209    831.62873  0.014859004  0.013606415          127 
 4665000   0.50987877   -7.7616933    830.12648  0.014828983  0.013602098           74 
 4666000    0.5128727   -7.7602102    830.28977  0.014828721  0.013597783          121 
 4667000   0.51117866   -7.7412243    830.27004  0.014825192  0.013593467          118 
 4668000   0.50482179   -7.7443746    831.38302  0.014841885  0.013589152          186 
 4669000   0.50857086   -7.7524369    831.22626  0.014835908   0.01358484          109 
 4670000   0.50479652   -7.7652421    830.57395  0.014821091   0.01358053          134 
 4671000   0.51193774   -7.7506147    830.65222  0.014819315  0.013576221          134 
 4672000   0.50122921   -7.7457157    830.68905  0.014816799  0.013571915          130 
 4673000   0.50504048    -7.744562    830.18081  0.014804565  0.013567607          115 
 4674000   0.50173336   -7.7412921    829.65716  0.014792062  0.013563298          186 
 4675000   0.50285627   -7.7451216    829.30376  0.014782598  0.013558993          141 
 4676000   0.50897344   -7.7732438    829.28995  0.014779191  0.013554685          100 
 4677000   0.50585125    -7.752205    829.72119  0.014783715  0.013550382          178 
 4678000    0.4992568   -7.7682936    831.44238  0.014811215   0.01354608          194 
 4679000   0.51081074   -7.7673286    829.83939    0.0147795   0.01354178          114 
 4680000    0.5081994   -7.7465423    830.92654    0.0147957  0.013537485          261 
 4681000   0.50735847   -7.7396026    829.73764  0.014771374  0.013533194          154 
 4682000   0.50440091   -7.7410661    828.27696  0.014742221    0.0135289          170 
 4683000   0.50336669   -7.7426822    828.63606  0.014745463  0.013524609          117 
 4684000   0.49783933   -7.7490549    828.75911  0.014744505   0.01352032          126 
 4685000   0.50125679    -7.746608    829.32566  0.014751435   0.01351603          106 
 4686000    0.5039181   -7.7621969    829.72486  0.014755386  0.013511744          169 
 4687000   0.50664898   -7.7461894    829.39864  0.014746438  0.013507459           71 
 4688000   0.49839088   -7.7507227    830.38458  0.014760818  0.013503171          188 
 4689000   0.49909995   -7.7464918    828.30139  0.014720648  0.013498885           94 
 4690000   0.50848189   -7.7703007    829.40918  0.014737192  0.013494603          162 
 4691000   0.50844949    -7.765014     828.7093  0.014721618  0.013490324          174 
 4692000   0.49698108   -7.7655265    831.53399  0.014768649  0.013486049          110 
 4693000   0.50238443    -7.764361    829.33651  0.014726481  0.013481773          164 
 4694000   0.49482717   -7.7553583    830.39353  0.014742109  0.013477499          111 
 4695000   0.50116086   -7.7575084    829.25475  0.014718757  0.013473225          175 
 4696000   0.51660653   -7.7717982     829.3385  0.014717109  0.013468951          199 
 4697000   0.49783892   -7.7638225    830.42713   0.01473329  0.013464674           97 
 4698000   0.50022188   -7.7580956    829.82072  0.014719397    0.0134604           93 
 4699000    0.5064923   -7.7507818    829.44203  0.014709549  0.013456132          224 
 4700000   0.49936606   -7.7409862    830.24377  0.014720634  0.013451863          157 
 4701000   0.49687147   -7.7529942    830.71283  0.014725818  0.013447599          184 
 4702000   0.50615497   -7.7668469     830.9974  0.014727729  0.013443337          210 
 4703000   0.49988839   -7.7556988    829.75777  0.014702633  0.013439074          168 
 4704000   0.49137955   -7.7661744     829.3859  0.014692919  0.013434813          138 
 4705000   0.50582451   -7.7592888    829.02003  0.014683316  0.013430552           86 
 4706000   0.49532379   -7.7627355    829.76816  0.014693444  0.013426298          227 
 4707000    0.5008273   -7.7464176      829.293   0.01468191  0.013422045          184 
 4708000   0.49676555   -7.7779059    828.46054  0.014664056  0.013417792          176 
 4709000   0.49256448   -7.7584855     828.8731  0.014668243  0.013413538          174 
 4710000   0.49082072   -7.7736292    830.08928  0.014686647  0.013409287           95 
 4711000   0.50034075   -7.7516723    829.04401  0.014665039  0.013405036           93 
 4712000   0.50273337   -7.7594362    830.61465  0.014689704  0.013400787          247 
 4713000   0.50225125   -7.7715239    828.63952  0.014651664  0.013396537          130 
 4714000     0.488362   -7.7702962    829.17422  0.014658008  0.013392293           94 
 4715000   0.50399163   -7.7592513    829.43974  0.014659592  0.013388049          115 
 4716000   0.50305533   -7.7573186    829.74884  0.014661946  0.013383806           69 
 4717000   0.49645243   -7.7489023    829.97514  0.014662835  0.013379564          152 
 4718000   0.48906833   -7.7681218    828.40286  0.014631957  0.013375325          123 
 4719000   0.49551513   -7.7499593       830.54  0.014666596  0.013371091          100 
 4720000   0.48511295   -7.7593095    830.68691  0.014666082  0.013366857           85 
 4721000   0.49411543   -7.7506101    830.06989  0.014652084  0.013362622           98 
 4722000   0.49652297   -7.7871638    829.82555   0.01464467  0.013358389          158 
 4723000   0.50378048   -7.7584074    829.36991  0.014633529  0.013354159           63 
 4724000   0.48586928   -7.7766875    829.44641  0.014631781  0.013349933          158 
 4725000   0.49662362   -7.7629299    830.26361  0.014643097  0.013345705          186 
 4726000   0.48398453   -7.7593113    830.12335  0.014637526  0.013341482          130 
 4727000   0.49024283   -7.7536713    828.18672  0.014600288  0.013337258          158 
 4728000   0.50431078   -7.7459062    829.70493  0.014623959  0.013333036           84 
 4729000   0.49294383   -7.7628024    829.12324  0.014610616  0.013328818          117 
 4730000   0.49464243    -7.786366    830.27694  0.014627853  0.013324599          163 
 4731000   0.48781585   -7.7598421     829.6744  0.014614148  0.013320381          190 
 4732000   0.49963955   -7.7780053    830.01664  0.014617087  0.013316162          131 
 4733000   0.49496192   -7.7725045    829.86245  0.014611283  0.013311948          114 
 4734000   0.49966385   -7.7519942    829.13731  0.014595432  0.013307738          134 
 4735000   0.48326784   -7.7492577    828.73261  0.014585227  0.013303525          143 
 4736000   0.50208906   -7.7646431    829.31897  0.014592465  0.013299316           89 
 4737000   0.48708978   -7.7742871    830.06503  0.014602509  0.013295107          116 
 4738000   0.49043209   -7.7712541    829.92281  0.014596926  0.013290895          143 
 4739000   0.49732791   -7.7844312    830.20972  0.014598891  0.013286691          103 
 4740000   0.49654204   -7.7729066    828.67146  0.014568767   0.01328249          113 
 4741000   0.49693334   -7.7593076    828.85851  0.014568982  0.013278288          123 
 4742000   0.49713965   -7.7629158    830.16487  0.014588867  0.013274088          215 
 4743000   0.49456961   -7.7838205    829.11787  0.014567395  0.013269885          140 
 4744000   0.48960885    -7.759323    829.23322  0.014566351   0.01326569          209 
 4745000   0.50087896   -7.7640384    829.30978  0.014564626  0.013261493          104 
 4746000   0.49763245   -7.7795767    829.83533  0.014570785    0.0132573          114 
 4747000   0.49214263   -7.7679113    829.99703  0.014570554  0.013253104          123 
 4748000   0.49406498   -7.7758299    829.47055  0.014558245  0.013248913          135 
 4749000   0.49238576   -7.7771423    828.32909  0.014535149  0.013244725          154 
 4750000   0.48846698   -7.7476158    829.73112  0.014556686  0.013240537           72 
 4751000   0.47827074   -7.7660719    827.43428  0.014513335   0.01323635          195 
 4752000   0.48588748   -7.7679684    829.30002     0.014543  0.013232165          134 
 4753000   0.50210748   -7.7489641    829.54072   0.01454416  0.013227983          114 
 4754000   0.49007171   -7.7459415    829.41908  0.014538969  0.013223804          118 
 4755000   0.48930141    -7.765799    830.37128  0.014552599  0.013219624          117 
 4756000   0.49647527   -7.7672158    828.20258  0.014511539  0.013215447           65 
 4757000    0.4969207   -7.7559132    828.07041  0.014506173  0.013211275          206 
 4758000   0.49854772   -7.7739832    828.68933  0.014513965  0.013207104          200 
 4759000   0.48970637   -7.7686509    828.67272  0.014510624  0.013202929          145 
 4760000   0.50061792   -7.7881622    829.85876   0.01452834  0.013198756           99 
 4761000     0.489558   -7.7608816    829.52508  0.014519448  0.013194584          121 
 4762000   0.48744402   -7.7872366    829.69913  0.014519444  0.013190414          187 
 4763000   0.48230277   -7.7823105    828.86593  0.014501818  0.013186246          193 
 4764000   0.48695137   -7.7696215    827.22906  0.014470142  0.013182075          119 
 4765000   0.50029169    -7.765106    829.60802   0.01450871  0.013177907           84 
 4766000   0.48508717   -7.7835587    828.77958   0.01449118   0.01317374          190 
 4767000   0.49133021   -7.7838252    828.74102  0.014487466  0.013169575          128 
 4768000   0.49106133   -7.7799545    828.21729  0.014475274  0.013165415          215 
 4769000    0.4827828   -7.7780355    829.47614  0.014494236  0.013161253           96 
 4770000   0.48908063   -7.7735804    828.87265  0.014480654  0.013157091           99 
 4771000   0.48928365   -7.7658808    828.50859   0.01447126  0.013152935          192 
 4772000   0.48288869   -7.7874149    828.49665  0.014468019  0.013148779          146 
 4773000   0.49823474   -7.7825462    827.86916  0.014454032   0.01314462          138 
 4774000   0.47762744   -7.7894705    829.74305  0.014483715  0.013140466          177 
 4775000   0.48512678    -7.760675    827.49658  0.014441476  0.013136315          112 
 4776000   0.48722004   -7.7743344    829.53061  0.014473943  0.013132163          188 
 4777000   0.49072443   -7.7705327    828.28674  0.014449214  0.013128015          111 
 4778000    0.4946525   -7.7696034    827.98224  0.014440879  0.013123867          146 
 4779000   0.50271936   -7.7653728    829.24425  0.014459863  0.013119724          155 
 4780000   0.49017369   -7.7788937    829.60416  0.014463113  0.013115581          147 
 4781000   0.49538543   -7.7906373    829.20654  0.014453157   0.01311144          147 
 4782000   0.49726164   -7.7765528    828.18349  0.014432307  0.013107299          129 
 4783000   0.48513226    -7.786052    827.95405  0.014425292   0.01310316          155 
 4784000   0.48758989   -7.7823593    829.79931  0.014454419  0.013099024          113 
 4785000   0.48488364    -7.777955    829.80373  0.014451476  0.013094888           91 
 4786000   0.48465419   -7.7686287    828.17702  0.014420132   0.01309075          115 
 4787000   0.48674512   -7.7759464    828.48024  0.014422398  0.013086619          136 
 4788000   0.48009927   -7.7690455    829.15877  0.014431195  0.013082488           68 
 4789000   0.48871484   -7.7812634    827.30793  0.014395976   0.01307836          127 
 4790000   0.48364401   -7.7726112    828.72161  0.014417565  0.013074232          122 
 4791000   0.48238513   -7.7955801    829.19562    0.0144228  0.013070107           97 
 4792000   0.48819297   -7.7886208    830.10179  0.014435549  0.013065979          112 
 4793000   0.48121932   -7.7864159    828.00494   0.01439608  0.013061856          145 
 4794000   0.47543815   -7.7784278    827.80267  0.014389561  0.013057733           96 
 4795000   0.48309433   -7.8079184    828.83032   0.01440442  0.013053609          297 
 4796000   0.48740737   -7.7704881    828.04246  0.014387727   0.01304949          110 
 4797000   0.47939869   -7.7709482    828.71066  0.014396336  0.013045373          189 
 4798000   0.48539628   -7.7844989    829.55529  0.014408005  0.013041251          227 
 4799000    0.4822182   -7.7693941    827.85893  0.014375546  0.013037136          107 
 4800000     0.470265   -7.7784061    828.79211  0.014388752  0.013033022          119 
 4801000   0.49106886   -7.7917462    828.64573  0.014383214  0.013028908           97 
 4802000   0.49246758   -7.7900273    828.66911  0.014380625  0.013024795          224 
 4803000   0.48543448   -7.7666496    828.06483  0.014367146  0.013020682          117 
 4804000   0.48014687   -7.7869957    828.44946  0.014370827  0.013016575          164 
 4805000   0.47299586    -7.774427    827.33812  0.014348563  0.013012468           92 
 4806000   0.48587648   -7.7718061    828.25407  0.014361459  0.013008364          198 
 4807000   0.48989388   -7.7810981    827.77642  0.014350191  0.013004261          191 
 4808000    0.4792688   -7.7934586    829.82561  0.014382723  0.013000158          107 
 4809000   0.48680035   -7.7867324     828.6115  0.014358694  0.012996059          213 
 4810000   0.49132111   -7.7884938    828.61908   0.01435584  0.012991962          144 
 4811000    0.4896774   -7.7866923    828.97324  0.014358991  0.012987865          103 
 4812000   0.47530121   -7.7791241    827.44298  0.014329506  0.012983773          243 
 4813000   0.48299566   -7.7909106     827.5715  0.014328754   0.01297968          176 
 4814000   0.47730225   -7.7850801    828.44605  0.014340916   0.01297559          103 
 4815000   0.48593754    -7.794363    829.12196  0.014349636  0.012971501          123 
 4816000   0.47322872   -7.7992926    828.51944  0.014336231  0.012967411          126 
 4817000    0.4810402   -7.7814251    828.31347  0.014329691  0.012963323          107 
 4818000    0.4721258   -7.7837191    828.25885  0.014325772  0.012959235          131 
 4819000   0.48864338   -7.7847093    828.90768  0.014334019  0.012955152          123 
 4820000   0.48733504   -7.8025559    827.62841  0.014308928  0.012951071          126 
 4821000   0.48894296   -7.7933296    828.14471  0.014314885  0.012946991          175 
 4822000   0.48755729   -7.7843726     827.6242  0.014302921  0.012942911          230 
 4823000   0.48083737   -7.7906078    828.01778  0.014306755  0.012938834          217 
 4824000   0.48340616   -7.7736389    827.75946  0.014299327  0.012934759          210 
 4825000   0.48014377   -7.7727824    827.81913  0.014297394  0.012930682          201 
 4826000    0.4738493   -7.8005762    828.60163  0.014307944  0.012926611          129 
 4827000   0.46954737    -7.767623    827.13188  0.014279606  0.012922542          209 
 4828000   0.46905959   -7.7724502    827.83045  0.014288706  0.012918473          205 
 4829000   0.47686646   -7.7868966    829.31025  0.014311283  0.012914409          146 
 4830000    0.4819874   -7.7715378    827.25669   0.01427289  0.012910342           91 
 4831000   0.47381437   -7.7915132    828.05544  0.014283714  0.012906275          186 
 4832000   0.46231424   -7.7964384    827.94251   0.01427881  0.012902213          149 
 4833000   0.46869624   -7.7992547     827.5221  0.014268606  0.012898148          123 
 4834000   0.47073775   -7.7775871    828.99521   0.01429105  0.012894083          127 
 4835000   0.47684663   -7.8062249    829.57733  0.014298127  0.012890022           99 
 4836000    0.4836443   -7.7962958    827.72345  0.014263225  0.012885962          251 
 4837000   0.47925339   -7.7891027    828.66391  0.014276478  0.012881904          186 
 4838000   0.48011002   -7.7881224    828.97892  0.014278953  0.012877848          136 
 4839000   0.48617901   -7.8022613    829.51674  0.014285265  0.012873794          178 
 4840000   0.48929177   -7.7857568    829.52681  0.014282486  0.012869742          168 
 4841000   0.48056718   -7.7937729    827.34302  0.014241944  0.012865689          111 
 4842000   0.47262867   -7.7819684    827.56759  0.014242868  0.012861643           74 
 4843000   0.48391765   -7.7831966    828.26527  0.014251932  0.012857599           94 
 4844000   0.46706743   -7.7702537    828.30817  0.014249728  0.012853556          143 
 4845000   0.48081323    -7.779755     828.1784  0.014244555  0.012849513          128 
 4846000   0.47982997    -7.770739    827.30524    0.0142266   0.01284547          114 
 4847000   0.47626565   -7.7845088    828.51956  0.014244542  0.012841428          129 
 4848000   0.47997806   -7.8035463    828.12338  0.014234794  0.012837386           97 
 4849000   0.47737185   -7.7899926    827.97207  0.014229258  0.012833344          139 
 4850000   0.47301512   -7.7763567    828.57708   0.01423672  0.012829307          104 
 4851000   0.49442035   -7.7880452    828.89444  0.014239237   0.01282527          112 
 4852000   0.46629897   -7.7998123    827.63244  0.014214627  0.012821232          218 
 4853000   0.47538668   -7.7907611    828.33236  0.014223717  0.012817197          134 
 4854000   0.47344922   -7.8059801    827.38474  0.014204518  0.012813162          147 
 4855000   0.47163073   -7.8072311    827.04776  0.014195808  0.012809132          123 
 4856000   0.47826376   -7.7922542    828.57984  0.014219176  0.012805107          205 
 4857000   0.47099968   -7.7971427    828.38645  0.014212931  0.012801084          182 
 4858000   0.47781442   -7.8060778    828.18721  0.014206587  0.012797057          217 
 4859000   0.47403004   -7.7854936    827.08795  0.014184811  0.012793035          114 
 4860000   0.46377891   -7.7929597    827.47957  0.014188607   0.01278901           99 
 4861000    0.4846006   -7.7790021    828.31817  0.014200065  0.012784991          111 
 4862000   0.47105424   -7.8072919    829.78676  0.014222315  0.012780973          155 
 4863000   0.46743507   -7.8013693    827.01473  0.014171889  0.012776952          100 
 4864000   0.47667863   -7.7910934    826.68135  0.014163263  0.012772934          129 
 4865000   0.47130848   -7.7973777    828.93519  0.014198958  0.012768921          178 
 4866000   0.47252719   -7.7959062    827.56143  0.014172514  0.012764908          122 
 4867000   0.47397907   -7.8042167    827.19286  0.014163291  0.012760894          248 
 4868000   0.47866877   -7.7978404    827.94662  0.014173285  0.012756884           93 
 4869000   0.48207909   -7.7962211    827.45176  0.014161905  0.012752875          130 
 4870000   0.46351398   -7.7950669    827.58365  0.014161253  0.012748869          188 
 4871000   0.48536302   -7.8031543    828.52585  0.014174465  0.012744861          165 
 4872000   0.48878322   -7.7995439    827.31898  0.014150913  0.012740854          114 
 4873000   0.47298905   -7.7890458    825.93874  0.014124406  0.012736851          210 
 4874000   0.47182472   -7.7985071    827.24915  0.014143913   0.01273285          169 
 4875000   0.46912065   -7.8050909    828.43256   0.01416124  0.012728847          130 
 4876000   0.48438862    -7.806868    827.30996   0.01413915  0.012724849          114 
 4877000   0.48378576   -7.8039935    827.37186  0.014137309  0.012720852          147 
 4878000   0.47139949   -7.7937373    827.67472  0.014139585  0.012716858          102 
 4879000   0.47624801   -7.8021657    830.09033  0.014177945  0.012712866          181 
 4880000    0.4785935   -7.8025008    828.93856  0.014155372  0.012708873          211 
 4881000   0.48985041   -7.8020835    827.69022  0.014131159  0.012704881          122 
 4882000   0.46636549   -7.8058699    827.94383  0.014132593  0.012700892          141 
 4883000   0.47263882   -7.8020915     826.8752  0.014111462  0.012696906          114 
 4884000   0.46597031   -7.8055428    828.62413  0.014138413  0.012692924          353 
 4885000   0.46457839   -7.8066256    827.60376  0.014118113  0.012688939          139 
 4886000   0.47681197    -7.805436     828.9398   0.01413801  0.012684954          166 
 4887000   0.47748108   -7.7972663    827.51539  0.014110828  0.012680973          195 
 4888000   0.47187038   -7.8048124     827.8677  0.014113947  0.012676992          129 
 4889000   0.46959788   -7.7935376    827.46463   0.01410419  0.012673011          102 
 4890000   0.47828514   -7.7974788     828.5275  0.014119419  0.012669029          148 
 4891000   0.47081326   -7.8096891    825.98386  0.014073193  0.012665053          146 
 4892000   0.47448874   -7.8007947    827.88947  0.014102778  0.012661076          128 
 4893000   0.46935493   -7.8034759     827.5959  0.014094896    0.0126571          171 
 4894000   0.46368742   -7.7919306    827.78539  0.014095242  0.012653125          156 
 4895000   0.46911894   -7.7950941     827.9468  0.014095111  0.012649157          151 
 4896000   0.45640761   -7.8100735    827.29467  0.014081132  0.012645187          251 
 4897000   0.46955233   -7.8014587    828.44181  0.014097778  0.012641216          226 
 4898000    0.4600615     -7.78655    827.76376  0.014083363  0.012637249          162 
 4899000   0.46956009   -7.8119476    827.98704  0.014084287  0.012633282          214 
 4900000   0.46803794   -7.8059336    828.05077  0.014082496   0.01262932          100 
 4901000   0.46122224   -7.8040475    827.86009   0.01407638  0.012625357          123 
 4902000   0.47241737   -7.8096074    827.97848  0.014075522  0.012621398          159 
 4903000    0.4818283   -7.7950243    828.01453  0.014073263  0.012617441          139 
 4904000   0.46343667   -7.7998599    827.74836  0.014065871  0.012613487          151 
 4905000   0.46912043   -7.8104683    827.49735  0.014058739  0.012609531          158 
 4906000   0.46174147   -7.8248924    828.00822   0.01406455   0.01260558          140 
 4907000    0.4665634   -7.7986093    826.93159    0.0140434  0.012601628          208 
 4908000   0.46551599   -7.8023797    826.24717  0.014028918   0.01259768          242 
 4909000   0.46099866   -7.7965349    826.49495  0.014030267   0.01259373          147 
 4910000   0.46717632   -7.7955756     826.9535  0.014035192  0.012589782          109 
 4911000   0.46824716   -7.8049373     828.3683  0.014056341  0.012585836          114 
 4912000   0.47504425   -7.7903463    826.61961  0.014023813  0.012581889          137 
 4913000   0.47209477    -7.793977    827.39808  0.014034162  0.012577944           96 
 4914000   0.46708934    -7.809478    826.82349  0.014021562  0.012574002          161 
 4915000   0.46847137   -7.8190039    827.57366  0.014031429  0.012570062          154 
 4916000   0.47111826   -7.8132334    826.71414  0.014014004   0.01256612          128 
 4917000    0.4746542   -7.8133722    827.31066  0.014021264  0.012562182          167 
 4918000   0.46016556   -7.8183787    826.40373  0.014003045  0.012558242          249 
 4919000   0.45984802   -7.8091644    827.98668  0.014027016  0.012554309          185 
 4920000   0.45863716   -7.8066455    827.61371  0.014017847  0.012550374          276 
 4921000   0.46193074   -7.8206302    828.59907  0.014031685  0.012546442          209 
 4922000   0.48753557   -7.8177946     827.2089  0.014005298  0.012542509          106 
 4923000   0.45530372    -7.796568    826.87375   0.01399678  0.012538578          162 
 4924000   0.46129634   -7.8313226    826.30632  0.013984334   0.01253465          138 
 4925000   0.46200667   -7.8152748    826.80768  0.013989978  0.012530723          222 
 4926000   0.46275381   -7.8254855    827.65328  0.014001443  0.012526798          153 
 4927000   0.45769396   -7.8195936    827.78775  0.014000875  0.012522874          213 
 4928000   0.46892174   -7.8225234     826.9536  0.013983929  0.012518949          230 
 4929000    0.4602678   -7.8126055    826.59297  0.013974994  0.012515027          126 
 4930000   0.45633229    -7.807474    827.63022  0.013989693  0.012511108          189 
 4931000   0.46764839   -7.8142116    826.47265  0.013967293   0.01250719          222 
 4932000   0.46692837   -7.8151443    827.64845  0.013984328  0.012503277          181 
 4933000   0.45768845   -7.8316251    827.68821  0.013982164  0.012499362          135 
 4934000   0.46807454   -7.8033403     827.2966  0.013972716   0.01249545          112 
 4935000   0.46550867   -7.8118546    826.56836  0.013957588  0.012491541          144 
 4936000   0.44846285   -7.8208232    826.01079  0.013945347  0.012487633          160 
 4937000   0.46872442    -7.784697    827.41212  0.013966176  0.012483726          277 
 4938000   0.46104744   -7.7960423    826.62882  0.013950129  0.012479818          173 
 4939000   0.46099929   -7.8113928    827.73315  0.013965937  0.012475917          150 
 4940000   0.46622639    -7.813298    826.25436  0.013938164  0.012472013          271 
 4941000   0.46779943   -7.8035633    827.40516  0.013954752  0.012468112          139 
 4942000   0.45544223   -7.8261075    827.20188  0.013948501  0.012464214          206 
 4943000   0.45944039   -7.8071153    827.34315   0.01394806  0.012460314          194 
 4944000   0.47364258   -7.7989003    828.19723  0.013959635  0.012456417          189 
 4945000   0.46438109   -7.8218582    828.03537  0.013954085  0.012452522          109 
 4946000   0.46665755   -7.8169503    826.44205  0.013924418  0.012448628          153 
 4947000    0.4626379   -7.8092132    828.07589  0.013949126  0.012444735          181 
 4948000   0.46484488   -7.8241174    826.90003  0.013926503  0.012440844          216 
 4949000   0.46279948   -7.8195926    828.21283  0.013945794  0.012436955          199 
 4950000   0.46389054   -7.8074934    825.07966   0.01389023  0.012433067          189 
 4951000   0.45228548   -7.8059776    826.48251  0.013911037   0.01242918          206 
 4952000    0.4648575   -7.8230812    827.22936  0.013920796  0.012425294          193 
 4953000   0.45188898    -7.826142    827.19453  0.013917399  0.012421409          266 
 4954000   0.46622659   -7.8115124    826.36934  0.013900709  0.012417523          161 
 4955000   0.45395687   -7.8286776     826.4846  0.013899842  0.012413642          218 
 4956000   0.46184209   -7.8361401    827.98217  0.013922218  0.012409759          147 
 4957000   0.45879192   -7.8000378    827.82877  0.013916831   0.01240588          289 
 4958000    0.4604353   -7.8012653    826.59121  0.013893223  0.012402001          117 
 4959000   0.45638916   -7.8190685    826.49833  0.013888861  0.012398122          219 
 4960000    0.4563407   -7.8221609    826.88833  0.013892613  0.012394245          232 
 4961000   0.46233297   -7.8138467    827.76503  0.013904539  0.012390371          154 
 4962000   0.45130798   -7.8154847    827.94133  0.013904698  0.012386496          153 
 4963000   0.45407149   -7.8105306    827.13789  0.013888406  0.012382626          199 
 4964000   0.46307133   -7.8320555    826.54534   0.01387566  0.012378757          143 
 4965000   0.45610075   -7.8252742    827.18838  0.013883659  0.012374891          151 
 4966000   0.46045719   -7.8066845    827.34943  0.013883565  0.012371028          183 
 4967000   0.45211537    -7.819771    828.18004  0.013894706  0.012367165          247 
 4968000   0.44494044   -7.8217248    826.31513  0.013860627  0.012363301          198 
 4969000   0.45368466   -7.8245795    827.10207  0.013871035  0.012359437          223 
 4970000   0.46475729    -7.811981    827.11702  0.013868495  0.012355576          106 
 4971000   0.46666549   -7.8150937    827.13814  0.013866059  0.012351716          208 
 4972000   0.45994243   -7.8146385     826.1623  0.013846914  0.012347858          170 
 4973000   0.45470499   -7.8212289    827.12945  0.013860337     0.012344          265 
 4974000   0.46601081   -7.8144799    826.98991  0.013855212  0.012340143          135 
 4975000   0.45757019     -7.82942    827.44193  0.013859999  0.012336288          132 
 4976000   0.46231939   -7.8338708    828.31993  0.013871917  0.012332434          125 
 4977000   0.45077856   -7.8450891    826.99328  0.013846917  0.012328581           82 
 4978000   0.44796265   -7.8211424    826.68065  0.013838902  0.012324729          283 
 4979000   0.46053041   -7.8207207    826.24893  0.013828897  0.012320882          128 
 4980000   0.46190338   -7.8037853    827.13346  0.013840921  0.012317036          196 
 4981000   0.44670153   -7.8272072    828.00344  0.013852698  0.012313192          116 
 4982000   0.45739289   -7.8273316    828.63571  0.013860493  0.012309348          148 
 4983000   0.45358955   -7.8234176     826.0074  0.013813757  0.012305505          334 
 4984000   0.45752922   -7.8272448     826.7021  0.013822601  0.012301666          157 
 4985000   0.45142714   -7.8106892    826.69059  0.013819635  0.012297825          240 
 4986000   0.45188324   -7.8090029    826.64112  0.013816037  0.012293984          301 
 4987000   0.45604699    -7.842049    827.01744  0.013819555  0.012290143          156 
 4988000   0.44936064   -7.8201087    826.38309  0.013806186  0.012286302          197 
 4989000   0.44790547   -7.8229897    827.05011  0.013814561  0.012282469          114 
 4990000   0.45818796   -7.8055752    827.07931   0.01381228  0.012278636          194 
 4991000   0.45788782   -7.8253346    825.44555  0.013782234  0.012274805          255 
 4992000   0.45804604   -7.8259437    825.54442  0.013781123  0.012270973          163 
 4993000   0.45144098   -7.8406594    826.62256  0.013796358  0.012267145          247 
 4994000   0.44803467   -7.8288466    826.77638  0.013796162  0.012263316          140 
 4995000   0.45734323   -7.8384723    826.75523  0.013793047  0.012259487          153 
 4996000   0.45259353   -7.8272813    826.73979  0.013790029  0.012255664          239 
 4997000   0.44888358   -7.8341192    826.46052  0.013782612  0.012251843          241 
 4998000   0.45489651   -7.8447707    826.50505  0.013780596  0.012248022          186 
 4999000   0.44346153   -7.8346258    826.79421   0.01378266  0.012244203          291 
 5000000   0.46093718   -7.8297795    826.01185  0.013766864  0.012240385          228 
 5001000   0.45544675   -7.8249732    826.95122  0.013779764   0.01223657          128 
 5002000   0.44671997   -7.8271564    825.88516  0.013759249  0.012232756          151 
 5003000   0.45268911   -7.8159734    825.66213  0.013752784  0.012228945          320 
 5004000   0.44186763   -7.8273304    826.58337  0.013765377  0.012225132          234 
 5005000   0.45269508   -7.8256888    827.48119  0.013777576  0.012221321          290 
 5006000   0.46011207   -7.8175931    826.06953  0.013751324  0.012217512          131 
 5007000   0.45492492    -7.843115    826.68934  0.013758893  0.012213703          240 
 5008000   0.44997438   -7.8307228    826.61526  0.013754913  0.012209893          194 
 5009000   0.45415043   -7.8240352    826.60602  0.013752013   0.01220609          134 
 5010000    0.4502305   -7.8157115    826.30001  0.013744179  0.012202286           97 
 5011000   0.44566126   -7.8239509    825.97086  0.013735962  0.012198481          217 
 5012000    0.4470444   -7.8397203    828.26702  0.013771399  0.012194679          154 
Loop time of 10985.4 on 48 procs for 5000000 steps with 4000 atoms

Performance: 78649.616 tau/day, 455.148 timesteps/s
99.4% CPU use with 48 MPI tasks x no OpenMP threads

MPI task timing breakdown:
Section |  min time  |  avg time  |  max time  |%varavg| %total
---------------------------------------------------------------
Pair    | 697.6      | 730.05     | 764.58     |  49.1 |  6.65
Neigh   | 69.371     | 70.456     | 73.83      |   9.9 |  0.64
Comm    | 599.79     | 654.92     | 693.29     |  62.6 |  5.96
Output  | 14.185     | 14.19      | 14.28      |   0.4 |  0.13
Modify  | 9359       | 9396.8     | 9434.6     |  17.9 | 85.54
Other   |            | 119        |            |       |  1.08

Nlocal:        83.3333 ave          94 max          75 min
Histogram: 5 1 5 9 9 9 6 1 2 1
Nghost:        1823.04 ave        1850 max        1801 min
Histogram: 4 2 4 10 11 5 4 5 1 2
Neighs:        11249.9 ave       13711 max        9747 min
Histogram: 3 6 8 9 8 9 2 2 0 1
FullNghs:      22499.4 ave       25700 max       20104 min
Histogram: 5 2 6 6 15 4 5 1 3 1

Total # of neighbors = 1079970
Ave neighs/atom = 269.99250
Neighbor list builds = 269351
Dangerous builds = 0

#clear
#
#next RN
#
#jump SELF
Total wall time: 3:03:08
