
units lj                  # Use reduced LJ style units
atom_style atomic         # Uncharged point particles
atom_modify map hash      # Needed for indexing of clusters etc
                          # Used to be able to find where atoms are in relation to each other.

lattice fcc 1.0 spacing 1 1 1
Lattice spacing in x,y,z = 1.5874011 1.5874011 1.5874011
region box block 0 10 0 10 0 10 units lattice
create_box 2 box
Created orthogonal box = (0.0000000 0.0000000 0.0000000) to (15.874011 15.874011 15.874011)
  3 by 4 by 4 MPI processor grid
create_atoms 1 box
Created 4000 atoms
  using lattice units in orthogonal box = (0.0000000 0.0000000 0.0000000) to (15.874011 15.874011 15.874011)
  create_atoms CPU = 0.002 seconds
set type 1 type/fraction 2 0.8 78393
Setting atom values ...
  3188 settings made for type/fraction
mass 1 1.0
mass 2 1.0
pair_style lj/cut  3.5
pair_modify tail  yes
pair_coeff 1  1  1.0  1.0   # Intearaction between 1 and 1 set with epsilon = 1 and sigma = 1
pair_coeff 1  2  1.5  0.8
pair_coeff 2  2  0.5  0.88

write_data data.0
System init for write_data ...
Neighbor list info ...
  update every 1 steps, delay 10 steps, check yes
  max neighbors/atom: 2000, page size: 100000
  master list distance cutoff = 3.8
  ghost atom cutoff = 3.8
  binsize = 1.9, bins = 9 9 9
  1 neighbor lists, perpetual/occasional/extra = 1 0 0
  (1) pair lj/cut, perpetual
      attributes: half, newton on
      pair build: half/bin/atomonly/newton
      stencil: half/bin/3d
      bin: standard
WARNING: Not all mixed pair coeffs generated from mixing. Use write_data with 'pair ij' option to store all pair coeffs. (../write_data.cpp:312)


#############################
#   M E L T   S Y S T E M   #
#############################

velocity all create 2.4 3143649 mom yes dist gaussian # Assign velocities
                                                    # Temperature 2.4, random number seed, zero linear momentum
                                                                                # Gaussian distribution

timestep 0.002   # simulation timestep
thermo 1000       # output thermodynamic data every 1000 steps bf 100

# Define a fix  in this case with index 1 applied to all
# particles in the simulation. This fix is for simulations
# in the anisotropic NPT ensemble. Note that we use the MTK
# correction.
fix 1 all npt temp 2.4 2.4 0.1 iso 5.68 5.68 0.5 mtk yes tchain 5 pchain 5 # Use NPT ensemble
                                                                         # Set temperature and pressure and damping
                                                                         # Numbers of thermostats in chain and in barostat
run 10000          # run for 10000 steps
Per MPI rank memory allocation (min/avg/max) = 3.642 | 3.644 | 3.648 Mbytes
Step Temp E_pair E_mol TotEng Press Volume 
       0          2.4   -3.6981828            0 -0.099082777   -3.2752093         4000 
    1000    2.4296105   -3.0212874            0   0.62221718    5.9282901    3788.5319 
    2000    2.3482845   -3.0558609            0   0.46568522    5.6027813    3794.7773 
    3000    2.3786018   -3.0713111            0   0.49569973    5.5817923     3794.725 
    4000    2.4233723   -3.0312437            0     0.602906    5.7286043      3817.88 
    5000    2.4218475   -3.0424139            0   0.58944908    5.9528469    3772.8685 
    6000    2.3852983   -3.0631818            0   0.51387115    5.2234709    3835.1053 
    7000    2.4145049   -3.0704571            0   0.55039473    5.6492315     3788.507 
    8000    2.3899276   -3.0711793            0   0.51281591    5.5189934    3805.6263 
    9000    2.4094657   -3.0027558            0    0.6105391    5.7245151    3827.9071 
   10000    2.3909725   -3.0650892            0     0.520473    5.6440442      3795.97 
Loop time of 2.62911 on 48 procs for 10000 steps with 4000 atoms

Performance: 657255.759 tau/day, 3803.563 timesteps/s
99.6% CPU use with 48 MPI tasks x no OpenMP threads

MPI task timing breakdown:
Section |  min time  |  avg time  |  max time  |%varavg| %total
---------------------------------------------------------------
Pair    | 1.1417     | 1.2222     | 1.3792     |   4.1 | 46.49
Neigh   | 0.21106    | 0.22045    | 0.25067    |   1.3 |  8.38
Comm    | 0.73961    | 0.91777    | 1.0178     |   5.5 | 34.91
Output  | 0.00024302 | 0.00024841 | 0.00031323 |   0.0 |  0.01
Modify  | 0.2242     | 0.25311    | 0.31383    |   4.5 |  9.63
Other   |            | 0.01538    |            |       |  0.58

Nlocal:        83.3333 ave          94 max          73 min
Histogram: 4 0 4 8 8 6 11 4 1 2
Nghost:        1698.77 ave        1727 max        1663 min
Histogram: 1 1 2 7 9 7 8 8 2 3
Neighs:        10053.7 ave       11746 max        8445 min
Histogram: 2 2 3 10 6 14 5 3 1 2

Total # of neighbors = 482578
Ave neighs/atom = 120.64450
Neighbor list builds = 906
Dangerous builds = 200

# Equilibrate just above the melting temperature to avoid step fn in T

fix 1 all npt temp 1.25 1.25 0.1 iso 5.68 5.68 0.5 mtk yes tchain 5 pchain 5
run 2000
Per MPI rank memory allocation (min/avg/max) = 3.644 | 3.645 | 3.649 Mbytes
Step Temp E_pair E_mol TotEng Press Volume 
   10000    2.3909725   -3.0650892            0     0.520473    5.6440442      3795.97 
   11000    1.2746548   -4.5136806            0   -2.6021764    5.7800264    2908.2434 
   12000    1.2524176    -4.542759            0   -2.6646023    5.6686272    2898.8425 
Loop time of 0.65055 on 48 procs for 2000 steps with 4000 atoms

Performance: 531242.748 tau/day, 3074.321 timesteps/s
99.6% CPU use with 48 MPI tasks x no OpenMP threads

MPI task timing breakdown:
Section |  min time  |  avg time  |  max time  |%varavg| %total
---------------------------------------------------------------
Pair    | 0.28161    | 0.31248    | 0.36849    |   2.6 | 48.03
Neigh   | 0.041021   | 0.043416   | 0.049536   |   0.7 |  6.67
Comm    | 0.18852    | 0.24533    | 0.27658    |   3.1 | 37.71
Output  | 5.1473e-05 | 5.3412e-05 | 6.8287e-05 |   0.0 |  0.01
Modify  | 0.039236   | 0.044497   | 0.049116   |   1.4 |  6.84
Other   |            | 0.004778   |            |       |  0.73

Nlocal:        83.3333 ave          92 max          76 min
Histogram: 3 6 3 7 4 13 6 3 0 3
Nghost:        2036.79 ave        2058 max        2013 min
Histogram: 4 1 5 6 6 6 6 6 5 3
Neighs:        13144.3 ave       14365 max       11796 min
Histogram: 2 2 3 11 5 5 11 3 2 4

Total # of neighbors = 630928
Ave neighs/atom = 157.73200
Neighbor list builds = 144
Dangerous builds = 12

#############################
# L I N E A R  Q U E N C H  #
#############################

# Define solid atoms. This closely follows ten Wolde  Ruiz-Montero and Frenkel  Faraday Discuss  1996  104  93-110
# Compute components of the per-atom q6 vector
compute q6 all orientorder/atom degrees 1 6 components 6 nnn NULL cutoff 1.3 # compute the Q6 parameter.
                                                                             # Use all neighbours within 1.3 unit cell.

# get number of connections
compute coord_number all coord/atom orientorder q6 0.5

# An atom is solid if it has 8 or more connections (of a possible 14)
variable is_solid atom c_coord_number>=8
group solid dynamic all var is_solid    # Must be dynamic to update
dynamic group solid defined

# do clustering
compute cluster solid cluster/atom 1.3 # Create a cluster where all atoms within are solid and max 1.3 units from another member

# define chunks one chunk per cluster
compute clus_chunks solid chunk/atom c_cluster nchunk every compress yes  # Says which atoms are in which chunk

# count the size of each chunk
compute size_chunks solid property/chunk clus_chunks count


# Find the maximum entry in the vector of chunk sizes
variable max_n equal max(c_size_chunks)


# Thermo style which includes this variable
# thermo_style custom step temp pe vol v_max_n

thermo ${N}  # Print the thermo information every 100 steps
thermo 1000  

# Reset the npt fix at a lower temperature (below freezing)
fix 1  all npt temp  ${temp} ${temp}  0.1  iso  5.68  5.68  0.5  mtk yes tchain  5  pchain  5
fix 1  all npt temp  0.45 ${temp}  0.1  iso  5.68  5.68  0.5  mtk yes tchain  5  pchain  5
fix 1  all npt temp  0.45 0.45  0.1  iso  5.68  5.68  0.5  mtk yes tchain  5  pchain  5

dump dmp2 all dcd ${N} traj.dcd
dump dmp2 all dcd 1000 traj.dcd


compute msd all msd com yes
variable twopoint equal c_msd[4]/6/(step*dt+1.0e-6)
fix 9 all vector 10 c_msd[4]
variable fit equal slope(f_9)/6/(10*dt)
thermo_style custom step temp pe c_msd[4] v_twopoint v_fit v_max_n

fix 1 all npt temp 1.25 ${temp} 0.1 iso 5.68 5.68 0.5 mtk yes tchain 5 pchain 5
fix 1 all npt temp 1.25 0.45 0.1 iso 5.68 5.68 0.5 mtk yes tchain 5 pchain 5
run 2000000 # 5000000  # Run for this many steps
Neighbor list info ...
  update every 1 steps, delay 10 steps, check yes
  max neighbors/atom: 2000, page size: 100000
  master list distance cutoff = 3.8
  ghost atom cutoff = 3.8
  binsize = 1.9, bins = 8 8 8
  4 neighbor lists, perpetual/occasional/extra = 1 3 0
  (1) pair lj/cut, perpetual
      attributes: half, newton on
      pair build: half/bin/atomonly/newton
      stencil: half/bin/3d
      bin: standard
  (2) compute orientorder/atom, occasional
      attributes: full, newton on
      pair build: full/bin/atomonly
      stencil: full/bin/3d
      bin: standard
  (3) compute coord/atom, occasional
      attributes: full, newton on
      pair build: full/bin/atomonly
      stencil: full/bin/3d
      bin: standard
  (4) compute cluster/atom, occasional
      attributes: full, newton on
      pair build: full/bin/atomonly
      stencil: full/bin/3d
      bin: standard
Per MPI rank memory allocation (min/avg/max) = 9.835 | 9.844 | 9.852 Mbytes
Step Temp PotEng c_msd[4] v_twopoint v_fit v_max_n 
   12000    1.2524176    -4.542759 2.9235185e-30 2.0302211e-32 8.3333333e+20            2 
   13000    1.2593625   -4.4809637   0.78311204 0.0050199488  0.065286767            2 
   14000    1.2560295   -4.5241747    1.5790672  0.009399209  0.066749658            3 
   15000    1.2587949   -4.5586947    2.3112492  0.012840273  0.064680979            2 
   16000    1.2347869   -4.5342646    3.1633583  0.016475824  0.065248476            6 
   17000     1.240046   -4.5611203    3.9636231  0.019429524  0.065682106            1 
   18000    1.2610536   -4.5024874    4.7221569  0.021861837  0.065908931            2 
   19000    1.2472932   -4.5579943     5.534623  0.024274662  0.065852451            4 
   20000    1.2535924   -4.5495187    6.3781553  0.026575646  0.066290701            2 
   21000    1.2439081   -4.5728583      7.15689  0.028400356  0.066436851            1 
   22000    1.2381428   -4.5360878       7.9556  0.030134848  0.066429686            2 
   23000    1.2361254   -4.5342183    8.7713814  0.031780367  0.066519971            1 
   24000    1.2506253   -4.5132909    9.5451667  0.033142939  0.066546945            1 
   25000    1.2616619   -4.5340706    10.471371  0.034904568  0.066676135            1 
   26000     1.265241   -4.5349962    11.283643   0.03616552  0.066958762            2 
   27000    1.2483749   -4.5814849    12.139968  0.037469035  0.067338782            2 
   28000    1.2244435   -4.5519776    12.931743   0.03848733  0.067584172            1 
   29000    1.2380064   -4.5412138    13.767049  0.039560484  0.067681058            2 
   30000    1.2432529   -4.5231679    14.483196    0.0402311  0.067666377            2 
   31000    1.2413333   -4.5284839    15.329796  0.041209127   0.06756159            4 
   32000    1.2432448   -4.5473787     16.35296  0.042585833   0.06769831            1 
   33000    1.2316398   -4.5176602    17.261212  0.043588919  0.067969822            2 
   34000    1.2494105   -4.5601037    17.986717  0.044085091  0.068156238            1 
   35000     1.243988   -4.5299562    18.729968  0.044595161  0.068192532            1 
   36000    1.2540992    -4.534617    19.537618  0.045225967  0.068256953            1 
   37000    1.2386152   -4.5326595    20.346313  0.045825028  0.068255134            1 
   38000     1.243211   -4.5437776    21.192291  0.046474322  0.068263333            2 
   39000    1.2520767   -4.5655845    22.039676  0.047093324  0.068288332            1 
   40000    1.2633473   -4.5452597    22.713842  0.047320503  0.068287743            2 
   41000    1.2282667   -4.5810817     23.45448  0.047671706  0.068219854            1 
   42000    1.2214731   -4.5490807    24.129907  0.047876798  0.068104692            2 
   43000    1.2402056   -4.5598648    24.933629  0.048320986  0.068002849            1 
   44000    1.2430671   -4.5452224    26.020394  0.049281049  0.067932822            1 
   45000    1.2559702    -4.588495    26.733206  0.049505936  0.067929035            2 
   46000    1.2287642   -4.5601795    27.825898  0.050409236  0.067973413            2 
   47000    1.2157525   -4.5246791    28.421729  0.050393136  0.068000236            2 
   48000    1.2590363   -4.5726436    29.326617  0.050914265  0.068006982            1 
   49000      1.23526   -4.5362829    30.130553  0.051242436  0.068006042            2 
   50000    1.2347763   -4.5919333    30.939889  0.051566481  0.068020954            2 
   51000    1.2375171   -4.6131748    31.719643  0.051829481  0.068010832            2 
   52000    1.2222799   -4.5412805    32.660138  0.052339964  0.068023661            2 
   53000    1.2280743   -4.5872186    33.223104  0.052237584  0.068028901            2 
   54000    1.2370344   -4.5075735    34.610838  0.053411787  0.068080058            7 
   55000    1.2315482   -4.5759394    35.070603  0.053137277  0.068126623            2 
   56000    1.2243829   -4.5460321    35.769477  0.053228388  0.068137985            1 
   57000    1.2485176   -4.5421251    36.461311   0.05330601  0.068112315            3 
   58000      1.24661   -4.5806915    37.118685  0.053331444  0.068040169            2 
   59000    1.2160847   -4.5646827     38.01359  0.053691511  0.067976138            3 
   60000     1.222172   -4.5556452    38.716121  0.053772389  0.067927383            5 
   61000    1.2203921   -4.5767803    39.294043  0.053680387  0.067850746            6 
   62000    1.2358041   -4.6138427    39.919518  0.053655266  0.067753591            3 
   63000    1.2887787   -4.5557884    40.842385  0.054024318  0.067638853            4 
   64000    1.2234037   -4.5775163    41.511566  0.054051518  0.067538084            3 
   65000    1.2110902   -4.5509775    42.476357  0.054456868  0.067418876            3 
   66000    1.2370364   -4.6012135    42.837059  0.054087195  0.067316759            2 
   67000    1.2061859   -4.5849091    43.779763  0.054452441  0.067221032            1 
   68000    1.2168142   -4.5471061    44.736291  0.054823886  0.067134344            3 
   69000    1.2498025   -4.5744643    45.627895  0.055106153   0.06707915            3 
   70000    1.2426419   -4.5965875    46.616205  0.055495482  0.067059108            3 
   71000    1.2023833   -4.5710558    47.540129  0.055798273  0.067044142            2 
   72000    1.2316785   -4.5821347     48.04562  0.055608357  0.067029464            2 
   73000    1.2430685   -4.5595244    49.080647  0.056028136  0.067004634            1 
   74000    1.2438584    -4.574682    49.913856  0.056209297   0.06699604            1 
   75000    1.2308479   -4.6129721    50.695964  0.056328848  0.066987599            3 
   76000    1.2461821    -4.526046    51.635479   0.05661785  0.067001769            1 
   77000    1.2419254   -4.6134759    52.527334  0.056847763  0.067035217            1 
   78000    1.2275243    -4.570679    53.119562  0.056751669  0.067055912            2 
   79000    1.2009727   -4.5915075    53.427091  0.056357691  0.067031944            2 
   80000     1.225673   -4.5622766    54.868622  0.057154814  0.067003209            2 
   81000    1.1953262   -4.5697323    55.170112  0.056759374  0.066967389            3 
   82000    1.2238819   -4.5531657    56.116155  0.057028613   0.06693023            3 
   83000     1.234991   -4.5624972    57.018435  0.057247424  0.066900318            1 
   84000    1.2092485   -4.5784145    57.334896  0.056879857  0.066862183            2 
   85000    1.2325457   -4.5731539    58.407448  0.057262203  0.066839292            1 
   86000    1.2101809   -4.6384622    58.819637  0.056995772  0.066811349            2 
   87000    1.1755517   -4.6136204    59.941468  0.057415199  0.066794416            1 
   88000    1.2443101   -4.6145168    60.429884  0.057225269  0.066765602            3 
   89000    1.2301635    -4.599998    61.096891  0.057206827  0.066715547            5 
   90000    1.2350861   -4.5805396    62.447735  0.057821976  0.066670233            1 
   91000    1.1980573   -4.5909124    62.990182  0.057683316  0.066643165            1 
   92000    1.2132024   -4.5545957    64.228904  0.058178355  0.066630098            2 
   93000    1.2216212   -4.5877096    64.496244  0.057792333  0.066608358            2 
   94000    1.2221047   -4.6351436    65.306501  0.057895834  0.066585603            2 
   95000    1.1929536   -4.6258216    65.761986  0.057685952    0.0665499            2 
   96000    1.2214838   -4.6162553    66.656439  0.057861492  0.066515977            3 
   97000    1.2094474   -4.5768475    67.330343  0.057843937   0.06648124            2 
   98000    1.2033669   -4.6202199    68.037809   0.05785528  0.066442085            4 
   99000    1.2559357   -4.6195925    68.699551  0.057827905   0.06638846            3 
  100000    1.1971568   -4.5921358    69.025282  0.057521068  0.066333225            1 
  101000    1.2052453   -4.5966731    69.801448  0.057591953  0.066268656            2 
  102000    1.2238012   -4.5997707    70.688606  0.057752129  0.066199383            1 
  103000    1.2357608   -4.5995773    71.286759  0.057675371  0.066134987            2 
  104000    1.2007593   -4.6171857    71.937135  0.057641935  0.066070343            2 
  105000    1.2086335   -4.5968377    73.676856  0.058473695  0.066023366            3 
  106000    1.1871765   -4.6085308    74.267097  0.058386082  0.065995053            2 
  107000    1.2125035    -4.599226    75.269502  0.058621107  0.065972634            2 
  108000    1.2290574   -4.6141567    75.748761  0.058448118  0.065940988            2 
  109000    1.2281752   -4.6069368    76.849405  0.058753367  0.065913172            2 
  110000    1.2265606   -4.5899464    77.029921  0.058356001  0.065886333            2 
  111000    1.1902546   -4.5897442    78.037775  0.058586918  0.065851267            2 
  112000    1.2122581   -4.6183381    78.403897  0.058336233  0.065807815            2 
  113000    1.2175424   -4.6155025    79.590019  0.058694704  0.065766983            1 
  114000    1.1933863   -4.5950089    80.371637  0.058751196  0.065737222            1 
  115000    1.2040977   -4.6278691    80.897849  0.058621629  0.065708159            4 
  116000    1.2175763   -4.6047671    82.039392  0.058936345  0.065671495            3 
  117000       1.2077   -4.5927624    82.721225  0.058918251  0.065645855            4 
  118000    1.2264231   -4.6566425    83.064598  0.058661439  0.065625822            3 
  119000    1.2048223   -4.6389067    84.328235  0.059053385   0.06559963            3 
  120000    1.2064364   -4.6081514    85.239584  0.059194155  0.065573757            3 
  121000    1.2207324   -4.5924222    85.722202  0.059037329   0.06554651            3 
  122000    1.2119691   -4.6282869      86.2416  0.058908196  0.065527703            3 
  123000    1.2081768   -4.6197584    87.506869  0.059286496  0.065510063            2 
  124000    1.2163269   -4.6222537    87.737354  0.058963275  0.065494423            1 
  125000    1.2160906    -4.628493    88.803067  0.059202045   0.06547398            2 
  126000    1.2026806   -4.5920246    89.624947  0.059275759  0.065457446            1 
  127000     1.222971   -4.6117501    90.642971  0.059477015  0.065441276            3 
  128000    1.1998157   -4.6253719    91.264791  0.059417181  0.065426659            8 
  129000    1.1872497   -4.6150566    92.055882  0.059467624  0.065406368            4 
  130000    1.1969377   -4.6480739    92.917052  0.059562213  0.065387192            2 
  131000    1.1985899    -4.581704    93.518567  0.059490182   0.06536954            2 
  132000    1.2047237   -4.6233629    94.531543  0.059679004  0.065351714            2 
  133000    1.1774704    -4.632479    95.746763  0.059991706  0.065345869            4 
  134000    1.1841363   -4.6105577    96.159072  0.059800417  0.065340953            3 
  135000    1.2220431    -4.626431    96.814046  0.059761757  0.065336653            3 
  136000    1.2067819   -4.5912495    97.862551  0.059964798  0.065331588            2 
  137000    1.2037619   -4.6354356    98.765676  0.060076445  0.065319789            2 
  138000    1.2190895    -4.624557    99.641474  0.060169972  0.065319487            2 
  139000    1.1764148   -4.6341166    100.27504  0.060116931  0.065324982            1 
  140000     1.225114   -4.6260993    101.08785  0.060171342  0.065324212            1 
  141000    1.1954888    -4.664206    101.31662    0.0598798  0.065320828            3 
  142000    1.2056363   -4.6331625    101.96821  0.059840497  0.065310891            1 
  143000    1.2002052   -4.6055351    102.96931  0.060005425  0.065301528            2 
  144000    1.1920362   -4.6587999    103.70044  0.060011829  0.065285765            3 
  145000    1.1944234   -4.6025818    104.06358  0.059806656  0.065259857            3 
  146000    1.1596094   -4.6124836    105.01152  0.059938082  0.065229629            1 
  147000    1.2035003   -4.6022543      105.634  0.059883221  0.065203551            2 
  148000    1.1782717   -4.5969702    106.36847  0.059892157  0.065172659            3 
  149000    1.1997032   -4.5936311    107.04525  0.059868708  0.065139685            2 
  150000    1.2052927   -4.6222855    107.64595  0.059803304  0.065110568            3 
  151000    1.2049057   -4.6317741    107.81617  0.059501197  0.065073246            5 
  152000    1.1985433   -4.6353618    109.18967  0.059862757   0.06503528            2 
  153000    1.2124051    -4.644864    109.67781  0.059737367  0.065004084            4 
  154000    1.1814036   -4.6124355    110.79254  0.059952671  0.064976891            8 
  155000     1.197663   -4.6542088    110.92325  0.059636156  0.064950641            3 
  156000    1.2287048    -4.630005     111.8878  0.059769121  0.064921065            2 
  157000     1.170515   -4.6714753      112.485  0.059705412  0.064890327            3 
  158000    1.1944162    -4.630631    113.38731  0.059803434  0.064860665            2 
  159000    1.1960073   -4.6172004    114.90191  0.060221129   0.06483387            1 
  160000    1.2073967   -4.6321285    114.71906  0.059749511  0.064809134            4 
  161000    1.1756373   -4.6421254    114.95404  0.059500019  0.064778893            1 
  162000    1.1799334   -4.6271454    115.90926  0.059624107  0.064738794            2 
  163000      1.20517   -4.6501277     116.7585  0.059692485  0.064701709            3 
  164000    1.2239176   -4.6473205     117.7467  0.059830641  0.064668988            2 
  165000    1.1980886   -4.6571358    118.09873  0.059645823  0.064637428            2 
  166000    1.1660156   -4.6566585    118.76938  0.059623183  0.064604464            5 
  167000    1.2040981   -4.6629053    119.47166  0.059616596  0.064569072            2 
  168000    1.2037719   -4.6163335    120.19583  0.059620949  0.064531502            3 
  169000    1.1935204   -4.6612531    120.90039  0.059615578  0.064497452            2 
  170000    1.1980293    -4.640592    121.08787    0.0593568  0.064460629            2 
  171000     1.173361   -4.6262056    122.23863  0.059570483  0.064421113            3 
  172000     1.194131   -4.6817858    122.62572  0.059411684  0.064379701            4 
  173000    1.1815226   -4.6373984    123.37842  0.059430837  0.064338614            2 
  174000    1.2149705   -4.6479941    124.10878  0.059439069  0.064300899            3 
  175000    1.1524735   -4.6265692    125.53093  0.059776633  0.064266046            1 
  176000    1.1951501   -4.6313291     126.0442  0.059680017   0.06423214            3 
  177000    1.1803107   -4.6599808    126.58887  0.059599278  0.064198226            3 
  178000    1.1619386   -4.6701653    127.01963  0.059466119  0.064162865            1 
  179000    1.1618027   -4.6298039     127.9205  0.059553305   0.06412853            3 
  180000    1.2065982    -4.639999    128.54096  0.059509705  0.064095655            2 
  181000    1.1996043   -4.6629141    129.35112  0.059553922  0.064065698            2 
  182000    1.1753026   -4.6667618    129.90662  0.059481055  0.064031315            3 
  183000    1.1828432   -4.6626192     130.8184  0.059571219  0.063994735            1 
  184000     1.148853   -4.6288569    131.60977  0.059605875  0.063957984            4 
  185000    1.1722141   -4.6476201    132.55963  0.059711547  0.063922261            1 
  186000    1.1648552    -4.642325    133.10933  0.059636796  0.063893208            2 
  187000    1.1606308   -4.6426777    134.28854   0.05984338  0.063865981            2 
  188000    1.1884225   -4.6653626    134.67137  0.059694758   0.06384248            4 
  189000    1.2053544   -4.6581443    135.68086  0.059824014  0.063816756            3 
  190000    1.1944866   -4.6671639     136.3461  0.059800922  0.063790086            4 
  191000    1.2005073   -4.6627357     136.8508  0.059708028  0.063764218            2 
  192000    1.1720031   -4.6595406     137.7929  0.059805946  0.063744846            1 
  193000    1.2003997   -4.6714859    138.92254  0.059983824  0.063726936            2 
  194000    1.1576399   -4.6604459    139.52454  0.059933223  0.063706062            4 
  195000    1.1705761   -4.6681504    139.83534  0.059758692  0.063680301            1 
  196000    1.1752896   -4.6446881    140.54089  0.059753779  0.063654912            2 
  197000    1.1837658   -4.6553937    141.13827  0.059703159  0.063627461            1 
  198000    1.1740768   -4.6703954    141.82077  0.059688878  0.063595903            1 
  199000    1.1844485   -4.6772746    142.21295   0.05955316   0.06355971            6 
  200000    1.1652212   -4.6807533    142.95026  0.059562608  0.063528877            2 
  201000    1.1861147    -4.692403    143.57161  0.059523885  0.063500813            2 
  202000    1.1639192    -4.682288    144.16621  0.059474511  0.063470921            1 
  203000    1.1656316   -4.6867476    144.84257  0.059459181  0.063441658            3 
  204000     1.159063   -4.6589951    145.92549  0.059610085   0.06341332            3 
  205000    1.1647285   -4.6869864    146.89353  0.059712818  0.063385694            2 
  206000    1.1790212   -4.6507246    148.08459   0.05990477  0.063362651            1 
  207000    1.1873737   -4.6903766    148.00083  0.059581656  0.063337501            5 
  208000    1.1746715   -4.6772894    149.42908  0.059867421  0.063310827            2 
  209000    1.1837822   -4.6810424    150.62318  0.060057089  0.063290802            2 
  210000    1.1809507   -4.7053905    150.23648  0.059617652  0.063274921            3 
  211000    1.1447557    -4.680409    151.93231  0.060004862  0.063252038            2 
  212000    1.1770447   -4.6590102    151.47174  0.059540778  0.063229641            3 
  213000     1.165559   -4.6849226    152.37841  0.059615965  0.063204257            3 
  214000     1.156502   -4.6673909    153.26775  0.059683704  0.063179981            2 
  215000    1.1824279    -4.689353    153.92026  0.059659017  0.063152564            4 
  216000    1.2008254   -4.6674092    154.19422   0.05948851  0.063126121            1 
  217000    1.1539858   -4.6535857    154.77579  0.059437708  0.063098405            1 
  218000    1.1595671   -4.6762736    155.88411  0.059588727  0.063071348            3 
  219000    1.1703949   -4.6783283    156.23131  0.059448749  0.063046269            4 
  220000    1.1444418   -4.7050716    157.78283  0.059766223  0.063022303            3 
  221000    1.1493967   -4.6858792    157.75361  0.059484771  0.062997687            1 
  222000    1.1858824   -4.6959482    158.08358  0.059340682  0.062975961            2 
  223000    1.1492146    -4.688811    159.77812  0.059707819  0.062956132            2 
  224000    1.1556477   -4.6647731    160.58013  0.059739633  0.062938394            4 
  225000    1.1741431   -4.6533123    161.46182  0.059800675  0.062922412            2 
  226000    1.1703192   -4.6617717    162.50659  0.059921307  0.062904398            3 
  227000    1.1875876    -4.656858    163.07968  0.059867724  0.062887995            3 
  228000    1.1664672   -4.7055756    163.35979  0.059707526  0.062867789            2 
  229000    1.1852202   -4.7013745    164.16304  0.059739099  0.062845782            2 
  230000    1.1527087    -4.682313    165.11243  0.059823345  0.062827603            2 
  231000    1.1552716   -4.6685507     166.6601  0.060122692  0.062810708            2 
  232000    1.1625652   -4.6594063    167.31883  0.060100154  0.062798751            3 
  233000    1.1738002    -4.711344    167.14559  0.059780253   0.06278432            2 
  234000     1.147174   -4.7027797    167.83769  0.059771256  0.062766562            2 
  235000    1.1493417   -4.6829743    168.39935  0.059716083  0.062747291            3 
  236000    1.1659544    -4.691375    168.62823  0.059543866  0.062726389            2 
  237000    1.1357058   -4.6881116    169.43428  0.059576048  0.062706932            3 
  238000     1.165193   -4.6987896    171.23928  0.059957731  0.062686257            3 
  239000    1.1674797   -4.6565603    171.19385  0.059691022  0.062666424            2 
  240000    1.1664819   -4.6945319    171.55888  0.059569055  0.062645123            2 
  241000    1.1763314   -4.6848586    172.38346  0.059607007  0.062623474            1 
  242000    1.1561407   -4.6727447    172.52766  0.059410352  0.062598871            3 
  243000     1.129372   -4.7112818    172.80855  0.059262192  0.062567908            2 
  244000    1.1921509   -4.7378336    172.78235  0.059010367  0.062537991            1 
  245000    1.1507547   -4.6886811    174.11002  0.059221094  0.062507465            5 
  246000     1.172312   -4.6668474    175.27296  0.059374309  0.062476507            1 
  247000     1.117895   -4.6584826    176.05075  0.059396338  0.062444986            1 
  248000    1.1757387   -4.7020648    175.66388  0.059026842  0.062412913            3 
  249000    1.1639282   -4.6473579    177.27078   0.05932757  0.062383471            3 
  250000     1.171677   -4.7013673    176.97494  0.058991646  0.062350437            4 
  251000    1.1867689   -4.6984968    177.24037  0.058844745  0.062316774            2 
  252000    1.1486746   -4.7099084    177.63248  0.058740899  0.062280193            4 
  253000    1.1624506   -4.7395747    177.97588  0.058621833  0.062244322            2 
  254000    1.1298713   -4.7150997    179.49873  0.058890658  0.062209419            1 
  255000    1.1504164   -4.6992591    180.83551  0.059096573  0.062177454            5 
  256000    1.1366091   -4.7107615    180.80158   0.05885468  0.062143605            3 
  257000     1.168668   -4.7202804    181.60116  0.058884942  0.062107567            2 
  258000    1.1590558   -4.6770358    182.34948   0.05889841  0.062073213            1 
  259000     1.137981   -4.7448281    182.15113  0.058607183  0.062038103            3 
  260000    1.1737425   -4.7172961    183.35865  0.058768797  0.062002061            1 
  261000    1.1450854   -4.7119133    183.91095  0.058719972  0.061967468            3 
  262000    1.1398101   -4.7307127    184.60194  0.058715631  0.061929857            2 
  263000    1.1434193      -4.7202    184.93837  0.058598978  0.061892847            2 
  264000     1.144673   -4.7180161    184.77817  0.058326443  0.061853047            2 
  265000    1.1440687   -4.6877267    186.57789  0.058672293  0.061816193            2 
  266000    1.1495246   -4.7349497    186.51451  0.058431865   0.06177675            4 
  267000    1.1414851    -4.711141    187.51263  0.058524541  0.061738259            3 
  268000    1.1356366   -4.6987237    188.50535  0.058614846  0.061698127            4 
  269000    1.1470841   -4.7143524      188.618  0.058431847  0.061656681            4 
  270000    1.1423443    -4.717667    188.81474  0.058276154  0.061618003            2 
  271000    1.1821086   -4.7087017    190.56116  0.058598143  0.061581644            2 
  272000    1.1338836   -4.6954145    190.92058  0.058492823   0.06154652            6 
  273000    1.1544837   -4.7427845     191.3307  0.058403755  0.061513978            3 
  274000    1.1577005   -4.7130585    192.88242  0.058662536  0.061481336            2 
  275000    1.1573752   -4.7180936    193.20098  0.058545752  0.061448747            4 
  276000    1.1236059   -4.7207153    193.83229  0.058524242   0.06141703            4 
  277000    1.1548225   -4.7363072    194.04021  0.058375514  0.061384391            3 
  278000    1.1539405   -4.7541862    194.34085  0.058255652  0.061349671            6 
  279000    1.1473979   -4.7169283    196.35327  0.058647931  0.061316794            2 
  280000    1.1378702    -4.731339    195.62212  0.058220868  0.061281628            3 
  281000    1.1587524   -4.7259231    196.28518  0.058210316  0.061244122            2 
  282000    1.1260679   -4.7293516    197.20462  0.058275595  0.061206075            3 
  283000    1.1613273   -4.6771961    198.29751  0.058391493  0.061171673            3 
  284000     1.143716   -4.7361981     197.8793  0.058063174  0.061136417            1 
  285000    1.1260388   -4.7169396    199.30983  0.058277729  0.061103234            2 
  286000    1.1164718   -4.7277403    199.85134  0.058231743  0.061066658            6 
  287000     1.150248   -4.7262073    200.07938  0.058095058  0.061031918            6 
  288000    1.1475135   -4.7101513    200.81931   0.05810744  0.060995259            1 
  289000    1.1294646   -4.7363221    201.67346  0.058152671  0.060955526            3 
  290000    1.1374988   -4.6983343    202.72536  0.058254413  0.060918567            3 
  291000    1.1198313   -4.7112141    202.31238  0.057935961  0.060880594            2 
  292000    1.1464881   -4.7312111    202.48191  0.057785933  0.060842167            3 
  293000    1.1257806   -4.7369505    203.87446  0.057984773  0.060804934            2 
  294000    1.1325833   -4.7552815     203.2701  0.057616241   0.06076917            1 
  295000    1.1512463   -4.7568571    204.24319  0.057695817  0.060731629            2 
  296000    1.1656114   -4.7429736    205.66302  0.057900625  0.060697046            3 
  297000    1.1045042   -4.7091341    206.99919  0.058080582   0.06066127            1 
  298000    1.1311811   -4.7363282     207.4996  0.058025616  0.060629552            2 
  299000    1.1473771   -4.7305968    207.72318  0.057893862  0.060598283            5 
  300000    1.1168058   -4.7068091    208.67724  0.057965901  0.060565661            1 
  301000    1.1350604   -4.7508647    209.49565  0.057999903  0.060535054            5 
  302000    1.1530644   -4.7679126    209.21775  0.057731167  0.060503616            5 
  303000    1.1446874   -4.7673127    210.09577  0.057782114  0.060472133            5 
  304000    1.1203985   -4.7480217    211.13544  0.057877038  0.060443908            5 
  305000    1.1324554   -4.7395846     212.0267  0.057930793  0.060414536            2 
  306000    1.1215923   -4.7435488    212.98692  0.058002974  0.060383725            5 
  307000    1.1171358   -4.7349777    212.92638  0.057797607  0.060353228            1 
  308000    1.1319765   -4.7778896    212.88736  0.057599395   0.06032164            5 
  309000    1.1114695   -4.7353028    214.72349   0.05790817  0.060290052            1 
  310000    1.1108946   -4.7539801    214.34561  0.057619786  0.060260458            3 
  311000     1.131775   -4.7696723    215.53613  0.057753518  0.060227842            4 
  312000    1.1236334   -4.7641151    215.71811  0.057617016  0.060195201            4 
  313000    1.1324277   -4.7479515    216.55326  0.057655287  0.060161484            1 
  314000    1.1422082   -4.7451316     216.6132   0.05748758  0.060126879            3 
  315000    1.1152599   -4.7907736    217.42375   0.05751951  0.060091673            3 
  316000    1.1451334   -4.7506732     217.9334  0.057471889  0.060056236            2 
  317000    1.1298428   -4.7323928    218.32222  0.057392803  0.060020926            1 
  318000    1.1509246   -4.7394427    219.30818  0.057470698  0.059987414            3 
  319000    1.1424144   -4.7276751    220.31264  0.057552935  0.059955603            2 
  320000    1.1212409   -4.7711537    220.99376  0.057550458  0.059923819            2 
  321000    1.1367118   -4.7693545    220.87147  0.057339427  0.059889092            2 
  322000    1.1395459   -4.7829712    221.27226  0.057265079  0.059853735            4 
  323000    1.1178847   -4.7706539    222.45871  0.057393889  0.059819881            3 
  324000    1.1152905   -4.7636784    223.17145  0.057400064   0.05978635            2 
  325000     1.133053   -4.7802669    223.20956  0.057233221   0.05975228            2 
  326000    1.1046411   -4.7209754    224.54148  0.057398129  0.059716837            4 
  327000    1.1173156   -4.7412156    225.06364  0.057355667  0.059682516            2 
  328000    1.1166398   -4.7684767    224.23042   0.05696911  0.059645726            2 
  329000    1.1052997   -4.7516849    225.20532  0.057042886  0.059607787            3 
  330000    1.1342739   -4.7931023    226.03675  0.057079988  0.059571611            1 
  331000    1.1179007   -4.7431312    227.52522  0.057282281  0.059537006            3 
  332000    1.1433227   -4.7126223    228.70334  0.057405458  0.059502387            3 
  333000    1.1153724    -4.761994    228.21252   0.05711024   0.05946716            3 
  334000    1.1374814   -4.7861733    227.97234  0.056879325  0.059432197            3 
  335000    1.1313291   -4.7427751    228.27101  0.056783833  0.059396372            5 
  336000    1.1156376   -4.7407215    229.97105  0.057036472  0.059360258            4 
  337000    1.1373331    -4.746024    229.89197  0.056847668  0.059323396            3 
  338000    1.1446109   -4.7519478     230.4003  0.056804808  0.059286521            3 
  339000    1.1117838   -4.7823389    231.80197  0.056981802  0.059250482            2 
  340000    1.0989802   -4.7398544    232.31582  0.056940153  0.059215779            5 
  341000    1.0997203   -4.7613692    232.53532  0.056826814  0.059180513            3 
  342000    1.0964501   -4.7618925     232.8637  0.056740667  0.059145958            4 
  343000    1.1313556   -4.8188192    233.17031  0.056649735  0.059109475            7 
  344000    1.1233678    -4.759606    233.93119  0.056669378  0.059074556            2 
  345000    1.1025379   -4.7749085    235.66007  0.056922723  0.059042257            4 
  346000    1.1026465   -4.8094274    236.43684  0.056945288  0.059011989            3 
  347000    1.1054303    -4.774748    238.01558  0.057160321    0.0589843            3 
  348000    1.1139544   -4.7533357    238.24724  0.057051542  0.058956522            2 
  349000    1.0897246   -4.8050899    238.26892  0.056893248  0.058929294            3 
  350000    1.1171351   -4.7991945    239.40145  0.057000344  0.058901929            2 
  351000    1.1193106    -4.769378    240.90815  0.057195667  0.058875626            2 
  352000    1.1039389   -4.7781718    241.20258  0.057102884  0.058850933            3 
  353000    1.1097278   -4.7819567    241.53902  0.057020542  0.058825143            6 
  354000     1.123558   -4.7762594    241.75824  0.056911073  0.058797357            1 
  355000    1.1232377   -4.7650145     242.2761  0.056872324  0.058770998            3 
  356000    1.1191895   -4.7820866    242.43008  0.056748615  0.058744742            3 
  357000    1.1272099   -4.7727676     243.3396   0.05680196  0.058717527            4 
  358000    1.0917561   -4.7994272    244.00047  0.056797129  0.058689325            4 
  359000    1.1113246   -4.8001397    244.61102  0.056780646  0.058661233            2 
  360000     1.103481   -4.7675464    245.19045  0.056757049  0.058633439            4 
  361000    1.1137016   -4.7951713    246.10982  0.056812055  0.058605183            2 
  362000    1.1097777   -4.7879653    245.47067   0.05650798   0.05857437            1 
  363000    1.1248182   -4.7738008     247.2878  0.056769468  0.058544595            5 
  364000    1.0924474   -4.7915694    248.13098  0.056806543  0.058517357            1 
  365000    1.1106868   -4.7641165    249.23535  0.056903049  0.058488803            2 
  366000    1.1053811   -4.7854175    249.71061  0.056855785  0.058462455            3 
  367000    1.0880413   -4.7988732    248.77958  0.056489461  0.058434981            2 
  368000    1.1022389   -4.7848621    251.30793  0.056908499  0.058410422            3 
  369000     1.127635     -4.74686    252.50499  0.057024614  0.058388034            2 
  370000    1.0970197   -4.7614808    252.34002  0.056833337  0.058365945            2 
  371000    1.0797697   -4.7876488    253.04919   0.05683944  0.058344982            2 
  372000    1.1306186   -4.7814464    253.81311  0.056857775  0.058323092            2 
  373000    1.1044185   -4.8033242    254.33776  0.056822555  0.058300721            4 
  374000    1.1120827    -4.773815    255.86904  0.057011817  0.058280513            3 
  375000    1.1322957   -4.8263857    254.77077  0.056615726  0.058259538            2 
  376000    1.1066223   -4.7853025    256.13842  0.056768266  0.058237443            4 
  377000     1.127321   -4.8138053    256.72299  0.056746903  0.058215095            4 
  378000    1.0856178   -4.7935607    257.62224  0.056795026  0.058192948            3 
  379000    1.0887347   -4.7882376    257.69259  0.056660641  0.058170255            6 
  380000    1.1050897   -4.8001946    257.74259  0.056522498   0.05814638            4 
  381000    1.0817627   -4.7555814    259.57986  0.056775998  0.058121925            7 
  382000    1.0885322   -4.7793624    258.76784  0.056450227   0.05809699            2 
  383000    1.0857332   -4.8200615    258.90692  0.056333099  0.058071198            7 
  384000    1.0882761   -4.7930158    260.36966  0.056503833  0.058045879            2 
  385000    1.1437589   -4.8184765    260.04211  0.056286171  0.058020447            3 
  386000     1.103116   -4.7728854    261.82811  0.056525931  0.057995104            2 
  387000    1.0991632   -4.7556457    262.64071  0.056554847  0.057970157            3 
  388000    1.0865624   -4.8017643    262.19147  0.056312601  0.057945081            3 
  389000    1.1192378    -4.812588    261.28447  0.055973537  0.057918002            3 
  390000    1.1100704   -4.8128473    262.60146  0.056111424  0.057891476            2 
  391000     1.084627   -4.8215225    263.62644  0.056186368  0.057863845            1 
  392000    1.0597649   -4.7795446    264.64845    0.0562603  0.057837795            2 
  393000    1.1111008   -4.8126591    265.00249  0.056192215  0.057809919            2 
  394000    1.0755424    -4.816797    264.65914  0.055976975  0.057780587            2 
  395000    1.1255042   -4.8037825    265.72883  0.056060934  0.057751811            3 
  396000    1.1126102   -4.7982117    266.63145  0.056109311  0.057723377            2 
  397000    1.1029915   -4.8260179    267.18192  0.056083525  0.057694859            2 
  398000    1.0859054   -4.7420157    268.38315  0.056194126  0.057667832            2 
  399000    1.1045854   -4.7984987    267.82463   0.05593664  0.057640492            2 
  400000    1.0976459   -4.8171816    267.00368  0.055625767   0.05761174            4 
  401000    1.1175018   -4.8030082    268.71625  0.055842945  0.057581472            2 
  402000    1.0799244   -4.8128377    268.70259    0.0557012  0.057552882            3 
  403000    1.0919935   -4.7832129    271.37753  0.056116114  0.057525107            2 
  404000     1.071768   -4.8478156    270.67052  0.055831379  0.057497794            2 
  405000    1.0646185   -4.8132989     271.5602  0.055876583   0.05746967            1 
  406000    1.0774266   -4.7981199    272.13771  0.055857493  0.057442049            1 
  407000    1.0985275   -4.8046457    271.96595  0.055685084  0.057413541            1 
  408000    1.0977684   -4.8061998    272.89305   0.05573796  0.057384164            5 
  409000    1.0805973   -4.8255839    273.07198  0.055638138  0.057354747            3 
  410000    1.0877369   -4.8046613    273.38862  0.055566793  0.057325257            3 
  411000    1.0885613   -4.8163442    275.13898  0.055786491  0.057295838            2 
  412000    1.1096779   -4.8479791    273.96368  0.055413365  0.057265857            3 
  413000    1.0719868   -4.8271602     274.8256  0.055453107  0.057235455            2 
  414000    1.0967865   -4.7998058    275.77138  0.055509538  0.057204854            4 
  415000    1.1110553   -4.8209766    276.27619  0.055477146   0.05717468            5 
  416000    1.0653801   -4.8124893    277.27962  0.055544795  0.057144053            3 
  417000    1.0808275     -4.80924     276.9565  0.055347023  0.057114539            4 
  418000    1.0913526    -4.815315    278.18132  0.055458796  0.057086136            5 
  419000    1.0858574   -4.8143173    279.10072  0.055509293  0.057055909            1 
  420000    1.0872719   -4.8253113    278.53377  0.055264637  0.057026561            2 
  421000    1.0895383   -4.8030377    279.18165   0.05526161  0.056996862            1 
  422000    1.0880671   -4.8296709    280.72355  0.055435141   0.05696719            3 
  423000    1.0846724   -4.8387694    280.39924  0.055240197  0.056937945            2 
  424000    1.0836044   -4.8288827    280.54014  0.055137606  0.056907355            2 
  425000    1.0900307   -4.8187084    280.89787  0.055078013  0.056876216            1 
  426000    1.0865907   -4.8136161    282.10609  0.055185072  0.056845664            3 
  427000    1.0772398   -4.8334672    282.50898  0.055134462  0.056816266            3 
  428000    1.0921874   -4.8106055    283.64751  0.055227318  0.056786824            3 
  429000    1.0895369   -4.8567894    283.95487  0.055158289   0.05675763            1 
  430000    1.0630044   -4.8553696     283.2666  0.054896629  0.056727279            4 
  431000    1.0687637   -4.8381931    283.91578  0.054894775  0.056695941            3 
  432000     1.067857   -4.8525651    285.08117  0.054992509  0.056665399            4 
  433000    1.0920712   -4.8690544    285.63892  0.054972849  0.056635201            4 
  434000    1.0750122   -4.8240633    286.06077  0.054927182  0.056605197            4 
  435000    1.0660709   -4.8233689    287.79393  0.055132937  0.056575648            3 
  436000      1.08505   -4.8407628    288.44572  0.055131062  0.056546415            2 
  437000    1.0562783   -4.8155319    288.07216   0.05493367  0.056517787            4 
  438000    1.0562437   -4.8417257    288.34004  0.054859216  0.056487527            3 
  439000    1.0735567   -4.8224079    289.65932  0.054984684  0.056458066            1 
  440000    1.0691811   -4.8490064    289.58402  0.054845459  0.056429287            3 
  441000    1.0783957   -4.8205188    289.78496  0.054759063  0.056400363            2 
  442000    1.1016368   -4.8389491    290.02849  0.054681089  0.056370785            3 
  443000    1.0776327   -4.8632585    291.83217  0.054896947  0.056341159            4 
  444000    1.0784956   -4.8727834     291.1454  0.054644407  0.056312064            3 
  445000    1.0984342   -4.8986744    290.35593   0.05437377  0.056281866            2 
  446000    1.0774692   -4.8479896    293.05703  0.054756545  0.056251653            4 
  447000    1.1079681   -4.8445894    292.50381  0.054530912  0.056223751            2 
  448000    1.0848597   -4.8327083    294.53092  0.054786257   0.05619535            4 
  449000    1.0721022   -4.8742017    294.02459  0.054570266  0.056167429            7 
  450000    1.0744247   -4.8395699    294.85353  0.054602505  0.056139288            3 
  451000    1.0673903   -4.8330766    295.59423  0.054618299  0.056111271            4 
  452000    1.0848884   -4.8502422    296.29028   0.05462579  0.056083223            2 
  453000     1.047824   -4.8305472    296.87898    0.0546135  0.056055836            2 
  454000    1.0750456   -4.8384683     297.9662  0.054692768  0.056028901            2 
  455000    1.0833911   -4.8589173    298.74804  0.054715758  0.056002123            2 
  456000    1.0946393   -4.8446671    298.11432  0.054479956  0.055974685            4 
  457000    1.0423018   -4.8605343    297.77297  0.054298499  0.055947164            4 
  458000    1.0758755   -4.8369564    299.86677  0.054560911  0.055919543            3 
  459000    1.0535205   -4.8394686    299.98847  0.054464137  0.055891002            2 
  460000    1.0552787   -4.8157878    299.63396  0.054281514  0.055860549            3 
  461000    1.0848991   -4.8745445    301.18839  0.054444755   0.05583121            4 
  462000    1.0852102   -4.8807801    300.85108  0.054266068  0.055802647            3 
  463000    1.0777125   -4.8541171    301.55812   0.05427612  0.055774702            5 
  464000    1.0977025   -4.8591347    302.65237   0.05435567  0.055747197            3 
  465000    1.0644391   -4.8500915    303.35162  0.054364089  0.055720911            4 
  466000    1.0688609   -4.8172186     304.8762  0.054520065  0.055694352            2 
  467000    1.0766483   -4.8561624    303.85131  0.054220434  0.055667728            2 
  468000    1.0638616   -4.8514862    305.90635  0.054470504  0.055641098            2 
  469000    1.0662795   -4.8342888     306.8146  0.054515742  0.055614011            4 
  470000    1.0678382   -4.7968146    307.85854  0.054584848  0.055587712            5 
  471000    1.0407999   -4.8475486    306.00244   0.05414056  0.055560489            2 
  472000     1.061625   -4.8799694    307.61946  0.054311346  0.055533564            3 
  473000    1.0611369   -4.8449916    309.52958  0.054533047   0.05550803            2 
  474000    1.0752881   -4.8775127    307.97423  0.054144555  0.055483099            3 
  475000    1.0563551   -4.8572001    309.41079  0.054282594  0.055457729            7 
  476000    1.0592362   -4.9002252    310.19844   0.05430645   0.05543269            3 
  477000    1.0466016    -4.831531    310.57506  0.054258396  0.055407293            4 
  478000    1.0584725   -4.8608684    311.51858  0.054309376  0.055381261            3 
  479000    1.0669027   -4.8704748    312.33357  0.054337783  0.055356331            3 
  480000    1.0844921   -4.8974482    311.84165  0.054139175  0.055331268            3 
  481000    1.0750343   -4.8709227     311.7119  0.054004141  0.055304986            5 
  482000    1.0880637   -4.8496493    313.53728  0.054207689   0.05527924            5 
  483000    1.0697402   -4.8515077    314.56606  0.054272957  0.055254584            2 
  484000    1.0688896   -4.8886686    313.61397  0.053996896  0.055229229            3 
  485000    1.0698518   -4.8712862    314.42124  0.054024267  0.055203212            2 
  486000    1.0633057   -4.8667113    315.39443  0.054079978  0.055177842            3 
  487000    1.0488182    -4.873778    315.52828  0.053991835  0.055153622            4 
  488000    1.0426405   -4.9176465    317.28559  0.054181283  0.055128943            4 
  489000    1.0443893   -4.9267471    316.23469  0.053891391  0.055103957            6 
  490000    1.0462506   -4.8638342    318.66879  0.054195373   0.05507972            4 
  491000    1.0919335   -4.8627855    318.87891  0.054120656  0.055055262            2 
  492000    1.0551451   -4.8559816     318.9183  0.054017326  0.055030298            1 
  493000    1.0625498    -4.876196    319.33378  0.053977988  0.055005349            5 
  494000    1.0662818   -4.8604298    319.98597   0.05397874  0.054982163            3 
  495000     1.048146   -4.8513717    321.47242  0.054119936  0.054958564            3 
  496000     1.050736    -4.863298    320.78602  0.053895501  0.054935063            3 
  497000    1.0580649   -4.8727934    321.61606  0.053926234  0.054911381            3 
  498000    1.0509872   -4.8544749    323.50135  0.054133425  0.054887771            3 
  499000    1.0684544   -4.8783062    322.73433  0.053896849  0.054864127            2 
  500000    1.0713027   -4.8868378    322.85342  0.053808903    0.0548397            2 
  501000    1.0401496   -4.9041456     323.4248  0.053796541  0.054815493            1 
  502000    1.0592821   -4.8743826    323.36474  0.053679406  0.054790359            3 
  503000    1.0522206   -4.8665829    324.96961   0.05383857  0.054766361            5 
  504000    1.0692915   -4.8665077     325.4699  0.053814467  0.054742298            7 
  505000    1.0435381   -4.9118992    324.32976  0.053519762  0.054717191            2 
  506000    1.0342175   -4.9299213    324.59989   0.05345848  0.054691199            3 
  507000    1.0453683   -4.8890385    326.25605  0.053625254  0.054665003            2 
  508000    1.0445178   -4.8995077      326.545  0.053567094  0.054639595           11 
  509000    1.0399635    -4.923208    327.32325  0.053589269  0.054614913            3 
  510000    1.0496048   -4.9149423     327.8958  0.053577744  0.054589865            4 
  511000    1.0604144   -4.8631283    330.43013  0.053886191  0.054564009            3 
  512000    1.0621023   -4.8989698    328.46242   0.05346068  0.054539471            3 
  513000    1.0548324    -4.926566    328.44794  0.053354116  0.054514228            6 
  514000    1.0437016   -4.8487939    329.42958  0.053409466  0.054488496            2 
  515000     1.066155   -4.9213465    329.19947  0.053268522  0.054462685            3 
  516000     1.058181    -4.911389    329.96353  0.053288683  0.054436564            3 
  517000    1.0548259   -4.8934116    330.27518  0.053235844  0.054411098            5 
  518000    1.0467542   -4.8955136    331.36357  0.053308168  0.054386218            8 
  519000    1.0574894   -4.8620685    333.26493  0.053510747   0.05436132            3 
  520000    1.0535556   -4.9124905    333.20269  0.053397868  0.054337285            2 
  521000    1.0342834   -4.8866852    332.38369  0.053164378  0.054312678            2 
  522000    1.0326159   -4.9141673    333.16308  0.053186955  0.054288277            2 
  523000    1.0648527   -4.9048849     333.7226  0.053174411  0.054262847            5 
  524000    1.0296924   -4.9091914    333.98268  0.053114294  0.054236379            3 
  525000    1.0341799   -4.9229022    334.11768  0.053034553  0.054210358            2 
  526000    1.0543556     -4.91214    335.87379  0.053211944  0.054184659            2 
  527000    1.0773208   -4.9291233    335.98538  0.053128618  0.054159786            5 
  528000    1.0610405   -4.9074093      335.929  0.053019098  0.054135017            2 
  529000      1.04663    -4.926311     336.8552  0.053064776  0.054109823            5 
  530000    1.0410862   -4.8866761    337.03412  0.052992786  0.054083828            3 
  531000    1.0550129   -4.9065731    338.98595  0.053199301  0.054058454            4 
  532000    1.0447949    -4.958812     338.9007   0.05308595  0.054033939            4 
  533000    1.0128727   -4.9348031    340.17333  0.053185323   0.05400946            2 
  534000    1.0112879   -4.9283003    339.71756  0.053014601   0.05398546            6 
  535000    1.0643106   -4.9083849    342.32382  0.053321467  0.053962082            4 
  536000    1.0474526   -4.9444295    342.47195  0.053245018  0.053938719            3 
  537000    1.0669461   -4.9011052    342.67754  0.053177769  0.053915303            4 
  538000    1.0354682   -4.8757757    343.01543  0.053131262    0.0538921            3 
  539000     1.045943   -4.8967561    344.84041  0.053314843  0.053869215            4 
  540000    1.0655558   -4.9242304    343.81888   0.05305847   0.05384569            2 
  541000    1.0472885   -4.9192422    343.15512  0.052858152  0.053822699            3 
  542000    1.0646062   -4.9334437    345.20457  0.053075734  0.053798589            6 
  543000    1.0594998   -4.9246385    343.54654  0.052723533   0.05377471            5 
  544000    1.0192038   -4.9311628    344.55061  0.052780425   0.05374977            3 
  545000    1.0407543   -4.9368745    345.02929  0.052756773  0.053725306            5 
  546000    1.0319935   -4.9290561    346.84207  0.052936824  0.053700969            4 
  547000    1.0204203   -4.9144101    346.94984  0.052856465  0.053677048            3 
  548000    1.0277189   -4.8764842    348.86842  0.053051767  0.053653242            2 
  549000    1.0319716   -4.8856146    348.67483  0.052925749  0.053630611            1 
  550000    1.0536451   -4.9142115    349.22521  0.052912911  0.053606851            2 
  551000    1.0627267   -4.9635711    348.78397  0.052750147   0.05358295            2 
  552000    1.0374785   -4.9243396    350.14639  0.052860264  0.053558774            2 
  553000    1.0469292    -4.928716    349.01985  0.052594913  0.053535386            4 
  554000    1.0223767   -4.8814848    351.26622   0.05283788  0.053512206            3 
  555000    1.0178085   -4.9523503    349.85525  0.052530818  0.053488774            3 
  556000    1.0114637    -4.914012    350.59939   0.05254787  0.053464686            5 
  557000    1.0451158   -4.9287928    350.02118  0.052367022  0.053440857            3 
  558000    1.0493837   -4.9365465    353.11303  0.052734921  0.053416813            2 
  559000    1.0506115   -4.9213147    353.13203  0.052643415   0.05339368            3 
  560000    1.0297919   -4.9590094    353.38119  0.052586486  0.053370729            5 
  561000     1.038387   -4.9087726    354.17236  0.052610274  0.053347525            3 
  562000    1.0240123   -4.9470116     353.2147  0.052374659  0.053325006            5 
  563000      1.01335   -4.9244792    354.94458  0.052537683  0.053301357            2 
  564000    1.0071633   -4.9384106     355.5516  0.052534219  0.053278651            5 
  565000     1.019565   -4.9556418    356.00591  0.052508246  0.053255133            2 
  566000    1.0017288   -4.9129008      357.752  0.052672556  0.053231095            2 
  567000    1.0150496   -4.9556424    356.12079  0.052339916  0.053207067            2 
  568000   0.99079052   -4.9389236     356.5414  0.052309477  0.053183229            4 
  569000    1.0211051   -4.9964364    355.59553  0.052079018  0.053157931            2 
  570000    1.0483006   -4.9092286    357.34091  0.052242824  0.053133356            4 
  571000    1.0129628   -4.9415681    357.92791  0.052236998  0.053108256            5 
  572000    1.0323029   -4.9154257    357.90767  0.052142725  0.053083281            7 
  573000    1.0269978   -4.9148259    358.81018  0.052182982  0.053057846            4 
  574000    1.0260734   -4.9613354    360.27688  0.052305006    0.0530339            4 
  575000   0.99608051    -4.950682    359.80051  0.052145002  0.053008693            3 
  576000    1.0273631   -4.9475176    360.22538   0.05211594  0.052984516            3 
  577000    1.0348697   -4.9244655     361.7019  0.052238865  0.052959606            5 
  578000    1.0115853    -4.972461    360.34242  0.051952483  0.052935601            3 
  579000    1.0209082   -4.9549815    361.89366   0.05208602  0.052911092            3 
  580000    1.0166145   -4.9739912    361.21752  0.051899069  0.052886829            6 
  581000    1.0152453   -4.9484616    363.11441  0.052081815   0.05286219            2 
  582000    1.0159803   -4.9406639    363.86975   0.05210048  0.052838615            3 
  583000   0.98863522   -4.9314149      363.748  0.051993711  0.052813395            3 
  584000    1.0179899   -4.9632507     363.0997  0.051812171  0.052788031            9 
  585000     1.015015   -4.9348677    364.97891  0.051991298  0.052762668            3 
  586000    1.0185511   -4.9876824    365.22077   0.05193697   0.05273775            2 
  587000    1.0172965   -4.9090319     367.8491  0.052221621  0.052713559            2 
  588000    1.0281353   -4.9424986    365.31114  0.051773121  0.052689061            3 
  589000    1.0017552   -4.9472469    366.15628  0.051804793  0.052665236            4 
  590000    1.0216366   -4.9496147    366.74875  0.051800671  0.052640545            4 
  591000     1.019991   -4.9405564    366.62796   0.05169599  0.052615639            4 
  592000    1.0170606   -4.9568313    367.52128  0.051734415  0.052589876            4 
  593000    1.0064609   -4.9715787     369.1391  0.051874523  0.052565713            4 
  594000    1.0167182   -4.9412594    368.37983  0.051680671  0.052541234            2 
  595000    1.0273137    -4.981498    368.63604  0.051629697  0.052517105            4 
  596000    1.0211602   -4.9851955    369.55472  0.051671521  0.052492137            2 
  597000       1.0115    -4.985785    369.78681  0.051617366  0.052468872            2 
  598000     1.021009   -4.9320567    371.76464  0.051806666  0.052445398            2 
  599000     1.015804   -4.9658851    371.26095  0.051650104  0.052422179            5 
  600000    1.0325755   -4.9496748    372.44395  0.051728326  0.052400317            2 
  601000    1.0398409   -4.9607103    374.31886  0.051902227  0.052377787            2 
  602000    1.0374308   -4.9603775     375.4847  0.051977395  0.052355549            2 
  603000     1.021194   -4.9591117    373.93408  0.051676904  0.052333463            4 
  604000    1.0300277   -4.9680708    374.82947  0.051714883  0.052310473            3 
  605000    1.0045285   -4.9637732    375.19132  0.051679245  0.052289012            3 
  606000     1.023551   -4.9648155    375.33586  0.051613842  0.052266923            2 
  607000    1.0251566   -4.9794628    377.40411  0.051812755  0.052244794            3 
  608000    1.0177572   -4.9439062    377.86791  0.051791107  0.052223287            2 
  609000    1.0039652     -4.96554    377.68157  0.051680565  0.052201683            2 
  610000    1.0151751   -4.9755164     377.1213  0.051519304  0.052179593            4 
  611000    1.0417953   -4.9832539    378.43683  0.051614406  0.052157664            2 
  612000    1.0206915    -4.970271    380.07719   0.05175343   0.05213516            5 
  613000    1.0115646   -4.9649146     379.2057   0.05155053  0.052113798            2 
  614000    1.0271593   -4.9632604    379.61977   0.05152277  0.052092566            2 
  615000    1.0166273   -4.9595243     379.8528  0.051470569  0.052070577            2 
  616000   0.99809709   -5.0263002    379.50384  0.051339806  0.052048053            3 
  617000    1.0094735   -4.9574729    380.15539  0.051344596  0.052025867            2 
  618000    1.0082131   -4.9150015    382.42455  0.051567495  0.052004244            4 
  619000    1.0126111   -4.9708414     382.6192  0.051510393  0.051982125            4 
  620000    1.0240181   -4.9732428    383.21255  0.051507063  0.051959193            6 
  621000   0.99695521   -5.0335779    379.80999  0.050967524  0.051935709            5 
  622000   0.99490914   -5.0012772    382.02736  0.051182659  0.051911714            4 
  623000    1.0088925   -4.9484153    384.27968  0.051401776  0.051889038            2 
  624000    1.0166849   -4.9657174    384.03482  0.051286702  0.051866325            2 
  625000   0.97688162   -4.9686452    383.73278  0.051164371   0.05184326            4 
  626000    1.0074215   -4.9718328    384.90448  0.051238616  0.051820065            4 
  627000   0.99544283   -4.9919029     383.9045   0.05102399  0.051797071            7 
  628000    1.0033965   -4.9724614    386.81469  0.051328913  0.051774053            5 
  629000    1.0175564   -4.9501222    386.61407   0.05122073  0.051751876            6 
  630000    1.0066454   -4.9960819     387.6113  0.051271336  0.051729613            2 
  631000   0.97959434   -4.9825136    386.38064  0.051027554  0.051707084            3 
  632000   0.99465322   -4.9611716    389.38821  0.051343383  0.051684416            3 
  633000   0.99943967     -5.01176    388.00726  0.051080471  0.051662946            4 
  634000   0.99322137   -4.9712395    390.32618  0.051304703   0.05164131            4 
  635000   0.97548614   -4.9721222    389.70052  0.051141801  0.051619264            4 
  636000   0.99196091   -5.0021574    388.59495  0.050916529   0.05159675            5 
  637000    1.0005408   -4.9896809    390.93172  0.051142297  0.051574291            5 
  638000   0.99140491   -4.9945415    391.11803  0.051086471  0.051551838            2 
  639000    1.0072497   -4.9952169    390.56381  0.050934248  0.051529667            9 
  640000     1.022291   -5.0104366    389.71777  0.050744501  0.051506838            3 
  641000   0.98059191   -4.9946025    391.14117  0.050850387  0.051483199            3 
  642000    1.0062001   -4.9965416    392.17806  0.050905771  0.051459802            2 
  643000    1.0140947   -5.0156719    392.53433  0.050872775  0.051436577            2 
  644000     1.000494   -4.9847766    393.33125  0.050896901  0.051413991            2 
  645000   0.99282822   -5.0150079     394.6312  0.050985943  0.051391568            2 
  646000    1.0086732   -4.9855225    394.94556   0.05094757   0.05136932            3 
  647000     1.022844   -4.9923211    393.28341  0.050654742  0.051347045            1 
  648000   0.99931718    -5.024878    394.47665  0.050730021  0.051324502            3 
  649000    1.0113248   -4.9790493    395.79868  0.050821607  0.051301881            2 
  650000   0.99436853   -4.9822851    398.06661   0.05103418  0.051279214            2 
  651000   0.98140062   -5.0292255    396.11128  0.050705489  0.051256508            3 
  652000   0.99484216   -5.0207924    396.22461  0.050642204  0.051233691            9 
  653000    1.0020365   -5.0131202    395.00069   0.05040846  0.051210462            9 
  654000    1.0182754   -4.9956531    397.28377  0.050622295  0.051186667            4 
  655000   0.98409261   -5.0225417    396.86558  0.050491804  0.051163274            4 
  656000   0.99899667   -4.9683258    399.77387  0.050784282  0.051140975            3 
  657000    0.9913311   -4.9732608    399.31072  0.050648239  0.051118749            2 
  658000    1.0169687   -4.9981982    399.63655  0.050612531  0.051096495            5 
  659000     1.006563   -4.9961674    400.72734  0.050673664  0.051073712            3 
  660000   0.99887928   -4.9698282    399.95918  0.050499896  0.051050676            2 
  661000    1.0046305    -5.025841    400.28256  0.050464267   0.05102776            4 
  662000    1.0110114   -5.0072035    400.62637  0.050431315  0.051004666            3 
  663000   0.99351372   -5.0144185    400.42806  0.050330324  0.050981916            2 
  664000   0.97472708   -5.0536944    399.93841  0.050193073  0.050958922            4 
  665000   0.99097074    -4.998672    400.52185  0.050190708  0.050935497            7 
  666000   0.97260229   -5.0277881    400.82338  0.050153076  0.050911744            3 
  667000   0.98856127   -5.0084392     402.7115   0.05031378  0.050888101            6 
  668000    0.9883367   -5.0148943    401.55996  0.050094805  0.050863827            3 
  669000   0.96373601   -5.0181781    403.17649  0.050221287  0.050840019            4 
  670000    0.9779455   -5.0448966    402.54073  0.050067255   0.05081538            3 
  671000   0.98623476   -4.9966593    404.99416  0.050297337  0.050791579            3 
  672000   0.99686122   -5.0115808    405.09781  0.050235343  0.050767867            3 
  673000   0.99347603   -5.0275651     403.7378  0.049992298  0.050744268            3 
  674000    1.0041913   -4.9961946    405.08398  0.050084568   0.05072068            4 
  675000   0.97523896   -5.0548681    405.09019  0.050011135  0.050697261            3 
  676000    0.9817058   -5.0400672    405.26812  0.049959088  0.050673832            2 
  677000    0.9939202   -5.0184713    406.86058  0.050081313  0.050650464            3 
  678000   0.97698237   -5.0165569    408.40315  0.050197044  0.050627192            1 
  679000   0.97552097   -5.0331027    406.98096  0.049948572  0.050603428            5 
  680000   0.97296896   -5.0165647    407.59645  0.049950545  0.050580873            3 
  681000      1.00778   -5.0058102    409.21799  0.050075623  0.050558223            5 
  682000   0.97791503   -5.0207345    408.98355  0.049973552  0.050534921            2 
  683000    0.9746211   -5.0117595    410.46598  0.050081256  0.050512531            4 
  684000   0.97194715   -5.0283541    411.24158  0.050102532  0.050490129            4 
  685000   0.98125628   -5.0150154    411.32122  0.050039077  0.050467985            4 
  686000    0.9996218   -5.0024019    413.15532  0.050188936   0.05044602            3 
  687000   0.98167261   -5.0108022    412.36238  0.050019697  0.050424568            6 
  688000    1.0013713   -5.0480568    411.61802  0.049856834  0.050402181            3 
  689000   0.94371868   -5.0236971    412.56495  0.049899002  0.050379403            5 
  690000   0.98380057   -5.0378033    412.42888  0.049810252  0.050356731            5 
  691000   0.97991023   -5.0196901    412.89458  0.049794329  0.050333784            4 
  692000   0.98679908   -5.0594195    411.88895   0.04960127  0.050310761            8 
  693000   0.98717963    -5.058755    412.84264  0.049644377   0.05028705            7 
  694000    1.0073834   -5.0194391    413.31906   0.04963005  0.050263588            2 
  695000   0.98844789   -5.0139347    414.82707  0.049739456  0.050240198            5 
  696000   0.95471811   -5.0050279    415.34683  0.049730224  0.050217325            3 
  697000   0.99594745   -5.0093768    416.11115  0.049750257  0.050194738            3 
  698000   0.96970137   -5.0510431    415.35044  0.049588161  0.050171683            3 
  699000   0.97393078    -5.029641    415.90932  0.049583848  0.050149373            3 
  700000   0.99380582   -5.0444859    417.62658   0.04971745  0.050127331            8 
  701000   0.98431183   -5.0199345    418.43437  0.049742555  0.050105763            2 
  702000   0.98255567   -5.0282465    417.74992  0.049590447  0.050083754            3 
  703000   0.96741963   -5.0408306    418.49372  0.049608074  0.050061287            4 
  704000   0.99011796   -5.0488795    417.97145  0.049475788  0.050038666            3 
  705000    1.0015114    -5.061232    417.98813  0.049407581  0.050015503            3 
  706000   0.95903084   -5.0422313    419.60198   0.04952809   0.04999213            6 
  707000   0.97461587   -5.0009505    420.56586  0.049571647  0.049969213            4 
  708000   0.95459439   -5.0455721    418.93689  0.049309898  0.049946799            7 
  709000   0.97020272   -5.0277703     421.8733  0.049585484  0.049924499            4 
  710000   0.98006762   -5.0719704    420.96861  0.049409462  0.049902098            4 
  711000   0.96035019   -5.0305809    421.69673  0.049425308  0.049879517            6 
  712000   0.94358593   -5.0551684    423.10079  0.049520223  0.049857297            2 
  713000   0.97158956   -5.0516132     422.1795  0.049343093  0.049834883            2 
  714000   0.98471192   -5.0521456    423.12098  0.049383867  0.049812887            4 
  715000   0.95441619   -5.0830301    422.82193  0.049279945  0.049791159            3 
  716000   0.98041921   -5.0563678    424.76305  0.049437041  0.049769643            3 
  717000   0.96503445   -5.0611357    424.40424  0.049326388  0.049747474            3 
  718000   0.96931205   -5.0333986    425.34843  0.049367274  0.049725505            2 
  719000   0.96843872   -5.0597416    425.87651  0.049359818  0.049703007            5 
  720000   0.98689901   -5.0743989    425.31663  0.049226462  0.049680356            4 
  721000   0.99080935   -5.0730018    424.90841  0.049111004  0.049657798            8 
  722000   0.96737187   -5.0656532    426.23404  0.049195988  0.049634895            2 
  723000   0.96996203   -5.0577814    427.18213  0.049237221  0.049612425            5 
  724000   0.96285599   -5.0392429    426.97793  0.049145711  0.049589742            3 
  725000   0.96436366   -5.0555512    427.04049  0.049085114  0.049566566            4 
  726000   0.94790588   -5.0178591    430.26742  0.049387904  0.049544322            2 
  727000   0.95362905   -5.0444062    428.40825  0.049106861  0.049522254            3 
  728000   0.96140472   -5.0419212    429.80599  0.049199404   0.04950032            2 
  729000   0.95815706   -5.0567007    429.26178  0.049069705  0.049477858            3 
  730000   0.95697265   -5.0475257    429.10128  0.048984165  0.049455312            4 
  731000   0.93905717   -5.0534478    429.72311  0.048988043  0.049433188            3 
  732000   0.95291983   -5.0467968    430.82799  0.049046903  0.049411306            7 
  733000   0.95131186   -5.0478083    431.40651  0.049045761   0.04938938            2 
  734000   0.96552615     -5.09388    431.09268  0.048943311  0.049367296            7 
  735000   0.95753405   -5.0630871    433.32678   0.04913002  0.049345325            2 
  736000   0.99128524   -5.0791234    432.03033  0.048916477  0.049323314            6 
  737000   0.94269445   -5.0538248    434.98538  0.049184236  0.049302511            5 
  738000   0.96684691   -5.0673945    433.73446  0.048976339  0.049281839            5 
  739000   0.94955911   -5.0732929    433.27984    0.0488588  0.049260201            4 
  740000   0.97269981   -5.0821357    435.10319  0.048998107  0.049239166            1 
  741000   0.96155444   -5.0729434    434.00102  0.048808032  0.049217133            3 
  742000   0.94024099   -5.1168212    434.82941  0.048835288  0.049195144            3 
  743000   0.94476537   -5.0917721    437.93991  0.049118429  0.049173128            3 
  744000   0.94987873   -5.0532344    436.13097  0.048849795  0.049151288            4 
  745000   0.96763884   -5.1002161    436.34727  0.048808419  0.049129654            3 
  746000    0.9623122   -5.1020919    434.73203  0.048562559  0.049107992            4 
  747000   0.95233567   -5.0755219    435.80045  0.048616739  0.049085948            2 
  748000     0.946093   -5.1013728    436.16058  0.048591865  0.049063902            7 
  749000    0.9714443   -5.0923724    437.35424  0.048659796  0.049042001            9 
  750000   0.96591501   -5.0950387    437.16935  0.048574372  0.049020214            7 
  751000   0.98418004   -5.0595399    438.55663  0.048663629  0.048998414            2 
  752000   0.94277423   -5.0852699    438.05344  0.048543156  0.048976577            5 
  753000   0.95053918   -5.0658372    439.27905  0.048614325  0.048954375            5 
  754000    0.9762411   -5.0824349    438.84514  0.048501894  0.048932969            5 
  755000   0.93087858   -5.0882145    439.50446  0.048510426  0.048911772            2 
  756000   0.95389534   -5.0909375    439.88757  0.048488489  0.048889775            5 
  757000   0.95085491   -5.0965405    440.06274  0.048443718  0.048867559            4 
  758000   0.92831326   -5.1115305    441.78455  0.048569102  0.048845424            3 
  759000   0.96147122   -5.0945503    441.85256  0.048512578  0.048823065            4 
  760000   0.97379966   -5.0927197    439.84369  0.048228475  0.048800863            2 
  761000   0.94895506   -5.0764384    440.80027   0.04826985  0.048778628            6 
  762000   0.94624728   -5.0467847    442.63526  0.048407181  0.048756108            3 
  763000    0.9614944    -5.082015     441.5522  0.048225447  0.048733413            3 
  764000   0.95048631   -5.0778945    443.23058  0.048345395  0.048711162            4 
  765000   0.93983502   -5.1081479    441.47414  0.048090865   0.04868878            4 
  766000   0.94766654   -5.0694534    443.27135  0.048223602  0.048665782            3 
  767000   0.94854816   -5.1061258    443.58067  0.048194336   0.04864325            7 
  768000   0.95612199   -5.1299072    442.54064  0.048018733  0.048620416            5 
  769000   0.93406621   -5.0985155    444.17754  0.048133673  0.048597667            3 
  770000   0.93177429   -5.1068142    443.48145  0.047995828  0.048574229            3 
  771000   0.95082349   -5.1066993    442.77165  0.047856858  0.048550071            3 
  772000   0.95392653   -5.0927311    445.00639  0.048036095  0.048526425            4 
  773000   0.95087916    -5.097406    442.58501  0.047712916  0.048502451            3 
  774000   0.94786339    -5.094136    443.90403  0.047793285    0.0484783            3 
  775000   0.94486077   -5.0767634    446.57811  0.048019151  0.048454087            7 
  776000   0.94544488   -5.0857648    445.66076  0.047858759  0.048429809            4 
  777000   0.93992534   -5.0789365     445.7137  0.047802842   0.04840546            5 
  778000   0.94322835   -5.0753685    446.84332  0.047862395  0.048381148            6 
  779000   0.94243925   -5.0766495    446.72207  0.047787983  0.048356634            7 
  780000   0.93635651   -5.0841659    447.52104  0.047812077  0.048332492            5 
  781000   0.93748235   -5.1242493    445.48044  0.047533124  0.048308198            4 
  782000   0.96130256   -5.1360242    446.77536  0.047610333  0.048283806            4 
  783000   0.94986156   -5.1064799    448.20549  0.047701734  0.048260492            3 
  784000   0.96038526   -5.0753582    449.08114  0.047733964  0.048236227            4 
  785000   0.92173633   -5.1084563    449.05821  0.047670723   0.04821206            2 
  786000   0.93451806   -5.1287519    448.27237  0.047526757  0.048188113            5 
  787000   0.92269297   -5.1054189    449.67746  0.047615148  0.048163889           10 
  788000   0.92636302   -5.0794072    448.99498  0.047482549  0.048139543            4 
  789000   0.91987493   -5.1235147    450.42075  0.047572957  0.048115439            5 
  790000   0.92463913   -5.0991671    450.99208  0.047573004  0.048091898            5 
  791000    0.9258057   -5.1219634    450.39805  0.047450279  0.048068473            3 
  792000   0.95126603    -5.126457    451.07978  0.047462098   0.04804422            4 
  793000   0.95178988   -5.1303111    451.25079  0.047420217  0.048019896            8 
  794000   0.93599056   -5.0992422    452.03793  0.047443107  0.047995625            5 
  795000    0.9220833   -5.0783925     452.9286  0.047476793   0.04797118            5 
  796000   0.94634978   -5.1168969    451.71668  0.047290272  0.047947143            3 
  797000   0.90918336   -5.1476211    452.30882  0.047292851  0.047922787            2 
  798000   0.94260585   -5.1097975    453.23374  0.047330174  0.047898519            3 
  799000   0.94183914   -5.0981637    452.39558  0.047183519  0.047874187            6 
  800000    0.9358682   -5.1253118    452.10217  0.047093976  0.047849946            4 
  801000   0.93582647   -5.1068004    454.04072  0.047236862  0.047825622            8 
  802000   0.92922826   -5.0999716    455.96809   0.04737823   0.04780088            6 
  803000   0.93683966   -5.0941032    454.27149   0.04714316  0.047776548            3 
  804000   0.92921064   -5.1441166    454.27519  0.047084908  0.047752622            4 
  805000   0.94172642   -5.1430961    455.25748  0.047128103   0.04772796            3 
  806000   0.92959368   -5.1243879    454.72092  0.047014156  0.047703301            4 
  807000   0.92331628   -5.1180211    455.35989  0.047021881  0.047678735            6 
  808000   0.93507008   -5.1280655    455.24066  0.046951388   0.04765401            3 
  809000   0.93744159   -5.1411636    454.55966  0.046823204  0.047629411            4 
  810000   0.91708103   -5.1338388    455.51128    0.0468633  0.047604448            2 
  811000   0.92376642   -5.1286857    456.66893  0.046924468  0.047579231            2 
  812000     0.934942   -5.1264476     456.8782  0.046888157  0.047554233            7 
  813000   0.95302719   -5.1273524    457.85278  0.046930379  0.047529273            6 
  814000    0.9336901   -5.1298587    457.82817  0.046870206  0.047504277            4 
  815000   0.92753824   -5.1052794    460.42677  0.047078402  0.047479521           10 
  816000   0.91913406   -5.1230797    457.56251  0.046728197  0.047454469            6 
  817000   0.94811448    -5.154079    459.66038  0.046884983  0.047429292            3 
  818000   0.92870352   -5.1271125    459.76686  0.046838515  0.047404373            3 
  819000   0.92954674   -5.1407674    458.53942  0.046656433  0.047379025            5 
  820000    0.9361291   -5.1331768    458.00443  0.046545166  0.047353785           14 
  821000   0.93652234   -5.1312198     459.8227  0.046673031  0.047328431            2 
  822000   0.93553607   -5.1036285    460.07488  0.046641817  0.047302965            7 
  823000    0.9284946    -5.133638    460.17916  0.046595702  0.047277666            4 
  824000   0.92724158   -5.1383787    460.01562  0.046522615   0.04725308            5 
  825000   0.92322842   -5.1699374    458.82253   0.04634571   0.04722796            4 
  826000    0.9310615   -5.1209017    460.97799  0.046507061  0.047202928            6 
  827000   0.94251039   -5.1471775    461.92959  0.046546714  0.047177487            2 
  828000   0.92007001   -5.1504454    460.13649  0.046310033  0.047151721            3 
  829000     0.918595   -5.1433924    461.28702  0.046369825  0.047125499           12 
  830000     0.922455   -5.1662113    461.63807  0.046349204  0.047099441            6 
  831000   0.89881507   -5.1577247    462.05088  0.046334825  0.047073315            7 
  832000   0.93453182   -5.1604045    461.04575  0.046178461  0.047046766            2 
  833000   0.92510094   -5.1467304    461.89828  0.046208311  0.047020905            4 
  834000    0.9316945   -5.1298876    462.27004  0.046190052   0.04699553            2 
  835000   0.92004984   -5.1256743    463.59983  0.046267448  0.046969696            6 
  836000   0.89079226   -5.1271608    462.60153  0.046112592  0.046943518            6 
  837000   0.93097566   -5.1698738    461.38998  0.045936875  0.046916816            6 
  838000   0.93025393   -5.1301358    463.46481  0.046088386  0.046890694            5 
  839000   0.91784973   -5.1748757    462.41073  0.045928757    0.0468643            3 
  840000    0.9091427   -5.1491077    463.68717  0.046000711  0.046837745            6 
  841000   0.91581243   -5.1438908    463.21832  0.045899556  0.046811372            2 
  842000   0.90821391   -5.1485854    464.20724  0.045942918  0.046785028            4 
  843000   0.91900985   -5.2057357    464.37699  0.045905199  0.046758601            3 
  844000    0.9071458   -5.1955459    461.90238  0.045606475   0.04673161            4 
  845000   0.91149771   -5.1478464    465.59521  0.045916687  0.046705334            3 
  846000   0.90198935   -5.1462951    465.90204  0.045892636  0.046678858            5 
  847000   0.92313583   -5.1615275    466.63347  0.045910416  0.046652803            3 
  848000   0.91314689   -5.1562413     466.3438  0.045827811  0.046626145            7 
  849000   0.92123684   -5.1389537    465.43241  0.045684375  0.046599667            3 
  850000   0.92831877   -5.1474041    465.20304  0.045608141   0.04657261            8 
  851000   0.89743158   -5.1656437    466.19695  0.045651876  0.046545455            5 
  852000   0.91791111   -5.1412505    466.99665  0.045676512  0.046518604            4 
  853000    0.9171809   -5.1579339     466.8163  0.045605344  0.046491386            5 
  854000   0.92173438   -5.1857393    466.20036  0.045491838  0.046464009            6 
  855000   0.94009232   -5.1845579    464.80555  0.045302686  0.046436239            4 
  856000   0.91028995   -5.1589079     468.0975  0.045570239   0.04640897           14 
  857000   0.91343099     -5.15526    468.38408  0.045544932  0.046381781            3 
  858000   0.91580903    -5.155675    467.67657  0.045423132  0.046354676            3 
  859000   0.90472893   -5.1451757      467.841  0.045386205   0.04632783            3 
  860000   0.91102015     -5.20189    466.47047  0.045200627  0.046300005            3 
  861000   0.91604596   -5.1393659    466.82342   0.04518229  0.046272079            2 
  862000   0.92006315   -5.1945539    467.39275  0.045184914  0.046244576            3 
  863000   0.89769003   -5.1625048    469.78819  0.045363865  0.046217143            6 
  864000   0.90947705   -5.1690676    468.03951  0.045142699  0.046189772            4 
  865000   0.89079082   -5.1926812    467.59871  0.045048046  0.046162324            3 
  866000   0.90270643   -5.1654128    468.61359  0.045093687  0.046134258            3 
  867000   0.92894329   -5.1792527     468.4411  0.045025096  0.046106398            3 
  868000   0.91397213   -5.2144799    469.00023  0.045026904  0.046078645            2 
  869000   0.91624087   -5.1653269    470.14998  0.045085345  0.046051027            3 
  870000   0.91440999   -5.1707876     471.2574  0.045139598  0.046023881            5 
  871000   0.89649604   -5.1918026    470.26869  0.044993178  0.045996615            6 
  872000   0.90558897   -5.1796736    470.48226   0.04496199  0.045969278           18 
  873000    0.9033588   -5.1883463    471.63132  0.045020172  0.045942557            5 
  874000   0.91004416   -5.2012424    472.60191  0.045061204   0.04591572            4 
  875000   0.90445568   -5.1769626    474.04579  0.045147218  0.045889312            3 
  876000   0.92224095   -5.2070081    473.45898  0.045039858  0.045862711            2 
  877000   0.90691322   -5.1760874    473.92884  0.045033147   0.04583584            3 
  878000   0.89949858   -5.1902038    473.26818  0.044919152  0.045809208            5 
  879000   0.89921396   -5.1703513    474.41122  0.044976414  0.045782347            2 
  880000   0.88948725   -5.1624172    475.92044  0.045068224  0.045755788            2 
  881000    0.8942162   -5.1932511     474.9278  0.044923174  0.045729524            3 
  882000   0.91875663   -5.2146063    475.60798  0.044936506  0.045703314            7 
  883000   0.89769346   -5.1509522     477.0789  0.045024433  0.045676595            7 
  884000   0.92423383   -5.1871549    477.78867   0.04504041  0.045650789            3 
  885000   0.89411941   -5.1785059     478.6671  0.045072232    0.0456251            6 
  886000   0.89519596   -5.2349099    478.04903  0.044963227  0.045598842            3 
  887000   0.91153218   -5.1619421    477.57339  0.044867849  0.045572789            4 
  888000   0.89614092       -5.171    478.67745  0.044920932  0.045547734            5 
  889000   0.90742092   -5.1685946    479.72006  0.044968135  0.045521975            7 
  890000   0.91663236   -5.1911509    478.15965  0.044771503  0.045496004            5 
  891000   0.89453143   -5.2007001    478.06925  0.044712799  0.045469939            3 
  892000   0.88110407   -5.2038736    479.14471  0.044763145  0.045443949            5 
  893000   0.89311094   -5.2074523    478.72974  0.044674294  0.045417683            6 
  894000   0.89202209   -5.1799276    480.25021  0.044766053  0.045391853            8 
  895000   0.88334169   -5.1984582    480.17224  0.044708775  0.045365845            9 
  896000   0.92816811   -5.2046244    481.40449  0.044773483  0.045339901            5 
  897000    0.8952662   -5.2421491    480.33475  0.044624187  0.045314425            4 
  898000   0.88853211   -5.2006755     481.0057  0.044636758  0.045288741            3 
  899000   0.90325419   -5.1832771    481.30737  0.044615069  0.045263637            6 
  900000   0.89935194   -5.1903064    481.03932  0.044540678  0.045238215            5 
  901000    0.8876105   -5.2296257    482.02742  0.044582632  0.045213152            2 
  902000    0.8850723   -5.2081438    483.38061  0.044658224  0.045188136           10 
  903000    0.8832674   -5.2031167    484.77382   0.04473734  0.045162976            4 
  904000   0.88263713   -5.2042896    483.26555  0.044548816  0.045137488            5 
  905000   0.89742791   -5.2275899     484.5868  0.044621252  0.045112467            7 
  906000   0.88798407   -5.1850212    484.12228  0.044529275  0.045087376            5 
  907000   0.86919392   -5.2234716    483.16239  0.044391987  0.045062403            3 
  908000   0.89226114   -5.1566067    484.84765  0.044497765  0.045037188            5 
  909000   0.89357029    -5.212015    483.79467   0.04435228  0.045012113            4 
  910000   0.89517076   -5.2092267    484.67535   0.04438419  0.044986987            6 
  911000   0.89846335    -5.235429    484.92112  0.044357951  0.044962145            3 
  912000   0.88630962   -5.2111556    485.76791  0.044386688  0.044936948            6 
  913000   0.89753489   -5.1989682    487.83764  0.044526984  0.044912439            7 
  914000   0.89882973   -5.2415584    486.80295  0.044383931  0.044888262            6 
  915000   0.88244259   -5.2293111    486.86119  0.044340727  0.044863811            5 
  916000   0.89361374   -5.2317713    485.61966  0.044179372  0.044838988            3 
  917000   0.85944946    -5.239623    487.40527  0.044293463  0.044814162            6 
  918000   0.87344273   -5.1954846     488.7835  0.044370325  0.044789604            4 
  919000   0.90386097   -5.2081305    487.81634  0.044234343   0.04476491            7 
  920000   0.89580043   -5.2163633    488.03799  0.044206339  0.044739958            3 
  921000   0.89855524   -5.2404474    488.81181  0.044228358   0.04471488            5 
  922000   0.88633989   -5.2240029    487.88114  0.044096271  0.044689988            6 
  923000   0.88916733   -5.2447514    489.74807  0.044217052  0.044664957            3 
  924000   0.88552871    -5.196771    488.47667  0.044054533  0.044639725            5 
  925000   0.88100214    -5.217938    491.00279  0.044234485  0.044614582            6 
  926000   0.89121466   -5.1967276     490.6121  0.044151557  0.044589384            4 
  927000   0.88229915   -5.2590686    490.34407  0.044079834   0.04456439            5 
  928000   0.90484761   -5.2351804    491.20388  0.044109544  0.044539443            4 
  929000   0.90999345   -5.2274589    490.85235   0.04403053  0.044514532            6 
  930000   0.88904192    -5.236561    491.93517  0.044080212  0.044489469            3 
  931000   0.87082618   -5.2304011    491.59717  0.044002611  0.044464347            3 
  932000   0.90089119   -5.2215333    490.66063  0.043871658  0.044439398            7 
  933000      0.87809   -5.2227705    490.52096  0.043812161  0.044414443            4 
  934000    0.8989741   -5.2344325    490.17012   0.04373395  0.044389206            4 
  935000   0.89320746   -5.2325867    490.60517  0.043725951   0.04436377            4 
  936000    0.8914821   -5.2262841    492.93986  0.043887095   0.04433828            6 
  937000   0.89225666   -5.2298449    492.43395  0.043795264  0.044313289            4 
  938000   0.89081697   -5.2142106     493.7506  0.043865547  0.044288616            3 
  939000   0.88753448     -5.20682    494.56601  0.043891197   0.04426405            5 
  940000   0.89302182   -5.2583434    491.60119  0.043581666  0.044239133            5 
  941000   0.89937705   -5.2156365    494.63952  0.043804421  0.044214422            3 
  942000   0.87116005   -5.2236429    494.07546   0.04370802   0.04418971            6 
  943000    0.8868559    -5.246376    493.00709  0.043567258  0.044164756            5 
  944000   0.87281025   -5.2516028    495.51469  0.043742469  0.044140412            6 
  945000   0.90445438   -5.2635922    496.20846   0.04375736  0.044116333           28 
  946000   0.86807633   -5.2496502    495.87348  0.043681596  0.044092241           10 
  947000   0.86785313   -5.2120583    496.97566  0.043732458  0.044067763            2 
  948000   0.88058205   -5.2223046    497.75311  0.043754669  0.044043363            4 
  949000   0.87073096   -5.2545337    494.64946  0.043436025  0.044018774            8 
  950000   0.87947058   -5.2279956    497.15013   0.04360966  0.043993986           11 
  951000   0.90017403   -5.2055641    497.77857  0.043618872  0.043969536            3 
  952000   0.87939162   -5.2733297    496.90595  0.043496669  0.043944839            4 
  953000   0.86875608   -5.2175522    497.63126   0.04351445  0.043920321            4 
  954000   0.87587628   -5.2137769    497.91346  0.043493489  0.043895564            8 
  955000    0.8754429   -5.2554158    495.71989  0.043256535  0.043870689            2 
  956000   0.85647781   -5.2709227    496.46948  0.043276628  0.043845959            5 
  957000   0.86192294   -5.2471049    498.01338  0.043365846  0.043821306            4 
  958000   0.86606342    -5.240679     497.9949  0.043318972  0.043796861            7 
  959000    0.8878099   -5.2476677    498.65821   0.04333144  0.043772098            5 
  960000   0.86760435   -5.2081101    499.06289  0.043321432  0.043747751            4 
  961000   0.85160849   -5.2325266    499.16696  0.043285377  0.043723271            4 
  962000   0.87369815   -5.2457893    500.30131  0.043338644  0.043698671           15 
  963000   0.86053544   -5.2783819    497.87661  0.043083819  0.043674068            4 
  964000   0.86690026    -5.272629    500.41623  0.043258664  0.043649231            4 
  965000   0.85262126   -5.2468118    500.90928  0.043256415  0.043624614            4 
  966000   0.85811144   -5.2614842    499.44529  0.043085343  0.043599842            4 
  967000    0.8718113    -5.268758    500.38989   0.04312219  0.043575274            4 
  968000   0.86535607   -5.2583203    500.27885  0.043068083  0.043550709            2 
  969000   0.87307106   -5.2417655    502.47029  0.043212099  0.043525692            7 
  970000   0.86496072   -5.2643676    501.64965  0.043097049  0.043501341            6 
  971000   0.88795745   -5.2457667    501.68492  0.043055691  0.043476931            2 
  972000   0.87015301   -5.2694744     502.0592  0.043043485   0.04345221            4 
  973000    0.8710703   -5.2721508    502.11496  0.043004022  0.043427482            4 
  974000   0.86427731   -5.2517137    503.71439  0.043096714  0.043402926            9 
  975000   0.85709273   -5.2979591    501.22618  0.042839844  0.043378324            5 
  976000   0.86973611    -5.237424    503.50563  0.042990576    0.0433538            6 
  977000   0.87779909   -5.2387961     501.8765  0.042807616  0.043329327            5 
  978000   0.87146024   -5.2833319    501.85779  0.042762252  0.043304556            8 
  979000   0.87823874   -5.2635319    503.36249  0.042846654  0.043279863            5 
  980000   0.87368642   -5.2705554    502.78095  0.042753482  0.043255132            5 
  981000   0.85730533   -5.2711969    503.31314  0.042755108   0.04323043            3 
  982000   0.87308916   -5.2460288    504.18126  0.042785239  0.043205911            9 
  983000   0.85684663   -5.2712249    504.83555  0.042797181  0.043181608            4 
  984000   0.85609998   -5.2712811    505.22328  0.042786524  0.043157394            3 
  985000   0.84312795   -5.2681539    505.50278  0.042766733  0.043132641            4 
  986000   0.85119002   -5.2591635    505.88608  0.042755753   0.04310832            5 
  987000   0.83925651   -5.2645803    506.85242  0.042794024  0.043084047            7 
  988000   0.86643959   -5.2831485    506.48895  0.042720053  0.043059892            8 
  989000   0.88731735   -5.2888927    505.40316  0.042585369  0.043035484            7 
  990000   0.87337864   -5.2897256    506.39831  0.042626121  0.043011193            7 
  991000   0.86270174   -5.2655741    505.42654   0.04250139  0.042986802            7 
  992000   0.85482869   -5.2561752    507.41466  0.042625559  0.042962198            7 
  993000   0.84865103   -5.2734878    507.50018   0.04258981  0.042937614            6 
  994000   0.85950197   -5.2588449    508.17587  0.042603611   0.04291317            4 
  995000   0.85904218   -5.2575334     507.3471  0.042491382  0.042888856            2 
  996000   0.88046281   -5.2339903    508.98823   0.04258603  0.042864811            5 
  997000   0.85848278   -5.2645861    508.66118   0.04251598  0.042840537            5 
  998000   0.86097857   -5.2813654    507.68878  0.042392183  0.042816015            3 
  999000   0.83130652   -5.2733216    509.40011  0.042492502  0.042791468            3 
 1000000   0.86514287    -5.268549    509.83926  0.042486605  0.042766905            7 
 1001000   0.85639129   -5.2766414    508.51518  0.042333931  0.042742126            4 
 1002000   0.86163211   -5.3047853    508.03098  0.042251412  0.042717108            6 
 1003000   0.87745068    -5.297602    507.30554  0.042149015  0.042692185            6 
 1004000   0.85872311   -5.2916352    507.30893  0.042107315   0.04266689            5 
 1005000   0.86889104   -5.2840891     508.5293  0.042166609  0.042641769            3 
 1006000   0.85057707   -5.2810187    508.17226  0.042095118  0.042616545            4 
 1007000   0.84405323   -5.2923169    508.42744  0.042074432  0.042591419            6 
 1008000   0.84490654   -5.3215893    508.49437  0.042038225  0.042566173            4 
 1009000    0.8393667      -5.3128    508.20211  0.041972424  0.042540772            6 
 1010000   0.86352497   -5.3077177    509.10894  0.042005688  0.042515183            3 
 1011000   0.85389727   -5.2932258    508.96234  0.041952055  0.042489632            5 
 1012000   0.85328047   -5.2877975    510.12712  0.042006515  0.042464263            6 
 1013000   0.83292684   -5.3247572    509.86385   0.04194339   0.04243859            5 
 1014000   0.85285196   -5.3067486    509.72518   0.04189063  0.042413338            5 
 1015000   0.83761339   -5.2931345     510.4173  0.041906182  0.042387761            5 
 1016000   0.84577404   -5.3009655    509.86494  0.041819631  0.042362279            4 
 1017000   0.87155911   -5.3473013    510.09203  0.041797118  0.042336387            2 
 1018000    0.8539534   -5.3091225    508.65621  0.041638524  0.042310189            4 
 1019000   0.85410707   -5.3303251     510.1429  0.041719243  0.042284442            7 
 1020000   0.83534707   -5.2993545    510.11903  0.041676391  0.042258693            3 
 1021000   0.84208437   -5.2812331    510.47152  0.041664342  0.042232875            4 
 1022000   0.84504395   -5.3051753    510.27699  0.041607713  0.042207134            3 
 1023000   0.85503737    -5.336276    509.98425  0.041543194  0.042181198            8 
 1024000   0.83814086   -5.3309919    509.01291  0.041423576  0.042155052            6 
 1025000   0.83634321   -5.2865555    511.66271  0.041598594  0.042129153            5 
 1026000   0.84787605   -5.3174341    511.29351  0.041528063  0.042103362            3 
 1027000   0.84322487   -5.3011228    512.29969   0.04156927   0.04207769            4 
 1028000   0.84963812   -5.2955775    512.26858  0.041526312  0.042052178            5 
 1029000   0.84439367    -5.302869    512.52594  0.041506798   0.04202651            4 
 1030000   0.84298106   -5.3330307    511.67541  0.041397687  0.042000826            8 
 1031000    0.8399292   -5.3222923     513.2846  0.041487601  0.041975145            4 
 1032000   0.83609085   -5.3065329     513.0667  0.041429805  0.041949554            3 
 1033000   0.82037573   -5.3190426    511.42382  0.041257165  0.041924097            6 
 1034000   0.83935246   -5.2944572    514.44862  0.041461043   0.04189853            5 
 1035000    0.8257028    -5.300721    514.25942   0.04140575  0.041872923            5 
 1036000   0.84672316   -5.3284891    514.35375  0.041373371  0.041847201            5 
 1037000   0.82623945   -5.2908722    514.30304  0.041329399   0.04182135            8 
 1038000   0.84331569   -5.3132059    513.02548  0.041187017  0.041795408            5 
 1039000   0.84078879    -5.324948    514.67724  0.041279856  0.041769493            4 
 1040000   0.84921861   -5.3213753    513.07997  0.041112177  0.041743392            3 
 1041000   0.82627606   -5.3020787    515.14796  0.041238229  0.041717614            5 
 1042000   0.83507436   -5.3259001    513.03925  0.041030011  0.041691813           10 
 1043000   0.85160216   -5.3307342    515.58771  0.041194288  0.041665729            7 
 1044000    0.8331678   -5.2930848    513.72433  0.041006093  0.041639675            5 
 1045000   0.83449605   -5.2993865    515.74478  0.041127973  0.041614006            3 
 1046000   0.83260869   -5.3255913    514.62917  0.040999775  0.041588251            3 
 1047000   0.83479798   -5.3514398    513.43491  0.040865561  0.041561992            4 
 1048000   0.82767024   -5.2991237    515.11997  0.040960557  0.041535771            7 
 1049000    0.8706266   -5.3120128     515.9566  0.040987972   0.04150948            4 
 1050000   0.84016983    -5.327215    515.76433  0.040933677  0.041483228            7 
 1051000   0.84000616   -5.3277811    515.93885  0.040908567  0.041457093            5 
 1052000   0.83947132   -5.2937964    516.90445   0.04094617  0.041431205            3 
 1053000   0.82480014   -5.3298854    514.96752  0.040753998  0.041405258            5 
 1054000   0.84471535   -5.3173273    515.67768   0.04077148   0.04137877            4 
 1055000   0.81843066   -5.3469199    514.02541  0.040602323  0.041352308            4 
 1056000   0.83281465   -5.3373283     516.0855  0.040726444  0.041325974            6 
 1057000   0.84838891   -5.3185371    515.74042  0.040660708  0.041299446            4 
 1058000   0.81161113   -5.3253709    515.66318  0.040616192  0.041273084           10 
 1059000    0.8220157   -5.3465621    514.36701  0.040475843  0.041246752            4 
 1060000   0.84205381   -5.3251726    517.86733  0.040712841  0.041220465            4 
 1061000   0.82084366   -5.3341352     517.4419  0.040641054  0.041194472            7 
 1062000   0.82666274   -5.3186095    519.43203  0.040758948  0.041168347            3 
 1063000   0.81583409   -5.3065425    518.02389  0.040610214  0.041142383            3 
 1064000   0.82791958    -5.339403     519.0447  0.040651997   0.04111683            3 
 1065000   0.82117347   -5.3570683    517.35941  0.040481957  0.041091291            3 
 1066000   0.85036137   -5.3329733    518.43021   0.04052769  0.041065591            5 
 1067000   0.81787489   -5.3305949    519.27185  0.040555439  0.041040004            9 
 1068000   0.82415973   -5.3238059    519.68491  0.040549696  0.041014376           12 
 1069000   0.84068028   -5.3385493    518.65032  0.040431113  0.040988693           10 
 1070000   0.81951645   -5.3412438    518.49486   0.04038122  0.040963254            5 
 1071000   0.83218425   -5.3400992    519.20842  0.040399037  0.040937624            6 
 1072000    0.8272314   -5.3451505    518.56904  0.040311648  0.040911972           13 
 1073000   0.82682951   -5.3487387    521.12943  0.040472929  0.040886206            9 
 1074000   0.83588303   -5.3368899    521.15478  0.040437212  0.040860364            7 
 1075000   0.83577831    -5.336281    519.14064  0.040243461  0.040834697            7 
 1076000   0.83996226   -5.3493072     519.4601  0.040230801  0.040808946            3 
 1077000   0.80785244   -5.3354317    520.49396  0.040273441  0.040783062            6 
 1078000   0.81769904   -5.3571799    520.20122  0.040213452  0.040757321           15 
 1079000   0.83748075   -5.3160258    522.29189   0.04033765  0.040731557            4 
 1080000   0.83555011   -5.3289158    519.56907  0.040090206  0.040705793            5 
 1081000   0.80104159   -5.3234579    521.03677  0.040166263  0.040679975            7 
 1082000   0.82006863   -5.3428475     521.2664  0.040146827   0.04065431            3 
 1083000   0.81908143   -5.3676361    520.31634  0.040036653  0.040628646            5 
 1084000   0.80673748   -5.3689754    522.14844  0.040140562  0.040602844           13 
 1085000   0.82056361   -5.3560344    520.61404  0.039985717  0.040577203            8 
 1086000   0.80688776   -5.3718792    521.26923  0.039999174  0.040551583            4 
 1087000    0.8225955   -5.3472468    520.60195  0.039911219  0.040525759            7 
 1088000   0.81590137    -5.327795    520.26254   0.03984854  0.040499879            5 
 1089000   0.81015363   -5.3600471    522.21606  0.039961437  0.040474169            2 
 1090000   0.81833336   -5.3609429    522.21927  0.039925021    0.0404485            5 
 1091000   0.82391454   -5.3307803    522.98684  0.039947055  0.040423023            6 
 1092000   0.82775779   -5.3749603    522.45101  0.039869583  0.040397908            8 
 1093000    0.8286261   -5.3841063    523.73818  0.039931242  0.040372299            6 
 1094000   0.80441872    -5.370394    524.63414  0.039962991   0.04034674           13 
 1095000   0.82093977   -5.3830379    523.23062  0.039819682  0.040321304            7 
 1096000   0.83202083   -5.3592015    523.85727  0.039830997  0.040295659           10 
 1097000   0.80594027   -5.3613019    524.89895  0.039873818  0.040270258            6 
 1098000   0.80568534   -5.3624232    524.03778  0.039772144  0.040244718            6 
 1099000   0.82978946   -5.3499629    524.63766  0.039781442  0.040219208            9 
 1100000   0.81198744   -5.3557263    523.79712    0.0396816  0.040193812            9 
 1101000   0.79650977   -5.3724545    523.44728  0.039619079  0.040168206            6 
 1102000    0.8210481   -5.3839499    525.50079  0.039738414  0.040142747            8 
 1103000   0.80559863    -5.369344    525.36612  0.039692212  0.040117296            5 
 1104000   0.80656012    -5.370391    523.90832   0.03954622  0.040091697            5 
 1105000   0.82978512   -5.3689582    525.40174  0.039623057  0.040066486            4 
 1106000    0.8011663   -5.3767911    526.14221  0.039643023  0.040041184            5 
 1107000   0.83177051   -5.3549384     525.9461  0.039592449  0.040015916            6 
 1108000   0.83410534   -5.3858971     525.8071  0.039546262  0.039990673           15 
 1109000   0.81478793   -5.3383255    528.03233  0.039677812  0.039965672            5 
 1110000   0.81885042   -5.3866882    525.84778  0.039478062  0.039940686            4 
 1111000   0.81186656   -5.4165534    526.83752  0.039516766  0.039915802            5 
 1112000   0.80203518   -5.3694241     527.1166  0.039502144  0.039890688            8 
 1113000   0.80585945   -5.4024527    527.71768  0.039511656  0.039865709            8 
 1114000   0.81571572   -5.4083721    525.99581  0.039347383  0.039840492           12 
 1115000   0.79456722   -5.3966818    526.89894  0.039379592  0.039815264            3 
 1116000   0.78799137   -5.3578254    528.62947  0.039473527  0.039790522            3 
 1117000   0.80616117   -5.4052378    529.20141  0.039480857  0.039765539            5 
 1118000   0.80582025   -5.3903865    528.92186  0.039424706  0.039740415            5 
 1119000   0.79830992   -5.3755698    529.63896  0.039442877  0.039715573            5 
 1120000   0.78865798   -5.3806925    528.40837  0.039316099  0.039690616            6 
 1121000   0.80731056   -5.3996941    529.43348  0.039357231  0.039665688            9 
 1122000   0.79702316   -5.3905972    528.28624  0.039236946    0.0396407            8 
 1123000   0.81370825   -5.3868649    529.30627  0.039277699   0.03961571            8 
 1124000   0.81296074   -5.3487648    530.04854  0.039297786  0.039590828            5 
 1125000   0.82299262   -5.3805766    529.82522  0.039246312   0.03956599            4 
 1126000   0.80457842   -5.4007393    528.76647  0.039133102  0.039541215           11 
 1127000    0.7974743   -5.3851193    528.94342  0.039111463  0.039516164            6 
 1128000   0.80771204   -5.3591491    530.73058  0.039208819  0.039491296            6 
 1129000   0.80879364   -5.4193616    529.26151  0.039065656  0.039466791            8 
 1130000   0.79830866   -5.3958957     529.5635  0.039053356  0.039442045            3 
 1131000   0.79926357   -5.4159491    531.99448  0.039197943   0.03941744           10 
 1132000   0.78880108   -5.3825172    531.63163  0.039136604  0.039392862            7 
 1133000   0.79698876   -5.3864183    531.01055   0.03905638  0.039368413            9 
 1134000   0.80411833   -5.3968946     533.2956  0.039189859  0.039343874            8 
 1135000   0.81247148   -5.3742389     530.8461  0.038975484  0.039319356            5 
 1136000   0.80150824   -5.4422421     531.2806  0.038973049  0.039294712            5 
 1137000   0.80193477   -5.4335376    531.50835  0.038955464  0.039270202           18 
 1138000   0.80137259   -5.4141751    532.16124  0.038969042  0.039245634            5 
 1139000   0.80987961   -5.4048329    532.95962  0.038993241  0.039221241            4 
 1140000   0.78815172    -5.415755    532.90952  0.038955374  0.039196865            7 
 1141000   0.80807006   -5.3947674    533.90624  0.038994028  0.039172233            7 
 1142000   0.80791129   -5.4164127    532.70157  0.038871977  0.039147974            4 
 1143000    0.8110363   -5.4168717    533.01934  0.038861136  0.039123254           13 
 1144000    0.8290021    -5.434922    531.52202  0.038718096  0.039098416            7 
 1145000   0.78432482   -5.4269094    532.56478  0.038760173  0.039073924           10 
 1146000   0.78857339   -5.4229065    534.32804  0.038854569  0.039049293            2 
 1147000    0.7807532    -5.397435    533.63146  0.038770086  0.039024642           14 
 1148000   0.80528939   -5.4166188    533.57474  0.038732196  0.039000151            5 
 1149000   0.79691706   -5.4191835    532.67886  0.038633512  0.038975434            8 
 1150000   0.78644362   -5.4231714    535.29582  0.038789552  0.038950866            8 
 1151000   0.78126886   -5.4169545     535.0545   0.03873838  0.038926432            4 
 1152000   0.77207768    -5.405115     532.9682  0.038553834  0.038901924           12 
 1153000   0.79296796   -5.4060733    535.05353  0.038671114  0.038877497           11 
 1154000   0.79525099   -5.4181742    534.10924  0.038569414  0.038852932            7 
 1155000    0.7952005   -5.4362347    532.53963  0.038422773  0.038828349            6 
 1156000     0.801975   -5.4047472    534.15014  0.038505633  0.038803554            3 
 1157000    0.7997251   -5.4095847    534.05478  0.038465484  0.038778658            5 
 1158000   0.79344339   -5.4272037    534.72354  0.038480393   0.03875396            9 
 1159000   0.80801212    -5.410104    533.99915  0.038395107  0.038729211            7 
 1160000   0.77495298   -5.4115746    535.14567  0.038444373  0.038704695            5 
 1161000   0.79093019   -5.4225525    535.01793  0.038402091  0.038680071            8 
 1162000   0.79769925   -5.4096162    535.03793  0.038370477  0.038655279            5 
 1163000   0.79056737   -5.4207729    536.66331  0.038453949   0.03863072            8 
 1164000   0.78656139   -5.4381009    533.63782  0.038204311  0.038605875            4 
 1165000   0.79300047   -5.4032146    535.18021  0.038281846  0.038581313            5 
 1166000   0.78119433   -5.4246984    535.13773  0.038245979  0.038556683            4 
 1167000    0.7893608   -5.4435961    536.06857  0.038279675  0.038532205            5 
 1168000   0.78184267   -5.4262568    535.58762  0.038212587  0.038507904            6 
 1169000   0.78084476   -5.4428844    533.91823  0.038060895  0.038483381            5 
 1170000   0.77565975   -5.4395355     535.6663   0.03815287  0.038458646            7 
 1171000   0.78447129   -5.4306859     535.9547  0.038140813  0.038433914            7 
 1172000   0.78638721   -5.4357961    536.82168  0.038169915  0.038409384            9 
 1173000   0.78495385   -5.4496765    537.60663  0.038193139  0.038384992            4 
 1174000   0.77211862   -5.4059866    537.33421   0.03814127  0.038360684            7 
 1175000   0.78683887   -5.4302493    538.31521  0.038178383  0.038336481           10 
 1176000   0.79180882   -5.4634691    536.97253  0.038050775  0.038312095            7 
 1177000   0.77448501   -5.4697067    536.50394  0.037985269  0.038287302           12 
 1178000   0.80125315   -5.4614587    535.81028  0.037903953  0.038262519            3 
 1179000   0.78714994    -5.431733    538.41394  0.038055834  0.038238065            6 
 1180000   0.77757009   -5.4473559    537.38308  0.037950783  0.038213689            5 
 1181000   0.79314003    -5.458649    538.00312  0.037962399  0.038189035            5 
 1182000   0.76665388   -5.4461284    537.78543  0.037914934  0.038164259            9 
 1183000   0.79054054   -5.4520189    537.74691  0.037880171  0.038139508            7 
 1184000   0.80046335   -5.4309909    536.87877  0.037787076  0.038114723           13 
 1185000   0.79366865   -5.4301278    537.45045   0.03779539  0.038090015            9 
 1186000   0.78868294   -5.4202901    537.79105  0.037787454   0.03806529           12 
 1187000    0.7772148   -5.4395732    537.49234  0.037734649  0.038040504            6 
 1188000   0.77927699   -5.4439809    537.57561  0.037708727  0.038015738            9 
 1189000   0.79337195   -5.4314377    537.40553  0.037665092  0.037990772            8 
 1190000   0.77629853   -5.4666555    537.60571  0.037647459  0.037965869            8 
 1191000   0.78516799   -5.4547359    537.26884  0.037592278  0.037940951            6 
 1192000   0.76780231    -5.480241    537.37609  0.037568239  0.037916003            7 
 1193000   0.79626383   -5.4708973      536.632  0.037484772  0.037891054            6 
 1194000   0.76717159    -5.478947    536.13207  0.037418486  0.037865963            4 
 1195000   0.78617088   -5.4657333    538.17151  0.037529394  0.037841039            6 
 1196000   0.77761588   -5.4622376    537.83502  0.037474569  0.037816047            8 
 1197000   0.78750902   -5.4573845    539.62072   0.03756758  0.037791173            5 
 1198000   0.77029599   -5.4550369    538.30026   0.03744437  0.037766529           11 
 1199000   0.77139502   -5.4573638    538.03218  0.037394508  0.037741887            4 
 1200000   0.77929729   -5.4529786     540.2298  0.037515958  0.037717127           10 
 1201000   0.77415578   -5.4808016    539.64111  0.037443874   0.03769235            6 
 1202000   0.76132662   -5.4652962    539.71576  0.037417898  0.037667804            2 
 1203000   0.78028712   -5.4592914    538.88933  0.037329546  0.037643057            4 
 1204000   0.76241404   -5.4625345    539.06576  0.037310753  0.037618532            6 
 1205000   0.75845146   -5.4513729      539.963  0.037341839   0.03759385            8 
 1206000   0.77797806   -5.4672506    539.46256  0.037276296  0.037569136            6 
 1207000   0.76662085   -5.4437722    541.13408  0.037360817  0.037544535            5 
 1208000   0.78524504   -5.4822086    541.65287  0.037365678  0.037519941            7 
 1209000   0.77474128   -5.4717376    539.96713  0.037218578  0.037495425            5 
 1210000   0.77260431   -5.4858469    539.08446  0.037127029  0.037470901            8 
 1211000   0.76161918   -5.4730512     540.1101  0.037166949  0.037446159            7 
 1212000   0.77582718   -5.4994842    541.68592  0.037244631   0.03742154            7 
 1213000   0.76480958   -5.4576297    540.69051  0.037145542  0.037396906            4 
 1214000   0.76759372   -5.4720136    541.71795  0.037185472  0.037372471            9 
 1215000   0.76996171   -5.4756553    541.30315  0.037126416  0.037348171            6 
 1216000   0.77133523   -5.4851227    539.31083   0.03695935  0.037323878            4 
 1217000    0.7596139   -5.4893743     541.2859  0.037064222  0.037299493           12 
 1218000    0.7616719   -5.4975822    541.82636  0.037070769  0.037275128            7 
 1219000   0.78058795   -5.4765221    541.65142  0.037028399  0.037250743            6 
 1220000   0.78350311   -5.4893969    542.41701  0.037050342  0.037226248           11 
 1221000   0.77023507   -5.4545238    543.38349   0.03708596  0.037201948            7 
 1222000   0.76322921   -5.4595828     541.9428  0.036957365  0.037177678            4 
 1223000   0.77110337   -5.4772434     542.3528  0.036955083  0.037153268            3 
 1224000   0.75708401   -5.4879756    543.39192  0.036995637   0.03712899            6 
 1225000   0.77420931   -5.4876071    542.42643  0.036899757   0.03710478            6 
 1226000   0.75710219   -5.4795859     543.6186  0.036950693  0.037080509            5 
 1227000   0.75134124   -5.4832313    541.28689  0.036762218  0.037056176            6 
 1228000   0.78001187   -5.4869119    544.70672  0.036964354  0.037032017           13 
 1229000   0.76050417   -5.4615101    542.76281  0.036802469  0.037007849            3 
 1230000   0.74932363   -5.4775166    543.98495  0.036855349  0.036983573           10 
 1231000   0.75099649   -5.4751392    542.88558  0.036750987   0.03695915           12 
 1232000   0.75481297   -5.4746831    542.70703   0.03670908  0.036934616            6 
 1233000   0.73579481   -5.4950589    543.28408  0.036718307  0.036910002            6 
 1234000    0.7476282   -5.4633773    544.58608  0.036776478  0.036885379            5 
 1235000   0.76840808   -5.5199037    541.64924  0.036548531  0.036860823           11 
 1236000   0.74771879   -5.4475356    545.23947  0.036761022  0.036836327            3 
 1237000   0.77154034   -5.4866761    545.70176  0.036762447  0.036812191           13 
 1238000   0.76501884   -5.4736075    544.42348  0.036646707  0.036787982            6 
 1239000   0.76589704   -5.4998323    543.68218   0.03656727  0.036763628            9 
 1240000   0.75599306   -5.5257431    543.10374  0.036498908  0.036738997            7 
 1241000     0.748313   -5.4903855     544.1225  0.036537906  0.036714689            4 
 1242000    0.7634921   -5.4773963     546.2536  0.036651476  0.036690558            5 
 1243000   0.74245216   -5.4947059    544.69782  0.036517687   0.03666658            7 
 1244000   0.75931697   -5.4999205    544.99312  0.036508114  0.036642516            4 
 1245000    0.7578729   -5.5179821    544.13101  0.036421085  0.036618426            6 
 1246000   0.75460563   -5.5098504    543.48945  0.036348946  0.036594215           13 
 1247000   0.75340027   -5.4758687     547.4229  0.036582659  0.036570137            5 
 1248000   0.75158073   -5.4934574     545.4928  0.036424466  0.036546189           13 
 1249000   0.76289455   -5.4803126    545.61899  0.036403722  0.036522273           15 
 1250000   0.75444321   -5.5108163    544.65654  0.036310436  0.036498345            5 
 1251000   0.75263652    -5.503686    546.34844  0.036394114  0.036474402           10 
 1252000   0.73369464   -5.5251498    545.26245  0.036292761  0.036450343            4 
 1253000   0.76134375   -5.4970649    546.30099  0.036332867  0.036426308           10 
 1254000   0.74076512   -5.4747545    547.74654  0.036399956  0.036402385            8 
 1255000   0.75784472    -5.461053    545.96651  0.036252756  0.036378456            5 
 1256000   0.75233902   -5.4750076    547.19696  0.036305531  0.036354691            6 
 1257000   0.74641908   -5.5124424    546.36449  0.036221459  0.036330956            7 
 1258000   0.73925335   -5.5296757    546.99131  0.036234189  0.036307261            6 
 1259000   0.74569753   -5.4871761    546.42987  0.036168247  0.036283451            9 
 1260000   0.75376931   -5.5147103    548.14491   0.03625297  0.036259636            8 
 1261000   0.73897496   -5.5347918    547.73668  0.036197243  0.036235943            7 
 1262000   0.74718165     -5.50621    548.23948  0.036201762  0.036212184            6 
 1263000   0.74470675   -5.5483922    548.85825  0.036213925  0.036188644            5 
 1264000   0.74775157   -5.4952995    550.16836  0.036271648  0.036165033           19 
 1265000    0.7611017   -5.5256932    549.48758  0.036198128  0.036141522           17 
 1266000   0.74717747   -5.5130813    547.99368  0.036071201  0.036118043            8 
 1267000    0.7629012   -5.4973777    548.05041  0.036046462  0.036094695            7 
 1268000   0.73668916   -5.4627468    549.68351  0.036125362   0.03607136            5 
 1269000   0.73570612     -5.50581    548.56732  0.036023596  0.036047844            6 
 1270000   0.74586108   -5.4986951     549.1353    0.0360325  0.036024271            6 
 1271000   0.75318519   -5.5154792    548.48474  0.035961496  0.036000904            5 
 1272000   0.73741235    -5.509514    550.70068  0.036078399  0.035977504            8 
 1273000   0.72592929   -5.5303737    550.16321  0.036014874  0.035954125            8 
 1274000   0.74515086   -5.5228156    550.84707  0.036031337  0.035930808           11 
 1275000   0.73206028   -5.5344391    549.78888  0.035933914  0.035907496            6 
 1276000   0.73476542   -5.5521924    550.38181  0.035944475  0.035884161           10 
 1277000   0.71942902   -5.5207575    551.47392  0.035987596  0.035860765            4 
 1278000   0.73828784   -5.5235756    551.18782  0.035940781  0.035837761            6 
 1279000   0.73615894   -5.4931115    553.55526  0.036066931  0.035814642           13 
 1280000   0.71939001   -5.5339312    550.38308  0.035832232  0.035791793            3 
 1281000   0.75007872   -5.5122325    551.79444  0.035896073  0.035768927           12 
 1282000   0.72579212   -5.5558568    550.52353  0.035785461  0.035746016            4 
 1283000   0.75396534   -5.5382867    552.68637   0.03589805  0.035722891            6 
 1284000    0.7368073   -5.4820781    552.93575  0.035886277  0.035700087            6 
 1285000   0.73729635    -5.539197    552.40369  0.035823845  0.035677376            6 
 1286000   0.74875561   -5.5320792    550.53986  0.035675211  0.035654449            9 
 1287000   0.75038147   -5.5434612    552.74627  0.035790357  0.035631678            8 
 1288000   0.70951118   -5.5399292    551.54253  0.035684687  0.035608972            8 
 1289000   0.73565561   -5.5374822    552.68593  0.035730924  0.035586354           11 
 1290000   0.72372372   -5.5375309    552.13604  0.035667703  0.035563592            4 
 1291000   0.72666991   -5.5240046    553.50915  0.035728709  0.035540823           18 
 1292000   0.73061183   -5.5400492    553.37488  0.035692394   0.03551814            8 
 1293000   0.74358453   -5.5444951    552.37908  0.035600611  0.035495226            5 
 1294000   0.73072347   -5.5599884    551.50693  0.035516932  0.035472094           10 
 1295000   0.73109292   -5.5467665    551.41559  0.035483629  0.035448944           11 
 1296000   0.73046502   -5.5511747    553.92451  0.035617574  0.035425926            8 
 1297000   0.73386978   -5.5685047     552.1262  0.035474569  0.035402975            5 
 1298000   0.72950492   -5.5650317    553.19565  0.035515899   0.03538007           13 
 1299000   0.74146762    -5.572745    552.28698  0.035430266  0.035357147            6 
 1300000   0.73502015   -5.5422826     554.4017  0.035538571  0.035334282            4 
 1301000   0.71875743   -5.5663384    554.44657  0.035514128  0.035311536            5 
 1302000   0.71077101   -5.5726197    553.27065  0.035411588  0.035288552           11 
 1303000   0.73483101   -5.5630133    553.28146  0.035385103  0.035265629            8 
 1304000    0.7277204   -5.5384718    554.52284  0.035437298  0.035242709           17 
 1305000   0.75070081   -5.5560748    553.36624  0.035336286  0.035219918            6 
 1306000   0.74439784    -5.542643    554.73199  0.035396375  0.035197156            9 
 1307000   0.73971736   -5.5315289    554.38674   0.03534728  0.035174299            6 
 1308000   0.73725309   -5.5529248    552.09686  0.035174367  0.035151511            4 
 1309000   0.73363695   -5.5726433    553.48642  0.035235958  0.035128549            6 
 1310000   0.72829848    -5.548358    554.37233  0.035265415  0.035105501           12 
 1311000    0.7391063    -5.557233     553.3495    0.0351735  0.035082509            9 
 1312000   0.71705881   -5.5521297    554.46314  0.035217425  0.035059562            8 
 1313000   0.73768465   -5.5354666     554.1708  0.035172048  0.035036695            4 
 1314000   0.71937098    -5.557945    553.71149  0.035116152  0.035013823           12 
 1315000    0.7323088   -5.5360373     554.3001  0.035126749  0.034990958            4 
 1316000   0.71311504   -5.5505258    555.07164  0.035148913   0.03496826            7 
 1317000   0.74578312   -5.5626822    553.83903  0.035044231  0.034945475            5 
 1318000   0.73534819   -5.5532925    555.55131  0.035125905  0.034922664            4 
 1319000   0.71969746   -5.6032826    553.65757  0.034979629  0.034899705            6 
 1320000   0.71169853    -5.581341    554.01262  0.034975544  0.034876752            7 
 1321000   0.73032907   -5.6000868    555.91663  0.035069179  0.034853791           11 
 1322000   0.73419952   -5.5710781    554.47766  0.034951945  0.034830872            7 
 1323000   0.71857511   -5.5663755    554.71021  0.034940174  0.034808105           10 
 1324000   0.73153704     -5.59595    555.21255  0.034945402  0.034785379            7 
 1325000   0.73326433   -5.5410331    556.85691  0.035022447  0.034762747            5 
 1326000   0.71870716   -5.5681401     555.1787  0.034890567   0.03474005            9 
 1327000   0.71240713   -5.5852862    555.00712  0.034853499  0.034717398            8 
 1328000   0.72058493   -5.5863681    556.73057  0.034935402    0.0346946            6 
 1329000   0.72372829   -5.5610292    554.97327  0.034798926  0.034671937           10 
 1330000   0.71627304   -5.6190641    556.13886  0.034845793  0.034649081           11 
 1331000   0.72282831   -5.5760557    555.72484  0.034793692  0.034626313           17 
 1332000    0.7283325   -5.6013371    554.96641  0.034720121  0.034603521            6 
 1333000   0.71064002   -5.5891041    554.58072  0.034669962   0.03458076           12 
 1334000   0.73009628   -5.5689271    554.74428   0.03465419  0.034558014           14 
 1335000   0.72517395   -5.5495865    557.13736  0.034777613  0.034535597            6 
 1336000   0.72598276   -5.5796453    555.48538  0.034648539  0.034513087           11 
 1337000   0.73053876   -5.5700441    557.42308  0.034743398  0.034490653            7 
 1338000   0.72136606   -5.5865859    557.18415   0.03470255  0.034468255            5 
 1339000   0.71379785   -5.5699485    557.00506  0.034665488  0.034445665            4 
 1340000   0.72473592    -5.613699    557.20138  0.034651827  0.034423044           13 
 1341000   0.70453225   -5.5638301    557.79937  0.034663147  0.034400414            9 
 1342000   0.72214868   -5.5994717    555.70339  0.034507165  0.034377737            5 
 1343000   0.71904686   -5.5807072    555.56817  0.034473081  0.034355064            8 
 1344000   0.71116674   -5.6031817    558.28739  0.034616033  0.034332388           10 
 1345000   0.67641139   -5.6054323    556.15978  0.034458475  0.034309739           14 
 1346000   0.71104285    -5.619018     556.7371  0.034468617  0.034286936           11 
 1347000   0.71360881   -5.5827285    556.85135  0.034450096  0.034264177            7 
 1348000    0.7176945   -5.6142497    556.81257  0.034422142  0.034241655           13 
 1349000   0.72779618   -5.5886209    556.84426  0.034398583  0.034218868           10 
 1350000    0.7158733   -5.5936747    557.18163  0.034393928  0.034196205           16 
 1351000   0.71185489   -5.5941594     557.0995  0.034363403  0.034173648            8 
 1352000   0.70957808   -5.6167257    554.77011   0.03419441  0.034150957           19 
 1353000   0.72050903   -5.5999139    556.23285  0.034259229  0.034128251           12 
 1354000   0.71065123   -5.6023388    557.38133  0.034304612  0.034105629            8 
 1355000     0.698354   -5.6112623    557.57833   0.03429141  0.034082962           13 
 1356000   0.71147887   -5.6007055      558.914  0.034348205  0.034060431           13 
 1357000   0.71019995   -5.6160798    557.95796  0.034264183  0.034037831            8 
 1358000   0.72150567   -5.6104382    558.75191  0.034287672  0.034015441            9 
 1359000   0.71332282    -5.590271     558.8455  0.034268181  0.033993148            7 
 1360000    0.6998006   -5.5922274    557.63134  0.034168587  0.033970795            3 
 1361000   0.71511935   -5.6261193     556.8899  0.034098084  0.033948527            8 
 1362000   0.72506702   -5.6252213    558.88025  0.034194827  0.033926118           11 
 1363000    0.6950333   -5.6019207    559.11162  0.034183885  0.033903725            7 
 1364000   0.71806941   -5.5883952    560.90167  0.034268186  0.033881587           16 
 1365000    0.7011819   -5.6078155    560.55641  0.034222003   0.03385955           12 
 1366000   0.70827524   -5.6097339    559.72829   0.03414643  0.033837346           10 
 1367000   0.70021787   -5.5998695    557.83788  0.034006211  0.033815122           17 
 1368000   0.70787907   -5.6228122    559.66039  0.034092373  0.033792794           12 
 1369000   0.71085532   -5.6045837    560.98097  0.034147856  0.033770651           10 
 1370000   0.70352349   -5.6092053    560.53184   0.03409561  0.033748635            8 
 1371000    0.7185105   -5.6039314    561.31906  0.034118591  0.033726611            4 
 1372000   0.69808151   -5.5981699    560.89676  0.034068073  0.033704527            9 
 1373000    0.7222095   -5.6203376    559.16452  0.033938123   0.03368243           23 
 1374000   0.70998015   -5.6152975    559.65147  0.033942957  0.033660266           11 
 1375000   0.71928276   -5.6627728    557.85937  0.033809659  0.033638058           13 
 1376000   0.72742573   -5.6131232    560.48755  0.033944255  0.033615819           24 
 1377000   0.70955195   -5.6223525    559.79274  0.033877556  0.033593816            7 
 1378000   0.70455648   -5.6110425    559.02987  0.033806838  0.033571856            8 
 1379000   0.69539504   -5.5922693    561.99993  0.033961804  0.033549833            9 
 1380000   0.70369903   -5.6519375    558.59397   0.03373152  0.033527662            9 
 1381000   0.68756458   -5.6169401    559.90589  0.033786259  0.033505468            6 
 1382000   0.70060544   -5.6228491    560.47011  0.033795834  0.033483438            8 
 1383000    0.7133626   -5.6460676    562.05882  0.033867126  0.033461332            6 
 1384000    0.7099324   -5.6043885    559.00285   0.03365865  0.033439312            9 
 1385000   0.72206881   -5.6167417    561.04584   0.03375727  0.033417467            8 
 1386000     0.693733   -5.6372319    560.48914  0.033699443   0.03339544           18 
 1387000    0.6979031   -5.6492487    558.88493  0.033578763  0.033373428            9 
 1388000   0.69792187   -5.6275044    560.72097  0.033664804  0.033351389           16 
 1389000   0.69079421   -5.6319704    559.37838  0.033560018  0.033329404           12 
 1390000   0.69442869   -5.6128076    562.12366  0.033700459  0.033307487           12 
 1391000   0.70166481   -5.6183964    561.65253  0.033648007   0.03328562           12 
 1392000   0.69226363   -5.6395476    559.90196  0.033519035  0.033263551            6 
 1393000   0.68536813   -5.6244848    561.04155  0.033563146  0.033241525           14 
 1394000   0.69116314   -5.6133378    560.79715  0.033524459  0.033219522            9 
 1395000   0.69660376   -5.6501163    561.08863  0.033517839  0.033197569           10 
 1396000   0.70644123   -5.6230872    561.82431  0.033537745  0.033175631           21 
 1397000   0.70702985   -5.6304978    562.11698  0.033531197  0.033153711            9 
 1398000   0.70700629   -5.6237979    561.58502  0.033475502  0.033131651           16 
 1399000   0.70564637   -5.6603833    560.79575   0.03340456   0.03310963           12 
 1400000    0.7023629   -5.6496362    561.40256  0.033416819  0.033087646           17 
 1401000   0.68675845   -5.6741062    562.04862  0.033431395  0.033065621            6 
 1402000   0.69443416   -5.6388063    561.53604  0.033377083  0.033043731           10 
 1403000   0.70489778   -5.6350513    562.10004  0.033386792  0.033021968           12 
 1404000   0.68820676   -5.6642717    561.74632  0.033342018   0.03300019           20 
 1405000    0.7036101   -5.6241689    563.10188  0.033398688  0.032978429            7 
 1406000   0.69472185    -5.639806    562.41961  0.033334496  0.032956616           21 
 1407000   0.69130573   -5.6554756    561.27233  0.033242853  0.032934738           17 
 1408000   0.69614511   -5.6450034    563.51761  0.033352131  0.032912939           10 
 1409000   0.69039283   -5.6646451    561.22243  0.033192715  0.032890962           10 
 1410000   0.67701545   -5.6523703    563.55414  0.033306982  0.032868963            6 
 1411000   0.69155162   -5.6405329     562.3235  0.033210695     0.032847           15 
 1412000   0.69029809   -5.6665955    560.43396  0.033075659  0.032825017            6 
 1413000     0.705256   -5.6631647    563.36983  0.033225397  0.032803071           16 
 1414000   0.67939423   -5.6674396    562.43826  0.033146998  0.032781182           12 
 1415000   0.68458813   -5.6611733    563.11512  0.033163434   0.03275935           14 
 1416000     0.696818   -5.6478918    563.54944  0.033165574  0.032737512           12 
 1417000   0.68465934   -5.6437458    562.90474  0.033104254  0.032715718           10 
 1418000   0.68198122   -5.6752401    561.66673  0.033008153  0.032693785           33 
 1419000   0.68069006   -5.6635267    562.47572    0.0330324  0.032671792           11 
 1420000   0.69585702   -5.6856531    560.97135  0.032920854  0.032649856           14 
 1421000   0.68204528   -5.6814423    562.27479  0.032974126  0.032627962           18 
 1422000   0.67974437   -5.6777682    562.37241  0.032956658  0.032606126           11 
 1423000   0.70650138   -5.6478283    562.78412  0.032957608  0.032584284            6 
 1424000   0.68550125   -5.6711436    562.82039  0.032936587  0.032562449            8 
 1425000   0.68397859   -5.6457248    560.60759   0.03278407  0.032540568           12 
 1426000   0.69677823   -5.6750561    562.68191  0.032882299  0.032518782            8 
 1427000   0.69044565   -5.6830633    562.06239  0.032823078  0.032497006           11 
 1428000   0.66847013   -5.6335182    564.27053  0.032928953  0.032475309           18 
 1429000    0.6931392   -5.6420191    563.42898  0.032856833  0.032453673            6 
 1430000   0.68802657   -5.6441285    563.71284  0.032850398  0.032432104           19 
 1431000   0.66747626   -5.6618757    562.83595  0.032776377   0.03241049           13 
 1432000   0.67984608   -5.6362645    565.05577  0.032882668  0.032388795            7 
 1433000   0.69316629   -5.6300247    565.33753  0.032876106  0.032367253           12 
 1434000   0.69630781   -5.6731428    563.33469   0.03273679  0.032345682           17 
 1435000   0.67620398   -5.6676714    563.61285  0.032730131  0.032323968           19 
 1436000   0.68489426   -5.6911712    563.76548  0.032716196  0.032302181           15 
 1437000   0.68604897   -5.6762033     563.6444  0.032686407  0.032280425            6 
 1438000   0.68247222   -5.6758116    563.06853  0.032630304  0.032258757            6 
 1439000   0.66636234   -5.6867087    564.45668  0.032688017  0.032237155            9 
 1440000   0.68166874   -5.6629692     563.9545  0.032636256  0.032215551           12 
 1441000   0.69353652   -5.6735046    563.87581  0.032609057  0.032193949            4 
 1442000   0.68486877   -5.6674122    563.85747  0.032585383  0.032172326            9 
 1443000   0.67300775   -5.6685912    562.85042  0.032504644  0.032150726            6 
 1444000   0.68445427   -5.6818289    563.84815  0.032539713  0.032129221           14 
 1445000   0.67262731   -5.6687377     564.9688  0.032581822   0.03210765            7 
 1446000    0.6757932   -5.6923185    564.92605  0.032556826  0.032086172           10 
 1447000   0.68134075    -5.678645    564.81956  0.032528194  0.032064649            6 
 1448000    0.6848596   -5.6485113     565.7305  0.032558155  0.032043357            8 
 1449000   0.65741597   -5.6712518    566.07075  0.032555254  0.032022057           22 
 1450000    0.6726949    -5.688337    564.16072   0.03242303  0.032000658           12 
 1451000   0.68339187   -5.6816552    565.36968  0.032470117  0.031979179           10 
 1452000   0.65118236   -5.7055083    563.75879  0.032355302  0.031957678           19 
 1453000    0.6724721   -5.7006597    565.45735  0.032430451  0.031936299           11 
 1454000   0.68868512   -5.6886764    565.28071  0.032398023  0.031914819            6 
 1455000   0.69183156   -5.6960906    564.19124  0.032313358  0.031893483            7 
 1456000   0.67858714   -5.7088549    563.57075  0.032255652  0.031872243            5 
 1457000   0.66386316   -5.6833058    566.63699  0.032408888  0.031850969            8 
 1458000   0.66500469   -5.6930969    564.89785  0.032287257  0.031829669            7 
 1459000   0.66501753   -5.7083744    565.79459  0.032316346  0.031808279            8 
 1460000   0.68872801   -5.7009326    566.00272  0.032306091  0.031786968            6 
 1461000   0.66701174   -5.7203686    565.55869  0.032258652  0.031765599           13 
 1462000   0.66061393    -5.713065    564.46748  0.032174389  0.031744229           27 
 1463000   0.65900895    -5.697165    565.20963   0.03219467  0.031722801           14 
 1464000    0.6773545   -5.6988365    564.74939  0.032146482  0.031701576           16 
 1465000   0.66514255   -5.7314908     563.6946  0.032064539  0.031680185           18 
 1466000    0.6652158   -5.6846053    565.01104  0.032117499  0.031658777           20 
 1467000   0.67916507    -5.701383    564.64683  0.032074916  0.031637329           45 
 1468000   0.66597887    -5.695038    565.50425   0.03210174  0.031615792           30 
 1469000   0.67296124   -5.6966948    564.28439  0.032010687   0.03159439           15 
 1470000   0.67420539    -5.708748    564.33043  0.031991521  0.031572997            8 
 1471000   0.66250912   -5.6950522    565.90605  0.032059033  0.031551567           12 
 1472000   0.66756291   -5.7047397    565.03837  0.031988132  0.031530283           12 
 1473000   0.67173212   -5.7167349    565.18587  0.031974761   0.03150892           16 
 1474000   0.67457028   -5.7506921    564.50203  0.031914407  0.031487425           10 
 1475000   0.64175881   -5.7193684    565.34438   0.03194036   0.03146614           43 
 1476000   0.66212496   -5.7174534    565.16378  0.031908524  0.031444806           29 
 1477000   0.65639825   -5.7092994    567.05229  0.031993471  0.031423593           29 
 1478000    0.6726302   -5.7381878    565.07948  0.031860593   0.03140227            9 
 1479000   0.66915922   -5.7235937    564.68336  0.031816732  0.031381026           12 
 1480000   0.65353023   -5.7088097    566.61792  0.031904162   0.03135981            7 
 1481000   0.66377785   -5.7384515    565.68611  0.031830189  0.031338571            9 
 1482000    0.6698308   -5.7151147    565.83654  0.031817169  0.031317359           10 
 1483000   0.67541999   -5.7128972    566.81934  0.031850941  0.031296085           22 
 1484000   0.65020119   -5.7321666    564.51869  0.031700286  0.031274797           10 
 1485000   0.66801566   -5.7060505    565.50986   0.03173456  0.031253539            9 
 1486000   0.65471027   -5.7278145    566.29461  0.031757212  0.031232361            8 
 1487000    0.6628074   -5.7260391    566.54258  0.031749753  0.031211215           16 
 1488000   0.65811021    -5.711653    566.80024  0.031742845   0.03119008           17 
 1489000     0.654824   -5.7413634    567.18773  0.031743213  0.031169084           18 
 1490000   0.66128328    -5.724562    566.58113  0.031687982  0.031147979           17 
 1491000   0.66057877   -5.7369334    566.92296  0.031685835  0.031126944            6 
 1492000   0.66244815   -5.7221475    567.48093  0.031695762  0.031105908            8 
 1493000   0.67042239   -5.7226945    567.53856   0.03167775  0.031085004           18 
 1494000   0.63874602   -5.7136151     567.1945  0.031637355  0.031064162            8 
 1495000   0.65754831    -5.716254    568.45035  0.031686195  0.031043288           26 
 1496000   0.67084449   -5.7330634     566.9273  0.031580175  0.031022451           19 
 1497000   0.65144444   -5.7319423    567.44876  0.031588107  0.031001509           13 
 1498000   0.65347568    -5.704447    567.14318  0.031550021  0.030980609           14 
 1499000   0.65899885   -5.7357819    566.18024  0.031475441  0.030959701           11 
 1500000   0.65031352   -5.7300597    567.61861  0.031534367   0.03093893           11 
 1501000   0.65690661   -5.7559991    568.72708  0.031574899  0.030918238            7 
 1502000    0.6527959    -5.734244    568.10487  0.031519356  0.030897564           22 
 1503000   0.65354503   -5.7438006    567.54379  0.031467276  0.030876948            8 
 1504000   0.64275449   -5.7291751    568.72266  0.031511672  0.030856291           14 
 1505000   0.64284219   -5.7359233    568.75665  0.031492616  0.030835668           23 
 1506000   0.64882819   -5.7312637     568.7973  0.031473954  0.030815071           25 
 1507000   0.63285583   -5.7525999    568.74093  0.031449952  0.030794481           11 
 1508000   0.63439872   -5.7408188    568.87398  0.031436449  0.030773905           12 
 1509000   0.63940425   -5.7524296    568.56336  0.031398462  0.030753316            7 
 1510000   0.65016069   -5.7395833    568.57779  0.031378465  0.030732765           15 
 1511000    0.6604239   -5.7379905    569.78265  0.031424148  0.030712285           11 
 1512000   0.65977287   -5.7321771    570.85868   0.03146267  0.030691917           10 
 1513000     0.647798   -5.7272822    568.74987  0.031325725  0.030671403           10 
 1514000   0.65818943   -5.7404256    569.73484  0.031359249  0.030650956           25 
 1515000   0.65798113   -5.7387081    568.85906  0.031290377  0.030630637           15 
 1516000   0.63829678   -5.7343789    570.33892  0.031351084  0.030610259           18 
 1517000   0.65207493   -5.7496453    570.68441  0.031349396  0.030589874            7 
 1518000   0.65338653   -5.7474499    568.98291  0.031235338  0.030569374           10 
 1519000   0.64549147   -5.7429682    568.83005  0.031206388  0.030548843           11 
 1520000   0.66015525   -5.7492057    570.20925  0.031261472  0.030528425           33 
 1521000   0.62656373   -5.7632083    568.66155  0.031156122   0.03050794           30 
 1522000   0.63401282   -5.7474528    569.81289  0.031198691  0.030487468           28 
 1523000   0.63901244   -5.7707789    568.84035  0.031124992  0.030466973           10 
 1524000   0.65415163   -5.7639273    568.14291  0.031066432    0.0304465           19 
 1525000   0.65096967   -5.7314858    570.27633  0.031162641   0.03042608           12 
 1526000   0.65384766   -5.7469949    569.85299  0.031119101  0.030405722           20 
 1527000   0.65342654   -5.7583254    568.93703  0.031048735  0.030385379           19 
 1528000   0.63126216   -5.7337358    571.30015  0.031157294  0.030365043           33 
 1529000   0.65604456   -5.7465131    570.20461  0.031077208  0.030344751           11 
 1530000   0.63304736   -5.7472828    569.12164  0.030997911  0.030324511           20 
 1531000   0.65526569   -5.7655116    570.11484  0.031031724  0.030304155           25 
 1532000   0.63723968   -5.7808684    570.06496  0.031008756  0.030283711           18 
 1533000   0.63417722   -5.7658409     570.4023  0.031006865  0.030263321           25 
 1534000   0.63959271   -5.7592056    568.05805  0.030859303  0.030242857            9 
 1535000   0.64439965   -5.7413356    569.50466  0.030917734  0.030222457           13 
 1536000   0.65332406   -5.7741645    570.09248  0.030929496  0.030202044           15 
 1537000   0.65080373   -5.7671955    568.61157  0.030829081  0.030181566           22 
 1538000   0.62869479   -5.7879466    568.13104     0.030783  0.030161118           18 
 1539000   0.63300797   -5.7843203     569.5265  0.030838559  0.030140638           10 
 1540000   0.63361499   -5.7754086    569.41073  0.030812269  0.030120244           15 
 1541000   0.64513237   -5.7619219    569.37218  0.030790189  0.030099878           23 
 1542000    0.6336352   -5.7842462    568.49552  0.030722845  0.030079493            8 
 1543000   0.61837865   -5.7550546    571.05128  0.030840964  0.030059208           11 
 1544000   0.64117973   -5.7615191      571.368  0.030838083  0.030039036            6 
 1545000   0.65020702   -5.7812879    570.90125  0.030792947  0.030018877           34 
 1546000   0.63561954   -5.7492699    571.30376  0.030794726  0.029998606           12 
 1547000   0.63586785   -5.7739433    570.19478  0.030715082  0.029978526            7 
 1548000   0.64006638   -5.7779226     571.5492  0.030768152  0.029958471           14 
 1549000   0.63873494   -5.7744108    570.33015  0.030682706  0.029938319           23 
 1550000   0.64162449   -5.7935084    570.86183  0.030691496   0.02991822           17 
 1551000   0.62663259   -5.7940485    570.51276  0.030652953  0.029898137           17 
 1552000   0.63488329   -5.7959198    569.82253  0.030596141  0.029878017           39 
 1553000   0.64615154   -5.7842488    570.49586   0.03061257  0.029857907            7 
 1554000   0.64134556   -5.7815372    572.26507  0.030687745  0.029837949            7 
 1555000   0.63775181   -5.7904612    571.66662  0.030635939  0.029817995           22 
 1556000   0.62952217    -5.787832     570.6448  0.030561526  0.029798065           15 
 1557000   0.62510413    -5.755632    572.70794  0.030652319  0.029778176           13 
 1558000   0.63657055   -5.7841034    570.12192  0.030494326  0.029758288           11 
 1559000   0.63613873   -5.8098801    570.81004  0.030511548  0.029738276           17 
 1560000   0.63218194   -5.7879164    571.18591  0.030512068  0.029718325            7 
 1561000   0.62577836   -5.7857742    572.12226  0.030542508  0.029698442           30 
 1562000   0.62151408   -5.7857912    570.79991  0.030452407  0.029678531           17 
 1563000   0.62747766   -5.7870359    572.44373  0.030520566  0.029658671           24 
 1564000   0.61106888    -5.784944    571.90126  0.030472147  0.029638794           18 
 1565000   0.63046955   -5.8017875     572.1207  0.030464361  0.029618876           24 
 1566000   0.63576788   -5.8254912    570.42277  0.030354553  0.029598996           11 
 1567000   0.62136983   -5.7922667    572.11714  0.030425289  0.029579116           11 
 1568000   0.62027256   -5.8056155    572.35267  0.030418403  0.029559274           14 
 1569000   0.62011522   -5.7973011    572.85895  0.030425906  0.029539521           15 
 1570000   0.62744529    -5.795948    571.51432  0.030335155  0.029519661           16 
 1571000   0.62868999   -5.8030035     571.4416  0.030311988  0.029499834            8 
 1572000    0.6494517   -5.8329035    571.86392  0.030315093  0.029480098           27 
 1573000   0.61972656   -5.8223525    570.71741  0.030235082  0.029460279           45 
 1574000   0.63490843    -5.826285    572.02551  0.030285129  0.029440453           44 
 1575000   0.62705664   -5.8101024    570.64837  0.030193035  0.029420619           12 
 1576000   0.61098473   -5.7998858    571.73743  0.030231463  0.029400847           20 
 1577000   0.62627063   -5.7888546    571.57033  0.030203463  0.029381098           12 
 1578000   0.61795759   -5.7815477    573.48725  0.030285554  0.029361325           12 
 1579000   0.61252124   -5.8107652    571.93248  0.030184319  0.029341578           21 
 1580000   0.61736473     -5.80624    571.58777  0.030147034  0.029321855           10 
 1581000    0.6201541   -5.8043666    571.35739  0.030115823  0.029302264            8 
 1582000   0.63803419   -5.8055066    573.16405  0.030191954  0.029282626            9 
 1583000   0.63566525   -5.8301137    572.96885  0.030162605  0.029262961           22 
 1584000   0.61059805   -5.8130248    571.95006  0.030089965  0.029243375           18 
 1585000   0.62177161   -5.8200211    572.80697  0.030116034  0.029223682           16 
 1586000   0.62044294    -5.805548    572.85029  0.030099322  0.029204005           16 
 1587000   0.62196868   -5.7970467    572.74569  0.030074863  0.029184304           16 
 1588000   0.61127962   -5.8292156    572.09832  0.030021952  0.029164643           14 
 1589000   0.60061871   -5.8333438     573.2915  0.030065633  0.029144925           29 
 1590000   0.62281696   -5.8198209    570.79246  0.029915747  0.029125299           12 
 1591000   0.62066111    -5.849522    571.25653  0.029921251  0.029105567           18 
 1592000   0.62281036   -5.8238832    571.67671  0.029924451  0.029085899           11 
 1593000   0.62819675   -5.8129556     572.2362  0.029934934  0.029066178           13 
 1594000   0.59882042    -5.831886    572.34058  0.029921611  0.029046517           19 
 1595000   0.60809822   -5.8335894    573.60723   0.02996903  0.029026877           40 
 1596000   0.61158651   -5.8091797    571.99469  0.029866055  0.029007277           12 
 1597000   0.60664078   -5.8132756    572.56264   0.02987699  0.028987682           12 
 1598000   0.61370311   -5.8359636    572.70251  0.029865588  0.028968127           12 
 1599000   0.62750839   -5.8268381     571.1689  0.029766985  0.028948482           11 
 1600000   0.62358741   -5.8480386    572.06863  0.029795241  0.028928931           15 
 1601000    0.6078388    -5.841936    572.82166  0.029815826  0.028909284           10 
 1602000   0.60803604   -5.8379484      573.603  0.029837859  0.028889666           24 
 1603000   0.62264956   -5.8448069     571.1858  0.029693585   0.02887003           56 
 1604000   0.61713887   -5.8158706    572.88908  0.029763564  0.028850465           14 
 1605000   0.60993695   -5.8343735    571.10226  0.029652246  0.028830859           23 
 1606000   0.61367647   -5.8441457    572.15117  0.029688209  0.028811286           22 
 1607000   0.62009187   -5.8419048    571.77601  0.029650281  0.028791681           12 
 1608000   0.60358434   -5.8296491    573.40103  0.029716057  0.028772133           20 
 1609000   0.62287597   -5.8474656    571.13835  0.029580399  0.028752576           35 
 1610000   0.62299845   -5.8244698    573.20182  0.029668831  0.028733097           12 
 1611000   0.60618533   -5.8261727    572.36263  0.029607006  0.028713633            9 
 1612000   0.61042108   -5.8431841    572.09253  0.029574676   0.02869419           15 
 1613000   0.60519466   -5.8421649    572.85195  0.029595575  0.028674695           16 
 1614000   0.59622434   -5.8189038    573.59733  0.029615723  0.028655244           54 
 1615000   0.59992039   -5.8511749    573.10011  0.029571729  0.028635838           50 
 1616000   0.61116946    -5.831975    573.87694  0.029593489  0.028616385           18 
 1617000   0.60092467   -5.8460159    572.27554  0.029492658     0.028597           11 
 1618000   0.62769031   -5.8286476    572.57084   0.02948964  0.028577564           15 
 1619000   0.59746743    -5.855862    572.31846  0.029458434  0.028558118           23 
 1620000   0.59735863    -5.847239    572.97974  0.029474266  0.028538639           66 
 1621000   0.60770732   -5.8596434    571.76584  0.029393679  0.028519147           19 
 1622000   0.59922413   -5.8513332    571.64721  0.029369462  0.028499659           16 
 1623000   0.60598932   -5.8434009    570.95094  0.029315616  0.028480275           26 
 1624000   0.59959544   -5.8474585    572.03657  0.029353272  0.028460817           26 
 1625000   0.60341396   -5.8736235    572.62122  0.029365191  0.028441346           34 
 1626000   0.60939176    -5.869576    571.77422  0.029303722  0.028421845           33 
 1627000   0.61297272   -5.8806237    571.65282  0.029279493  0.028402349           34 
 1628000   0.59251052   -5.8693394    571.80423  0.029269258  0.028382941           34 
 1629000   0.59788321   -5.8596194    571.61618  0.029241671  0.028363512            8 
 1630000   0.60379756    -5.846876    572.43379  0.029265531  0.028344079           11 
 1631000   0.59598266   -5.8715974    572.52756  0.029252379  0.028324645           17 
 1632000   0.59806436   -5.8807664    571.05385  0.029159204   0.02830516           25 
 1633000   0.61424419   -5.8507381    571.49678  0.029163951  0.028285729           12 
 1634000   0.60439613   -5.8779482      570.998  0.029120665  0.028266231           13 
 1635000   0.59312483   -5.8805764    572.63065  0.029186068  0.028246705           12 
 1636000   0.59816846   -5.8556132    571.79648  0.029125738  0.028227255            9 
 1637000   0.60408934   -5.8915698    572.37876  0.029137587  0.028207862           24 
 1638000   0.60681739   -5.8791844    571.31995  0.029065932  0.028188432           27 
 1639000    0.5915766   -5.8715536    571.53031  0.029058893  0.028169089           37 
 1640000   0.59956998   -5.8697128    572.36242  0.029083456  0.028149764           30 
 1641000   0.59759542   -5.8801606    572.12724  0.029053791  0.028130446           12 
 1642000   0.60012159   -5.8738727     572.9569  0.029078203  0.028111049           18 
 1643000   0.59104345    -5.878594    570.82075  0.028952158  0.028091669            7 
 1644000   0.58802312   -5.8949022    571.15104   0.02895129  0.028072252           13 
 1645000   0.60054679   -5.9023212    570.83069  0.028917462  0.028052806           25 
 1646000   0.59879908   -5.8908166    570.75042  0.028895829   0.02803332           36 
 1647000    0.6113116   -5.8743649    570.88394  0.028885041  0.028013877           26 
 1648000   0.59216385   -5.8778944    571.31856   0.02888949  0.027994434           38 
 1649000   0.59391698   -5.8780541     571.3617  0.028874151  0.027975057           30 
 1650000   0.58622133   -5.8507366    573.55855  0.028967603  0.027955717           15 
 1651000   0.59085386   -5.8654511    572.49898  0.028896577  0.027936432           17 
 1652000   0.58845318   -5.8783624    571.11192  0.028809116  0.027917125           24 
 1653000   0.59876556   -5.8481945    571.88747  0.028830786   0.02789788           25 
 1654000   0.58280271    -5.892325    570.53395  0.028745161  0.027878541           20 
 1655000   0.59225871   -5.8907708    571.19013  0.028760832  0.027859177           30 
 1656000   0.58792715   -5.9036373    572.36229   0.02880245  0.027839809           38 
 1657000   0.59091579   -5.8767315    572.10052  0.028771903  0.027820506           18 
 1658000   0.59593456   -5.8841846    572.08137  0.028753587   0.02780121           17 
 1659000   0.57757671   -5.8904516    572.50202  0.028757385  0.027781992           11 
 1660000   0.59471471   -5.8722719    572.40484  0.028735183  0.027762717           15 
 1661000    0.6081251   -5.8854042    572.38735  0.028717006  0.027743477           36 
 1662000   0.58816545   -5.8785428     572.4497  0.028702853   0.02772428           23 
 1663000   0.60250717      -5.8876    573.46714  0.028736577  0.027705025           20 
 1664000   0.59440363    -5.886013    571.81661  0.028636649   0.02768579           35 
 1665000   0.59055844   -5.8949433    572.11116  0.028634192  0.027666635           12 
 1666000   0.57882467   -5.8657955    572.73092  0.028648005  0.027647524           17 
 1667000   0.59704187   -5.8897432    572.75135  0.028631841  0.027628482           14 
 1668000   0.58212441   -5.8807135    572.62708  0.028608467  0.027609355           22 
 1669000   0.58972489   -5.9013902    572.30429  0.028575209  0.027590246           35 
 1670000   0.57144624   -5.8928625    572.77852  0.028581762  0.027571154           36 
 1671000   0.58331193   -5.8899971    573.76712   0.02861396  0.027552135           28 
 1672000   0.58976403   -5.8957304    571.35109   0.02847643  0.027533068           29 
 1673000   0.59269742   -5.9047498    572.15504  0.028499454  0.027514019           28 
 1674000   0.58553583   -5.9124521    572.10613  0.028479995  0.027494907           85 
 1675000    0.5658848   -5.9082542    573.05953  0.028510424  0.027475767           47 
 1676000   0.58316143   -5.9128537    571.34959  0.028408393  0.027456624           41 
 1677000   0.57893479   -5.9166351    571.70844  0.028409284  0.027437509           46 
 1678000   0.58999935   -5.9268745    570.74759  0.028344636  0.027418343           37 
 1679000   0.57604499   -5.9213476    571.71187  0.028375614  0.027399203           59 
 1680000   0.58655949   -5.8999379    571.65199  0.028355753  0.027380135           41 
 1681000   0.58356573   -5.9113756    571.88552  0.028350462   0.02736104           27 
 1682000   0.58464931    -5.900746    572.25868  0.028352095  0.027342006           22 
 1683000   0.58947319   -5.9091216    572.28062  0.028336335  0.027322935           46 
 1684000   0.58757749   -5.9026113    572.74238  0.028342359  0.027303866           20 
 1685000   0.58461489   -5.9034679    570.83669   0.02823129  0.027284893           22 
 1686000   0.59522855    -5.913855    572.29466  0.028286608  0.027265899           16 
 1687000   0.58462654   -5.9219932    572.57166  0.028283524  0.027246952           34 
 1688000   0.57636264   -5.9218212    571.72982  0.028225208  0.027227991           18 
 1689000    0.5832111   -5.9222883    572.18282  0.028230847  0.027209028           24 
 1690000    0.5704175   -5.9292097    571.31048  0.028171128  0.027190066           15 
 1691000   0.58764076   -5.9094401    572.39639  0.028207983  0.027171066           20 
 1692000    0.5935375   -5.9226394    571.28984  0.028136812  0.027152067           15 
 1693000   0.58669022   -5.9266676    572.89217  0.028199063  0.027133085           33 
 1694000   0.58113264   -5.9490139    571.83082  0.028130206  0.027114116           36 
 1695000    0.5706459   -5.9154416    572.61889  0.028152355  0.027095161           23 
 1696000    0.5694161    -5.934255    572.47168  0.028128522  0.027076233           51 
 1697000   0.58238758   -5.9353436    570.80913  0.028030305   0.02705724           35 
 1698000   0.56695409   -5.9227549    571.40969  0.028043271  0.027038425           15 
 1699000   0.57993719    -5.905256    573.51737  0.028130144  0.027019636           14 
 1700000   0.58024277   -5.9116052    573.83051  0.028128946  0.027000921           30 
 1701000   0.55200781   -5.9275241    571.82052  0.028013939  0.026982165           18 
 1702000   0.57742176   -5.9209765    572.23833  0.028017936  0.026963546           22 
 1703000   0.57820825   -5.9388593    573.11978  0.028044616  0.026944853           38 
 1704000   0.56879819   -5.9196035    572.64028  0.028004709  0.026926193           23 
 1705000   0.58206263    -5.927239    572.68263  0.027990353   0.02690755           33 
 1706000   0.57067814   -5.9308228     573.0544  0.027992106  0.026888952           27 
 1707000   0.56236225   -5.9294782    572.08221  0.027928247  0.026870312           15 
 1708000   0.58018437   -5.9474803    573.00706  0.027957019  0.026851638           43 
 1709000   0.56346913   -5.9250828     571.4691  0.027865667  0.026833032           25 
 1710000   0.56576971   -5.9387083    573.40062    0.0279435  0.026814422           25 
 1711000   0.57579708   -5.9461912    572.58235  0.027887315  0.026795786           30 
 1712000   0.56419992   -5.9391154    572.48143  0.027866113  0.026777228           37 
 1713000    0.5641118   -5.9481083    571.82043   0.02781769  0.026758584           58 
 1714000    0.5612107   -5.9237549    571.98055  0.027809245   0.02673993           38 
 1715000   0.56840585   -5.9500122    571.98283   0.02779314  0.026721312           22 
 1716000   0.57822312   -5.9651903     571.3164   0.02774458  0.026702684           37 
 1717000    0.5705977    -5.932919    572.29644  0.027775987  0.026684128           32 
 1718000   0.56510728   -5.9444049    573.31594  0.027809272  0.026665596           47 
 1719000   0.56644784   -5.9511625    572.00077  0.027729337  0.026647073           21 
 1720000   0.56572944   -5.9404816    572.63218  0.027743807  0.026628573           20 
 1721000   0.57910331   -5.9331615    572.34648  0.027713852  0.026610024           34 
 1722000   0.56179925   -5.9323521    572.19309  0.027690336  0.026591501           24 
 1723000   0.56391466   -5.9485628    572.67217  0.027697435  0.026572961           33 
 1724000    0.5571954   -5.9538185    572.27591  0.027662215  0.026554481           30 
 1725000   0.57380637    -5.936184    573.67993  0.027714006  0.026536029           28 
 1726000   0.55625292   -5.9414808    573.22057  0.027675771  0.026517603           44 
 1727000   0.57965477   -5.9275081     572.8082  0.027639847  0.026499183           30 
 1728000   0.55536742   -5.9421617    573.52035  0.027658196  0.026480809           40 
 1729000   0.56319347   -5.9643361    572.91622  0.027613082  0.026462385           35 
 1730000   0.56307638   -5.9600061    572.91822  0.027597217  0.026443982           44 
 1731000   0.55767002   -5.9594889    573.12196  0.027591082  0.026425582           40 
 1732000   0.56412483   -5.9415704    573.17724  0.027577812  0.026407232           27 
 1733000     0.564536   -5.9634925    572.93695  0.027550344  0.026388882           37 
 1734000    0.5703614   -5.9466389    573.85267  0.027578464  0.026370538           47 
 1735000   0.56260526   -5.9558694    574.00806  0.027570032  0.026352225           58 
 1736000   0.56888492   -5.9804278    572.81826  0.027497036  0.026333904           50 
 1737000   0.55661829   -5.9465425    573.14445  0.027496855  0.026315577           64 
 1738000   0.56492754   -5.9637571    572.40392  0.027445528  0.026297273           32 
 1739000   0.55365449   -5.9625925    573.11887  0.027464005  0.026278936           28 
 1740000    0.5615151   -5.9382546    572.69576  0.027427958  0.026260592           21 
 1741000   0.54888269   -5.9779624    573.24531  0.027438508  0.026242277           24 
 1742000   0.55577499   -5.9747105    573.21835  0.027421467   0.02622402           16 
 1743000   0.55603528   -5.9541262    573.62652   0.02742525  0.026205728           27 
 1744000   0.55262939   -5.9767552    571.57245  0.027311375  0.026187425           33 
 1745000   0.56089135   -5.9767074    572.20456   0.02732591  0.026169116           32 
 1746000   0.55613735   -5.9763043    572.98346  0.027347435  0.026150815           21 
 1747000   0.54543789    -5.974384    572.02485  0.027286055  0.026132448           23 
 1748000   0.55497293   -5.9610171    572.09466  0.027273773  0.026114122           66 
 1749000   0.55681403   -5.9665041    572.10114  0.027258487  0.026095766           48 
 1750000   0.55010241   -5.9837563    571.48231  0.027213443  0.026077444           15 
 1751000   0.55345498   -5.9815323     570.6813   0.02715978  0.026059144           57 
 1752000    0.5430155   -5.9541077    571.90621   0.02720254  0.026040813           73 
 1753000   0.55267228   -5.9869573    572.31667  0.027206535  0.026022494           59 
 1754000   0.54946272   -5.9890305    572.39741   0.02719486  0.026004153           47 
 1755000   0.54238551   -5.9988137    571.39582  0.027131805  0.025985796           26 
 1756000   0.56613601   -6.0016831    571.68968    0.0271303  0.025967398           27 
 1757000    0.5488049   -5.9941289      571.095  0.027086653  0.025949024          105 
 1758000   0.55748839   -5.9656427    572.10488  0.027119116  0.025930668           45 
 1759000   0.54893794   -6.0007771    570.61702  0.027033211  0.025912347           49 
 1760000   0.55364774   -6.0137105    571.24816  0.027047735  0.025894006           49 
 1761000   0.55003902   -6.0075539    570.80061  0.027011197  0.025875682          105 
 1762000   0.56090823   -6.0113234    570.82714  0.026997122  0.025857372           62 
 1763000   0.55888548   -6.0019484    570.93152  0.026986742  0.025839127           33 
 1764000   0.55894491   -6.0056376    572.47375    0.0270443  0.025820916           53 
 1765000   0.55363688   -6.0068901    572.12193  0.027012367  0.025802707           74 
 1766000   0.54649805   -5.9826249    571.28049  0.026957365  0.025784428           45 
 1767000   0.54938366   -5.9920982    570.18969  0.026890666  0.025766201           45 
 1768000   0.54004413   -6.0050146    571.84847  0.026953642  0.025748007           64 
 1769000   0.56286089   -6.0042564    571.77024   0.02693472  0.025729856           31 
 1770000   0.53512654   -6.0092933    570.50236   0.02685981  0.025711649           43 
 1771000   0.54422628   -5.9972752     571.1365  0.026874482  0.025693501           24 
 1772000    0.5450987   -6.0085906     572.4384  0.026920542  0.025675335           41 
 1773000   0.54638474    -6.002644    570.82559  0.026829554  0.025657203           52 
 1774000    0.5497398   -6.0187522    570.45032  0.026796802    0.0256391           28 
 1775000    0.5396499   -5.9858735    571.69503  0.026840142  0.025620968           40 
 1776000   0.54481404   -6.0007863    571.39391    0.0268109  0.025602831           31 
 1777000   0.53243699   -6.0151868    571.38227  0.026795267  0.025584738           21 
 1778000    0.5433303   -6.0139452    571.16604  0.026770062  0.025566643           18 
 1779000   0.54155548   -6.0195999    571.02071  0.026748207  0.025548565           31 
 1780000   0.54474912   -6.0035086    571.80179  0.026769747  0.025530514           54 
 1781000   0.53715526   -6.0208092    571.58102  0.026744386  0.025512502           61 
 1782000   0.54653407   -6.0221111    572.35463  0.026765555  0.025494467           62 
 1783000   0.54193613   -5.9884553    571.41523  0.026706638  0.025476483           53 
 1784000   0.55179323   -5.9858348    571.43053  0.026692383  0.025458551           55 
 1785000   0.54375542   -6.0252898    572.93293  0.026747569  0.025440617           67 
 1786000   0.53299875   -6.0143537    572.99558  0.026735516  0.025422724           44 
 1787000   0.53505706   -6.0190951    572.02683  0.026675379  0.025404781           70 
 1788000   0.53426589   -6.0151906     572.5967   0.02668702  0.025386865           69 
 1789000   0.53289339    -6.018718    571.41238  0.026616936  0.025368951           48 
 1790000    0.5456331   -6.0346135    572.15886  0.026636819   0.02535102           71 
 1791000   0.53839163   -6.0220447    571.48982  0.026590816  0.025333128           28 
 1792000   0.52910306   -6.0354975    571.81356  0.026591033  0.025315237           17 
 1793000   0.54083373   -6.0266699    570.95436  0.026536269  0.025297338           36 
 1794000    0.5318952   -6.0243872     572.3994  0.026588601  0.025279511           34 
 1795000   0.54024703   -6.0237031    572.20181  0.026564615  0.025261682           38 
 1796000   0.53411469   -6.0214618    571.15853  0.026501417  0.025243864           24 
 1797000   0.54460659   -6.0340517    571.03397  0.026480893  0.025226011           23 
 1798000   0.53537386   -6.0227472    571.13321  0.026470764  0.025208188           49 
 1799000   0.53817037   -6.0380859     571.6237  0.026478771  0.025190355           60 
 1800000   0.53934441   -6.0372094    571.99595  0.026481294  0.025172542           61 
 1801000   0.53662146   -6.0235242    570.75729  0.026409277  0.025154769           56 
 1802000   0.53502406    -6.033572    571.53564  0.026430616  0.025137003           57 
 1803000   0.52720027   -6.0250945    571.86142  0.026431014  0.025119264           50 
 1804000   0.52512461   -6.0150282     572.0706  0.026426025  0.025101557           36 
 1805000   0.52193258   -6.0220382    571.31794  0.026376636  0.025083883           37 
 1806000   0.52408624   -6.0292725    571.85386   0.02638676  0.025066227           97 
 1807000   0.52373747   -6.0260374     571.7361  0.026366727  0.025048582          137 
 1808000   0.53832377   -6.0390947    571.03355  0.026319762  0.025030924           75 
 1809000   0.54331598   -6.0247636    570.48187  0.026279799  0.025013283           63 
 1810000   0.53216272   -6.0182703     569.3559  0.026213439  0.024995594          106 
 1811000   0.53730295   -6.0257789    570.62913  0.026257552   0.02497791          112 
 1812000   0.52978844   -6.0371283    570.99384  0.026259834   0.02496021           72 
 1813000   0.54039533    -6.012336    571.28214  0.026258602  0.024942514           45 
 1814000   0.53219492   -6.0348887    570.73853  0.026219153  0.024924809           27 
 1815000   0.53010588   -6.0306283    570.53437  0.026195334  0.024907077           27 
 1816000   0.52596876   -6.0505656    569.89013  0.026151346  0.024889366           68 
 1817000   0.53177162   -6.0450341      570.694  0.026173822  0.024871656           85 
 1818000   0.52753636   -6.0501361    570.13478  0.026133791  0.024853953          102 
 1819000   0.53443843   -6.0455547    569.60766  0.026095275  0.024836241           73 
 1820000   0.53352989   -6.0365035      571.374  0.026161813   0.02481853           30 
 1821000   0.52612023   -6.0406165    570.50282  0.026107579  0.024800845           34 
 1822000   0.52485115   -6.0443466    571.04063  0.026117848  0.024783203           39 
 1823000    0.5164122   -6.0470134    570.55049  0.026081116  0.024765518           49 
 1824000   0.52953728   -6.0648908    570.54739  0.026066676  0.024747817           66 
 1825000   0.53946327   -6.0384661    569.69477   0.02601346  0.024730132           79 
 1826000   0.53393418    -6.043868    570.99075  0.026058358  0.024712449           26 
 1827000   0.52353496   -6.0568714    571.44504  0.026064816  0.024694774           23 
 1828000   0.51533892   -6.0576796    569.10252  0.025943769   0.02467708           64 
 1829000    0.5196163   -6.0592849    569.68887    0.0259563   0.02465938           21 
 1830000    0.5149592   -6.0616932     570.1369  0.025962518  0.024641721           40 
 1831000   0.53736479   -6.0696422    570.60118  0.025969469  0.024624062           27 
 1832000   0.52053264   -6.0612159    568.74137  0.025870696  0.024606433           29 
 1833000   0.52960953   -6.0712363    570.08672  0.025917745  0.024588778           18 
 1834000   0.51723031   -6.0645637    568.72984  0.025841959  0.024571138           44 
 1835000    0.5135821   -6.0853084    568.41918  0.025813768  0.024553444           38 
 1836000   0.51076972   -6.0656346      569.537  0.025850445  0.024535758           37 
 1837000   0.50333595   -6.0889196      568.822  0.025803937  0.024518086           77 
 1838000   0.53100165    -6.060722    568.32012  0.025767144  0.024500423           38 
 1839000    0.5232184   -6.0605983    568.53824  0.025763016  0.024482834           24 
 1840000   0.51428877   -6.0826253    569.32301  0.025784556   0.02446522           49 
 1841000   0.51996401   -6.0768774    568.86921  0.025750009  0.024447651           20 
 1842000   0.51316471   -6.0589721    569.16622  0.025749467  0.024430061           18 
 1843000   0.51459873   -6.0725948    569.16796  0.025735574  0.024412517           21 
 1844000   0.51565392   -6.0551832     570.3171  0.025773549  0.024394983           50 
 1845000   0.50202839   -6.0918693    570.12766  0.025751023  0.024377431           59 
 1846000   0.51220387   -6.0661727     568.9049  0.025681875  0.024359925           59 
 1847000   0.52085391   -6.0756525    568.95373  0.025670173  0.024342413           54 
 1848000   0.50923401   -6.0911331    567.94076  0.025610604  0.024324888           42 
 1849000   0.50670387   -6.0750618    570.01469  0.025690224  0.024307408           85 
 1850000   0.51892638   -6.0634929    570.34655  0.025691286  0.024289932          101 
 1851000   0.51848614   -6.0903171    570.02205  0.025662797  0.024272477           46 
 1852000   0.50545755   -6.0756617     568.7498  0.025591694  0.024255035           87 
 1853000   0.51082674   -6.0835124    569.28786   0.02560208  0.024237631           54 
 1854000   0.50631587   -6.0846194    570.16681  0.025627778  0.024220214           34 
 1855000   0.51256227   -6.0885518    569.80672  0.025597786  0.024202817           43 
 1856000   0.51101534   -6.0762837    568.70987  0.025534746  0.024185439           37 
 1857000   0.52055953   -6.0844228    569.11817  0.025539318  0.024168032           52 
 1858000   0.50832781   -6.0832397    569.27728  0.025532709   0.02415066          103 
 1859000   0.51830847   -6.0820864    568.38363  0.025478915  0.024133283           61 
 1860000   0.50793084   -6.0980341    568.14016  0.025454308  0.024115878           43 
 1861000   0.50704045   -6.0897908    569.68692  0.025509892  0.024098511           57 
 1862000   0.51429598   -6.0917079    569.28378   0.02547815  0.024081178           49 
 1863000   0.51280586   -6.0800255    568.54066  0.025431234  0.024063824           65 
 1864000   0.50833389   -6.1081183    568.49003  0.025415327  0.024046488           89 
 1865000   0.50370959   -6.0901008    568.37775  0.025396682  0.024029133           34 
 1866000   0.49927975    -6.081456    567.95584   0.02536423  0.024011751           68 
 1867000   0.50244673   -6.0892017    567.63243  0.025336209  0.023994409           66 
 1868000   0.50311659   -6.0829657    568.59196  0.025365451  0.023977053          129 
 1869000    0.4918465   -6.0808439    568.67497  0.025355581    0.0239597           53 
 1870000   0.51334726   -6.0815056    568.52539  0.025335356  0.023942383           63 
 1871000   0.50774119   -6.1093178    568.17637   0.02530627  0.023925082          155 
 1872000   0.50908115   -6.0929917    568.39735  0.025302588   0.02390777          118 
 1873000    0.5205914   -6.0929407    568.85138   0.02530928  0.023890478          125 
 1874000   0.49765301   -6.0874831    567.56126  0.025238405  0.023873176          125 
 1875000   0.50926164    -6.085102    568.23715  0.025254984  0.023855912          212 
 1876000   0.51147202   -6.0951393    568.36435  0.025247173  0.023838655          194 
 1877000   0.50026256   -6.1092925    569.17387  0.025269662  0.023821395          173 
 1878000   0.49556268   -6.0948965    567.67802   0.02518983  0.023804119          200 
 1879000   0.50536079    -6.111884    568.19511  0.025199357  0.023786831          240 
 1880000   0.49801926   -6.0910024    567.26704  0.025144816  0.023769561          298 
 1881000   0.50330075   -6.1032787    568.39765  0.025181537  0.023752282          272 
 1882000   0.50457827   -6.1128843    568.17535  0.025158313  0.023734995          245 
 1883000   0.50265389   -6.1033486    567.47591  0.025113999  0.023717724          194 
 1884000   0.50675317   -6.1200928     567.8991  0.025119387  0.023700452          189 
 1885000   0.50113319   -6.0975881    567.41472  0.025084647  0.023683267          197 
 1886000   0.49647067   -6.1172332    567.86763  0.025091359  0.023666047          213 
 1887000   0.50439689   -6.0944556    568.24348   0.02509466  0.023648849          145 
 1888000   0.49803917   -6.1124342    568.62804  0.025098342  0.023631647           95 
 1889000   0.50424331    -6.102141    567.73749  0.025045769  0.023614467          245 
 1890000   0.49129361   -6.1047068    566.57059  0.024981067    0.0235973           83 
 1891000   0.48996942    -6.093194    566.34434  0.024957885  0.023580106           64 
 1892000   0.49777369   -6.1057976    567.53868  0.024997299  0.023562948          140 
 1893000   0.50586087   -6.1158019    567.85259  0.024997913  0.023545806          140 
 1894000   0.49180752   -6.1396054    566.49897  0.024925157  0.023528651          148 
 1895000   0.49858767   -6.1196677    566.46457  0.024910491  0.023511495          132 
 1896000   0.49647802   -6.1256513    566.02186  0.024877894   0.02349441          190 
 1897000   0.50741157   -6.1424431    567.00848  0.024908122  0.023477257          218 
 1898000   0.50429326   -6.1365691    566.54434   0.02487462  0.023460159          173 
 1899000   0.48711938    -6.132446    567.37796  0.024898102   0.02344307          201 
 1900000   0.48810061   -6.1177248    566.11936  0.024829796  0.023425971          178 
 1901000   0.48817231   -6.1185074    567.13684  0.024861338    0.0234089          141 
 1902000   0.50232208   -6.1223408    567.30599  0.024855678  0.023391855          110 
 1903000   0.50348382   -6.1190211    567.48238  0.024850341  0.023374807          104 
 1904000   0.49400561   -6.1305088    567.77198  0.024849964  0.023357758          150 
 1905000   0.48754393   -6.1278997    565.95424  0.024757403  0.023340659          116 
 1906000   0.48988497   -6.1107565    567.90225  0.024829584  0.023323579          127 
 1907000   0.48669298   -6.1310605    565.70076  0.024720362  0.023306522          224 
 1908000   0.49792584   -6.1315041    566.52151  0.024743252  0.023289478          184 
 1909000   0.49698189   -6.1271418    566.72493  0.024739171  0.023272504           91 
 1910000   0.49658416   -6.1547756     565.8255  0.024686976  0.023255521          227 
 1911000   0.48299525   -6.1265641    566.21463  0.024691027  0.023238525          147 
 1912000   0.49713683   -6.1298584    566.23848  0.024679153  0.023221578          349 
 1913000   0.50780009     -6.13417    565.57638   0.02463741  0.023204611          221 
 1914000   0.49609026   -6.1605691    566.63518  0.024670637  0.023187686          142 
 1915000   0.47951129   -6.1424784    566.70106  0.024660621  0.023170765          244 
 1916000   0.49855143   -6.1477627    566.53388  0.024640478  0.023153834          191 
 1917000   0.49577282   -6.1281579     567.1588   0.02465479  0.023136894          342 
 1918000   0.48773545   -6.1329015    566.65009  0.024619834  0.023119982          359 
 1919000   0.48106931   -6.1379599    565.54159  0.024558867  0.023103078          128 
 1920000   0.49696319   -6.1276296    566.78905  0.024600219  0.023086177          194 
 1921000   0.48415353   -6.1323275    566.45719  0.024573017  0.023069285          234 
 1922000   0.47933412   -6.1458866    565.92403  0.024537116  0.023052391          176 
 1923000   0.48846064   -6.1270667    566.38354  0.024544268  0.023035533          281 
 1924000   0.49073656   -6.1418203    566.89591  0.024553704  0.023018697          290 
 1925000    0.4844261   -6.1429602    565.71904  0.024490002  0.023001901          282 
 1926000   0.48408389    -6.141339    565.52727  0.024468989  0.022985099          231 
 1927000   0.48359772   -6.1443807    564.75445   0.02442287  0.022968243          306 
 1928000   0.48916746   -6.1443715     566.4788  0.024484734   0.02295141          304 
 1929000   0.47932452   -6.1489981    566.34297  0.024466173  0.022934599          291 
 1930000   0.48777948   -6.1604368    564.96157   0.02439385  0.022917739          365 
 1931000    0.4687537   -6.1485409    565.54845  0.024406545  0.022900937          332 
 1932000   0.48652559   -6.1540352    565.04402  0.024372154  0.022884114          283 
 1933000   0.48179207   -6.1507476    565.34861  0.024372677  0.022867304          272 
 1934000   0.47991393   -6.1531921     565.1165  0.024350073  0.022850557          304 
 1935000   0.47983098   -6.1705909    565.15248  0.024339039   0.02283379          355 
 1936000   0.47755135   -6.1617958    566.05649  0.024365379  0.022817078          365 
 1937000   0.46674753   -6.1581461    565.36204  0.024322924  0.022800317          246 
 1938000   0.46949439   -6.1590856    565.57257  0.024319426  0.022783605          371 
 1939000   0.48773248   -6.1498944    566.00155   0.02432532  0.022766912          255 
 1940000   0.47524961   -6.1571664    565.37045  0.024285672  0.022750241          262 
 1941000   0.47644563   -6.1606722    565.61022  0.024283454  0.022733565          228 
 1942000   0.46728218   -6.1707395     565.1543  0.024251386  0.022716879          219 
 1943000   0.47933741   -6.1534835     565.9811  0.024274365    0.0227002          392 
 1944000   0.46777545    -6.165545    565.11358   0.02422469  0.022683521          281 
 1945000   0.46095055   -6.1567072    565.05494  0.024209723  0.022666854          273 
 1946000   0.46609418   -6.1729116    565.28432  0.024207105  0.022650202          288 
 1947000   0.47107827   -6.1665841    566.23006   0.02423515  0.022633556          469 
 1948000   0.47072754   -6.1656904    565.49873  0.024191424  0.022616926          424 
 1949000    0.4696346   -6.1768786    565.58135  0.024182545  0.022600314          310 
 1950000    0.4711328   -6.1669897    564.25936  0.024113648  0.022583718          410 
 1951000   0.47672545   -6.1813427    564.50535  0.024111795  0.022567145          448 
 1952000   0.48002347   -6.1721168    565.48768   0.02414138  0.022550568          447 
 1953000   0.47400736    -6.164752    564.97932  0.024107327  0.022533997          521 
 1954000   0.48057922   -6.1762777    564.71813  0.024083851  0.022517403          607 
 1955000   0.47251309   -6.1795967    565.09744    0.0240877  0.022500878          550 
 1956000   0.47768478   -6.1699468    564.70639  0.024058725  0.022484348          316 
 1957000   0.47262588   -6.1842348    565.39274  0.024075658  0.022467841          568 
 1958000   0.47836322   -6.1798808    565.28076  0.024058596  0.022451351          307 
 1959000   0.46086131    -6.180834    564.67346  0.024020481  0.022434829          489 
 1960000   0.47105678   -6.1874993    564.49842  0.024000783   0.02241831          565 
 1961000   0.47185647   -6.1827382    564.51215  0.023989128  0.022401817          492 
 1962000   0.47495674   -6.1987581    563.82318  0.023947638   0.02238531          310 
 1963000   0.46102616   -6.1740711    565.14601  0.023991595  0.022368834          602 
 1964000    0.4682702   -6.1823308    565.68145  0.024002098  0.022352364          683 
 1965000   0.47230392   -6.1982157    563.81933  0.023910913  0.022335875          579 
 1966000   0.47706624   -6.1836836    564.85095  0.023942479  0.022319418          543 
 1967000   0.46930631   -6.1877161    564.50933  0.023915833  0.022302947          559 
 1968000   0.46591713   -6.1892985    563.96617  0.023880681  0.022286482          722 
 1969000   0.46964077   -6.1944941    563.52088  0.023849707  0.022270036          546 
 1970000    0.4700413   -6.1886357     563.9911  0.023857491  0.022253624          500 
 1971000   0.45993965   -6.1982108    563.72137  0.023833983  0.022237197          552 
 1972000   0.46708986   -6.1911039    564.22992  0.023843387  0.022220764          687 
 1973000   0.46831575   -6.1836596    564.89149  0.023859245  0.022204369          694 
 1974000   0.46312685   -6.2034781    564.00443  0.023809711  0.022188007          572 
 1975000   0.46440988   -6.1996988    563.93158  0.023794581  0.022171609          769 
 1976000   0.45508678   -6.1936198    563.55639  0.023766717   0.02215523          670 
 1977000    0.4631105   -6.2054517    563.47199  0.023751138  0.022138857          728 
 1978000    0.4659916   -6.1951392    563.42453   0.02373713  0.022122505          758 
 1979000   0.46708314   -6.1932054    563.98694  0.023748818  0.022106189          669 
 1980000   0.46327926   -6.1798359    563.77207  0.023727781  0.022089883          736 
 1981000   0.46331567   -6.1911271    563.67208  0.023711597  0.022073596          776 
 1982000   0.45792018   -6.1921443    561.86157   0.02362351   0.02205726          755 
 1983000   0.46199449    -6.201021    563.01289   0.02365998  0.022040965          743 
 1984000   0.45784328   -6.1949201    563.67431  0.023675836   0.02202469          726 
 1985000   0.47265039   -6.1978385    564.17295  0.023684843  0.022008432          675 
 1986000   0.45926097   -6.1954714    562.92615  0.023620601    0.0219922          798 
 1987000   0.45177537   -6.1971901    564.06092  0.023656304   0.02197597          744 
 1988000    0.4659587   -6.2008419    563.37507  0.023615655  0.021959745          729 
 1989000   0.46023927   -6.2012777    563.42051  0.023605686  0.021943538          774 
 1990000   0.45892415   -6.2225064    563.67807  0.023604609  0.021927318          597 
 1991000    0.4451845   -6.2113688    562.98924  0.023563923  0.021911136          737 
 1992000   0.46194459   -6.2214321     562.5771  0.023534852  0.021894953          850 
 1993000   0.45103829   -6.2186251    562.37358  0.023514533  0.021878763          782 
 1994000   0.45596719   -6.1942989    562.81114  0.023521027  0.021862596          789 
 1995000   0.45263254   -6.2054613    563.58503  0.023541563  0.021846428          781 
 1996000    0.4587872   -6.2136571    563.75894   0.02353703  0.021830281          857 
 1997000   0.46327483   -6.2173659    561.38558  0.023426205  0.021814133          889 
 1998000   0.45588556   -6.2166956    563.50787  0.023502997  0.021797996          814 
 1999000   0.45035256   -6.2115477    563.86805  0.023506255  0.021781891          852 
 2000000   0.44298362   -6.2091883    564.14964  0.023506235   0.02176581          816 
 2001000   0.44419109    -6.209332    563.11345  0.023451335  0.021749712          849 
 2002000   0.45890007   -6.2280288    562.43791  0.023411502  0.021733644          877 
 2003000    0.4586927   -6.1975935    563.24124  0.023433235  0.021717593          884 
 2004000   0.44190908   -6.2199004     563.5438  0.023434123  0.021701552          858 
 2005000   0.44945822   -6.2195726    562.78223  0.023390783  0.021685524          883 
 2006000   0.43976649   -6.2194805    562.61189  0.023372046  0.021669493          785 
 2007000   0.45552696   -6.2300348    562.52258  0.023356692  0.021653453          793 
 2008000   0.43468749   -6.2228951    562.62897  0.023349476  0.021637453          808 
 2009000    0.4514772   -6.2334717    562.52377   0.02333349  0.021621428          777 
 2010000   0.44323152   -6.2330148    561.21176  0.023267486   0.02160544          950 
 2011000   0.45421666   -6.2399178    562.97818  0.023329114  0.021589449          865 
 2012000   0.45250555   -6.2237554    562.83573  0.023311619  0.021573477          858 
Loop time of 5099.85 on 48 procs for 2000000 steps with 4000 atoms

Performance: 67766.688 tau/day, 392.168 timesteps/s
99.4% CPU use with 48 MPI tasks x no OpenMP threads

MPI task timing breakdown:
Section |  min time  |  avg time  |  max time  |%varavg| %total
---------------------------------------------------------------
Pair    | 350.41     | 378.35     | 407.08     |  64.4 |  7.42
Neigh   | 34.705     | 36.006     | 37.391     |  12.4 |  0.71
Comm    | 321.44     | 348.84     | 377.08     |  72.4 |  6.84
Output  | 4.4022     | 4.4041     | 4.4531     |   0.3 |  0.09
Modify  | 4270.9     | 4285.3     | 4306.4     |  10.2 | 84.03
Other   |            | 46.97      |            |       |  0.92

Nlocal:        83.3333 ave          91 max          78 min
Histogram: 6 4 5 8 8 7 6 1 1 2
Nghost:        2364.19 ave        2381 max        2346 min
Histogram: 2 0 3 9 10 7 9 3 3 2
Neighs:        16200.9 ave       19185 max       13903 min
Histogram: 5 7 4 6 8 4 6 4 2 2
FullNghs:      32402.5 ave       35635 max       30229 min
Histogram: 7 4 6 5 10 7 5 1 1 2

Total # of neighbors = 1555319
Ave neighs/atom = 388.82975
Neighbor list builds = 107456
Dangerous builds = 0

#clear
#
#next RN
#
#jump SELF
Total wall time: 1:25:03
