
units lj                  # Use reduced LJ style units
atom_style atomic         # Uncharged point particles
atom_modify map hash      # Needed for indexing of clusters etc
                          # Used to be able to find where atoms are in relation to each other.

lattice fcc 1.0 spacing 1 1 1
Lattice spacing in x,y,z = 1.5874011 1.5874011 1.5874011
region box block 0 10 0 10 0 10 units lattice
create_box 2 box
Created orthogonal box = (0.0000000 0.0000000 0.0000000) to (15.874011 15.874011 15.874011)
  3 by 4 by 4 MPI processor grid
create_atoms 1 box
Created 4000 atoms
  using lattice units in orthogonal box = (0.0000000 0.0000000 0.0000000) to (15.874011 15.874011 15.874011)
  create_atoms CPU = 0.041 seconds
set type 1 type/fraction 2 0.59 78393
Setting atom values ...
  2375 settings made for type/fraction
mass 1 1.0
mass 2 1.0
pair_style lj/cut  3.5
pair_modify tail  yes
pair_coeff 1  1  1.0  1.0   # Intearaction between 1 and 1 set with epsilon = 1 and sigma = 1
pair_coeff 1  2  1.5  0.8
pair_coeff 2  2  0.5  0.88

write_data data.0
System init for write_data ...
Neighbor list info ...
  update every 1 steps, delay 10 steps, check yes
  max neighbors/atom: 2000, page size: 100000
  master list distance cutoff = 3.8
  ghost atom cutoff = 3.8
  binsize = 1.9, bins = 9 9 9
  1 neighbor lists, perpetual/occasional/extra = 1 0 0
  (1) pair lj/cut, perpetual
      attributes: half, newton on
      pair build: half/bin/atomonly/newton
      stencil: half/bin/3d
      bin: standard
WARNING: Not all mixed pair coeffs generated from mixing. Use write_data with 'pair ij' option to store all pair coeffs. (../write_data.cpp:312)


#############################
#   M E L T   S Y S T E M   #
#############################

velocity all create 2.4 5833274 mom yes dist gaussian # Assign velocities
                                                    # Temperature 2.4, random number seed, zero linear momentum
                                                                                # Gaussian distribution

timestep 0.002   # simulation timestep
thermo 1000       # output thermodynamic data every 1000 steps bf 100

# Define a fix  in this case with index 1 applied to all
# particles in the simulation. This fix is for simulations
# in the anisotropic NPT ensemble. Note that we use the MTK
# correction.
fix 1 all npt temp 2.4 2.4 0.1 iso 5.68 5.68 0.5 mtk yes tchain 5 pchain 5 # Use NPT ensemble
                                                                         # Set temperature and pressure and damping
                                                                         # Numbers of thermostats in chain and in barostat
run 10000          # run for 10000 steps
Per MPI rank memory allocation (min/avg/max) = 3.642 | 3.644 | 3.648 Mbytes
Step Temp E_pair E_mol TotEng Press Volume 
       0          2.4   -4.7762807            0   -1.1771807   -4.0862689         4000 
    1000    2.3601077   -4.4911212            0  -0.95184475    5.8839806    3614.6944 
    2000     2.434117    -4.537662            0   -0.8873993    6.0272847    3590.3565 
    3000    2.3755889   -4.5143958            0  -0.95190329    5.5632118    3623.4619 
    4000    2.3636567   -4.5563294            0   -1.0117307    5.5156153    3605.8555 
    5000    2.3781504   -4.5392775            0  -0.97294365    5.7435369    3598.0517 
    6000     2.403916   -4.4935098            0  -0.88853732    5.6121719     3642.015 
    7000    2.3399431   -4.5121413            0   -1.0031042    5.6491372    3615.0303 
    8000    2.4574106   -4.4724883            0  -0.78729398    5.6998327     3646.029 
    9000    2.4229541   -4.4983915            0   -0.8648689    5.2551409    3665.0507 
   10000    2.3249256   -4.5113343            0   -1.0248177    5.4472258    3636.0325 
Loop time of 2.75161 on 48 procs for 10000 steps with 4000 atoms

Performance: 627995.384 tau/day, 3634.233 timesteps/s
99.6% CPU use with 48 MPI tasks x no OpenMP threads

MPI task timing breakdown:
Section |  min time  |  avg time  |  max time  |%varavg| %total
---------------------------------------------------------------
Pair    | 1.2009     | 1.2851     | 1.3458     |   2.3 | 46.70
Neigh   | 0.22123    | 0.2274     | 0.23663    |   0.7 |  8.26
Comm    | 0.84988    | 0.92431    | 1.0169     |   3.6 | 33.59
Output  | 0.00025849 | 0.00026508 | 0.00044958 |   0.0 |  0.01
Modify  | 0.2761     | 0.29873    | 0.32757    |   2.5 | 10.86
Other   |            | 0.01582    |            |       |  0.57

Nlocal:        83.3333 ave          97 max          75 min
Histogram: 3 4 7 13 10 8 0 1 1 1
Nghost:        1743.90 ave        1772 max        1725 min
Histogram: 3 6 8 5 14 6 3 2 0 1
Neighs:        10505.4 ave       12785 max        9203 min
Histogram: 3 7 6 15 7 6 1 2 0 1

Total # of neighbors = 504258
Ave neighs/atom = 126.06450
Neighbor list builds = 908
Dangerous builds = 228

# Equilibrate just above the melting temperature to avoid step fn in T

fix 1 all npt temp 1.25 1.25 0.1 iso 5.68 5.68 0.5 mtk yes tchain 5 pchain 5
run 2000
Per MPI rank memory allocation (min/avg/max) = 3.644 | 3.646 | 3.650 Mbytes
Step Temp E_pair E_mol TotEng Press Volume 
   10000    2.3249256   -4.5113343            0   -1.0248177    5.4472258    3636.0325 
   11000    1.2625643   -6.6164859            0   -4.7231129    5.5005301    2779.6372 
   12000     1.250399   -6.6509625            0   -4.7758329    5.4701518     2767.648 
Loop time of 0.666764 on 48 procs for 2000 steps with 4000 atoms

Performance: 518324.409 tau/day, 2999.563 timesteps/s
99.6% CPU use with 48 MPI tasks x no OpenMP threads

MPI task timing breakdown:
Section |  min time  |  avg time  |  max time  |%varavg| %total
---------------------------------------------------------------
Pair    | 0.30036    | 0.32954    | 0.35588    |   2.4 | 49.42
Neigh   | 0.042137   | 0.044569   | 0.046696   |   0.5 |  6.68
Comm    | 0.21333    | 0.2422     | 0.27713    |   3.1 | 36.32
Output  | 5.3388e-05 | 5.4994e-05 | 7.016e-05  |   0.0 |  0.01
Modify  | 0.040539   | 0.045368   | 0.050024   |   1.4 |  6.80
Other   |            | 0.005037   |            |       |  0.76

Nlocal:        83.3333 ave          90 max          76 min
Histogram: 2 3 6 6 2 12 0 12 3 2
Nghost:        2108.21 ave        2123 max        2086 min
Histogram: 3 2 2 5 3 8 8 2 8 7
Neighs:        13781.5 ave       15447 max       12215 min
Histogram: 4 1 6 4 10 8 7 3 4 1

Total # of neighbors = 661512
Ave neighs/atom = 165.37800
Neighbor list builds = 143
Dangerous builds = 14

#############################
# L I N E A R  Q U E N C H  #
#############################

# Define solid atoms. This closely follows ten Wolde  Ruiz-Montero and Frenkel  Faraday Discuss  1996  104  93-110
# Compute components of the per-atom q6 vector
compute q6 all orientorder/atom degrees 1 6 components 6 nnn NULL cutoff 1.3 # compute the Q6 parameter.
                                                                             # Use all neighbours within 1.3 unit cell.

# get number of connections
compute coord_number all coord/atom orientorder q6 0.5

# An atom is solid if it has 8 or more connections (of a possible 14)
variable is_solid atom c_coord_number>=8
group solid dynamic all var is_solid    # Must be dynamic to update
dynamic group solid defined

# do clustering
compute cluster solid cluster/atom 1.3 # Create a cluster where all atoms within are solid and max 1.3 units from another member

# define chunks one chunk per cluster
compute clus_chunks solid chunk/atom c_cluster nchunk every compress yes  # Says which atoms are in which chunk

# count the size of each chunk
compute size_chunks solid property/chunk clus_chunks count


# Find the maximum entry in the vector of chunk sizes
variable max_n equal max(c_size_chunks)


# Thermo style which includes this variable
# thermo_style custom step temp pe vol v_max_n

thermo ${N}  # Print the thermo information every 100 steps
thermo 1000  

# Reset the npt fix at a lower temperature (below freezing)
fix 1  all npt temp  ${temp} ${temp}  0.1  iso  5.68  5.68  0.5  mtk yes tchain  5  pchain  5
fix 1  all npt temp  0.45 ${temp}  0.1  iso  5.68  5.68  0.5  mtk yes tchain  5  pchain  5
fix 1  all npt temp  0.45 0.45  0.1  iso  5.68  5.68  0.5  mtk yes tchain  5  pchain  5

dump dmp2 all dcd ${N} traj.dcd
dump dmp2 all dcd 1000 traj.dcd


compute msd all msd com yes
variable twopoint equal c_msd[4]/6/(step*dt+1.0e-6)
fix 9 all vector 10 c_msd[4]
variable fit equal slope(f_9)/6/(10*dt)
thermo_style custom step temp pe c_msd[4] v_twopoint v_fit v_max_n

fix 1 all npt temp 1.25 ${temp} 0.1 iso 5.68 5.68 0.5 mtk yes tchain 5 pchain 5
fix 1 all npt temp 1.25 0.45 0.1 iso 5.68 5.68 0.5 mtk yes tchain 5 pchain 5
run 500000 # 5000000  # Run for this many steps
Neighbor list info ...
  update every 1 steps, delay 10 steps, check yes
  max neighbors/atom: 2000, page size: 100000
  master list distance cutoff = 3.8
  ghost atom cutoff = 3.8
  binsize = 1.9, bins = 8 8 8
  4 neighbor lists, perpetual/occasional/extra = 1 3 0
  (1) pair lj/cut, perpetual
      attributes: half, newton on
      pair build: half/bin/atomonly/newton
      stencil: half/bin/3d
      bin: standard
  (2) compute orientorder/atom, occasional
      attributes: full, newton on
      pair build: full/bin/atomonly
      stencil: full/bin/3d
      bin: standard
  (3) compute coord/atom, occasional
      attributes: full, newton on
      pair build: full/bin/atomonly
      stencil: full/bin/3d
      bin: standard
  (4) compute cluster/atom, occasional
      attributes: full, newton on
      pair build: full/bin/atomonly
      stencil: full/bin/3d
      bin: standard
Per MPI rank memory allocation (min/avg/max) = 9.845 | 9.851 | 9.855 Mbytes
Step Temp PotEng c_msd[4] v_twopoint v_fit v_max_n 
   12000     1.250399   -6.6509625 5.9164568e-34 4.1086504e-36 8.3333333e+20            1 
   13000    1.2404879    -6.700404   0.49082413 0.0031463084  0.040802257            1 
   14000    1.2596976   -6.7074218   0.95525425  0.005686037  0.038510583            3 
   15000    1.2221642   -6.7235112    1.3880978 0.0077116543  0.038400603            2 
   16000    1.2500657   -6.7491209    1.7829116 0.0092859979  0.037205223            3 
   17000    1.2305035   -6.7222726    2.2178473    0.0108718  0.036423649            2 
   18000    1.2283439   -6.7510409    2.5991015  0.012032877   0.03585752            3 
   19000    1.2823384   -6.6717115    3.0661546  0.013448046  0.035589976            4 
   20000    1.2395882   -6.7467943    3.4554789  0.014397828  0.035591608            2 
   21000    1.2523253   -6.7368486    3.8510193  0.015281822  0.035297682            2 
   22000    1.2407931   -6.7143631     4.312069  0.016333594  0.035208566            3 
   23000     1.240297   -6.7334948    4.7749007  0.017300364  0.035224128            5 
   24000     1.200232   -6.7240181    5.1533138   0.01789345  0.035269248            4 
   25000    1.2198397   -6.8026763    5.5342469  0.018447489  0.035168011            2 
   26000    1.2313825   -6.7555126    5.9084908   0.01893747  0.035066035            2 
   27000    1.2221332   -6.8079059    6.3531186   0.01960839   0.03494832            3 
   28000    1.2547325   -6.7543431    6.7465903  0.020079137  0.034900603            3 
   29000    1.1910776   -6.7577485    7.0848263  0.020358696  0.034770932            6 
   30000    1.2486855   -6.8207769    7.4853225  0.020792562  0.034593463            2 
   31000    1.2048442   -6.7814857     7.885965   0.02119883  0.034431741            2 
   32000    1.2127585   -6.7933383    8.2771167  0.021554991  0.034285817            3 
   33000    1.2277607   -6.7884398    8.6307757  0.021794888  0.034143765            3 
   34000    1.1939749   -6.7802852    9.0086068  0.022079918  0.034004955            2 
   35000    1.2050932   -6.8365219    9.3766225  0.022325291  0.033862796            3 
   36000    1.2224098   -6.8178812    9.9056732  0.022929799  0.033776441            2 
   37000    1.1899312    -6.803416    10.377934  0.023373724  0.033765579            4 
   38000    1.2386319   -6.8024042    10.814239  0.023715436  0.033818318            2 
   39000    1.1890792   -6.8352568    11.252721  0.024044276  0.033854783            1 
   40000    1.2405133   -6.7995357    11.583051  0.024131357  0.033902789            1 
   41000    1.2319575     -6.80347    11.883434   0.02415332   0.03387714            2 
   42000    1.1675583   -6.8402873    12.240343  0.024286395  0.033824652            4 
   43000    1.2051895   -6.8725349    12.718921  0.024649071  0.033786415            1 
   44000    1.2057118   -6.8152844    13.192479  0.024985755  0.033783662            1 
   45000    1.2080525   -6.8460784    13.644021  0.025266706  0.033799752            4 
   46000    1.2280562   -6.8196003    14.124497  0.025587856  0.033836674            2 
   47000    1.2149234   -6.7967602    14.580136  0.025851304  0.033896959            3 
   48000    1.1584466    -6.843798    14.926242  0.025913613     0.033948            3 
   49000    1.1827412   -6.8496595    15.395893  0.026183492  0.033981846            5 
   50000    1.1977747   -6.8680298    15.858644  0.026431073  0.034036164            2 
   51000    1.1523854    -6.901858    16.288004  0.026614385  0.034100687            2 
   52000    1.1985284   -6.7920128    16.662025  0.026701963  0.034144079            2 
   53000    1.1868888   -6.8797203    16.795892  0.026408634  0.034127964            4 
   54000    1.1673368   -6.8496699    17.316845  0.026723526  0.034096439            1 
   55000    1.1742531   -6.8802318    17.471963  0.026472671  0.034062232            3 
   56000    1.1744222   -6.8759085    17.865379  0.026585385  0.033991783            4 
   57000    1.1837665   -6.8677094    18.143749  0.026525949  0.033910983            2 
   58000     1.206549   -6.8751682    18.459674   0.02652252  0.033820559            6 
   59000    1.1933939   -6.8901176    18.931723  0.026739722  0.033734568            4 
   60000    1.1757411   -6.8736778    19.223715  0.026699604  0.033649189            3 
   61000    1.2010047   -6.8236741    19.543089  0.026698209  0.033555906            6 
   62000    1.1795809   -6.9158771    19.850285   0.02668049  0.033458796            3 
   63000     1.169194   -6.9481306    20.125884  0.026621539  0.033354266            2 
   64000    1.1650542   -6.9015479    20.606306  0.026831127   0.03326825            3 
   65000    1.1732299   -6.9021427    20.959363  0.026870978  0.033174733            1 
   66000    1.1869081   -6.9132032    21.280856  0.026869768  0.033103371            2 
   67000    1.1427654   -6.9560644    21.698113  0.026987702  0.033030323            2 
   68000    1.1709433   -6.9015761    22.070482  0.027047159  0.032954264            2 
   69000    1.1845791   -6.9614548    22.349591  0.026992259  0.032872977            3 
   70000    1.1534122   -6.9514771    22.545048  0.026839343  0.032776267            2 
   71000    1.1335365   -6.9717417    22.805704  0.026767258  0.032675134            2 
   72000    1.1614474   -6.9752437    23.062898  0.026693169  0.032563091            3 
   73000    1.1677674   -6.9780527    23.276884  0.026571785  0.032435002            8 
   74000    1.1632752    -6.967117    23.602242  0.026579101  0.032305029            1 
   75000    1.1511136   -6.9845612    23.771519  0.026412799   0.03216445            6 
   76000    1.1220714   -6.9595581    24.085243  0.026409258  0.032030173            7 
   77000    1.1540403   -6.9915952    24.400602  0.026407578  0.031890199            2 
   78000    1.1427148   -7.0043553    24.506139  0.026181773  0.031751292            3 
   79000    1.1370617   -6.9828027    24.711897  0.026067402  0.031591003            1 
   80000    1.1411394   -6.9831666    25.127326  0.026174298  0.031439255            3 
   81000    1.1683977   -6.9935775    25.381405  0.026112556  0.031299274            5 
   82000     1.138604   -6.9535353    25.727784  0.026146122  0.031164753            2 
   83000    1.1175382   -6.9916799    25.939609  0.026043784  0.031028554            3 
   84000     1.112037   -6.9961964    26.136297  0.025928866  0.030887191            4 
   85000     1.136937   -7.0021914    26.292591   0.02577705  0.030737806            4 
   86000    1.1270681   -6.9840459      26.4251  0.025605717   0.03058157            3 
   87000    1.1395603   -6.9936036    26.786936  0.025657985   0.03043196            5 
   88000    1.1311281   -7.0118912    27.144156  0.025704693  0.030293498            6 
   89000    1.1149564   -6.9544014    27.585083  0.025828729  0.030162906            2 
   90000    1.1085247   -7.0424414    27.804582  0.025744983  0.030044897            4 
   91000    1.1203956   -7.0700262    27.930421  0.025577308  0.029919714            3 
   92000    1.1364803   -7.0332393    28.287934  0.025623128  0.029800293            2 
   93000    1.1023349   -7.0069848    28.766672  0.025776587  0.029687219            1 
   94000    1.1441729   -7.0324216    28.886186  0.025608321  0.029574591            8 
   95000    1.1391653   -7.0370751    29.253891  0.025661308  0.029468436            2 
   96000    1.0987315    -7.066191    29.420771  0.025538864  0.029359954            2 
   97000    1.1074066   -7.0663416    29.597881  0.025427733  0.029245939            4 
   98000    1.1186676   -7.0769741    29.854987  0.025386894   0.02913469            6 
   99000    1.0912065   -7.0287984     30.30135  0.025506187  0.029027596            6 
  100000    1.1091562   -7.0677516    30.537636   0.02544803  0.028926093            1 
  101000     1.113942   -7.0822492    30.749851  0.025371164  0.028829459            3 
  102000     1.122775   -7.0473012    31.006337  0.025331974   0.02873021            2 
  103000    1.0843137   -7.0957461    31.084997  0.025149674  0.028623337            5 
  104000    1.0976789   -7.0774788    31.311128  0.025089045  0.028515465            2 
  105000    1.0682224    -7.093244    31.717066  0.025172274  0.028411024            2 
  106000    1.1070061   -7.1033331     31.92748   0.02510022  0.028308507            3 
  107000    1.0984448   -7.0872502    32.247407  0.025114803  0.028208028            4 
  108000    1.0852149    -7.103022    32.382384  0.024986407  0.028107496            3 
  109000    1.0939353   -7.0821576     32.69468  0.024995933  0.028009395            4 
  110000    1.0793077   -7.1321004    32.929667  0.024946718  0.027909689            2 
  111000    1.0893689   -7.1067775    33.228711   0.02494648  0.027813692            1 
  112000    1.0968825   -7.1699411    33.188648  0.024693934  0.027716787            3 
  113000      1.10198   -7.1506435    33.466102  0.024680016  0.027621366            2 
  114000    1.0810233   -7.1004316    33.863016  0.024753666  0.027526207            5 
  115000    1.0666752   -7.1207771    34.017191  0.024650138  0.027428799            5 
  116000    1.0801464   -7.1134209    34.254328  0.024607994  0.027335989            6 
  117000      1.08227    -7.151902    34.486302  0.024562893  0.027244164            3 
  118000    1.0920248   -7.1671009     34.57508  0.024417429  0.027147389            5 
  119000    1.0641222   -7.1475158    34.684299  0.024288725  0.027045399           10 
  120000    1.0894403   -7.1572696    34.855953  0.024205523   0.02694667            3 
  121000    1.0753572   -7.1185045    35.428266  0.024399632  0.026852332            3 
  122000    1.0774066   -7.1742833     35.47021  0.024228285  0.026761866            2 
  123000     1.054591   -7.1758803     35.58591  0.024109695  0.026669074            5 
  124000     1.061142   -7.1362052    35.868952  0.024105478  0.026573403            4 
  125000    1.0530068   -7.1601028    36.179333  0.024119555  0.026483673            2 
  126000    1.0708006   -7.1715049    36.257139  0.023979589  0.026394044            5 
  127000    1.0571035   -7.2089119    36.586293  0.024006754  0.026303343            6 
  128000    1.0600537   -7.1930119      36.9151  0.024033268  0.026218416            2 
  129000    1.0770964   -7.2073888     37.12429  0.023982099  0.026135435            4 
  130000    1.0345702   -7.2500525    37.140429  0.023807967  0.026048943            7 
  131000    1.0685482   -7.2021441      37.2148  0.023673537  0.025962356            3 
  132000     1.085828   -7.2403559     37.49042  0.023668194  0.025876887            3 
  133000    1.0307675   -7.1654503    37.925446  0.023762811    0.0257942            3 
  134000    1.0182327   -7.2008925    38.237413  0.023779485   0.02571596            5 
  135000    1.0656124   -7.1990828    38.484625  0.023755941  0.025639612            5 
  136000    1.0677905   -7.2460783    38.638338  0.023675452  0.025562443            2 
  137000     1.022864   -7.1971871    38.889613  0.023655482  0.025484886            5 
  138000    1.0546704   -7.2002208    38.943971  0.023516891  0.025407089            7 
  139000    1.0482393   -7.2419428    39.211264  0.023507952   0.02532852            2 
  140000    1.0373089   -7.2118624    39.441665  0.023477181  0.025250057            5 
  141000    1.0343101   -7.3070857    39.414983  0.023294907  0.025172309            4 
  142000    1.0341873   -7.2681849      39.7444  0.023324178  0.025093208            3 
  143000    1.0538007   -7.2667566    39.764987   0.02317307  0.025015232            6 
  144000    1.0442618   -7.2585236    39.970467  0.023131057  0.024933815           10 
  145000    1.0256991    -7.242808    40.170535  0.023086515  0.024851727            3 
  146000    1.0360916   -7.2683549    40.319032  0.023013146  0.024771533            2 
  147000    1.0429945    -7.284212    40.418402  0.022912926  0.024691023            4 
  148000    1.0137779   -7.2893031    40.619782  0.022871499  0.024609825            3 
  149000    1.0111206   -7.2866941    40.856423  0.022850348  0.024529241           11 
  150000    1.0244373   -7.2913659    41.019495  0.022788608  0.024449383            9 
  151000     1.042499   -7.3282688    41.043216  0.022650781  0.024367228            4 
  152000    1.0292277   -7.2939414    41.308136  0.022647004  0.024286407            4 
  153000     1.020374   -7.3539476    41.229723  0.022456276   0.02420484            5 
  154000    1.0185348   -7.3197476    41.552109  0.022484907  0.024123202            4 
  155000     1.015974   -7.3081856    41.780303  0.022462528  0.024042661            3 
  156000     1.005379   -7.3202544    41.896473  0.022380594  0.023962504            3 
  157000    1.0347593   -7.3097118    42.074346  0.022332455  0.023881771            6 
  158000    1.0216854   -7.3134317    42.192867  0.022253622  0.023800309            3 
  159000    1.0029861   -7.3272091    42.172576  0.022103027  0.023717777            6 
  160000    1.0301837   -7.3267196    42.669389   0.02222364  0.023638048            5 
  161000    1.0201834    -7.343701    42.616978  0.022058477  0.023560929            4 
  162000    1.0066889    -7.329249    42.752864  0.021992214  0.023481502            3 
  163000    1.0046691   -7.3280105    43.039795  0.022003985   0.02340282            6 
  164000    1.0082796   -7.3619758    43.460654  0.022083666  0.023328837            6 
  165000    1.0123633   -7.3489967    43.536672  0.021988218  0.023255257            5 
  166000    1.0317215   -7.3354689    43.658542  0.021916939  0.023182259            4 
  167000    1.0113221   -7.3495138    43.915777   0.02191406  0.023112025            5 
  168000    1.0014188   -7.3810987    43.881748   0.02176674  0.023039306            3 
  169000   0.99276145   -7.3923183    44.086655  0.021738982  0.022967316            3 
  170000   0.99687944   -7.3971649    44.206153  0.021669683   0.02289634            7 
  171000   0.98926615   -7.3784441    44.257819  0.021568138  0.022822609            7 
  172000   0.97687601   -7.3993192    44.304867  0.021465536  0.022746744            2 
  173000     1.015527   -7.4378519    44.477888  0.021424801   0.02267131            3 
  174000   0.98692446   -7.4597455     44.63959  0.021379114  0.022596216            7 
  175000   0.99131003   -7.4627707    44.754305  0.021311574  0.022521265            2 
  176000    1.0095052   -7.4438118    45.038817  0.021325197  0.022447409           11 
  177000    1.0000949   -7.3763644    45.090595  0.021229093   0.02237397            5 
  178000   0.98563794   -7.4640875    45.084319  0.021106891  0.022301683            3 
  179000   0.97928576   -7.4059361    45.460305  0.021164015  0.022229264            6 
  180000   0.97081937   -7.3950208    45.442934  0.021038395  0.022156744            3 
  181000   0.97464867   -7.4680491    45.667297  0.021025459   0.02208444            9 
  182000   0.98117624   -7.4348052    45.707192  0.020928201   0.02201108            8 
  183000   0.98142123   -7.4653896    45.864089  0.020885287  0.021939271            4 
  184000   0.96924109   -7.4516594    45.986547   0.02082724  0.021868022            4 
  185000   0.97626677   -7.4789469    46.011552  0.020725924  0.021795645            5 
  186000   0.98586302    -7.469957    46.193895  0.020696189  0.021722151            5 
  187000   0.97519535   -7.4834784    46.377242   0.02066722  0.021649463            4 
  188000   0.97323825   -7.4882549    46.657046  0.020681315   0.02157901           14 
  189000   0.98291987   -7.5017165    46.822717  0.020644937   0.02150942            4 
  190000    0.9657121   -7.5061022    46.823656  0.020536691  0.021439731            9 
  191000   0.98079713   -7.4564182    46.961433  0.020489281  0.021370842            5 
  192000   0.95655986   -7.4570599    47.256539  0.020510651  0.021301812            9 
  193000   0.96211734   -7.4738543    47.309484  0.020427238  0.021233507           10 
  194000   0.94546973   -7.4743313    47.554901  0.020427363  0.021166918            3 
  195000   0.95575451   -7.5062596    47.433326  0.020270652  0.021098434            8 
  196000   0.95539341   -7.5008154    47.660537  0.020263834  0.021031611            4 
  197000   0.94479197   -7.4933401    47.770456  0.020207468   0.02096418            6 
  198000   0.96958296   -7.5063505    47.784293  0.020111234  0.020895755           12 
  199000    0.9439207   -7.5114993    47.805983  0.020019256  0.020827477            3 
  200000   0.92910263    -7.530532    48.003622  0.020001509   0.02075826            7 
  201000   0.95413398   -7.5444662    48.277213  0.020015428  0.020691225            7 
  202000    0.9689422   -7.5591767    48.118531  0.019850879  0.020624308            5 
  203000   0.98668606   -7.5560752    48.207582  0.019789648  0.020556907            9 
  204000   0.93827288   -7.5552672    48.683866    0.0198872  0.020491245            5 
  205000   0.95317639   -7.5892238    48.501791  0.019716175  0.020425377            4 
  206000   0.94539245   -7.5910701    48.588036  0.019655354  0.020358341            6 
  207000   0.94400598    -7.570498    48.619644  0.019573125    0.0202923            8 
  208000   0.93774851    -7.558941    48.958757  0.019614887  0.020225979            5 
  209000   0.93603669   -7.5938098    49.009589  0.019541303  0.020160946           19 
  210000    0.9256139   -7.5981235    49.178686  0.019515352  0.020095361            6 
  211000   0.93977672   -7.5697137    49.079349  0.019383629  0.020031311           10 
  212000   0.93308878   -7.5712944    49.222241  0.019348365  0.019966165            7 
  213000   0.92882668   -7.6009884    49.387573  0.019322212   0.01990122            7 
  214000   0.93510342   -7.6104779    49.417981  0.019243762  0.019836555            9 
  215000   0.92935637   -7.5781436    49.503891  0.019187554  0.019772562           12 
  216000   0.91809599   -7.5784131    49.883281  0.019245093  0.019709074            2 
  217000   0.91448045    -7.595578    49.863974  0.019148992  0.019646856            8 
  218000   0.93036479   -7.6080709    49.975154  0.019103652  0.019584591            4 
  219000   0.92426745   -7.6147333    49.906238  0.018990197  0.019521384           16 
  220000   0.89747266    -7.619178    50.189239  0.019011075  0.019458991           10 
  221000   0.91626252   -7.5944799    50.345548  0.018983993  0.019396836            6 
  222000   0.93260413   -7.5945065    50.583241  0.018987703  0.019336807           11 
  223000    0.9092137   -7.6033306    50.904407  0.019022574   0.01927876            6 
  224000   0.91837875   -7.6096329    50.892837  0.018933347  0.019221476            3 
  225000   0.90803935   -7.6089712    51.084291  0.018920108  0.019164155            8 
  226000   0.90596095   -7.7019638    50.887464  0.018763814  0.019105977            5 
  227000   0.91416222   -7.6321885    51.136622  0.018772622  0.019047813            4 
  228000   0.89985289   -7.6762214    51.461751   0.01880912  0.018991134           21 
  229000     0.905241   -7.6741281    51.496329  0.018739567  0.018936567            3 
  230000   0.91673814   -7.6661886    51.555853  0.018679657  0.018881535            4 
  231000   0.87686548   -7.6632214    51.542088  0.018593827  0.018826537            8 
  232000   0.88251628    -7.674342     51.62941  0.018545047  0.018770404            5 
  233000   0.88088773   -7.6991464    51.543642  0.018434779  0.018713647           19 
  234000   0.88954009   -7.6966038     51.78483  0.018441891  0.018656985            5 
  235000   0.90046472   -7.7081682    51.866522  0.018392384  0.018600167           21 
  236000   0.90951278   -7.7443551    51.982229  0.018355307   0.01854432            6 
  237000   0.89699155   -7.7439892    52.063851  0.018306558  0.018489122            8 
  238000   0.87475487   -7.7328743    52.056093  0.018226923  0.018433637            6 
  239000    0.8924877   -7.7310755    52.273894  0.018226602  0.018378446            6 
  240000   0.88539952   -7.7531722     52.30058  0.018159923  0.018322922           44 
  241000   0.89980203   -7.7066312    52.491673  0.018150648  0.018267401            7 
  242000   0.89040229   -7.7194339    52.435961   0.01805646  0.018212332            6 
  243000   0.87988282   -7.7204939    52.670736  0.018062667  0.018156936            4 
  244000    0.8771976   -7.7442668    52.462906  0.017917659   0.01810192           14 
  245000   0.86832717   -7.7066413    52.646496  0.017906971  0.018046228           15 
  246000   0.86104332   -7.7739497    52.610296  0.017821916  0.017990437           10 
  247000   0.87326671   -7.7850501    52.723837  0.017788069  0.017934379            6 
  248000   0.85881238   -7.7944859    52.805477  0.017743776  0.017878706           13 
  249000   0.85489092    -7.753885    52.854199  0.017688822  0.017822829           11 
  250000   0.85006015   -7.7694695    52.930614  0.017643538  0.017767385            6 
  251000   0.87679257   -7.7806751    52.948143  0.017579065  0.017711691            5 
  252000   0.86969331   -7.8099322    52.936562  0.017505477  0.017656054           20 
  253000   0.85206258    -7.838586    52.976937  0.017449584  0.017600477           13 
  254000    0.8631736    -7.777004    53.149871  0.017437622  0.017545104           11 
  255000   0.86950598   -7.8219442    53.252455  0.017402763  0.017490039           20 
  256000   0.85869702   -7.7723012    53.335756    0.0173619  0.017434871            3 
  257000   0.86518493   -7.8214794    53.408873  0.017318052  0.017380381            8 
  258000   0.86086543   -7.8393151    53.245448  0.017198142  0.017325914           15 
  259000   0.86701389   -7.8084399    53.625647  0.017254069   0.01727167            6 
  260000   0.84050857    -7.830279    53.540587  0.017160445  0.017217611            9 
  261000   0.83115079    -7.845138    53.662188  0.017133521  0.017163678            9 
  262000   0.84060699   -7.8018168    53.689938  0.017076952  0.017109419           10 
  263000   0.83303093   -7.8461556    53.786319   0.01704256  0.017056062           11 
  264000    0.8702504    -7.875364    53.645228  0.016933468  0.017002109           18 
  265000   0.84953977    -7.852813    53.902976  0.016950621  0.016948793           11 
  266000   0.84276007   -7.8696934    53.986841  0.016913171   0.01689574           16 
  267000   0.84996303   -7.8681723    54.044473  0.016867813  0.016843066           14 
  268000   0.85539004   -7.8737452    54.009393  0.016793966  0.016789867           20 
  269000   0.83986623   -7.8652479    54.101586  0.016760095  0.016736382           12 
  270000   0.84108873   -7.9282484     53.95413  0.016652509  0.016682486           11 
  271000   0.83536505   -7.9016115    53.942262  0.016587411  0.016628112            7 
  272000   0.83161578   -7.8752102    54.089074  0.016571407   0.01657426            6 
  273000   0.82806737   -7.8967231    53.974711  0.016475797  0.016519907            5 
  274000   0.83154798   -7.8700226    53.944727  0.016406547  0.016465603           18 
  275000   0.83087602   -7.8767795     54.26391  0.016443609  0.016411512           34 
  276000    0.8289842   -7.9147619    54.261415  0.016383277  0.016357804           28 
  277000   0.82484185   -7.8902351    54.275151  0.016328264  0.016304025           15 
  278000    0.8093168   -7.9352396    54.341363  0.016289377  0.016250392           27 
  279000   0.82809012    -7.893201     54.29057  0.016215821  0.016196433           15 
  280000   0.84265804   -7.9007377    54.267199  0.016150952  0.016142765           16 
  281000   0.81190316   -7.8990081    54.284511  0.016098609   0.01608935           13 
  282000   0.82234379   -7.9437993    54.433507  0.016085552  0.016035686           38 
  283000   0.81711981   -7.9157491     54.49954  0.016048157  0.015981913            6 
  284000   0.81575105    -7.950661    54.400732  0.015962656  0.015928204           34 
  285000   0.81532539   -7.9359534    54.423323  0.015913252    0.0158747           37 
  286000   0.81867211   -7.9711685    54.364228  0.015840393  0.015821357           21 
  287000   0.80844847   -7.9895329    54.561042  0.015842347  0.015768026           47 
  288000   0.81497152   -7.9772232    54.628338  0.015806811  0.015715302           28 
  289000   0.81202801   -7.9645256    54.631618  0.015753062  0.015662557           11 
  290000   0.81240704   -7.9632152    54.501281  0.015661288   0.01560994           30 
  291000   0.81771092   -7.9404062    54.771759  0.015684925  0.015557587           29 
  292000   0.81178987   -7.9793877    54.608382  0.015584584  0.015505284           11 
  293000   0.79333999   -7.9829857    54.618279  0.015534209  0.015452723           15 
  294000   0.80841165   -8.0057046    54.554973  0.015463428  0.015399819            8 
  295000   0.79871922   -8.0218572    54.614444  0.015427809  0.015346588            9 
  296000   0.81163884   -8.0081156    54.596433  0.015370617  0.015293181            5 
  297000   0.79280833   -8.0032958    54.729071  0.015356081  0.015240087            7 
  298000   0.79600772   -8.0093457    54.648053  0.015281894  0.015187464           11 
  299000   0.79974553   -8.0109408    54.924723  0.015307894   0.01513538            8 
  300000   0.79141473   -7.9771106    54.767062  0.015213073  0.015083601           10 
  301000   0.78539914   -8.0033627    54.776787  0.015165223  0.015031839           12 
  302000   0.77701075   -7.9868112     54.99682  0.015175723  0.014980853           13 
  303000   0.80587702   -8.0367133    54.917183  0.015103736   0.01492937            8 
  304000   0.76506233    -8.029834    54.906441  0.015051108  0.014878167           14 
  305000   0.80028359   -8.0082314    55.038763  0.015037913  0.014827029            6 
  306000   0.75279081   -8.0445024    54.865043  0.014941461  0.014775885           18 
  307000   0.77501985   -8.0358718    54.931834  0.014910921  0.014724765            9 
  308000   0.76682252   -8.0802831    54.868349  0.014845333   0.01467358           16 
  309000   0.77118782   -8.0653316    55.033293  0.014841773  0.014622344           11 
  310000   0.77892293   -8.0893858    54.810722  0.014734065  0.014570958            8 
  311000   0.77862893   -8.0871411    54.933305  0.014719535  0.014519533           13 
  312000   0.75969879   -8.0834619    54.773372   0.01462964  0.014467977           11 
  313000   0.77744358   -8.0928525    54.748372  0.014576244  0.014416353           15 
  314000   0.78040705   -8.0811954    54.834147  0.014552587  0.014364455           27 
  315000   0.77923937    -8.046014    54.894883  0.014522456  0.014312975           15 
  316000   0.75488016   -8.1304774    54.680152  0.014419871  0.014261773           11 
  317000   0.77895194    -8.085185    54.742147   0.01439068  0.014210676           13 
  318000   0.74005958   -8.1221652    54.893802  0.014385168  0.014159549            5 
  319000   0.76751731   -8.1373879    54.785717  0.014311838  0.014108684            5 
  320000   0.77216875   -8.1358818    54.980297  0.014317786  0.014057771           34 
  321000    0.7585455   -8.1200132    54.937235  0.014262003  0.014007612            9 
  322000   0.75677186   -8.1347616    54.980173  0.014228823  0.013957863           16 
  323000   0.73969929   -8.1729609    54.909362  0.014166502  0.013907854            9 
  324000   0.76439596   -8.1462872    54.910447  0.014123057  0.013858249           10 
  325000   0.74478973   -8.1566441     54.92449  0.014083202   0.01380831            8 
  326000    0.7299967   -8.1261952    54.865359  0.014024887   0.01375824            6 
  327000   0.73538427   -8.1747779      54.8068  0.013967074  0.013708627           17 
  328000   0.75106462   -8.1451224    54.951819  0.013961336  0.013659284           15 
  329000   0.75264298   -8.1592535    54.991923  0.013929058  0.013610381           23 
  330000   0.74326167   -8.1383896    54.999599  0.013888788  0.013561467           15 
  331000   0.74803087   -8.1828185    54.986992  0.013843653  0.013512369           11 
  332000    0.7323899    -8.182619    54.992293  0.013803286   0.01346351            7 
  333000   0.73750889   -8.1863933    54.862712  0.013729408    0.0134144           22 
  334000   0.73153821    -8.182955    54.890834  0.013695318  0.013365687           11 
  335000   0.74845348   -8.1855141     54.89371  0.013655152   0.01331678           13 
  336000     0.737719   -8.1877893      54.8857  0.013612525  0.013268032           19 
  337000   0.72001434   -8.2132111     54.95673  0.013589696  0.013219628           15 
  338000    0.7248208   -8.2063106     54.88283   0.01353127  0.013171404           25 
  339000   0.73216264   -8.2085661    54.866375  0.013487309  0.013123136           49 
  340000   0.71210072   -8.2366318    54.873891  0.013449483  0.013074885           41 
  341000   0.71266165   -8.2249608     54.86192  0.013407116  0.013026885           39 
  342000   0.72490144   -8.2513351    54.811906  0.013355727  0.012978819           23 
  343000   0.71745267   -8.2215142    54.973649  0.013356086  0.012930844           29 
  344000   0.70392667   -8.2139145    54.832026  0.013282952  0.012883108           36 
  345000   0.72737418   -8.2253175    54.793979  0.013235261  0.012835402           44 
  346000   0.73225947   -8.2259657    54.768805  0.013190945  0.012787762           53 
  347000   0.70555323   -8.2349738    54.844999  0.013171229  0.012740481           65 
  348000   0.69106652   -8.2491813    54.766912  0.013114682  0.012692959           60 
  349000   0.69586238   -8.2376954     54.75918  0.013075258  0.012645809           47 
  350000   0.68828581    -8.240556     54.70167  0.013024207  0.012598821           27 
  351000   0.71188843   -8.2620531    54.806627   0.01301202  0.012552149           56 
  352000   0.68957496   -8.2775952    54.732897  0.012957599  0.012505522           39 
  353000   0.72222218   -8.2966998    54.638339  0.012898569  0.012458957           45 
  354000   0.70467355   -8.2878577    54.785007  0.012896659  0.012412547           52 
  355000   0.70287874   -8.2843982    54.584424  0.012813245  0.012366344           63 
  356000   0.70250939   -8.2803983    54.764761  0.012819466  0.012320322           60 
  357000   0.69905478   -8.2705915    54.764083  0.012783399  0.012274457           48 
  358000   0.70027575   -8.3102924     54.64582  0.012720163  0.012228491           43 
  359000   0.69774511   -8.3029611    54.619603  0.012678645  0.012182569           54 
  360000   0.68610354   -8.3031651    54.686662  0.012658949  0.012136866           36 
  361000   0.69196354     -8.32818    54.660265   0.01261779  0.012091352           43 
  362000   0.69732408   -8.3146541    54.785146  0.012611682  0.012045902           29 
  363000   0.67366532   -8.3267337    54.655454  0.012547166  0.012000547           49 
  364000   0.68520061   -8.3310946    54.691134  0.012520864  0.011955348           37 
  365000   0.66808623   -8.3239336    54.501415  0.012443245  0.011910557           46 
  366000   0.68930915   -8.3603621    54.409877  0.012388406  0.011865516           41 
  367000   0.68155161   -8.3640044    54.548895  0.012386216  0.011820678           31 
  368000   0.67913898   -8.3443285    54.555161  0.012353977  0.011776119           36 
  369000   0.67252261   -8.3491165    54.632922  0.012338058  0.011731768           84 
  370000   0.68308356   -8.3522462    54.516311  0.012278448  0.011687556           73 
  371000   0.66640085   -8.3508384    54.583115  0.012260358  0.011643408           54 
  372000   0.67897883   -8.3608341    54.543053  0.012218426  0.011599501           59 
  373000   0.67168029   -8.3437565    54.512798  0.012178909  0.011555806           52 
  374000   0.66605289   -8.3647293    54.531004  0.012150402  0.011512484           95 
  375000   0.69372474   -8.3684201    54.542659  0.012120591  0.011469223           69 
  376000   0.67491285   -8.3688172    54.470631  0.012072392  0.011426045           78 
  377000   0.68263696   -8.3875511    54.482447  0.012042981  0.011383049           53 
  378000   0.66260164   -8.3948867    54.471786  0.012008771  0.011340219           43 
  379000   0.65633014   -8.4005862    54.515224  0.011986637  0.011297609           88 
  380000   0.64572794   -8.4309866    54.440127  0.011938624  0.011255212           55 
  381000   0.65797509   -8.3773878    54.494019  0.011919077  0.011212822           79 
  382000    0.6551863   -8.3908577    54.625765  0.011916615   0.01117066           70 
  383000   0.65393912   -8.4163149    54.504948  0.011859214   0.01112867           81 
  384000   0.65135185   -8.4190624    54.529968  0.011833761  0.011086986           83 
  385000   0.65611982   -8.4002949    54.602302   0.01181868  0.011045293           99 
  386000   0.65503092   -8.4150874    54.490209  0.011763862  0.011003893           87 
  387000   0.64598986   -8.4159626    54.495312  0.011734563  0.010962627           70 
  388000   0.65724479   -8.4162015     54.40724  0.011685404  0.010921414          109 
  389000   0.62965799   -8.4208293    54.449028  0.011664316  0.010880466          124 
  390000   0.64065553   -8.4277742    54.494033  0.011644024  0.010839659           68 
  391000   0.63914998   -8.4200077    54.546325  0.011625389   0.01079903           57 
  392000    0.6358404   -8.4275617    54.471471   0.01157982  0.010758658          103 
  393000      0.65169    -8.438337    54.460209  0.011547966  0.010718404           78 
  394000   0.63710205    -8.459307    54.409632  0.011507959  0.010678392          105 
  395000   0.64196839   -8.4492486    54.435433  0.011484268  0.010638461           59 
  396000    0.6373545   -8.4688961    54.366998  0.011440867  0.010598647           85 
  397000   0.63998284   -8.4592503    54.361126  0.011410816  0.010558988           50 
  398000   0.62790061    -8.450252    54.470179  0.011404979  0.010519491           59 
  399000   0.61999091   -8.4538576    54.371004  0.011355682  0.010480251           71 
  400000   0.62328653   -8.4638023    54.422736   0.01133807   0.01044115           81 
  401000   0.63161245   -8.4562621    54.377687  0.011300434  0.010402147           83 
  402000   0.63235893   -8.4278609    54.494011  0.011296437  0.010363361           92 
  403000   0.61916233   -8.4660175     54.41489  0.011252045  0.010324788          115 
  404000   0.62207206   -8.4717838    54.375277  0.011216023  0.010286288           95 
  405000    0.6257236   -8.4894747    54.378731  0.011189039  0.010247992          115 
  406000   0.61564211   -8.4766463    54.372933   0.01116029  0.010209971           89 
  407000   0.62297208   -8.4684135    54.357018  0.011129611  0.010171928           81 
  408000   0.61077552   -8.4752997    54.217736  0.011073884  0.010134046           84 
  409000    0.6172837   -8.4771955    54.254998    0.0110544  0.010096225           76 
  410000   0.61280314   -8.4899669    54.262663  0.011028996  0.010058647           86 
  411000   0.61715041   -8.4865523    54.261061  0.011001837  0.010021077          100 
  412000   0.60956316   -8.5086844    54.178424  0.010958419   0.00998386          145 
  413000    0.5939048    -8.505632     54.21371  0.010939005 0.0099467869           81 
  414000    0.6108123   -8.4997722    54.320011   0.01093398 0.0099098288          129 
  415000   0.61470563   -8.5183384    54.219247  0.010887399  0.009873023           87 
  416000   0.59268732   -8.5015643    54.277345  0.010872866 0.0098363992          107 
  417000   0.59473845   -8.5382703    54.097867  0.010810925 0.0097998381          107 
  418000   0.60155091   -8.5367821    54.218255  0.010809062 0.0097635327          102 
  419000   0.60959439    -8.517483    54.084769  0.010756716 0.0097271744           68 
  420000   0.59911869   -8.5256466    54.144266   0.01074291 0.0096911025          108 
  421000   0.59242976   -8.5075274    54.093582   0.01070736 0.0096551795           77 
  422000   0.58247257   -8.5260052     54.11432  0.010686082 0.0096193187          144 
  423000    0.5913167   -8.5354218    54.165564  0.010670915 0.0095837162          138 
  424000   0.60358957   -8.5387614    54.194973  0.010651528 0.0095482614          116 
  425000   0.59690254   -8.5485552    54.068985  0.010601762 0.0095129522           98 
  426000    0.5713216   -8.5579074    54.096584  0.010582274 0.0094777506          134 
  427000   0.57586251   -8.5121445    54.084901  0.010555211 0.0094426898          140 
  428000   0.58140116   -8.5402292    54.169719  0.010547064 0.0094077621           99 
  429000   0.58980642   -8.5522449    54.230405  0.010534267 0.0093730217          106 
  430000   0.59246504   -8.5361803    54.154259  0.010495011 0.0093384898          105 
  431000   0.58634979   -8.5632814    54.123608  0.010464735 0.0093040686          103 
  432000   0.57107619   -8.5507951    54.051985  0.010426695 0.0092697379          102 
  433000   0.56416917   -8.5558963    54.205181  0.010432098 0.0092356495          128 
  434000   0.57497764   -8.5504996    54.067117  0.010381551 0.0092017409           91 
  435000   0.56741938   -8.5496147    54.010628  0.010346864 0.0091679948          110 
  436000   0.56140552   -8.5529374    54.094524  0.010339167 0.0091343631          112 
  437000   0.56819843   -8.5937765    54.031663  0.010303521 0.0091009029          118 
  438000   0.55930936   -8.5971735    54.033358  0.010280319 0.0090675384          151 
  439000   0.56269804   -8.5760016    53.950537   0.01024118 0.0090343847          151 
  440000   0.55849381   -8.5814554    53.991239  0.010225613 0.0090012657          143 
  441000   0.55837743   -8.5954727     53.97822  0.010199966  0.008968308           88 
  442000   0.57011721   -8.5810408    53.995028  0.010180058 0.0089354638          167 
  443000   0.55960654   -8.5731619    54.032859  0.010164195 0.0089028541          238 
  444000    0.5522657   -8.6120153    54.032173  0.010141174 0.0088703865          116 
  445000    0.5516598   -8.6114048     53.95296  0.010103551  0.008838066          154 
  446000   0.55750099   -8.5933045    53.861777   0.01006386 0.0088058241          120 
  447000    0.5608509   -8.6099612    53.978322  0.010063073 0.0087737147          123 
  448000   0.54395311   -8.5947686    53.970816  0.010039214 0.0087418657          151 
  449000   0.55159817   -8.6113215    53.913948  0.010006301 0.0087101575          157 
  450000   0.55759629   -8.6090774    53.977907 0.0099959086 0.0086786177          131 
  451000   0.55116964   -8.6170013    53.983598 0.0099747963 0.0086472052          145 
  452000   0.55927997   -8.6015479    54.064363 0.0099676186 0.0086159169          145 
  453000   0.53543893   -8.6036375    53.956587 0.0099257887 0.0085848255          112 
  454000   0.54136853   -8.6196029    53.933269 0.0098996456 0.0085538266          145 
  455000   0.53495775   -8.6346519    54.052784 0.0098997772 0.0085230508          157 
  456000   0.54205389   -8.6122506     54.03972 0.0098756798 0.0084924192           94 
  457000   0.52403889   -8.6337526    53.997441 0.0098463604 0.0084618909          131 
  458000   0.54129638     -8.64715    53.968577 0.0098196101 0.0084314862          123 
  459000   0.52206128   -8.6228646    53.899125 0.0097856073  0.008401185          151 
  460000   0.54096054   -8.6609446    53.780465 0.0097428379  0.008370858          140 
  461000   0.52644938   -8.6437552    53.771425 0.0097200695  0.008340772          151 
  462000     0.518286   -8.6340829    53.884071  0.009719349  0.008310833          194 
  463000   0.52728363   -8.6607339    53.862785 0.0096945258  0.008281016          148 
  464000   0.53146567   -8.6375968     53.80946 0.0096640553 0.0082513664          167 
  465000   0.53253877   -8.6431205     53.86263 0.0096528011  0.008221858          181 
  466000   0.52610972   -8.6641904    53.709256 0.0096046595  0.008192489          201 
  467000   0.52066008   -8.6428574    53.803063  0.009600832 0.0081633128          140 
  468000   0.51957127     -8.66206    53.847151 0.0095881678 0.0081342091          146 
  469000   0.52682577    -8.667824    53.839304 0.0095663298 0.0081052481          110 
  470000    0.5191782   -8.6757753    53.832443 0.0095447593 0.0080764202          138 
  471000   0.51276594   -8.6534584    53.732721 0.0095068508 0.0080477034          154 
  472000   0.50679316   -8.6638167    53.802897  0.009499099 0.0080190886          171 
  473000   0.51068454   -8.6890504    53.642594 0.0094507742 0.0079906379          133 
  474000   0.50923777   -8.6669549    53.764049 0.0094521887 0.0079622396          151 
  475000   0.51465486   -8.6995573    53.733052 0.0094268513 0.0079339954          121 
  476000   0.50898063   -8.6865887    53.655952  0.009393549 0.0079058803          110 
  477000    0.5059143   -8.6728028    53.760857 0.0093921833  0.007877847          108 
  478000   0.50431664   -8.6940062    53.684675  0.009359253  0.007849984          191 
  479000   0.49746706   -8.6905191    53.756011 0.0093521243 0.0078222569          233 
  480000   0.50821351   -8.6832041    53.817506  0.009343317 0.0077946196          163 
  481000    0.5080789   -8.6810755    53.666739 0.0092977719  0.007767168          121 
  482000   0.50643691   -8.6960531    53.787998 0.0092994464 0.0077398057          140 
  483000   0.49572943   -8.6935111    53.789693 0.0092804854 0.0077125911          266 
  484000   0.49688815    -8.700629    53.694813 0.0092449747 0.0076854628          205 
  485000   0.50497701   -8.6945821    53.748471 0.0092351324 0.0076584887          212 
  486000   0.49881148   -8.7263581    53.680188 0.0092044218 0.0076316752          194 
  487000   0.49963101   -8.7138776    53.617712  0.009174831 0.0076049714          138 
  488000    0.4883292   -8.7105147    53.680649 0.0091667775 0.0075783684          168 
  489000   0.48030028   -8.7071577    53.633332 0.0091399679 0.0075517911          152 
  490000   0.48609693   -8.7282964     53.70834 0.0091340714 0.0075254297          132 
  491000   0.49353611   -8.7199848    53.616264 0.0090998411 0.0074991522          259 
  492000    0.4886395   -8.7209614    53.627905 0.0090833173  0.007473033          164 
  493000   0.48632244   -8.7193072     53.69775 0.0090766988 0.0074470158          176 
  494000   0.47379819   -8.7262207    53.653382 0.0090508404 0.0074210907          152 
  495000   0.48084463   -8.7247669    53.613898 0.0090259088 0.0073952714          241 
  496000   0.47266812   -8.7308831     53.60227 0.0090057576 0.0073695527          221 
  497000    0.4651659   -8.7442959    53.597408 0.0089868222 0.0073439947          268 
  498000   0.46499686   -8.7415015    53.665988 0.0089802523  0.007318501          150 
  499000   0.47387766   -8.7227854     53.58732 0.0089491182 0.0072931534          125 
  500000    0.4712279   -8.7308845    53.587135 0.0089311891 0.0072678563          132 
  501000   0.45800034   -8.7207921    53.606775 0.0089166293 0.0072426924          245 
  502000   0.46025556   -8.7494754    53.547961 0.0088891037 0.0072176763          177 
  503000   0.46724598   -8.7533094    53.544104 0.0088707926 0.0071927571          139 
  504000   0.46572206   -8.7556497    53.631678 0.0088676716 0.0071679079          222 
  505000    0.4686426   -8.7502305    53.602006 0.0088452155 0.0071432719          162 
  506000   0.45035355   -8.7609015    53.604884 0.0088282088  0.007118688          236 
  507000   0.46097068    -8.758517    53.627049 0.0088144393 0.0070942792          279 
  508000   0.45427303   -8.7678062    53.513236 0.0087784179 0.0070699389          132 
  509000   0.45362884   -8.7426178    53.639454  0.008781836 0.0070457287          159 
  510000   0.44694974   -8.7678027    53.514039 0.0087441241   0.00702157          203 
  511000   0.44806097   -8.7701106    53.479112 0.0087213164 0.0069975927          114 
  512000   0.44457617   -8.7601657    53.502522 0.0087080927 0.0069736665          152 
Loop time of 1310.69 on 48 procs for 500000 steps with 4000 atoms

Performance: 65919.344 tau/day, 381.478 timesteps/s
99.4% CPU use with 48 MPI tasks x no OpenMP threads

MPI task timing breakdown:
Section |  min time  |  avg time  |  max time  |%varavg| %total
---------------------------------------------------------------
Pair    | 95.312     | 101.34     | 107.78     |  32.7 |  7.73
Neigh   | 9.1443     | 9.4544     | 9.7449     |   5.0 |  0.72
Comm    | 84.907     | 91.743     | 98.86      |  36.8 |  7.00
Output  | 0.96096    | 0.96167    | 0.98466    |   0.3 |  0.07
Modify  | 1091.4     | 1094.6     | 1101.7     |   6.4 | 83.52
Other   |            | 12.56      |            |       |  0.96

Nlocal:        83.3333 ave          94 max          78 min
Histogram: 2 11 9 12 4 7 2 0 0 1
Nghost:        2397.73 ave        2409 max        2379 min
Histogram: 1 2 3 2 4 7 7 10 5 7
Neighs:        16611.4 ave       20361 max       14221 min
Histogram: 4 5 8 8 11 5 3 3 0 1
FullNghs:      33223.6 ave       37718 max       31076 min
Histogram: 3 8 13 11 7 3 2 0 0 1

Total # of neighbors = 1594732
Ave neighs/atom = 398.68300
Neighbor list builds = 26627
Dangerous builds = 0

#clear
#
#next RN
#
#jump SELF
Total wall time: 0:21:54
