
units lj                  # Use reduced LJ style units
atom_style atomic         # Uncharged point particles
atom_modify map hash      # Needed for indexing of clusters etc
                          # Used to be able to find where atoms are in relation to each other.

lattice fcc 1.0 spacing 1 1 1
Lattice spacing in x,y,z = 1.5874011 1.5874011 1.5874011
region box block 0 10 0 10 0 10 units lattice
create_box 2 box
Created orthogonal box = (0.0000000 0.0000000 0.0000000) to (15.874011 15.874011 15.874011)
  3 by 4 by 4 MPI processor grid
create_atoms 1 box
Created 4000 atoms
  using lattice units in orthogonal box = (0.0000000 0.0000000 0.0000000) to (15.874011 15.874011 15.874011)
  create_atoms CPU = 0.002 seconds
set type 1 type/fraction 2 0.83 78393
Setting atom values ...
  3314 settings made for type/fraction
mass 1 1.0
mass 2 1.0
pair_style lj/cut  3.5
pair_modify tail  yes
pair_coeff 1  1  1.0  1.0   # Intearaction between 1 and 1 set with epsilon = 1 and sigma = 1
pair_coeff 1  2  1.5  0.8
pair_coeff 2  2  0.5  0.88

write_data data.0
System init for write_data ...
Neighbor list info ...
  update every 1 steps, delay 10 steps, check yes
  max neighbors/atom: 2000, page size: 100000
  master list distance cutoff = 3.8
  ghost atom cutoff = 3.8
  binsize = 1.9, bins = 9 9 9
  1 neighbor lists, perpetual/occasional/extra = 1 0 0
  (1) pair lj/cut, perpetual
      attributes: half, newton on
      pair build: half/bin/atomonly/newton
      stencil: half/bin/3d
      bin: standard
WARNING: Not all mixed pair coeffs generated from mixing. Use write_data with 'pair ij' option to store all pair coeffs. (../write_data.cpp:312)


#############################
#   M E L T   S Y S T E M   #
#############################

velocity all create 2.4 3143649 mom yes dist gaussian # Assign velocities
                                                    # Temperature 2.4, random number seed, zero linear momentum
                                                                                # Gaussian distribution

timestep 0.002   # simulation timestep
thermo 1000       # output thermodynamic data every 1000 steps bf 100

# Define a fix  in this case with index 1 applied to all
# particles in the simulation. This fix is for simulations
# in the anisotropic NPT ensemble. Note that we use the MTK
# correction.
fix 1 all npt temp 2.4 2.4 0.1 iso 5.68 5.68 0.5 mtk yes tchain 5 pchain 5 # Use NPT ensemble
                                                                         # Set temperature and pressure and damping
                                                                         # Numbers of thermostats in chain and in barostat
run 10000          # run for 10000 steps
Per MPI rank memory allocation (min/avg/max) = 3.642 | 3.644 | 3.648 Mbytes
Step Temp E_pair E_mol TotEng Press Volume 
       0          2.4   -3.5381599            0  0.060940148   -3.0801753         4000 
    1000     2.456725   -2.8321032            0     0.852063    5.8686491    3815.8319 
    2000    2.3908154   -2.7918348            0   0.79349175    5.7789609    3837.9131 
    3000    2.3839656   -2.7827692            0    0.7922852     5.538639    3893.4606 
    4000    2.4147038   -2.7394914            0   0.88165882    5.6874128    3894.8945 
    5000    2.3997147   -2.7866963            0   0.81197588    5.6365504    3868.5416 
    6000    2.3735612   -2.8031108            0   0.75634096    5.6279935    3857.6746 
    7000    2.3824434   -2.8118056            0   0.76096607    5.5758489    3860.2647 
    8000    2.3872663    -2.799201            0    0.7808032      5.43369    3892.1702 
    9000    2.4120396   -2.8329443            0   0.78421069    5.6734775    3837.7431 
   10000    2.4259467   -2.8584286            0   0.77958165    5.4474201    3848.2928 
Loop time of 2.50883 on 48 procs for 10000 steps with 4000 atoms

Performance: 688767.384 tau/day, 3985.922 timesteps/s
99.7% CPU use with 48 MPI tasks x no OpenMP threads

MPI task timing breakdown:
Section |  min time  |  avg time  |  max time  |%varavg| %total
---------------------------------------------------------------
Pair    | 1.1205     | 1.1916     | 1.254      |   3.0 | 47.49
Neigh   | 0.20788    | 0.21664    | 0.22543    |   0.9 |  8.63
Comm    | 0.78281    | 0.84887    | 0.91689    |   3.4 | 33.84
Output  | 0.00024281 | 0.0002481  | 0.00031573 |   0.0 |  0.01
Modify  | 0.21161    | 0.23626    | 0.25946    |   2.7 |  9.42
Other   |            | 0.01525    |            |       |  0.61

Nlocal:        83.3333 ave          93 max          69 min
Histogram: 1 0 5 2 5 12 6 9 1 7
Nghost:        1691.27 ave        1729 max        1649 min
Histogram: 2 4 2 6 9 5 8 5 2 5
Neighs:        9927.08 ave       11441 max        8017 min
Histogram: 1 3 3 8 6 4 8 7 4 4

Total # of neighbors = 476500
Ave neighs/atom = 119.12500
Neighbor list builds = 902
Dangerous builds = 184

# Equilibrate just above the melting temperature to avoid step fn in T

fix 1 all npt temp 1.25 1.25 0.1 iso 5.68 5.68 0.5 mtk yes tchain 5 pchain 5
run 2000
Per MPI rank memory allocation (min/avg/max) = 3.643 | 3.645 | 3.649 Mbytes
Step Temp E_pair E_mol TotEng Press Volume 
   10000    2.4259467   -2.8584286            0   0.77958165    5.4474201    3848.2928 
   11000    1.2428803   -4.1080032            0   -2.2441488    5.7163681    2975.8461 
   12000      1.28367   -4.1536678            0   -2.2286442    5.8806739    2955.4768 
Loop time of 0.639229 on 48 procs for 2000 steps with 4000 atoms

Performance: 540651.078 tau/day, 3128.768 timesteps/s
99.7% CPU use with 48 MPI tasks x no OpenMP threads

MPI task timing breakdown:
Section |  min time  |  avg time  |  max time  |%varavg| %total
---------------------------------------------------------------
Pair    | 0.28332    | 0.30503    | 0.36091    |   2.4 | 47.72
Neigh   | 0.040229   | 0.04302    | 0.051147   |   0.9 |  6.73
Comm    | 0.18421    | 0.24073    | 0.262      |   2.8 | 37.66
Output  | 4.9658e-05 | 5.0916e-05 | 6.6742e-05 |   0.0 |  0.01
Modify  | 0.038263   | 0.045636   | 0.051143   |   1.9 |  7.14
Other   |            | 0.00476    |            |       |  0.74

Nlocal:        83.3333 ave          94 max          75 min
Histogram: 1 6 6 7 9 10 4 4 0 1
Nghost:        2017.31 ave        2036 max        1996 min
Histogram: 3 0 0 11 8 6 6 8 2 4
Neighs:        12922.7 ave       14652 max       11416 min
Histogram: 1 7 1 13 7 6 4 3 4 2

Total # of neighbors = 620291
Ave neighs/atom = 155.07275
Neighbor list builds = 145
Dangerous builds = 12

#############################
# L I N E A R  Q U E N C H  #
#############################

# Define solid atoms. This closely follows ten Wolde  Ruiz-Montero and Frenkel  Faraday Discuss  1996  104  93-110
# Compute components of the per-atom q6 vector
compute q6 all orientorder/atom degrees 1 6 components 6 nnn NULL cutoff 1.3 # compute the Q6 parameter.
                                                                             # Use all neighbours within 1.3 unit cell.

# get number of connections
compute coord_number all coord/atom orientorder q6 0.5

# An atom is solid if it has 8 or more connections (of a possible 14)
variable is_solid atom c_coord_number>=8
group solid dynamic all var is_solid    # Must be dynamic to update
dynamic group solid defined

# do clustering
compute cluster solid cluster/atom 1.3 # Create a cluster where all atoms within are solid and max 1.3 units from another member

# define chunks one chunk per cluster
compute clus_chunks solid chunk/atom c_cluster nchunk every compress yes  # Says which atoms are in which chunk

# count the size of each chunk
compute size_chunks solid property/chunk clus_chunks count


# Find the maximum entry in the vector of chunk sizes
variable max_n equal max(c_size_chunks)


# Thermo style which includes this variable
# thermo_style custom step temp pe vol v_max_n

thermo ${N}  # Print the thermo information every 100 steps
thermo 1000  

# Reset the npt fix at a lower temperature (below freezing)
fix 1  all npt temp  ${temp} ${temp}  0.1  iso  5.68  5.68  0.5  mtk yes tchain  5  pchain  5
fix 1  all npt temp  0.45 ${temp}  0.1  iso  5.68  5.68  0.5  mtk yes tchain  5  pchain  5
fix 1  all npt temp  0.45 0.45  0.1  iso  5.68  5.68  0.5  mtk yes tchain  5  pchain  5

dump dmp2 all dcd ${N} traj.dcd
dump dmp2 all dcd 1000 traj.dcd


compute msd all msd com yes
variable twopoint equal c_msd[4]/6/(step*dt+1.0e-6)
fix 9 all vector 10 c_msd[4]
variable fit equal slope(f_9)/6/(10*dt)
thermo_style custom step temp pe c_msd[4] v_twopoint v_fit v_max_n

fix 1 all npt temp 1.25 ${temp} 0.1 iso 5.68 5.68 0.5 mtk yes tchain 5 pchain 5
fix 1 all npt temp 1.25 0.45 0.1 iso 5.68 5.68 0.5 mtk yes tchain 5 pchain 5
run 5000000 # 5000000  # Run for this many steps
Neighbor list info ...
  update every 1 steps, delay 10 steps, check yes
  max neighbors/atom: 2000, page size: 100000
  master list distance cutoff = 3.8
  ghost atom cutoff = 3.8
  binsize = 1.9, bins = 8 8 8
  4 neighbor lists, perpetual/occasional/extra = 1 3 0
  (1) pair lj/cut, perpetual
      attributes: half, newton on
      pair build: half/bin/atomonly/newton
      stencil: half/bin/3d
      bin: standard
  (2) compute orientorder/atom, occasional
      attributes: full, newton on
      pair build: full/bin/atomonly
      stencil: full/bin/3d
      bin: standard
  (3) compute coord/atom, occasional
      attributes: full, newton on
      pair build: full/bin/atomonly
      stencil: full/bin/3d
      bin: standard
  (4) compute cluster/atom, occasional
      attributes: full, newton on
      pair build: full/bin/atomonly
      stencil: full/bin/3d
      bin: standard
Per MPI rank memory allocation (min/avg/max) = 9.833 | 9.838 | 9.842 Mbytes
Step Temp PotEng c_msd[4] v_twopoint v_fit v_max_n 
   12000      1.28367   -4.1536678 1.8575702e-30 1.2899793e-32 8.3333333e+20            3 
   13000    1.2480012    -4.162808   0.84996402 0.0054484871  0.071407609            1 
   14000    1.2491564   -4.1222183    1.7435883  0.010378502  0.073016104            2 
   15000    1.2330491   -4.1346497    2.6124664  0.014513702  0.073368299            2 
   16000     1.259484   -4.1474659    3.4861612  0.018157089  0.072971627            1 
   17000    1.2567731   -4.2031604    4.3725484   0.02143406  0.073307331            2 
   18000    1.2256374   -4.1341502    5.3271033  0.024662515  0.074117065            4 
   19000     1.241273   -4.1743511    6.2765902  0.027528904  0.074717278            1 
   20000    1.2456371   -4.1686716    7.1986335  0.029994305  0.075464544            2 
   21000    1.2198271   -4.1670493    7.9458829  0.031531281  0.075227745            4 
   22000    1.2585248   -4.1673991    8.9394658  0.033861612   0.07480924            2 
   23000    1.2468389   -4.1491727     9.748544  0.035320811  0.074920003            2 
   24000    1.2296778   -4.1446179    10.475517  0.036373321  0.074334841            1 
   25000    1.2582524   -4.1242103    11.523182  0.038410607  0.074010422            8 
   26000    1.2283779   -4.1558452    12.496312   0.04005228  0.074146484            3 
   27000    1.2867646   -4.1703477    13.401315  0.041362084  0.074325015            1 
   28000    1.2387963   -4.1842741    14.350717  0.042710468    0.0744438            2 
   29000    1.2394036   -4.1481627    15.340738   0.04408258  0.074769426            1 
   30000     1.244219   -4.1799398    16.215125  0.045042013   0.07495193            2 
   31000    1.2423646    -4.151818    17.059856  0.045859828  0.075016455            4 
   32000     1.249406   -4.1780445    17.952482  0.046751254  0.075105754            1 
   33000    1.2396675   -4.1318676    18.965059  0.047891562  0.075211381            2 
   34000    1.2420251   -4.1701849    20.040638  0.049119211  0.075366775            2 
   35000    1.2238265   -4.1487093    20.873056  0.049697752  0.075558265            1 
   36000    1.2496053    -4.124816    21.996775  0.050918461  0.075824329            2 
   37000    1.2318105   -4.1582056    23.011984  0.051828791  0.076141698            4 
   38000    1.2339317   -4.1898841    23.976951  0.052581031  0.076451836            2 
   39000    1.2533762   -4.1578488    24.892297  0.053188669  0.076685374            2 
   40000    1.2469095   -4.1622046    25.512631  0.053151314  0.076764419            3 
   41000    1.2417111   -4.1824752    26.040442  0.052927728  0.076652044            1 
   42000    1.2351431   -4.1400576    27.219632  0.054007205  0.076521013            4 
   43000    1.2168557   -4.1585411    27.991382  0.054246864  0.076435785            4 
   44000    1.2313312   -4.1671868    28.721798  0.054397344    0.0762691            1 
   45000    1.2555439   -4.1179641    29.568635  0.054756732  0.076086708            2 
   46000    1.2346491   -4.1438232    30.550364  0.055344861  0.075948626            2 
   47000    1.2165615   -4.1777444      31.1532  0.055236169   0.07576385            2 
   48000    1.2463903   -4.1497162    32.002927  0.055560636  0.075560251            1 
   49000    1.2319308   -4.1698153     32.65185  0.055530357  0.075332107            3 
   50000    1.2457273   -4.1090839    33.867083  0.056445137  0.075137808            3 
   51000    1.2478558   -4.1911607    34.745579  0.056773821  0.074969825            1 
   52000    1.2353922   -4.1840491    35.345498  0.056643426  0.074816333            3 
   53000     1.243149     -4.17578    36.318622  0.057104751  0.074666408            1 
   54000    1.2388162   -4.1865298    37.125114  0.057291843  0.074553521            2 
   55000    1.2507682   -4.1754947    37.979804  0.057545157   0.07444544            2 
   56000      1.21338   -4.1637313    39.136332  0.058238589  0.074372745            1 
   57000    1.2268088   -4.1815419    39.940272  0.058392209   0.07432919            1 
   58000     1.245237   -4.1700158    41.119952   0.05908039  0.074310512            2 
   59000    1.2450637   -4.1446582    41.969392  0.059278801  0.074291991            2 
   60000     1.255877   -4.1602018    42.422209  0.058919734  0.074247869            1 
   61000    1.2276229    -4.184242    43.653655   0.05963614   0.07420425            1 
   62000    1.2595524   -4.1829843    44.562406  0.059895707  0.074187768            3 
   63000    1.2483738   -4.1560377    45.666956  0.060406026  0.074200522            2 
   64000    1.2432081   -4.1880238    46.751267  0.060874045  0.074218715            2 
   65000    1.2291733   -4.1963214    47.390039   0.06075646  0.074254672            3 
   66000     1.244096    -4.161008    48.508234   0.06124777  0.074319621            3 
   67000    1.2392587   -4.1855565     49.77159  0.061904962  0.074399162            2 
   68000    1.2444698   -4.2196107    50.402546  0.061767826  0.074492872            2 
   69000     1.259675   -4.1557744    51.536583  0.062242249  0.074557853            2 
   70000    1.2448974   -4.1623699    52.524677  0.062529377  0.074636901            1 
   71000    1.2445793   -4.2003467    53.499675  0.062793045  0.074720813            1 
   72000    1.2153491   -4.1576362    54.446229  0.063016468  0.074795162            2 
   73000    1.2370162   -4.1723369    54.935984   0.06271231  0.074847588            3 
   74000    1.2320061    -4.171574    55.928217  0.062982226    0.0748889            3 
   75000    1.2508607   -4.1562821    56.985838  0.063317597  0.074927189            2 
   76000    1.2565248   -4.1677516     57.67294  0.063237873  0.074960811            2 
   77000       1.2418   -4.1855361    58.811112  0.063648389  0.075018512            2 
   78000    1.2223879   -4.1948753    60.081348  0.064189474  0.075084811            1 
   79000    1.2357578   -4.1686105    60.723369  0.064054186  0.075164685            1 
   80000    1.2265446   -4.1642253    62.273768  0.064868508  0.075253067            2 
   81000    1.2399343   -4.1835887    62.971988  0.064785996  0.075343268            2 
   82000    1.2400815   -4.1570837    64.323478  0.065369388  0.075446907            2 
   83000    1.2241155   -4.1588582    64.926856  0.065187606  0.075530392            1 
   84000    1.2094268   -4.1773639    65.693797  0.065172417  0.075602223            1 
   85000    1.2512775   -4.1783704    66.796451  0.065486716  0.075675085            1 
   86000      1.20406   -4.1757213    67.720675  0.065620809  0.075747749            4 
   87000    1.2418824   -4.1938559    68.855286  0.065953338  0.075819356            2 
   88000     1.242595   -4.1634659    69.760567  0.066061142  0.075890353            1 
   89000    1.2377804    -4.157138     71.06791  0.066542987  0.075956667            4 
   90000    1.2590225   -4.1600926    71.441073  0.066149142  0.076030165            2 
   91000    1.2497885   -4.1938243    72.300959  0.066209669  0.076084987            2 
   92000    1.2075397   -4.1946117    73.351169  0.066441276  0.076130803            3 
   93000    1.2317789    -4.172163    73.618573  0.065966463   0.07614867            5 
   94000    1.2516083   -4.2050209    74.410477  0.065966735  0.076132973            1 
   95000    1.2443484   -4.1814267    74.995234  0.065785293  0.076107167            4 
   96000    1.2168907   -4.1715594    75.455951  0.065499957  0.076073824            2 
   97000    1.2371537   -4.1558771    76.308661  0.065557269  0.076024161            2 
   98000    1.2556353   -4.1856532    77.421567  0.065834666  0.075990513            4 
   99000     1.220133   -4.1878838    78.752755  0.066290197  0.075953302            3 
  100000    1.2420701   -4.1760824    79.672137  0.066393447  0.075941849            2 
  101000    1.2230672    -4.169697    80.806462  0.066671998  0.075934578            3 
  102000    1.2321025   -4.1734271    81.479248  0.066568013  0.075925364            2 
  103000    1.2218433   -4.2178559    81.861183   0.06623073  0.075917183            3 
  104000    1.2154665   -4.1543598    83.084306  0.066573962  0.075892199            4 
  105000    1.1877541    -4.166467    84.116048  0.066758768  0.075878743            3 
  106000    1.2344837   -4.1795561    85.087857  0.066892969  0.075874945            1 
  107000    1.2323751   -4.1726333    86.094443  0.067051747  0.075868848            1 
  108000     1.265961   -4.1738204    86.799749  0.066975115  0.075858435            2 
  109000    1.2184717   -4.1657721    88.033273  0.067303725  0.075853648            3 
  110000    1.2161254    -4.169449    89.094863  0.067496108  0.075846326            3 
  111000    1.2041306   -4.1767926    90.049647  0.067604839  0.075836805            4 
  112000     1.274056   -4.2010193    90.956628  0.067676062  0.075848147            2 
  113000    1.2195742   -4.1475027    91.835344   0.06772518  0.075859992            3 
  114000    1.2363018   -4.1659997    92.383853  0.067532056   0.07586237            1 
  115000    1.2570123   -4.1661837    93.340459  0.067638013  0.075851261            4 
  116000    1.2357419   -4.1571185    94.296346  0.067741628  0.075830864            1 
  117000    1.2331097   -4.1936435    94.944934  0.067624596  0.075819652            1 
  118000    1.2432242     -4.18374    96.158906  0.067908832  0.075811998            2 
  119000    1.2213042   -4.1906767    96.705259   0.06772077  0.075807548            2 
  120000    1.2245249   -4.1869972    97.634128  0.067801478   0.07580559            5 
  121000    1.2162318   -4.1988986     98.82622  0.068062135  0.075797344            3 
  122000    1.2365184   -4.1755247    99.576131  0.068016483  0.075795398            1 
  123000    1.2207973   -4.1800117    100.52475  0.068106201   0.07579042            3 
  124000    1.2431491   -4.1939175    101.08244  0.067931744  0.075777692            3 
  125000    1.2444725     -4.18025    101.74889  0.067832596  0.075758755            2 
  126000     1.227923   -4.1620627    102.78946  0.067982449  0.075748386            1 
  127000     1.227982   -4.1651885     104.1292  0.068326249  0.075742792            1 
  128000    1.2195696   -4.1523938    104.41286   0.06797712  0.075706825            1 
  129000    1.2329157   -4.1919807    104.62125  0.067584784  0.075660237            1 
  130000    1.2296578   -4.1913676    105.02067   0.06732094  0.075604414            3 
  131000    1.2249633   -4.1746879    106.50557  0.067751634  0.075548244            2 
  132000    1.2094699   -4.2168674    106.84969  0.067455614  0.075493851            3 
  133000    1.2446374   -4.1904884    108.32268  0.067871352  0.075443803            3 
  134000    1.2058548   -4.1774092     109.0194  0.067798134  0.075400893            5 
  135000    1.2240441   -4.1966148    109.78841  0.067770625  0.075349878            1 
  136000    1.2184206   -4.1810717     110.7745  0.067876532   0.07530765            4 
  137000    1.2514792   -4.2043921    111.42923  0.067779334  0.075265839            5 
  138000     1.230786   -4.1495964    112.19039  0.067747821  0.075217967            2 
  139000    1.2283226   -4.1751476    112.40863  0.067391262  0.075165976            1 
  140000    1.2070373    -4.178243     114.1145  0.067925299  0.075120453            1 
  141000    1.2351913   -4.1309843    115.38366  0.068193654  0.075078278            8 
  142000    1.2296484   -4.1402725    116.11749  0.068144068  0.075041977            1 
  143000     1.228569   -4.1431338    116.90201  0.068124715  0.075007516            4 
  144000    1.2276793   -4.2144482     117.6031  0.068057351  0.074977511            2 
  145000    1.2239879   -4.1738727    118.19726  0.067929457   0.07494488            1 
  146000    1.2293678   -4.1855441    119.21891  0.068047322  0.074905608            1 
  147000    1.2361759   -4.2112809     119.7443  0.067882257  0.074865809            2 
  148000    1.2707563   -4.1886393    120.55869  0.067882143  0.074819544            2 
  149000     1.228907   -4.1871607    121.13967  0.067751492  0.074768091            2 
  150000    1.2414433   -4.1886414      122.181  0.067878334  0.074717386            2 
  151000    1.2337738   -4.2052024    123.11712  0.067945432  0.074672892            2 
  152000    1.2363917   -4.1776723    123.62528  0.067777019  0.074631644            2 
  153000    1.2101079   -4.1963639     124.9988  0.068082134  0.074592773            2 
  154000    1.2266619   -4.2241855    125.44908  0.067883701   0.07454994            1 
  155000    1.2093898   -4.1870693    127.27789  0.068428975  0.074507414            2 
  156000    1.2141905   -4.1912858    127.87563  0.068309629   0.07446722            2 
  157000    1.2239222   -4.1964454    128.21812  0.068056328  0.074429864            2 
  158000     1.210795    -4.197796     129.7449  0.068430853  0.074394291            3 
  159000    1.2124623   -4.1956447    130.69765  0.068499817  0.074370616            3 
  160000    1.2102975   -4.2063838    131.34861  0.068410736  0.074352326            1 
  161000    1.2296466   -4.2083176    132.37574  0.068517462  0.074340259            3 
  162000    1.2381431    -4.202286    132.81662  0.068321307  0.074316614            2 
  163000    1.2205083   -4.1798876    134.44144  0.068732842   0.07429746            5 
  164000    1.2487562   -4.1775222    135.70048  0.068953497  0.074285994            3 
  165000    1.2294772   -4.1526027    136.82833  0.069105216  0.074279735            1 
  166000    1.1836725   -4.1609736    137.05631  0.068803367  0.074268481            2 
  167000    1.2296491   -4.2088812    138.12757  0.068925931  0.074254478            2 
  168000    1.2453803   -4.1434708     138.9982   0.06894752  0.074245262            1 
  169000    1.2223529   -4.1760884    140.09309  0.069079432  0.074239961            2 
  170000    1.2192631   -4.1770667    141.29266  0.069261106  0.074233859            1 
  171000    1.2281171   -4.1773651    141.88992  0.069147133  0.074228821            3 
  172000    1.2002599   -4.2072424    142.48529  0.069033573   0.07421802            3 
  173000    1.2157479   -4.2195962    143.39138  0.069070992  0.074209073            3 
  174000    1.1892942   -4.1895449    144.89624  0.069394753  0.074204066            3 
  175000    1.2208937   -4.1924137    145.58943  0.069328299  0.074203386            2 
  176000     1.210838   -4.2348814    146.48283  0.069357401  0.074204019            3 
  177000    1.1988818   -4.1664716    147.62584  0.069503689  0.074203495            2 
  178000    1.1893962   -4.1844389    148.58079  0.069560293  0.074200711            1 
  179000    1.2290215   -4.1780972    148.91403  0.069326828  0.074196836            5 
  180000    1.2411455   -4.1627024    151.09645  0.069952061  0.074194515            2 
  181000    1.2141749   -4.1694431    150.40696  0.069248141  0.074187334            3 
  182000    1.2299636    -4.178113    151.09579  0.069183052  0.074174128            2 
  183000    1.2087206   -4.1858111    152.65994  0.069517277  0.074163695            3 
  184000    1.2285382   -4.1713228    153.22328  0.069394603  0.074150529            2 
  185000    1.1897101   -4.1810495      154.312  0.069509912  0.074138969            5 
  186000     1.243873   -4.1964935    154.56003  0.069247325   0.07412447            1 
  187000    1.2235585   -4.1731378    155.97449   0.06950735  0.074108392            2 
  188000    1.2218696   -4.1616307     156.5423  0.069389315  0.074096534            1 
  189000    1.2315748   -4.1586896    157.23833  0.069329068  0.074080674            2 
  190000    1.2097784    -4.204881    158.90665  0.069695897  0.074066958            2 
  191000     1.241403   -4.2033362    158.38481  0.069103319  0.074051534            1 
  192000    1.2081965   -4.2015983    160.31419  0.069580813  0.074035249            2 
  193000    1.2401904   -4.1766595    160.90695  0.069476231  0.074022125            3 
  194000    1.2452669   -4.2133018    161.35399  0.069310134  0.074010677            2 
  195000    1.2112962   -4.1989181    162.45817  0.069426568  0.073997014            2 
  196000     1.227388    -4.165904    162.97062  0.069290231  0.073980887            3 
  197000    1.2228362   -4.2059792    163.02045  0.068959579  0.073959547            2 
  198000    1.2361162   -4.2005444    164.29981   0.06914975  0.073938318            2 
  199000    1.2108847   -4.2069764    166.03322  0.069528148  0.073917235            2 
  200000    1.2133075   -4.2081248    166.10041  0.069208503  0.073902247            2 
  201000    1.2227035   -4.1812349    167.21809  0.069327568  0.073888592            2 
  202000    1.2113115    -4.193548    168.44439   0.06949026  0.073873186            1 
  203000    1.2075313   -4.2072986    168.71883  0.069260602  0.073856425            2 
  204000    1.2463983   -4.2111815    170.02897  0.069456278  0.073847575            2 
  205000    1.2116429   -4.1967347    170.61938  0.069357469  0.073836442            2 
  206000    1.2264326   -4.2164374     172.6425    0.0698392  0.073825669            4 
  207000    1.2188342   -4.2082911    173.68383  0.069921026  0.073819465            2 
  208000       1.2099   -4.1924703    173.99631   0.06971006  0.073814388            2 
  209000    1.2225974   -4.1776643    175.33935  0.069912023  0.073808825            2 
  210000    1.2083606   -4.1907284    175.90944  0.069805334  0.073802133            2 
  211000    1.1964707   -4.1845124    176.48964  0.069703648  0.073797219            1 
  212000    1.2395508    -4.208434    177.95019  0.069948975  0.073793122            3 
  213000    1.2153224   -4.2354153    178.96745  0.070018566  0.073791294            4 
  214000    1.2096666   -4.1645824    180.94178  0.070460194  0.073787314            3 
  215000    1.1929169   -4.2159977    180.31056  0.069887815  0.073781619            1 
  216000     1.223233   -4.2131916    180.66925  0.069702644  0.073768123            2 
  217000    1.2429442   -4.2079024    181.42664  0.069672289  0.073758105            2 
  218000    1.2285152   -4.2126063    181.83264   0.06950789  0.073744223            2 
  219000    1.2287457    -4.200492    183.19093  0.069707357  0.073731764            1 
  220000    1.2036349   -4.1975834    183.46647  0.069494875   0.07372127            4 
  221000    1.2050193   -4.2167387    183.85339  0.069326315  0.073706292            2 
  222000     1.232941   -4.2239178    186.40351  0.069971287   0.07369135            2 
  223000     1.212712   -4.1853141     185.8257  0.069441591  0.073671091            1 
  224000    1.2092375   -4.1894726    187.37084  0.069706413  0.073651599            2 
  225000    1.1831263   -4.1803816    187.99104  0.069626311     0.073633            2 
  226000    1.2140147   -4.2197123    188.04735  0.069338993   0.07361109            1 
  227000    1.2067799   -4.2066625    188.88207  0.069339966  0.073587625            2 
  228000    1.2157779   -4.2033892    189.76667  0.069359164  0.073565127            3 
  229000     1.235868    -4.215072    191.15122  0.069560123   0.07354481            3 
  230000    1.1993576   -4.1947863    191.92639  0.069538547  0.073521156            2 
  231000    1.2191239   -4.1772644    192.55568  0.069464532  0.073498491            3 
  232000     1.214365   -4.2182985    192.32526  0.069082349  0.073476836            2 
  233000    1.2378483   -4.2252007    193.63308  0.069253606  0.073455558            4 
  234000    1.2143952   -4.1986142    194.62459  0.069310751  0.073434079            2 
  235000    1.2132128   -4.1869352    195.87901   0.06946064  0.073409946            1 
  236000    1.2099586   -4.2047989    196.01534  0.069214455  0.073390939            1 
  237000    1.2001599   -4.2569562    196.73709  0.069176191  0.073368826            1 
  238000    1.1865713    -4.206204    198.24261  0.069412677  0.073345553            2 
  239000    1.2062376   -4.2117275    198.92414   0.06935988  0.073323017            3 
  240000    1.1900581   -4.2122577    198.16861  0.068808545  0.073292955            1 
  241000    1.2352588   -4.2238915    198.60066  0.068672428  0.073259981            1 
  242000    1.2038482    -4.232274    200.71117  0.069115418  0.073231865            4 
  243000    1.2163955   -4.2035145     201.4009  0.069067523  0.073203719            2 
  244000     1.202326   -4.2360325     201.8906  0.068951707  0.073176411            1 
  245000    1.2360924    -4.208859    202.20003  0.068775519  0.073151662            2 
  246000    1.1955154   -4.2316968    204.64473  0.069324096  0.073125528            6 
  247000    1.2294816   -4.2009149     205.2494  0.069247437  0.073100731            4 
  248000    1.2476895   -4.1859784    206.47134  0.069378809  0.073075648            2 
  249000    1.2009824   -4.2290202    207.41834  0.069417116  0.073051473            2 
  250000    1.1960223   -4.2163573    207.28358  0.069094527   0.07302428            2 
  251000    1.2384294   -4.2026313    207.60188  0.068924928  0.072996767            1 
  252000     1.216567   -4.2182907    208.61936  0.068987882  0.072970381            2 
  253000    1.2111473   -4.2175549    208.74975  0.068758151  0.072942735            1 
  254000    1.2247376   -4.1899468    209.84812  0.068847808  0.072914847            2 
  255000     1.209561   -4.2176154    210.36149  0.068745584  0.072881732            2 
  256000    1.1974213   -4.1938123    211.14633   0.06873253  0.072848797            2 
  257000    1.2014263   -4.2498728    211.48072  0.068573514  0.072813669            4 
  258000    1.2033742   -4.2110024    212.46717  0.068626345  0.072777769            2 
  259000    1.2281437   -4.2444634    212.25178   0.06829208  0.072743128            1 
  260000    1.2084794    -4.269266    213.09771  0.068300549  0.072706083            2 
  261000     1.203185   -4.1974138    214.37638  0.068447119  0.072670291            4 
  262000     1.192657   -4.2142794    215.20136  0.068448271  0.072631602            1 
  263000    1.2052588   -4.2069504    215.85107  0.068393874  0.072594781            4 
  264000    1.2373672    -4.209971    216.87368    0.0684576  0.072558219            3 
  265000    1.2220421   -4.2402464    217.94942  0.068537554  0.072526843            1 
  266000    1.1977644   -4.2228484    218.65017  0.068499427  0.072494286            2 
  267000    1.2342958   -4.1935197    220.22644  0.068734844  0.072463145            2 
  268000    1.2150118   -4.2267687    221.74142  0.068949446   0.07243679            5 
  269000    1.2064997   -4.2385502    223.29391  0.069174073  0.072412665            3 
  270000     1.195582   -4.2288625    222.94771  0.068811021  0.072388745            2 
  271000    1.2201368   -4.2402655    224.15806  0.068929294  0.072367073            1 
  272000    1.1986945   -4.2267985    225.80743  0.069181197  0.072351109            3 
  273000    1.2146805   -4.2331213    225.19882  0.068742008  0.072333088            3 
  274000    1.2545937   -4.2215521    226.19207  0.068793207  0.072312579            2 
  275000    1.2012853   -4.2444129    227.77378  0.069022358   0.07229183            2 
  276000    1.2101068     -4.24684     228.9582  0.069129892  0.072273353            3 
  277000    1.2233759   -4.1974898    229.60119  0.069073763   0.07225586            1 
  278000    1.1727033   -4.1849326    230.85858  0.069202213   0.07224085            2 
  279000    1.2060441   -4.2309269    230.88887  0.068963222  0.072221158            1 
  280000    1.1872033   -4.2398634    231.63301  0.068938395  0.072202001            1 
  281000    1.1862899   -4.2445139    231.51769  0.068658865  0.072181255            2 
  282000    1.2197126   -4.2653888    232.69578  0.068763528  0.072161179            2 
  283000    1.2029658   -4.1888022    235.42062  0.069322914  0.072146019            3 
  284000    1.1933073   -4.2186299    234.91677  0.068930977  0.072129276            2 
  285000    1.2196464   -4.2116284    235.84418  0.068960288  0.072110601            2 
  286000    1.1923129   -4.1970612    238.10048  0.069376598   0.07209402            3 
  287000    1.2079522   -4.1881451    239.19699  0.069453249  0.072076717            2 
  288000    1.1980282    -4.219518    238.95702  0.069142655  0.072061575            3 
  289000    1.2383211   -4.2525141    239.73632   0.06912812    0.0720477            1 
  290000     1.179819   -4.2610644    241.12492  0.069288769  0.072034032            2 
  291000    1.2343755   -4.2336769    242.62708  0.069480837  0.072020905            1 
  292000    1.2030295   -4.2380159    242.03733  0.069074582  0.072005846            2 
  293000    1.2170565   -4.1958767    242.81051  0.069058735  0.071991081            2 
  294000    1.2087642   -4.2519531     243.4856  0.069015193  0.071974706            2 
  295000    1.1936061   -4.2732766    243.28232  0.068723819  0.071956508            2 
  296000    1.2169015   -4.2278267    244.85772  0.068935168  0.071939147            1 
  297000    1.2082713   -4.2330796    245.49867  0.068882904  0.071922166            2 
  298000    1.2259113   -4.2256457    246.47308  0.068924241  0.071906568            2 
  299000    1.2152352   -4.2445921    245.72022  0.068483897  0.071886238            2 
  300000    1.1815012   -4.2099745    248.49524  0.069026456  0.071869927            1 
  301000    1.1901406    -4.234013    248.88985  0.068906381   0.07185199            1 
  302000    1.1856977   -4.2220521    249.84349  0.068941361  0.071831612            2 
  303000    1.2170691   -4.2303387    250.50033  0.068894481   0.07181156            1 
  304000      1.18588   -4.2010659    252.79278  0.069296266  0.071793816            3 
  305000    1.1627493   -4.2258314    251.50674  0.068717687  0.071777142            2 
  306000    1.1921936   -4.2557813     253.1795  0.068948665  0.071760739            2 
  307000     1.205958   -4.2159999    254.58243  0.069104895  0.071745854            5 
  308000    1.1990724   -4.2620333    254.85333  0.068953822  0.071732518            2 
  309000    1.1910543   -4.2334149    256.59246  0.069199691  0.071717735            1 
  310000    1.2229142   -4.2714703     257.4944  0.069218926  0.071705589            3 
  311000    1.1765606   -4.2492012    258.35911  0.069228056  0.071694124            1 
  312000    1.1775574   -4.2384481    259.11352  0.069207672  0.071684296            2 
  313000    1.1927478   -4.2281233    259.28448  0.069032077   0.07167476            3 
  314000     1.218917   -4.2335588    259.24341   0.06880133  0.071660902            3 
  315000    1.2013435   -4.2841385    259.73948  0.068714147  0.071646481            1 
  316000     1.172443   -4.2142483    262.40921  0.069200742  0.071633992            1 
  317000    1.2268368   -4.2742831    262.78071  0.069080103  0.071621681            2 
  318000    1.2022975   -4.2209011    263.93561  0.069165516  0.071609796            4 
  319000    1.1959672   -4.2559137    264.36915  0.069061951  0.071598052            2 
  320000    1.1854042   -4.2158704     265.0056  0.069011874  0.071582966            2 
  321000    1.2178264   -4.2312307     265.8104  0.069005814  0.071567928            2 
  322000    1.2059713   -4.2602539     266.0648   0.06885735  0.071552157            3 
  323000    1.1835966   -4.2330915    267.22982  0.068944742  0.071535195            2 
  324000    1.2303558   -4.2279825    266.35603  0.068507208  0.071518909            1 
  325000    1.2076258   -4.2281638    268.35837  0.068809839  0.071500004            3 
  326000    1.1906681   -4.2127565    269.44802  0.068877307  0.071481349            3 
  327000    1.2053528   -4.2412653    269.19755  0.068602842  0.071462336            1 
  328000    1.1890076   -4.2564683    269.59919  0.068495728   0.07144417            3 
  329000    1.2014175   -4.2130219    271.64725  0.068806295  0.071425395            1 
  330000    1.1978668   -4.2216039    270.95394  0.068422712  0.071405699            2 
  331000    1.1931144   -4.2619393    271.83341  0.068437413  0.071385036            2 
  332000    1.1877207   -4.2034119    274.63643  0.068934848  0.071364084            1 
  333000    1.2101955   -4.2292255     274.0585  0.068583208  0.071343689            3 
  334000    1.1965196   -4.2415712    274.64967  0.068525366  0.071326545            2 
  335000    1.1949712   -4.2269789    275.62998   0.06856467  0.071309942            2 
  336000    1.1934253   -4.2237942    278.21033  0.069000577  0.071292186            1 
  337000    1.1871251   -4.2540923    277.70327  0.068670443  0.071275423            2 
  338000    1.1632106   -4.2629719    279.01707   0.06879119  0.071260312            2 
  339000    1.2048899     -4.24783    280.59462  0.068976061  0.071245625            2 
  340000    1.1960197   -4.2569017    281.12363  0.068902851  0.071235069            2 
  341000    1.1949981   -4.2605488    282.16776  0.068955953  0.071224725            1 
  342000    1.1954493   -4.2236913    281.80835  0.068666753  0.071213698            4 
  343000    1.2178058    -4.224056    284.44352  0.069106784  0.071201658            1 
  344000    1.2108109    -4.213293    284.64349  0.068954334  0.071191365            2 
  345000    1.2141531   -4.2503795    284.93403  0.068824644  0.071180241            1 
  346000    1.1819301   -4.2736826    286.46629  0.068994771  0.071170741            3 
  347000    1.1876826   -4.2534118    287.40442  0.069021233  0.071159562            2 
  348000    1.2152496   -4.2487411    287.24283  0.068784203  0.071147215            2 
  349000    1.2060329   -4.2781207    287.64397  0.068682896  0.071134872            2 
  350000    1.1707875   -4.2670119     288.8927  0.068783977  0.071122607            2 
  351000    1.1805451   -4.2497122     290.0191  0.068855436  0.071108824            2 
  352000    1.1822867   -4.2343191    291.45106   0.06899883  0.071095836            2 
  353000    1.2197493   -4.2615008    291.46399  0.068806419  0.071082787            3 
  354000    1.1920123   -4.2494706    291.34543  0.068584141  0.071070234            3 
  355000    1.1753044   -4.2865124    292.81752  0.068736508  0.071057916            2 
  356000    1.2207785   -4.2457301    294.17107  0.068860269  0.071044718            1 
  357000    1.1874008    -4.243352    295.32817  0.068937482  0.071033162            2 
  358000    1.1820645   -4.2396085    295.53628   0.06879336  0.071020833            1 
  359000    1.1982889   -4.2475638    296.33417  0.068786946  0.071006428            3 
  360000    1.2167241   -4.2318051    296.92072  0.068731648  0.070993421            2 
  361000    1.1829482   -4.2805664    296.29947  0.068397845  0.070977327            3 
  362000     1.181312   -4.2379433    298.62049  0.068743206   0.07096348            3 
  363000    1.1779105   -4.2626154    298.73959  0.068581174  0.070951237            3 
  364000    1.2017798   -4.2263576    300.56041  0.068809618  0.070939107            2 
  365000    1.1844283   -4.2237022    302.29553  0.069017244   0.07092613            1 
  366000    1.1994577   -4.2368986    301.91242  0.068741444  0.070912058            3 
  367000    1.1928144   -4.2644017    302.25914  0.068632865  0.070898694            3 
  368000    1.1924316   -4.2629166    303.57886  0.068745212  0.070884537            2 
  369000    1.2134502    -4.245381    305.31595  0.068951209  0.070871442            1 
  370000    1.1910246   -4.2384664    304.66571  0.068618402  0.070859601            2 
  371000    1.1855745   -4.2732266    305.27153  0.068569526  0.070847969            5 
  372000    1.1786317    -4.237898    306.27225  0.068609375  0.070833265            5 
  373000    1.1880522   -4.2378187    309.47871  0.069141802  0.070821241            2 
  374000    1.1674147   -4.2118397    308.55311  0.068750692  0.070808496            3 
  375000    1.1646648   -4.2217524    310.28018  0.068951151  0.070799653            4 
  376000    1.1688359   -4.2452504    308.32452  0.068334336  0.070787865            1 
  377000     1.180019   -4.2704514    310.23084  0.068574456  0.070774193            1 
  378000     1.201006   -4.2514878    313.11547  0.069028984  0.070762944            3 
  379000    1.2236998   -4.2513427    313.38147  0.068905337   0.07075436            3 
  380000    1.1914231   -4.2366774    313.89306  0.068836197  0.070744188            2 
  381000    1.2090748   -4.2812608    314.33814  0.068752874  0.070732985            5 
  382000    1.1957201   -4.2238372    315.70848  0.068871832  0.070724246            3 
  383000    1.1634782   -4.2407131    316.97884  0.068968417  0.070717981            2 
  384000    1.2114687   -4.2413976    318.25601  0.069065974  0.070711979            2 
  385000    1.1910105   -4.2293587    316.97214  0.068608688  0.070704359            2 
  386000    1.2040349   -4.2641879    318.81449  0.068828689  0.070697358            2 
  387000    1.2083932   -4.2502067     321.0665  0.069135765  0.070689754            1 
  388000    1.2297679   -4.2470528    321.36386  0.069021449  0.070682725            1 
  389000    1.1546832   -4.2588103    321.22588  0.068814455  0.070674473            4 
  390000    1.1959429    -4.263128    322.15003  0.068835477   0.07066555            1 
  391000    1.1880136   -4.2595096    322.29296   0.06868989  0.070658094            2 
  392000    1.1999582   -4.2482039     323.8298  0.068841368  0.070649669            3 
  393000    1.1760341   -4.2355196    325.00307  0.068914985  0.070642801            2 
  394000    1.2118768   -4.2522237    324.64033  0.068663352  0.070635413            2 
  395000    1.2023805   -4.2723013     325.4722  0.068665021  0.070625925            1 
  396000    1.1749144   -4.2687561    327.11375  0.068837068  0.070618171            1 
  397000     1.201657   -4.2437845    328.02498   0.06885495  0.070610213            2 
  398000    1.1757919   -4.2249506    329.90061  0.069074668   0.07060106            3 
  399000    1.2084337   -4.2452426    328.98615  0.068710557  0.070591506            4 
  400000    1.1885066   -4.2205158    330.07287  0.068765182  0.070581781            1 
  401000    1.1957805   -4.2475049    331.19314  0.068826505  0.070570223            2 
  402000    1.1549008   -4.2828757    329.42545  0.068288857  0.070557409            2 
  403000    1.1818964   -4.2533144    330.07428  0.068253574  0.070543547            2 
  404000    1.1740002   -4.2747008     330.8165  0.068237727  0.070527986            3 
  405000    1.1759714   -4.2246152    331.45304  0.068200214  0.070510358            4 
  406000    1.1865319   -4.2143064    332.06453  0.068157743  0.070491195            4 
  407000    1.1694424   -4.2405868    332.80116  0.068141105  0.070472678            2 
  408000    1.1847962   -4.3035357    333.01035  0.068016821  0.070453206            2 
  409000    1.1957997   -4.2534357    334.07248  0.068066928  0.070432169            2 
  410000    1.1793566   -4.2309137    335.17236  0.068124464  0.070412353            3 
  411000    1.1974471   -4.2684776     334.5947  0.067841585  0.070391571            2 
  412000    1.1946955   -4.2769873    336.14989  0.067991482  0.070369664            1 
  413000    1.1819736    -4.260834    336.21856  0.067840711  0.070348846            2 
  414000    1.2007499   -4.2560482    336.92943  0.067819934  0.070328164            3 
  415000    1.1681344   -4.2654686    338.88524  0.068049244  0.070306591            2 
  416000    1.1901792   -4.2573181    338.65927  0.067840398  0.070285917            1 
  417000    1.1934305   -4.2768679    340.24747  0.067995098  0.070265243            5 
  418000    1.1744078   -4.2756538    340.86087  0.067954718  0.070246098            2 
  419000     1.206099   -4.2512083    341.80944  0.067981192  0.070225868            3 
  420000    1.1657096   -4.2985765    341.99853  0.067856851  0.070206519            2 
  421000    1.1839167   -4.3161342    341.26353  0.067550184  0.070186401            2 
  422000     1.162564   -4.2417948    342.42779  0.067620022  0.070164827            3 
  423000    1.1580489   -4.2516301     342.2851  0.067432054  0.070141777            3 
  424000    1.2147413   -4.2391697    344.08923    0.0676276  0.070118798            2 
  425000    1.1739562   -4.2331592     346.3034  0.067902628  0.070095855            6 
  426000    1.1671138   -4.2664072    346.14355  0.067711961  0.070076288            2 
  427000    1.1868252   -4.2825768    347.11798  0.067743555  0.070057548            3 
  428000    1.1900324   -4.2351191    349.51241  0.068051481  0.070037963            2 
  429000    1.1491147    -4.265096    348.60992  0.067717544  0.070018828            2 
  430000    1.1929687    -4.264466    349.98174  0.067825919  0.069998546            1 
  431000    1.1963007   -4.2677851    350.09751  0.067690934  0.069979315            1 
  432000    1.1751668   -4.2760436    351.22593  0.067751916  0.069959527            1 
  433000    1.1573619   -4.2712189    351.86289  0.067718031   0.06993873            2 
  434000    1.1852616   -4.2138914    353.52756  0.067881637  0.069921309            2 
  435000    1.1854095   -4.2671833    353.72199  0.067762834  0.069902026            2 
  436000    1.1653022   -4.2531923    354.71307  0.067796841   0.06988415            4 
  437000    1.1860649   -4.2654373     356.0433  0.067895367   0.06986701            2 
  438000    1.1711704    -4.297827    356.56024  0.067838706  0.069847812            1 
  439000    1.1649532   -4.2847532    356.69141  0.067709076   0.06982893            2 
  440000    1.1620917   -4.2689269    359.70774  0.068126465  0.069811495            2 
  441000    1.1809792   -4.2786002    359.04916  0.067847535  0.069794018            2 
  442000     1.182693    -4.302466    358.83944  0.067654495  0.069776255            2 
  443000    1.1893455   -4.2531111     361.0094  0.067909969  0.069760717            2 
  444000    1.1634527   -4.2856538    361.18826   0.06779059  0.069743726            2 
  445000    1.1717828   -4.2727503    360.41985  0.067494354  0.069727583            2 
  446000    1.2082115   -4.2933802    361.01156   0.06745358  0.069710503            3 
  447000    1.1668631   -4.2702771    362.51606  0.067583158  0.069693438            2 
  448000    1.1907935   -4.2462523     364.3396  0.067771502  0.069676651            1 
  449000    1.1513582   -4.2315064    364.94701  0.067733297  0.069660256            4 
  450000    1.1656009   -4.2654762    365.64637   0.06771229   0.06964255            2 
  451000    1.1606377   -4.2925128    367.19437  0.067848184  0.069626178            3 
  452000    1.2183892   -4.2447129     367.4649  0.067747954  0.069609433            5 
  453000    1.1858415   -4.2874277    369.13069  0.067904836  0.069593048            3 
  454000    1.1798999   -4.2715878     368.9777  0.067727184   0.06957802            3 
  455000    1.1791218    -4.255138    369.30797  0.067638822  0.069560527            1 
  456000    1.1898044   -4.2954437    369.56594  0.067537635  0.069545004            3 
  457000    1.1673791   -4.2896398    369.26113  0.067334269  0.069527449            1 
  458000    1.1496964   -4.2313893    372.25045  0.067731159  0.069510744            4 
  459000    1.1915713   -4.2589067    373.05003  0.067728764  0.069494642            2 
  460000    1.1901733   -4.2709869    372.17012  0.067422123  0.069477104            3 
  461000       1.1902   -4.2962401    372.33517  0.067305707  0.069459916            3 
  462000    1.1898116   -4.2883429     374.3116  0.067516523  0.069442243            2 
  463000    1.1740421   -4.2370963    375.39617  0.067565906  0.069425384            2 
  464000    1.1866245   -4.2879607    375.09204  0.067365668  0.069407252            2 
  465000    1.1879002   -4.2298284    379.26785   0.06796915  0.069391051            1 
  466000    1.1667329   -4.2646587    378.46043  0.067678903  0.069376726            1 
  467000    1.1917362    -4.276204    378.42327   0.06752735  0.069362753            2 
  468000    1.1797752   -4.2577205    380.52283  0.067756914  0.069347862            2 
  469000    1.1645285   -4.2508453    380.28417  0.067570037  0.069334583            2 
  470000    1.1792512   -4.2963049    380.05478  0.067385599  0.069318479            1 
  471000    1.1819533   -4.3007182    381.54096  0.067505477   0.06930154            2 
  472000    1.1891272   -4.3027894    382.21885  0.067482141  0.069285634            2 
  473000    1.1679748   -4.2755095    382.58895  0.067404677  0.069269135            3 
  474000    1.1882889    -4.276061    385.75499  0.067819091  0.069251602            1 
  475000    1.1979423   -4.2910642     382.5105  0.067107105  0.069232988            2 
  476000    1.1722024   -4.2885794    383.21333  0.067089168  0.069214675            6 
  477000    1.1698721   -4.2728853    385.71853  0.067386186  0.069196566            2 
  478000    1.1704394   -4.3002528    386.09509  0.067310859  0.069178253            2 
  479000    1.1704738      -4.3207    386.56951  0.067252872   0.06916101            2 
  480000    1.1785626   -4.3012764     388.1136  0.067380832  0.069144697            2 
  481000    1.1867714   -4.2608234    387.71756  0.067172135  0.069126932            1 
  482000    1.1563082   -4.2676311    389.02961  0.067259615  0.069108934            2 
  483000    1.1565289   -4.3180972    388.55597  0.067038642  0.069090649            3 
  484000    1.1701321   -4.2704611    389.64666  0.067087923  0.069073337            3 
  485000    1.1844756   -4.2615901    390.74603  0.067138492  0.069056647            1 
  486000    1.1919826    -4.233695    392.45897  0.067294061  0.069037765            2 
  487000    1.1885965   -4.2901801    392.61982  0.067183405  0.069020738            2 
  488000    1.1643567   -4.2583532    393.15766  0.067137579  0.069002885            1 
  489000    1.1704179   -4.2712657    394.19922  0.067177781  0.068985236            1 
  490000    1.1798395    -4.292837    392.55503   0.06676106  0.068965541            6 
  491000    1.1531896   -4.2535713    393.94737  0.066861401  0.068946866            2 
  492000    1.1665141   -4.3045227    395.89984  0.067056206   0.06892793            4 
  493000    1.1681496   -4.2796955    397.50947   0.06719227  0.068909418            1 
  494000    1.1889052   -4.2272968     396.2504  0.066843859  0.068891663            1 
  495000    1.1836948   -4.2715345    397.68403  0.066950173  0.068873645            3 
  496000    1.1821745   -4.2528546    399.30939  0.067088272  0.068855791            2 
  497000     1.164005   -4.2625087    402.03039  0.067409521  0.068839946            3 
  498000    1.1866459   -4.2953265    401.30142  0.067152178  0.068823949            2 
  499000    1.1505807   -4.2716417    403.33997  0.067358044  0.068809475            2 
  500000    1.1492735   -4.3157806    401.49809  0.066916349  0.068792914            2 
  501000    1.1788999   -4.2681473    404.07403   0.06721125  0.068775122            2 
  502000    1.1588521   -4.2547429    404.33087  0.067119999  0.068758141            2 
  503000    1.1714957   -4.2692354    405.73696  0.067219509  0.068741675            4 
  504000    1.1684028   -4.2924389    406.07622  0.067142233   0.06872567            3 
  505000    1.1638649    -4.281018    406.54669  0.067086913  0.068709721            3 
  506000    1.1731516   -4.2573382    407.22851  0.067066618  0.068693732            2 
  507000    1.1540778   -4.3004529    405.50722  0.066651417   0.06867623            1 
  508000    1.1705694   -4.2692028    408.10917  0.066947042   0.06865859            1 
  509000    1.1667303   -4.2800018    407.98685   0.06679549  0.068642282            4 
  510000     1.167232   -4.2765109    412.14473   0.06734391  0.068626311            3 
  511000    1.1790539   -4.2670529    410.44285   0.06693458  0.068611206            1 
  512000    1.1751434   -4.2988317    412.71199  0.067173176  0.068596738            8 
  513000    1.1347385    -4.290302    410.84594  0.066739106  0.068579894            2 
  514000    1.1618585   -4.2995284    410.89373  0.066617012  0.068561635            4 
  515000    1.1677995   -4.2894626    411.87735  0.066646821  0.068543046            2 
  516000    1.1495934   -4.2904952    412.57341  0.066630073  0.068525395            3 
  517000    1.1838225   -4.2896061    414.05942  0.066740719  0.068507654            3 
  518000     1.142761   -4.2902823    414.30746   0.06665178  0.068487644            2 
  519000    1.1929279   -4.2981657     414.2968  0.066521645  0.068468862            2 
  520000    1.1400906   -4.2955377    416.35007  0.066722768  0.068448687            3 
  521000     1.152786   -4.2384793    417.02189  0.066702158  0.068430385            4 
  522000    1.1718349   -4.3110774    416.89076  0.066553442  0.068412301            4 
  523000    1.1415818   -4.3022582     417.9069  0.066588097  0.068394596            2 
  524000    1.1930843   -4.2833277    419.15154   0.06665896  0.068376936            4 
  525000    1.1603698   -4.3217926    418.59258  0.066443266  0.068358499            1 
  526000     1.148916   -4.3004738    420.05024  0.066547884  0.068339176            2 
  527000    1.1691039   -4.2501787    423.02043  0.066891275  0.068321087            5 
  528000    1.1762667   -4.2770927    421.75486  0.066564845  0.068302326            2 
  529000     1.174791   -4.3203648    422.45575  0.066549425  0.068285137            3 
  530000    1.1691154   -4.2268636    424.34409  0.066720769  0.068267869            2 
  531000    1.1537863   -4.2936363    422.66779  0.066332045  0.068250123            8 
  532000    1.1806442   -4.2601315    424.21143  0.066449159  0.068231986            3 
  533000    1.2013201   -4.2343423     428.7123  0.067028189  0.068215018            1 
  534000    1.1494672   -4.2955406    426.01365  0.066481532  0.068197928            2 
  535000    1.1638743   -4.2746241    427.95726  0.066660009  0.068179902            1 
  536000    1.1653525   -4.2894478    428.25539  0.066581995  0.068162268            2 
  537000    1.1709687   -4.2779424    427.14953  0.066286394  0.068144465            1 
  538000     1.193109   -4.2730283    429.07224  0.066461003  0.068125226           10 
  539000    1.1694489    -4.316188    429.42563  0.066392336  0.068106513            2 
  540000    1.1855278   -4.3121957    430.23995  0.066395053  0.068086844            1 
  541000    1.1673311   -4.3128858    429.21998  0.066115215  0.068068251            3 
  542000    1.1748728   -4.2822223    431.16411  0.066292144  0.068050194            8 
  543000    1.1424062   -4.3071411    433.67176  0.066554905  0.068033985            4 
  544000    1.1553871   -4.2952021    434.17891  0.066510249  0.068016554            2 
  545000    1.1635931   -4.2583663    435.65147  0.066613375  0.068000526            2 
  546000    1.1472936   -4.2927116    437.74677  0.066811168  0.067984551            3 
  547000    1.1352719   -4.3067924    434.43085  0.066183859   0.06796827            3 
  548000    1.1699696   -4.2559423    437.55354  0.066537946  0.067951107            2 
  549000    1.1527189   -4.3115388    437.44277  0.066399935  0.067935158            1 
  550000    1.1706949   -4.3076122    439.12522  0.066534124  0.067919758            2 
  551000    1.1892173   -4.3124515    440.29219  0.066589865  0.067905522            3 
  552000    1.1533202    -4.268666    440.21359  0.066457366   0.06789149            4 
  553000    1.1579028   -4.3267945    440.91109  0.066442297  0.067876456            2 
  554000    1.1661913   -4.2566675    441.79859  0.066455865  0.067862728            2 
  555000    1.1805322   -4.3320943    441.77535  0.066332635  0.067849099            2 
  556000    1.1697524   -4.3026158    445.27622  0.066738043  0.067833667            2 
  557000    1.1339967   -4.2461066    445.03404  0.066581993  0.067818954            1 
  558000    1.1499384   -4.2948938    443.98693  0.066306292  0.067804315            2 
  559000    1.1674414    -4.295455    446.33603  0.066537869  0.067789186            4 
  560000    1.1718582   -4.3085134    446.59258  0.066457229  0.067773521            1 
  561000    1.1583027   -4.3302294    446.99577  0.066398659  0.067759078            2 
  562000    1.1533363   -4.3002967    447.22456  0.066314437  0.067744859            2 
  563000    1.1771134   -4.2832297    450.36265  0.066661138  0.067730665            3 
  564000    1.1562695   -4.2923712     450.2454  0.066525621  0.067717255            4 
  565000    1.1506078   -4.2738973    451.40954  0.066579579  0.067703636            1 
  566000    1.1742275   -4.2808783    451.86813  0.066529466   0.06769017            1 
  567000    1.1470137   -4.2850656    452.36121  0.066484599  0.067677095            2 
  568000    1.1570851   -4.3066835    451.61849  0.066258581  0.067663762            1 
  569000    1.1851473    -4.328775    453.73026  0.066451414  0.067649956            2 
  570000    1.1579678   -4.2797746    456.40306  0.066725593  0.067637115            2 
  571000    1.1652243   -4.2699619    456.10813  0.066565693   0.06762426            3 
  572000    1.1413823   -4.3021069    457.30916  0.066624294  0.067611608            3 
  573000    1.1489688   -4.2804537    456.64382   0.06641126  0.067598242            3 
  574000      1.15852    -4.317865    457.32903  0.066395039  0.067585484            2 
  575000     1.146617   -4.3019449    459.14028  0.066542069   0.06757265            3 
  576000    1.1711789   -4.2945544    460.09353  0.066564457  0.067560454            4 
  577000    1.1450846   -4.3003489    459.19303   0.06631904  0.067548576            3 
  578000    1.1872769   -4.2840034    461.80237  0.066580503  0.067535194            1 
  579000    1.1577061     -4.29288    460.61463  0.066294564  0.067521197            2 
  580000    1.1609246   -4.3321809    461.25008  0.066271563  0.067508312            1 
  581000    1.1694194   -4.2811132    463.67587  0.066505432  0.067495478            2 
  582000    1.1696977   -4.2861306    463.45147  0.066359031  0.067482854            2 
  583000    1.1471335   -4.2910744    464.67221  0.066419698  0.067470358            3 
  584000    1.1810544    -4.263284    464.56063  0.066290044  0.067457403            4 
  585000    1.1492068   -4.3255596    463.96315  0.066091617  0.067443936            2 
  586000    1.1682246   -4.2949568     468.4308  0.066614164  0.067429989            2 
  587000    1.1711965   -4.3248846    466.02583   0.06615926  0.067415113            2 
  588000      1.16197   -4.3188368    468.13379  0.066345492  0.067399716            4 
  589000    1.1749773   -4.3262135    468.27687  0.066253095  0.067385919            2 
  590000    1.1500975   -4.3135504     466.7557  0.065925946  0.067372372            2 
  591000    1.1449808   -4.2882618    469.05859  0.066139113  0.067357025            2 
  592000    1.1529548   -4.3126086    466.97751  0.065734446  0.067340783            2 
  593000     1.154446   -4.2891095    471.69964   0.06628719  0.067325102            2 
  594000    1.1785743   -4.3444292    469.56891  0.065876671  0.067308971            1 
  595000    1.1523855   -4.3029723    469.67723  0.065781125  0.067293484            2 
  596000    1.1645211   -4.2914175    472.70306  0.066093828   0.06727717            2 
  597000    1.1702922   -4.3175578    471.66604  0.065838364  0.067261179            3 
  598000    1.1510211   -4.3171691    472.39995   0.06583054   0.06724651            3 
  599000    1.1597116   -4.2886058    473.05069   0.06581117  0.067232231            4 
  600000    1.1273937   -4.3115829    477.13464    0.0662687  0.067218842            3 
  601000    1.1442129   -4.3090483    477.77992  0.066247909  0.067206166            2 
  602000    1.1463988   -4.2859282    479.32507  0.066351754  0.067193849            2 
  603000    1.1750422   -4.3146219    476.18059  0.065807158  0.067178979            1 
  604000    1.1665612   -4.3239773     477.4823  0.065877801  0.067164306            2 
  605000    1.1686919   -4.3376465    476.42554  0.065623353  0.067148502            2 
  606000    1.1616603   -4.2829186    478.81468  0.065843603  0.067133044            3 
  607000    1.1677768   -4.3056395    479.31021  0.065803159  0.067118328            1 
  608000    1.1610552   -4.3072842    481.11758   0.06594265  0.067103469            2 
  609000    1.1595367   -4.2985951    482.75611  0.066058581  0.067088984            1 
  610000    1.1423593   -4.3298834    480.19135  0.065599912  0.067074513            3 
  611000    1.1773322    -4.288627    484.49062  0.066078917  0.067060197            5 
  612000    1.1458119   -4.3112803    483.04495  0.065774094  0.067045586            1 
  613000    1.1689133   -4.2910076     484.2147  0.065825815  0.067030799            2 
  614000    1.1729421   -4.3123676    485.36117  0.065874208  0.067016821            5 
  615000    1.1735147   -4.3117891    484.92041  0.065707372  0.067002588            3 
  616000    1.1556437   -4.3331802    486.64656   0.06583422  0.066988186            1 
  617000    1.1290785   -4.3083085    487.00915  0.065776493   0.06697274            2 
  618000     1.117357   -4.2888446    488.16148  0.065825443  0.066958861            3 
  619000     1.135055   -4.3182331    489.92701  0.065956787  0.066945044            2 
  620000    1.1516997   -4.2705213    490.17806  0.065884148  0.066931298            1 
  621000    1.1636756   -4.3040351    491.60171  0.065969097  0.066917683            3 
  622000    1.1438818   -4.3270984    491.27818  0.065819692  0.066904163            2 
  623000    1.1848973   -4.3296657    492.78243  0.065915253  0.066890355            1 
  624000    1.1583043   -4.3143719    493.59617  0.065918292  0.066876046            3 
  625000    1.1695833   -4.3198966    490.36958  0.065382611  0.066861974            1 
  626000    1.1646257   -4.3481662    492.40625  0.065549288  0.066847317            5 
  627000     1.156065   -4.3326593    494.42134  0.065712565  0.066832619            2 
  628000    1.1282527    -4.332335    494.22593  0.065581997  0.066818694            2 
  629000    1.1278942   -4.3118915     496.0203  0.065715461  0.066804819            3 
  630000    1.1420004   -4.3197149    497.55421  0.065814049   0.06679063            2 
  631000    1.1237038   -4.3478552    495.93205  0.065495516  0.066776102            4 
  632000    1.1439126   -4.3269235    497.06298  0.065541004  0.066762456            3 
  633000    1.1550967   -4.3224248    497.91942  0.065550213  0.066747276            2 
  634000    1.1471751   -4.2877911    501.68857  0.065942241  0.066732552            2 
  635000    1.1570088     -4.31202    500.96521  0.065743466  0.066718357            4 
  636000    1.1382727   -4.3266818    498.89232  0.065368491  0.066704507            2 
  637000    1.1758222   -4.2705972    502.81139   0.06577857  0.066690724            1 
  638000    1.1651135   -4.3379176     498.3528  0.065093103  0.066676112            3 
  639000    1.1375457   -4.2875876    504.80323   0.06583245  0.066661891            1 
  640000    1.1426442   -4.3344819    504.12554  0.065641346  0.066649845            3 
  641000    1.1385052   -4.3118285    504.34919  0.065568017  0.066636722            3 
  642000    1.1856319     -4.32498    504.84631  0.065530414  0.066622746            3 
  643000    1.1398728   -4.2893186    506.37857  0.065627082  0.066609317            1 
  644000    1.1726119   -4.3125795    505.85508  0.065457438  0.066597089            2 
  645000    1.1305283    -4.328531    509.29423  0.065800288  0.066584593            1 
  646000    1.1654296   -4.3369432    510.03177  0.065793572  0.066571301            4 
  647000     1.178874   -4.3262595    509.21002   0.06558604  0.066558715            1 
  648000    1.1371257   -4.2992524    508.32751  0.065371337  0.066545449            2 
  649000    1.1246196   -4.3247934    509.59648   0.06543355   0.06653135            1 
  650000      1.15239   -4.3256707    511.46597   0.06557256  0.066517893            2 
  651000    1.1649791   -4.2953683    511.53656   0.06548087  0.066503909            5 
  652000    1.1619796    -4.299431    512.13858  0.065457385  0.066490502            4 
  653000    1.1314567   -4.2887131    518.20854  0.066131769  0.066477981            1 
  654000    1.1472362   -4.3335612     515.3439  0.065665634  0.066465558            4 
  655000    1.1432414   -4.3105561    516.55083  0.065718935  0.066453474            2 
  656000    1.1357043   -4.2854354    517.26121  0.065708995  0.066442233            1 
  657000    1.1418319    -4.307852    517.68557  0.065662806  0.066431095            3 
  658000    1.1403294   -4.3189636    517.97379  0.065599517  0.066419473            4 
  659000     1.118951   -4.3213464    519.16901  0.065651114  0.066408461            4 
  660000    1.1405165   -4.2913184    520.66592  0.065740646  0.066397897            3 
  661000    1.1192912   -4.3493601    518.34742  0.065348894  0.066386099            2 
  662000    1.1474829   -4.3081481    520.98938  0.065582752  0.066374374            2 
  663000    1.1202232   -4.3347731    521.03022  0.065488967  0.066363778            3 
  664000    1.1456496   -4.3080561    523.65481   0.06571973  0.066352006            2 
  665000    1.1426616    -4.341416    521.65134  0.065369842  0.066339436            5 
  666000    1.1310669   -4.3595135    520.89691  0.065177291  0.066326595            2 
  667000    1.1346651   -4.3384086    523.97472  0.065464108  0.066313112            5 
  668000    1.1328132   -4.3147768    523.61407  0.065321116  0.066299723            1 
  669000    1.1579605   -4.3507663    524.39997  0.065321371  0.066286164            3 
  670000    1.1408329   -4.3339594    525.20558  0.065324076  0.066272031            3 
  671000    1.1163465   -4.3368489    525.76337  0.065295998  0.066258904            2 
  672000    1.1461978   -4.3079423    528.92453   0.06559084  0.066245284            4 
  673000    1.1433948   -4.3435821    526.10439  0.065144179   0.06623286            5 
  674000    1.1454931   -4.3236759    529.60116  0.065479866  0.066220796            3 
  675000    1.1404585    -4.362603    527.74528  0.065153738  0.066208904            4 
  676000    1.1368539   -4.3466483    529.25245  0.065243152  0.066195758            2 
  677000    1.1296739   -4.3462872    531.49234  0.065422494  0.066183707            4 
  678000    1.1312028   -4.2966831      531.872  0.065372665  0.066172212            2 
  679000    1.1294372   -4.3285271    534.72693  0.065626771  0.066160789            2 
  680000    1.1486348   -4.3452637    532.53885  0.065262114  0.066148652            2 
  681000    1.1034235   -4.3625901    532.76615  0.065194096  0.066136089            1 
  682000    1.1391746   -4.2547597    536.06586  0.065501694  0.066124344            2 
  683000    1.1641296   -4.2961794    535.32278  0.065315127  0.066111615            3 
  684000    1.1443058   -4.3162076    535.63491  0.065257665  0.066098387            2 
  685000    1.1062969   -4.3477597    536.36308  0.065250982  0.066085618            3 
  686000    1.1408943   -4.3195262    537.30743  0.065270582  0.066071987            2 
  687000    1.1131179   -4.3365349    536.79537  0.065113461  0.066058891            3 
  688000    1.1366007   -4.3282211    537.10971  0.065056894  0.066045661            3 
  689000    1.1293206   -4.3508236    537.28276  0.064983401  0.066032221            4 
  690000    1.1130464   -4.3216018    538.33549  0.065016364  0.066018446            3 
  691000    1.1499809   -4.3685352    536.26554  0.064672642  0.066004261            3 
  692000    1.1398235   -4.2988293    540.65873  0.065108229  0.065989851            5 
  693000    1.1404685   -4.3414449    540.34339  0.064976357  0.065975659            2 
  694000    1.1515642    -4.351041    538.32424  0.064640279  0.065960866            2 
  695000    1.1584316   -4.3531251    541.08542  0.064878347  0.065945907            2 
  696000    1.1419351   -4.3410823    539.76212  0.064626691  0.065930131            5 
  697000    1.1458959   -4.3408076    543.60018  0.064992848  0.065914886            2 
  698000    1.1581414   -4.2873672     542.2499  0.064738526  0.065898994            2 
  699000    1.1187496    -4.339723    542.93419  0.064727491   0.06588351            1 
  700000    1.1488746   -4.3533776    546.78265  0.065093172  0.065868708            3 
  701000    1.1352562   -4.3008541    546.53436  0.064970799  0.065854045            2 
  702000    1.1561637   -4.3252542     547.5718  0.065001401  0.065840189            2 
  703000    1.1106946   -4.3478346    546.87177  0.064825956  0.065826292            2 
  704000    1.1670797   -4.3067314    548.84938  0.064967967  0.065812878            3 
  705000    1.1208468   -4.3523474    547.33132  0.064696373  0.065799785            3 
  706000    1.1305394   -4.3264951    550.59298  0.064989728  0.065785758            2 
  707000    1.1575033   -4.3486226    550.30265  0.064863585   0.06577226            1 
  708000    1.1517534   -4.3411764    551.86811  0.064956227  0.065758491            1 
  709000    1.1338479   -4.3357368     552.0791   0.06488941  0.065744695            2 
  710000    1.1326431   -4.3243393    552.21247   0.06481367  0.065731911            4 
  711000    1.1248657   -4.3594194     552.6227  0.064770593  0.065718951            1 
  712000    1.1525448   -4.3153632    552.95806  0.064718874  0.065705708            2 
  713000    1.1584548   -4.3645727    555.50722  0.064926043  0.065692526            4 
  714000    1.1400063   -4.3130463    555.85038  0.064875161  0.065679558            2 
  715000    1.1764774   -4.3336586    556.07517  0.064810626  0.065666576            1 
  716000    1.1234475   -4.3452286    556.18693  0.064733115  0.065653173            3 
  717000    1.1498465   -4.3562158    557.61383  0.064808674  0.065640163            5 
  718000    1.1362984   -4.3551749    556.96988  0.064643672  0.065626462            1 
  719000    1.1130167   -4.3138001    561.13299  0.065036276  0.065613451            1 
  720000    1.1464096   -4.3557679    557.77819   0.06455766  0.065599878            3 
  721000    1.1402849   -4.3334312    560.81845  0.064819516  0.065587565            2 
  722000    1.1281975   -4.3215659    561.60729  0.064820786  0.065575552            2 
  723000    1.1401154   -4.3248843    564.42577   0.06505599  0.065562573            6 
  724000    1.1396831   -4.3059819    562.66897  0.064763924  0.065550163            2 
  725000    1.1133906   -4.3303012    565.46457  0.064995928  0.065538787            3 
  726000    1.1439183   -4.3211177    563.64092  0.064697075  0.065527315            1 
  727000    1.1332797   -4.3540954    561.87571  0.064405744  0.065515452            2 
  728000    1.1234566   -4.3415971    566.57158  0.064854805  0.065501834            3 
  729000    1.1307334   -4.3438473    565.03429  0.064590111  0.065489117            2 
  730000    1.1528434   -4.3139908    568.61181  0.064910024  0.065477216            1 
  731000    1.1285396   -4.3460059    567.67667  0.064714623  0.065465469            2 
  732000    1.1568254   -4.3268818    568.82764  0.064757245  0.065452993            2 
  733000    1.1374523   -4.2844526    570.01673  0.064804085  0.065440799            1 
  734000    1.1236717   -4.3798293     568.7173  0.064568267  0.065428686            1 
  735000    1.0973859   -4.3569532    569.08617  0.064522242  0.065415481            2 
  736000    1.1413992   -4.3453817     569.8513  0.064521207  0.065403435            2 
  737000    1.1406913   -4.3408773    570.74862  0.064535122  0.065391606            2 
  738000     1.134599    -4.349636    570.07327  0.064371417  0.065378683            3 
  739000    1.1218096    -4.306584    574.21349  0.064751183  0.065365736            3 
  740000     1.134184   -4.3382585    572.21301  0.064438402  0.065353001            4 
  741000    1.1389112   -4.3218434     571.7579  0.064300259  0.065339845            5 
  742000    1.1433615    -4.354336    573.32889  0.064390037  0.065326912            4 
  743000    1.1419196   -4.3465413    577.69575  0.064793153  0.065314573            1 
  744000    1.1429931   -4.3284317    576.09216  0.064526452  0.065302185            2 
  745000     1.117211   -4.3413546    576.11957  0.064442905  0.065289874            3 
  746000    1.1751219   -4.3386417    579.43829  0.064727244  0.065277415            5 
  747000    1.1629336   -4.3542296     578.5712  0.064543865  0.065265578            5 
  748000    1.1464026   -4.3547891    579.89506  0.064605064   0.06525337            2 
  749000    1.1410354   -4.3928175    577.94216  0.064301531  0.065242137            3 
  750000     1.126597   -4.3010953    583.88378  0.064875975  0.065230968            6 
  751000    1.1454017   -4.3580794    580.99995   0.06446959  0.065219711            2 
  752000    1.1275268   -4.3180767    584.69001  0.064792776  0.065209012            1 
  753000    1.1367374   -4.3676829    582.66803   0.06448296  0.065198382            2 
  754000     1.130572   -4.3491176      584.438  0.064593059  0.065187272            4 
  755000    1.1176996   -4.3187932    584.85011  0.064552993  0.065175047            3 
  756000    1.1384938   -4.3307481    587.08985   0.06471449  0.065163754            4 
  757000    1.1462687   -4.3545733    586.18626  0.064529531  0.065151742            3 
  758000    1.1313397   -4.3400567    586.28579  0.064455341   0.06513979            2 
  759000    1.1301118   -4.3714815    585.67012  0.064302823  0.065127178            3 
  760000    1.1338032   -4.3678786    584.47473  0.064087141  0.065115225            3 
  761000    1.1188854   -4.3265055    588.50033   0.06444375  0.065104187            2 
  762000    1.1222158   -4.3805716    589.06056  0.064420446  0.065092443            3 
  763000    1.1060933   -4.3736375    588.01803  0.064222153   0.06507943            2 
  764000    1.1634573   -4.3659881    589.84327  0.064337181  0.065066768            4 
  765000    1.1516558   -4.3608489    589.64878  0.064231893   0.06505439            1 
  766000    1.1414972   -4.4135767     588.3268  0.064004221  0.065041724            5 
  767000    1.1259425   -4.3725362    591.74875  0.064292563  0.065028459            2 
  768000     1.168956   -4.3586949    591.24056  0.064153707   0.06501575            2 
  769000    1.0968465   -4.3565376    589.36264   0.06386678   0.06500342            3 
  770000    1.1398582   -4.3554111    592.25468  0.064096827  0.064990638            4 
  771000    1.1302343    -4.391085    593.29573  0.064126213  0.064977597            5 
  772000    1.1451927    -4.336631     597.1582  0.064460082  0.064964604            2 
  773000    1.1118428   -4.3548092    596.31229  0.064285499   0.06495176            2 
  774000     1.110402    -4.377197     595.5567  0.064121091  0.064939166            2 
  775000    1.1368933   -4.3571582    595.14859  0.063994472  0.064925786            3 
  776000    1.1463216   -4.3697984    595.97023  0.064000239  0.064912638            4 
  777000     1.125311   -4.3711661    598.45813  0.064184699  0.064899594            3 
  778000    1.1221912   -4.3323142     599.3109  0.064193541  0.064886362            2 
  779000     1.124609    -4.345011    599.46157  0.064127254  0.064872755            2 
  780000     1.123028   -4.3438223     598.9361    0.0639889  0.064858145            1 
  781000    1.1308708    -4.344295    598.54612  0.063865356  0.064844075            1 
  782000      1.11244   -4.3812467    597.01723  0.063620762  0.064829079            3 
  783000    1.1422583   -4.3639362     598.7963  0.063728853  0.064813761            2 
  784000    1.1316493   -4.3587465    600.05103  0.063780934  0.064798724            2 
  785000    1.1208169   -4.3455163    600.37057  0.063733606  0.064784134            2 
  786000    1.1171731   -4.3694523    600.93942  0.063712831  0.064768691            4 
  787000    1.1221853   -4.3886973    599.56905   0.06348677  0.064752409            3 
  788000    1.1231546    -4.336066    604.48443  0.063926018  0.064736513            3 
  789000    1.1289392    -4.342058    605.05164  0.063904905  0.064721678            3 
  790000    1.1149581   -4.3831389     603.6146  0.063672426  0.064706423            2 
  791000    1.1298807   -4.3472697     606.2812  0.063872861  0.064692067            1 
  792000    1.1074616   -4.3316334    608.25332  0.063999718  0.064677416            6 
  793000    1.1219138   -4.3587414    604.41468  0.063515624  0.064662844            4 
  794000    1.1113401   -4.3720528    605.94791  0.063596548   0.06464867            3 
  795000    1.1076789   -4.3648574    609.00278  0.063836769  0.064634459            1 
  796000    1.1348437   -4.3584874    608.88294  0.063744026  0.064619646            4 
  797000    1.1435105   -4.3422993    609.16341  0.063693372   0.06460467            4 
  798000     1.111792   -4.3689749    608.34644  0.063528242  0.064590867            4 
  799000    1.1405991   -4.3091945    611.55896  0.063783788  0.064576143            2 
  800000    1.1136436   -4.3529049    610.27879  0.063570707  0.064561966            2 
  801000     1.106639   -4.3260454    611.95964  0.063666213  0.064546633            1 
  802000    1.1408391   -4.3827484    610.26406  0.063410647  0.064531658            3 
  803000    1.1254571   -4.3479159    613.66068  0.063684172  0.064517343            4 
  804000    1.1131777   -4.3846203    612.87224  0.063523242  0.064502397            3 
  805000    1.1508937   -4.3407578    616.10174  0.063778648  0.064488695            2 
  806000    1.1442686   -4.3556971    615.09261  0.063595183  0.064475571            2 
  807000    1.1243676   -4.3392143    619.67607  0.063989681  0.064461936            3 
  808000    1.1144262   -4.4000169    617.17789  0.063652835  0.064449264            2 
  809000    1.1239286   -4.3805949    619.68053  0.063831945  0.064435735            3 
  810000    1.1316898   -4.3507125    619.58761  0.063743581  0.064423179            2 
  811000    1.1367678   -4.3525032    620.13797  0.063721534  0.064410636            3 
  812000    1.1331673   -4.3805725    620.63572  0.063694142  0.064398364            4 
  813000    1.1122625   -4.3598038    620.36506  0.063588054  0.064385948            3 
  814000    1.1307294   -4.3546822    622.72425  0.063751459  0.064373211            2 
  815000    1.0991273    -4.357514    624.40288  0.063844876  0.064361098            3 
  816000    1.1142864   -4.3855853    623.30548  0.063654563  0.064349057            3 
  817000    1.1352835   -4.3836348    624.36225   0.06368444  0.064335914            3 
  818000    1.1148846    -4.375256    623.75063  0.063544278  0.064324323            3 
  819000    1.1181322   -4.3683121    625.56598  0.063651402  0.064311358            3 
  820000    1.0915183   -4.3527774    627.02948  0.063722508  0.064298248            9 
  821000    1.1077878   -4.3587788     626.5645  0.063597696   0.06428637            4 
  822000    1.1331003   -4.3307639    630.53169  0.063922515  0.064274463            2 
  823000    1.1281769   -4.3622877    628.41879  0.063630902   0.06426252            1 
  824000    1.1265066   -4.3684417    628.74678  0.063586851   0.06425053            3 
  825000    1.1159348   -4.3629449    630.64208   0.06370122  0.064238366            2 
  826000    1.1228879    -4.408483    630.41893  0.063601587  0.064226414            1 
  827000    1.1159629   -4.3780897    631.54875  0.063638528  0.064214834            4 
  828000    1.1539447   -4.3639703    631.04796  0.063511268  0.064202714            2 
  829000    1.1023916   -4.3411205    633.90341  0.063721694  0.064190428            2 
  830000    1.1282688   -4.3758476    632.05516  0.063459354  0.064178285            4 
  831000    1.1268212   -4.3461036     633.5357  0.063531458  0.064166487            4 
  832000     1.122753   -4.3310106    637.93926   0.06389616  0.064155271            6 
  833000    1.1422104   -4.3648487    637.56983  0.063782496  0.064143505            2 
  834000     1.132966     -4.36171    637.78603  0.063727621  0.064132133            1 
  835000    1.1069608   -4.3868299     637.3455  0.063607335  0.064119604            5 
  836000     1.105499   -4.3659794    636.73892  0.063470785   0.06410797            3 
  837000    1.1049795   -4.3655332    641.29282  0.063848349  0.064095886            2 
  838000     1.111986   -4.3557524    640.81193  0.063724337  0.064084689            1 
  839000    1.1305272   -4.3356097    644.66579  0.064031167  0.064073882            4 
  840000    1.1089292   -4.3628519    640.16387  0.063508321   0.06406278            2 
  841000    1.0983022      -4.3851    639.69502  0.063386348  0.064051309            3 
  842000    1.1114363   -4.3517948    642.89106  0.063627381  0.064040222            2 
  843000    1.0836276   -4.3760565    642.68067  0.063531107  0.064029843            3 
  844000    1.1267656   -4.3553437    644.16999  0.063602883  0.064019403            1 
  845000    1.1041794   -4.3644293    646.68428   0.06377557  0.064008567            2 
  846000    1.0919358   -4.3714822    643.48986  0.063385526  0.063997664            1 
  847000    1.1164699   -4.3712251    647.49281  0.063704527  0.063986622            4 
  848000    1.1152676   -4.3704657    646.52017  0.063533821  0.063975739            5 
  849000    1.1163716   -4.3726425    646.96897   0.06350304  0.063965437            2 
  850000    1.1220984   -4.3810224    648.30816  0.063559623  0.063954227            1 
  851000    1.1585703   -4.3635523    647.47602  0.063403448  0.063943762            2 
  852000    1.1190619   -4.3775955    650.23527  0.063598912  0.063933186            1 
  853000     1.104101    -4.396053    650.91587  0.063590843  0.063923034            3 
  854000    1.1212096   -4.3697358    651.21404  0.063545476  0.063912231            2 
  855000    1.1325108   -4.3788793    652.19057  0.063566332  0.063900947            2 
  856000    1.1135437   -4.3526344    651.80652  0.063454684  0.063890314            3 
  857000    1.1130768   -4.3436662    650.97083   0.06329938  0.063879364            2 
  858000    1.1105217   -4.3770199    653.60515  0.063481464  0.063868071            1 
  859000    1.1293063   -4.3806039    656.64976  0.063702926  0.063857282            3 
  860000    1.1116321   -4.3773718    654.44915  0.063415615  0.063846894            2 
  861000    1.0925928   -4.3490194    656.00528  0.063492574  0.063836417            3 
  862000    1.1276499   -4.3423088    658.84096  0.063693054  0.063826406            2 
  863000    1.1394277   -4.4025689    655.70534  0.063316467  0.063816292            2 
  864000    1.1084049   -4.3820295    656.60331  0.063329795  0.063805841            1 
  865000    1.1366149   -4.3393663    660.42415  0.063624677   0.06379541            4 
  866000    1.1171939   -4.3807836    661.22436   0.06362821  0.063785147            5 
  867000    1.1037012   -4.3907663    659.15537  0.063355957  0.063774746            5 
  868000    1.1028052   -4.3755783    661.11495  0.063471097  0.063764551            4 
  869000    1.1116445   -4.3907996    659.49454  0.063242668  0.063754461            2 
  870000    1.1080141   -4.3874742    661.83281  0.063393947  0.063744266            3 
  871000    1.1114652   -4.3650671     664.0996   0.06353804  0.063733748            2 
  872000    1.1048452   -4.3878245    662.49247  0.063311589   0.06372338            2 
  873000    1.1088342   -4.3195336    667.92917  0.063758035  0.063713189            2 
  874000     1.094813   -4.3620029    663.92024  0.063302845  0.063703573            3 
  875000    1.1208814   -4.3606717    665.77519  0.063407161  0.063693427            3 
  876000    1.1374414   -4.3573892    665.71398  0.063328956   0.06368312            1 
  877000    1.1206293   -4.3695902     666.7939  0.063359359  0.063672969            3 
  878000    1.1078452    -4.405606      667.744  0.063377373  0.063662445            4 
  879000    1.1214762   -4.3747779     666.9285  0.063227958  0.063652443            1 
  880000    1.0949704   -4.3599544    669.03949  0.063356012  0.063642006            2 
  881000    1.1384363   -4.3656191    667.90881  0.063177148  0.063631233            3 
  882000    1.1176678   -4.3895607    665.83803  0.062909866   0.06362038            2 
  883000    1.1221861   -4.3889693    669.82041  0.063214459  0.063609608            4 
  884000    1.1173155   -4.3681175     671.8865  0.063337717  0.063599101            2 
  885000    1.1095932    -4.375617    670.90267  0.063173509  0.063588572            4 
  886000    1.1037479   -4.3949592    671.04924  0.063115993   0.06357845            3 
  887000    1.1026825    -4.400689     670.3663  0.062980674  0.063568167            3 
  888000    1.1203305   -4.3892701    671.14915  0.062983216  0.063557742            3 
  889000    1.1089431   -4.3909966    673.51359  0.063134007  0.063546987            1 
  890000    1.0936664   -4.3769686     673.0287  0.063017668  0.063536751            3 
  891000    1.0973008    -4.361604     678.7066  0.063477983  0.063526469            2 
  892000    1.0995941   -4.3997404    676.01605   0.06315546  0.063515965            4 
  893000    1.0837125   -4.3482149    678.33342  0.063300991  0.063505676            2 
  894000    1.1046883   -4.3615962     679.7226  0.063359675  0.063495633            1 
  895000    1.1072422   -4.4009487    674.60139  0.062812048  0.063484731            1 
  896000    1.0747734   -4.3727952    678.22344  0.063078817  0.063473917            3 
  897000    1.0949429   -4.3781029    679.96513  0.063170302  0.063463399            1 
  898000    1.1147471   -4.3644673    679.48589  0.063055484  0.063451672            2 
  899000    1.1221486   -4.3650207    677.67342  0.062817336  0.063439768            4 
  900000    1.1052108   -4.3549774    678.32609  0.062807971  0.063428002            2 
  901000    1.1109763   -4.3800475    679.79847  0.062874442  0.063416537            4 
  902000    1.1158418   -4.3614929    680.95036  0.062911156  0.063404693            4 
  903000    1.1103278   -4.3790687    681.36811   0.06288004  0.063393441            3 
  904000    1.1169491   -4.3684222    682.31142  0.062897439  0.063382088            2 
  905000    1.0993203   -4.3867173    680.91089  0.062698977  0.063370497            2 
  906000    1.0942188   -4.3810324    681.93121  0.062723621  0.063359109            1 
  907000    1.0973511   -4.3811231    684.71523  0.062910256  0.063347617            3 
  908000     1.121157   -4.3917971    683.47144  0.062726821  0.063335837            2 
  909000    1.1164008   -4.4130451    682.88092  0.062603678    0.0633234            2 
  910000    1.1077186   -4.3803181    684.98944  0.062727971  0.063311571            2 
  911000    1.1022351   -4.3588814    687.53576  0.062892038  0.063299665            2 
  912000    1.1012967   -4.3854686     688.6953  0.062929029  0.063287852            3 
  913000    1.0840354   -4.3817759    688.24667  0.062819156  0.063276427            2 
  914000    1.1019273   -4.4224998     689.9621  0.062906829  0.063264339            2 
  915000    1.1028541   -4.3601389    691.27684  0.062957818  0.063251928            4 
  916000    1.1357477   -4.4226451    687.87669  0.062579757  0.063240075            1 
  917000    1.1124701   -4.4210855    689.57277  0.062665646  0.063227218            3 
  918000    1.1237426   -4.3914092     689.8374  0.062621405  0.063214686            3 
  919000    1.1123618   -4.3996175    691.44415  0.062698961  0.063202993            3 
  920000    1.0937611   -4.4115649    690.50633  0.062545863  0.063190502            1 
  921000    1.0958861   -4.3844415     688.1049  0.062260667  0.063177716            2 
  922000    1.0957257   -4.4564845    685.74474  0.061979821   0.06316451            4 
  923000    1.1314962   -4.3644482    691.58866  0.062440291  0.063151785            3 
  924000    1.1300488   -4.3642036    694.80157  0.062662479  0.063138776            5 
  925000    1.1134307   -4.3942544    693.58596  0.062485222  0.063126078            5 
  926000    1.1316843   -4.3603724    697.14565   0.06273809  0.063113024            1 
  927000    1.1027926   -4.4291437    692.04081  0.062211508   0.06310055            2 
  928000    1.0980311   -4.4112015    694.82712  0.062394676  0.063087548            3 
  929000    1.1037406   -4.4016643    696.60761  0.062487227  0.063074476            1 
  930000    1.1149484   -4.3939548    694.57144  0.062237584  0.063061632            4 
  931000    1.0909785   -4.4260413      694.999  0.062209005  0.063047988            1 
  932000    1.1079443   -4.4235548    694.65371  0.062111383   0.06303386            2 
  933000    1.0892327   -4.4269643    696.56024  0.062215098  0.063020126            2 
  934000    1.0920867   -4.3890074    698.39098  0.062311829  0.063006237            4 
  935000    1.1238424   -4.3840431    700.21643  0.062407881  0.062992829            2 
  936000    1.1004267   -4.3909554    701.25834  0.062433969  0.062979586            3 
  937000    1.1083294   -4.3825408    703.60107  0.062575691  0.062967044            3 
  938000     1.083452   -4.4240506    698.48168  0.062054164  0.062953791            3 
  939000    1.1001524   -4.4101535    700.82956  0.062196446  0.062940724            4 
  940000    1.1078336   -4.4386723    699.99938  0.062056683   0.06292724            2 
  941000    1.0897719   -4.3581241    703.61616  0.062311031  0.062913352            2 
  942000    1.0706059   -4.4332958    702.03354  0.062104878  0.062900004            6 
  943000    1.0938435     -4.41291    704.13845  0.062225031  0.062886996            3 
  944000    1.0928469   -4.3910291    707.74047  0.062477089  0.062874384            2 
  945000     1.093379   -4.3738493    708.59371  0.062486218  0.062861962            3 
  946000    1.1137147   -4.3827949    707.74481  0.062345385  0.062849012            4 
  947000    1.0853663   -4.3761874     710.6476  0.062534987  0.062836507            2 
  948000    1.1086852   -4.4060296    708.87758   0.06231343  0.062824162            2 
  949000    1.1163314   -4.4015274    707.05455  0.062087684  0.062811499            3 
  950000    1.1010812   -4.3693185    709.13837   0.06220512  0.062798601            2 
  951000    1.0835648    -4.361753    710.80009  0.062285321  0.062786617            3 
  952000     1.100511   -4.3804868    708.93152  0.062056331  0.062774082            2 
  953000    1.1212364   -4.3883161    713.49186  0.062389984  0.062761957            5 
  954000    1.1030267   -4.4077349    713.18267  0.062297578   0.06274925            2 
  955000    1.0879291   -4.4256774    713.81437  0.062287467  0.062737008            1 
  956000    1.1153697   -4.3967049    713.25786  0.062173802  0.062725017            2 
  957000     1.120626   -4.4041297    716.36476  0.062379376  0.062713376            1 
  958000    1.1206098   -4.4127931     714.7684    0.0621754  0.062701677            3 
  959000    1.1140691   -4.4187444    717.45814  0.062344294  0.062690079            2 
  960000    1.1007682   -4.4082292    715.33255  0.062094839  0.062678217            4 
  961000    1.0838608   -4.3846758    717.72201  0.062237427   0.06266634            2 
  962000    1.0809414    -4.424955    717.99647  0.062196507  0.062654358            2 
  963000    1.1123384   -4.3802207    719.14062  0.062230929  0.062642758            2 
  964000    1.1042626    -4.371004    720.87912   0.06231666  0.062631207            2 
  965000    1.1046969   -4.4202025     717.4148  0.061952919  0.062619621            2 
  966000    1.1006417   -4.4038314    721.49328  0.062240621  0.062607661            3 
  967000    1.0839715   -4.4076941    720.19814  0.062064645  0.062595935            3 
  968000    1.0669055    -4.402669    720.72883  0.062046214  0.062584167            1 
  969000    1.1050748   -4.3936905    723.18332  0.062193268  0.062572241            2 
  970000    1.1122308   -4.3555112     721.7452  0.062005601  0.062560178            2 
  971000    1.0839656    -4.394727    724.11005    0.0621447   0.06254859            1 
  972000     1.112732   -4.3740353    725.23591   0.06217729  0.062536582            4 
  973000     1.117125   -4.3843377    724.99521  0.062092773  0.062524305            2 
  974000    1.0610009   -4.3885836    723.01688   0.06185976  0.062512503            3 
  975000    1.0911284   -4.3955561    724.87514   0.06195514  0.062500123            4 
  976000    1.0892783   -4.4332964     722.4261  0.061682556  0.062487907            2 
  977000    1.1097048   -4.4080455    725.70757  0.061899315  0.062475806            2 
  978000    1.1173915   -4.4004421    725.61055  0.061827756   0.06246418            2 
  979000    1.0958035   -4.4071969    727.74842   0.06194658  0.062452215            2 
  980000    1.0922566   -4.4361659    727.18317  0.061835304  0.062440041            1 
  981000    1.0972272   -4.3834177     727.7399  0.061819563  0.062427539            5 
  982000    1.1068524   -4.4058177    729.13151  0.061874704  0.062415333            4 
  983000    1.1089043    -4.394271    731.07234  0.061976292   0.06240308            2 
  984000     1.097176   -4.3742451    733.33894  0.062105262  0.062390788           17 
  985000    1.1071523   -4.4042257    730.83025   0.06182997   0.06237846            2 
  986000    1.1065152   -4.3838884    732.76644  0.061930903  0.062365833            4 
  987000    1.1000727   -4.4043596    732.86863  0.061876784  0.062353768            2 
  988000    1.0828601   -4.4192161    734.49769  0.061951559  0.062341385            2 
  989000    1.1114459   -4.4068049    734.26909  0.061869657  0.062329467            3 
  990000    1.0951072   -4.4072253    735.51553  0.061912081  0.062317485            2 
  991000    1.1124167   -4.4230609    734.28326  0.061745985  0.062305616            5 
  992000    1.0638985   -4.4068027    736.91497  0.061904819  0.062293789            3 
  993000    1.0785562   -4.3990212    737.28573  0.061873593  0.062282021            2 
  994000    1.0958728   -4.4246398    732.75603  0.061431592  0.062269791            2 
  995000    1.0888534   -4.3995036    738.40733   0.06184316  0.062257406            4 
  996000    1.0939592   -4.4044109    738.45008  0.061784646  0.062245387            1 
  997000    1.0951307   -4.3929415    739.66084  0.061823875  0.062233372            4 
  998000    1.0975946   -4.3925098    738.63887  0.061676593  0.062220983            1 
  999000    1.0863157   -4.4170865    737.72673  0.061538767  0.062208259            2 
 1000000    1.0738335   -4.4145085    737.13166  0.061427638  0.062195197            3 
 1001000    1.0843474   -4.4384747    735.85789   0.06126023  0.062181799            2 
 1002000    1.0803074   -4.4057129    737.83527  0.061363546  0.062168595            4 
 1003000    1.0790696   -4.4061768    741.49257  0.061606228  0.062155828            2 
 1004000    1.0930547   -4.4497088    740.22221  0.061439427   0.06214341            2 
 1005000    1.0950887   -4.4115775    743.63322   0.06166113  0.062131165            3 
 1006000    1.0761245   -4.4080244    744.94628  0.061708605  0.062119364            2 
 1007000    1.0820639   -4.4348495    744.23837  0.061588743  0.062107494            3 
 1008000    1.0637948   -4.3912656    745.71469  0.061649693  0.062095508            4 
 1009000    1.0872809   -4.4371744    745.19244  0.061545461   0.06208388            3 
 1010000     1.100331   -4.4448801    744.66649   0.06144113   0.06207268            3 
 1011000     1.085668   -4.4005429    744.97326  0.061405643  0.062060807            2 
 1012000    1.0919547   -4.4131026    748.58351  0.061642252  0.062048758            2 
 1013000    1.0758173   -4.4048015    749.70638  0.061673773  0.062036751            2 
 1014000    1.0962525   -4.4196158    748.66574  0.061527427  0.062024933            2 
 1015000    1.1136326   -4.4130736    750.78993  0.061641209  0.062012817            2 
 1016000    1.1059234   -4.4265501     750.1736  0.061529987  0.062000312            8 
 1017000    1.0926358   -4.4311916    750.62037  0.061506094  0.061988283            1 
 1018000    1.0846996   -4.4014574     750.2564  0.061415881  0.061976262            3 
 1019000    1.0843757   -4.3765267    755.32042  0.061769744  0.061964378            1 
 1020000    1.1112764   -4.3999132    754.45148  0.061638193  0.061952944            2 
 1021000     1.104359   -4.4016644    756.42048  0.061738531  0.061941377            3 
 1022000    1.0738086   -4.4044657    754.77457  0.061543914  0.061930246            2 
 1023000    1.0981417   -4.4180946    757.89731  0.061738132  0.061918687            3 
 1024000    1.0776008   -4.4292257    756.11578   0.06153286  0.061906782            2 
 1025000    1.1126163   -4.4375014    754.17168  0.061314771  0.061894801            3 
 1026000    1.0771387    -4.425301    756.98653  0.061483636  0.061883164            5 
 1027000     1.110425    -4.430663    755.64693  0.061315071  0.061871514            2 
 1028000     1.082465   -4.4384139     757.5469  0.061409444  0.061860015            7 
 1029000    1.0865254   -4.4050233    761.11932  0.061639077  0.061848412            2 
 1030000    1.0914583   -4.4110764    760.55565  0.061533629  0.061836597            2 
 1031000    1.0699062   -4.4336159    758.25422  0.061287926   0.06182457            2 
 1032000    1.0685353   -4.4095675    762.16582  0.061544398  0.061812827            1 
 1033000    1.0654836   -4.4391699    760.97227  0.061388534  0.061801368            2 
 1034000    1.0702131   -4.4070471    761.90888  0.061404649  0.061790492            2 
 1035000    1.1074001     -4.43891    761.98455  0.061351413  0.061779498            3 
 1036000     1.090677   -4.4505458    759.73984  0.061111634  0.061768443            2 
 1037000    1.1005033   -4.4231686    764.33681  0.061422116  0.061757164            4 
 1038000     1.076834   -4.4566507    760.95203  0.061091204   0.06174575            2 
 1039000    1.0969999   -4.4275638    766.54916  0.061481325  0.061734444            4 
 1040000     1.076877   -4.4165764    767.68441  0.061513174  0.061723271            4 
 1041000     1.089623   -4.4199508    766.93542  0.061394126  0.061711892            2 
 1042000    1.1204188   -4.4086704    768.08371   0.06142704  0.061700578            2 
 1043000    1.0849583    -4.407264    767.27165  0.061303264  0.061689339            2 
 1044000    1.0846452   -4.4085579    768.78487  0.061365331   0.06167884            2 
 1045000    1.0792507   -4.4280207    770.91874  0.061476773  0.061667671            2 
 1046000    1.0671415   -4.4039435    772.38474  0.061534794  0.061656788            2 
 1047000    1.0970913   -4.4265032    773.49559  0.061564437  0.061646037            2 
 1048000    1.0778077   -4.4626266    766.62628  0.060959469  0.061634754            2 
 1049000    1.0810489   -4.4736812    771.95222  0.061324453  0.061623175            2 
 1050000    1.0882686   -4.4281862    771.80746   0.06125456  0.061611935            2 
 1051000     1.082452   -4.4345901    773.62925  0.061340727  0.061600838            2 
 1052000    1.0509321   -4.4637536    771.79753   0.06113732  0.061589782            2 
 1053000    1.0734922   -4.4179049    772.98034  0.061172866  0.061578802            4 
 1054000    1.0777862   -4.4209288    774.44034  0.061230261  0.061567586            3 
 1055000    1.0904461   -4.4361957    775.76528  0.061276879  0.061556613            6 
 1056000    1.0745716   -4.4327292    777.23579  0.061334895  0.061545422            3 
 1057000    1.0790051   -4.4354334    777.11767  0.061267555  0.061534663            4 
 1058000     1.094974   -4.4291068    776.61971  0.061170424  0.061523593            3 
 1059000    1.0785304   -4.3964245    778.62755   0.06127066  0.061512859            3 
 1060000    1.0785609   -4.4409068    779.95517  0.061317231  0.061502243            6 
 1061000     1.072114    -4.427081    781.44607  0.061376537  0.061491413            2 
 1062000     1.064652   -4.4239987    780.92817  0.061278105  0.061480269            5 
 1063000    1.0833075   -4.4746149    781.37177  0.061255234  0.061469377            2 
 1064000    1.0909563   -4.4111195    784.26348  0.061424145  0.061458423            4 
 1065000    1.0688435   -4.4075286    783.25217  0.061287337  0.061447821            2 
 1066000    1.0864625   -4.3652011    782.90198  0.061202468  0.061437364            4 
 1067000    1.0721385   -4.4463439    781.48092  0.061034123  0.061426181            3 
 1068000    1.0743035   -4.4194505    785.50115  0.061290664  0.061415328            2 
 1069000    1.0818873   -4.4182109    789.21926  0.061523173  0.061405146            3 
 1070000    1.0789263   -4.4091619    788.23172  0.061388763  0.061395146            2 
 1071000    1.0848185   -4.4317735    787.76918  0.061295455  0.061384584            4 
 1072000    1.0812502    -4.410052    789.44061  0.061368207  0.061374211            4 
 1073000    1.0702187   -4.4119517     788.1628  0.061211774  0.061363956            4 
 1074000    1.0787057   -4.4084435    787.32946   0.06109012  0.061353906            1 
 1075000    1.1033484    -4.417588    789.72727  0.061219168  0.061343655            3 
 1076000    1.0608996     -4.42141    788.25925  0.061048579  0.061333704            2 
 1077000    1.0843063   -4.4349997    791.98295  0.061280018  0.061323286            3 
 1078000    1.0703571   -4.3946731    792.57751  0.061269134  0.061312829            2 
 1079000    1.0641935   -4.4446071    794.19664  0.061337399  0.061302343            2 
 1080000    1.0696182   -4.4132438    792.62732  0.061159515  0.061291518            1 
 1081000    1.0831721   -4.4567931     788.8592  0.060812458  0.061281051            2 
 1082000    1.0605889   -4.4103765    796.49758  0.061344545  0.061270719            2 
 1083000    1.0946841   -4.4170592    794.77607  0.061155438  0.061260717           13 
 1084000     1.087709   -4.4437047    791.73248  0.060865043  0.061250556            3 
 1085000    1.0878881   -4.4460148    795.68245  0.061112323  0.061239885            2 
 1086000    1.0732032   -4.4569122    797.31854  0.061181594  0.061229441            2 
 1087000    1.0888457    -4.431748    796.65033  0.061074082  0.061219543            1 
 1088000    1.0544683   -4.4418112    795.85944  0.060957371  0.061209406            4 
 1089000    1.0700257   -4.4437162    797.06054  0.060993307  0.061199024            3 
 1090000    1.0789925   -4.4298832    797.72115  0.060987855  0.061188404            3 
 1091000     1.078758   -4.4437762     797.9979  0.060953093  0.061177827            4 
 1092000    1.0736713   -4.4360503    798.11358  0.060906104   0.06116774            2 
 1093000    1.0856107   -4.4200276    802.46529  0.061182166  0.061157591            2 
 1094000    1.0812201   -4.4243806    801.85663  0.061079878  0.061147723            4 
 1095000    1.0587875   -4.4465993    799.16109  0.060818956  0.061137054            3 
 1096000     1.091455   -4.4275954    802.86429  0.061045034  0.061126814            3 
 1097000    1.0603271    -4.436809    802.08771  0.060930394  0.061116393            5 
 1098000    1.0982167   -4.4636433    800.76753  0.060774707  0.061106313            1 
 1099000    1.0817166   -4.4506751    805.07284  0.061045863  0.061095733            3 
 1100000    1.0634284   -4.4582718    803.19783   0.06084832  0.061085531            2 
 1101000    1.0673143   -4.4696221    803.39698  0.060808127  0.061075491            4 
 1102000    1.0526661   -4.4197587    808.07652  0.061106815  0.061065301            2 
 1103000    1.0545375   -4.4208855    807.46479  0.061005198  0.061054974            3 
 1104000    1.0843845   -4.4350302     805.4456  0.060797524  0.061045209            2 
 1105000    1.0679218    -4.463503    806.25826   0.06080379  0.061035182            3 
 1106000    1.0796445   -4.4368114    811.19716  0.061120943  0.061025164            2 
 1107000    1.0584163   -4.4520625     810.2979  0.060998035  0.061014817            4 
 1108000    1.0816457   -4.4749341    808.02936  0.060772365  0.061004713            3 
 1109000    1.0587564   -4.4407251    811.75376  0.060997427  0.060994451            2 
 1110000    1.0797862   -4.4792913    805.92918  0.060505194  0.060983967            3 
 1111000    1.1017055   -4.4303845    812.91224  0.060974516   0.06097338            3 
 1112000    1.0664967   -4.4378001    812.45566  0.060885466  0.060962619            2 
 1113000    1.0949339   -4.4633042     812.6459  0.060845006  0.060951558            1 
 1114000    1.0948523   -4.4462578    808.51059  0.060481044  0.060940377            2 
 1115000    1.0852416   -4.4114747    811.62243  0.060659374  0.060929397            3 
 1116000    1.0497658     -4.45487    810.30095  0.060506343  0.060918275            5 
 1117000    1.0875815   -4.4539473    814.31464  0.060751615   0.06090709            2 
 1118000    1.0705012   -4.4607499    812.93215  0.060594227  0.060896677            5 
 1119000    1.0708433   -4.4404742    815.33875  0.060719299  0.060886045            2 
 1120000    1.0520775   -4.4228341    815.26187  0.060659366  0.060875509            2 
 1121000    1.0484719   -4.4643947     813.7344  0.060491704  0.060865089            3 
 1122000    1.0519766    -4.429607    819.24448  0.060847035  0.060854602            3 
 1123000    1.0815201   -4.4356887    818.99315  0.060774202  0.060844287            3 
 1124000    1.0845283    -4.442667    820.35139  0.060820833  0.060834276            1 
 1125000    1.0812732   -4.4477712     819.3165  0.060690111  0.060824176            4 
 1126000    1.0721111   -4.4371313    822.25354  0.060853577  0.060813623            2 
 1127000    1.0658963    -4.455135    819.66122  0.060607898  0.060803647            3 
 1128000    1.0572771   -4.4318953    820.28228   0.06060005  0.060793623            7 
 1129000    1.0684296   -4.4576977    817.63956  0.060351311  0.060782973            3 
 1130000    1.0652474   -4.4726176    820.18669  0.060485744  0.060772194            6 
 1131000    1.0596238   -4.4506512    822.26095  0.060585098  0.060761281            1 
 1132000    1.0708788   -4.4327483    822.77425  0.060569365  0.060750853            2 
 1133000    1.0687839   -4.4409666    826.40258  0.060782773  0.060740333            2 
 1134000    1.0708857   -4.4549229    819.06214  0.060189751  0.060729232            3 
 1135000    1.0799366   -4.4500014    823.14785  0.060436699  0.060717897            2 
 1136000    1.0568198   -4.4719458    822.96451  0.060370049  0.060706473            3 
 1137000    1.0789299   -4.4643336    824.68319  0.060442919  0.060695279            3 
 1138000     1.076286   -4.4473318    824.53846  0.060379208  0.060684537            3 
 1139000    1.0838568    -4.445675    823.77452  0.060270304  0.060672957            2 
 1140000    1.0789328   -4.4384298    823.66818  0.060209662  0.060661302            2 
 1141000    1.0854318   -4.4691432    823.97575  0.060179357  0.060649999            4 
 1142000    1.0646716    -4.437942    825.82196  0.060261381  0.060638173            3 
 1143000    1.0740477   -4.4743877    828.74682  0.060421903  0.060626527            3 
 1144000    1.0723474   -4.4614171     827.3517   0.06026746  0.060615353            3 
 1145000    1.0722711   -4.4624807     830.9104  0.060473828  0.060604522            4 
 1146000    1.0583173   -4.4508879    830.67776  0.060404142  0.060594116            3 
 1147000    1.1001252   -4.4590938    832.22936  0.060464208   0.06058361            5 
 1148000    1.0687238   -4.4420125     832.4348  0.060426452   0.06057321            2 
 1149000    1.0937637   -4.4305506    835.92445  0.060626954  0.060563127            2 
 1150000    1.0813621   -4.4321528    835.99275  0.060579184  0.060553252            2 
 1151000    1.0652896   -4.4774818    831.60838  0.060209121  0.060542954            2 
 1152000    1.0643366   -4.4303996    836.15991  0.060486105  0.060532487            2 
 1153000    1.0748456   -4.4525251      834.172  0.060289968   0.06052231            4 
 1154000    1.0564343   -4.4420578    837.11736  0.060450416  0.060512189            2 
 1155000    1.0596836   -4.4218992    836.86971   0.06038021  0.060501721            2 
 1156000    1.0728806   -4.4979957     835.6826  0.060242402  0.060491202            3 
 1157000    1.0835053    -4.491303    838.02787  0.060359253  0.060480615            2 
 1158000    1.0683535   -4.4475141    836.02238  0.060162808  0.060469879            2 
 1159000    1.0495726   -4.4741515    838.45912  0.060286103  0.060459347            2 
 1160000    1.0539655   -4.4695398    840.51277  0.060381664  0.060448896            2 
 1161000     1.090324   -4.4515922    840.99542    0.0603643  0.060438815            4 
 1162000    1.0670412   -4.4575543    842.39658  0.060412836  0.060428655            2 
 1163000    1.0759263   -4.4193117    843.04486  0.060407342  0.060418757            3 
 1164000    1.0697616   -4.4789234     842.7758  0.060336182  0.060409161            3 
 1165000    1.0810377   -4.4680249    842.11467  0.060237101  0.060399196            2 
 1166000    1.0736017   -4.4585679    842.92028  0.060243016  0.060389394            3 
 1167000    1.0623162   -4.4768251    842.11323  0.060133764  0.060379232            4 
 1168000    1.0352726   -4.4427419    845.31185  0.060310491   0.06036944            6 
 1169000    1.0529698   -4.4371206      845.911  0.060301611  0.060359979            3 
 1170000    1.0526832   -4.4942821    843.95892  0.060111034  0.060350677            5 
 1171000    1.0650001   -4.5179575    844.92832  0.060128688  0.060340846            2 
 1172000    1.0640984   -4.4211392    849.15513  0.060377925  0.060331328            3 
 1173000    1.0619238   -4.4566061    848.32986  0.060267822  0.060321849            3 
 1174000    1.0746099   -4.4477689    849.22885  0.060280299  0.060312394            7 
 1175000    1.0660902   -4.4840053    851.61633  0.060398321  0.060303307            3 
 1176000    1.0669401   -4.4533576    851.53373  0.060341109  0.060294039            3 
 1177000    1.0575612   -4.4469522    855.22783   0.06055139  0.060284688            2 
 1178000    1.0436729   -4.4509597    853.89909  0.060405991  0.060275574            6 
 1179000    1.0545285   -4.4763364    853.97694  0.060360258  0.060266192            4 
 1180000    1.0499642   -4.4509864    853.90869  0.060304286  0.060256827            4 
 1181000    1.0538986   -4.4501459    854.22829  0.060275775  0.060247451            5 
 1182000    1.0682563   -4.4721111    855.19382  0.060292853  0.060237657            7 
 1183000    1.0515005   -4.4751108    853.62851  0.060131623  0.060227761            3 
 1184000    1.0831262   -4.4454336    855.43874  0.060208245   0.06021837            2 
 1185000    1.0643829   -4.4737513    854.90101  0.060119621  0.060209494            3 
 1186000    1.0875523   -4.4695105    858.04272   0.06028968  0.060200315            4 
 1187000    1.0687699   -4.4635747     857.5825  0.060206578  0.060190773            6 
 1188000    1.0710788   -4.4572172    862.80833   0.06052247  0.060181462            3 
 1189000     1.070502   -4.4831226    859.36071  0.060229935  0.060172794            2 
 1190000      1.06324   -4.4523489    861.13645  0.060303673  0.060164212            1 
 1191000    1.0646204   -4.4895758    858.46867  0.060066378  0.060154856            7 
 1192000    1.0742127   -4.4686457    861.02673  0.060194821  0.060145399            4 
 1193000    1.0708589   -4.4826502    859.49055   0.06003706  0.060136168            5 
 1194000    1.0390757   -4.4548023    864.29348  0.060321991  0.060126698            5 
 1195000    1.0427984   -4.4465637     865.2868  0.060340781  0.060116905            2 
 1196000    1.0575588   -4.4549951    860.61993  0.059965157  0.060107159            6 
 1197000    1.0668166    -4.462133    862.90143  0.060073895  0.060097162            2 
 1198000    1.0687713   -4.4704236    859.76398  0.059805508  0.060087499            6 
 1199000    1.0398438    -4.471477    860.67342  0.059818837  0.060077363            4 
 1200000    1.0502313   -4.4643826    862.27096  0.059879927  0.060067312            2 
 1201000    1.0453195   -4.4753903    864.01274  0.059950925  0.060057039            1 
 1202000    1.0631513   -4.4847514    865.77153  0.060022985   0.06004694            2 
 1203000    1.0599143   -4.4439508    867.46765  0.060090583  0.060036881            5 
 1204000    1.0562099   -4.4537675    866.59421  0.059980219  0.060027148            3 
 1205000    1.0711016   -4.4748339    869.46313  0.060128847  0.060017704            3 
 1206000    1.0526024   -4.4410412    867.77339   0.05996223  0.060008392            2 
 1207000    1.0761496   -4.4687852    870.05605   0.06007015  0.059998961            3 
 1208000     1.071097   -4.4392727    871.47192  0.060118096  0.059989573            3 
 1209000    1.0560531   -4.5009418    870.34186  0.059990478  0.059980376            2 
 1210000     1.077128   -4.4766126    873.51103  0.060159162  0.059971359            3 
 1211000     1.062247   -4.4601264    873.00957  0.060074977   0.05996192            5 
 1212000    1.0841307   -4.4658713      872.143  0.059965828  0.059953038            2 
 1213000    1.0775086   -4.4774246    875.33621  0.060135766  0.059943854            7 
 1214000     1.049445   -4.4619367    874.50238  0.060028993  0.059934643            3 
 1215000    1.0601496   -4.4866216     871.6683  0.059785206  0.059924906            3 
 1216000    1.0481401   -4.4642401    876.82043   0.06008912  0.059915391            2 
 1217000    1.0519074   -4.4720099    875.62604  0.059957959  0.059906062            1 
 1218000    1.0519058   -4.4534997    877.80681  0.060057937  0.059896615            3 
 1219000    1.0556006   -4.4783695     878.7726  0.060074693   0.05988718            3 
 1220000    1.0543148   -4.4768196    878.07832  0.059978027  0.059877625            8 
 1221000    1.1031968   -4.4350443    879.22854  0.060007408  0.059868299            1 
 1222000    1.0628577   -4.4736039    879.93656  0.060006585  0.059859019            2 
 1223000    1.0580896   -4.4624668    880.18034  0.059974131  0.059849442            2 
 1224000    1.0398179   -4.4750702    879.58944  0.059884902  0.059839836            4 
 1225000    1.0600612   -4.4883381    878.92334  0.059790703  0.059829905            4 
 1226000    1.0549834   -4.4961655    880.41087  0.059843045   0.05982022            9 
 1227000    1.0315847   -4.4769356     878.7388  0.059680712  0.059810879            7 
 1228000    1.0794933   -4.4714504    884.08839  0.059995141  0.059801621            6 
 1229000    1.0625805   -4.4473121    884.56695  0.059978773  0.059792541            2 
 1230000    1.0639622   -4.4896946    882.52007  0.059791332  0.059783474            2 
 1231000    1.0571107   -4.4774295    885.37421  0.059935974  0.059774329            4 
 1232000    1.0670209   -4.4559873    889.29984  0.060152857  0.059765348            3 
 1233000     1.065271   -4.4660983    888.03271  0.060018432     0.059756            2 
 1234000    1.0611982   -4.4916223    884.98658  0.059764086   0.05974649            2 
 1235000    1.0768609   -4.4968395    886.36811  0.059808914  0.059737212            3 
 1236000    1.0676395   -4.5020527    886.53639  0.059771871  0.059727866            2 
 1237000     1.063275   -4.4585218    887.41392  0.059782668  0.059718916            3 
 1238000    1.0477728   -4.4556477    888.59344  0.059813775  0.059710391            3 
 1239000    1.0533965   -4.4483814    890.18627   0.05987263  0.059701482            3 
 1240000    1.0247457   -4.5144273    888.40149  0.059704401  0.059692421            2 
 1241000    1.0600413    -4.481599    889.28435  0.059715575  0.059682711            3 
 1242000    1.0509207   -4.4402518    891.26457   0.05980036  0.059673312            2 
 1243000    1.0399665   -4.4346995    890.66621  0.059712135   0.05966315            1 
 1244000    1.0645667   -4.4442012    892.39166   0.05977972  0.059653352            3 
 1245000    1.0678288   -4.4926957     892.8656  0.059763427  0.059643368            3 
 1246000    1.0382343   -4.4838757    888.09272  0.059396249  0.059633341            4 
 1247000    1.0378414   -4.4823142    889.76818  0.059460584  0.059623462            3 
 1248000    1.0554716   -4.4688664    891.49479  0.059528231  0.059613317            4 
 1249000    1.0459532   -4.4840671    888.71483  0.059295092  0.059602836            2 
 1250000     1.060394   -4.5002259    891.94372  0.059462914  0.059592643            5 
 1251000    1.0388387   -4.4835199    890.25691  0.059303018  0.059581991            3 
 1252000    1.0671884   -4.4674085    892.08457  0.059377301  0.059571594            3 
 1253000    1.0491006   -4.4972703     897.7019  0.059703505  0.059561289            2 
 1254000    1.0572405    -4.491976    897.17357  0.059620785  0.059551192            2 
 1255000     1.042973   -4.4742564    893.04012  0.059298813  0.059541172            3 
 1256000    1.0567739   -4.4903202    894.56643  0.059352868  0.059530574            2 
 1257000    1.0396556   -4.5016182    896.77703  0.059452203   0.05952023            2 
 1258000    1.0852303   -4.4875938    900.43986  0.059647579  0.059509796            2 
 1259000    1.0588365   -4.4930168    896.29251  0.059325689  0.059500084            5 
 1260000     1.036579   -4.5109115    898.90083  0.059451113  0.059490737            4 
 1261000    1.0208961   -4.4616892    900.52062  0.059511011   0.05948117            3 
 1262000    1.0482971   -4.5131575    899.44816  0.059393038  0.059470876            2 
 1263000    1.0471445   -4.4683657    903.86784  0.059637625  0.059460957            4 
 1264000    1.0593134   -4.4952729     897.9306  0.059199011  0.059451213            2 
 1265000    1.0507396   -4.4832157    903.18326  0.059498238  0.059441482            3 
 1266000    1.0651375   -4.5053789    904.60153  0.059544598  0.059432219            2 
 1267000    1.0686521   -4.4450152    908.75421  0.059770732  0.059423016            1 
 1268000    1.0342978   -4.4553719    906.46267  0.059572994  0.059413823            4 
 1269000     1.053562   -4.4587021    905.28753  0.059448879  0.059404577            3 
 1270000    1.0537996    -4.513474    906.94481  0.059510814  0.059395232            3 
 1271000    1.0479669   -4.4992423    904.25137  0.059287397  0.059385812            4 
 1272000    1.0761885   -4.4792839    910.06257    0.0596215  0.059376289            4 
 1273000    1.0338236   -4.4693537    909.73627  0.059553304  0.059366745            3 
 1274000    1.0447616   -4.4880106    907.54487  0.059363218  0.059356872            5 
 1275000    1.0515185   -4.4886368    908.29863  0.059365923  0.059347358            1 
 1276000    1.0560291   -4.4550816    908.85985  0.059356051  0.059338034            3 
 1277000    1.0597378   -4.5041226    911.63616  0.059490744  0.059328784            3 
 1278000    1.0484927    -4.467179    910.63611  0.059378985  0.059319797            2 
 1279000    1.0540366   -4.4993948    913.90822  0.059545753  0.059310593            3 
 1280000    1.0463803   -4.5049945    910.25958  0.059261691    0.0593012            2 
 1281000    1.0811972   -4.5374655    911.97864   0.05932726  0.059291492            4 
 1282000    1.0095866   -4.5201531    910.35831  0.059175657  0.059281665            1 
 1283000    1.0526145    -4.511789    911.63788  0.059212645  0.059271506            3 
 1284000    1.0352911   -4.5157192    906.78821  0.058851779  0.059261499            3 
 1285000    1.0463753   -4.5118057     913.1523  0.059218696  0.059251387            5 
 1286000    1.0571701   -4.4864611    915.45889  0.059322115  0.059241738            2 
 1287000    1.0506502   -4.5210653     912.9484  0.059113468  0.059232005            3 
 1288000    1.0575391   -4.4691063    913.97066  0.059133712  0.059222308            4 
 1289000    1.0584692   -4.5125669    917.97564  0.059346757  0.059212593            5 
 1290000    1.0517412   -4.5114895    915.63831  0.059149761  0.059202408            3 
 1291000    1.0453431   -4.4630304    920.65918  0.059428039  0.059192896            6 
 1292000     1.051307   -4.5163198    916.02768  0.059083313  0.059183293            2 
 1293000     1.061036   -4.4675194     920.0853   0.05929913  0.059173751            3 
 1294000    1.0429166   -4.4857975    918.96185  0.059180954  0.059163912            3 
 1295000    1.0227618   -4.4810152    916.50658  0.058977258  0.059153989            5 
 1296000    1.0181423    -4.521315    922.23209  0.059299903  0.059144278            2 
 1297000    1.0488398   -4.4838736    919.93933  0.059106871  0.059134965            2 
 1298000    1.0616916   -4.4972693    922.18221   0.05920533  0.059125408            2 
 1299000    1.0348828   -4.5007785    923.50342   0.05924451  0.059116056            3 
 1300000    1.0369495    -4.500512    927.16187  0.059433453  0.059106828            2 
 1301000    1.0124881   -4.4891897     918.9881  0.058864213  0.059097307            3 
 1302000    1.0467389   -4.4930583    924.53303  0.059173901  0.059087808            3 
 1303000    1.0619519   -4.4883843    928.36241  0.059373395  0.059078462            2 
 1304000    1.0556958   -4.4914984    922.83326  0.058974518  0.059069243            6 
 1305000    1.0271323   -4.4872602    921.19443  0.058824676   0.05905925            2 
 1306000    1.0346952    -4.487404    927.89453  0.059207155  0.059049404            1 
 1307000    1.0473219   -4.5283422    928.83884  0.059222064  0.059039481            2 
 1308000    1.0471493   -4.5032772    926.38163  0.059020236   0.05903008            4 
 1309000    1.0421118   -4.4781153    930.35367  0.059228015  0.059020392            2 
 1310000    1.0506323   -4.4856028    928.10362  0.059039671   0.05901077            4 
 1311000    1.0608936   -4.4747656    933.14162  0.059314876  0.059001354            4 
 1312000    1.0457393   -4.4967981    933.29454  0.059279379  0.058992393            2 
 1313000    1.0596952   -4.5120873     931.1882  0.059100545  0.058983239            3 
 1314000    1.0483004   -4.4856071    933.93494  0.059229765  0.058974248            2 
 1315000     1.025281   -4.4826648      933.957  0.059186122  0.058965081            2 
 1316000    1.0466209    -4.488541    934.98538  0.059206267  0.058956102            3 
 1317000    1.0527911   -4.4988012    932.82878  0.059024853  0.058947063            2 
 1318000    1.0555359   -4.4707816    937.98444  0.059306047  0.058938001            2 
 1319000     1.046011   -4.5039838    934.08427  0.059014675  0.058929166            2 
 1320000    1.0265985   -4.5004904    936.39336  0.059115743  0.058920086            2 
 1321000     1.052397   -4.4823829    934.99776  0.058982952  0.058911173            3 
 1322000     1.033037   -4.4679685    936.70532  0.059045974  0.058902344            3 
 1323000    1.0536041   -4.5114526    932.97347   0.05876628  0.058893131            4 
 1324000    1.0204345   -4.5199354     933.4008  0.058748791  0.058883711            4 
 1325000    1.0411111   -4.4964653    934.56584  0.058777726  0.058874323            3 
 1326000    1.0366559   -4.4927867        940.1  0.059081196  0.058864498            1 
 1327000    1.0441861    -4.520871    935.09327   0.05872226  0.058854837            4 
 1328000     1.026349   -4.5254537    936.37587  0.058758526  0.058844814            4 
 1329000    1.0280713   -4.5142559    938.81399  0.058867193  0.058835282            6 
 1330000    1.0232491   -4.4747843    940.79053  0.058946775  0.058825885            2 
 1331000     1.023754   -4.4813382    942.10173  0.058984581  0.058816256            3 
 1332000    1.0558964   -4.4893105    940.45202  0.058837088  0.058806663            3 
 1333000    1.0307433   -4.5420382    936.72427  0.058559907  0.058796694            2 
 1334000    1.0585942   -4.5284343    938.17944  0.058606912  0.058786398            2 
 1335000    1.0221677   -4.4750242    941.42036  0.058765316  0.058776252            1 
 1336000    1.0555797   -4.5074866    943.43499  0.058846993  0.058766306            4 
 1337000     1.044368   -4.4980153    941.84287  0.058703744  0.058756368            6 
 1338000    1.0579014   -4.4949466    944.34195  0.058815517  0.058746267            2 
 1339000    1.0421769   -4.5150869    942.66984  0.058667528  0.058736205            5 
 1340000    1.0414041    -4.501286    941.16703  0.058530288  0.058726199            3 
 1341000     1.043071   -4.5064301    944.47652  0.058692302  0.058716331            3 
 1342000    1.0421374   -4.4929139       945.33  0.058701565  0.058706641            3 
 1343000    1.0447051   -4.5378137    942.38886  0.058475357  0.058696521            4 
 1344000    1.0262548   -4.5102698    947.36885  0.058740628  0.058686617            3 
 1345000    1.0373165   -4.5360722    947.19805  0.058686372  0.058676673            6 
 1346000    1.0212962   -4.5229126    946.59186  0.058605241  0.058667047            2 
 1347000    1.0456015   -4.4770908    950.18409   0.05878397  0.058657227            3 
 1348000    1.0111416   -4.4996397    948.18964  0.058617065  0.058647656            2 
 1349000    1.0438492   -4.5290902    948.72012  0.058606382  0.058637713            4 
 1350000    1.0382705   -4.4817071    951.01901  0.058704877  0.058627811            3 
 1351000    1.0510944   -4.4903282     950.0117  0.058599291  0.058618066            3 
 1352000    1.0264868    -4.487399    954.62805  0.058840486  0.058608334            2 
 1353000    1.0445994   -4.4968964     951.4099  0.058598786  0.058598544            3 
 1354000    1.0304161   -4.4731053    953.86974  0.058706902  0.058588901            6 
 1355000    1.0054431   -4.5234795    950.80521  0.058475105  0.058579007            4 
 1356000    1.0434326   -4.5076159    951.21515  0.058457175  0.058569219            1 
 1357000    1.0424505   -4.5220366    953.34145  0.058544673  0.058559063            2 
 1358000    1.0275393   -4.4923193    952.37909  0.058442507  0.058548826            2 
 1359000    1.0368497   -4.5225318    952.61204  0.058413787  0.058538574            5 
 1360000    1.0357009   -4.4855852    955.00823  0.058517661   0.05852832            3 
 1361000    1.0253191   -4.5405019    950.51692  0.058199664  0.058518314            2 
 1362000    1.0201253   -4.5389923    954.10875  0.058376698  0.058507525            7 
 1363000    1.0214554   -4.5142918    953.92308  0.058322517  0.058497304            4 
 1364000    1.0510117   -4.5027291    953.87458  0.058276795  0.058486465            2 
 1365000    1.0232832   -4.4819097    957.58802  0.058460807   0.05847646            2 
 1366000    1.0207948   -4.5031112    958.46593  0.058471567  0.058465742            2 
 1367000    1.0399613   -4.5108832    954.57601  0.058191661  0.058454455            2 
 1368000    1.0368352   -4.5222244    959.81297  0.058468139  0.058443586            3 
 1369000    1.0383647   -4.5202317    951.67862  0.057930279  0.058432735            3 
 1370000    1.0408468   -4.5295377     959.8117  0.058382707  0.058421693            2 
 1371000    1.0361027   -4.5091603    959.44115    0.0583176  0.058410782            2 
 1372000    1.0424067   -4.5094778     955.1188  0.058012561  0.058399575            1 
 1373000    1.0165817   -4.4907264    957.38559  0.058107889  0.058388648            3 
 1374000    1.0320373   -4.4904864     957.6615  0.058082333  0.058377254            1 
 1375000    1.0433469   -4.4968979     963.2217  0.058377073  0.058366201            4 
 1376000    1.0324355   -4.5092103    957.19902  0.057969902  0.058355198            2 
 1377000    1.0424673   -4.5269783     957.2155  0.057928801  0.058344409            2 
 1378000    1.0308435   -4.4766675     957.8783  0.057926844  0.058333264            4 
 1379000    1.0420719   -4.5201823    961.73056  0.058117631  0.058322225            4 
 1380000    1.0285875   -4.5145024    961.35227  0.058052674  0.058310869            3 
 1381000    1.0294575   -4.5102636    962.36274  0.058071611   0.05829968            3 
 1382000    1.0323313   -4.5270096    959.99518   0.05788683  0.058288687            4 
 1383000     1.006166   -4.5384342    961.62504  0.057943181  0.058278024            2 
 1384000    1.0387546   -4.5025445    960.67216   0.05784394   0.05826689            3 
 1385000    1.0424341   -4.4977333    964.76252  0.058048287  0.058256063            3 
 1386000    1.0349844   -4.5151751    964.29762  0.057978452  0.058245388            3 
 1387000    1.0197111   -4.5264897    964.84871  0.057969761  0.058234552            3 
 1388000    1.0500054   -4.4968822    964.64446  0.057915734  0.058223331            2 
 1389000    1.0447035   -4.5572218    966.17388  0.057965795  0.058212116            1 
 1390000    1.0486711    -4.544491    965.75455  0.057898954  0.058200899            2 
 1391000    1.0400684   -4.5121983    967.29375  0.057949542  0.058189868            6 
 1392000    1.0476575   -4.5209341    970.35367  0.058091096  0.058178864            2 
 1393000    1.0368597   -4.5211207     967.7816  0.057895525  0.058167916            2 
 1394000    1.0516671   -4.5020619    969.00389  0.057927062  0.058157091            4 
 1395000     1.021182   -4.5341714    969.33187   0.05790513  0.058146241            2 
 1396000    1.0349609    -4.499048    969.71526  0.057886536  0.058135674            4 
 1397000    1.0266898    -4.552305    967.51615  0.057713919  0.058124921            1 
 1398000    1.0157926   -4.5396986    968.95455  0.057758378  0.058114124            2 
 1399000    1.0271417   -4.5128521    969.34428  0.057740308  0.058103044            2 
 1400000    1.0499448    -4.547165    971.52964  0.057829145  0.058091996            3 
 1401000    1.0078399   -4.5109307    972.58886  0.057850872  0.058081009            3 
 1402000    1.0257497   -4.5277786    969.22785  0.057609834  0.058070221            2 
 1403000     1.033091   -4.4982484    970.94328  0.057670663  0.058059285            2 
 1404000    1.0241585   -4.5150187    971.97938  0.057691084  0.058048164            1 
 1405000    1.0331613   -4.5226779    969.36898  0.057495194  0.058036883            2 
 1406000      1.04869   -4.5384581     973.9574  0.057726256  0.058025373            6 
 1407000    1.0142804    -4.539789    971.15019  0.057518964  0.058014117            2 
 1408000    1.0202341   -4.5478326    975.04729  0.057708765  0.058002664            4 
 1409000    1.0504302    -4.539441    973.86894  0.057598116  0.057991871            3 
 1410000    1.0222456   -4.4927235    977.43359  0.057767943  0.057980749            3 
 1411000    1.0347788   -4.5366931    972.15831  0.057415445  0.057969474            5 
 1412000     1.029094   -4.5503161    973.03116  0.057426296  0.057957967            3 
 1413000    1.0228716   -4.5139201    977.14884  0.057628499  0.057946654            3 
 1414000     1.005332   -4.4749739    976.95598  0.057576378  0.057935522            2 
 1415000    1.0191994   -4.5103815    976.30316  0.057497241  0.057924091            4 
 1416000    1.0338009   -4.5074268    983.41637  0.057875257  0.057912763            3 
 1417000      1.04932   -4.5094989    978.74692  0.057559805  0.057901499            2 
 1418000    1.0539771   -4.5013763    980.77514  0.057638408  0.057890227            4 
 1419000    1.0278202   -4.5168871    979.60494  0.057529066  0.057878827            2 
 1420000    1.0172929   -4.5472971    981.45534  0.057597144  0.057867337            2 
 1421000    1.0261561   -4.5492427    975.70373  0.057219314  0.057855663            4 
 1422000    1.0311731   -4.5396029    981.59313   0.05752421  0.057844229            2 
 1423000    1.0369277   -4.5103768    980.42943  0.057415638  0.057832993            6 
 1424000    1.0248853   -4.5453439    983.92452  0.057579853  0.057821531            1 
 1425000    1.0406708   -4.5566835    981.50039  0.057397684   0.05780986            3 
 1426000    1.0281376   -4.5421457    981.44156  0.057353995  0.057798732            2 
 1427000    1.0218769   -4.5442825    983.84955  0.057454424  0.057787299            3 
 1428000    1.0105598   -4.5281991    988.51697  0.057686564  0.057775826            4 
 1429000     1.027008   -4.5203163    982.60926  0.057301683  0.057764406            3 
 1430000    1.0236292   -4.4738029    989.80156  0.057680743  0.057753318            6 
 1431000    1.0156734   -4.5413452    985.57718  0.057394431  0.057742084            2 
 1432000    1.0196664   -4.5369866    984.91101  0.057315585  0.057730461            2 
 1433000    1.0194175   -4.5429058    987.93811  0.057451623  0.057718869            3 
 1434000    1.0196862   -4.5230506     986.4401  0.057324506  0.057707656            7 
 1435000    1.0201566   -4.5670286    982.95268  0.057082037  0.057696386            3 
 1436000   0.97985678   -4.5404844     990.0443  0.057453824  0.057684845            2 
 1437000    1.0271848   -4.5061667    991.09813  0.057474955   0.05767359            2 
 1438000    1.0317989   -4.5093515    989.99739  0.057371198  0.057662437            2 
 1439000    1.0206573   -4.5406563    990.31406  0.057349668  0.057651001            2 
 1440000    1.0131836   -4.5437739     988.8794  0.057226817  0.057639393            3 
 1441000    1.0065734   -4.5130727    995.77084  0.057585637  0.057627888            5 
 1442000    1.0289943   -4.5664493    990.17203  0.057222147  0.057616269            5 
 1443000    1.0026306   -4.5616523    991.40814  0.057253877  0.057604739            2 
 1444000    1.0145791   -4.5125927    992.01162  0.057249055  0.057592827            2 
 1445000    1.0178615   -4.5279184    990.59007  0.057127455  0.057581624            6 
 1446000    1.0074199   -4.5241651    990.87356  0.057104285  0.057569997            4 
 1447000    1.0176817   -4.5397041    991.99715  0.057129529  0.057558231            1 
 1448000    1.0126836   -4.5355214    989.45301  0.056943659  0.057546639            2 
 1449000    1.0282965   -4.5257289    994.43098  0.057190648  0.057534757            4 
 1450000    1.0201747   -4.5826973     987.9045  0.056776121  0.057523047            2 
 1451000    1.0347104   -4.5335149    992.74938  0.057015241  0.057511282            5 
 1452000    1.0261341   -4.5526463    994.24743  0.057061951  0.057499698            2 
 1453000    1.0233626   -4.5386728    997.13588  0.057188339  0.057488214            2 
 1454000     1.019423   -4.5294192    992.83994  0.056902794  0.057476916            3 
 1455000    1.0321761   -4.4817549    1006.8653  0.057666969  0.057465831            2 
 1456000    1.0229293   -4.5441651    997.68063  0.057101685  0.057454957            3 
 1457000    1.0185468   -4.4928008    1000.7162  0.057236114   0.05744435            2 
 1458000    0.9991063   -4.5077281    1001.8132  0.057259556  0.057433294            3 
 1459000    1.0167858   -4.5669374    999.64544  0.057096495  0.057422035            2 
 1460000    1.0175053   -4.5172089     1000.217   0.05709001   0.05741072            2 
 1461000    1.0152675   -4.5017189    1000.3424  0.057058088  0.057399428            4 
 1462000    1.0336921   -4.5588614     1002.667  0.057151562  0.057387908            3 
 1463000     1.028322   -4.5282353    998.84884  0.056895013  0.057376139            2 
 1464000    1.0149866   -4.5476232    1003.2248  0.057105236  0.057364611            2 
 1465000    1.0294118   -4.5119957    997.27887  0.056728036  0.057352791            5 
 1466000    1.0152863   -4.5291173    1001.0786  0.056905333  0.057340959            2 
 1467000    1.0535745   -4.5798422    999.17073  0.056758164    0.0573288            3 
 1468000   0.99623084    -4.534803    999.37258   0.05673096  0.057316821            5 
 1469000    1.0213059   -4.5718184    1002.3119  0.056859082   0.05730495            3 
 1470000    1.0163939   -4.5447119    1000.4694  0.056715954  0.057292641            3 
 1471000    1.0259242   -4.5655873    997.48303  0.056508216  0.057280521            4 
 1472000    1.0081027   -4.5692255    1003.5846   0.05681525  0.057268414            3 
 1473000    1.0084558   -4.5279778    1005.7912  0.056901516  0.057256202            2 
 1474000    1.0139025   -4.5536737    1000.1688  0.056545049  0.057244196            5 
 1475000    1.0303868    -4.540085    1006.1941  0.056847123   0.05723211            3 
 1476000    1.0191793     -4.52999    1005.9729  0.056796119  0.057220033            4 
 1477000   0.99345523   -4.5300601     1005.958  0.056756829  0.057207746            6 
 1478000    1.0059802   -4.5597663     1003.239  0.056565123  0.057195596            2 
 1479000    1.0062068   -4.5182892    1001.3516   0.05642053  0.057183415            5 
 1480000    1.0200332   -4.5400546    1006.7341  0.056685479  0.057171597            2 
 1481000    1.0320155   -4.5505537    1007.1075  0.056668214  0.057159562            2 
 1482000    1.0103172   -4.5467111    1007.4718   0.05665046  0.057147235            4 
 1483000    1.0415288   -4.5617579    1004.3537  0.056437047  0.057134854            5 
 1484000    1.0204904   -4.5221817    1006.2733   0.05650681   0.05712254            3 
 1485000    1.0380202   -4.5663366    1006.5367  0.056483541  0.057110378            4 
 1486000   0.99157618    -4.524456    1010.8285  0.056686207   0.05709793            3 
 1487000    1.0115793   -4.5591126    1010.2604  0.056616249  0.057085775            5 
 1488000    1.0258453   -4.5668039    1007.6647  0.056432833   0.05707372            2 
 1489000    1.0083011   -4.5759949    1006.7188     0.056342  0.057061443            3 
 1490000    1.0376195   -4.5229699    1010.8428  0.056534831  0.057049345            3 
 1491000    1.0273699     -4.54755    1010.3565  0.056469737  0.057037075            5 
 1492000   0.97367506   -4.5378674    1012.9188  0.056574998  0.057024846            2 
 1493000    1.0141665   -4.5386251    1011.5778   0.05646226  0.057012516            5 
 1494000    1.0038029   -4.5560012    1013.3686  0.056524353  0.057000062            3 
 1495000    1.0131195   -4.5151587    1014.8832  0.056570972  0.056987602            4 
 1496000    1.0228697   -4.5709273    1007.4175  0.056117287  0.056975429            5 
 1497000    1.0096878   -4.5656307    1015.4049  0.056524432  0.056963076            3 
 1498000    1.0073653   -4.5815343     1011.515  0.056270306  0.056950492            3 
 1499000     1.030052   -4.5458998    1015.6158   0.05646074  0.056938032            2 
 1500000    1.0037879    -4.541998    1014.5517  0.056363982  0.056925449            3 
 1501000      1.02871   -4.5701006    1012.2553   0.05619894  0.056912596            3 
 1502000   0.99724082   -4.5306394    1017.5109  0.056453113  0.056899962            5 
 1503000    1.0071511   -4.5461352    1011.5894  0.056087237   0.05688772            3 
 1504000    1.0129336   -4.5469199    1012.5696  0.056104257  0.056874924            2 
 1505000    1.0085359   -4.5523452    1017.8147  0.056357403  0.056862142            6 
 1506000    1.0160104   -4.5595883    1017.6786  0.056312453  0.056849607            4 
 1507000   0.99265539   -4.5731809     1010.355  0.055870103  0.056836768            2 
 1508000   0.98707271   -4.5428406    1017.3142  0.056217628  0.056823788            2 
 1509000    1.0170643   -4.5813749    1015.1371  0.056060147  0.056810921            4 
 1510000    1.0163678   -4.5408904    1019.0529   0.05623912  0.056797952            3 
 1511000     1.022353   -4.5914026    1013.3814  0.055889114  0.056784553            2 
 1512000    1.0026493   -4.5432935    1021.4399  0.056296288  0.056771474            4 
 1513000     1.011233   -4.5335408    1012.4309  0.055762883  0.056758616            3 
 1514000    1.0155604   -4.5559878    1017.5162  0.056005958  0.056745569            4 
 1515000    1.0059056     -4.52744    1022.0282  0.056217175  0.056732725            3 
 1516000    1.0138426   -4.5513131    1016.2581  0.055862911  0.056719554            5 
 1517000   0.99301287   -4.5482891    1018.9363  0.055973212  0.056706504            1 
 1518000    1.0195525   -4.5430423    1022.9361  0.056155912  0.056693737            4 
 1519000   0.99952743   -4.5390434    1023.7991  0.056166291  0.056680896            2 
 1520000    1.0247255   -4.5742848    1020.5173  0.055949415  0.056668381            4 
 1521000    1.0287833   -4.5508405    1021.9303  0.055990043  0.056655451            5 
 1522000   0.96814269   -4.5538457    1022.5669  0.055988114  0.056642675            7 
 1523000     1.018244   -4.5328525    1025.1383  0.056092051  0.056629683            1 
 1524000    1.0188497   -4.5740654    1022.4159  0.055906384  0.056616581            4 
 1525000    1.0191035   -4.5647141    1019.6315  0.055717567  0.056604085            4 
 1526000    1.0223134   -4.5596137    1023.7057  0.055903546  0.056591342            2 
 1527000     1.017574   -4.5505899    1025.8641  0.055984725  0.056578827            1 
 1528000    1.0019941   -4.5493238     1023.704  0.055830277  0.056565817            4 
 1529000    1.0189358   -4.5766159    1026.1935  0.055929447  0.056552494            2 
 1530000    1.0091596   -4.5600487    1025.5498  0.055857833  0.056539313            1 
 1531000    1.0162472   -4.5923978    1023.0965  0.055687816   0.05652615            1 
 1532000   0.98741368   -4.5662424     1026.268  0.055823976  0.056513051            2 
 1533000    1.0184623   -4.5662286    1027.6211  0.055861117  0.056500025            2 
 1534000    1.0196609   -4.5851376    1025.5956  0.055714669  0.056487256            4 
 1535000   0.98543264   -4.5574716     1028.716  0.055847775  0.056474315            1 
 1536000    0.9693296   -4.5607546    1028.6154  0.055805956  0.056461437            3 
 1537000    1.0065101   -4.5766882    1026.1382  0.055635339   0.05644876            3 
 1538000    1.0180777   -4.5724768    1029.6895  0.055791587  0.056436143            3 
 1539000    1.0003463   -4.5444523    1027.8298  0.055654636  0.056423649            4 
 1540000     1.009204   -4.5613771     1027.243  0.055586742  0.056410835            4 
 1541000    1.0025992   -4.5380457    1036.2631  0.056038456  0.056398409            4 
 1542000   0.99082666   -4.5504988    1036.3371   0.05600611  0.056386165            2 
 1543000    1.0275861   -4.5474261    1034.7906  0.055886292  0.056373785            3 
 1544000    1.0232304   -4.5849443    1033.8014  0.055796708  0.056361411            3 
 1545000   0.99424611   -4.5876525    1035.4348  0.055848694  0.056349175            4 
 1546000     1.011683   -4.5397376    1038.5402  0.055979962  0.056336809            2 
 1547000   0.99870888   -4.5713615    1038.0459  0.055917146  0.056324903            6 
 1548000     1.006585   -4.5589222    1038.6783  0.055915067  0.056312737            4 
 1549000   0.98173393   -4.5445973    1037.7549  0.055829293   0.05630097            4 
 1550000    1.0235362   -4.5626819    1040.3683  0.055933781  0.056289141            3 
 1551000    1.0143373   -4.5503501    1040.1801  0.055887604  0.056277164            3 
 1552000    1.0013699   -4.5461736    1040.1654  0.055850805  0.056265373            4 
 1553000   0.99235345   -4.5556032    1038.6339  0.055732661  0.056253555            2 
 1554000    1.0131375   -4.5732392     1041.643  0.055858159  0.056241772            4 
 1555000   0.99850845   -4.5711194    1039.7396  0.055720238  0.056229963            4 
 1556000   0.99902569   -4.5345766    1044.9613  0.055964081  0.056218075            1 
 1557000   0.98343924   -4.5705245    1040.7832  0.055704515  0.056206004            1 
 1558000   0.99450436   -4.5532338    1045.4416  0.055917928  0.056193999            2 
 1559000    1.0012797   -4.5736254    1045.1268  0.055865232  0.056182296            4 
 1560000   0.97720723   -4.5941888     1043.672  0.055751709  0.056170481            2 
 1561000   0.99756836   -4.5676176    1044.3223  0.055750711  0.056158561            6 
 1562000    1.0140816   -4.5432737     1048.952  0.055962013  0.056146832            4 
 1563000   0.98743708   -4.5953205     1046.141   0.05577634  0.056135044            2 
 1564000   0.98237692   -4.5725894    1045.1517  0.055687963  0.056123506            6 
 1565000    1.0037572    -4.554944    1049.6722  0.055893088  0.056111936            3 
 1566000    1.0106258   -4.5683895    1049.7008  0.055858921  0.056100453            4 
 1567000   0.98965924   -4.5687362    1051.4021  0.055913745  0.056089037            2 
 1568000    1.0163751   -4.5822603    1048.3523  0.055716005   0.05607752            3 
 1569000   0.98646903   -4.5868998    1046.6582  0.055590514  0.056066252            4 
 1570000   0.99601641   -4.5712637    1045.3444  0.055485372  0.056054492            4 
 1571000    1.0083654   -4.5886423    1048.4279  0.055613617  0.056042984            2 
 1572000    1.0108047    -4.592411    1048.6286  0.055588878   0.05603131            6 
 1573000     1.019531   -4.5847667    1051.9248  0.055728164   0.05601942            4 
 1574000    1.0077049   -4.5326294    1053.3624  0.055768872  0.056007587            1 
 1575000    0.9955324    -4.563806     1051.902  0.055656191  0.055995744            4 
 1576000    1.0004664   -4.5691045    1052.3184  0.055642892  0.055983824            1 
 1577000   0.99038666   -4.5625581    1057.2618  0.055868831  0.055972188            2 
 1578000    1.0069455   -4.5964789    1050.2245  0.055461791  0.055960704            2 
 1579000    0.9986957   -4.5455274    1055.4231   0.05570103  0.055949346            4 
 1580000    1.0183561   -4.5615555    1056.5585  0.055725657  0.055937858            3 
 1581000    1.0003055   -4.5642757    1053.9574   0.05555331  0.055926412            5 
 1582000   0.99528339    -4.566018    1056.5507  0.055654801  0.055914819            4 
 1583000    1.0241038   -4.6148882    1049.3141  0.055238688  0.055902927            7 
 1584000    1.0021345   -4.5815192    1054.9021  0.055497797  0.055891059            2 
 1585000    1.0014763   -4.5532404    1056.4648  0.055544943   0.05587927            2 
 1586000   0.98691822   -4.5551847    1054.5246  0.055407977  0.055867474            6 
 1587000    1.0166238   -4.5890904    1053.7547  0.055332633  0.055855547            1 
 1588000   0.99743839   -4.5858158    1054.6836  0.055346535   0.05584353            4 
 1589000    0.9985325   -4.5887219    1055.7067  0.055365359  0.055831587            3 
 1590000    1.0181625   -4.6062217    1052.5261  0.055163843  0.055819528            5 
 1591000    1.0277626     -4.54565    1058.0141  0.055416619  0.055807579            3 
 1592000   0.98908521   -4.5807388    1057.9451  0.055378198  0.055795686            2 
 1593000   0.97955212   -4.5859544     1056.463  0.055265901  0.055783698            4 
 1594000    1.0139848   -4.5626258    1059.1786    0.0553732  0.055771773            3 
 1595000   0.99950634    -4.556011    1056.5981  0.055203662  0.055759822            3 
 1596000   0.97347594   -4.5643698    1058.0061  0.055242593  0.055747998            5 
 1597000   0.97541671    -4.569742    1061.6092  0.055396015   0.05573588            5 
 1598000   0.98416518   -4.5818391    1057.2202  0.055132466  0.055723846            3 
 1599000    1.0032121   -4.5850713    1060.0365   0.05524476  0.055711911            5 
 1600000    0.9994712    -4.577171    1058.9997  0.055156236  0.055699615            5 
 1601000   0.98185629   -4.5735119    1064.1823  0.055391544  0.055687475            3 
 1602000   0.98485955   -4.5559188    1067.6755  0.055538677  0.055675556            4 
 1603000    1.0085312   -4.5667272    1063.5763  0.055290929  0.055663486            3 
 1604000   0.97993682   -4.5662308    1061.2679  0.055136526  0.055651467            4 
 1605000    1.0168482   -4.5809577    1061.6668  0.055122889  0.055639251            3 
 1606000   0.99500128   -4.5683709    1062.1544  0.055113863  0.055627101            5 
 1607000   0.97879464   -4.6028847    1063.3886  0.055143568  0.055614885            4 
 1608000   0.98638027   -4.5882743    1063.7551   0.05512827  0.055602538            2 
 1609000    1.0134322   -4.6003027    1062.1171  0.055009172  0.055590456            5 
 1610000    1.0057358   -4.6273288     1063.107  0.055026243  0.055578295            3 
 1611000   0.99610372   -4.5792034    1063.2431  0.054999127  0.055566397            6 
 1612000   0.99325394   -4.6137416    1066.1999  0.055117862  0.055554387            4 
 1613000    1.0006089   -4.5833809     1063.734  0.054956293  0.055542138            5 
 1614000    1.0083319   -4.5828702    1067.4971  0.055116538  0.055529992            6 
 1615000   0.98538138   -4.5907319    1069.7568  0.055199011  0.055517837            4 
 1616000   0.99136295   -4.5849879     1065.523  0.054946524  0.055505906            2 
 1617000    1.0021183   -4.5859432    1070.3843  0.055163075  0.055494285            4 
 1618000   0.98180534   -4.5662914    1068.9791  0.055056609  0.055482728            2 
 1619000   0.98030649   -4.5718017    1070.0822  0.055079378  0.055470998            2 
 1620000   0.98367536   -4.5762086    1071.5535  0.055121067  0.055459133            4 
 1621000   0.98736927   -4.5868674    1071.7304  0.055096153    0.0554474            4 
 1622000   0.97346903   -4.5683726     1073.218  0.055138613  0.055435564            6 
 1623000     0.989788   -4.6036523     1073.205  0.055103975  0.055423769            3 
 1624000    0.9647139   -4.5972512     1071.111   0.05496259  0.055412014            2 
 1625000    1.0066074   -4.5785072    1073.6459  0.055058766  0.055400403            5 
 1626000   0.98022244   -4.5807032    1077.0072   0.05519717  0.055388597            3 
 1627000   0.97453586   -4.5600176    1073.2496  0.054970787  0.055376778            2 
 1628000   0.98928191   -4.5908251    1077.9602  0.055178141  0.055365084            2 
 1629000   0.97625665   -4.6010009    1072.7007  0.054875214  0.055353095            1 
 1630000   0.97687486   -4.5643971    1080.4687  0.055238688  0.055341461            5 
 1631000   0.97598453   -4.5620092    1077.7713  0.055066997  0.055329785            2 
 1632000   0.97687475   -4.5848066    1075.7294  0.054928992  0.055318205            3 
 1633000    1.0018549   -4.5555663     1079.908  0.055108596   0.05530644            3 
 1634000   0.97414194   -4.5850315    1079.5801  0.055058147  0.055294485            6 
 1635000   0.99740274   -4.6316235    1075.0682  0.054794507  0.055282408            4 
 1636000   0.99187033   -4.5771548    1076.1259  0.054814887  0.055270152            6 
 1637000   0.99478165   -4.6131503     1077.028  0.054827327  0.055258185            6 
 1638000   0.96462846   -4.6034568    1077.7353  0.054829839  0.055246181            4 
 1639000   0.97270029   -4.6118246    1079.4824  0.054885213  0.055234066            5 
 1640000   0.97972949   -4.5817005    1075.4309  0.054645882  0.055221946            1 
 1641000   0.99077208   -4.6205458    1079.6184   0.05482523  0.055210087            4 
 1642000   0.99832785   -4.6442388    1078.6611  0.054743257  0.055198138            3 
 1643000    1.0017221   -4.6050944    1082.9727  0.054928621  0.055186082            1 
 1644000   0.98649433   -4.6018608    1078.1104  0.054648743  0.055174256            1 
 1645000   0.96962229   -4.6174277    1080.1925  0.054720998  0.055162436            3 
 1646000    0.9852577   -4.5833957    1080.7673  0.054716855  0.055150502            2 
 1647000   0.98667547   -4.6018235    1078.5825  0.054573086  0.055138562            2 
 1648000    0.9894382   -4.6111594    1081.1892  0.054671785  0.055126664            4 
 1649000    0.9849891   -4.5851625    1082.2409  0.054691779  0.055115116            4 
 1650000   0.99574208   -4.5984872    1083.4102  0.054717685   0.05510343            3 
 1651000    0.9831535   -4.6165179    1083.6973  0.054699034  0.055091665            2 
 1652000   0.98242615   -4.5922762    1082.6608  0.054613642  0.055079852            3 
 1653000   0.96953657   -4.5618329    1085.0857  0.054702846  0.055068216            3 
 1654000   0.99138359   -4.6041019    1084.6559  0.054648119  0.055056192            4 
 1655000   0.98559435   -4.6525145    1084.9332  0.054629062  0.055044415            2 
 1656000   0.98574863   -4.6122768    1087.1655  0.054708407  0.055032661            3 
 1657000   0.99273758   -4.5756527    1084.9794  0.054565451  0.055021114            3 
 1658000   0.99851668   -4.5845658    1087.3078  0.054649566  0.055009411            3 
 1659000    0.9892834   -4.6051098    1086.9644  0.054599377  0.054997568            2 
 1660000   0.97919755   -4.5997286    1084.0008  0.054417713  0.054985725            4 
 1661000   0.97751433   -4.5804887     1092.402  0.054806442  0.054973904            6 
 1662000   0.98352895   -4.6243812    1087.3035  0.054517825   0.05496207            3 
 1663000   0.98053912   -4.6376321    1089.2477  0.054582468   0.05495038            4 
 1664000   0.95085269   -4.5819357     1092.859  0.054730521  0.054938516            4 
 1665000    0.9688934   -4.6018697    1092.6217  0.054685773  0.054927017            2 
 1666000   0.97320446   -4.5987707    1091.2984  0.054586754  0.054915461            4 
 1667000   0.98943509   -4.6101431     1094.132  0.054695661  0.054903851            3 
 1668000   0.97321619    -4.619651    1093.7739  0.054644977  0.054892609            3 
 1669000    1.0061618   -4.6042364    1099.0384  0.054875095  0.054881073            3 
 1670000   0.99872007   -4.6057339    1096.0063  0.054690935  0.054869602            2 
 1671000   0.98737925   -4.6036705    1096.3768  0.054676682  0.054858391            3 
 1672000    1.0080817   -4.6232945    1097.2619  0.054688091  0.054847053            2 
 1673000   0.99013886   -4.6044332    1096.2861    0.0546068  0.054835564            5 
 1674000   0.97799281    -4.614972    1094.3609  0.054478338  0.054824103            3 
 1675000   0.98368798   -4.6316689    1095.6039  0.054507655  0.054812508            4 
 1676000   0.99106289   -4.5979914    1095.1314  0.054451641  0.054800985            7 
 1677000   0.96055244   -4.5849811    1100.0281  0.054662498  0.054789685            4 
 1678000   0.97082544   -4.6162826    1101.6704   0.05471148  0.054778185            2 
 1679000   0.99402966   -4.5929903    1102.5033  0.054720237  0.054766605            3 
 1680000   0.96503871   -4.6014108    1095.1774  0.054324275  0.054755247           10 
 1681000   0.97544573   -4.5985548    1097.7665  0.054420313  0.054743845            3 
 1682000   0.99533902   -4.6296603    1098.6963   0.05443402  0.054732227            5 
 1683000   0.98288972   -4.6093677    1101.6078  0.054545841  0.054721246            2 
 1684000   0.97754979   -4.6190674    1099.4401  0.054406181      0.05471            6 
 1685000   0.96100223   -4.6028801    1100.8506  0.054443651  0.054698818            3 
 1686000   0.98820954   -4.6115349    1102.5148  0.054493613  0.054687912            3 
 1687000   0.98596863   -4.6067002     1106.463   0.05465634  0.054677056            3 
 1688000   0.97439493   -4.6307138    1102.8298    0.0544446  0.054665913            3 
 1689000   0.97177976   -4.6369628    1104.5532  0.054497393  0.054654583            5 
 1690000   0.97087651   -4.6447616    1100.0574  0.054243463  0.054643184            3 
 1691000    1.0052674   -4.5532951    1108.7004  0.054637314  0.054632227            2 
 1692000   0.98173116   -4.5805565    1104.8735  0.054416545  0.054621165            3 
 1693000   0.98277498   -4.5929979    1109.4062  0.054607511  0.054610196            4 
 1694000    1.0031562   -4.5865296    1106.9909  0.054456461  0.054599205            1 
 1695000   0.99001078   -4.6042255    1106.2312  0.054386979  0.054588081            2 
 1696000   0.98975128   -4.6066178    1110.0931  0.054544669  0.054577046            4 
 1697000     0.965475   -4.6157456    1104.1911    0.0542227   0.05456591            4 
 1698000   0.99621236   -4.6095434    1106.3127  0.054294892  0.054554803            1 
 1699000   0.97383893   -4.6116668    1108.5512  0.054372728  0.054543715            2 
 1700000   0.98613302   -4.6065652    1112.9944  0.054558551  0.054532819            4 
 1701000   0.98491551   -4.5850236    1113.7437  0.054563185  0.054522017            7 
 1702000    0.9876367   -4.6097621     1111.884  0.054440073  0.054511063            2 
 1703000   0.98564674   -4.5971021    1112.7156  0.054448798  0.054500187            2 
 1704000    0.9491435   -4.6292813    1112.6503  0.054413649  0.054489492            3 
 1705000   0.97461797   -4.6027636    1110.7828   0.05429046  0.054478649            6 
 1706000   0.96737025    -4.593597      1113.87  0.054409438  0.054467615            2 
 1707000   0.97274981   -4.6424698    1113.2388  0.054346748  0.054456717            3 
 1708000   0.96921857   -4.6027099    1118.4193  0.054567688  0.054445842            5 
 1709000    1.0006561   -4.6099344     1119.206  0.054574117  0.054435213            5 
 1710000   0.99255689   -4.6346004    1115.0033  0.054337391  0.054424531            4 
 1711000   0.99687162   -4.6015379    1117.7873  0.054441227  0.054413413            4 
 1712000    0.9771457   -4.6347983    1117.6043  0.054400523   0.05440267            1 
 1713000   0.96536677   -4.6161244    1116.9646  0.054337644  0.054391761            2 
 1714000   0.96050309   -4.5910609    1117.1194  0.054313469  0.054380883            6 
 1715000   0.95186588   -4.6292677     1118.276     0.054338  0.054370027            6 
 1716000   0.97644308   -4.6354207    1111.8805  0.053995749  0.054359024            3 
 1717000   0.98532303   -4.6022856    1115.5483  0.054142317  0.054347754            4 
 1718000    0.9824405   -4.6355876    1114.9572  0.054082132  0.054336735            7 
 1719000   0.98102872   -4.6076452    1118.7598   0.05423501   0.05432581            3 
 1720000   0.98526091   -4.6254176    1119.6018  0.054244273   0.05431489            4 
 1721000   0.98091208   -4.6054869    1119.6482  0.054215003  0.054303816            2 
 1722000   0.96874313   -4.6286508    1118.2092  0.054113879  0.054292702            7 
 1723000   0.97734606   -4.6292132    1118.9848  0.054119984  0.054281826            4 
 1724000   0.97026568   -4.6022046    1126.2845  0.054441439  0.054271011            2 
 1725000   0.95402991   -4.6253832    1118.0725  0.054013165  0.054259959            7 
 1726000   0.97721372   -4.6097411    1122.8731  0.054213648  0.054248988            4 
 1727000   0.97497747   -4.6283131    1118.6502   0.05397849  0.054238104            7 
 1728000   0.97248966   -4.6420609     1120.197  0.054021846  0.054226985            3 
 1729000   0.97398345   -4.6450309    1117.5924  0.053865064  0.054215647            4 
 1730000   0.96742918   -4.6139618     1120.389  0.053968639  0.054204395            2 
 1731000   0.98656612   -4.5921849     1125.519  0.054184431  0.054193353            4 
 1732000   0.97836195   -4.6002583    1124.6971  0.054113602  0.054182396            3 
 1733000   0.96511624   -4.6251668     1120.327  0.053872237  0.054171154            2 
 1734000   0.99376308   -4.6276813    1120.9247  0.053869893  0.054159703            5 
 1735000   0.99024638   -4.6043036     1126.211  0.054092746   0.05414852            2 
 1736000   0.96219519    -4.611487    1126.8676  0.054093106  0.054137309            8 
 1737000   0.97003352   -4.6390998    1122.4854  0.053851725  0.054126141            3 
 1738000    0.9642772   -4.6470193    1121.2441  0.053761224  0.054115017            3 
 1739000   0.97664968   -4.6201978    1125.3231  0.053925775  0.054103683            5 
 1740000   0.95502628   -4.6057983    1125.3493  0.053896039  0.054092593            5 
 1741000   0.97474247   -4.6391927    1127.7811   0.05398148  0.054081227            2 
 1742000   0.96476369   -4.6205574    1126.8043  0.053903762  0.054069983            4 
 1743000   0.96767975   -4.5981219    1126.2075  0.053844308  0.054058879            2 
 1744000   0.97486068   -4.6181288    1128.7409  0.053934484  0.054047256            4 
 1745000   0.98022853   -4.6472299    1124.6477  0.053708106  0.054035908            3 
 1746000   0.99111391   -4.6223406    1124.6356  0.053676768  0.054024635           14 
 1747000   0.96953671   -4.6065068    1134.1564   0.05410019  0.054013517            2 
 1748000   0.97276436   -4.6201767     1125.305  0.053647265  0.054002338            5 
 1749000   0.98315686   -4.6421893    1127.2632  0.053709892  0.053991435            6 
 1750000   0.95824534   -4.6587374    1129.4187  0.053781843  0.053980346            3 
 1751000   0.99294374   -4.6388245     1131.264   0.05383895  0.053969098            2 
 1752000   0.98185777    -4.616355    1132.6689  0.053875042  0.053957909            3 
 1753000   0.99823544   -4.6508714    1127.4592  0.053596655  0.053946681            2 
 1754000   0.95895035   -4.6195676    1128.7405  0.053626971  0.053935506            7 
 1755000   0.97238063   -4.6177463    1133.7478  0.053834176   0.05392438            4 
 1756000   0.96951157   -4.6147474    1130.6364  0.053655867  0.053913033            3 
 1757000   0.98728868   -4.6051745    1129.3119  0.053562506  0.053901826            4 
 1758000   0.97939204   -4.6320583    1133.0266  0.053708125   0.05389066            2 
 1759000   0.97429274   -4.5894409     1139.559  0.053987067  0.053879741            3 
 1760000   0.98462252   -4.6059729    1134.2817  0.053706519   0.05386893            3 
 1761000   0.96737778   -4.6310701    1141.1237  0.053999795  0.053857974            2 
 1762000   0.96122567    -4.622838    1138.6968   0.05385437  0.053847112            3 
 1763000   0.96981219   -4.6364592     1134.773  0.053638353  0.053835874            3 
 1764000    0.9514736   -4.6267199    1138.9638  0.053805926  0.053824722            2 
 1765000   0.96750999   -4.6111785    1137.3622  0.053699822  0.053813802            3 
 1766000   0.97098156   -4.6393251    1140.2042   0.05380352  0.053802618            5 
 1767000   0.95623436   -4.6281726     1136.832  0.053614036  0.053791601            4 
 1768000   0.97154543   -4.6084231    1138.4474   0.05365985  0.053780605            3 
 1769000   0.95587727   -4.6344159     1140.836  0.053742037  0.053769748            2 
 1770000   0.97330444   -4.6418331    1138.8726  0.053619238  0.053758994            4 
 1771000   0.99990653   -4.6529242    1138.6406  0.053578045  0.053748192            2 
 1772000   0.95235169   -4.6223151    1142.2515  0.053717622  0.053737468            4 
 1773000   0.95588508   -4.6502401    1138.8226  0.053526161  0.053726692            4 
 1774000   0.92937518   -4.6564158    1142.1412  0.053651877  0.053715869            6 
 1775000   0.96569106   -4.6623616    1141.9633  0.053613298  0.053705302            4 
 1776000   0.93641655   -4.6407991    1144.0015  0.053678749  0.053694579            3 
 1777000   0.98050018   -4.6363604    1145.2334   0.05370631  0.053683765            4 
 1778000   0.96709065   -4.6162421    1145.6996  0.053697958  0.053673168            2 
 1779000   0.95431446   -4.6392051    1143.3207  0.053556339  0.053662382            3 
 1780000     0.959761   -4.6318214    1144.6964  0.053590655  0.053651775            2 
 1781000   0.97863258   -4.6092225    1149.7245  0.053795831  0.053641307            3 
 1782000    0.9611513   -4.6189216    1151.6325  0.053854866  0.053631127            2 
 1783000   0.96310034   -4.6491173    1146.8353  0.053600454  0.053620633            4 
 1784000   0.97732849   -4.6252705    1150.6889  0.053750416  0.053610352            2 
 1785000   0.96701545   -4.6430595    1148.7316  0.053628926  0.053600116            3 
 1786000   0.97412444   -4.6436612    1153.7518  0.053833135  0.053589847            3 
 1787000   0.97062138   -4.6277782    1151.2652  0.053687057  0.053579716            4 
 1788000   0.97087287   -4.6131255    1153.2482  0.053749452  0.053569516            5 
 1789000   0.95880754    -4.665894    1151.3632  0.053631603  0.053559225            2 
 1790000   0.98028216    -4.642347    1152.4901  0.053654102  0.053548771            5 
 1791000   0.96372045   -4.5929405    1155.1253  0.053746759  0.053538665            6 
 1792000   0.96487321   -4.6410984    1152.9566  0.053615915   0.05352825            6 
 1793000   0.97404394   -4.6492796    1153.5318  0.053612745  0.053518006            4 
 1794000   0.95768381   -4.6164084    1153.5875  0.053585449  0.053507482            2 
 1795000    0.9739314   -4.6396997    1149.5979  0.053370378  0.053497145            3 
 1796000   0.94122384   -4.6479917      1151.74  0.053440053  0.053486576            1 
 1797000   0.96891113   -4.6393391    1151.8529  0.053415548   0.05347613            2 
 1798000   0.97616082   -4.6487727    1157.0037  0.053624568  0.053465636            4 
 1799000   0.98553142   -4.6231795     1154.872  0.053496015  0.053455417            3 
 1800000   0.94467861   -4.6368454    1152.7356  0.053367389  0.053445203            2 
 1801000   0.95684659   -4.6364101    1156.7358  0.053522848  0.053434912            7 
 1802000    0.9448176   -4.6737196    1156.8795  0.053499791   0.05342469            4 
 1803000    0.9674968   -4.6371518    1160.9924  0.053660214  0.053414413            4 
 1804000    0.9832562   -4.6450124     1157.442  0.053466465  0.053403985            5 
 1805000   0.97108056   -4.6478295    1161.9169   0.05364344   0.05339371            4 
 1806000   0.96324508   -4.6512153    1156.1322  0.053346817   0.05338349            8 
 1807000   0.95656559   -4.6245548    1162.5505  0.053613286  0.053373126            5 
 1808000   0.96658576   -4.6435848    1160.3373  0.053481623  0.053363245            3 
 1809000   0.94638244   -4.6533888    1160.1002  0.053441139  0.053353118            3 
 1810000   0.95981031   -4.6330016    1158.3921  0.053332969    0.0533426            2 
 1811000   0.94865373   -4.6105879    1161.0355  0.053425156  0.053332123            3 
 1812000   0.95710889   -4.6423479    1157.2275  0.053220545  0.053321824            6 
 1813000   0.99639557   -4.6471687    1156.5808  0.053161464   0.05331159            4 
 1814000   0.97840628   -4.6508547    1161.8585  0.053374612  0.053301286            4 
 1815000   0.95314071   -4.6211894    1164.7485  0.053477893  0.053290976            3 
 1816000   0.94817828   -4.6485073     1163.432   0.05338803  0.053280345            3 
 1817000   0.95142607   -4.6065851    1160.4198  0.053220501  0.053269908            3 
 1818000   0.94110889   -4.6323482    1160.7495  0.053206339  0.053259401            2 
 1819000   0.93625828   -4.6344048    1165.1717  0.053379684  0.053248782            4 
 1820000   0.96378633   -4.6162532    1164.1365  0.053302952  0.053238419            3 
 1821000   0.94516944   -4.6351927    1158.4951  0.053015518  0.053227746            6 
 1822000   0.97713101    -4.660876    1159.9379  0.053052412  0.053216941            2 
 1823000   0.96974185   -4.6358919    1163.5687  0.053189279  0.053206307            2 
 1824000   0.96193707   -4.6408333    1164.8406  0.053218231  0.053195701            2 
 1825000   0.95671717     -4.58825    1168.7758  0.053368757  0.053185161            3 
 1826000   0.96831387   -4.6470176     1162.332  0.053045454  0.053174533            3 
 1827000   0.95839416   -4.6652966    1167.6245  0.053257821  0.053163702            6 
 1828000   0.95066499   -4.6738032    1163.0399  0.053019688  0.053152771            4 
 1829000   0.97739561   -4.6460075    1167.3981  0.053189272  0.053141946           14 
 1830000   0.95165942   -4.6459425    1166.1881  0.053105106  0.053131187            3 
 1831000   0.97388516   -4.5960515    1161.1651  0.052847491    0.0531204            3 
 1832000   0.94071917   -4.6412587    1169.0566  0.053177612  0.053109623            3 
 1833000   0.95111138   -4.6619121    1166.9007  0.053050588  0.053098825            4 
 1834000   0.96169421   -4.6561331    1163.1985   0.05285344  0.053087617            3 
 1835000    0.9594417   -4.6554809    1164.3075  0.052875001   0.05307672            4 
 1836000   0.95728704   -4.6185534    1168.8901  0.053054197  0.053065723            4 
 1837000   0.98872121   -4.6290393     1169.133  0.053036335  0.053054801            2 
 1838000   0.96308987   -4.6307392    1172.8503  0.053176021  0.053043989            4 
 1839000    0.9860719    -4.670061    1170.0131  0.053018539  0.053033058            1 
 1840000   0.94490008   -4.6222861    1172.0299  0.053081064   0.05302194            3 
 1841000   0.94372735   -4.6314867    1170.0302  0.052961716  0.053010801            2 
 1842000   0.94473358   -4.6548432    1167.3282  0.052810724  0.052999598            2 
 1843000   0.94937191   -4.6697011    1163.9441   0.05262905  0.052988184            3 
 1844000   0.95611478   -4.6310372    1166.3577  0.052709585  0.052976872            8 
 1845000   0.94753032   -4.6336784    1170.4137  0.052864212  0.052965457            3 
 1846000   0.94934234   -4.6449474    1167.3802  0.052698635  0.052953986            7 
 1847000   0.92899285   -4.6559808    1165.6498   0.05259203  0.052942531            5 
 1848000   0.95640686   -4.6689669    1167.1434  0.052630924  0.052931047            4 
 1849000   0.96601153   -4.6726418    1164.8861  0.052500726  0.052919625            4 
 1850000   0.96684362   -4.6525643    1165.6833  0.052508259  0.052907999            6 
 1851000    0.9525973   -4.6455421    1170.6006   0.05270127  0.052896327            2 
 1852000   0.94057164   -4.6424919    1171.5731  0.052716573  0.052884934            5 
 1853000    0.9486972   -4.6433175    1170.7036  0.052649017  0.052873418            3 
 1854000   0.97525888     -4.66925     1168.875  0.052538433  0.052861769            6 
 1855000   0.97363002   -4.6693771    1169.8367  0.052553309  0.052850288            3 
 1856000   0.96858418   -4.6474245    1171.5725  0.052602931  0.052839018            4 
 1857000   0.97607736   -4.6407437    1174.8231  0.052720477  0.052827753            3 
 1858000   0.96431201   -4.6544142    1169.9922   0.05247543  0.052816468            4 
 1859000   0.98531301   -4.6370897    1172.6603  0.052566804  0.052805027            4 
 1860000   0.95936734   -4.6754041    1171.2109  0.052473606  0.052793721            3 
 1861000   0.98139411   -4.6465218    1172.3717  0.052497391  0.052782384            5 
 1862000   0.96245654   -4.6008965    1180.0523  0.052812939  0.052771059            5 
 1863000   0.96708807   -4.6297717    1175.8626  0.052597184  0.052759985            2 
 1864000   0.94770719   -4.6573202    1174.0057  0.052485949  0.052748762            2 
 1865000   0.94288106   -4.6687405     1175.883  0.052541688  0.052737424            4 
 1866000   0.96461838   -4.6472366    1175.9916   0.05251838  0.052726234            5 
 1867000   0.95806403    -4.669255    1176.7456  0.052523907  0.052714775            6 
 1868000   0.95708339   -4.6226269     1176.054  0.052464935  0.052703482            4 
 1869000   0.94940723   -4.6570174    1175.8301   0.05242688  0.052692166            5 
 1870000   0.94616707   -4.6743536    1175.4812  0.052383298  0.052680674            8 
 1871000   0.95722976   -4.6651399    1176.7113  0.052410088  0.052669557            3 
 1872000   0.96729652   -4.6816393    1178.1487  0.052446079  0.052658192            3 
 1873000   0.96281169   -4.6692766    1182.4318   0.05260864  0.052646907            3 
 1874000    0.9582374   -4.6635696    1176.9178   0.05233537  0.052635474            3 
 1875000   0.94356342   -4.6349067    1180.6006  0.052471139  0.052624073            5 
 1876000   0.95448085   -4.6783825    1176.0341  0.052240323  0.052612639            5 
 1877000   0.95757433   -4.6693298    1177.0775  0.052258811  0.052601325            3 
 1878000    0.9676397   -4.6871719    1179.6601  0.052345584  0.052590225            5 
 1879000   0.95930736   -4.6728956    1178.8112  0.052280079  0.052578938            3 
 1880000   0.93977843   -4.6335713     1184.319   0.05249641  0.052567533            3 
 1881000   0.93360199   -4.6427342     1187.409  0.052605396  0.052556211            4 
 1882000   0.95201617    -4.663695    1178.4605  0.052181211  0.052544725            3 
 1883000   0.93324905   -4.6573893    1181.8975  0.052305607  0.052533454            5 
 1884000    0.9425795   -4.6517061    1182.7187   0.05231417  0.052522285            7 
 1885000   0.96431374   -4.6789529    1187.4392  0.052495101  0.052510981            3 
 1886000   0.95529667   -4.6758106    1186.9706  0.052446564  0.052499869            2 
 1887000   0.92717501   -4.6335663    1183.0243  0.052244491  0.052488547            1 
 1888000   0.95071212   -4.6837233    1184.1333  0.052265771  0.052477356            3 
 1889000   0.96325259   -4.6367877    1185.8828  0.052315282  0.052466475            4 
 1890000   0.94833676   -4.6511151    1188.4327   0.05240003   0.05245549            5 
 1891000   0.96629751   -4.6958493    1182.2742  0.052100924  0.052444521            3 
 1892000   0.95007164   -4.6813961    1189.6851  0.052399802  0.052433151            4 
 1893000   0.96245017   -4.6532976    1190.2655  0.052397672  0.052422146            4 
 1894000   0.95758392   -4.6575757    1185.5891  0.052164252  0.052411017            3 
 1895000   0.96156414   -4.6578828    1190.1406  0.052336877  0.052400127            7 
 1896000   0.96798491   -4.7185133    1188.8613  0.052253046  0.052389021            7 
 1897000   0.93705911   -4.6741573    1190.6338  0.052303363   0.05237772            4 
 1898000   0.95417267   -4.6604819    1189.3701  0.052220323  0.052366556            3 
 1899000   0.96619437   -4.6564564    1193.3229  0.052366286  0.052355566            3 
 1900000   0.94300134   -4.6642774    1190.9748  0.052235736   0.05234464            3 
 1901000   0.95637599   -4.6520093    1193.4494  0.052316739  0.052333865            8 
 1902000   0.94499085   -4.6515307    1196.3255  0.052415242  0.052323032            4 
 1903000   0.94486258   -4.6953196    1193.6442  0.052270282  0.052312143            3 
 1904000   0.95674846   -4.6582196    1193.7971  0.052249525  0.052301108            4 
 1905000   0.93520048   -4.6622659    1194.5674  0.052255791   0.05229009            4 
 1906000   0.97615291   -4.6550132     1194.027  0.052204749  0.052279356            4 
 1907000   0.94534414   -4.6500789    1196.5985  0.052289743  0.052268281            2 
 1908000   0.92377798   -4.6730785    1194.7839  0.052183084  0.052257352            4 
 1909000   0.97043239   -4.6868376    1196.2515  0.052219815  0.052246414            3 
 1910000   0.97394004   -4.6795023    1197.5986  0.052251246  0.052235374            3 
 1911000   0.95701999   -4.6426973    1198.5595  0.052265806  0.052224765            3 
 1912000   0.96325012   -4.6527836    1197.4431  0.052189814  0.052213996            3 
 1913000   0.94984173    -4.689856    1197.0706  0.052146305   0.05220332            3 
 1914000   0.95426734    -4.704324    1193.6005  0.051967977  0.052192548            3 
 1915000   0.96061748   -4.6621435    1195.0841  0.052005401   0.05218174            3 
 1916000   0.94555374   -4.6839287    1200.0564   0.05219452  0.052171082            3 
 1917000   0.95764919   -4.6890362    1200.3455  0.052179861  0.052160273            5 
 1918000   0.94907462   -4.6604231     1201.456  0.052200905   0.05214963            3 
 1919000   0.96031377   -4.6576858    1203.5516  0.052264705  0.052139271            7 
 1920000   0.93741846   -4.6583737    1204.5429  0.052280509  0.052129051            4 
 1921000   0.93971748   -4.6507961    1207.7297  0.052391538  0.052118735            3 
 1922000   0.93187489   -4.6830849    1204.1677  0.052209836  0.052108541            4 
 1923000   0.92963548   -4.6207514    1207.3852  0.052322117  0.052098218            4 
 1924000   0.94336723   -4.7080859    1201.2589  0.052029578  0.052087873            6 
 1925000   0.94230788   -4.6862627    1199.5619  0.051929086  0.052077197            5 
 1926000   0.95109212   -4.6621083     1202.188  0.052015751  0.052066537            3 
 1927000   0.93533539   -4.6878444    1209.8998  0.052322256  0.052055991            4 
 1928000   0.94656929   -4.7049919    1204.8669  0.052077582  0.052045333            3 
 1929000   0.95694042   -4.6853959    1203.0116  0.051970433  0.052034736            3 
 1930000   0.93371981   -4.6546391    1204.4284  0.052004681   0.05202409            7 
 1931000   0.95509069   -4.6667605    1207.8301   0.05212455  0.052013624            2 
 1932000   0.94284092   -4.6777645    1209.3098  0.052161394  0.052003254            4 
 1933000    0.9356249   -4.6794131    1209.8686  0.052158501  0.051993018            8 
 1934000   0.94952027   -4.6893929    1209.7122  0.052124793  0.051982881            4 
 1935000   0.94979845   -4.6493338    1213.3047  0.052252572  0.051972707            3 
 1936000    0.9455207   -4.6967755    1210.6938  0.052113199  0.051962718            2 
 1937000   0.95525101   -4.7145443    1210.4624  0.052076339  0.051952484            4 
 1938000   0.93353173   -4.6890551      1210.39  0.052046355   0.05194199            3 
 1939000   0.92522463   -4.6968788    1208.3843  0.051933311  0.051931545            2 
 1940000   0.93318478   -4.6915906    1212.8917   0.05210016  0.051920968            4 
 1941000   0.91639929   -4.7044032    1211.6728  0.052020987  0.051910425            4 
 1942000    0.9515055   -4.6783413    1212.4645   0.05202817  0.051900179            3 
 1943000   0.94107477    -4.696982    1209.1784  0.051860456  0.051889784            4 
 1944000    0.9317741   -4.6712461    1210.6324  0.051896108  0.051879434            5 
 1945000   0.94129749   -4.6866059    1206.3293  0.051685061  0.051868956            5 
 1946000   0.92476769   -4.6825087    1209.4155  0.051790662  0.051858644            3 
 1947000   0.93027635   -4.6850151    1216.2655  0.052057247  0.051848176           11 
 1948000   0.94301793   -4.6663163     1213.983  0.051932881  0.051837874            3 
 1949000   0.93621119   -4.6935819    1209.7568  0.051725533  0.051827484            3 
 1950000   0.93697964   -4.6934859     1211.121  0.051757308  0.051816896            2 
 1951000   0.95319428   -4.6746878    1215.5837  0.051921396  0.051806607            5 
 1952000   0.93738086   -4.6803742    1217.0116  0.051955757  0.051796068            5 
 1953000   0.93239841   -4.6646706     1213.377  0.051774067  0.051785498            2 
 1954000   0.95152526   -4.6654762    1216.1629   0.05186638  0.051774766            3 
 1955000   0.95305796    -4.670764    1217.3186  0.051889113  0.051764215            2 
 1956000   0.94202899   -4.7012507     1213.058  0.051681066  0.051753336            7 
 1957000   0.93080624   -4.7031299    1214.8453  0.051730766  0.051742551            5 
 1958000   0.95154125   -4.6890486    1214.9712  0.051709705  0.051731689            7 
 1959000    0.9439321   -4.6995921    1214.3916  0.051658651  0.051721103            3 
 1960000   0.94044674   -4.6885978    1212.4749  0.051550804  0.051710354            4 
 1961000   0.94492628    -4.673031    1217.2449   0.05172722  0.051699493            2 
 1962000   0.93466171   -4.7002486    1216.5063  0.051669483  0.051688821            3 
 1963000   0.96344868   -4.6871392    1217.2133  0.051673176  0.051678294            3 
 1964000   0.94483822    -4.697674    1213.9535  0.051508548  0.051667692            2 
 1965000   0.92887306   -4.6868239    1222.4664  0.051843361   0.05165705            3 
 1966000   0.95156488    -4.690713    1222.5823  0.051821902  0.051646666            3 
 1967000   0.92697105   -4.6858744    1220.0256  0.051687237  0.051636212            4 
 1968000   0.93589581   -4.7008074    1219.6322  0.051644317  0.051625613            4 
 1969000   0.92479641   -4.7049008    1218.3163  0.051562396  0.051614992            3 
 1970000   0.93677294   -4.6910929    1218.8717  0.051559715  0.051604355            2 
 1971000   0.93485022   -4.7040397    1221.4712  0.051643462  0.051593823            3 
 1972000   0.94064857   -4.7024622    1221.0978  0.051601494  0.051583439            4 
 1973000   0.94622913    -4.692228    1226.1798  0.051789991   0.05157284            3 
 1974000   0.93638384   -4.7108271    1221.2899  0.051557323  0.051562318            8 
 1975000    0.9195354   -4.7138697    1221.0379  0.051520588  0.051551635            5 
 1976000   0.93003496   -4.6978393    1226.0361  0.051705302  0.051541133            4 
 1977000    0.9290035   -4.6781342    1225.8886  0.051672932  0.051530678            5 
 1978000   0.94515693   -4.7121978     1224.406  0.051584345  0.051520121            2 
 1979000   0.92522784   -4.6672392    1222.2132  0.051465942  0.051509956           11 
 1980000   0.92330176   -4.6975797    1229.2511  0.051736156  0.051499755            3 
 1981000   0.93995895     -4.70971    1225.7386  0.051562285  0.051489587            2 
 1982000   0.93486569   -4.6884548     1226.715   0.05157732   0.05147919            9 
 1983000   0.93331045   -4.6999261    1229.1287  0.051652745  0.051468728            4 
 1984000   0.91536959   -4.6987303    1223.5513  0.051392445  0.051458141            3 
 1985000   0.92937523   -4.6831887    1222.5422  0.051324189   0.05144769            3 
 1986000   0.94795782   -4.6963491    1224.3201  0.051372948  0.051437366            3 
 1987000   0.92235841   -4.6758858    1224.4771  0.051353679  0.051426888            2 
 1988000   0.94135004   -4.6660148    1230.6535  0.051586751  0.051416521            3 
 1989000    0.9240625   -4.7028818    1228.3921  0.051466067   0.05140591            3 
 1990000   0.93508075   -4.6969379    1230.3904  0.051523885  0.051395425            4 
 1991000   0.91310923   -4.6917641     1229.993  0.051481374  0.051385055            1 
 1992000   0.91811265   -4.7144875    1228.6793  0.051400575  0.051374558            4 
 1993000    0.9157656   -4.6830914     1233.314  0.051568574  0.051364129            3 
 1994000   0.93066729   -4.6937465    1228.8074  0.051354371  0.051353668            8 
 1995000    0.9131414   -4.7125362    1231.8904  0.051457409  0.051343395            3 
 1996000   0.94134828   -4.7008381    1233.9799  0.051518869  0.051332895            3 
 1997000   0.92581733   -4.7116431    1231.7003  0.051397945  0.051322346            6 
 1998000   0.90641193    -4.698133    1230.4832  0.051321457   0.05131167            3 
 1999000    0.9357097   -4.6684662    1233.2446  0.051410898  0.051301141            4 
 2000000    0.9251656   -4.6937206    1232.0522  0.051335507  0.051290712            6 
 2001000   0.94115167   -4.7047002    1229.6802  0.051211071  0.051279961            6 
 2002000   0.95512676   -4.6983732    1229.0977  0.051161243  0.051269456            3 
 2003000   0.92562846   -4.7279541    1230.4568  0.051192247  0.051258718            3 
 2004000   0.93691991   -4.6970011    1231.4301  0.051207174  0.051247963            4 
 2005000   0.91500388   -4.6699206    1234.3029  0.051301034  0.051237086            4 
 2006000   0.93582983   -4.6834363    1234.4945  0.051283423  0.051226368            2 
 2007000   0.92135967   -4.6924947    1234.1842  0.051244985   0.05121585            4 
 2008000   0.94019492   -4.6961326    1238.9905   0.05141893  0.051205113            4 
 2009000   0.94315862   -4.7184931    1229.9177  0.051016993  0.051194576            2 
 2010000   0.92305737   -4.6969797    1234.7982  0.051193954  0.051183717            3 
 2011000   0.91561934   -4.7054468    1232.7001  0.051081556  0.051173013            5 
 2012000   0.92322187   -4.7178382    1235.0488  0.051153448  0.051162347            3 
 2013000   0.91860936   -4.7121683    1237.3014  0.051221287  0.051151671            2 
 2014000   0.93389933   -4.7247732    1231.2536  0.050945612  0.051140979            6 
 2015000   0.92241967   -4.7120118    1235.7837  0.051107681  0.051130163            3 
 2016000   0.92838881   -4.7004698     1239.061  0.051217801  0.051119396            7 
 2017000   0.91382202   -4.7031959    1235.0823  0.051028022  0.051108639            5 
 2018000   0.91790084   -4.7195772    1236.7409  0.051071229  0.051097965            4 
 2019000   0.93682774   -4.6953599    1240.3987   0.05119691  0.051087371            2 
 2020000   0.92548787   -4.7062498    1237.3665  0.051046471  0.051076771            3 
 2021000   0.92825021   -4.6729929    1241.6977  0.051199808  0.051066151            5 
 2022000   0.91724288    -4.697333    1238.1718  0.051029173  0.051055639            4 
 2023000   0.92968593   -4.6950118    1245.0061  0.051285471  0.051045219            3 
 2024000   0.91971783   -4.6864903    1239.1162  0.051017632   0.05103466            6 
 2025000   0.93889725   -4.6771269    1242.2773  0.051122523  0.051024175            4 
 2026000   0.91592916   -4.7101481    1240.3056  0.051016189  0.051013799            5 
 2027000   0.94041098   -4.7259407    1239.5335  0.050959277  0.051003323            4 
 2028000   0.93336803   -4.7345796    1241.9521  0.051033534  0.050992559            4 
 2029000   0.93720619   -4.6787605    1242.5188  0.051031656  0.050981875            8 
 2030000   0.94002749   -4.7050541    1239.1356  0.050867635   0.05097125            6 
 2031000   0.92392499    -4.696039    1247.1254  0.051170418  0.050960651            2 
 2032000   0.92309184     -4.72626    1242.6481  0.050961618  0.050950055            5 
 2033000   0.92501328   -4.6894865    1241.7158  0.050898338  0.050939341            2 
 2034000   0.91329631   -4.6940432      1249.29  0.051183629  0.050928738            6 
 2035000   0.91736048   -4.6966626    1246.2643  0.051034573  0.050918081            5 
 2036000   0.92776721   -4.6720233    1245.7553  0.050988677  0.050907487            6 
 2037000   0.92772299   -4.6809376    1248.7109  0.051084554  0.050896966            2 
 2038000   0.90724424   -4.7000001    1242.3535  0.050799536   0.05088643            3 
 2039000   0.92013118   -4.6961602    1243.7419  0.050831368   0.05087574            3 
 2040000   0.92856261   -4.7389416      1244.44  0.050834968  0.050864837            3 
 2041000   0.92654584   -4.7026607    1248.2181  0.050964317  0.050854019            5 
 2042000   0.91006957   -4.7110034    1246.1009   0.05085296  0.050843473            2 
 2043000   0.93338597   -4.7105534    1249.9253  0.050984062  0.050832829            2 
 2044000   0.92219862   -4.6874616     1243.935  0.050714898  0.050822205            9 
 2045000   0.94257278   -4.7086711    1246.4235  0.050791503  0.050811517            4 
 2046000   0.93067732    -4.724169    1248.7058  0.050859639  0.050800964            3 
 2047000   0.92202422    -4.719833    1240.5271  0.050501836  0.050790305            4 
 2048000   0.94162019   -4.6988843     1248.253  0.050791544  0.050779517            2 
 2049000   0.91809521   -4.7144687    1245.9067  0.050671332  0.050768826            2 
 2050000   0.92091589   -4.7037492    1246.7174  0.050679571  0.050757893            5 
 2051000   0.93905668   -4.7251774    1244.6542  0.050571029  0.050747064            3 
 2052000   0.91361309   -4.7026238    1249.8434  0.050757122  0.050736104            4 
 2053000   0.91617776   -4.7149384    1245.7602  0.050566657  0.050725085            4 
 2054000   0.92809499   -4.7038761    1246.3325  0.050565259  0.050713975            2 
 2055000   0.92008754   -4.7038369    1251.6187  0.050755015  0.050702849            6 
 2056000   0.92132538   -4.7292578    1245.2015  0.050470231  0.050691767            8 
 2057000    0.9087753    -4.705128    1251.3771  0.050695881   0.05068088            6 
 2058000   0.89826483   -4.7338233    1250.0173  0.050616183  0.050669889            2 
 2059000   0.92764343   -4.6989965    1250.9428  0.050629059  0.050659071            4 
 2060000    0.9414607   -4.7098636    1254.3066  0.050740557  0.050648282            5 
 2061000   0.93958672   -4.7127034    1253.6164  0.050688031  0.050637496            3 
 2062000   0.91050777   -4.7144197    1254.6006  0.050703225  0.050626742            3 
 2063000   0.92776137    -4.733624    1248.5357  0.050433662  0.050616002            5 
 2064000   0.92297169   -4.7437244    1250.6729  0.050495515   0.05060498            3 
 2065000   0.92396675   -4.7193497    1247.9777  0.050362295  0.050594118            5 
 2066000   0.91707163   -4.7164233    1253.3074  0.050552897  0.050583187            4 
 2067000   0.91203095   -4.7046479     1252.226  0.050484842  0.050572174            6 
 2068000   0.91607077   -4.7140807    1253.2844  0.050503077  0.050561129            3 
 2069000   0.93790647   -4.7386333    1252.8137  0.050459712  0.050550012            8 
 2070000   0.92105778   -4.7027033    1254.1728  0.050490046  0.050538897            5 
 2071000   0.91979234   -4.7251072    1251.8084  0.050370528  0.050527853            9 
 2072000   0.92893328    -4.739346    1253.6241  0.050419244   0.05051674            4 
 2073000   0.91551457   -4.7294315    1251.5129  0.050310053  0.050505545            5 
 2074000   0.92977977   -4.7396565    1252.0287  0.050306522  0.050494471            5 
 2075000   0.92432216   -4.7412963    1255.8113  0.050434189  0.050483448            9 
 2076000   0.93789698   -4.7308362     1252.476  0.050276011  0.050472356            6 
 2077000   0.90640373   -4.7191698    1252.9914  0.050272483  0.050461385            2 
 2078000    0.9105515   -4.7322041    1252.1862  0.050216001  0.050450477            6 
 2079000   0.91057196   -4.7364833    1258.0185  0.050425624  0.050439658            5 
 2080000   0.91146419   -4.6712946    1261.0956  0.050524664  0.050428968            2 
 2081000   0.90736845   -4.7254402    1260.9198  0.050493346   0.05041822            3 
 2082000   0.93116593   -4.7181984    1259.6558  0.050418501  0.050407401            2 
 2083000    0.9245419   -4.7130672    1257.5822  0.050311338  0.050396547            4 
 2084000   0.92469902     -4.73861    1257.7643  0.050294477  0.050385691            4 
 2085000   0.90084456   -4.6986937    1260.0835   0.05036305  0.050374895            5 
 2086000   0.91811142   -4.7442538    1259.1398  0.050301205  0.050363994            8 
 2087000   0.91125849   -4.7368669    1259.1185  0.050276254  0.050353136            3 
 2088000   0.90485449   -4.7236914    1259.9252  0.050284369   0.05034195            3 
 2089000   0.91663065   -4.7326942    1261.5795  0.050326291  0.050331191            3 
 2090000   0.91984368    -4.714314    1259.0266  0.050200421  0.050320183            4 
 2091000    0.9378023   -4.7009078    1266.7062  0.050482471  0.050309267            3 
 2092000   0.92770486   -4.7647598     1257.798   0.05010349    0.0502984            3 
 2093000   0.91943185   -4.7245527    1261.8091  0.050239254  0.050287261            4 
 2094000   0.90641633   -4.7086953    1263.1528  0.050268736   0.05027625            3 
 2095000   0.91994976   -4.7085789    1259.7086   0.05010774  0.050265333            5 
 2096000   0.92778251   -4.6985637    1265.0196  0.050294992  0.050254388            5 
 2097000   0.92886802    -4.707447    1265.7542    0.0503002   0.05024384            3 
 2098000   0.90515159   -4.7243865    1263.3714  0.050181579   0.05023292            5 
 2099000   0.90768622   -4.7134381    1264.3037  0.050194683  0.050222098            3 
 2100000    0.9154693   -4.7040122    1262.5015  0.050099267  0.050211315            4 
 2101000   0.92271352   -4.6840361    1263.0404  0.050096796  0.050200461            4 
 2102000   0.90126767   -4.6888769    1267.3904  0.050245415  0.050189746            4 
 2103000   0.89988555   -4.7226111    1266.7877  0.050197642  0.050178793            4 
 2104000    0.9152546   -4.7222533    1267.8714  0.050216706  0.050167764            5 
 2105000   0.93428308   -4.7181375    1265.3436   0.05009278   0.05015677            6 
 2106000   0.91617461    -4.713808    1266.2319  0.050104143  0.050145903            3 
 2107000   0.91034419    -4.714606    1269.5287  0.050210755  0.050135185            6 
 2108000   0.93234279   -4.6946758    1272.4911  0.050304046  0.050124424            6 
 2109000   0.91240557   -4.7221209    1267.2141  0.050071681  0.050113722            3 
 2110000   0.91741044   -4.7294074    1265.8499  0.049994072  0.050102984            3 
 2111000   0.92108025    -4.723247    1268.2872  0.050066602  0.050092436            4 
 2112000   0.90211166   -4.7278621     1272.392   0.05020486  0.050081676            6 
 2113000   0.90629358   -4.7372741    1268.8357  0.050040848  0.050070648            4 
 2114000   0.93507361   -4.7487679    1273.6892    0.0502085  0.050059921            4 
 2115000   0.90700227    -4.707015     1271.428  0.050095666  0.050049256            6 
 2116000   0.91864533   -4.7461174    1266.1767  0.049865182  0.050038414            2 
 2117000   0.89894998   -4.7463377     1269.485  0.049971855  0.050027459            3 
 2118000   0.89783286   -4.7458805    1268.1943  0.049897476  0.050016478            3 
 2119000   0.90385242   -4.7111153    1271.5296  0.050005098  0.050005717            5 
 2120000   0.90263268   -4.7716641     1272.224  0.050008807  0.049994819            2 
 2121000   0.89987334   -4.7511372     1271.574  0.049959688  0.049983758            6 
 2122000   0.89841582    -4.744259    1267.6212  0.049780913  0.049972725            2 
 2123000   0.89866836   -4.7388851     1269.672  0.049837967  0.049961743            6 
 2124000   0.90397851    -4.737999    1270.4443  0.049844802  0.049950815            3 
 2125000   0.90257989   -4.7438444    1267.5644  0.049708409  0.049939814            6 
 2126000   0.89614767   -4.7303355    1269.7796  0.049771857  0.049928955            4 
 2127000   0.91914907   -4.7168037    1272.9961  0.049874475  0.049918081            5 
 2128000   0.90500294   -4.7617257    1269.4779  0.049713263  0.049907296            5 
 2129000   0.90716997   -4.7505878    1271.1454  0.049755182  0.049896445            3 
 2130000   0.89123428   -4.7850091    1269.8173  0.049679863   0.04988558            5 
 2131000   0.91965348   -4.7303513    1272.0515   0.04974392  0.049874571            2 
 2132000   0.93270077   -4.7323841      1274.93  0.049833099  0.049863743            6 
 2133000   0.92709912   -4.7264555    1274.8961  0.049808412  0.049852744            3 
 2134000   0.92255084   -4.7249165     1275.852  0.049822401  0.049841873            3 
 2135000   0.90886418   -4.7123726    1277.3437  0.049857288  0.049831169            3 
 2136000   0.92169702   -4.7558478    1272.1985  0.049633212  0.049820241            5 
 2137000   0.91181631   -4.7542238     1276.782  0.049788722  0.049809456            3 
 2138000   0.91626066   -4.7488873     1275.228  0.049704864  0.049798437            4 
 2139000   0.91242495   -4.7493675    1270.4152  0.049494123  0.049787616           13 
 2140000   0.92256253   -4.7299821    1277.1949  0.049735006  0.049776612            6 
 2141000   0.92739855   -4.7358995    1279.4075  0.049797895   0.04976584            4 
 2142000   0.91371658   -4.7524525    1274.8691  0.049598083  0.049754857            2 
 2143000   0.91898547     -4.76174    1275.6133  0.049603875  0.049743828            6 
 2144000   0.92580263   -4.7536725    1274.2014  0.049525864  0.049732887            3 
 2145000   0.91145839   -4.7085478    1283.4599  0.049862468   0.04972202            5 
 2146000   0.90680727   -4.7161672    1281.5571  0.049765342  0.049711197            5 
 2147000   0.90856527   -4.7613327    1280.1069  0.049685875  0.049700464            5 
 2148000   0.90917041   -4.7672615    1279.4502  0.049637265  0.049689624           10 
 2149000   0.91869065   -4.7424444    1281.1745  0.049681035  0.049678806            5 
 2150000   0.90823107   -4.7314067    1282.2989  0.049701509  0.049668074            4 
 2151000   0.90864194   -4.7369185    1284.1271  0.049749228  0.049657498            5 
 2152000   0.91816245   -4.7633663     1282.604  0.049667131  0.049646996            4 
 2153000   0.91561828   -4.7547934    1283.4139  0.049675408  0.049636348            2 
 2154000   0.92427426   -4.7587433    1283.6743  0.049662422  0.049625605            5 
 2155000   0.90533209   -4.7441668     1282.694  0.049601469  0.049614864            4 
 2156000   0.89940459   -4.7685756    1281.0706  0.049515716  0.049604117            7 
 2157000   0.90319747   -4.7366817    1284.1833  0.049613017  0.049593467            4 
 2158000   0.90546254   -4.7289603    1285.4821  0.049640179  0.049582973            4 
 2159000   0.89800758   -4.7361406    1287.6514   0.04970092  0.049572548            4 
 2160000   0.92002255   -4.7657183    1286.9206  0.049649713   0.04956209            7 
 2161000   0.90950296   -4.7751782    1287.2539  0.049639593   0.04955173            9 
 2162000   0.89478838    -4.773835    1289.4346  0.049700686  0.049541295            6 
 2163000   0.89736645   -4.7349242    1292.2174  0.049784921  0.049531047            7 
 2164000   0.92514888   -4.7713554    1291.1238  0.049719803  0.049520844            4 
 2165000   0.90331585   -4.7461911    1290.8315  0.049685583  0.049510656            7 
 2166000   0.90549495   -4.7602895    1293.0564  0.049748245  0.049500361            9 
 2167000   0.91337903   -4.7487143    1291.4049   0.04966178   0.04949005            4 
 2168000   0.90017778    -4.764245    1292.5287  0.049682068  0.049479798            6 
 2169000   0.91030507    -4.759854    1294.0916   0.04971921   0.04946954            3 
 2170000   0.91320268   -4.7852502    1287.6122  0.049447474  0.049459249            4 
 2171000   0.89251867   -4.7671993    1290.4599  0.049534007   0.04944905            7 
 2172000   0.88709363   -4.7683716    1293.0007  0.049608681   0.04943891            6 
 2173000   0.89962523   -4.7743678    1289.8124  0.049463585  0.049428692            3 
 2174000   0.90195799    -4.746713    1293.6895  0.049589448  0.049418604            2 
 2175000   0.88845323   -4.7540467    1298.2427  0.049741101   0.04940845            4 
 2176000   0.92945442   -4.7509654    1299.1073   0.04975135  0.049398315            5 
 2177000   0.91737368   -4.7272807     1298.937  0.049721978  0.049388294            1 
 2178000    0.8980329   -4.7280844    1295.4404  0.049565365  0.049378289            3 
 2179000   0.90435547   -4.7720125    1296.0909  0.049567496  0.049368078            2 
 2180000   0.88961181   -4.7474115    1297.9094  0.049614272  0.049358013            7 
 2181000    0.8911685   -4.7729727    1296.8664  0.049551673  0.049348024            5 
 2182000   0.90847735   -4.7683039    1297.8682  0.049567224   0.04933792            5 
 2183000   0.90681771   -4.7650594    1295.0318  0.049436242  0.049327837            3 
 2184000   0.90466013   -4.7647238    1297.8098  0.049519606  0.049317708            5 
 2185000   0.89235631    -4.747379    1298.1081  0.049508317  0.049307453            6 
 2186000   0.89916118   -4.7704888    1299.7195  0.049547099    0.0492974            4 
 2187000   0.87495723   -4.7554454    1299.5827  0.049519232  0.049287412            5 
 2188000   0.91380906   -4.7361123    1302.4144  0.049604449  0.049277473            3 
 2189000   0.90055411   -4.7317863    1305.0174  0.049680882   0.04926763            3 
 2190000   0.89829427   -4.7901935    1302.8988   0.04957758  0.049257705            3 
 2191000   0.89809709   -4.7341055    1301.1677   0.04948911  0.049247677            5 
 2192000   0.91642866   -4.7715903    1300.6255  0.049445922  0.049237488            2 
 2193000   0.90388835   -4.7389388    1298.3216  0.049335827  0.049227491           17 
 2194000   0.91731548   -4.7837263    1298.0687  0.049303733  0.049217391            3 
 2195000   0.89987636   -4.7657569    1303.3045   0.04948005  0.049207266            4 
 2196000   0.90600508    -4.769569    1300.4697  0.049349943  0.049197155            4 
 2197000   0.87600101   -4.7784746    1299.9694  0.049308505  0.049187099            7 
 2198000   0.88989563   -4.7591399    1299.8133  0.049280153  0.049176977            4 
 2199000   0.90870825   -4.7789333    1302.2126  0.049348667  0.049167009            2 
 2200000   0.90126717   -4.7708166    1303.0335  0.049357328  0.049156941            6 
 2201000   0.89346277   -4.7447013    1308.1806  0.049529782  0.049146805            4 
 2202000    0.8987004    -4.747455    1305.7401   0.04941493  0.049136962           10 
 2203000   0.92916571   -4.7577907    1303.6875  0.049314853  0.049126753            3 
 2204000   0.89799683   -4.7366887    1308.1942  0.049462876  0.049116568            3 
 2205000   0.91038834    -4.754252    1309.0137  0.049471416  0.049106702            5 
 2206000   0.88913625   -4.7329202    1306.1675  0.049341475  0.049096705            3 
 2207000    0.9078563   -4.7491042    1305.2023  0.049282674  0.049086708            5 
 2208000   0.91076855   -4.7612043    1305.4438  0.049269469  0.049076589            8 
 2209000   0.87755805   -4.7746787     1305.153  0.049236194  0.049066346            6 
 2210000   0.90962404   -4.7529096    1306.0165  0.049246476  0.049056252            6 
 2211000   0.91288694     -4.75601     1300.992  0.049034825  0.049046122            3 
 2212000   0.89590006   -4.7592408    1307.6511   0.04926353  0.049035875            4 
 2213000   0.88367845   -4.7734788    1302.6803  0.049054084  0.049025603            3 
 2214000   0.92761791   -4.7683666     1305.823  0.049150219   0.04901541            4 
 2215000   0.91547577   -4.7494496    1307.2406  0.049181362  0.049005351            8 
 2216000   0.91377653    -4.774261     1308.944  0.049223226  0.048995218            3 
 2217000   0.90282812   -4.7587234    1308.0506  0.049167439  0.048984818            4 
 2218000   0.89854554   -4.7447642    1309.7017  0.049207306  0.048974461            3 
 2219000   0.89464754   -4.7533951     1313.194  0.049316284  0.048964318            5 
 2220000   0.92160929   -4.7402507    1309.7309  0.049164072  0.048954169            3 
 2221000   0.91201656   -4.7606007    1311.7713  0.049218492  0.048944014            6 
 2222000   0.89768989   -4.7582976    1314.1579  0.049285849  0.048933887            3 
 2223000   0.87031647   -4.7746131    1310.3724  0.049121771   0.04892376            6 
 2224000   0.89424729    -4.784912    1306.1289  0.048940681  0.048913413            5 
 2225000   0.88954023   -4.7421033    1308.1029  0.048992618   0.04890325            6 
 2226000   0.89078817   -4.7716449    1307.1643   0.04893547  0.048892896            5 
 2227000   0.89995921   -4.8000718    1311.4434  0.049073619  0.048882581            8 
 2228000   0.91930205   -4.7563738    1309.8313  0.048991296  0.048872306            2 
 2229000   0.89233708   -4.7834576    1309.2348  0.048947016  0.048862137            6 
 2230000   0.89847275   -4.7716948    1309.5175   0.04893563  0.048851732            8 
 2231000   0.89372378   -4.7557255    1311.7041  0.048995371  0.048841374            5 
 2232000     0.919704   -4.7815105    1311.1817  0.048953918  0.048831191            3 
 2233000   0.88838582   -4.7590837    1311.3125  0.048936875  0.048820809            4 
 2234000   0.89666792   -4.7725347    1313.1155  0.048982225  0.048810537            6 
 2235000   0.89886299    -4.761244     1313.623  0.048979232  0.048800294            4 
 2236000   0.89047005   -4.7901666    1309.9024  0.048818665  0.048789994            6 
 2237000   0.87820275   -4.7901782    1308.7708  0.048754688    0.0487795            4 
 2238000    0.8944989    -4.769778    1312.1086  0.048857188  0.048768867            5 
 2239000   0.89537682   -4.7590176    1309.9382  0.048754585  0.048758424            5 
 2240000   0.88765041   -4.7476197    1311.0362  0.048773668   0.04874807            4 
 2241000   0.88806491   -4.7534766    1317.5572  0.048994393  0.048737782            5 
 2242000   0.86600127   -4.7794077    1314.3426  0.048853057  0.048727554            4 
 2243000   0.88822654    -4.783025    1312.2207  0.048752441  0.048717226            6 
 2244000    0.8951786   -4.7464155    1317.5155  0.048927342  0.048706911           10 
 2245000   0.87911501   -4.7768402    1318.2559  0.048933034  0.048696663            4 
 2246000   0.88357154    -4.784467    1318.2308  0.048910313  0.048686407            3 
 2247000   0.89405486   -4.7562067    1313.1827   0.04870133  0.048676065            1 
 2248000   0.88691122   -4.7889745    1315.1701  0.048753338  0.048665595            6 
 2249000   0.90524553   -4.8016362    1314.0489  0.048690118  0.048655216            6 
 2250000   0.88734082   -4.7713492    1320.8635  0.048920871  0.048645003            8 
 2251000   0.88679869   -4.7833663    1319.6975  0.048855971  0.048634755            4 
 2252000   0.91359624   -4.7925046    1315.8893  0.048693358  0.048624363            4 
 2253000   0.90397584   -4.7708739    1324.2656  0.048981566  0.048614108            4 
 2254000   0.89128582   -4.7629259    1321.9813   0.04887538  0.048604054            1 
 2255000   0.89765254   -4.7736661    1318.3154  0.048718235  0.048593749            6 
 2256000   0.89351513   -4.7720533    1322.5451  0.048852879  0.048583427            7 
 2257000   0.89329059   -4.7973835    1321.7069  0.048800284  0.048573247            8 
 2258000   0.88042502   -4.7834377    1319.0215  0.048679566  0.048562929            7 
 2259000   0.88326423   -4.7731545    1320.6365  0.048717592  0.048552492            2 
 2260000    0.8980965   -4.7794453    1320.6425  0.048696258  0.048542147            3 
 2261000   0.89233049   -4.7953496    1319.0238  0.048615059  0.048531718            8 
 2262000   0.89597884   -4.7701236    1321.0261  0.048667333  0.048521296            5 
 2263000    0.8783692   -4.7923717     1315.606  0.048446238  0.048510837            5 
 2264000   0.89618336   -4.7728219    1321.7034  0.048649273  0.048500478            4 
 2265000   0.88198132   -4.7717393    1321.4212   0.04861741   0.04849003            3 
 2266000   0.88936627   -4.7611609    1321.2604  0.048590042  0.048479587            3 
 2267000    0.9048653   -4.7600028    1320.7007  0.048548034  0.048469263            4 
 2268000   0.88424714   -4.7716175    1325.0515   0.04868649  0.048459063            7 
 2269000   0.87055557   -4.7692296    1322.5559  0.048573376  0.048448856            6 
 2270000   0.87716159   -4.7511027    1328.0736  0.048754538  0.048438702            4 
 2271000   0.87941454   -4.7876038    1324.6689  0.048608134  0.048428419            8 
 2272000   0.89780728   -4.7885415    1324.9477  0.048596968  0.048418023            5 
 2273000   0.90278385   -4.7859589    1323.0069  0.048504433  0.048407632            3 
 2274000   0.88997925   -4.7720215    1326.2604  0.048602332  0.048397201            6 
 2275000   0.88366493   -4.7776135    1323.2919  0.048472229  0.048387016            6 
 2276000   0.88971992   -4.7690121    1324.2455  0.048485848  0.048376668            5 
 2277000   0.87129806   -4.7954934     1325.367  0.048505599  0.048366276            5 
 2278000   0.87812758   -4.7662513    1324.7644  0.048462263  0.048356016            2 
 2279000   0.88522556   -4.7717292    1328.0389  0.048560732  0.048345568            4 
 2280000    0.8894495   -4.8063785    1319.2743  0.048219089  0.048335107            7 
 2281000   0.87027912   -4.7980395    1324.5021  0.048388942  0.048324555            4 
 2282000   0.89148816   -4.7919261    1323.3734  0.048326521  0.048314014            8 
 2283000   0.89606658   -4.7730584    1326.6544  0.048425115  0.048303424            5 
 2284000   0.87981169   -4.7982902    1323.6696  0.048295009  0.048292997            3 
 2285000   0.88717457   -4.7967546    1327.2227  0.048403454  0.048282137            4 
 2286000   0.88781744   -4.7895255    1328.1171  0.048414886  0.048271694            5 
 2287000   0.87253782   -4.8093098    1318.0008  0.048025098  0.048261007            4 
 2288000    0.8936369   -4.7800871     1327.677  0.048356535  0.048250299            5 
 2289000   0.89559047   -4.7704198    1324.0918  0.048204885  0.048239823            5 
 2290000   0.88677037   -4.7874067    1324.8391  0.048211029  0.048229217           11 
 2291000   0.88407664   -4.7761296     1326.863  0.048263602  0.048218679            5 
 2292000   0.89638787   -4.8073589    1324.9297  0.048172256   0.04820825            3 
 2293000   0.88046066   -4.8282865    1324.3564   0.04813041   0.04819767            7 
 2294000    0.8952416   -4.7793926    1328.1857  0.048248537  0.048186879            6 
 2295000   0.88893203   -4.7867573    1331.3448  0.048342221  0.048176203            4 
 2296000   0.87909438   -4.8150555    1321.4229  0.047961053  0.048165521            5 
 2297000   0.86956828   -4.7898458    1328.2137  0.048186536  0.048154674            3 
 2298000   0.88049538    -4.791272    1330.6011  0.048252145  0.048144114            3 
 2299000   0.87389903   -4.8126159    1330.2511  0.048218468  0.048133512            9 
 2300000   0.88891589    -4.808875    1328.8179  0.048145577  0.048122819            7 
 2301000   0.86968865   -4.8045121    1322.4955  0.047895679   0.04811208            5 
 2302000   0.89264041   -4.7962878    1323.6902  0.047918121  0.048101294            5 
 2303000   0.87512341   -4.7950651    1328.2356  0.048061789  0.048090723            5 
 2304000   0.89464288   -4.8021773    1328.9712  0.048067535   0.04808005            3 
 2305000   0.85949327   -4.7765401    1334.9611  0.048263234  0.048069468            3 
 2306000   0.89663174   -4.8085426    1330.5721  0.048083698  0.048058696            8 
 2307000   0.86878943   -4.7743464    1332.1177  0.048118685  0.048047977            2 
 2308000   0.86439484   -4.7838822    1327.6812  0.047937653  0.048037272            6 
 2309000   0.86079537   -4.8017544    1332.1431  0.048077923   0.04802656            3 
 2310000   0.88402363   -4.7860553    1329.5289  0.047962802  0.048015906            3 
 2311000   0.85646807     -4.79321    1332.1098  0.048035113  0.048005138            5 
 2312000   0.86468873   -4.7780024    1332.1291  0.048015034  0.047994495            7 
 2313000   0.87204149   -4.7731062    1330.5627  0.047937841  0.047983651            5 
 2314000   0.87418898   -4.7768804      1329.63  0.047883535  0.047972781            6 
 2315000   0.88489351   -4.7828074    1330.5458  0.047895815  0.047961941            8 
 2316000   0.88893241    -4.793556    1332.6786  0.047951878  0.047951072            6 
 2317000   0.87729566   -4.7879929    1328.1315   0.04776764  0.047940185            2 
 2318000   0.86831092   -4.7766961    1329.4216  0.047793414  0.047929145            2 
 2319000   0.88499311   -4.7965016    1326.6549  0.047673382  0.047918303           11 
 2320000   0.88681415   -4.8271442    1331.5381  0.047828237   0.04790723            7 
 2321000   0.88142407   -4.8070543    1331.7044  0.047813599  0.047896195            3 
 2322000   0.88002744   -4.7841895    1331.9616   0.04780224  0.047885267            5 
 2323000   0.87785894   -4.7847192    1333.9798   0.04785406  0.047874408            3 
 2324000   0.86545597   -4.8211536    1331.3092   0.04773771  0.047863516            4 
 2325000   0.89960168    -4.792348    1331.8583  0.047736856  0.047852467            4 
 2326000   0.89517669    -4.839181    1330.1285  0.047654361  0.047841462            5 
 2327000   0.88276682   -4.8209254    1330.2455  0.047638071  0.047830483            7 
 2328000   0.88858187   -4.7926593    1333.9015  0.047748479  0.047819634            6 
 2329000   0.87207129   -4.8102621    1331.7829  0.047652173  0.047808782            2 
 2330000   0.85183268   -4.7839145    1334.1073  0.047714854  0.047798105            5 
 2331000   0.87728288   -4.7734162    1337.0281  0.047798802  0.047787397            4 
 2332000   0.89716124   -4.8040515    1337.4972  0.047795068  0.047776744            3 
 2333000   0.87441577   -4.8150865    1336.5597  0.047741094  0.047766058            7 
 2334000   0.88351083   -4.8173646     1336.063  0.047702906  0.047755316            3 
 2335000   0.86823448   -4.7986395    1334.1748  0.047615089  0.047744574            2 
 2336000   0.88218409   -4.8231069    1336.1781   0.04766617  0.047733681            5 
 2337000   0.85812564   -4.8029263    1337.9576   0.04770923   0.04772281            2 
 2338000   0.88814021   -4.8309071    1336.7241  0.047644858  0.047711983            4 
 2339000    0.8839274   -4.7983683    1334.0831  0.047530393  0.047701213            6 
 2340000   0.87539578   -4.8227982    1337.6801   0.04763818   0.04769038           10 
 2341000   0.87467303   -4.8258272    1341.2896  0.047746321  0.047679671            3 
 2342000   0.87085457   -4.8181467     1337.637  0.047595965  0.047668774            4 
 2343000   0.87655921   -4.7775035     1338.001  0.047588597  0.047657912            5 
 2344000   0.90066203   -4.8062782    1338.8686  0.047599141  0.047647094            4 
 2345000   0.87830408   -4.8261217    1337.9649  0.047546727  0.047636426            2 
 2346000   0.86510286   -4.8076019    1340.7932  0.047626924  0.047625625            6 
 2347000   0.87651502   -4.7928306    1335.7389  0.047427174  0.047614679            4 
 2348000   0.85874976   -4.8137657    1341.7721  0.047621099  0.047603662            3 
 2349000   0.85021803   -4.8191473    1334.0718   0.04732765  0.047592783            8 
 2350000   0.86721898   -4.8059302    1342.0588  0.047590738  0.047581864            4 
 2351000   0.88029288   -4.8049976    1336.5979  0.047376929  0.047571094            4 
 2352000   0.88854329   -4.7942455    1346.6162   0.04771174  0.047560227            2 
 2353000   0.87340475    -4.800028    1342.7293  0.047553807  0.047549237            5 
 2354000   0.87579889   -4.8030504    1338.8927  0.047397787  0.047538289            3 
 2355000   0.87194943   -4.7869022    1341.8914  0.047483773  0.047527447            5 
 2356000   0.86932746   -4.8215699    1342.1152  0.047471533  0.047516583            4 
 2357000    0.8876308   -4.7570461    1346.3805  0.047602196  0.047505734            5 
 2358000    0.8677784   -4.8014324    1342.7522   0.04745378  0.047494876            2 
 2359000   0.88005917   -4.8013293    1347.2056  0.047590983  0.047484121            3 
 2360000   0.86661859   -4.8228203    1343.1246  0.047426715   0.04747326            3 
 2361000   0.86174237   -4.8345045    1340.5658  0.047316312  0.047462433            8 
 2362000   0.86471065   -4.8245005    1337.8507  0.047200489  0.047451507            5 
 2363000   0.85997897   -4.8102656    1344.4677   0.04741387  0.047440572            2 
 2364000   0.85780515   -4.8419341    1341.6157  0.047293276  0.047429652            6 
 2365000   0.86998327   -4.7904291    1345.4015  0.047406676  0.047418855            5 
 2366000   0.87273788   -4.8162401    1341.0842   0.04723458  0.047408038            7 
 2367000   0.86434058   -4.7975644    1351.7253   0.04758926  0.047397306            4 
 2368000   0.85652006    -4.815158    1346.1519  0.047373026  0.047386668            3 
 2369000   0.86831027   -4.8152848    1347.1019  0.047386446  0.047375945            6 
 2370000   0.87532057   -4.7984737    1348.6192  0.047419804  0.047365197            3 
 2371000   0.88863093   -4.7938934    1346.9764  0.047342064  0.047354445            3 
 2372000   0.87952332   -4.8033786       1347.9  0.047354553  0.047343707            4 
 2373000   0.87053169    -4.813421    1343.1904   0.04716921  0.047332793            5 
 2374000   0.87328487   -4.8253569    1347.6991  0.047307606  0.047322062            5 
 2375000   0.87679489   -4.8157978    1352.0908  0.047441783  0.047311462            5 
 2376000   0.83756943   -4.8068116    1350.9044  0.047380206  0.047301001            2 
 2377000    0.8575581   -4.7767674    1354.8382  0.047498182  0.047290628            4 
 2378000   0.87049703   -4.8141974    1346.3424  0.047180488  0.047280093            4 
 2379000    0.9012921   -4.7837468    1356.5762  0.047519134  0.047269688            4 
 2380000   0.88076386   -4.7907944    1355.3742   0.04745708  0.047259312            6 
 2381000   0.85423022   -4.8154576    1354.5094  0.047406882  0.047248908            5 
 2382000   0.87998748   -4.8209554    1351.3619  0.047276866  0.047238289            3 
 2383000   0.88317471   -4.8021903    1355.0054   0.04738444  0.047227768            2 
 2384000   0.87306238   -4.8160017    1354.4195  0.047344083  0.047217325           10 
 2385000   0.85983667   -4.8131613    1352.1837  0.047246113  0.047206775            3 
 2386000   0.84233294   -4.8157575    1351.9906  0.047219567    0.0471962            8 
 2387000   0.86856331    -4.832959    1353.2123  0.047242436  0.047185589            4 
 2388000   0.87805906   -4.8118333    1357.1107  0.047358692  0.047174985            4 
 2389000   0.86788904   -4.8168646    1354.4323  0.047245441   0.04716451           13 
 2390000   0.86464219   -4.8314153    1353.1115   0.04717962  0.047153962            6 
 2391000   0.87066401   -4.8121181    1353.4861  0.047172945  0.047143435            7 
 2392000   0.87836421   -4.8164796    1352.2619  0.047110574  0.047133013            3 
 2393000   0.87494664   -4.8277629    1356.7222   0.04724621   0.04712249            3 
 2394000    0.8569056   -4.8013669    1355.1898  0.047173133   0.04711197            3 
 2395000   0.87520199   -4.8263995    1354.3605  0.047124581  0.047101632            4 
 2396000   0.88238132   -4.8440453    1357.6211  0.047218318  0.047091152            5 
 2397000   0.87257987   -4.8098427     1354.184  0.047079127  0.047080631            4 
 2398000   0.86614077   -4.8084249    1353.3288  0.047029775  0.047070058            8 
 2399000   0.85696389   -4.8075336    1354.3195  0.047044585   0.04705948            5 
 2400000   0.85851077   -4.8210087    1352.1215  0.046948662  0.047048733            4 
 2401000   0.85872213   -4.8222115     1353.681  0.046983235   0.04703804            5 
 2402000   0.87566439   -4.8084525    1353.7704  0.046966776  0.047027418            6 
 2403000   0.88928107   -4.8040413    1353.1872  0.046927009  0.047016927            7 
 2404000   0.88169076   -4.8049104    1360.9085  0.047175144   0.04700651            5 
 2405000   0.87339854   -4.8003214    1360.1597   0.04712958  0.046995997            4 
 2406000   0.85601267   -4.8218107    1353.5598  0.046881401  0.046985462            8 
 2407000   0.85725712   -4.8287328    1361.0023  0.047119593  0.046975094            6 
 2408000   0.86887277   -4.8262473    1361.1871   0.04710642  0.046964738            3 
 2409000   0.87076607    -4.816905    1359.8186  0.047039527  0.046954306            4 
 2410000   0.85604297   -4.8151895    1362.0512  0.047097207  0.046943855            3 
 2411000   0.85402665   -4.8171361    1361.5811  0.047061424  0.046933507            4 
 2412000   0.88090328    -4.805479      1364.73  0.047150705  0.046923182            7 
 2413000   0.85481758   -4.8276917    1368.4293  0.047258921  0.046912715            3 
 2414000   0.85843099    -4.806345    1365.5295  0.047139239  0.046902286            3 
 2415000   0.87481943   -4.8267981    1361.1598  0.046968937  0.046891704            5 
 2416000   0.85617714   -4.8272578    1363.1207  0.047017133  0.046881312            4 
 2417000   0.87761815   -4.8207621    1360.3514  0.046902199  0.046870885            3 
 2418000   0.85978883   -4.8344982    1362.7255  0.046964622  0.046860447            5 
 2419000   0.84839063   -4.8386275    1359.4809  0.046833433  0.046849954            5 
 2420000   0.86291745   -4.7898642    1362.3256  0.046912037  0.046839407            4 
 2421000   0.86565889   -4.8067394     1364.825  0.046978693  0.046829041            6 
 2422000   0.85539865    -4.858177    1360.7182  0.046817994  0.046818594            3 
 2423000   0.87957602   -4.8051898    1364.1973  0.046918328  0.046808089            6 
 2424000   0.86089363    -4.808301    1361.4561  0.046804735  0.046797716            3 
 2425000   0.87746528   -4.8232675    1362.8657  0.046833874  0.046787245            3 
 2426000   0.85443998   -4.8355289    1362.1235  0.046789073   0.04677681            5 
 2427000   0.84097827   -4.8084494    1366.2607  0.046911848  0.046766307            6 
 2428000   0.86296304   -4.8317804    1364.0387  0.046816264  0.046755747            4 
 2429000   0.86888367   -4.8254165    1371.2376   0.04704397  0.046745336            5 
 2430000   0.86116447   -4.8610579    1366.0004  0.046845007  0.046734904           11 
 2431000   0.86339531   -4.8156256    1367.7371   0.04688527  0.046724402            6 
 2432000   0.86547883   -4.8447265    1366.8121  0.046834295  0.046713838            4 
 2433000   0.85142756   -4.8286662    1364.0331  0.046719863  0.046703512            5 
 2434000   0.85408058   -4.8413381    1366.8872  0.046798384  0.046693135            3 
 2435000   0.85640471   -4.8142001    1365.7945   0.04674177   0.04668265            6 
 2436000   0.85378741   -4.8200911    1371.7567  0.046926542  0.046672362            6 
 2437000   0.88173683   -4.7877729    1370.7388  0.046872479  0.046662043            3 
 2438000   0.86500265   -4.8614524    1369.9063  0.046824799  0.046651793            5 
 2439000   0.85788382   -4.8223149     1369.134  0.046779213  0.046641372            3 
 2440000   0.88028327   -4.8445696    1368.0522  0.046723093  0.046631037            2 
 2441000   0.86539401   -4.8298887    1370.7252  0.046795205  0.046620712            3 
 2442000   0.86540078   -4.8379897    1371.6629  0.046808044  0.046610434            3 
 2443000   0.87613562   -4.8121423    1365.7909  0.046588584  0.046600183            2 
 2444000   0.84994372   -4.8138157    1370.7503  0.046738622  0.046589943            5 
 2445000   0.87129798   -4.8577704    1368.0222  0.046626524  0.046579565            4 
 2446000   0.86444557   -4.8362514    1367.9567  0.046605231  0.046569073            7 
 2447000   0.87628161   -4.8451712    1370.9204  0.046687114  0.046558649            5 
 2448000   0.87099962   -4.8540619    1369.8487   0.04663156  0.046548257            5 
 2449000   0.85183615   -4.8319502    1375.5823   0.04680762  0.046537929            8 
 2450000   0.85118753   -4.8391811    1370.3224  0.046609606   0.04652745            9 
 2451000   0.86350251   -4.8392059    1369.5213   0.04656335   0.04651697           17 
 2452000   0.85092379    -4.846061    1370.1448  0.046565552  0.046506467            4 
 2453000   0.85321113   -4.8509171    1369.2402  0.046515838  0.046495918            9 
 2454000   0.86644771   -4.8333161     1374.149  0.046663578  0.046485525            4 
 2455000   0.85496332   -4.7980356    1375.1262  0.046677739  0.046475184            4 
 2456000   0.85997492   -4.8271055    1375.3128  0.046665065  0.046464848            4 
 2457000   0.86252553    -4.839683    1372.7047  0.046557614  0.046454408            7 
 2458000   0.86081306   -4.8645982    1367.6384  0.046366909  0.046444073            4 
 2459000   0.85939274   -4.8442655     1373.018  0.046530364  0.046433474            6 
 2460000   0.85966629   -4.8364826    1371.9205  0.046474272  0.046422928            6 
 2461000   0.84447781   -4.8711797    1376.1102  0.046597257  0.046412465            5 
 2462000   0.86520246   -4.8260817    1372.2572  0.046447916  0.046401798            2 
 2463000    0.8457836   -4.8541543    1375.4125  0.046535812  0.046391337            1 
 2464000   0.85658858   -4.8342097    1382.5833  0.046759447  0.046381036            3 
 2465000   0.86764675   -4.8201322    1379.7249  0.046643844  0.046370722            4 
 2466000   0.85594567   -4.8543537    1374.9539  0.046463703  0.046360303            3 
 2467000   0.86268814   -4.8525541    1373.1542  0.046384077  0.046349882            8 
 2468000   0.85163087   -4.8262336    1378.7452  0.046554066  0.046339629            9 
 2469000   0.86271868   -4.8223846    1384.2304  0.046720346  0.046329195            6 
 2470000    0.8570203   -4.8402209    1378.6043  0.046511616  0.046318798            7 
 2471000   0.86835526   -4.8331747    1376.4418  0.046419863  0.046308415            7 
 2472000   0.85165919   -4.8420596    1380.2349  0.046528953  0.046298059            6 
 2473000   0.85644279   -4.8282107    1377.7018  0.046424782  0.046287691            4 
 2474000   0.87355547   -4.8225202    1382.6274  0.046571926  0.046277523            3 
 2475000   0.85329092   -4.8653131    1383.1859  0.046571917  0.046267154            4 
 2476000   0.87241976   -4.8459651    1382.7647   0.04653893   0.04625674            7 
 2477000   0.88360832    -4.854291    1375.2285  0.046266603  0.046246382            3 
 2478000   0.84526801   -4.8522029    1379.4818  0.046390969  0.046235996            3 
 2479000   0.84908047   -4.8262025     1385.588  0.046577518  0.046225745            4 
 2480000   0.85519193   -4.8508459    1384.4566  0.046520719  0.046215552            4 
 2481000   0.85073787   -4.8246802    1381.6926  0.046409128  0.046205402            5 
 2482000    0.8376379   -4.8440138    1382.1848  0.046406955  0.046195119            3 
 2483000    0.8608791   -4.8401256    1380.2863  0.046324551  0.046184912            3 
 2484000   0.86272697   -4.8495364    1384.9586  0.046462649  0.046174763            4 
 2485000   0.85986038   -4.8299644    1381.0192  0.046311845  0.046164649           13 
 2486000   0.85207832   -4.8670631    1385.8921   0.04645656  0.046154397            2 
 2487000   0.85601144   -4.8168142    1382.8171  0.046334845  0.046144137            4 
 2488000    0.8544882   -4.8402037    1381.0081   0.04625563  0.046133905            5 
 2489000   0.86254371   -4.8619732    1384.8682  0.046366283  0.046123801            9 
 2490000   0.85065199   -4.8442474    1387.6132  0.046439531  0.046113758            4 
 2491000   0.87004809   -4.8528158    1383.6963  0.046289854   0.04610372            4 
 2492000    0.8496621   -4.8620958    1386.7421  0.046373132  0.046093837            4 
 2493000   0.84511799   -4.8568302    1387.6844  0.046386027  0.046083873            5 
 2494000   0.86016005   -4.8363572    1385.3891  0.046290734  0.046073893            2 
 2495000   0.86112952   -4.8604599    1388.9184   0.04639006  0.046063866            5 
 2496000   0.84920723   -4.8667607    1385.3612  0.046252709   0.04605365            5 
 2497000   0.85371957   -4.8434255    1391.8326  0.046450162   0.04604364            6 
 2498000   0.84919041   -4.8403799     1388.543  0.046321826  0.046033707            3 
 2499000    0.8630062   -4.8231031    1394.5245   0.04650275   0.04602369            4 
 2500000   0.84016593    -4.850248    1385.7768  0.046192559  0.046013615            4 
 2501000   0.86099071   -4.8631459    1387.0937   0.04621797  0.046003486            6 
 2502000   0.85854059    -4.845716     1387.791  0.046222722  0.045993284            4 
 2503000   0.84616519   -4.8515622    1392.9478  0.046375941  0.045983301            6 
 2504000   0.85857338   -4.8582998    1390.9059  0.046289467  0.045973297            4 
 2505000   0.86588562   -4.8487996    1389.4274  0.046221803  0.045963284            6 
 2506000   0.84327758   -4.8370608    1392.2962  0.046298756  0.045953312            5 
 2507000   0.87277601   -4.8775411    1387.2877  0.046113805  0.045943329            4 
 2508000    0.8502768   -4.8356347     1386.726  0.046076755  0.045933444            3 
 2509000   0.85240711   -4.8665257    1391.3677  0.046212557   0.04592336            4 
 2510000   0.83761475   -4.8374145    1390.0758  0.046151254  0.045913476            6 
 2511000   0.84904452    -4.879112    1387.5722  0.046049789  0.045903441            6 
 2512000   0.86857355   -4.8503651    1390.4504  0.046126938  0.045893368            8 
 2513000   0.84750269   -4.8677824     1395.149  0.046264393  0.045883401            5 
 2514000   0.83504009   -4.8622135    1393.4143  0.046188489  0.045873422            6 
 2515000   0.86526832   -4.8623981    1393.7013  0.046179634  0.045863437            4 
 2516000   0.84418514   -4.8466591    1395.4281  0.046218472  0.045853556           14 
 2517000   0.85231911   -4.8663797    1388.0783  0.045956771  0.045843599            5 
 2518000   0.83850594   -4.8399466    1398.6297  0.046287718  0.045833544           10 
 2519000   0.85275815   -4.8343335    1393.0836  0.046085868  0.045823494            5 
 2520000   0.84887321   -4.8676011    1394.1011  0.046101225  0.045813422            3 
 2521000   0.85082884   -4.8604128    1396.0867  0.046148577  0.045803557            9 
 2522000   0.85259448   -4.8649373    1394.1558  0.046066475   0.04579371            3 
 2523000   0.85842333   -4.8629959    1398.3168  0.046185653  0.045783794            4 
 2524000    0.8692686   -4.8330697    1399.8691  0.046218603  0.045773861            3 
 2525000   0.85306517   -4.8688101    1395.4815  0.046055496  0.045763957            5 
 2526000   0.83913179   -4.8593867    1394.1187  0.045992303  0.045754172            2 
 2527000   0.84390127    -4.844535    1398.7998  0.046128474  0.045744266            3 
 2528000    0.8402478   -4.8812291    1398.5113  0.046100714  0.045734472            4 
 2529000   0.84432707   -4.8332382    1401.6329  0.046185347  0.045724584            3 
 2530000    0.8555775   -4.8620995    1400.4717  0.046128844  0.045714702            5 
 2531000   0.85402294   -4.8626686    1400.1702   0.04610069  0.045704854            7 
 2532000   0.84879006   -4.8550551    1401.0087   0.04611008  0.045694963            5 
 2533000     0.840622   -4.8758643    1398.7353  0.046017086   0.04568517            3 
 2534000   0.84621112   -4.8845647     1396.092  0.045911998  0.045675342            4 
 2535000   0.84424425   -4.8667727    1402.9475  0.046119247  0.045665555            7 
 2536000   0.87070755   -4.8615733    1399.4867  0.045987338  0.045655856            5 
 2537000   0.85200635   -4.8621454    1403.9558   0.04611601  0.045645958            6 
 2538000   0.85100393   -4.8546225    1404.9818  0.046131527  0.045636114            3 
 2539000   0.84495308   -4.8345353    1397.3541  0.045863007  0.045626232            3 
 2540000   0.84155826   -4.8803556    1398.1183  0.045870024  0.045616282            7 
 2541000   0.83751241   -4.8624452    1397.4568  0.045830278  0.045606413           13 
 2542000   0.83028131   -4.8507923    1402.4468  0.045975834  0.045596603            3 
 2543000   0.83731203   -4.8978501    1400.3433  0.045888822  0.045586708            2 
 2544000   0.83397779   -4.8617562    1401.4458  0.045906898  0.045576715            5 
 2545000   0.84993496   -4.8672855    1401.0276  0.045875167  0.045566838            3 
 2546000   0.85498124   -4.8644445     1403.668  0.045943571  0.045556981            5 
 2547000    0.8313064    -4.862033    1401.1655  0.045843657  0.045547086            3 
 2548000   0.84648151   -4.8798206    1404.2938  0.045927976  0.045537346            3 
 2549000   0.85018537   -4.8543208     1405.543  0.045950797  0.045527575            4 
 2550000   0.84229847    -4.894473    1399.2548   0.04572728  0.045517748            4 
 2551000   0.84134233   -4.8541804     1404.484  0.045880179  0.045507889            4 
 2552000   0.82778547   -4.8355573    1405.2995   0.04588883  0.045498088            7 
 2553000   0.83779771   -4.8529609    1404.4588  0.045843414  0.045488333            3 
 2554000   0.87124663   -4.8531822     1410.731  0.046030118  0.045478554            6 
 2555000   0.85602871   -4.8732075    1410.5373  0.046005783  0.045468817            6 
 2556000   0.85746593    -4.879171    1406.1914  0.045846094  0.045458991            7 
 2557000   0.83043969   -4.8708652    1401.5237  0.045676042  0.045449136            5 
 2558000   0.85302457   -4.8724503    1405.9577  0.045802636  0.045439343            5 
 2559000   0.85091842   -4.8635725    1409.6579  0.045905234  0.045429488            5 
 2560000   0.84663794   -4.8662569    1413.5744  0.046014793  0.045419812            5 
 2561000   0.84812995   -4.8601847    1413.2759   0.04598711  0.045410069            3 
 2562000   0.84203955   -4.8557109    1408.5578  0.045815699  0.045400385            6 
 2563000   0.83323561   -4.8736898    1411.2405  0.045885046  0.045390627            4 
 2564000   0.84198901   -4.8747019    1408.8052     0.045788  0.045380871            2 
 2565000   0.83349283   -4.8686282    1410.4363  0.045823143  0.045371209            9 
 2566000   0.83350314   -4.8587401    1409.7636  0.045783438   0.04536146            6 
 2567000   0.85023599   -4.8594943    1404.6996  0.045601207  0.045351754            4 
 2568000   0.83991638   -4.8657336    1410.4677  0.045770628  0.045341994            7 
 2569000   0.85539919   -4.8927983    1409.2371  0.045712895  0.045332247           10 
 2570000   0.83684947   -4.8713943    1403.5541  0.045510834  0.045322401            6 
 2571000   0.83627284   -4.8363114    1415.7183  0.045887407   0.04531258            3 
 2572000   0.82786717    -4.880321    1411.8785  0.045745155  0.045302864            3 
 2573000   0.83833211   -4.8666217    1411.8735  0.045727215  0.045292962            4 
 2574000   0.85109281   -4.9275487    1409.8673  0.045644498  0.045282975            4 
 2575000   0.82397291   -4.8683693      1408.63  0.045586731  0.045273011           11 
 2576000   0.84395157   -4.8897715    1409.1818  0.045586886  0.045262954            3 
 2577000   0.81787813   -4.8906791    1405.2357  0.045441589  0.045253005            4 
 2578000   0.83789903   -4.8754408    1413.2282  0.045682319   0.04524311            7 
 2579000   0.84206287   -4.8809594    1414.8056  0.045715575  0.045233179            8 
 2580000   0.84828835   -4.8945939    1406.8858  0.045442049  0.045223364            7 
 2581000   0.83718014   -4.9107097    1407.2812  0.045437209  0.045213517            3 
 2582000   0.84053492    -4.879393    1409.7165  0.045498209  0.045203662            4 
 2583000   0.84682389   -4.9015014    1411.6737  0.045543739  0.045193854            4 
 2584000   0.83969061   -4.8682257    1413.1437  0.045573521   0.04518402            9 
 2585000   0.83685088   -4.8764795    1414.0638  0.045585553  0.045174307            7 
 2586000   0.82739021   -4.8879769    1415.0263   0.04559894  0.045164457            4 
 2587000   0.82237762   -4.8687006    1413.5224  0.045532869   0.04515461            6 
 2588000   0.82289829   -4.8838157    1414.6159  0.045550487  0.045144801            4 
 2589000   0.84773064   -4.8465914    1414.9639  0.045544094  0.045135027            3 
 2590000   0.82873739    -4.879271    1414.6431  0.045516187    0.0451253            5 
 2591000   0.82371453   -4.8809807    1411.0727  0.045383788  0.045115567            3 
 2592000   0.83416883    -4.892509    1415.7661  0.045517173  0.045105748            4 
 2593000   0.82894765    -4.876243    1413.4694  0.045425805  0.045096032            9 
 2594000   0.85783655   -4.8888415    1417.8274  0.045548298  0.045086239            9 
 2595000   0.84580313   -4.8981914    1410.4163  0.045292751   0.04507637            5 
 2596000   0.85010037   -4.8754557    1415.0681  0.045424632  0.045066468            8 
 2597000   0.85320434   -4.8703805    1414.0818  0.045375491  0.045056616            7 
 2598000    0.8334931   -4.8813029    1413.2696  0.045331973  0.045046822            6 
 2599000   0.83590322     -4.88972     1417.142  0.045438695  0.045037051            3 
 2600000   0.82862007   -4.8477469     1415.484  0.045368078  0.045027307            5 
 2601000   0.82864768    -4.888244     1418.989   0.04546293  0.045017618            6 
 2602000   0.82240207   -4.9174791     1415.642  0.045338266  0.045007866            5 
 2603000   0.83448461   -4.8948051    1417.4324  0.045378166  0.044998119            5 
 2604000   0.82094561   -4.9062421    1410.4669   0.04513783  0.044988313            5 
 2605000   0.86160671   -4.8734983     1418.408  0.045374535  0.044978519            8 
 2606000   0.85745684   -4.9025049    1416.1446  0.045284748  0.044968766            5 
 2607000    0.8399787   -4.8674253    1420.5469  0.045408096  0.044959023            2 
 2608000   0.83383335   -4.8810884     1418.949  0.045339628  0.044949323            4 
 2609000   0.83060557   -4.8783871    1423.3775    0.0454637  0.044939532            6 
 2610000   0.82446936   -4.9001048    1419.8339  0.045333137  0.044929791            3 
 2611000   0.82754544   -4.8976704    1418.0917  0.045260172  0.044919918            5 
 2612000   0.84478744   -4.8729069    1420.3644  0.045315353  0.044910065            4 
 2613000   0.83921158   -4.8624118    1421.1745  0.045323845  0.044900386            6 
 2614000   0.84351425   -4.9085546    1419.3763  0.045249179   0.04489064            7 
 2615000   0.82309165    -4.928626    1415.2806  0.045101357  0.044880854            3 
 2616000   0.85791396   -4.9039352    1421.1209   0.04527016  0.044871005            5 
 2617000   0.83787519   -4.8928145    1419.2635  0.045193716  0.044861097            9 
 2618000   0.82717445   -4.8747576    1421.0649  0.045233796  0.044851248            4 
 2619000   0.83058528   -4.8894169    1420.6011  0.045201767  0.044841313            3 
 2620000    0.8449296   -4.8715625    1423.8065  0.045286465   0.04483159            5 
 2621000   0.82528262   -4.8783628    1422.8454  0.045238629  0.044821752            3 
 2622000   0.81603466   -4.8878161    1420.6505  0.045151617  0.044812014            4 
 2623000   0.85073411   -4.8916101    1418.1818  0.045055971  0.044802198            5 
 2624000   0.82624114   -4.8809269    1419.9319  0.045094381  0.044792509            3 
 2625000   0.83135144   -4.8650815    1426.9005  0.045298428  0.044782776           11 
 2626000   0.83505709   -4.8829309    1423.0813  0.045159981  0.044773137            5 
 2627000     0.822138   -4.9095406    1420.8842  0.045073095   0.04476348            6 
 2628000   0.85377698   -4.8835259    1424.8449  0.045181535  0.044753694            6 
 2629000   0.83056412    -4.874407    1422.9117  0.045103072  0.044744065            9 
 2630000   0.82041438   -4.8778166      1424.09  0.045123257  0.044734211           11 
 2631000   0.83347906   -4.9081066    1422.6945  0.045061906  0.044724483            7 
 2632000   0.82159645   -4.8989753    1422.3121  0.045032678  0.044714714            9 
 2633000   0.82042247   -4.9114877    1423.2839  0.045046331  0.044704845            7 
 2634000   0.83964549   -4.8783691     1429.304  0.045219691  0.044695013            4 
 2635000   0.82568817   -4.9005587    1425.1075  0.045069812  0.044685318            4 
 2636000   0.81405907   -4.8948596    1422.8518  0.044981404  0.044675623            4 
 2637000    0.8257769   -4.8990101    1421.7647  0.044929993  0.044665846            4 
 2638000   0.83821432   -4.8915917    1424.4752  0.044998585  0.044656072            4 
 2639000   0.84017268   -4.8939496    1429.6092  0.045143651    0.0446464            5 
 2640000   0.83240489    -4.880213     1425.962  0.045011427  0.044636721            4 
 2641000   0.84672517   -4.8883573    1430.6401  0.045141995  0.044627005            4 
 2642000   0.83440549   -4.9009532    1423.7027   0.04490609  0.044617276            5 
 2643000   0.82812989   -4.9142882    1423.6577  0.044887682  0.044607441            3 
 2644000   0.81927323   -4.8903675    1423.6536  0.044870576  0.044597672            3 
 2645000   0.84051636   -4.8694563    1434.2623  0.045187848  0.044588036            5 
 2646000   0.82565951   -4.9046504    1431.6219  0.045087613  0.044578335            6 
 2647000   0.82409729   -4.9183581    1424.3422  0.044841399  0.044568549            7 
 2648000   0.80116116   -4.9073771    1424.7111  0.044836074  0.044558717            4 
 2649000   0.82665926   -4.9225134    1426.7077  0.044881959  0.044548894            5 
 2650000   0.82796818   -4.8864668    1430.9155  0.044997344  0.044539236            9 
 2651000   0.82613228   -4.9177706    1429.6912  0.044941884  0.044529767            2 
 2652000   0.84406322   -4.8982578    1429.3165  0.044913162  0.044520053            8 
 2653000   0.82866282    -4.914742    1424.4248   0.04474258  0.044510239            3 
 2654000   0.83632125   -4.8857224    1433.3378  0.045005582  0.044500644            7 
 2655000   0.82653591   -4.8802875    1435.2861  0.045049783  0.044491122            6 
 2656000   0.83048882   -4.8797446    1434.2435  0.045000111  0.044481519            3 
 2657000   0.84187189   -4.9358106    1427.7382  0.044779143  0.044471859            7 
 2658000   0.82579835   -4.9344144    1428.0986  0.044773596   0.04446223            3 
 2659000   0.82419288    -4.926914    1431.7054  0.044869794  0.044452572            4 
 2660000   0.81086447   -4.8707106    1437.4275   0.04503219   0.04444289            5 
 2661000    0.8291705   -4.9010468    1432.0567  0.044847072  0.044433246            3 
 2662000    0.8207609    -4.914435    1429.5517  0.044751805  0.044423517            7 
 2663000   0.82558515   -4.9179153    1433.1665  0.044848119  0.044413902            4 
 2664000   0.82845527    -4.895455    1435.9431  0.044918141   0.04440429            5 
 2665000   0.82863676   -4.8855581    1436.7431  0.044926301  0.044394717            8 
 2666000   0.82378874   -4.9209063    1431.3418  0.044740616  0.044385121            3 
 2667000   0.81375694   -4.9095787    1430.0114  0.044682271  0.044375485            4 
 2668000   0.82548117   -4.9004008    1434.0588  0.044791942  0.044365824            3 
 2669000   0.81714058   -4.8926648    1434.2814  0.044782108  0.044356238            6 
 2670000   0.81476079   -4.9037147    1433.6994  0.044747173  0.044346564            4 
 2671000   0.80845816     -4.90948    1432.7676  0.044701348  0.044336855            4 
 2672000   0.82825812   -4.8749649    1436.9497  0.044815047  0.044327236            8 
 2673000   0.84221348   -4.9089364     1438.199  0.044837232  0.044317569            5 
 2674000   0.83692532    -4.907777     1433.555  0.044675735  0.044308015            5 
 2675000   0.81832344   -4.9135786    1435.5379  0.044720806  0.044298322            5 
 2676000   0.83088011   -4.9036718    1439.6475  0.044832071  0.044288845            4 
 2677000   0.83008664    -4.900377     1439.224   0.04480214  0.044279321            9 
 2678000   0.83553838   -4.9105412    1439.2879  0.044787402  0.044269761            9 
 2679000   0.82236849   -4.8945055    1433.5825   0.04459321  0.044260142            5 
 2680000   0.81977414   -4.9230527    1434.9458  0.044618963   0.04425046            4 
 2681000    0.8351034    -4.903378    1439.2703  0.044736738  0.044240793            7 
 2682000   0.81173025      -4.9097    1437.3604  0.044660712   0.04423121            2 
 2683000   0.81889263   -4.9084278    1436.2654  0.044610058    0.0442216            6 
 2684000   0.82944984   -4.9175513    1437.7979  0.044641018  0.044211897           17 
 2685000   0.82953343   -4.9286189    1440.6138  0.044711787  0.044202291            6 
 2686000   0.83379348   -4.9160957    1436.8711  0.044579024  0.044192635            6 
 2687000   0.82910611   -4.9051476    1436.8153  0.044560701  0.044183042            2 
 2688000   0.81893434   -4.9138893    1439.7289  0.044634454  0.044173567           11 
 2689000   0.81852281   -4.8845827    1443.8069  0.044744232  0.044164083            5 
 2690000   0.82512664   -4.8838774    1437.3682  0.044528136  0.044154429            7 
 2691000   0.82648192   -4.9319851    1437.2496  0.044507916  0.044144841            3 
 2692000   0.83825593   -4.9055526    1440.5141  0.044592437  0.044135241           12 
 2693000   0.80481477    -4.917962    1439.3824  0.044540858  0.044125629            5 
 2694000   0.82282372   -4.8921333    1441.0316  0.044575341  0.044116055           10 
 2695000   0.79487158    -4.900465     1442.238  0.044596105  0.044106538            7 
 2696000   0.81239112    -4.911548    1436.5767  0.044404571  0.044096986            3 
 2697000    0.8243883   -4.9185602    1440.2585  0.044501869  0.044087407            6 
 2698000     0.815561   -4.9015705     1443.959  0.044599674  0.044077722            4 
 2699000   0.81990935   -4.9212797    1440.5079  0.044476592  0.044068009           14 
 2700000   0.82492723   -4.9131432    1441.7541  0.044498584  0.044058357            5 
 2701000   0.82408599   -4.9247017    1441.5559  0.044475993  0.044048698            4 
 2702000   0.81602464   -4.9004226    1439.9048  0.044408612  0.044039066            5 
 2703000   0.79950412   -4.9266665    1441.0913  0.044428761  0.044029629            9 
 2704000   0.83789397    -4.930024    1444.8013  0.044526667  0.044020084            4 
 2705000   0.83558938   -4.9075686     1442.559  0.044441128   0.04401052            6 
 2706000   0.80587815   -4.9259625    1438.1026  0.044287467  0.044000957            8 
 2707000   0.81465551   -4.9112839    1438.8655   0.04429459  0.043991292            9 
 2708000   0.81943253   -4.9366368    1443.3039  0.044414817  0.043981582            4 
 2709000   0.82365775   -4.9127622    1442.1784    0.0443638  0.043971941            3 
 2710000    0.8133567   -4.9362574    1442.1094  0.044345309  0.043962296            4 
 2711000   0.82735966   -4.9140778    1444.8102   0.04441197  0.043952698            5 
 2712000   0.82181327    -4.906876    1444.2197   0.04437745  0.043943119            2 
 2713000   0.81952923   -4.9338016    1441.4772  0.044276853  0.043933424            4 
 2714000   0.79844194   -4.9468236    1442.9785  0.044306637  0.043923787            5 
 2715000   0.80652935   -4.9116925    1445.9316  0.044380958  0.043914109            4 
 2716000   0.83575075   -4.9107003    1444.4616  0.044319513  0.043904438            7 
 2717000   0.80711586   -4.9263633    1441.6764  0.044217777  0.043894765            4 
 2718000   0.81599151    -4.908329    1448.4777  0.044410036  0.043885137            8 
 2719000   0.81643194   -4.9066563    1449.1012  0.044412813   0.04387552            2 
 2720000   0.80567756   -4.9456604    1445.3854  0.044282642  0.043865865            4 
 2721000   0.81809492   -4.9423122    1444.8136  0.044248854    0.0438562           13 
 2722000   0.79972745   -4.9164387    1448.5202  0.044346076  0.043846572            7 
 2723000   0.82755771   -4.9287159    1449.4643  0.044358681  0.043836942            7 
 2724000   0.82714319   -4.9122969    1448.3469  0.044308214  0.043827363            4 
 2725000   0.81042793    -4.917681    1446.0965  0.044223134  0.043817866            4 
 2726000     0.831063   -4.9082957    1448.7838  0.044289062  0.043808246            9 
 2727000   0.82428675   -4.9120364     1444.092  0.044129446  0.043798552            3 
 2728000   0.82119317   -4.9213403     1444.347   0.04412106  0.043788841            5 
 2729000   0.80687507   -4.9149068    1444.7825  0.044118191  0.043778915            5 
 2730000   0.81121579    -4.966546    1443.0281  0.044048478  0.043769139           11 
 2731000   0.80729383   -4.9370767    1445.3332  0.044102686  0.043759496           10 
 2732000   0.83608534    -4.936481    1444.0411  0.044047131  0.043749716            8 
 2733000   0.81708394   -4.9382813    1447.2805  0.044129789  0.043739959            6 
 2734000   0.80664782   -4.9488797    1446.4246  0.044087559  0.043730101            6 
 2735000   0.81078072   -4.9296904    1445.8631   0.04405433  0.043720218            3 
 2736000   0.79734681   -4.9366649    1449.1827  0.044139336  0.043710377            6 
 2737000   0.81848614   -4.9359376    1444.9334  0.043993831  0.043700636            6 
 2738000   0.82224687   -4.9746057    1448.8693  0.044097555  0.043690921            5 
 2739000   0.82808983   -4.9201038    1448.4059  0.044067357  0.043681243            6 
 2740000   0.80170108   -4.9613257    1446.5732  0.043995534  0.043671468            4 
 2741000   0.82240644   -4.9121705    1449.7304  0.044075471  0.043661761            6 
 2742000   0.83093913   -4.9067061    1447.9888  0.044006466  0.043652026            6 
 2743000   0.82550751   -4.9217477    1455.3024  0.044212615  0.043642461            7 
 2744000   0.81696488   -4.9350507    1445.6531   0.04390346  0.043632815            3 
 2745000   0.81614697    -4.903173    1449.9442  0.044017735  0.043623132            7 
 2746000   0.81273227   -4.9248549    1448.3489  0.043953294  0.043613524            4 
 2747000    0.8071609   -4.9080755    1453.4052  0.044090682  0.043603873            6 
 2748000   0.81682882     -4.91799     1452.353  0.044042727  0.043594297            7 
 2749000   0.83356086   -4.9314468    1452.6798  0.044036614  0.043584674            4 
 2750000   0.82288865   -4.9529276    1449.1709  0.043914271  0.043574995            5 
 2751000   0.80000965   -4.9181218    1457.3909  0.044147308  0.043565235            8 
 2752000   0.80625843    -4.937672    1454.2678  0.044036696  0.043555574            5 
 2753000   0.80663523   -4.9283339    1451.5608  0.043938757  0.043545965            5 
 2754000   0.80865183   -4.9131213    1453.1925  0.043972177  0.043536375            4 
 2755000   0.81419853   -4.9393156    1453.3366  0.043960575  0.043526782            9 
 2756000   0.81627151   -4.9215967    1454.4942  0.043979626  0.043517116            8 
 2757000   0.82151597   -4.8996254    1457.5731  0.044056736  0.043507538            4 
 2758000    0.7999548   -4.9580071    1451.2833  0.043850715  0.043497977            9 
 2759000   0.81658947   -4.9401096    1452.0482  0.043857926  0.043488403           22 
 2760000    0.8199138   -4.9466584    1455.8501  0.043956828  0.043478794            5 
 2761000   0.80576501   -4.9204174    1451.8343  0.043819701  0.043469138           12 
 2762000   0.80770169   -4.9219119    1456.5028  0.043944691  0.043459445            5 
 2763000   0.79235313   -4.9274586    1454.1449   0.04385767  0.043449838            6 
 2764000   0.82363231    -4.939003    1454.6164  0.043856019  0.043440277           11 
 2765000   0.78821555   -4.9394908    1450.2397   0.04370825    0.0434307           11 
 2766000   0.81689949   -4.9116186    1456.2437  0.043873335   0.04342112            5 
 2767000   0.80979226   -4.9042195    1456.6125  0.043868584  0.043411509            2 
 2768000   0.82211627    -4.925756    1452.9936  0.043743786  0.043401752            8 
 2769000   0.82031596   -4.9289708    1455.8011  0.043812481  0.043392124            5 
 2770000   0.78397373   -4.8959129     1456.449  0.043816156  0.043382332           10 
 2771000   0.80729289   -4.9413076    1453.6461  0.043716051   0.04337265            8 
 2772000   0.81797064   -4.8935632    1457.2151  0.043807572  0.043362946            4 
 2773000   0.80105052   -4.9293663    1459.5511  0.043861975  0.043353308            4 
 2774000   0.80618554   -4.9412148    1456.8769   0.04376583  0.043343655            3 
 2775000   0.78758366   -4.9289233    1460.1898  0.043849544  0.043334045            3 
 2776000   0.81107912   -4.9551889    1454.3148  0.043657384  0.043324333            4 
 2777000   0.82265085   -4.9606664    1454.4619  0.043646078   0.04331462            3 
 2778000   0.78450242   -4.9583521    1454.1076  0.043619737  0.043304881            6 
 2779000   0.81768221   -4.9592825    1461.1189  0.043814288  0.043295288            4 
 2780000   0.80572445   -4.9376477    1456.1332  0.043649076  0.043285615            8 
 2781000   0.81233793   -4.9291582    1457.8108  0.043683651   0.04327596            4 
 2782000   0.79407401   -4.9807798    1456.5729  0.043630867   0.04326633            7 
 2783000   0.81040016   -4.9294367     1458.925  0.043685622  0.043256692            4 
 2784000   0.80374284   -4.9593162    1455.3843  0.043563945  0.043247116            8 
 2785000   0.79682694   -4.9529788    1461.9985  0.043746215  0.043237433            5 
 2786000   0.81028459   -4.9600681    1456.6409  0.043570259  0.043227766            4 
 2787000   0.81619585   -4.9468588    1459.9586  0.043653826  0.043218095            8 
 2788000   0.80518379   -4.9513444     1457.303  0.043558793  0.043208484            3 
 2789000   0.80160055   -4.9723075    1461.4152  0.043666044  0.043198828            5 
 2790000    0.7864533     -4.93428    1460.3047  0.043617225  0.043189236            5 
 2791000   0.81548827   -4.9595099    1461.6372  0.043641382  0.043179662            6 
 2792000   0.79235904   -4.9468264    1460.0321  0.043577844  0.043170079           14 
 2793000   0.79123499   -4.9597607    1463.3139   0.04366016  0.043160442            6 
 2794000   0.79653778   -4.9402382    1460.8496  0.043571032  0.043150935            7 
 2795000   0.79191014   -4.9406637    1463.8169  0.043643915  0.043141405            4 
 2796000   0.78939928   -4.9416837    1463.2918  0.043612656  0.043131882            5 
 2797000   0.81303752    -4.927809    1461.4952  0.043543535  0.043122351            4 
 2798000   0.80641779   -4.9402781    1460.5868  0.043500916   0.04311278            3 
 2799000   0.80383795   -4.9730049    1465.0647  0.043618695  0.043103194           11 
 2800000   0.80301646   -4.9624273    1460.8057  0.043476359  0.043093498            5 
 2801000   0.80593321   -4.9457763    1463.1682  0.043531126  0.043083862            6 
 2802000   0.80716431   -4.9420183    1468.4388   0.04367234  0.043074399            6 
 2803000   0.81228417   -4.9390506    1461.2092  0.043441825  0.043064861            2 
 2804000   0.79420417   -4.9518281    1463.1918  0.043485253  0.043055358            4 
 2805000   0.80048174    -4.939469    1469.0556  0.043643958  0.043045735            2 
 2806000   0.79356173   -4.9825926    1460.4089   0.04337161  0.043036144            6 
 2807000   0.80379225   -4.9384671    1463.9783  0.043462128  0.043026575            4 
 2808000   0.79378939   -4.9752959    1461.4746  0.043372346  0.043017015            7 
 2809000    0.7996317   -4.9422835    1464.4478   0.04344511   0.04300756            4 
 2810000   0.80134599   -4.9678447    1465.5878  0.043463459  0.042998115            3 
 2811000    0.7987836   -4.9586064    1463.9537  0.043399552  0.042988576            5 
 2812000   0.81637221   -4.9481919    1463.4476  0.043369122  0.042979082            6 
 2813000   0.79672686   -4.9536172    1470.0458  0.043549171  0.042969554            6 
 2814000   0.81274588    -4.927638     1469.547  0.043518924  0.042960183            7 
 2815000   0.81348691   -4.9381277    1470.2629  0.043524658  0.042950742            4 
 2816000   0.79809135   -4.9153816    1470.6978  0.043522069  0.042941199            5 
 2817000   0.79608797   -4.9582915    1465.1505  0.043342518  0.042931677            7 
 2818000   0.79454841   -4.9493572    1467.0933  0.043384589   0.04292218            7 
 2819000   0.77831629   -4.9520146    1466.4055  0.043348868  0.042912726           11 
 2820000   0.79992138   -4.9671523    1475.7454  0.043609498  0.042903273            3 
 2821000   0.78781463   -4.9368043    1468.6155  0.043383418  0.042893729            8 
 2822000   0.81196242   -4.9527148    1470.2144  0.043415262  0.042884256            2 
 2823000   0.78400866   -4.9264409    1472.8565  0.043477874  0.042874844            4 
 2824000   0.81421101   -4.9239065    1468.2635  0.043326943  0.042865381            5 
 2825000   0.80411738   -4.9621523    1471.6504  0.043411516  0.042855938            3 
 2826000   0.79396113   -4.9356943    1468.9846  0.043317545  0.042846466            5 
 2827000   0.78545685   -4.9563857    1470.6029  0.043349926  0.042837019            6 
 2828000   0.82197226   -4.9452185     1470.557  0.043333244  0.042827573            8 
 2829000   0.81221731   -4.9399237    1471.5189  0.043346261   0.04281811            5 
 2830000   0.80672244   -4.9587584     1465.685  0.043159158  0.042808544            6 
 2831000   0.80434337   -4.9614313    1468.0994  0.043214983  0.042798893           10 
 2832000   0.81610036    -4.959691    1465.8604   0.04313384   0.04278923            4 
 2833000   0.77886431   -4.9937416    1467.1117   0.04315542  0.042779608            6 
 2834000   0.79222991   -4.9549884    1469.4791  0.043209807   0.04277001            8 
 2835000    0.7900842   -4.9651241    1469.3148  0.043189735  0.042760464            7 
 2836000   0.79143169   -4.9524229    1473.7104  0.043303668  0.042750909           10 
 2837000   0.81367612   -4.9542809    1470.8457  0.043204255  0.042741471            3 
 2838000   0.78541653   -4.9627537    1471.4982  0.043208192  0.042731989            5 
 2839000   0.79375273   -4.9660186    1469.8929  0.043145851  0.042722647           12 
 2840000   0.80096521   -4.9438142    1475.0622  0.043282341  0.042713179            8 
 2841000   0.80410738   -4.9761569    1471.0522  0.043149484  0.042703808            9 
 2842000   0.80932308   -4.9586048     1472.356  0.043172532  0.042694287            6 
 2843000   0.79130747   -4.9605786    1472.6661  0.043166435  0.042684848            4 
 2844000   0.79402321   -4.9774736    1472.6307  0.043150219  0.042675484            6 
 2845000   0.80325301   -4.9392833    1477.3741  0.043273991   0.04266605            8 
 2846000   0.79799259   -4.9812745    1472.2238  0.043107981  0.042656618           12 
 2847000   0.79278534   -4.9624565    1477.5977  0.043250139   0.04264723            4 
 2848000   0.80296456   -4.9618351     1472.147  0.043075461  0.042637799           13 
 2849000   0.79038347   -4.9719093    1474.5364  0.043130234  0.042628387            4 
 2850000   0.78586086   -4.9672494    1472.4679  0.043054618  0.042619013            4 
 2851000   0.79353288   -4.9893402    1472.0771  0.043028093  0.042609564            5 
 2852000   0.80423977   -4.9517397    1476.3359  0.043137445  0.042600197            5 
 2853000   0.79947713   -4.9764883    1476.1066  0.043115628  0.042590866            6 
 2854000   0.80939556   -4.9955223    1477.0303  0.043127492  0.042581386           15 
 2855000   0.80549512   -4.9286981    1480.7133  0.043219885  0.042572038           12 
 2856000   0.80871198   -4.9824539    1477.7054  0.043116988  0.042562747            3 
 2857000    0.8003085   -4.9510353    1478.0799   0.04311282  0.042553355            7 
 2858000   0.80145515   -4.9601555    1481.2578  0.043190394  0.042543976            6 
 2859000    0.8006065   -4.9811235    1473.6578  0.042953767  0.042534613            8 
 2860000   0.78117405   -4.9591225    1478.4999  0.043079832  0.042525216            5 
 2861000   0.79622178   -4.9608125    1476.0808  0.042994315  0.042515937            7 
 2862000    0.7739738   -4.9847946     1478.745  0.043056867  0.042506501            3 
 2863000   0.80229707   -4.9822239    1475.6766  0.042952514  0.042497042            3 
 2864000   0.80034681   -4.9549199    1479.5468  0.043050128   0.04248765            4 
 2865000   0.82117498   -4.9361206    1483.2463  0.043142708   0.04247834            2 
 2866000   0.79172415   -4.9836189    1480.5129  0.043048178  0.042468887            7 
 2867000   0.77951207   -4.9822152    1475.4678  0.042886519  0.042459336            7 
 2868000   0.80833272   -4.9715862    1476.9488  0.042914597  0.042449836            8 
 2869000   0.77753486   -4.9727223    1482.1045  0.043049392  0.042440323            5 
 2870000   0.78403496   -4.9859127    1475.5434  0.042843886   0.04243087            3 
 2871000    0.8008343   -4.9666642    1476.1796  0.042847427  0.042421379            4 
 2872000   0.79989906   -4.9477796    1475.2479  0.042805475  0.042411903            3 
 2873000   0.78948468   -4.9621304    1478.5718  0.042886987  0.042402393            5 
 2874000   0.79377336   -4.9745078    1479.9582  0.042912264  0.042392929            5 
 2875000    0.8011371   -4.9875299    1479.4126  0.042881524  0.042383509            6 
 2876000   0.79373361   -4.9731124    1480.4488  0.042896638  0.042374092            9 
 2877000   0.79364262   -4.9830532    1480.6055  0.042886269  0.042364568            4 
 2878000   0.78448149    -4.967514     1479.339  0.042834695  0.042355159            5 
 2879000   0.78494538   -4.9821604    1481.0129  0.042868268  0.042345773            5 
 2880000   0.79568269   -4.9783489    1481.5332  0.042868438  0.042336427            5 
 2881000   0.80346743   -4.9778131      1478.74  0.042772765  0.042326942            7 
 2882000   0.78858754   -4.9930194    1477.6816  0.042727318  0.042317523            8 
 2883000   0.79064484   -4.9879327    1480.6742  0.042799001  0.042308154           10 
 2884000   0.79204279   -4.9840529     1481.738  0.042814898  0.042298685            6 
 2885000   0.80284723   -4.9919487    1479.9001  0.042746969  0.042289207            3 
 2886000   0.78685505   -4.9445835    1483.6387  0.042840109  0.042279768            7 
 2887000   0.78798217   -4.9637378    1481.9125  0.042775445  0.042270299            3 
 2888000   0.79706726   -4.9804968    1476.9694  0.042617999  0.042260897            5 
 2889000   0.76992988    -4.953891    1484.3235  0.042815378  0.042251525            5 
 2890000   0.79074668   -4.9754921    1482.4523  0.042746607  0.042242048            5 
 2891000   0.79018913    -4.974386    1481.4415  0.042702685  0.042232548            6 
 2892000   0.79862823   -4.9769799    1480.3833  0.042657427  0.042223075            5 
 2893000   0.78141371   -4.9834558    1486.6944  0.042824473  0.042213633            6 
 2894000   0.78692115   -4.9819004    1475.6951  0.042492947   0.04220414            8 
 2895000   0.78438501   -4.9790173    1484.1349  0.042721213  0.042194683           11 
 2896000   0.79205937   -4.9866203    1480.7709  0.042609661  0.042185281            7 
 2897000   0.79226293   -4.9820962    1485.9092  0.042742756  0.042175897            8 
 2898000   0.77537383    -4.974735    1487.0539  0.042760924  0.042166571            9 
 2899000   0.80400638   -4.9918423    1486.3077  0.042724723  0.042157299            8 
 2900000   0.79667644   -4.9685036    1488.5247    0.0427737   0.04214804            6 
 2901000   0.77107361    -4.961188    1491.0238  0.042830741  0.042138653            6 
 2902000   0.76301996   -4.9533549    1486.9739  0.042699688  0.042129348            8 
 2903000   0.78522945   -5.0120921       1481.4  0.042524976  0.042119956            4 
 2904000   0.77198609   -4.9881783    1483.9522   0.04258357  0.042110578            5 
 2905000   0.77706864   -4.9518939    1487.5791  0.042672952  0.042101156            4 
 2906000   0.77238301   -5.0078644    1482.3598  0.042508597   0.04209172            5 
 2907000   0.79993383   -4.9775414    1484.4336  0.042553422  0.042082213            8 
 2908000   0.79422489   -4.9979066    1479.8806  0.042408317  0.042072741            7 
 2909000   0.78191182   -5.0002447    1479.4241   0.04238066  0.042063206            5 
 2910000   0.77880225   -4.9806845    1483.1689  0.042473336  0.042053682            5 
 2911000   0.77955622   -4.9655482    1483.5438  0.042469478  0.042044155            3 
 2912000   0.77969424   -5.0036401    1483.2614  0.042446813  0.042034665            6 
 2913000   0.78088215   -5.0093832    1480.9527  0.042366196  0.042025134            5 
 2914000   0.79638598   -4.9716249    1480.2573  0.042331769  0.042015621            8 
 2915000   0.77254629   -4.9636952    1486.2358   0.04248816  0.042006119            4 
 2916000   0.78404075   -4.9746462    1485.0719  0.042440327  0.041996726           10 
 2917000   0.80730911   -4.9850539    1481.5291  0.042324565  0.041987292            5 
 2918000   0.77617807   -5.0244065    1480.0415  0.042267577  0.041977837            6 
 2919000   0.77848559   -4.9920913    1485.9174  0.042420845  0.041968375            4 
 2920000   0.78268586   -4.9713093    1490.2565   0.04253015  0.041959001            7 
 2921000   0.77750156   -4.9731439    1486.9085  0.042420077  0.041949617            4 
 2922000   0.78114559   -4.9688166    1489.3017  0.042473811  0.041940231            4 
 2923000   0.76707683   -4.9799128    1491.0997  0.042510539  0.041930751            7 
 2924000   0.77442012   -4.9804816    1488.7354  0.042428621  0.041921308            4 
 2925000   0.78681353   -4.9934923     1486.088  0.042338691   0.04191184            2 
 2926000   0.78255206    -4.987303    1487.8362   0.04237401  0.041902272            5 
 2927000   0.79281113   -4.9890681    1487.4723  0.042349172  0.041892768            8 
 2928000   0.76591773   -4.9833295    1486.5154  0.042307473  0.041883207            4 
 2929000   0.79513238   -4.9926226    1486.8634  0.042302931  0.041873664            6 
 2930000   0.78808141   -4.9851055    1490.9772  0.042405496  0.041864163            6 
 2931000   0.78319798   -4.9761546    1489.9918  0.042363009  0.041854717           11 
 2932000   0.79537662   -4.9873863    1487.6201  0.042281154  0.041845198           10 
 2933000   0.78459974   -5.0016034    1489.1973   0.04231155  0.041835719            7 
 2934000   0.79573828    -4.991653    1490.1979  0.042325549  0.041826198           15 
 2935000   0.79306026   -4.9928943    1480.8816  0.042046611  0.041816593            5 
 2936000   0.77829301   -5.0015952    1487.8257  0.042229385  0.041807027            7 
 2937000   0.77319851   -4.9822452    1490.6236  0.042294393  0.041797535            6 
 2938000   0.78064992   -4.9822111    1489.0262   0.04223469  0.041788001            5 
 2939000   0.78338168    -5.000912    1482.2354  0.042027771  0.041778472            6 
 2940000   0.80771613   -5.0237185      1491.35  0.042271825  0.041768945            7 
 2941000   0.80222704   -4.9951959    1488.5882  0.042179196  0.041759379           12 
 2942000   0.76635263    -5.002089    1487.0695  0.042121842  0.041749847            5 
 2943000   0.77896543   -4.9798432    1491.9703    0.0422463  0.041740235            7 
 2944000   0.79966484   -4.9937482    1491.0077  0.042204703  0.041730626            3 
 2945000   0.78116691   -4.9841151    1490.2903  0.042170072  0.041721103            7 
 2946000   0.78932765   -5.0121092    1487.4288  0.042074813   0.04171155            8 
 2947000   0.78937935   -4.9884578    1487.6868  0.042067831  0.041701956           12 
 2948000   0.79661738   -4.9987433    1493.6476   0.04222206  0.041692475            4 
 2949000   0.78630334   -5.0055858    1490.6394  0.042122736  0.041682963            3 
 2950000   0.78024496   -5.0231068    1486.8523  0.042001477  0.041673373            9 
 2951000   0.77621798   -4.9681754    1494.7866  0.042211302  0.041663874            3 
 2952000   0.77795825   -4.9845063    1490.5843  0.042078372  0.041654362            4 
 2953000   0.77788528    -4.992233    1495.7113  0.042208807  0.041644888            7 
 2954000   0.76914555   -5.0070578     1493.665  0.042136791  0.041635378            8 
 2955000   0.78029598    -5.015734    1486.6915  0.041925875  0.041625923            4 
 2956000    0.7923151   -4.9775927    1492.5943  0.042078099  0.041616402            5 
 2957000   0.77592276   -4.9804213     1498.002  0.042216266  0.041606924            5 
 2958000   0.77134314   -5.0129026    1489.1353    0.0419522  0.041597352            4 
 2959000   0.76288002   -4.9737115    1491.3942   0.04200164  0.041587901            5 
 2960000   0.77102571    -4.978132    1492.0541  0.042006027  0.041578394            6 
 2961000   0.76991487   -4.9891184    1491.8751  0.041986803  0.041568898            3 
 2962000    0.7860514   -5.0295214     1491.581  0.041964354  0.041559306            2 
 2963000   0.77445167   -5.0015265     1493.297  0.041998454  0.041549787            5 
 2964000   0.77093324   -5.0284251    1489.2012   0.04186913  0.041540216            7 
 2965000    0.7945187   -4.9919387    1494.4289  0.042001937   0.04153067            4 
 2966000   0.76913179   -5.0130493    1493.4166  0.041959335  0.041521207            5 
 2967000   0.78541312   -5.0406212    1493.5701  0.041949504  0.041511627            6 
 2968000   0.77213909   -5.0279361    1490.6023  0.041852041  0.041502076            4 
 2969000   0.76414202   -4.9872564    1493.0021  0.041905301  0.041492524            2 
 2970000   0.77982433   -5.0069211    1491.7229    0.0418553  0.041483025            6 
 2971000   0.77474155   -5.0294213    1490.8153  0.041815756  0.041473455            6 
 2972000   0.79336569   -5.0345524    1495.3877  0.041929892  0.041463867           10 
 2973000   0.78150051    -5.003373    1492.4207  0.041832623  0.041454322            6 
 2974000   0.77774975     -5.00209    1496.4954  0.041932733  0.041444868            5 
 2975000   0.78406921   -4.9867027    1494.8899  0.041873667  0.041435445            6 
 2976000   0.77596435   -5.0070428    1494.8866  0.041859505    0.0414259            8 
 2977000   0.79055716   -5.0217947     1494.905  0.041845959  0.041416387            4 
 2978000    0.7746271   -5.0242682    1499.2097  0.041952365  0.041406898            8 
 2979000   0.77091862   -4.9992456    1495.6572  0.041838906   0.04139749           10 
 2980000   0.76897985   -5.0231919    1495.0464  0.041807785  0.041388013            3 
 2981000   0.76871338   -5.0124572    1496.3274  0.041829571  0.041378588            8 
 2982000   0.78299953   -5.0023996    1496.3147  0.041815189  0.041369153            9 
 2983000   0.78005495   -5.0095606    1498.2176  0.041854329   0.04135978            7 
 2984000   0.77330454   -4.9830397    1502.4305  0.041957956  0.041350443            6 
 2985000    0.7894092   -4.9726006    1503.0439  0.041961025  0.041341184            6 
 2986000    0.7747604   -5.0413869    1498.2926  0.041814372  0.041331813            6 
 2987000   0.78237668   -5.0179767    1499.5126  0.041834411   0.04132244            4 
 2988000   0.75911411   -5.0202813    1502.5661  0.041905571  0.041313019            8 
 2989000   0.78401682   -4.9993264    1504.3246  0.041940576  0.041303644            6 
 2990000   0.77762197   -5.0454876    1500.6835   0.04182507  0.041294261            4 
 2991000   0.76516665   -5.0006035     1503.878   0.04190009  0.041285001           12 
 2992000   0.78102775   -5.0367463    1499.1306   0.04175386  0.041275656            7 
 2993000   0.77743423   -5.0267559    1501.8066  0.041814418  0.041266304           20 
 2994000   0.78282861   -4.9677603    1501.5309  0.041792778  0.041257071            5 
 2995000   0.77040121   -4.9833705     1506.478  0.041916471   0.04124782           14 
 2996000    0.7746046   -4.9984654    1501.5991  0.041766774  0.041238553            9 
 2997000   0.75925757   -5.0334165    1500.3225  0.041717342  0.041229145           15 
 2998000   0.77831483   -5.0289299    1495.5204  0.041569946  0.041219673            7 
 2999000   0.75796981   -5.0017642    1504.2464  0.041798555  0.041210274            3 
 3000000      0.77782   -5.0176077    1499.5234  0.041653427  0.041200916            6 
 3001000   0.76338369   -5.0261079    1502.2795   0.04171608  0.041191547            9 
 3002000   0.77366498   -4.9994385    1506.0075  0.041805673  0.041182217            3 
 3003000   0.78137704   -4.9985303    1504.2139  0.041741979  0.041172909            4 
 3004000   0.78611596   -5.0126732    1501.8281  0.041661897  0.041163575            9 
 3005000   0.76621011   -4.9937061    1505.8241  0.041758849  0.041154206            5 
 3006000     0.768625   -5.0527758    1497.8399  0.041523617  0.041144731           14 
 3007000   0.79168432   -5.0305333    1498.3206  0.041523128   0.04113517            4 
 3008000   0.76615739   -5.0245193    1505.3824  0.041704964   0.04112563            6 
 3009000   0.76599273   -5.0158848     1499.899  0.041539244   0.04111614            5 
 3010000   0.77144636   -5.0125867    1501.2305  0.041562306  0.041106546            5 
 3011000   0.75890768   -5.0094575    1505.6203  0.041669996  0.041097072            7 
 3012000    0.7626873   -5.0255566    1499.5195  0.041487369  0.041087578            2 
 3013000    0.8028763    -5.000785    1504.4664  0.041610421  0.041078088            6 
 3014000   0.75582628     -5.03331    1501.8229  0.041523526  0.041068609           13 
 3015000   0.78177083   -5.0356725    1498.1532  0.041408326  0.041059054            8 
 3016000    0.7855796   -5.0130344    1501.9304  0.041498961  0.041049514            9 
 3017000    0.7620988   -5.0181377    1498.9677  0.041403372  0.041040025            9 
 3018000   0.76448374   -5.0295395    1497.7105  0.041354939   0.04103053            6 
 3019000   0.76652672   -5.0120045    1507.2266  0.041603914   0.04102106            9 
 3020000   0.78086448   -4.9966946    1505.7571   0.04154959  0.041011568           15 
 3021000   0.75254137   -5.0257003    1503.4243  0.041471485  0.041002169            6 
 3022000   0.77124633   -5.0254711    1506.8305  0.041551689  0.040992803            8 
 3023000   0.77599335   -5.0130429    1501.5398    0.0413921  0.040983408            5 
 3024000    0.7774283   -5.0296835    1505.5937  0.041490126  0.040973969            5 
 3025000   0.75317515   -4.9981048    1502.7264  0.041397423  0.040964463            5 
 3026000   0.77886776   -5.0074489     1505.716  0.041466072  0.040955003            7 
 3027000   0.77047652   -5.0094171     1502.279  0.041357753   0.04094556           10 
 3028000   0.77992446   -5.0103062    1507.8541  0.041497527  0.040936214            6 
 3029000   0.78102949   -5.0106292     1506.966  0.041459393  0.040926832            4 
 3030000   0.76012742   -5.0420499    1504.1392  0.041367964  0.040917436            7 
 3031000   0.76384835   -5.0373745    1509.4652  0.041500748   0.04090811           12 
 3032000   0.76963434   -5.0293457    1506.3043  0.041400184  0.040898771            6 
 3033000   0.76134364   -5.0430622    1509.9529   0.04148678  0.040889382            5 
 3034000   0.77436445   -5.0129912    1507.3997  0.041402979  0.040880057            5 
 3035000   0.76368289   -5.0229396    1510.3536  0.041470445  0.040870741           10 
 3036000   0.76333579    -5.041613    1504.1413  0.041286267  0.040861397            4 
 3037000   0.77951827   -5.0329115    1508.3711  0.041388735  0.040852086           12 
 3038000   0.76505441   -5.0191503    1509.2815  0.041400084  0.040842718            6 
 3039000   0.76636446   -5.0317357    1506.1174  0.041299699  0.040833417            4 
 3040000   0.76455392   -4.9955738    1514.0092  0.041502445  0.040824154            2 
 3041000   0.77690184   -5.0445943    1511.4425   0.04141846  0.040814974            6 
 3042000   0.76814766   -5.0193187    1514.3425   0.04148429  0.040805771            9 
 3043000   0.76490037   -5.0136792    1512.3387  0.041415783  0.040796576            3 
 3044000   0.76794121   -5.0325941    1510.7998  0.041360046   0.04078737            4 
 3045000   0.76712323    -5.010748    1514.3061  0.041442423  0.040778191            9 
 3046000   0.75145204   -5.0554824     1510.076  0.041313089   0.04076897            6 
 3047000   0.76477355   -5.0244265    1516.4831   0.04147476  0.040759716           10 
 3048000   0.76517578   -5.0280531     1514.176  0.041398074   0.04075054            6 
 3049000   0.75825357   -5.0053994    1511.5138  0.041311735    0.0407414           10 
 3050000   0.76633605   -5.0094258    1517.5232  0.041462382  0.040732295            5 
 3051000   0.76034888   -5.0228899    1513.1884  0.041330395  0.040723159           15 
 3052000   0.75972457   -5.0290375     1509.778  0.041223733  0.040713956            7 
 3053000   0.76398949   -5.0379169    1510.7877  0.041237791  0.040704824            8 
 3054000    0.7655225   -5.0034222    1513.9774  0.041311325  0.040695635            5 
 3055000   0.75283526   -5.0493078    1515.2505   0.04133253  0.040686504            7 
 3056000   0.77624854   -5.0475714    1512.3334  0.041239457   0.04067738            6 
 3057000   0.76317611   -5.0249156    1520.2232  0.041441043  0.040668219            4 
 3058000   0.75348628   -5.0209403    1514.5317  0.041272393  0.040659129            9 
 3059000   0.76384746   -4.9917602    1517.2831  0.041333855  0.040649943            7 
 3060000   0.76659278   -5.0273112    1514.0834  0.041233209   0.04064081            3 
 3061000   0.76221129   -4.9974639    1512.5818  0.041178859  0.040631633            8 
 3062000   0.76155856   -5.0036824    1513.8815  0.041200782  0.040622503           14 
 3063000   0.73679227   -5.0359188    1519.8238  0.041348997  0.040613405           10 
 3064000   0.78428095   -5.0431703     1511.562  0.041110804  0.040604246           13 
 3065000   0.75985725   -5.0160968    1517.2793  0.041252836  0.040594962            3 
 3066000   0.76449768    -5.023574     1512.883  0.041119891   0.04058579           17 
 3067000   0.76223681    -5.051652     1514.305   0.04114512  0.040576525            5 
 3068000   0.77414279   -5.0363547    1517.0495  0.041206256  0.040567263            7 
 3069000   0.76238899   -5.0497279    1512.1245    0.0410591   0.04055804            5 
 3070000   0.76071042   -5.0476993    1515.0876  0.041126157  0.040548848           12 
 3071000   0.75090228   -5.0418115    1517.2916  0.041172571  0.040539542            4 
 3072000   0.76970073    -5.038506    1514.4969  0.041083359  0.040530354            7 
 3073000     0.759768   -5.0232708    1516.2377  0.041117196  0.040521235           14 
 3074000   0.78157752   -5.0676143    1510.9976  0.040961764  0.040511997            4 
 3075000   0.76872872    -5.032851    1520.1029  0.041195201   0.04050281           14 
 3076000   0.75702887   -5.0451214    1514.1992  0.041021869  0.040493503           12 
 3077000   0.77135802   -5.0572622    1510.2425  0.040901379  0.040484218            6 
 3078000   0.75061738   -5.0414504    1515.9485  0.041042574  0.040474985            6 
 3079000   0.76006596   -5.0176873    1517.4229  0.041069148  0.040465766            5 
 3080000   0.74772551   -5.0203477    1513.6649  0.040954137  0.040456491            9 
 3081000   0.74944265    -5.050186    1517.6183  0.041047774  0.040447179            9 
 3082000   0.74944011    -5.031587    1518.6517  0.041062398  0.040437973           20 
 3083000   0.76095744   -5.0351766      1516.25  0.040984159  0.040428817            5 
 3084000    0.7300158   -5.0311959    1515.7808  0.040958194   0.04041951            4 
 3085000   0.74964558   -5.0296517    1516.2442  0.040957433   0.04041029           10 
 3086000     0.770595   -5.0100506    1523.6261  0.041143502  0.040401189            8 
 3087000   0.75879367   -5.0060189    1518.1885  0.040983384  0.040392149            5 
 3088000   0.77201497   -5.0492836    1518.4404  0.040976911   0.04038294            8 
 3089000   0.76057223   -5.0337434    1519.0721  0.040980686  0.040373766           10 
 3090000    0.7616921   -5.0633787    1516.7499  0.040904797  0.040364604            8 
 3091000   0.74917119   -5.0423683    1517.8308  0.040920706  0.040355361            6 
 3092000    0.7653831    -5.046516    1514.9146  0.040828876  0.040346107            8 
 3093000   0.75061473   -5.0557452    1519.1978  0.040931076  0.040336856            7 
 3094000   0.76911023   -5.0560947    1518.2946  0.040893519   0.04032755           10 
 3095000   0.75800375   -5.0411863    1516.1003  0.040821226  0.040318343           22 
 3096000   0.75042974   -5.0587081    1518.1091   0.04086211  0.040309055            8 
 3097000   0.77805347   -5.0536683    1517.3401  0.040828223   0.04029977            4 
 3098000   0.74445967   -5.0391524     1521.732  0.040933182  0.040290601            5 
 3099000   0.75920394   -5.0462593    1518.6381  0.040836778  0.040281332            4 
 3100000   0.75032992   -5.0350359     1519.909  0.040857768  0.040272152            3 
 3101000    0.7634644   -5.0303839    1524.0174  0.040954999   0.04026302            6 
 3102000   0.74788478   -5.0493482    1523.4616  0.040926864  0.040253846            5 
 3103000   0.76457958   -5.0429491    1521.4914  0.040860765  0.040244674           19 
 3104000   0.76221946   -5.0605533    1516.3171  0.040708685  0.040235397           13 
 3105000   0.73015545   -5.0378712     1525.115  0.040931695  0.040226152            7 
 3106000   0.77131302   -5.0678408     1519.418  0.040765668  0.040216948            8 
 3107000   0.75063866   -5.0557065    1517.6662  0.040705563  0.040207743           21 
 3108000   0.72899257   -5.0560446    1523.6516  0.040852951   0.04019856           12 
 3109000   0.75792794     -5.06898    1519.9476  0.040740527  0.040189351            6 
 3110000   0.76737176   -5.0421797     1517.645  0.040665729   0.04018013            4 
 3111000   0.75445583   -5.0730673    1524.0054  0.040823032  0.040170938           13 
 3112000   0.76637198   -5.0615131    1520.3716  0.040712606  0.040161731            4 
 3113000   0.75013588   -5.0442095    1525.6483  0.040840782    0.0401525            5 
 3114000   0.74849766   -5.0621773    1520.1683  0.040681018  0.040143331            8 
 3115000   0.75734069   -5.0637443    1523.5401  0.040758162  0.040134178           22 
 3116000   0.74778496   -5.0314676    1522.3817  0.040714103  0.040124992            5 
 3117000   0.74423881   -5.0563184    1519.3106  0.040618934  0.040115818            8 
 3118000   0.75560329   -5.0422797    1520.6504  0.040641716  0.040106626            9 
 3119000    0.7513104   -5.0201228    1524.1611  0.040722484  0.040097407            3 
 3120000   0.75416269   -5.0672576    1520.6609  0.040615944  0.040088171            9 
 3121000   0.74888791    -5.041669    1523.3894  0.040675783  0.040078922           17 
 3122000   0.75212764   -5.0431697    1524.0419  0.040680172  0.040069757            4 
 3123000    0.7545478   -5.0767914    1519.7215  0.040551861  0.040060587            4 
 3124000   0.74620478   -5.0671988    1522.3514  0.040609031  0.040051296            7 
 3125000   0.74903385   -5.0563007    1521.9024  0.040584065  0.040042136            4 
 3126000   0.75422903   -5.0806447    1527.0776  0.040709043  0.040032974            6 
 3127000    0.7372029   -5.0576411    1522.2374  0.040567033  0.040023812            5 
 3128000   0.73829222   -5.0466329    1523.6211  0.040590928  0.040014674            7 
 3129000   0.74479765   -5.0592613     1527.124  0.040671248  0.040005542           14 
 3130000   0.74482451   -5.0365468    1524.1899  0.040580135  0.039996401            6 
 3131000   0.75965596   -5.0816242    1522.9976   0.04053544  0.039987264            6 
 3132000   0.75837405   -5.0519011    1527.1595  0.040633234  0.039978083            5 
 3133000   0.74766802   -5.0579734    1531.6248  0.040739036  0.039969051            4 
 3134000   0.74345894   -5.0601237    1523.3323  0.040505538  0.039959967            7 
 3135000   0.75530987   -5.0194959     1530.696  0.040688357  0.039950872           13 
 3136000   0.74769708   -5.0487274    1527.1883  0.040582172  0.039941861            5 
 3137000   0.75744621    -5.048817    1526.1531  0.040541736  0.039932819            7 
 3138000   0.75214649   -5.0654376    1528.1327  0.040581386  0.039923687            4 
 3139000   0.76970053   -5.0678364    1524.1418  0.040462509  0.039914486           10 
 3140000   0.73893877   -5.0774145    1526.0308  0.040499756  0.039905244            4 
 3141000   0.73837899   -5.0552524    1529.1345  0.040569204  0.039896118            5 
 3142000   0.76476391     -5.06628    1524.1314  0.040423599  0.039887005            9 
 3143000   0.73248365   -5.0886492    1527.1449  0.040490637  0.039877937            8 
 3144000   0.75182268   -5.0428727    1532.9151    0.0406307  0.039868862            8 
 3145000   0.74918256   -5.0638522    1527.1067  0.040463876  0.039859818            7 
 3146000   0.74208139   -5.0461921    1530.9967  0.040554055  0.039850772            3 
 3147000   0.75200815   -5.0846832    1527.3222  0.040443868  0.039841655            4 
 3148000   0.73722224   -5.0809926    1525.7455  0.040389282  0.039832471           10 
 3149000   0.75368534   -5.0505896    1526.2566  0.040389982  0.039823375            5 
 3150000   0.75497909   -5.0481046    1529.1965  0.040454935  0.039814284            8 
 3151000   0.75714145   -5.0706782    1528.7431  0.040430103    0.0398052            9 
 3152000   0.75615431   -5.0689511     1525.868  0.040341265  0.039796114            5 
 3153000   0.75905472   -5.0820857     1529.703  0.040429829  0.039786949            5 
 3154000   0.76211722   -5.0612555    1529.0365    0.0403994  0.039777784           12 
 3155000   0.74079733   -5.0529711    1529.7063  0.040404286  0.039768655            5 
 3156000   0.74647979   -5.0392687    1533.6383  0.040495308  0.039759609            8 
 3157000   0.74138752   -5.0789496    1528.6457  0.040350693  0.039750443           14 
 3158000    0.7443634   -5.0773567    1523.8186  0.040210539  0.039741207            6 
 3159000   0.75066865   -5.0729583    1530.7657  0.040381073  0.039731991            6 
 3160000   0.75232705   -5.0925942    1528.1018  0.040298044  0.039722893            8 
 3161000   0.74859341   -5.0483669    1534.7143   0.04045962  0.039713764            6 
 3162000   0.74192281   -5.0510738    1529.5378  0.040310399  0.039704666           10 
 3163000    0.7515005   -5.0758903    1527.5372  0.040244946  0.039695468            9 
 3164000    0.7411311   -5.0654367    1527.8435  0.040240295  0.039686373           18 
 3165000   0.73975458   -5.0498237    1531.7707  0.040330983  0.039677331            4 
 3166000   0.73838822    -5.071097    1527.1187  0.040195796  0.039668195            6 
 3167000   0.72947954   -5.1035292     1526.973  0.040179271   0.03965903            9 
 3168000   0.75427969   -5.0623297    1531.6244  0.040288941  0.039649907            4 
 3169000   0.75795956   -5.0588524     1532.771  0.040306378  0.039640823           13 
 3170000   0.72248283   -5.0674391    1528.6176  0.040184479  0.039631756           11 
 3171000   0.74343956   -5.0649358    1532.4166  0.040271644  0.039622647            4 
 3172000   0.74712993   -5.0973528    1533.9894  0.040300268  0.039613622            9 
 3173000   0.74326146   -5.0692147    1530.4788  0.040195368  0.039604583           29 
 3174000   0.74607785   -5.0496708    1534.5307  0.040289086  0.039595561            5 
 3175000   0.74504459   -5.0882208    1528.0084  0.040105208  0.039586584            5 
 3176000   0.74285849   -5.0635422    1534.3123  0.040257984  0.039577528            6 
 3177000   0.74057273   -5.0380914    1532.0218  0.040185232  0.039568527            5 
 3178000   0.74240942   -5.0750888    1531.9261  0.040170079  0.039559424            5 
 3179000   0.74943476   -5.0700323    1536.4251  0.040275379  0.039550368            5 
 3180000   0.73262373   -5.0786528     1534.804   0.04022023  0.039541346            7 
 3181000   0.74632735   -5.0738257    1536.1826  0.040243703  0.039532398            8 
 3182000   0.74273523   -5.0819571    1536.2114   0.04023181   0.03952339            8 
 3183000   0.74787929   -5.0810451    1533.1471  0.040138945  0.039514387           12 
 3184000   0.73353715   -5.1065084    1530.7681  0.040064072   0.03950536            8 
 3185000    0.7276992    -5.057998    1533.6715  0.040127459  0.039496306            4 
 3186000   0.74334505   -5.0719411    1534.2826  0.040130848  0.039487299            3 
 3187000   0.72918825   -5.0896259    1532.6298   0.04007504  0.039478197            5 
 3188000    0.7507518   -5.1014316    1533.7883  0.040092752  0.039469101            5 
 3189000   0.73767608   -5.0630381    1534.7967  0.040106529  0.039460102            4 
 3190000    0.7499151   -5.0637236    1536.3072  0.040133417  0.039451103            9 
 3191000   0.76288593   -5.0813634    1536.7781  0.040133137  0.039442131            6 
 3192000   0.73746584   -5.0979569    1539.4506  0.040190336  0.039433203            6 
 3193000   0.71222785   -5.0698315    1536.9615  0.040112785  0.039424292           15 
 3194000   0.73422071   -5.1175374    1532.4402  0.039982263  0.039415298            8 
 3195000   0.73093577   -5.0756129    1537.1674  0.040093046  0.039406317            6 
 3196000   0.75430755   -5.0454781     1541.714   0.04019905  0.039397429            6 
 3197000   0.74204025   -5.0877173    1541.5871   0.04018317  0.039388561            7 
 3198000   0.74310018   -5.0639588    1537.9271  0.040075231  0.039379682           12 
 3199000   0.74688028   -5.0822599    1539.3771  0.040100476  0.039370865            7 
 3200000   0.75944259   -5.1000751    1538.6451  0.040068882  0.039361954           21 
 3201000    0.7473546   -5.0906092    1539.8373  0.040087402  0.039353048           10 
 3202000   0.75247623    -5.095646    1537.5649  0.040015741  0.039344066            7 
 3203000   0.74504013   -5.0662678    1539.2075  0.040045987   0.03933516            7 
 3204000   0.74052262   -5.0885912    1539.5135  0.040041445  0.039326332            6 
 3205000   0.73457812   -5.0742357    1543.6635  0.040136857  0.039317488            7 
 3206000   0.73148983   -5.0907933    1539.9571  0.040027997  0.039308553            7 
 3207000   0.74892829   -5.0925132    1538.2131  0.039970197  0.039299591           11 
 3208000   0.72686749   -5.0835417    1538.7963  0.039972889  0.039290646            4 
 3209000   0.73602973   -5.0752245    1540.2942  0.039999331  0.039281663            7 
 3210000   0.74488552    -5.090358    1541.0013  0.040005225  0.039272657            7 
 3211000    0.7535732   -5.0850781    1542.4151  0.040029459  0.039263737           13 
 3212000   0.73893229   -5.0756504    1540.7851  0.039974706  0.039254837           23 
 3213000   0.74742054   -5.0965301    1540.9424  0.039966345  0.039245902            4 
 3214000   0.73600227   -5.0854017    1539.3157  0.039911732  0.039237037           10 
 3215000   0.75104802   -5.0932269       1544.7   0.04003888  0.039228074           11 
 3216000   0.75762797   -5.1072702    1539.5207  0.039892223  0.039219128           10 
 3217000   0.74186311   -5.0967719    1540.2801  0.039899494  0.039210188            5 
 3218000   0.74209578   -5.0813768    1544.7995  0.040004131  0.039201205            4 
 3219000   0.72372281   -5.1003641    1539.8624  0.039863892  0.039192303            4 
 3220000   0.73627069    -5.092846    1544.1204  0.039961708  0.039183377            4 
 3221000   0.72416469    -5.085366    1537.3087   0.03977307  0.039174504            5 
 3222000   0.73732396   -5.0576634    1544.1536  0.039937761  0.039165624           11 
 3223000   0.73667651   -5.1062473    1536.8793  0.039737287  0.039156735           11 
 3224000   0.73636872   -5.0946143    1539.1164  0.039782784  0.039147799           11 
 3225000   0.73947674   -5.1000249     1545.714  0.039940931  0.039138881           10 
 3226000   0.73214081    -5.075542    1545.4228  0.039921028   0.03912996           15 
 3227000   0.74380819   -5.1011352    1541.0183  0.039794916  0.039121124            6 
 3228000   0.74006346   -5.0811068    1546.3788  0.039920972  0.039112216            3 
 3229000   0.72740039   -5.0858815    1544.0058  0.039847368  0.039103343           14 
 3230000   0.73501826     -5.07862    1547.9229  0.039936091  0.039094517            6 
 3231000    0.7252196   -5.1090479    1540.7979  0.039739964  0.039085692           19 
 3232000   0.71881658   -5.0578249    1545.0951  0.039838468  0.039076885            5 
 3233000   0.74899603   -5.0913567    1549.3343  0.039935414  0.039068036            5 
 3234000   0.73781034   -5.1112587    1541.0513  0.039709628   0.03905923           11 
 3235000   0.72760096   -5.0757661    1546.8905  0.039847771  0.039050462            9 
 3236000   0.72789313   -5.0954231    1547.7014   0.03985634   0.03904169            4 
 3237000   0.73575915   -5.0939323    1546.0554  0.039801652  0.039032837            6 
 3238000   0.74669198   -5.1072566    1542.9519  0.039709488  0.039023967            8 
 3239000   0.71861329   -5.0980356    1546.8583  0.039797733  0.039015181            6 
 3240000   0.72944475   -5.1041124    1547.2977   0.03979675  0.039006401            5 
 3241000   0.71196926   -5.0719921    1543.3749  0.039683608  0.038997586            6 
 3242000   0.74223295   -5.0910439     1544.128  0.039690725  0.038988779            6 
 3243000   0.73604832   -5.0915057    1547.6162  0.039768122  0.038979934            9 
 3244000   0.73562276   -5.1051881    1548.2312  0.039771661  0.038971081            8 
 3245000   0.72334714   -5.0772693    1548.7507  0.039772745  0.038962227            6 
 3246000   0.72248663   -5.1131121    1543.8072  0.039633579  0.038953342            9 
 3247000   0.75360156   -5.0946616    1545.4486  0.039663499  0.038944501            4 
 3248000    0.7457724   -5.0921906    1548.9068  0.039740015  0.038935682            6 
 3249000   0.72253328   -5.0732851    1547.6074  0.039694454  0.038926859           13 
 3250000   0.72821872   -5.1138336    1546.3172  0.039649158  0.038917964            6 
 3251000   0.74341967   -5.1104188    1546.1912  0.039633732   0.03890907           21 
 3252000    0.7351348   -5.1071202    1545.1084    0.0395938  0.038900193           12 
 3253000   0.72509336   -5.0917989    1544.8799  0.039575774  0.038891281            9 
 3254000   0.73927237   -5.1178754    1543.8191  0.039536445  0.038882416           12 
 3255000   0.72805637   -5.1121787    1544.4087  0.039539393  0.038873471            6 
 3256000   0.73599351   -5.0952133    1546.7731  0.039587763  0.038864621            4 
 3257000    0.7276114   -5.0864573    1550.0043  0.039658283   0.03885575            4 
 3258000   0.73363698     -5.08414    1547.1528  0.039573173  0.038846868           11 
 3259000   0.71140644   -5.1220344    1545.4088  0.039516437  0.038838025            4 
 3260000   0.72516492   -5.0956752    1546.9625   0.03954403  0.038829171            3 
 3261000   0.71054397   -5.0759992    1550.7536  0.039628785  0.038820302            3 
 3262000   0.72726332   -5.1049899    1549.5392  0.039585612  0.038811414            8 
 3263000   0.73636926   -5.1028526    1549.9176  0.039583144  0.038802547            3 
 3264000   0.73386977   -5.1108677    1553.5109  0.039662757  0.038793702            6 
 3265000   0.74524577    -5.085951    1554.8934  0.039685895  0.038784904            5 
 3266000   0.71661957   -5.1235857    1544.4247  0.039406631  0.038776084           10 
 3267000   0.73645489   -5.1017366    1551.2821  0.039569486  0.038767248            8 
 3268000   0.73506133   -5.1036032    1548.4948  0.039486301  0.038758398            7 
 3269000   0.73652113   -5.1099207    1549.3184  0.039495219   0.03874956            8 
 3270000   0.73985686   -5.0970145    1549.5142   0.03948813  0.038740714            6 
 3271000   0.72211021   -5.1195869    1549.9457   0.03948705  0.038731879            9 
 3272000     0.731018   -5.0930179    1552.1963  0.039532301  0.038723034            7 
 3273000   0.73435947   -5.1243436    1549.2395  0.039444941  0.038714292            8 
 3274000    0.7298533   -5.1252889    1553.9928  0.039553879  0.038705473            9 
 3275000   0.72723776   -5.1050009    1554.8257  0.039562995  0.038696663           14 
 3276000   0.73708435    -5.094252    1550.6287  0.039444156  0.038687884            6 
 3277000   0.71494221    -5.132216    1548.6268  0.039381213     0.038679            6 
 3278000   0.73340475    -5.075891     1553.642  0.039496696  0.038670168            7 
 3279000   0.71221972   -5.0977971    1553.7552  0.039487527  0.038661396           10 
 3280000   0.72982063   -5.1341379    1551.5579  0.039419661  0.038652595            9 
 3281000   0.72181663   -5.0807736    1549.3077  0.039350495  0.038643784            4 
 3282000   0.73252798   -5.1109027    1551.4282  0.039392347  0.038635001            5 
 3283000   0.73941054   -5.1031239    1555.5594  0.039485212  0.038626262           12 
 3284000   0.71835002   -5.1147397    1549.3197  0.039314853  0.038617546            7 
 3285000   0.73813656   -5.1037713    1553.1667  0.039400475  0.038608784            7 
 3286000   0.72601199   -5.0870135    1554.1243   0.03941277  0.038600024            8 
 3287000   0.72703309   -5.1045737    1556.2985  0.039455901  0.038591306           13 
 3288000   0.71862082   -5.1143724    1555.9998  0.039436329  0.038582581            6 
 3289000   0.72515442   -5.0982525     1557.915  0.039472864  0.038573921            5 
 3290000   0.72496075   -5.0993328    1554.4259   0.03937249  0.038565127           16 
 3291000   0.72805105   -5.1522402    1551.9525  0.039297897  0.038556379           11 
 3292000   0.74359819   -5.1048565    1557.6954  0.039431333  0.038547715            5 
 3293000   0.74879032   -5.1001869    1555.1853  0.039355838  0.038539009            9 
 3294000   0.74111745   -5.1139516    1553.5279   0.03930196  0.038530331            7 
 3295000   0.72383082   -5.1249909    1556.6183  0.039368191  0.038521694           11 
 3296000   0.73314678   -5.1261301    1561.4832  0.039479249  0.038513041            7 
 3297000   0.71732267   -5.0988498    1552.4674  0.039239394  0.038504342           10 
 3298000   0.71963134   -5.1083037    1554.7282  0.039284622  0.038495692            6 
 3299000   0.72651308   -5.1240345    1556.7927  0.039324864  0.038487029            7 
 3300000   0.73179397   -5.0902722    1558.5639  0.039357674  0.038478405            7 
 3301000   0.71649072   -5.1163747     1557.501  0.039318918  0.038469721           19 
 3302000   0.73330787   -5.1118792    1551.0261  0.039143603   0.03846108            5 
 3303000   0.72883555   -5.1029841    1557.3975    0.0392925  0.038452355            7 
 3304000   0.72606582   -5.1107577    1553.2131  0.039175067  0.038443655            4 
 3305000   0.73432947   -5.1272457     1556.951  0.039257463  0.038434927            9 
 3306000   0.70477808    -5.143415    1554.6814  0.039188381   0.03842611            7 
 3307000   0.71984269    -5.132643    1552.6297  0.039124829  0.038417275           10 
 3308000   0.72669992   -5.1268641    1557.1438  0.039226718  0.038408544           17 
 3309000   0.70962764   -5.1445022    1554.3125  0.039143559  0.038399882            3 
 3310000    0.7186634   -5.1309547    1557.1228  0.039202488  0.038391145           12 
 3311000   0.73002394   -5.0940398    1557.7214  0.039205713   0.03838248            7 
 3312000   0.72629196   -5.1243182    1555.8831  0.039147623  0.038373798           12 
 3313000   0.73788608    -5.107736    1553.3576  0.039072282  0.038365148           17 
 3314000   0.71472212   -5.1454926    1551.4309  0.039012042  0.038356432            7 
 3315000   0.72506992   -5.1107238    1557.3779  0.039149771  0.038347685           20 
 3316000   0.72874413   -5.1064321    1556.4468  0.039114566  0.038338955            3 
 3317000   0.71027858   -5.1139768     1558.275  0.039148704  0.038330242            7 
 3318000   0.72804599   -5.1106227    1559.3844  0.039164769  0.038321591            6 
 3319000    0.7207855   -5.1180552      1560.27  0.039175203  0.038312893            8 
 3320000   0.72801896   -5.0844468    1561.8374  0.039202746  0.038304216            7 
 3321000   0.71902455   -5.1208442    1560.9217  0.039167964  0.038295531            7 
 3322000   0.71187231   -5.1300581    1556.8851  0.039054915  0.038286801            5 
 3323000   0.72114915   -5.1393996    1556.9894  0.039045777  0.038278061            7 
 3324000   0.72776289   -5.1287579    1557.4221  0.039044878  0.038269288           15 
 3325000   0.72736789   -5.1566635    1558.3136  0.039055478  0.038260523            8 
 3326000   0.72304393   -5.1351809    1556.1878  0.038990474  0.038251807            8 
 3327000   0.72884733    -5.119437    1559.8593  0.039070717  0.038243117            6 
 3328000   0.71873917   -5.1349201     1562.908  0.039135317  0.038234351            6 
 3329000   0.71388697   -5.1344314    1558.9029  0.039023303  0.038225631           13 
 3330000   0.71461111   -5.1425941    1562.8174  0.039109545  0.038216943            8 
 3331000   0.74785143   -5.1119765    1562.2121   0.03908266  0.038208276            7 
 3332000   0.73620673   -5.1435025    1558.6544  0.038981952  0.038199626           17 
 3333000   0.73105815   -5.1208354    1562.4117  0.039064198  0.038190919            6 
 3334000   0.72693912   -5.1448353    1558.6509  0.038958481  0.038182217           15 
 3335000   0.72873409   -5.1227578    1562.6161   0.03904588  0.038173505            7 
 3336000   0.70812501   -5.1276535    1561.7091  0.039011519   0.03816484            6 
 3337000   0.72508108   -5.1213718    1562.7702  0.039026325   0.03815616            9 
 3338000   0.70608121   -5.1179524    1563.2147  0.039025732  0.038147598           13 
 3339000   0.70829173   -5.1298473    1558.9161  0.038906761   0.03813894            4 
 3340000   0.70712087   -5.1484112    1560.9132  0.038944941  0.038130274            7 
 3341000   0.71062265   -5.1421754    1556.6532  0.038827027  0.038121578            6 
 3342000   0.71541882   -5.1268894    1563.4687  0.038985356  0.038112883            7 
 3343000   0.70479093   -5.1500633     1560.769  0.038906395  0.038104202            7 
 3344000   0.71234925   -5.1242203     1565.258  0.039006629  0.038095554            4 
 3345000   0.71838869   -5.1404959    1560.4111  0.038874218  0.038086934           18 
 3346000    0.7119297   -5.1418257    1559.5822  0.038841955  0.038078255           12 
 3347000    0.7209792   -5.1139795    1561.6853  0.038882713  0.038069645           15 
 3348000   0.71679053   -5.1243431    1564.1237  0.038931793  0.038061033            2 
 3349000   0.71729083    -5.128738    1561.8184  0.038862806  0.038052379            8 
 3350000   0.73015107   -5.1291615    1563.8436  0.038901581  0.038043723           10 
 3351000   0.71744171   -5.1125021    1564.1232  0.038896927  0.038035145            4 
 3352000   0.71208871    -5.107476    1564.1461  0.038885892  0.038026558            9 
 3353000   0.70434123   -5.1338303    1564.1001  0.038873151  0.038017974            9 
 3354000   0.71882014   -5.1220398    1561.2476  0.038790687  0.038009398           10 
 3355000   0.70183784   -5.1104126     1564.685  0.038864505  0.038000772            8 
 3356000   0.71121409   -5.1487326    1564.6979  0.038853245  0.037992114            6 
 3357000   0.72447179   -5.1500242     1563.194   0.03880434  0.037983419            4 
 3358000   0.71352616   -5.1375535    1562.9382  0.038786436  0.037974758            3 
 3359000   0.70804813   -5.1587857    1564.3483  0.038809872  0.037966076            8 
 3360000   0.68773678   -5.1430735    1565.9194  0.038837286  0.037957455            5 
 3361000   0.69537121   -5.1376089    1562.2278  0.038734202  0.037948835            8 
 3362000   0.70550232   -5.1390484    1563.0627  0.038743374  0.037940164           13 
 3363000   0.71878487   -5.1368516    1563.8817  0.038752148  0.037931536           16 
 3364000   0.71578313   -5.1531463    1565.5001   0.03878072  0.037922872           17 
 3365000   0.69410397   -5.1554386    1566.4003  0.038791488  0.037914217            9 
 3366000   0.71693971   -5.1535799    1561.7976  0.038666013  0.037905542            4 
 3367000   0.71764721   -5.1605576    1563.3216  0.038692247  0.037896908            7 
 3368000   0.69868233   -5.1488607    1562.5086  0.038660644  0.037888262            6 
 3369000   0.71834996   -5.1384798    1564.1088  0.038688751  0.037879701            6 
 3370000    0.7273948   -5.1285789    1561.9936  0.038624965  0.037871174            6 
 3371000   0.70187243   -5.1319121    1567.5254  0.038750257  0.037862573           12 
 3372000   0.70072708   -5.1309024    1566.7146  0.038718728  0.037854017            8 
 3373000   0.70799682   -5.1513756    1564.0072   0.03864036  0.037845443            9 
 3374000   0.70027626    -5.136932    1566.2767  0.038684962   0.03783685            5 
 3375000   0.69983105   -5.1171623    1568.8658  0.038737428  0.037828297            7 
 3376000   0.71351272   -5.1300446    1567.3919  0.038689572  0.037819744           11 
 3377000    0.7167226   -5.1709881     1565.633  0.038634711  0.037811153            9 
 3378000   0.69336447   -5.1160872    1567.5717  0.038671101  0.037802553            7 
 3379000   0.70112375   -5.1566199    1567.7592  0.038664279  0.037793982            5 
 3380000   0.70436221   -5.1578271    1568.9351  0.038681831  0.037785404            9 
 3381000   0.70593515   -5.1384506    1569.0836  0.038674052  0.037776886            7 
 3382000   0.71180506    -5.155138    1567.5907  0.038625831  0.037768265            5 
 3383000   0.70699503   -5.1447109     1563.576  0.038515518   0.03775965           10 
 3384000   0.70605436    -5.135375    1569.6095  0.038652717  0.037751029            7 
 3385000   0.70757589   -5.1304236    1567.8247  0.038597358  0.037742436           16 
 3386000   0.71102661   -5.1391886     1566.745  0.038559387  0.037733787            5 
 3387000   0.72497993   -5.1476064    1569.8362  0.038624057  0.037725132            8 
 3388000   0.71181153    -5.121748    1570.4406  0.038627522  0.037716492            6 
 3389000   0.70507762   -5.1454127    1565.1333  0.038485622  0.037707849            7 
 3390000   0.70561778   -5.1294457    1573.1743  0.038671934  0.037699196            9 
 3391000   0.72094185   -5.1750397    1562.2385  0.038391785  0.037690477           21 
 3392000   0.71192456   -5.1604266    1565.7535   0.03846682    0.0376817            9 
 3393000   0.70692976   -5.1457557    1564.0339  0.038413251  0.037672959           17 
 3394000   0.70558402   -5.1529214    1567.0693  0.038476462  0.037664268            8 
 3395000   0.71231109   -5.1546631    1567.6324  0.038478951  0.037655643            6 
 3396000    0.6958559   -5.1330076    1568.3654  0.038485605  0.037647021            9 
 3397000   0.69812861   -5.1420321    1574.8955   0.03863447  0.037638457            5 
 3398000   0.71329326   -5.1302421    1571.3929    0.0385372  0.037629906            5 
 3399000   0.71817225   -5.1516412    1568.9125  0.038465052  0.037621292            5 
 3400000   0.70525084   -5.1202384    1573.0993  0.038556356  0.037612708           19 
 3401000   0.71439928   -5.1395731    1572.8591  0.038539133  0.037604171           16 
 3402000   0.70222092    -5.148432    1570.2418  0.038463694  0.037595662            5 
 3403000   0.71174719   -5.1205003      1573.91  0.038542219  0.037587188           12 
 3404000   0.71401367    -5.144142    1573.3495  0.038517174  0.037578677            5 
 3405000   0.70084938   -5.1594747    1569.7734   0.03841834  0.037570164            7 
 3406000    0.7268376    -5.147285    1568.4468  0.038374604  0.037561571           11 
 3407000   0.69923127   -5.1674169    1572.5177  0.038462911  0.037552987           14 
 3408000    0.6976473   -5.1645695      1567.64  0.038332356  0.037544434           14 
 3409000   0.70549608   -5.1313459    1573.4826  0.038463933   0.03753589            5 
 3410000   0.71960066    -5.149297    1572.4355  0.038427065  0.037527417            9 
 3411000   0.70561602   -5.1401267    1568.9178   0.03832986   0.03751884           13 
 3412000   0.70123434   -5.1538871    1568.5701  0.038310134  0.037510291            9 
 3413000   0.68826576   -5.1620763    1572.2391  0.038388492  0.037501708            4 
 3414000   0.70973078   -5.1468502    1572.8729  0.038392718    0.0374931            9 
 3415000    0.6992119   -5.1599888    1569.1284  0.038290103  0.037484518            6 
 3416000   0.70456658   -5.1580326    1572.5277   0.03836182  0.037475947            4 
 3417000   0.70395529   -5.1276622    1571.8711   0.03833458  0.037467415            6 
 3418000   0.70507124   -5.1367182    1572.7052  0.038343701  0.037458923            6 
 3419000   0.70623155   -5.1494644     1570.889  0.038288218  0.037450442            6 
 3420000   0.70229063   -5.1593165    1572.2243  0.038309558   0.03744191           12 
 3421000   0.70813065   -5.1529197    1572.9168  0.038315228  0.037433339            8 
 3422000   0.68493202   -5.1567512    1575.0695  0.038356455  0.037424788            8 
 3423000   0.69857929   -5.1673043    1571.4748  0.038257736  0.037416159           11 
 3424000   0.71315176   -5.1412262    1572.3118  0.038266935  0.037407627            4 
 3425000   0.70850093   -5.1185058    1570.2313  0.038205141  0.037399076            7 
 3426000   0.71294557   -5.1485411    1568.1815  0.038144131   0.03739053            9 
 3427000   0.70277556   -5.1455259    1571.2923  0.038208646  0.037381952            8 
 3428000   0.68745534   -5.1255724    1575.2746  0.038294306  0.037373415            6 
 3429000   0.69903399   -5.1602976    1572.4845  0.038215332  0.037364851            4 
 3430000   0.69983811   -5.1723938    1570.7177  0.038161266  0.037356184            7 
 3431000   0.72686959   -5.1706896    1570.4021  0.038142477  0.037347546           11 
 3432000   0.70496678   -5.1757268    1571.1963  0.038150649  0.037338923            8 
 3433000   0.70246345   -5.1399328    1575.3084  0.038239354  0.037330314            6 
 3434000   0.69430252    -5.170169    1571.9073  0.038145682  0.037321648            5 
 3435000    0.7004646   -5.1552354    1569.6939  0.038080882  0.037313024            8 
 3436000   0.70821466   -5.1502109    1572.0129   0.03812604  0.037304427           11 
 3437000   0.70138518   -5.1304487     1576.322  0.038219425  0.037295835            7 
 3438000   0.69824822     -5.16774    1575.1599  0.038180142  0.037287238            8 
 3439000   0.70288797   -5.1688843    1573.1027   0.03811919  0.037278686            4 
 3440000   0.68690729   -5.1419214    1575.2828   0.03816092  0.037270089           13 
 3441000   0.69812082   -5.1602997    1572.9488  0.038093307  0.037261571            6 
 3442000   0.70156221   -5.1534113    1570.5086   0.03802316  0.037252923            8 
 3443000   0.69558255   -5.1713989    1572.2115  0.038053334  0.037244348           11 
 3444000   0.70297473   -5.1557925    1572.5134  0.038049589  0.037235767            8 
 3445000    0.7171279   -5.1542437     1573.261  0.038056629  0.037227205            5 
 3446000   0.69572011   -5.1881775    1574.5374  0.038076451  0.037218664            6 
 3447000   0.70014689   -5.1751637    1572.4396  0.038014689  0.037210063           11 
 3448000   0.69464353   -5.1561285    1574.7571  0.038059674  0.037201502           15 
 3449000   0.69437774   -5.1914992    1574.5058  0.038042568   0.03719294           14 
 3450000   0.69925131   -5.1704472    1573.4995  0.038007235  0.037184297            4 
 3451000   0.68485754   -5.1762423    1575.6685  0.038048597  0.037175747            9 
 3452000   0.70399771   -5.1717523     1575.479     0.038033    0.0371672            6 
 3453000   0.70750767   -5.1480659    1578.7577  0.038101113  0.037158631           15 
 3454000    0.7068975   -5.1793164    1574.4522  0.037986204  0.037150045           10 
 3455000   0.71072657   -5.1694489    1578.5071  0.038073012  0.037141475            4 
 3456000   0.70825241   -5.1912787    1573.5087  0.037941471  0.037132851            9 
 3457000   0.69198948   -5.1822557    1570.9531  0.037868893  0.037124231            4 
 3458000   0.70026876   -5.2069146    1571.6792  0.037875439  0.037115605           10 
 3459000   0.70490635   -5.1914675    1570.6854  0.037840546  0.037106893            9 
 3460000   0.69644264   -5.1627627    1574.8076  0.037928892  0.037098173           12 
 3461000   0.70914958   -5.1497002    1573.2031  0.037879301   0.03708957           11 
 3462000   0.70594241   -5.1690917    1577.4054  0.037969512  0.037080984           10 
 3463000   0.72426799   -5.1791884    1572.7225  0.037845857    0.0370724           10 
 3464000   0.68903248   -5.1660812    1575.3239  0.037897514  0.037063761           11 
 3465000    0.6942011   -5.1681199    1574.6859  0.037871235  0.037055113            7 
 3466000   0.71128401   -5.1978646    1568.9742   0.03772298  0.037046435            6 
 3467000    0.7197491   -5.1757103    1576.2921  0.037887994  0.037037813            8 
 3468000   0.69159221   -5.1846008    1575.9907  0.037869827  0.037029141            9 
 3469000   0.68558254   -5.1951958    1572.1176  0.037765868  0.037020495            8 
 3470000    0.7060046   -5.1563221    1580.0316  0.037945043   0.03701183           12 
 3471000   0.69056596   -5.1813637    1579.2255  0.037914757  0.037003203           11 
 3472000   0.69108799   -5.1654254    1577.2785  0.037857106  0.036994646            8 
 3473000   0.69489487    -5.175434    1576.4005   0.03782514  0.036986051           17 
 3474000   0.69255615   -5.1733738    1575.4579   0.03779164   0.03697747           10 
 3475000   0.68776272   -5.1916549    1573.5903  0.037735977  0.036968886            7 
 3476000   0.68941926   -5.1803792    1576.1735  0.037787052  0.036960319            8 
 3477000   0.69916852   -5.1992235    1576.8427  0.037792222   0.03695175            9 
 3478000    0.6890934   -5.1647282    1577.0191  0.037785584   0.03694317            6 
 3479000   0.70374204   -5.1753358    1573.1886  0.037682969  0.036934503           18 
 3480000   0.70121835   -5.1795879    1576.5208  0.037751934  0.036925884           15 
 3481000    0.6938499   -5.1886521     1580.112  0.037827062  0.036917268           19 
 3482000   0.70370182   -5.1909333    1578.3433  0.037773867  0.036908643            6 
 3483000   0.68357068   -5.1520089    1580.1766  0.037806887  0.036900037            7 
 3484000   0.70568549   -5.1793345    1575.1293  0.037675309  0.036891365            8 
 3485000   0.68892624   -5.1460661    1577.3976  0.037718738  0.036882778            5 
 3486000    0.7076324   -5.1518037    1575.2951  0.037657656  0.036874198           19 
 3487000   0.68501062   -5.1775582    1572.3542  0.037576575  0.036865583           10 
 3488000   0.70259588   -5.1669365    1577.6594  0.037692551  0.036856975            7 
 3489000   0.69299993   -5.1831516    1574.8301   0.03761417  0.036848368            4 
 3490000   0.69600533   -5.1765597    1575.6594  0.037623196  0.036839745            7 
 3491000   0.68005051   -5.1927889     1575.539  0.037609545  0.036831137           10 
 3492000   0.69862905   -5.1430426    1580.3183  0.037712827  0.036822554            5 
 3493000   0.69573293   -5.1713025    1579.6094  0.037685117  0.036813982            7 
 3494000   0.69672646   -5.1915702    1575.2936  0.037571398  0.036805355           21 
 3495000   0.69103787   -5.1691832    1578.6296  0.037640191   0.03679672            7 
 3496000    0.6919332   -5.2087518    1575.6718  0.037558921  0.036788141           11 
 3497000   0.68628372   -5.1799641    1581.0902    0.0376773  0.036779537            7 
 3498000   0.67543933   -5.1662093    1577.3232  0.037576787  0.036770985           10 
 3499000   0.70971454   -5.1749779    1583.6424  0.037716548  0.036762365            7 
 3500000   0.67411387   -5.1989145    1574.8578  0.037496615  0.036753798            6 
 3501000   0.66940666   -5.1933108    1577.7029  0.037553626  0.036745139           12 
 3502000   0.69835871   -5.1868271    1575.4084  0.037488301  0.036736522           12 
 3503000   0.70261545   -5.1772184    1579.3759  0.037571983  0.036727903            6 
 3504000   0.69196894   -5.1796662    1578.1613  0.037532375  0.036719312            8 
 3505000   0.69540136   -5.1798374    1577.5907  0.037508099  0.036710746           16 
 3506000   0.69665247   -5.1866227    1579.9965  0.037554585   0.03670217            8 
 3507000   0.68985895   -5.1790876    1581.9492  0.037590276  0.036693517            6 
 3508000   0.68965564   -5.2118534    1578.3761  0.037494682  0.036684848            6 
 3509000   0.70174593    -5.174597    1581.9193  0.037568142  0.036676258           19 
 3510000   0.68336312   -5.1735998     1580.626  0.037526734  0.036667643           15 
 3511000   0.68663786   -5.1852936    1576.9635  0.037429115  0.036659004            7 
 3512000   0.68892531   -5.1920649     1575.066  0.037373435  0.036650413           10 
 3513000   0.68471135   -5.2055654    1576.8874  0.037406002  0.036641779           27 
 3514000    0.6889887   -5.1932157    1574.6577  0.037342481  0.036633137           11 
 3515000   0.68726731   -5.1648646    1576.6531  0.037379163  0.036624472           12 
 3516000   0.68608654   -5.1848938    1579.4163  0.037434022  0.036615808            6 
 3517000   0.69816268   -5.2041374    1578.8731  0.037410509  0.036607115           11 
 3518000   0.70417756   -5.2007765    1577.2368  0.037361114  0.036598456           13 
 3519000    0.6992436   -5.1848676    1579.8802  0.037413096   0.03658982           11 
 3520000   0.67939072   -5.1909052    1581.4971  0.037440747  0.036581217           13 
 3521000   0.69042462    -5.153027    1578.8316  0.037367026  0.036572577            5 
 3522000   0.69618289   -5.2010908    1573.8869  0.037239421  0.036563863            5 
 3523000   0.68677902   -5.1872251    1582.4745  0.037431983  0.036555186            6 
 3524000   0.69711288   -5.1624679    1581.8245  0.037405991  0.036546584            8 
 3525000   0.67005531   -5.1693188    1585.4523  0.037481141   0.03653804           11 
 3526000   0.67325863   -5.2156898     1577.431  0.037280937  0.036529487           11 
 3527000   0.69913684   -5.1835679    1577.7764  0.037278528  0.036520791           11 
 3528000   0.68940888   -5.2154092    1579.8127  0.037316061  0.036512135            7 
 3529000   0.68122834   -5.1840603    1580.5703  0.037323374  0.036503514            4 
 3530000   0.67930726   -5.2052709    1579.4139  0.037285502  0.036494834           11 
 3531000   0.68277982    -5.201409    1579.8644  0.037285576  0.036486157            7 
 3532000   0.69365326      -5.2034    1578.7751  0.037249318  0.036477554           12 
 3533000   0.67832833   -5.1911019    1581.5132  0.037303359  0.036468946            6 
 3534000   0.68970498   -5.1997229    1579.8216  0.037252914  0.036460288           25 
 3535000    0.6862511   -5.1737449    1582.1278  0.037296742  0.036451636           17 
 3536000   0.68605322   -5.1974063    1579.0785   0.03721433  0.036442948            7 
 3537000   0.69110579   -5.1995781    1578.3768  0.037187277  0.036434296            6 
 3538000   0.67107214   -5.1846564    1581.5199  0.037250799  0.036425672           10 
 3539000   0.68769686    -5.183261    1584.5971  0.037312731  0.036417093            7 
 3540000   0.67850722   -5.1725757    1578.0496  0.037148061  0.036408481           13 
 3541000   0.68184966    -5.219163    1580.2668  0.037189748  0.036399907           15 
 3542000   0.69185484   -5.1936756    1578.8334  0.037145526  0.036391302           11 
 3543000   0.69324106   -5.1886961    1581.8358  0.037205658  0.036382671            9 
 3544000   0.69143194   -5.1908718    1580.8394  0.037171732  0.036374037            6 
 3545000   0.68072408    -5.207949    1585.6007  0.037273172   0.03636551            8 
 3546000   0.67391598   -5.1834546    1582.6031  0.037192215   0.03635694            8 
 3547000   0.68417777   -5.1790932    1579.2953  0.037104014  0.036348367           13 
 3548000   0.68758921   -5.1879467    1579.7682  0.037104664  0.036339799            9 
 3549000   0.68956338   -5.1783073    1583.8971  0.037191159  0.036331205           12 
 3550000   0.69307573   -5.1899341    1583.8229  0.037178942  0.036322606           14 
 3551000   0.69773938   -5.1955584    1579.2183  0.037060413  0.036313998           16 
 3552000    0.6736559   -5.1809361    1579.4793  0.037056102  0.036305359           11 
 3553000   0.67816086    -5.224697     1585.473  0.037186252   0.03629673           14 
 3554000   0.69004188   -5.1870055    1583.4728  0.037128888  0.036288146            6 
 3555000   0.68825422   -5.2183402    1579.7853  0.037032004  0.036279545            3 
 3556000   0.67757784   -5.2005559    1583.0551  0.037098217  0.036270947            9 
 3557000   0.66801721   -5.2097292    1584.2695  0.037116239  0.036262305           21 
 3558000   0.68740548   -5.1887683     1582.932  0.037074481  0.036253624           10 
 3559000   0.67290815   -5.2023638    1582.7754  0.037060396  0.036244971           13 
 3560000   0.67248219   -5.2077081    1583.9733  0.037078026   0.03623629           16 
 3561000   0.69109447   -5.2210732     1574.822  0.036853459  0.036227662            8 
 3562000   0.68772608   -5.1960189    1583.1288   0.03703745  0.036219004            4 
 3563000   0.68118064   -5.1905984    1584.0099  0.037047664  0.036210403            8 
 3564000   0.67838999   -5.2112693    1581.6743  0.036982657  0.036201823            8 
 3565000   0.69175318   -5.1797527    1586.2009  0.037078095  0.036193256           16 
 3566000   0.67638685   -5.1973282     1583.391  0.037002033  0.036184665            5 
 3567000   0.67246315   -5.2054298    1584.2762   0.03701234  0.036176029            7 
 3568000   0.68215783    -5.199209    1581.7391  0.036942711  0.036167382            9 
 3569000   0.68190871   -5.2070204    1582.5674    0.0369517  0.036158717            5 
 3570000   0.68622085   -5.2296513    1580.6947  0.036897635  0.036150033           10 
 3571000   0.67995237   -5.2019665     1580.708  0.036887612  0.036141344           10 
 3572000   0.67733238   -5.2218199    1583.3992  0.036940071  0.036132673           10 
 3573000   0.67133188   -5.1944303    1584.2575  0.036949751  0.036124058           11 
 3574000   0.66607658   -5.2054339    1591.4803  0.037107823  0.036115465            7 
 3575000   0.66643024   -5.2138532    1583.8404  0.036919357  0.036106849            5 
 3576000   0.68447579   -5.2334883     1578.617  0.036787309  0.036098172           12 
 3577000   0.66602025   -5.2157616    1583.6281  0.036893768  0.036089479           10 
 3578000   0.66952412   -5.2076448    1583.6513  0.036883998  0.036080789            3 
 3579000   0.66971863   -5.2117946    1581.6699  0.036827556  0.036072127           10 
 3580000   0.67896696   -5.2139832     1583.898  0.036869134  0.036063476            8 
 3581000   0.67378374   -5.2200045    1581.7682  0.036809277  0.036054826            6 
 3582000   0.68592601   -5.2132848    1585.5079  0.036886001  0.036046151           12 
 3583000   0.68036181   -5.2242627    1575.7469  0.036648686  0.036037492            6 
 3584000   0.68111818   -5.2221048    1581.6143  0.036774885  0.036028822            5 
 3585000   0.68457554   -5.2212855    1585.0461  0.036844401  0.036020138            8 
 3586000   0.69342465   -5.2148412    1581.5618  0.036753156  0.036011503           11 
 3587000   0.68581357   -5.1914965    1582.0393  0.036754003  0.036002847            2 
 3588000    0.6808171   -5.2299198    1581.7999  0.036738198  0.035994184           11 
 3589000   0.68091372   -5.2162794    1580.6822  0.036702012  0.035985541            6 
 3590000   0.67888129   -5.1988071    1582.7307  0.036739338  0.035976903           12 
 3591000   0.68800319    -5.208983    1583.2232  0.036740536  0.035968268           16 
 3592000   0.68853526   -5.2204866    1582.3425  0.036709877  0.035959594            6 
 3593000   0.68550212   -5.2135242    1583.6257  0.036729422  0.035950931            9 
 3594000   0.68359551   -5.2132754    1584.5421  0.036740448  0.035942281            5 
 3595000   0.68693107   -5.2003224    1583.8527  0.036714249  0.035933605           19 
 3596000   0.66176086   -5.2389073    1582.6713  0.036676662  0.035924922            9 
 3597000   0.66250383   -5.2192123    1582.5471  0.036663588  0.035916258           18 
 3598000   0.66023884   -5.2172981    1584.7696  0.036704873  0.035907594           10 
 3599000   0.68399977   -5.2140375      1581.61  0.036621515  0.035898973            8 
 3600000   0.67087467   -5.2538015    1580.8037  0.036592679  0.035890299            5 
 3601000   0.67403781   -5.2076643    1581.7732  0.036604953  0.035881587            6 
 3602000   0.67453959   -5.2293633    1580.4412  0.036563973   0.03587286            8 
 3603000   0.67627987   -5.2174565    1585.1381  0.036662458  0.035864173            8 
 3604000   0.67657374   -5.2133456    1583.9381  0.036624541  0.035855463           10 
 3605000   0.67245573    -5.236769    1578.6789  0.036492809  0.035846715            8 
 3606000   0.68614424   -5.2197721    1583.0756  0.036584296  0.035837986           12 
 3607000   0.66068719   -5.2480881    1579.4143  0.036489563  0.035829274           11 
 3608000   0.67412081   -5.2223514    1587.2836  0.036661207  0.035820572           11 
 3609000   0.68753229   -5.2134793    1582.7973  0.036547459   0.03581191            9 
 3610000    0.6722031    -5.236389    1582.8979  0.036539655  0.035803278            6 
 3611000   0.67275761   -5.2242357    1588.6895  0.036663194  0.035794696           16 
 3612000   0.67030045   -5.2255862    1586.9403  0.036612688  0.035786102            8 
 3613000   0.68223429   -5.1900073    1587.3832  0.036612768  0.035777509            9 
 3614000    0.6692288   -5.2035184    1590.4015  0.036672236  0.035769026           13 
 3615000   0.67590748   -5.2085995    1586.1019  0.036562975   0.03576047           12 
 3616000   0.67949016   -5.2195505    1586.6555  0.036565624  0.035751909            7 
 3617000   0.67373171   -5.2210234    1592.9925  0.036701513  0.035743316            8 
 3618000   0.67295413   -5.2123487    1588.3666  0.036584822  0.035734749            8 
 3619000   0.67508093   -5.2271334     1586.908  0.036541124  0.035726217            4 
 3620000   0.67193375   -5.2373604    1584.0364  0.036464927  0.035717629           18 
 3621000   0.66919229   -5.2329159    1584.5857  0.036467498  0.035709042           28 
 3622000   0.67580454   -5.2160487    1591.7281  0.036621759  0.035700436           11 
 3623000   0.68318358   -5.2040008    1582.0205  0.036388364  0.035691783            7 
 3624000   0.69237369   -5.2250689    1585.0994  0.036449121  0.035683139            8 
 3625000   0.66384426   -5.2404529    1585.4717  0.036447625  0.035674508            9 
 3626000   0.64683642   -5.2326975    1585.9041  0.036447511  0.035665918           10 
 3627000   0.66852629   -5.2299129    1584.1031  0.036396083  0.035657333           10 
 3628000   0.67929744   -5.2180709    1584.6343  0.036398252  0.035648736           13 
 3629000   0.66485876   -5.2350823    1586.6266  0.036433972  0.035640173            9 
 3630000   0.66600518   -5.2042922    1589.7386  0.036495376  0.035631602           10 
 3631000   0.67105703   -5.2195273    1589.1285  0.036471323  0.035623025            9 
 3632000   0.68370994   -5.2216178    1585.8566   0.03638621  0.035614459           10 
 3633000   0.67044359   -5.2351863     1586.298  0.036386319  0.035605839           11 
 3634000   0.67656974   -5.2285258    1589.0884  0.036440294  0.035597196            8 
 3635000   0.65362085   -5.2470913    1584.2172  0.036318596   0.03558852           19 
 3636000   0.66585083   -5.2431696    1586.3163  0.036356717  0.035579836           10 
 3637000   0.67751958   -5.2390928    1588.4201  0.036394924  0.035571224            9 
 3638000   0.67308165   -5.2407101    1586.7513  0.036346695  0.035562547            5 
 3639000   0.67514018   -5.2293704    1583.3191  0.036258109  0.035553891            8 
 3640000   0.66465304   -5.2279796    1585.4491  0.036296913    0.0355452            7 
 3641000   0.67828222   -5.2313129    1587.0229  0.036322962  0.035536597            9 
 3642000   0.66001043   -5.2247785     1586.285  0.036296105  0.035527906            9 
 3643000   0.67330802    -5.271972    1583.9915   0.03623368  0.035519192            4 
 3644000   0.67497354   -5.2305978    1587.5751  0.036305686  0.035510565            8 
 3645000   0.67264863   -5.2153919     1590.216  0.036356103  0.035501941           11 
 3646000   0.67026729   -5.2339825    1588.7188  0.036311912  0.035493338           12 
 3647000   0.66330709    -5.253351    1587.2669  0.036268779  0.035484754            4 
 3648000   0.66182411   -5.2434997    1586.8255  0.036248756  0.035476107            9 
 3649000   0.65543981   -5.2444006    1585.3227  0.036204502  0.035467499            8 
 3650000   0.67170373   -5.2236889    1588.0278  0.036256342  0.035458912            6 
 3651000   0.66645301   -5.2389613    1592.4484  0.036347312   0.03545037            4 
 3652000   0.67589213   -5.2446931    1585.5757  0.036180534  0.035441798           23 
 3653000     0.686567   -5.2380653    1588.6756  0.036241346  0.035433217           12 
 3654000   0.67842322   -5.2267741    1585.2683   0.03615372  0.035424573            8 
 3655000   0.67821187   -5.2358327    1585.6301  0.036152076  0.035415933           12 
 3656000   0.66885057   -5.2161168    1591.1451  0.036267894  0.035407347            8 
 3657000    0.6491992   -5.2418869    1587.5053  0.036175037  0.035398721           10 
 3658000   0.66856898   -5.2347202    1589.7933  0.036217271   0.03539015           17 
 3659000   0.67023749   -5.2553433     1581.871  0.036026943   0.03538145            8 
 3660000   0.66903878   -5.2622999    1586.7962  0.036129241  0.035372767            8 
 3661000   0.67520086   -5.2404607    1586.3011  0.036108101  0.035364121           10 
 3662000   0.66704632   -5.2725639    1582.3395  0.036008089  0.035355431            8 
 3663000   0.67140388   -5.2442669    1590.7334  0.036189221  0.035346815           10 
 3664000   0.66369829   -5.2362406     1591.425  0.036195074  0.035338273            4 
 3665000   0.67981929   -5.2210059    1588.4656  0.036117908  0.035329684            9 
 3666000   0.66784841   -5.2391813    1587.6497   0.03608951  0.035321084            7 
 3667000   0.68505468   -5.2415634    1588.3348  0.036095238  0.035312455           11 
 3668000   0.65339694   -5.2604373    1584.4403  0.035996918  0.035303782           11 
 3669000   0.65824534   -5.2489855    1585.0706  0.036001422  0.035295186            9 
 3670000   0.68305314     -5.25528    1585.0283  0.035990651  0.035286558            8 
 3671000    0.6550723   -5.2335915    1587.0102  0.036025839  0.035277927           13 
 3672000   0.67410686   -5.2440611    1590.2505  0.036089562  0.035269332            6 
 3673000   0.67839736   -5.2421337    1587.6478  0.036020688  0.035260678           13 
 3674000   0.67233222   -5.2544013    1587.4257  0.036005845  0.035252046           10 
 3675000   0.65262005   -5.2193484    1588.6367  0.036023509  0.035243373           11 
 3676000   0.65777235   -5.2532555    1587.1168  0.035979254  0.035234742           16 
 3677000   0.65403008   -5.2452059    1585.5153  0.035933172  0.035226035            8 
 3678000    0.6816592   -5.2408702    1589.0432  0.036003334  0.035217347            6 
 3679000   0.66271088   -5.2468848    1587.3361  0.035954882  0.035208624           22 
 3680000   0.65713016   -5.2680153    1585.3334   0.03589976  0.035199919            8 
 3681000   0.67180006   -5.2535735    1588.3778  0.035958929  0.035191253           12 
 3682000   0.66162618    -5.246983    1589.6161  0.035977189  0.035182597            8 
 3683000   0.66986515   -5.2550612    1587.4552  0.035918527   0.03517396           15 
 3684000   0.66531803   -5.2387384    1589.3057  0.035950636  0.035165292           10 
 3685000   0.66944895   -5.2452212    1590.1103  0.035959075  0.035156616            7 
 3686000   0.67435997   -5.2431465    1588.7525  0.035918623  0.035147924            7 
 3687000   0.66686161    -5.256667         1587  0.035869271  0.035139277            9 
 3688000   0.64628962   -5.2515041    1586.3667  0.035845235  0.035130603           15 
 3689000   0.64339031   -5.2660366    1589.9099  0.035915558  0.035121897            5 
 3690000   0.65827153   -5.2625935    1589.8355  0.035904145  0.035113289           15 
 3691000   0.65302658   -5.2424726    1594.3918  0.035997286  0.035104707            7 
 3692000   0.64646654   -5.2492093    1590.8393  0.035907351  0.035096159            6 
 3693000   0.65331552   -5.2560295    1589.0752   0.03585782   0.03508754           10 
 3694000   0.65690009   -5.2495025    1588.6675  0.035838917  0.035078965            7 
 3695000   0.67404387   -5.2523727    1590.6263  0.035873395  0.035070318           13 
 3696000   0.66665625   -5.2735865    1588.5591   0.03581708  0.035061646            9 
 3697000   0.63933592   -5.2461485    1593.7624  0.035924679     0.035053            8 
 3698000   0.67595153   -5.2568506    1589.9393  0.035828811  0.035044367            7 
 3699000    0.6737237   -5.2616616    1591.7605  0.035860153  0.035035768            7 
 3700000   0.65479955    -5.239205    1586.8396   0.03573963  0.035027163           15 
 3701000   0.66009904   -5.2485102    1586.4537  0.035721286  0.035018535            9 
 3702000   0.66860818   -5.2663688    1589.7812   0.03578654  0.035009912           11 
 3703000   0.66662813   -5.2568019    1593.3723   0.03585769  0.035001307            6 
 3704000   0.66497624   -5.2723259    1587.9321  0.035725615  0.034992688            6 
 3705000   0.65800482     -5.27657    1590.0536  0.035763688  0.034984046           12 
 3706000   0.67094305   -5.2434581    1589.2885  0.035736835  0.034975413            6 
 3707000   0.64066351   -5.2397853    1592.7049  0.035803994  0.034966802            8 
 3708000   0.65326308   -5.2360931    1593.9015   0.03582123   0.03495823           10 
 3709000   0.65489935   -5.2261356    1593.9456  0.035812564  0.034949673           15 
 3710000    0.6612148   -5.2684192     1591.668  0.035751753  0.034941069           13 
 3711000   0.64461099   -5.2701832    1590.1548  0.035708138   0.03493244           15 
 3712000   0.66594973   -5.2413962    1592.4537  0.035750129  0.034923861            8 
 3713000   0.66354152   -5.2664078    1592.6846  0.035745682  0.034915223            7 
 3714000   0.64155174   -5.2576676     1587.645   0.03562298  0.034906567           12 
 3715000   0.64212798   -5.2878897      1587.36  0.035606998  0.034897857           13 
 3716000   0.65624881     -5.25136    1587.5337  0.035601312  0.034889173           15 
 3717000   0.65116694   -5.2621967    1589.0417  0.035625543  0.034880498            8 
 3718000   0.67966009   -5.2125846    1591.5379  0.035671908  0.034871885           13 
 3719000   0.65920997   -5.2690869    1590.7309  0.035644235  0.034863266           17 
 3720000   0.66582418   -5.2514788    1593.3546  0.035693427  0.034854666            9 
 3721000   0.66116814   -5.2539709    1589.8624  0.035605625  0.034846044            7 
 3722000   0.66724539   -5.2247289     1592.944  0.035665054  0.034837469           11 
 3723000   0.64497068   -5.2566464    1589.6297   0.03558129  0.034828899            7 
 3724000   0.65121601   -5.2635582    1590.0515  0.035581174   0.03482029            5 
 3725000   0.65256193   -5.2655881    1589.4733  0.035558686  0.034811663           11 
 3726000   0.65581736   -5.2678192    1589.8806  0.035558253  0.034803029           11 
 3727000   0.66021092   -5.2589927    1591.0602  0.035575088  0.034794374           14 
 3728000   0.65856644   -5.2612804    1592.2084  0.035591211  0.034785717           12 
 3729000   0.67609042   -5.3038485    1585.9884  0.035442665  0.034777085           15 
 3730000   0.66023248   -5.2634214    1590.4406  0.035532631  0.034768475           42 
 3731000   0.64735466    -5.266391    1591.4199  0.035544981  0.034759843           23 
 3732000   0.63888365   -5.2495578     1592.883  0.035568126  0.034751238           11 
 3733000    0.6565169   -5.2701745    1595.1122  0.035608362  0.034742656           20 
 3734000   0.65222785   -5.3073043    1587.5747  0.035430608  0.034733981            9 
 3735000   0.65872012   -5.2485447     1592.967  0.035541433  0.034725333            9 
 3736000   0.65919436   -5.2572909    1591.8092  0.035506093  0.034716693           10 
 3737000   0.65544502   -5.2513844    1592.1008  0.035503095  0.034708063            6 
 3738000    0.6634463   -5.2773251    1592.8126  0.035509465  0.034699471           19 
 3739000   0.66019896    -5.271575    1589.5342    0.0354269  0.034690886           12 
 3740000   0.66047147   -5.2758989    1589.4051  0.035414551  0.034682239           12 
 3741000   0.64547651   -5.2742532    1593.9813  0.035507023  0.034673678            8 
 3742000   0.65319045   -5.2641458    1591.8998  0.035451179  0.034665101           19 
 3743000   0.65712289   -5.2453876    1595.1609  0.035514313   0.03465652            6 
 3744000   0.64362435   -5.2716398    1592.9249   0.03545506  0.034647959            7 
 3745000   0.66134933   -5.2799771    1594.2166  0.035474336  0.034639396           11 
 3746000   0.67175364   -5.2785721    1592.3474  0.035423284  0.034630843           12 
 3747000   0.64576439   -5.2710378    1590.4355  0.035371309  0.034622271            9 
 3748000    0.6513982   -5.2516706      1589.79  0.035347518  0.034613696            6 
 3749000   0.66493701   -5.2749463    1593.3521  0.035417268  0.034605153           13 
 3750000   0.65559222   -5.2794273    1591.6603  0.035370228  0.034596562           11 
 3751000   0.63993253   -5.2600342     1593.673  0.035405514  0.034587968           14 
 3752000   0.64127819   -5.2718164    1591.9703  0.035358259  0.034579385           26 
 3753000   0.63557228   -5.2655406    1595.5723  0.035428819  0.034570828            7 
 3754000   0.64542636   -5.2966285    1595.2076  0.035411286  0.034562221           26 
 3755000   0.64813432   -5.2681276    1592.2193  0.035335538  0.034553635           23 
 3756000    0.6686896   -5.2808873    1594.1186  0.035368268  0.034545105           19 
 3757000   0.64891152   -5.2869463    1591.0768  0.035291386  0.034536569           15 
 3758000   0.65314434   -5.2821356    1594.5146  0.035358227  0.034528007           15 
 3759000   0.65348371   -5.2722371    1594.5621  0.035349874  0.034519476           16 
 3760000   0.64397199   -5.2941407     1590.872  0.035258687  0.034510943           25 
 3761000   0.65174905     -5.25769    1590.8517  0.035248863  0.034502359            6 
 3762000    0.6448381    -5.277073    1593.0066  0.035287229  0.034493824            6 
 3763000   0.65656413   -5.2436168    1592.2286  0.035260621  0.034485298            7 
 3764000   0.65123417   -5.2827626    1595.7421   0.03532904  0.034476736            7 
 3765000   0.66812044    -5.291016    1590.6225  0.035206342  0.034468151           11 
 3766000   0.64562806   -5.2626959     1595.528  0.035305541  0.034459569           10 
 3767000   0.65109851   -5.2645733    1593.9139  0.035260461  0.034450985           11 
 3768000   0.66764157   -5.2885705    1592.7599  0.035225581  0.034442392           16 
 3769000    0.6371285   -5.2745487    1591.3181  0.035184357  0.034433813           12 
 3770000   0.65340523   -5.3028508    1591.3769  0.035176323  0.034425222            8 
 3771000   0.65586819    -5.305194    1586.8539  0.035067045  0.034416651            8 
 3772000   0.65166003    -5.277891    1598.7679  0.035320959  0.034408093            8 
 3773000   0.64459043   -5.2896612    1591.5433  0.035152029  0.034399546            6 
 3774000   0.64076811   -5.2832612    1591.9644  0.035152013  0.034390974            7 
 3775000   0.64830425   -5.2884281    1594.2189   0.03519247  0.034382405           14 
 3776000   0.63878872   -5.2756889    1594.1906  0.035182526  0.034373787           16 
 3777000   0.63311125   -5.2687588    1590.7476  0.035097247  0.034365222            9 
 3778000   0.65874306   -5.2927396    1595.2935  0.035188229  0.034356624           16 
 3779000   0.65466193   -5.2695423    1595.4399  0.035182146  0.034348044            9 
 3780000   0.65859274   -5.2709659    1597.6176  0.035220846  0.034339484            7 
 3781000   0.64297426   -5.2825696    1595.2796  0.035160002  0.034330968           10 
 3782000   0.65472863   -5.2915633    1592.5263  0.035090038  0.034322405           13 
 3783000   0.65213148   -5.2885632    1592.1889   0.03507333  0.034313807           14 
 3784000   0.64883728   -5.2849014    1597.4017   0.03517886  0.034305243           11 
 3785000   0.63617987   -5.2825805    1594.0138  0.035094975  0.034296675           30 
 3786000   0.65307294     -5.27571    1589.2033  0.034979824   0.03428814           20 
 3787000   0.62264948   -5.2925827    1595.2983  0.035104708  0.034279579            6 
 3788000   0.66270855   -5.2907512    1593.9777  0.035066387  0.034271043            8 
 3789000   0.65983684   -5.3169631    1593.4708  0.035045983  0.034262445            7 
 3790000   0.64205791   -5.2840746    1593.7141  0.035042087  0.034253884           13 
 3791000   0.62348044   -5.2608342    1594.4565  0.035049162    0.0342453            7 
 3792000    0.6368934   -5.2827638    1595.9664  0.035073102   0.03423678            5 
 3793000   0.63794325   -5.2672646    1595.6207   0.03505626  0.034228182           11 
 3794000   0.64271039   -5.3187302    1588.1703  0.034883375  0.034219605           22 
 3795000   0.63416536   -5.2857961    1593.6746  0.034995051  0.034210998           12 
 3796000   0.66130245   -5.2989257    1589.9873  0.034904885  0.034202465            8 
 3797000   0.65527328   -5.2769833    1594.6086  0.034997116  0.034193969           17 
 3798000   0.64140696   -5.3099591    1593.5431  0.034964524   0.03418546           10 
 3799000   0.66250786   -5.2957575    1593.4975  0.034954319  0.034176901            9 
 3800000   0.63756396   -5.2797979    1595.4528  0.034987999  0.034168384           27 
 3801000   0.63395041   -5.3160295    1591.0631  0.034882555  0.034159807           10 
 3802000   0.64781447   -5.3106879    1591.0947  0.034874073  0.034151259            8 
 3803000   0.64232702   -5.2859257    1596.1504  0.034975686  0.034142695           13 
 3804000    0.6520588   -5.3069948    1592.6028  0.034888775  0.034134129            7 
 3805000   0.64111933     -5.29977    1591.7135   0.03486013  0.034125588            9 
 3806000   0.65483666   -5.3084991    1592.4749  0.034867642  0.034116983           10 
 3807000   0.64674843   -5.2861937    1593.4264  0.034879309  0.034108384           10 
 3808000   0.64158608   -5.3163735    1591.7379  0.034833199  0.034099835            5 
 3809000   0.64015692   -5.2831581    1595.9546  0.034916308  0.034091268           11 
 3810000   0.63520596   -5.3141576    1594.1071  0.034866733  0.034082702           14 
 3811000   0.64564867   -5.3040083    1599.4737  0.034974934  0.034074079           12 
 3812000    0.6530893   -5.2704059    1592.9598  0.034823361   0.03406549           10 
 3813000   0.63131786   -5.2963713    1594.6422  0.034850996  0.034056905            9 
 3814000   0.65895494   -5.2755258    1594.8974  0.034847436  0.034048377            8 
 3815000   0.65880684   -5.2913162    1597.8874  0.034903613  0.034039856            6 
 3816000   0.64623123   -5.2976652    1591.3516  0.034751737  0.034031268           11 
 3817000   0.62341494   -5.3045404    1593.7377  0.034794729  0.034022693           10 
 3818000   0.63157773   -5.2774244    1593.3406  0.034776946  0.034014109            8 
 3819000   0.64728268   -5.2801599    1596.3745  0.034834043  0.034005524            5 
 3820000   0.64113696   -5.2964368    1592.8533  0.034748108  0.033996986            7 
 3821000   0.63696193   -5.2954794    1593.9788   0.03476356  0.033988449            7 
 3822000   0.63214555   -5.3059928     1594.506  0.034765959  0.033979886           17 
 3823000   0.65446608   -5.2996731    1593.8806  0.034743233  0.033971314           16 
 3824000   0.63787285   -5.3128697    1595.8182  0.034776372  0.033962762           18 
 3825000   0.63435761   -5.2924942     1593.944  0.034726449  0.033954201           17 
 3826000   0.63355388   -5.3032991    1598.4225  0.034814917  0.033945647           10 
 3827000   0.63647885    -5.301452    1598.4934  0.034807364  0.033937129            9 
 3828000   0.64239088   -5.2824918    1593.5964  0.034691667  0.033928582           10 
 3829000   0.63215735   -5.3297453    1594.3529  0.034699071  0.033920088           10 
 3830000   0.62439891   -5.2939449    1598.0368  0.034770166  0.033911548            5 
 3831000   0.63302801    -5.297814    1595.8116  0.034712686  0.033903005            9 
 3832000   0.62571972   -5.2807865    1597.1931  0.034733671   0.03389451            9 
 3833000   0.64104998   -5.2840758    1600.8089   0.03480322  0.033886004            5 
 3834000    0.6416146   -5.2897437     1592.943  0.034623174  0.033877525           21 
 3835000   0.62489976   -5.3015405    1595.0247  0.034659381  0.033869023            7 
 3836000   0.63303482   -5.2895974     1598.914  0.034734837  0.033860493           21 
 3837000   0.63419656   -5.2914396    1593.6608  0.034611692  0.033851985            8 
 3838000   0.64852474   -5.2947698    1597.8118  0.034692804  0.033843447            8 
 3839000   0.63825245   -5.2856626    1593.8337  0.034597416  0.033834907           17 
 3840000   0.64240673   -5.2964458    1595.7414  0.034629804  0.033826394           10 
 3841000   0.63230744    -5.298039    1596.8654  0.034645175  0.033817858           16 
 3842000   0.63467599   -5.3057213     1593.189  0.034556415  0.033809336           10 
 3843000   0.63661689   -5.3151574    1598.3611  0.034659579   0.03380084           12 
 3844000   0.63160026   -5.3219486    1596.3533  0.034607034  0.033792316           12 
 3845000   0.63663034   -5.2987726    1594.0329  0.034547744  0.033783735            9 
 3846000   0.62669592   -5.2778868    1598.5453  0.034636534  0.033775199            7 
 3847000   0.63677401   -5.3052579    1596.1017  0.034574596  0.033766693            7 
 3848000   0.63834478   -5.3056676    1591.3872  0.034463513  0.033758123           10 
 3849000    0.6484977   -5.3054006    1590.3538  0.034432185  0.033749526           10 
 3850000   0.63418341   -5.2996065    1597.2364  0.034572217   0.03374098           10 
 3851000   0.63388201    -5.254444    1600.1393  0.034626056  0.033732455            5 
 3852000   0.63903449   -5.3017199     1596.235  0.034532603  0.033723943           10 
 3853000   0.64421037   -5.3080364    1590.0725  0.034390357  0.033715385           15 
 3854000   0.63343056   -5.3130077    1595.5059  0.034498917  0.033706767            8 
 3855000   0.62512253   -5.3207346    1592.8062  0.034431607  0.033698164           24 
 3856000   0.64613207   -5.3263901    1596.6937  0.034506693  0.033689603           12 
 3857000   0.63646865   -5.2930879    1600.3827  0.034577451  0.033681064           13 
 3858000   0.63568931   -5.2913364    1594.7037   0.03444582  0.033672568            9 
 3859000   0.63384432   -5.2863101    1599.7424  0.034545703  0.033664093           10 
 3860000   0.64057797   -5.3028217    1596.7426   0.03447199  0.033655593            5 
 3861000   0.63414919   -5.3143224    1595.9075  0.034445038  0.033647053           11 
 3862000   0.63488631   -5.3209612    1597.5652  0.034471888  0.033638502           14 
 3863000   0.63890333   -5.3204675    1596.4983  0.034439949  0.033629922           30 
 3864000    0.6348421   -5.3259116    1595.0646  0.034400116  0.033621346           18 
 3865000   0.62785395   -5.3008888    1599.4144  0.034485001  0.033612818            8 
 3866000   0.61988728   -5.3022655    1592.3858  0.034324577  0.033604264           19 
 3867000   0.63075423   -5.3183737    1593.8031  0.034346244  0.033595709           11 
 3868000   0.61461338   -5.3085855    1593.7757  0.034336775  0.033587171           14 
 3869000   0.62225384   -5.3038885    1595.7893  0.034371269  0.033578575           15 
 3870000   0.62354915   -5.3191678    1593.9856  0.034323549  0.033570052            6 
 3871000   0.62457959   -5.3083788    1599.0952  0.034424679  0.033561523           15 
 3872000   0.64018161    -5.315882    1594.3409  0.034313466   0.03355299           36 
 3873000   0.63813388   -5.3262052      1597.78  0.034378604  0.033544408           15 
 3874000   0.62983672   -5.3233038    1593.1562  0.034270269  0.033535835            7 
 3875000   0.63438506   -5.3235247    1592.2893   0.03424278  0.033527216            9 
 3876000   0.63539052   -5.3046046    1597.2769  0.034341179  0.033518621           25 
 3877000    0.6299283   -5.3113714    1593.8646  0.034258976   0.03351006           16 
 3878000   0.62891233   -5.2907297    1597.7827  0.034334337  0.033501523           15 
 3879000    0.6497989   -5.3062738    1592.1005  0.034203414  0.033492985            7 
 3880000   0.63310978   -5.3336317    1594.3497  0.034242907  0.033484442            6 
 3881000   0.62722708   -5.3396717    1592.6291  0.034197137  0.033475864           11 
 3882000   0.64082048   -5.3238583    1593.8359  0.034214235  0.033467277           12 
 3883000   0.62756107   -5.3318327    1597.7559  0.034289551  0.033458726           10 
 3884000   0.64710689   -5.2988084    1598.1997  0.034290244  0.033450189           10 
 3885000   0.63596461   -5.3125653    1599.1974  0.034302819  0.033441673           13 
 3886000   0.61465131   -5.3374852    1600.0195  0.034311622  0.033433148           13 
 3887000   0.62911777   -5.3132873    1592.6944   0.03414575  0.033424607           17 
 3888000   0.62693689   -5.3207661    1594.2451  0.034170206  0.033416047           10 
 3889000   0.62582591   -5.3345542    1596.8434  0.034217094  0.033407504           16 
 3890000   0.63149602   -5.3141277    1596.7587  0.034206485  0.033398996           12 
 3891000   0.62272195   -5.3407168     1599.501  0.034256424  0.033390467           13 
 3892000   0.63579801   -5.3362967    1595.6531  0.034165235   0.03338194           10 
 3893000   0.63988811    -5.316454    1598.5176  0.034217776  0.033373428           11 
 3894000   0.61380938   -5.3224582    1597.0974  0.034178596  0.033364992           21 
 3895000   0.62862972   -5.3282133    1596.7636  0.034162679  0.033356536           14 
 3896000   0.62602395   -5.3162559    1599.1137  0.034204177  0.033348153           29 
 3897000   0.62569588    -5.327956    1596.4585  0.034138621    0.0333397           19 
 3898000   0.64012733   -5.3173462    1600.3387  0.034212816  0.033331261           10 
 3899000   0.61357887   -5.3198903    1599.7421   0.03419129  0.033322847            9 
 3900000   0.63116856    -5.323272     1596.052  0.034103675  0.033314444           14 
 3901000   0.62931013   -5.3410167    1601.0292  0.034201257  0.033306007           16 
 3902000   0.63642972   -5.3129619    1599.3939  0.034157566  0.033297586           12 
 3903000   0.64354808    -5.323885    1599.3668  0.034148237  0.033289154           13 
 3904000   0.62656297   -5.3274129    1596.9906  0.034088767   0.03328071            7 
 3905000   0.62409026   -5.3321073    1599.7693  0.034139336  0.033272263           11 
 3906000   0.61868091   -5.3446965    1600.5853  0.034148005  0.033263794            9 
 3907000   0.62611177   -5.3398808    1597.0938  0.034064794  0.033255345           14 
 3908000   0.62000675   -5.3365233    1595.2897  0.034017607  0.033246902           12 
 3909000   0.61947856   -5.3344724    1596.5911  0.034036648  0.033238452            9 
 3910000   0.62628975   -5.3640741    1600.1952  0.034104758  0.033229989           14 
 3911000   0.61826596   -5.3338623    1598.0977  0.034051345  0.033221519            9 
 3912000   0.63497722   -5.3416872    1600.6033  0.034096014   0.03321307           10 
 3913000   0.62359083   -5.3282857    1598.4482  0.034041404  0.033204612           16 
 3914000   0.61171244   -5.3164384    1599.3426  0.034051751  0.033196192            7 
 3915000   0.62495259   -5.3235993    1598.4637  0.034024344  0.033187798            6 
 3916000   0.63610319   -5.3082566    1602.5141  0.034101849  0.033179435           15 
 3917000    0.6120939   -5.3264618    1599.2105   0.03402286  0.033171039           17 
 3918000   0.61237427   -5.3150776     1597.312  0.033973795  0.033162627           10 
 3919000   0.62696574   -5.3212742    1600.0726  0.034023828  0.033154193           13 
 3920000   0.61668923   -5.3295953    1601.1151  0.034037312  0.033145754           27 
 3921000   0.63321149   -5.3280194    1599.4787  0.033993852  0.033137351           54 
 3922000   0.62433648   -5.3412775    1603.1738  0.034063696  0.033128924           27 
 3923000   0.63324391   -5.3255565    1599.1413  0.033969353  0.033120448           21 
 3924000   0.62716292   -5.3540225    1599.2754  0.033963544  0.033112027           15 
 3925000    0.6216213   -5.3178939    1599.0518  0.033950145   0.03310362            7 
 3926000   0.62196807   -5.3272481    1603.1886  0.034029305  0.033095234           16 
 3927000   0.62215627   -5.3264573    1600.1816  0.033956828  0.033086818           20 
 3928000   0.63164947   -5.3186894     1595.873  0.033856776  0.033078439           10 
 3929000   0.61994695   -5.3484056    1601.2092  0.033961339  0.033070026            8 
 3930000   0.62619421   -5.3250602    1604.6408  0.034025462  0.033061648           14 
 3931000   0.60888119   -5.3407169    1602.7497  0.033976717  0.033053339            7 
 3932000   0.63170952   -5.3076609    1605.3697  0.034023602  0.033045043           14 
 3933000   0.62362427   -5.3009879    1605.0267  0.034007685  0.033036741           10 
 3934000   0.63041692   -5.3463385     1601.305  0.033920204  0.033028383           26 
 3935000    0.6228897   -5.3483987    1602.9333  0.033946067   0.03302001           11 
 3936000   0.61579307    -5.338639    1598.2362  0.033837996  0.033011604            9 
 3937000   0.61695127   -5.3582546     1600.368  0.033874525  0.033003214           19 
 3938000    0.6213021   -5.3253389    1598.2849   0.03382184  0.032994809            6 
 3939000   0.62866899   -5.3429455    1602.8304  0.033909419  0.032986394           15 
 3940000    0.6206411   -5.3480331     1598.998  0.033819755  0.032977955           24 
 3941000    0.6304961   -5.3460976     1599.184  0.033815106  0.032969574           11 
 3942000   0.61587616   -5.3391691    1599.8386  0.033820367  0.032961182           11 
 3943000   0.61981444   -5.3418465    1603.1156  0.033881046  0.032952823           19 
 3944000   0.62099495     -5.32949    1604.2519  0.033896466    0.0329445           19 
 3945000   0.64028403    -5.342298    1599.3327  0.033783961  0.032936126           14 
 3946000   0.63326373    -5.342182    1601.3918  0.033818884  0.032927741            8 
 3947000    0.6113311   -5.3459923    1602.0087   0.03382334  0.032919374           15 
 3948000   0.62330378   -5.3704408    1601.4281  0.033802519  0.032911004           17 
 3949000   0.62497963   -5.3452857    1601.4548  0.033794521    0.0329026            7 
 3950000   0.61258182   -5.3487337    1604.2775  0.033845517  0.032894215           12 
 3951000   0.62057756   -5.3293594    1599.3206    0.0337324  0.032885847           11 
 3952000   0.61586709   -5.3389999    1604.3903  0.033830767   0.03287751           12 
 3953000   0.60764504   -5.3522111    1603.9586  0.033813107  0.032869129           11 
 3954000   0.60931541   -5.3297649    1601.5319  0.033753412  0.032860798            7 
 3955000   0.62847851   -5.3467847    1603.9127  0.033795043  0.032852502           13 
 3956000   0.61058381   -5.3403581    1600.7209  0.033719263  0.032844184           18 
 3957000   0.61835505   -5.3227333    1602.9963  0.033758662  0.032835842           13 
 3958000   0.61387792   -5.3634907    1601.5951  0.033720631  0.032827536            6 
 3959000   0.61901607   -5.3347853    1606.8712  0.033823171  0.032819215            5 
 3960000   0.61376974   -5.3350601    1606.9531  0.033816353  0.032810925            4 
 3961000   0.60989791   -5.3570828    1604.1725  0.033749316  0.032802603           12 
 3962000   0.61553135   -5.3621401     1602.353  0.033702529  0.032794242           12 
 3963000   0.61486769   -5.3410834    1605.5298  0.033760824  0.032785862           14 
 3964000   0.60527983   -5.3519165    1602.5807  0.033690312   0.03277751           17 
 3965000   0.61131871   -5.3374855     1597.766  0.033580622   0.03276914            9 
 3966000   0.61856479   -5.3499077    1601.7862  0.033656627  0.032760796           10 
 3967000   0.62042375   -5.3463651    1603.2392  0.033678665  0.032752477           11 
 3968000   0.62151048   -5.3564178    1602.1875   0.03364809  0.032744166           10 
 3969000   0.60142788   -5.3437736    1602.9486  0.033655594  0.032735846           15 
 3970000    0.6283744   -5.3610612    1597.8686  0.033540484  0.032727531           23 
 3971000   0.61411206    -5.345879    1602.9127   0.03363789  0.032719186           12 
 3972000   0.62442908   -5.3278514     1602.847  0.033628042  0.032710889           13 
 3973000   0.63205782   -5.3401885      1607.16  0.033710042  0.032702622           16 
 3974000   0.63010033    -5.351777    1603.2362  0.033619279  0.032694323            8 
 3975000   0.60593429   -5.3678917    1599.6224  0.033535061  0.032685978           12 
 3976000   0.61449516   -5.3666844    1599.9752   0.03353402   0.03267764           17 
 3977000   0.61535552   -5.3585764    1601.4767  0.033557052  0.032669321           29 
 3978000   0.60523979   -5.3803559    1602.4051  0.033568063   0.03266098           37 
 3979000   0.60949254   -5.3635091    1603.3576  0.033579575  0.032652651           24 
 3980000    0.6173308   -5.3467771    1605.4999  0.033615994   0.03264434           10 
 3981000    0.6108423   -5.3303441    1606.0452  0.033618965  0.032636074           12 
 3982000   0.62174555   -5.3358713    1609.0245  0.033672873   0.03262786           17 
 3983000   0.62006952   -5.3291982    1607.3578  0.033629547  0.032619624           12 
 3984000   0.62050261   -5.3419375    1602.7949  0.033525664  0.032611397           19 
 3985000   0.59476101   -5.3554282    1604.7428  0.033557983  0.032603132           14 
 3986000   0.62658569   -5.3471317    1602.4797  0.033502251  0.032594872           13 
 3987000   0.61654074   -5.3505143    1604.3767  0.033533499  0.032586582           16 
 3988000    0.6056886   -5.3502519    1605.3397  0.033545213  0.032578324           13 
 3989000   0.60954227   -5.3428132       1604.9  0.033527618  0.032570054            9 
 3990000   0.61351754   -5.3375697    1604.8331  0.033517818  0.032561807            5 
 3991000   0.59737373   -5.3519906     1607.812  0.033571619  0.032553523           10 
 3992000   0.61780519   -5.3463535    1604.0121  0.033483887  0.032545253            6 
 3993000   0.59802164   -5.3546636    1604.4944  0.033485567  0.032536978           22 
 3994000   0.61393037    -5.365431     1602.618  0.033438031  0.032528621           17 
 3995000   0.62749312   -5.3300474    1606.5935  0.033512588  0.032520334           17 
 3996000   0.60859322   -5.3604752    1606.4506  0.033501223   0.03251205            7 
 3997000   0.61963226   -5.3769556    1603.3644  0.033428496  0.032503747           12 
 3998000   0.59744492   -5.3561891    1604.8619  0.033451349  0.032495476           14 
 3999000   0.61691199   -5.3641948    1602.9401  0.033402937  0.032487179           11 
 4000000   0.61573503   -5.3597909    1603.3166  0.033402429  0.032478885           14 
 4001000   0.59814008   -5.3727591     1606.079  0.033451615  0.032470529           12 
 4002000   0.62352041   -5.3587479    1603.6665  0.033393023  0.032462194           15 
 4003000   0.60868592   -5.3756271    1599.6286  0.033300621  0.032453846           11 
 4004000   0.60425597   -5.3619049    1602.9948  0.033362362  0.032445515           26 
 4005000    0.6231866   -5.3439629    1604.9167  0.033394023  0.032437202           13 
 4006000   0.60736238   -5.3631114    1604.4266  0.033375492  0.032428934           11 
 4007000   0.61294887   -5.3747999     1603.842  0.033355005  0.032420629           14 
 4008000   0.61872379    -5.368792    1602.2463  0.033313504  0.032412301           23 
 4009000   0.61541125   -5.3436211    1605.4971  0.033372768  0.032403987            8 
 4010000   0.61221286   -5.3772104    1602.2047  0.033296025   0.03239567           13 
 4011000   0.61071077   -5.3699125    1603.5024  0.033314685   0.03238735           19 
 4012000   0.60155214   -5.3799053    1602.9396  0.033294692  0.032379015           19 
 4013000   0.60445903   -5.3453765    1599.5258  0.033215504  0.032370669           18 
 4014000   0.61043449   -5.3894036    1601.9785  0.033258148  0.032362344           13 
 4015000   0.61652637    -5.394834    1599.1565  0.033191292  0.032354007           41 
 4016000   0.61710502   -5.3876107    1602.1372  0.033244878  0.032345655           39 
 4017000   0.60427069   -5.3753481    1600.5958  0.033204626  0.032337324           14 
 4018000   0.60135408   -5.3899814    1601.8587  0.033222554  0.032328992           11 
 4019000   0.61340306   -5.3771989    1601.0472  0.033197462   0.03232066           31 
 4020000   0.61068946   -5.3658002     1603.852  0.033247347  0.032312343            8 
 4021000   0.61363145   -5.3829799    1602.0924  0.033202612     0.032304           20 
 4022000   0.60531042    -5.370543     1603.688  0.033227416   0.03229568           11 
 4023000   0.61284071   -5.3559431     1597.193  0.033084617  0.032287375           15 
 4024000   0.61738176   -5.3780825    1603.8047  0.033213318    0.0322791           12 
 4025000   0.61332231   -5.3633428    1601.6809  0.033161095  0.032270803           12 
 4026000    0.6068789   -5.3522705    1606.8146  0.033259119  0.032262533            7 
 4027000   0.60886864   -5.3763263    1599.1855  0.033092988  0.032254248            9 
 4028000   0.59989358   -5.3820837    1602.9562  0.033162782  0.032245957           12 
 4029000   0.61523968   -5.3436587    1604.9378  0.033195537  0.032237677            9 
 4030000   0.60714105   -5.3842337    1603.7972  0.033163713  0.032229365           12 
 4031000   0.59545026   -5.3661345    1605.3663  0.033187925  0.032221073           10 
 4032000   0.60415095    -5.345001    1605.8699  0.033190103   0.03221282           26 
 4033000   0.60454772   -5.3630938    1606.9119  0.033203404  0.032204574           19 
 4034000   0.60911429   -5.3690576    1605.0207  0.033156104  0.032196325           14 
 4035000   0.60912938   -5.3850406     1605.184   0.03315126  0.032188043           19 
 4036000   0.60503815   -5.3679211    1602.1169  0.033079717  0.032179737            7 
 4037000   0.59573323   -5.3562735    1603.5365  0.033100828  0.032171476            7 
 4038000   0.60285613   -5.3865755    1603.0306  0.033082191  0.032163209            9 
 4039000   0.59443505   -5.3716993    1601.6432  0.033045374  0.032154946           11 
 4040000   0.61028495   -5.3763265     1605.951  0.033126052  0.032146687            9 
 4041000   0.60035009   -5.3628088    1599.4085  0.032982935  0.032138425           22 
 4042000   0.60489841    -5.368208    1607.1299  0.033133967  0.032130127           10 
 4043000   0.60236155   -5.3784911    1602.2434  0.033025052  0.032121827           22 
 4044000   0.62043408   -5.3843766    1606.9511  0.033113895  0.032113534            8 
 4045000   0.60401122   -5.3610387    1602.2695   0.03300926  0.032105261           15 
 4046000   0.61122989   -5.3569621    1601.8628  0.032992725  0.032097032           17 
 4047000   0.60079933   -5.3720111    1604.3854  0.033036517  0.032088739           15 
 4048000   0.60693065    -5.369688    1606.1017  0.033063689   0.03208043           18 
 4049000   0.60534649   -5.3749891    1603.9089  0.033010392  0.032072152           10 
 4050000   0.59338423   -5.3595828    1603.3691  0.032991134  0.032063867            8 
 4051000   0.59817701    -5.367733    1602.9859  0.032975107  0.032055604            6 
 4052000   0.59123794   -5.3765462    1602.6231  0.032959508  0.032047307            8 
 4053000   0.60802935   -5.3825037    1600.8513  0.032914946  0.032038988           10 
 4054000   0.60256321   -5.3648885    1602.4788  0.032940282  0.032030696           16 
 4055000   0.60486662   -5.3750846     1598.586  0.032852157  0.032022384           15 
 4056000   0.60152442   -5.3675171    1604.2018  0.032959439   0.03201407           13 
 4057000   0.60380553   -5.3698411    1605.6749  0.032981573   0.03200576           26 
 4058000   0.61126729    -5.396418    1602.4195  0.032906593  0.031997468            6 
 4059000   0.61393013   -5.3953706    1600.1434  0.032851757  0.031989162           13 
 4060000   0.59781954   -5.3946529    1604.4043  0.032931122  0.031980886           15 
 4061000   0.59615535   -5.3701788    1605.0897  0.032937078   0.03197257           23 
 4062000   0.59964722   -5.3887171    1602.0736  0.032867093  0.031964231           12 
 4063000   0.59446869   -5.3898696    1602.3948  0.032865591  0.031955924           18 
 4064000   0.60178181   -5.3982223     1601.478  0.032838705  0.031947618           12 
 4065000   0.60135749    -5.394544     1599.871  0.032797684  0.031939299           11 
 4066000   0.60262698   -5.3787191    1600.9047  0.032810803  0.031930954           11 
 4067000   0.61566534   -5.3853011    1601.8513  0.032822131  0.031922623           22 
 4068000   0.59802568   -5.3960148    1602.6864  0.032831171  0.031914316           20 
 4069000   0.59812659   -5.3851039     1598.962  0.032746825  0.031906014           27 
 4070000   0.60369472   -5.3835435    1601.5609  0.032791992  0.031897697           16 
 4071000   0.59569532   -5.3728065    1605.5519  0.032865632  0.031889386            9 
 4072000   0.61096616   -5.3890127     1603.524   0.03281606  0.031881105           14 
 4073000   0.60395051   -5.4002297    1603.2283  0.032801954  0.031872818           10 
 4074000    0.6030902     -5.38634    1602.1231  0.032771297  0.031864491           10 
 4075000   0.59450667   -5.3880176    1599.5581    0.0327108  0.031856162           11 
 4076000   0.59098187   -5.3669504    1605.0701  0.032815466  0.031847885           11 
 4077000   0.61700528   -5.3981404     1598.114  0.032665236  0.031839522           15 
 4078000   0.60342478   -5.3654055    1605.4919  0.032807993  0.031831223           22 
 4079000   0.59847633   -5.3883658     1603.135  0.032751797  0.031822925           17 
 4080000    0.5957924   -5.3813634    1601.9167  0.032718886  0.031814647            9 
 4081000   0.60840057   -5.3710792    1603.7217  0.032747726  0.031806376           10 
 4082000   0.59444875   -5.3942498    1602.1892  0.032708418  0.031798141           22 
 4083000   0.57993361   -5.3980362    1604.3151  0.032743798  0.031789865           16 
 4084000   0.60820509   -5.3819179     1600.313  0.032654118   0.03178154           33 
 4085000   0.60551383   -5.3930523    1602.7065  0.032694951  0.031773293           52 
 4086000   0.59932413   -5.3477643    1604.5609   0.03272477  0.031765037           44 
 4087000   0.58595979   -5.4004977    1601.4647  0.032653631  0.031756784           33 
 4088000   0.59638621   -5.3997897     1604.568  0.032708903  0.031748492           32 
 4089000   0.59603413    -5.404242    1602.4347  0.032657429  0.031740196            9 
 4090000   0.59564292   -5.4148496    1602.7513  0.032655894   0.03173188            9 
 4091000   0.58649164   -5.3925841    1601.5582  0.032623608   0.03172359           27 
 4092000   0.59922896   -5.4035331    1602.2016   0.03262874  0.031715276           11 
 4093000   0.58925692   -5.3881379    1605.3452   0.03268477  0.031706971           13 
 4094000   0.59735812   -5.3920841    1602.4753   0.03261837  0.031698689           15 
 4095000   0.58663798   -5.3956899    1601.8765   0.03259822  0.031690386           10 
 4096000   0.60000036    -5.405659    1605.3106  0.032660128  0.031682095           18 
 4097000   0.60469739   -5.4178008    1602.5983  0.032596987  0.031673777           14 
 4098000   0.58939582   -5.4120385    1605.9432  0.032657053  0.031665475            8 
 4099000   0.58704563   -5.3733015    1603.2337  0.032594002  0.031657231           19 
 4100000   0.59346406    -5.382405    1604.3751   0.03260925  0.031649005           15 
 4101000   0.60154082   -5.3932626    1599.2524  0.032497204  0.031640747            9 
 4102000   0.59386888   -5.4145597    1601.8173  0.032541389  0.031632462           12 
 4103000   0.59329058   -5.4153946    1603.6464  0.032570606  0.031624176           13 
 4104000   0.60685352   -5.4003406    1597.6727  0.032441373  0.031615858           16 
 4105000   0.59326638   -5.4443856    1598.9643  0.032459689  0.031607496           25 
 4106000   0.59864116   -5.4093558    1597.5343  0.032422761  0.031599151           17 
 4107000   0.60103846   -5.4071828    1603.9806  0.032545666   0.03159086           13 
 4108000   0.58041155   -5.4138048     1597.873  0.032413847  0.031582568           15 
 4109000   0.59191099   -5.4190336      1600.43  0.032457817  0.031574268           10 
 4110000   0.58933575   -5.4071492    1602.1784  0.032485369  0.031565997           34 
 4111000   0.58888054   -5.4030245     1601.475  0.032463209    0.0315577           25 
 4112000   0.60209612   -5.4205108    1596.7193  0.032358935  0.031549394           19 
 4113000   0.59255056    -5.379849    1601.4291  0.032446493  0.031541094           16 
 4114000   0.58129193   -5.3755163    1603.2407  0.032475301  0.031532844           19 
 4115000   0.60564039     -5.38956    1602.2971  0.032448302  0.031524587           17 
 4116000   0.60674258   -5.3917515    1602.4776  0.032444072  0.031516358           20 
 4117000   0.58544466   -5.3893447    1600.2203  0.032390502  0.031508086           12 
 4118000   0.59654767   -5.4039873    1604.0939  0.032461023  0.031499807           32 
 4119000   0.58602958   -5.4220806    1598.7713  0.032345458  0.031491524           10 
 4120000   0.61049363   -5.4278289    1599.6375  0.032355128   0.03148319           14 
 4121000    0.5756025   -5.3934774    1599.5752  0.032346016  0.031474868            7 
 4122000   0.58622482   -5.4129093    1600.4967  0.032356799  0.031466587            9 
 4123000   0.60062491   -5.3788397    1605.0011  0.032439993  0.031458339           11 
 4124000   0.58322985     -5.40132    1604.1919  0.032415775  0.031450106           18 
 4125000   0.59096735   -5.4108672    1603.8048  0.032400096  0.031441863           17 
 4126000   0.59402929   -5.4056141    1603.0842  0.032377691  0.031433625           19 
 4127000   0.60674308   -5.4077025    1604.1344  0.032391051   0.03142538           25 
 4128000   0.59535473   -5.3849134    1605.5888  0.032412564  0.031417163           19 
 4129000   0.59445719   -5.3850398    1601.9085  0.032330437  0.031408951           34 
 4130000    0.6054181   -5.3987845    1605.9664  0.032404487  0.031400718           19 
 4131000   0.59347616    -5.404753    1604.2575  0.032362171  0.031392513           18 
 4132000   0.57552486   -5.4080418    1601.8119  0.032305016  0.031384318           11 
 4133000   0.60330378   -5.3852332    1611.0039  0.032482538  0.031376104           17 
 4134000    0.5926807   -5.4054456    1600.6968  0.032266909  0.031367894           15 
 4135000   0.57767619   -5.3987379    1606.2702  0.032371427  0.031359704           11 
 4136000   0.59386236   -5.3934304    1605.7259  0.032352633  0.031351491           14 
 4137000    0.5794807   -5.3930511    1604.3451  0.032316998  0.031343245           22 
 4138000    0.5919964   -5.4137658    1606.1862  0.032346267  0.031335027           14 
 4139000   0.59137169   -5.3986913    1602.8896  0.032272078  0.031326806           25 
 4140000   0.59382914   -5.3963977     1604.037  0.032287379  0.031318586           24 
 4141000   0.58680643   -5.3893183    1606.5909  0.032330977  0.031310374           25 
 4142000    0.5865553   -5.4193994    1605.7584  0.032306423  0.031302177           31 
 4143000   0.58230427   -5.4065028    1600.8124   0.03219914  0.031293965           16 
 4144000   0.58640134   -5.3963455    1604.4926  0.032265375  0.031285773            8 
 4145000   0.60306174   -5.4020566    1608.8731  0.032345659  0.031277582           12 
 4146000   0.59099787    -5.376134    1605.2641  0.032265319  0.031269447           11 
 4147000   0.58737345   -5.3923425    1607.0437  0.032293298  0.031261326            7 
 4148000   0.59764424     -5.41437    1600.0352  0.032144712  0.031253173           10 
 4149000   0.57921557   -5.4150984    1599.6406  0.032129039  0.031244982           19 
 4150000   0.58450922   -5.4124171    1604.3685  0.032216235  0.031236787           32 
 4151000   0.58607986   -5.4034475    1600.2217  0.032125225  0.031228599           11 
 4152000   0.59202759   -5.4107566    1601.6798  0.032146752  0.031220406           23 
 4153000   0.58337883   -5.4166811    1604.1058  0.032187691  0.031212208           19 
 4154000   0.59224148   -5.4034637    1603.8399  0.032174608  0.031203999           17 
 4155000   0.59679067   -5.3961577    1601.2069  0.032114058  0.031195798           12 
 4156000   0.58589273   -5.4145644    1604.9457  0.032181298  0.031187562           16 
 4157000   0.57634995   -5.4063998    1601.7172  0.032108836  0.031179307           11 
 4158000   0.59995834   -5.4546265    1599.2609  0.032051887  0.031171079           27 
 4159000     0.579284   -5.4128263    1600.2372  0.032063741   0.03116282           10 
 4160000   0.58739412   -5.4007143     1606.251  0.032176502  0.031154612           10 
 4161000   0.59627128   -5.4255361    1600.8993   0.03206159  0.031146448            5 
 4162000   0.59176214   -5.4390834     1603.915  0.032114267  0.031138257           21 
 4163000   0.59621154   -5.4069926    1604.7299  0.032122866  0.031130046            6 
 4164000    0.5898084   -5.4125767    1602.7949  0.032076427  0.031121852            7 
 4165000   0.59081912   -5.4016971    1606.2913  0.032138682   0.03111366           33 
 4166000   0.59184128   -5.4208859    1606.8034  0.032141211  0.031105493           15 
 4167000   0.59235447   -5.4128176    1605.3425  0.032104282  0.031097299           10 
 4168000   0.58422667   -5.4191522    1602.0536  0.032030822  0.031089124           11 
 4169000   0.58819041   -5.4273381    1600.1147  0.031984383  0.031080918           15 
 4170000   0.58367048   -5.4037603    1602.4136  0.032022655  0.031072728           11 
 4171000   0.58512317   -5.4142465    1602.5353  0.032017407  0.031064544           18 
 4172000   0.58750496    -5.412857    1601.5079  0.031989212  0.031056327            9 
 4173000   0.57280243   -5.4453515     1601.308  0.031977554  0.031048105           12 
 4174000   0.58929548   -5.4135987    1600.6888  0.031957532  0.031039884           10 
 4175000   0.59606049   -5.4296062    1602.1814  0.031979669  0.031031681           13 
 4176000   0.59266188   -5.4231041    1603.0055  0.031988456  0.031023513           15 
 4177000   0.57238955   -5.4275999    1605.8653  0.032037852   0.03101534            9 
 4178000   0.57995721   -5.4208361    1601.9778  0.031952646  0.031007162           33 
 4179000   0.59038676   -5.4206517    1600.4333    0.0319142   0.03099902           38 
 4180000   0.58533905   -5.4226373    1604.9119  0.031995851  0.030990846           13 
 4181000   0.57140367   -5.4108568    1601.6601  0.031923386  0.030982696           16 
 4182000   0.58872605   -5.3885032    1606.0469  0.032003166  0.030974553           41 
 4183000   0.59234843   -5.4103931    1606.0091  0.031994763  0.030966427           18 
 4184000   0.59478274   -5.4192795    1600.0603  0.031868632  0.030958262           16 
 4185000   0.57550305   -5.4447578     1604.078  0.031941019  0.030950064           24 
 4186000   0.58298819   -5.4372209    1599.3206   0.03183868  0.030941846           11 
 4187000   0.58488888   -5.4331294    1603.7803  0.031919838   0.03093367           25 
 4188000   0.58750382   -5.4523204    1602.6386  0.031889497  0.030925459           22 
 4189000   0.57525102   -5.4277681    1602.0405  0.031869986  0.030917252           31 
 4190000   0.58296785    -5.403138    1604.5665   0.03191262   0.03090906           25 
 4191000   0.58285062   -5.4162686    1602.4862   0.03186364  0.030900922           43 
 4192000    0.5952905   -5.4264816    1605.0187  0.031906382  0.030892769           10 
 4193000   0.59231116   -5.4252885    1602.2861  0.031844465  0.030884595            9 
 4194000   0.58523252   -5.4527654    1602.6926   0.03184495  0.030876406           24 
 4195000   0.57963107   -5.4248837    1601.3584  0.031810853  0.030868213           15 
 4196000   0.58063542   -5.4337797     1599.558  0.031767517  0.030860021           25 
 4197000   0.58062846   -5.4517769    1601.2951  0.031794438  0.030851839           28 
 4198000   0.58103882    -5.427763    1605.5152  0.031870636  0.030843701           18 
 4199000   0.57893482   -5.4554366    1600.6757  0.031767003  0.030835509           15 
 4200000   0.59665671   -5.4062488    1602.5094  0.031795822  0.030827339           27 
 4201000   0.58335493   -5.4232139    1604.9115  0.031835903  0.030819197           23 
 4202000   0.56965136     -5.44196    1605.2161  0.031834366  0.030811077           30 
 4203000   0.57207788   -5.4492473    1600.6071  0.031735408  0.030802881           38 
 4204000   0.59478678   -5.4482095    1605.2466  0.031819826  0.030794707           13 
 4205000   0.56794482   -5.4487368    1606.1861  0.031830878   0.03078656           36 
 4206000    0.5822282   -5.4521705    1600.8227  0.031717044  0.030778423           35 
 4207000   0.58457029   -5.4452802    1603.9223  0.031770904  0.030770312           14 
 4208000   0.58739086   -5.4291139    1606.3721  0.031811868  0.030762226           14 
 4209000   0.57573248   -5.4398318    1605.4665   0.03178638  0.030754103           12 
 4210000   0.55935883   -5.4223031    1605.6625   0.03178271     0.030746           15 
 4211000   0.58541589   -5.4433261    1602.7357  0.031717242   0.03073785           19 
 4212000   0.58007788   -5.4282552    1606.3942  0.031782096   0.03072972           10 
 4213000   0.58497701   -5.4505528    1601.3971  0.031675709   0.03072156           10 
 4214000   0.57337092    -5.437015    1602.3752  0.031687533  0.030713412            9 
 4215000   0.57082053   -5.4607911    1605.3765  0.031739353  0.030705286           18 
 4216000   0.57530639    -5.458363     1602.614  0.031677221  0.030697142           21 
 4217000    0.5927519   -5.4478249    1602.8337  0.031674051  0.030689007           14 
 4218000   0.57983903   -5.4185653      1608.86  0.031785601  0.030680908           21 
 4219000    0.5808996   -5.4439205    1603.7946  0.031678017  0.030672795           18 
 4220000   0.57650316   -5.4504045    1603.4463  0.031663631  0.030664676           26 
 4221000   0.57799299   -5.4334403    1603.5477  0.031658131  0.030656544           15 
 4222000   0.56397217   -5.4399139    1607.0276  0.031719319  0.030648453            6 
 4223000   0.57484172   -5.4482365    1605.9094  0.031689743  0.030640328           12 
 4224000   0.56990742   -5.4590655     1603.629  0.031637251  0.030632251           11 
 4225000   0.56751606   -5.4448384    1606.6547  0.031689442  0.030624158           18 
 4226000   0.57547629   -5.4490362    1604.6935   0.03164327  0.030616055           11 
 4227000   0.58549638   -5.4361244    1605.1579   0.03164494   0.03060798            6 
 4228000    0.5734657   -5.4307859    1604.8605  0.031631592  0.030599904           29 
 4229000   0.58055486   -5.4253414    1605.3102  0.031632975  0.030591837           24 
 4230000   0.57397621   -5.4402393    1606.0474  0.031640019  0.030583762           23 
 4231000    0.5790576    -5.432888    1606.9648  0.031650611  0.030575724           10 
 4232000   0.58556164   -5.4159022     1607.943  0.031662394  0.030567701           32 
 4233000   0.57036983   -5.4564071    1606.6179  0.031628827  0.030559663           23 
 4234000   0.57580651   -5.4514609    1604.1393  0.031572573  0.030551611           15 
 4235000     0.573082   -5.4459929    1603.4601  0.031551754  0.030543535           45 
 4236000   0.58270356   -5.4403506     1609.011  0.031653506  0.030535461           21 
 4237000   0.56309337   -5.4411637    1603.7278  0.031542126  0.030527413           40 
 4238000   0.55745831   -5.4237938    1603.2085  0.031524471  0.030519381           19 
 4239000    0.5689135    -5.419002    1604.3727   0.03153992  0.030511362           17 
 4240000   0.56727297   -5.4329393    1600.5871  0.031458081  0.030503289           17 
 4241000   0.58258317   -5.4500681    1603.7185  0.031512192  0.030495235           11 
 4242000   0.56278931   -5.4263594    1605.2625  0.031535095  0.030487172           29 
 4243000   0.56882224   -5.4416109    1605.1559   0.03152557  0.030479098            5 
 4244000   0.56152085   -5.4369597    1605.2783  0.031520544   0.03047102           23 
 4245000   0.56566913     -5.45777    1604.8239    0.0315042  0.030462928           26 
 4246000   0.56743995    -5.457745    1604.7755  0.031495829  0.030454825           25 
 4247000   0.57608237   -5.4612354    1603.5596  0.031464556  0.030446714            5 
 4248000   0.57764382   -5.4559282    1606.0345  0.031505698  0.030438574           26 
 4249000   0.57196763   -5.4647312    1602.3493  0.031426008  0.030430421           41 
 4250000   0.56741333   -5.4501918    1605.0721  0.031472002  0.030422333           44 
 4251000   0.56805814   -5.4466396     1604.623  0.031455795  0.030414273           27 
 4252000   0.57021892   -5.4551071    1603.8699  0.031433636  0.030406216           15 
 4253000   0.56851691   -5.4642808     1606.582  0.031479387  0.030398159           42 
 4254000   0.56559084   -5.4473758    1605.6811  0.031454338  0.030390122           27 
 4255000   0.56431777    -5.454971    1601.8585  0.031372082  0.030382044           11 
 4256000   0.57489731   -5.4542062     1602.332  0.031373981  0.030373955           16 
 4257000   0.57074354   -5.4595953     1607.266  0.031463198  0.030365889           27 
 4258000    0.5659204   -5.4654366     1605.759  0.031426315  0.030357824           11 
 4259000   0.56870368   -5.4358336    1605.0124  0.031404328  0.030349801           16 
 4260000   0.58948558   -5.4551538    1604.5473  0.031387858  0.030341783           12 
 4261000   0.56398344   -5.4639053    1603.7987  0.031365851  0.030333736           21 
 4262000   0.56981591   -5.4618443    1603.4478  0.031351632  0.030325697           20 
 4263000   0.57191116    -5.468092    1607.0164  0.031414036  0.030317665           13 
 4264000   0.57977106   -5.4607689    1602.9419  0.031327038  0.030309632           11 
 4265000   0.56010002   -5.4702377    1604.6239  0.031352558   0.03030159           34 
 4266000   0.56810677   -5.4652186    1605.7082  0.031366388  0.030293557           10 
 4267000   0.57549842    -5.489133    1603.6528  0.031318897  0.030285523           33 
 4268000   0.56654303   -5.4540749    1603.6831  0.031312151  0.030277469           41 
 4269000   0.57064227   -5.4502121    1604.0868  0.031312696   0.03026947           18 
 4270000   0.57217971      -5.4758    1604.9895  0.031322979   0.03026144           19 
 4271000   0.56780465   -5.4608122    1605.6159  0.031327869  0.030253431           16 
 4272000   0.56664934   -5.4357669    1608.3133  0.031373154  0.030245434           17 
 4273000   0.56020454   -5.4620099    1604.8867  0.031298983  0.030237422           33 
 4274000   0.56781466   -5.4490295     1608.278  0.031357784  0.030229386           41 
 4275000   0.56373043   -5.4540749    1608.0278  0.031345571  0.030221362           18 
 4276000    0.5701988   -5.4792591    1603.3602  0.031247276  0.030213311           25 
 4277000   0.58008688   -5.4612249    1602.4662  0.031222551  0.030205266           46 
 4278000   0.56862475   -5.4335347    1605.2989  0.031270432   0.03019725           44 
 4279000   0.56218299   -5.4539746    1608.0718  0.031317126  0.030189234           22 
 4280000   0.55523766   -5.4484912    1604.8627  0.031247326  0.030181218            8 
 4281000   0.57374114   -5.4785139     1604.418  0.031231371  0.030173184           14 
 4282000   0.56123314   -5.4838997     1600.796  0.031153589  0.030165156           16 
 4283000   0.56299959   -5.4593068    1601.3248  0.031156604  0.030157104           16 
 4284000   0.57484505   -5.4505697    1605.4981  0.031230511  0.030149071           72 
 4285000   0.55932723   -5.4445014    1605.2434   0.03121827  0.030141064           20 
 4286000   0.57110431   -5.4807058      1605.78  0.031221419  0.030133054           17 
 4287000   0.55274993   -5.4849373    1605.2377  0.031203595  0.030125029           40 
 4288000   0.55597698   -5.4764437    1605.4825  0.031201075  0.030117007           16 
 4289000   0.56269986   -5.4640617    1601.8094  0.031122432  0.030108974           23 
 4290000   0.57120097   -5.4549024    1601.3456  0.031106169  0.030100932           26 
 4291000   0.57075825   -5.4635892    1603.1276  0.031133528  0.030092886           20 
 4292000   0.57684782   -5.4605345     1604.279  0.031148628  0.030084842           46 
 4293000    0.5676904   -5.4712325    1601.8513  0.031094248  0.030076813           36 
 4294000    0.5648284   -5.4709032    1603.0211  0.031109709  0.030068803           39 
 4295000   0.56418225   -5.4601939    1606.4401  0.031168803  0.030060824           12 
 4296000   0.56887608   -5.4461367    1606.4244  0.031161243  0.030052859           22 
 4297000   0.56699193   -5.4763167    1606.1125  0.031147942  0.030044903           25 
 4298000   0.57064795   -5.4634361    1604.1216  0.031102093  0.030036927           20 
 4299000   0.57238129   -5.4644998    1603.5952  0.031084656  0.030028914           46 
 4300000   0.56404143   -5.4734796    1602.8395  0.031062781  0.030020939           35 
 4301000   0.55883512    -5.476658    1601.6825  0.031033141  0.030012954           41 
 4302000   0.56144233   -5.4778157    1607.9217  0.031146787  0.030004974           49 
 4303000   0.56691412   -5.4931042    1605.5531  0.031093678  0.029996984           27 
 4304000   0.56914449   -5.4725323    1606.6684  0.031108047  0.029988999           19 
 4305000   0.55956747   -5.4782123    1608.1988  0.031130446  0.029981038           20 
 4306000   0.56059756    -5.468855    1605.4325  0.031069681  0.029973087           12 
 4307000    0.5704555   -5.4621923    1606.6687  0.031086384  0.029965151           15 
 4308000   0.56423276   -5.4595873    1603.0748  0.031009648   0.02995722           10 
 4309000   0.55880821   -5.4502149    1605.4173  0.031047754  0.029949275           18 
 4310000   0.57138989    -5.463272    1607.1456  0.031073968  0.029941331           30 
 4311000   0.54952573    -5.463929    1604.6613  0.031018737  0.029933371           12 
 4312000   0.54955659   -5.4620674    1607.5313  0.031067008  0.029925431           14 
 4313000   0.56707247   -5.4421651    1603.9185  0.030990001  0.029917499           14 
 4314000   0.55847256   -5.4653522    1605.2498  0.031008534  0.029909549           57 
 4315000    0.5757057   -5.4513228    1607.2451  0.031039881  0.029901607           18 
 4316000   0.57003343   -5.4793908    1603.9599  0.030969259  0.029893644           11 
 4317000   0.56362123    -5.490284     1603.127  0.030946007  0.029885678           11 
 4318000   0.56404924   -5.4769637    1605.4161  0.030983019  0.029877735           17 
 4319000   0.56617118   -5.4742484    1603.0094  0.030929409  0.029869779           19 
 4320000   0.56940659   -5.4660965    1604.0762  0.030942829  0.029861819           26 
 4321000   0.56412504   -5.4783342     1602.629  0.030907756  0.029853873           48 
 4322000   0.55288784   -5.4826133    1604.8229  0.030942906  0.029845946           37 
 4323000   0.57364884   -5.4743301    1604.8111  0.030935522  0.029837987           48 
 4324000   0.54890145   -5.4774758    1603.7552  0.030908017   0.02983004           36 
 4325000   0.55420978   -5.4902698    1604.8343  0.030921662  0.029822064           42 
 4326000   0.55017147    -5.479727    1606.0044  0.030937055  0.029814099           44 
 4327000   0.54797615   -5.4770586    1603.7629  0.030886736  0.029806139           22 
 4328000   0.56168354   -5.4951948    1602.0232  0.030846102  0.029798194           21 
 4329000   0.56408769   -5.4908581    1604.8625  0.030893633  0.029790241           53 
 4330000   0.55553802    -5.471761     1605.279  0.030894514   0.02978232           48 
 4331000   0.56212664   -5.4798112    1604.1355  0.030865379   0.02977436           19 
 4332000   0.55172778   -5.5135666    1600.7471  0.030793072  0.029766394           31 
 4333000    0.5545469   -5.4817508     1605.375  0.030874971  0.029758449           24 
 4334000   0.55966495    -5.502356    1604.1884  0.030845032   0.02975049           82 
 4335000   0.55446704   -5.4976123    1601.1233  0.030778994  0.029742531           42 
 4336000   0.55627712   -5.4790079     1602.703  0.030802256  0.029734555           72 
 4337000   0.56204421   -5.4961682    1603.9951  0.030819981  0.029726588           67 
 4338000   0.55134303   -5.5062226     1603.407  0.030801579  0.029718625           23 
 4339000   0.55838448   -5.5040079     1604.072  0.030807251  0.029710658           15 
 4340000   0.55003571   -5.5144087    1603.8188  0.030795293  0.029702689           28 
 4341000    0.5530658   -5.4768144    1602.6423  0.030765613   0.02969471           34 
 4342000   0.55579116   -5.4794273    1603.8643  0.030781981  0.029686721           53 
 4343000   0.56160547   -5.5027309    1604.2371  0.030782046  0.029678723           38 
 4344000   0.56245418    -5.491345    1607.1954   0.03083171  0.029670762           37 
 4345000   0.55815126   -5.4847516    1601.8921  0.030722903  0.029662799           19 
 4346000   0.56598224   -5.4904286    1603.2544  0.030741954  0.029654839           22 
 4347000   0.55265881   -5.4852224    1604.1224  0.030751522  0.029646874           23 
 4348000   0.56408754    -5.506706    1601.6124  0.030696343  0.029638911           14 
 4349000   0.56116146   -5.4907001    1603.4234  0.030723987  0.029630942           24 
 4350000   0.55859746   -5.4908356    1603.8829  0.030725726  0.029623008           14 
 4351000   0.55327179   -5.4882344    1603.1731   0.03070507  0.029615088           19 
 4352000    0.5616779   -5.4881493    1602.6434  0.030687872  0.029607154           11 
 4353000   0.56680936   -5.4869742    1606.1027  0.030747047  0.029599238           20 
 4354000   0.56307334   -5.4854542    1605.2192  0.030723074  0.029591333           22 
 4355000   0.54826116   -5.4788852    1605.9151  0.030729335   0.02958343           24 
 4356000   0.54983878    -5.491872    1600.0744  0.030610545  0.029575517           25 
 4357000   0.55989668    -5.503715    1607.1626   0.03073909  0.029567588           24 
 4358000   0.56196106   -5.4843398    1600.7208  0.030608858  0.029559698           20 
 4359000   0.55021977   -5.4645158    1605.5326  0.030693825  0.029551821           13 
 4360000   0.54522163   -5.4933679    1605.5312  0.030686759  0.029543943           17 
 4361000   0.55688912   -5.4892628     1607.392  0.030715279  0.029536053           71 
 4362000    0.5620045   -5.4882782    1607.1124  0.030702897  0.029528161           20 
 4363000   0.54236299   -5.4878031    1603.8644  0.030633822  0.029520261           14 
 4364000   0.55285908   -5.4932808    1601.3382  0.030578564  0.029512341           26 
 4365000   0.56101052   -5.4871102    1602.2453  0.030588876  0.029504401           40 
 4366000   0.54637276   -5.5091657    1602.0653  0.030578433  0.029496434           25 
 4367000   0.56160523   -5.4832487    1604.0014  0.030608377  0.029488472           19 
 4368000   0.55510351   -5.4874288    1600.7335  0.030539025  0.029480546           17 
 4369000   0.54663929   -5.5004168    1600.5423  0.030528387  0.029472602           21 
 4370000   0.55240153   -5.5124028    1602.1065   0.03055123  0.029464639           35 
 4371000    0.5513034   -5.4909125    1602.4413  0.030550624  0.029456688           30 
 4372000   0.54126385   -5.4950787    1605.0015  0.030592435  0.029448741           22 
 4373000   0.55819412   -5.4956911    1602.0504  0.030529201  0.029440819           31 
 4374000   0.54878404   -5.5050407    1605.4623  0.030587225  0.029432902           16 
 4375000   0.57134493   -5.4747909    1604.6454  0.030564674  0.029425036           16 
 4376000   0.54395162   -5.4759179    1604.5137  0.030555181  0.029417158           22 
 4377000   0.53956983   -5.4909875    1606.6319   0.03058853  0.029409287           18 
 4378000   0.56497907   -5.5017786    1605.8187  0.030566064  0.029401447           11 
 4379000    0.5669079   -5.4772356    1605.7691  0.030558138  0.029393627           18 
 4380000   0.55614513   -5.4737009     1606.595  0.030566876  0.029385782           39 
 4381000   0.55363909   -5.4654209    1607.9308  0.030585307  0.029377939           48 
 4382000   0.55031561   -5.4893344    1608.3046  0.030585436  0.029370106           23 
 4383000   0.55067572    -5.478263    1604.3846  0.030503928  0.029362238           14 
 4384000   0.55927334   -5.4992498    1603.8212   0.03048626  0.029354376           25 
 4385000   0.54218012   -5.5030082    1605.5244  0.030511677  0.029346495           20 
 4386000    0.5612754   -5.4839622    1607.5219  0.030542671  0.029338616           13 
 4387000   0.55367944   -5.4921802    1602.3513  0.030437491  0.029330776           23 
 4388000    0.5520874   -5.4811606    1605.0412   0.03048164  0.029322911           29 
 4389000    0.5535391   -5.4806831    1605.4324  0.030482122  0.029315035           36 
 4390000   0.54572573   -5.5080722    1606.5992  0.030497327  0.029307199           19 
 4391000   0.55302207   -5.5109973    1602.8299  0.030418848  0.029299315           79 
 4392000   0.55255604   -5.4847625    1601.8387  0.030393114  0.029291441           31 
 4393000   0.54289563   -5.5217689    1601.7743  0.030384973  0.029283576           14 
 4394000   0.53784548   -5.4918241    1603.4289  0.030409438  0.029275687           46 
 4395000   0.54977622   -5.5070198    1601.4636  0.030365257  0.029267777           39 
 4396000   0.54521741   -5.5261039    1602.9416  0.030386367  0.029259888           25 
 4397000   0.55609791   -5.4993165    1603.1132  0.030382708  0.029252015           32 
 4398000   0.54491127   -5.4987108    1603.9251  0.030391184  0.029244151           49 
 4399000   0.53804814   -5.5110417     1602.919  0.030365216  0.029236283           36 
 4400000   0.54032577    -5.492743    1601.8722  0.030338489  0.029228422           32 
 4401000   0.55461776   -5.4855292    1602.8185  0.030349512  0.029220539           23 
 4402000    0.5462969   -5.5150576    1605.4769  0.030392944  0.029212673           18 
 4403000   0.55613114   -5.4879211    1605.5463  0.030387355  0.029204811           31 
 4404000   0.54751577   -5.5146841    1603.4968  0.030341673  0.029196942           20 
 4405000   0.54993199   -5.5085128    1602.3484  0.030313062  0.029189043           28 
 4406000   0.55859186   -5.5161426    1605.4913  0.030365625  0.029181155           50 
 4407000   0.54239151   -5.5201351    1601.1927  0.030277451  0.029173272           24 
 4408000   0.53553921   -5.4967581     1602.502  0.030295333  0.029165373           35 
 4409000   0.54522115   -5.4991479    1603.4194  0.030305803  0.029157502           49 
 4410000   0.56117081   -5.5256409    1604.7221  0.030323546  0.029149625           34 
 4411000   0.55252363    -5.495357    1600.0717  0.030228817   0.02914175            9 
 4412000   0.55199901   -5.5075228    1603.9202  0.030294655  0.029133882           12 
 4413000   0.55636275   -5.5036731    1603.4806  0.030279489  0.029126025           37 
 4414000   0.54995777   -5.5202058    1604.5353  0.030292541   0.02911817           16 
 4415000   0.54962589   -5.4868308    1603.0885  0.030258371  0.029110332           15 
 4416000   0.54178338   -5.5026531    1604.5475  0.030279051  0.029102517           15 
 4417000    0.5459387   -5.4814251    1606.2802  0.030304886  0.029094706           25 
 4418000   0.54854327   -5.4878144    1603.6081  0.030247625  0.029086869           19 
 4419000   0.55259804   -5.5089968    1604.6158  0.030259783  0.029079059           18 
 4420000   0.53903034   -5.5246997    1602.8305  0.030219277  0.029071217           22 
 4421000   0.55230499   -5.5115149    1600.7426  0.030173087   0.02906336           40 
 4422000   0.54034128   -5.5337465    1601.9565   0.03018914  0.029055504           46 
 4423000    0.5353188   -5.5312334    1602.1371  0.030185717  0.029047635           47 
 4424000    0.5329678   -5.5325959    1600.2253  0.030142882  0.029039764           21 
 4425000    0.5483974   -5.5054898    1600.8556  0.030147939   0.02903191           28 
 4426000   0.54387931   -5.4915334    1603.3402  0.030187908  0.029024099           24 
 4427000     0.546744   -5.5097517    1603.0378  0.030175397  0.029016288           87 
 4428000   0.53367622   -5.4998322    1608.3231   0.03026805  0.029008473           36 
 4429000    0.5570157   -5.4792955    1605.9233  0.030216062  0.029000695           15 
 4430000   0.54604124   -5.5173852    1606.0412   0.03021146  0.028992924           39 
 4431000   0.53858135   -5.5062504    1608.3966  0.030248939  0.028985174           27 
 4432000   0.54287607   -5.5117683    1602.9338    0.0301394  0.028977407           20 
 4433000   0.53363674    -5.492026    1603.5793  0.030144735  0.028969618           34 
 4434000   0.54306368   -5.5008094    1609.6669  0.030252348  0.028961847           17 
 4435000   0.53024589    -5.521349    1602.8549  0.030117529  0.028954042           42 
 4436000   0.53775164   -5.5142762    1601.1554  0.030078814  0.028946257           32 
 4437000   0.52636685   -5.5173117    1603.9973   0.03012541  0.028938475           28 
 4438000   0.53728854   -5.5254213    1602.4155  0.030088919  0.028930673           23 
 4439000   0.54495005   -5.4917907    1604.5563  0.030122331  0.028922872           25 
 4440000   0.54255452   -5.5139836    1606.3886  0.030149936  0.028915086           15 
 4441000    0.5471079   -5.5222192    1604.9122  0.030115444  0.028907304           16 
 4442000    0.5484065   -5.5126253    1600.8868  0.030033146  0.028899511           19 
 4443000    0.5412245   -5.5164631    1602.7752  0.030061805  0.028891711           22 
 4444000   0.54463258   -5.4905299    1604.4341  0.030086148  0.028883888           26 
 4445000   0.53656371    -5.521845    1601.4798  0.030023992  0.028876083           35 
 4446000   0.53280535   -5.5053017    1604.3182  0.030070441  0.028868268           38 
 4447000   0.54300411   -5.5532021    1604.6539   0.03006997  0.028860444           32 
 4448000   0.53796155   -5.5501318    1599.5109  0.029966857  0.028852598           72 
 4449000   0.53755525   -5.5408183    1601.9757  0.030006288  0.028844784           89 
 4450000   0.53860187   -5.5362098    1600.3766  0.029969598  0.028836955           66 
 4451000   0.53053692   -5.5184203    1598.6272  0.029930113  0.028829137           34 
 4452000   0.53911576   -5.5316984      1600.59  0.029960131  0.028821321           37 
 4453000   0.53803819   -5.5271128    1601.8131  0.029976292  0.028813497           40 
 4454000    0.5386592   -5.5241295    1600.4377  0.029943827  0.028805692           31 
 4455000   0.53350899    -5.527668    1598.3064  0.029897239  0.028797885           63 
 4456000   0.53809838   -5.5067903    1604.7766  0.030011531  0.028790085           20 
 4457000   0.54073562   -5.5163777    1603.0769  0.029973018   0.02878231           20 
 4458000    0.5329307   -5.5306262    1606.2099  0.030024859  0.028774536           14 
 4459000    0.5354834    -5.519212    1604.7063  0.029990025  0.028766772           44 
 4460000   0.54403105   -5.5123284    1603.2782  0.029956618  0.028759024           21 
 4461000   0.52678558   -5.5352886    1605.6897  0.029994951  0.028751276           17 
 4462000   0.53644616    -5.512564    1603.5763  0.029948758  0.028743524           32 
 4463000   0.53850117   -5.5153955    1603.5813   0.02994214  0.028735766           28 
 4464000   0.55485562   -5.5222148    1603.5606  0.029935048  0.028728022           20 
 4465000   0.53512008   -5.5255243    1602.2243  0.029903403  0.028720297           32 
 4466000   0.54160075    -5.516959     1606.062  0.029968317  0.028712579           19 
 4467000   0.53752337   -5.5147394     1601.088  0.029868816  0.028704857           22 
 4468000   0.54032721   -5.5288808    1604.3707  0.029923356  0.028697106           25 
 4469000   0.53593879   -5.5253866    1605.0523  0.029929371  0.028689367           17 
 4470000   0.53098951   -5.5429908    1598.8356  0.029806778  0.028681601           15 
 4471000   0.53772674    -5.512836     1603.269  0.029882744  0.028673833           14 
 4472000   0.54063187   -5.5289232    1602.5871  0.029863355  0.028666114           16 
 4473000   0.53707081   -5.5348974    1601.2321  0.029831435  0.028658348            9 
 4474000   0.54903264   -5.5484613    1601.1097  0.029822488  0.028650561           10 
 4475000   0.54473752    -5.545574    1600.4517  0.029803569  0.028642768           23 
 4476000   0.53632228   -5.5450749    1603.5986  0.029855499  0.028634991           28 
 4477000   0.53246412   -5.5434025    1601.6002  0.029811634  0.028627211           26 
 4478000    0.5436042    -5.545444    1597.9182  0.029736456  0.028619428           19 
 4479000   0.53627313   -5.5546528    1601.4349  0.029795246  0.028611626           46 
 4480000   0.54090916   -5.5501899    1599.4107  0.029750943  0.028603835           21 
 4481000   0.53859531   -5.5219352    1604.3038    0.0298353  0.028596081           29 
 4482000   0.53807607    -5.536866    1602.3685  0.029792661  0.028588342           23 
 4483000   0.54163283   -5.5377584     1603.181  0.029801118  0.028580575           57 
 4484000    0.5552111   -5.5316724    1599.8035  0.029731703  0.028572803           13 
 4485000   0.54094686   -5.5303109    1604.2741   0.02980814  0.028565041           33 
 4486000   0.54347915   -5.5485677    1597.4367  0.029674482   0.02855727           27 
 4487000   0.53601041   -5.5247705    1600.3361  0.029721716  0.028549484           15 
 4488000   0.53044685   -5.5403739    1601.3002  0.029732995  0.028541703           14 
 4489000   0.52925386    -5.557223    1597.5211  0.029656217  0.028533914           29 
 4490000   0.53828091   -5.5523193    1600.4792  0.029704513  0.028526145           11 
 4491000    0.5176661   -5.5604063    1602.5161  0.029735695  0.028518377           17 
 4492000   0.53609466   -5.5540345    1596.2547  0.029612917  0.028510587           19 
 4493000   0.53580081   -5.5551463    1600.8332  0.029691245  0.028502834           28 
 4494000   0.52819354   -5.5398308    1601.8633   0.02970374  0.028495088           17 
 4495000   0.52624987   -5.5504956    1602.5437  0.029709745  0.028487299           35 
 4496000    0.5260464   -5.5696551    1598.0976   0.02962073  0.028479528           19 
 4497000      0.54741   -5.5526886    1599.3979  0.029638238  0.028471769           46 
 4498000   0.52309129   -5.5521209    1603.6339  0.029710128  0.028463998           17 
 4499000   0.52756505   -5.5596318    1602.0979  0.029675073  0.028456247           52 
 4500000   0.52931011   -5.5533456    1601.4057  0.029655661  0.028448497           20 
 4501000   0.53591493   -5.5679889     1602.342  0.029666408  0.028440747           37 
 4502000   0.53555586    -5.541252    1601.1044   0.02963691  0.028432997           32 
 4503000   0.53886843   -5.5336742      1600.97   0.02962784  0.028425276           39 
 4504000   0.54197357   -5.5492008    1600.8524  0.029619088  0.028417552           47 
 4505000   0.52173857   -5.5439105     1601.226  0.029619423  0.028409827           64 
 4506000   0.52979935   -5.5396775     1603.338  0.029651909  0.028402094          138 
 4507000   0.53010158   -5.5739138    1600.1754  0.029586853  0.028394351          124 
 4508000   0.52944167   -5.5644862    1598.4778  0.029548909  0.028386601           68 
 4509000    0.5176858   -5.5625994    1599.5851  0.029562821  0.028378865          128 
 4510000   0.53672778   -5.5684681    1597.1336  0.029510968  0.028371105           93 
 4511000    0.5308103   -5.5560932    1600.0111  0.029557583   0.02836337          102 
 4512000   0.53829315   -5.5612828     1602.782  0.029602209  0.028355631           93 
 4513000   0.52821698   -5.5600147    1598.8089  0.029522285  0.028347878           36 
 4514000   0.52644034   -5.5425497    1604.4828  0.029620492  0.028340151           43 
 4515000   0.53239167   -5.5561723    1599.2308  0.029516995  0.028332416           35 
 4516000    0.5322085   -5.5539472    1598.8478  0.029503392  0.028324694           18 
 4517000   0.52874332   -5.5682269    1601.3987  0.029543921  0.028316993           62 
 4518000   0.54310876   -5.5595849    1600.7488  0.029525395  0.028309292           24 
 4519000   0.54220554   -5.5667973    1598.3851  0.029475272  0.028301559           33 
 4520000     0.533526   -5.5578467    1602.9273  0.029552494  0.028293843           36 
 4521000   0.53110639   -5.5607439    1600.1473  0.029494715  0.028286149           16 
 4522000   0.52964507   -5.5548724    1601.3904  0.029511101  0.028278435           71 
 4523000   0.52552895   -5.5411048     1602.539   0.02952574  0.028270738           41 
 4524000   0.52189087   -5.5546046    1602.1556  0.029512149  0.028263062           22 
 4525000   0.53014968   -5.5588123    1600.9744  0.029483874   0.02825536           22 
 4526000   0.53060203   -5.5626629    1597.6534  0.029416213  0.028247654           24 
 4527000   0.51688259   -5.5779036     1598.231  0.029420348  0.028239929           30 
 4528000   0.52802055   -5.5724272    1601.3187  0.029470676  0.028232207           19 
 4529000   0.53174204   -5.5618691    1598.9427  0.029420451   0.02822449           31 
 4530000   0.52553191   -5.5582227    1602.6115  0.029481447  0.028216789           62 
 4531000   0.52237141    -5.553387    1599.0046  0.029408604  0.028209103           34 
 4532000   0.52617833   -5.5422575     1603.517  0.029485087  0.028201411           45 
 4533000   0.52161519   -5.5567178     1600.141   0.02941652  0.028193727           42 
 4534000   0.52815358   -5.5547218    1602.5838  0.029454929  0.028186059           39 
 4535000   0.53172587   -5.5540489    1603.5729   0.02946661  0.028178363           64 
 4536000   0.52859795    -5.560082    1602.1109  0.029433254  0.028170686           48 
 4537000    0.5221547   -5.5639351    1602.8225  0.029439837  0.028163014           52 
 4538000   0.51848131   -5.5465506    1603.2889  0.029441915  0.028155357           24 
 4539000   0.52316629   -5.5512682    1604.9303  0.029465563  0.028147711           14 
 4540000    0.5369249   -5.5663529    1603.9168   0.02944047  0.028140086           39 
 4541000    0.5265466   -5.5568714    1601.8735  0.029396489  0.028132476           54 
 4542000   0.52720149   -5.5641858    1601.9352  0.029391149  0.028124838           17 
 4543000   0.51714346   -5.5574846    1603.6355  0.029415869  0.028117204           64 
 4544000   0.52111283   -5.5501829    1605.4678  0.029442998  0.028109586           21 
 4545000    0.5327449   -5.5552973    1603.6899  0.029403923  0.028101975           32 
 4546000   0.52022547   -5.5679823    1602.1129  0.029368546  0.028094355           32 
 4547000    0.5243713   -5.5689892    1603.6408  0.029390088  0.028086709           18 
 4548000   0.51712027   -5.5596992    1602.4242  0.029361336   0.02807908           37 
 4549000    0.5245237   -5.5564819    1600.1909  0.029313969  0.028071468           30 
 4550000   0.52112871   -5.5602033    1602.4477  0.029348859  0.028063841           60 
 4551000   0.52876525   -5.5537294    1602.1344  0.029336673  0.028056221           32 
 4552000   0.51485076   -5.5584141    1602.2877  0.029333036  0.028048593           49 
 4553000   0.51936351   -5.5620856    1602.8539  0.029336955  0.028040992           41 
 4554000   0.51907109   -5.5957558    1601.1649  0.029299606  0.028033361           83 
 4555000   0.52510318   -5.5781818    1601.7304  0.029303521  0.028025721           84 
 4556000   0.52010715   -5.5606538    1601.6021   0.02929474  0.028018112          101 
 4557000   0.51581206   -5.5730822    1600.1841  0.029262382  0.028010501           49 
 4558000   0.52829373   -5.5720602    1603.8291  0.029322602  0.028002891           83 
 4559000   0.52611079   -5.5771108    1602.7393  0.029296251  0.027995274           90 
 4560000   0.52100605    -5.571007    1603.0478  0.029295464  0.027987648          130 
 4561000   0.52100405   -5.5622464    1605.5862  0.029335419  0.027980043          120 
 4562000    0.5238002   -5.5770168    1604.4387  0.029308028  0.027972444           50 
 4563000   0.51961207   -5.5755198    1601.4411   0.02924686  0.027964846           78 
 4564000   0.53213547    -5.591361    1601.9223  0.029249238   0.02795723           72 
 4565000   0.53191652   -5.5869595    1602.6793   0.02925665  0.027949624          138 
 4566000   0.51850145   -5.5839674    1603.4089  0.029263558  0.027942004          201 
 4567000   0.51988359   -5.5910824    1600.5658  0.029205274  0.027934375           76 
 4568000   0.52803873   -5.5755505    1604.5217  0.029271047  0.027926754           78 
 4569000   0.52184523    -5.595964    1602.4374  0.029226624  0.027919142           75 
 4570000   0.51837068     -5.58124    1602.6545  0.029224188  0.027911528          111 
 4571000   0.52173361   -5.5830183    1603.6633  0.029236186  0.027903911          115 
 4572000   0.52236659   -5.5802582    1599.2184  0.029148775  0.027896291          132 
 4573000   0.50873839   -5.5966515    1602.4918  0.029202051  0.027888672          101 
 4574000   0.51834203   -5.6004677    1599.7752  0.029146175   0.02788104           74 
 4575000   0.50789534   -5.6088466     1600.009  0.029144061  0.027873397          141 
 4576000   0.51188433   -5.5851077    1599.5972  0.029130193  0.027865771          169 
 4577000   0.52593388   -5.6021966    1600.7906  0.029145557  0.027858163          314 
 4578000   0.52031705   -5.5734971    1605.1206  0.029218011  0.027850531          141 
 4579000   0.52190003   -5.5744476       1600.2   0.02912208  0.027842925          121 
 4580000   0.51771041   -5.5802697    1603.4563  0.029174968  0.027835334          128 
 4581000     0.521717   -5.5779639    1601.7619  0.029137777  0.027827748          146 
 4582000   0.52276653   -5.5889216    1603.9146  0.029170569   0.02782016          157 
 4583000   0.51888064   -5.5713948     1603.336  0.029153684  0.027812584          164 
 4584000   0.51305909   -5.5778178    1599.7806  0.029082691  0.027804992          114 
 4585000   0.52060609   -5.5878293    1602.6987  0.029129385    0.0277974          130 
 4586000   0.51686122   -5.5930126    1603.5395   0.02913831   0.02778981          105 
 4587000   0.53081174     -5.57416    1602.1274  0.029106304  0.027782229          134 
 4588000   0.51232641   -5.5881666    1604.1206  0.029136163  0.027774643           87 
 4589000    0.5091199   -5.5985265    1599.5873  0.029047493  0.027767062           85 
 4590000   0.50119206   -5.5695291    1600.8731  0.029064509  0.027759472           74 
 4591000   0.52126334   -5.5731811    1598.5713  0.029016396   0.02775189          100 
 4592000   0.51760559   -5.5907027    1597.7978   0.02899604  0.027744298          124 
 4593000   0.51729532   -5.5923823    1601.7517  0.029061465  0.027736721          228 
 4594000   0.51387019   -5.5719065    1604.8181  0.029110763  0.027729141          107 
 4595000   0.51494424    -5.584032    1602.7122  0.029066235  0.027721583          108 
 4596000   0.51710463   -5.5852528    1600.5556  0.029020808  0.027714024          180 
 4597000   0.51947419   -5.5994715    1600.8723  0.029020236  0.027706466          127 
 4598000   0.52101205   -5.5599652    1603.6051  0.029063452  0.027698918           73 
 4599000   0.50891804   -5.5796526    1599.4284  0.028981453  0.027691397          100 
 4600000   0.52542929   -5.5833585    1601.7542  0.029017287  0.027683847           75 
 4601000   0.52149409   -5.5891962    1602.3231  0.029021283  0.027676288           85 
 4602000   0.51934986   -5.5968751    1604.7429  0.029058795  0.027668724          101 
 4603000   0.51852645   -5.5752948     1598.761  0.028944186  0.027661189          103 
 4604000   0.50576386   -5.5727061    1597.8435  0.028921291  0.027653672           71 
 4605000   0.52328634   -5.5719105    1604.2502  0.029030949  0.027646157           66 
 4606000   0.51768961   -5.5833505    1603.3079  0.029007598  0.027638618           47 
 4607000   0.52012608   -5.5921074    1600.7251  0.028954581  0.027631072           60 
 4608000   0.52147907   -5.5897439    1600.1057  0.028937096  0.027623519           75 
 4609000   0.50455629   -5.6068642    1601.7443  0.028960445  0.027615971           68 
 4610000   0.50101163   -5.5765332    1602.7232  0.028971858  0.027608431           72 
 4611000    0.5065412    -5.582217    1601.9098  0.028950874  0.027600891           32 
 4612000    0.5018881   -5.5879971     1599.983  0.028909783  0.027593356           55 
 4613000   0.50254707   -5.5925891    1599.4875  0.028894565  0.027585816           77 
 4614000   0.51570274   -5.6044012    1598.9827  0.028879184  0.027578278           84 
 4615000   0.51240366   -5.6065511    1600.4656  0.028899704  0.027570739           87 
 4616000   0.51370105   -5.6255764    1598.7782  0.028862981  0.027563176           74 
 4617000   0.52014425   -5.6021294    1602.4192  0.028922446  0.027555614           56 
 4618000   0.51120649   -5.5956297    1598.4662   0.02884485  0.027548075           43 
 4619000   0.50987349   -5.5940452    1599.2429  0.028852618  0.027540546           72 
 4620000   0.51687417   -5.5883862    1601.7459   0.02889152   0.02753302           90 
 4621000    0.5147504   -5.5779881    1602.1497  0.028892551  0.027525507           61 
 4622000   0.51102742   -5.5761868    1602.1435  0.028886187     0.027518           54 
 4623000   0.51846635    -5.587141    1599.7077  0.028836032  0.027510486           28 
 4624000   0.52076927   -5.5942897    1601.9685   0.02887054  0.027502957           72 
 4625000   0.49309901   -5.6115452    1602.6137  0.028875922  0.027495427          111 
 4626000   0.51129385   -5.6051266    1598.3787   0.02879339  0.027487906           88 
 4627000   0.51043865   -5.5929623    1599.0815  0.028799825  0.027480384           90 
 4628000   0.51375697   -5.5893236    1601.4785  0.028836764  0.027472873           79 
 4629000   0.50878349   -5.6002995    1602.0657  0.028841106  0.027465354          118 
 4630000   0.50585612   -5.6020825    1601.6478  0.028827355  0.027457842           65 
 4631000   0.50808907   -5.6132433    1601.5297  0.028819004  0.027450326           74 
 4632000   0.52135404   -5.6030949    1603.5857  0.028849772  0.027442819          139 
 4633000   0.52026593   -5.6104918    1597.6835  0.028737383  0.027435313          124 
 4634000   0.50942261   -5.6092485    1600.8954   0.02878894  0.027427813           98 
 4635000   0.50811871   -5.6014458    1601.0467   0.02878545  0.027420322           87 
 4636000   0.50362397   -5.6110737    1601.6783  0.028790594  0.027412818           71 
 4637000   0.50869217   -5.6062464    1600.2265  0.028758295  0.027405299           80 
 4638000   0.50858428   -5.6132181    1600.5239  0.028757436  0.027397791           32 
 4639000   0.49607312   -5.5799264     1604.037  0.028814346  0.027390298           88 
 4640000   0.50572207   -5.6060554    1602.3718  0.028778229   0.02738282           59 
 4641000   0.51404598   -5.6066054     1596.949  0.028674657  0.027375322           27 
 4642000   0.50834793   -5.6096704    1598.5276  0.028696818  0.027367824           34 
 4643000   0.51310327   -5.6125281    1600.5664  0.028727231  0.027360297           23 
 4644000   0.52279423   -5.6242414    1599.6129  0.028703936  0.027352759           60 
 4645000   0.51583282   -5.6028403    1595.0895  0.028616605  0.027345243           41 
 4646000   0.50213259   -5.6066065    1596.6654   0.02863871  0.027337724           68 
 4647000   0.50339569   -5.5932831    1599.4794   0.02868301  0.027330209           29 
 4648000   0.51215447   -5.6206864    1599.2747  0.028673169  0.027322679           23 
 4649000   0.51490353   -5.6201916    1597.1523  0.028628957  0.027315155           83 
 4650000   0.51118798    -5.603336    1598.8369  0.028652992  0.027307655           54 
 4651000   0.51877861   -5.6285001    1598.1684  0.028634853   0.02730014           69 
 4652000   0.49975485   -5.6250167    1599.2797  0.028648604  0.027292634           49 
 4653000   0.50149275    -5.624928    1598.2585  0.028624158  0.027285116           59 
 4654000   0.50392204   -5.6344935     1599.064   0.02863243    0.0272776           42 
 4655000   0.50655383   -5.6120747    1599.6502  0.028636774  0.027270097           44 
 4656000   0.50937672   -5.6182697    1599.6955  0.028631435  0.027262595           64 
 4657000   0.51548401   -5.6317123    1593.0182  0.028505802  0.027255073          112 
 4658000   0.50917602   -5.6140262    1598.5842  0.028599259  0.027247552           60 
 4659000   0.49145367   -5.6305435    1597.4071  0.028572067  0.027240037          135 
 4660000   0.50753216   -5.6233332    1598.5888  0.028587067  0.027232526           85 
 4661000   0.49929427   -5.6256303     1596.061   0.02853574  0.027225014           92 
 4662000   0.51259522   -5.6277602    1597.5633  0.028556473  0.027217502           64 
 4663000   0.50456228   -5.6310987    1596.6958  0.028534845  0.027209988           52 
 4664000   0.49130504   -5.6129698    1598.5642   0.02856211  0.027202472           63 
 4665000   0.50733656   -5.6241213    1597.5106  0.028537166  0.027194985           43 
 4666000   0.50891447   -5.6154484    1599.0018  0.028557683  0.027187489           60 
 4667000   0.50256553   -5.6239073    1598.2968  0.028538975  0.027179986           72 
 4668000   0.50461703   -5.6192282    1599.8859  0.028561231   0.02717252           43 
 4669000   0.50742571    -5.619541    1598.9502  0.028538413  0.027165059           64 
 4670000   0.50264861   -5.6222982    1598.8643  0.028530768  0.027157595           81 
 4671000   0.51369044   -5.6034266    1599.7505  0.028540471  0.027150146           56 
 4672000   0.49589908   -5.6296485    1597.8978  0.028501317  0.027142702           38 
 4673000   0.50534611   -5.6156461     1598.011  0.028497237  0.027135252           60 
 4674000   0.49898451   -5.6070258    1602.3795  0.028569026  0.027127803           42 
 4675000   0.50102259   -5.6023615    1602.2832  0.028561197  0.027120369           53 
 4676000   0.50354112   -5.5973377    1600.1919   0.02851782  0.027112943           40 
 4677000   0.50871773   -5.5948115    1600.8248  0.028522999  0.027105523           51 
 4678000   0.51088075    -5.607396    1599.5496  0.028494185  0.027098089           72 
 4679000    0.5065398    -5.608445    1599.7586  0.028491819  0.027090638           39 
 4680000   0.50819973   -5.5947275    1599.8399  0.028487177  0.027083205           44 
 4681000   0.50659172   -5.6168807    1599.6527   0.02847776  0.027075774           38 
 4682000   0.50315357   -5.6195158    1598.8513  0.028457413  0.027068334           92 
 4683000   0.49700265   -5.6242603    1600.2912  0.028476959  0.027060895           24 
 4684000   0.49821454   -5.6138373    1596.6545  0.028406178  0.027053429           31 
 4685000   0.49279049   -5.6209832     1597.089  0.028407843  0.027045968           30 
 4686000   0.50266173    -5.630103    1596.3652  0.028388911  0.027038499           54 
 4687000   0.51024234    -5.630689    1597.0241  0.028394568  0.027031045          106 
 4688000   0.50230884   -5.6145085    1599.9193  0.028439977  0.027023585           57 
 4689000   0.50318054   -5.6125395    1597.8903  0.028397851  0.027016142           37 
 4690000   0.50371329   -5.6285141    1597.7761  0.028389767  0.027008683           35 
 4691000   0.50324121   -5.6195121    1597.0097    0.0283701  0.027001231           29 
 4692000   0.50584784   -5.6158787    1599.9924  0.028417029   0.02699378           25 
 4693000   0.49930918   -5.6204354    1596.6472  0.028351572  0.026986337           31 
 4694000   0.48961646   -5.6176202    1600.5332  0.028414522  0.026978917           41 
 4695000   0.49420977    -5.612048    1600.5802  0.028409304  0.026971492           40 
 4696000   0.50973007   -5.6335707    1597.3153  0.028345318  0.026964084           50 
 4697000   0.49542115   -5.6187052     1595.514  0.028307325  0.026956668           33 
 4698000   0.51076542   -5.6119613    1601.0224  0.028399006  0.026949271           46 
 4699000   0.50945416   -5.6003918    1601.0315  0.028393125  0.026941884           22 
 4700000   0.50034368   -5.6205359    1600.6615  0.028380523  0.026934498           33 
 4701000   0.50854258   -5.6139501    1601.9489  0.028397307  0.026927125           15 
 4702000   0.49617528   -5.6226636    1599.0718  0.028340277   0.02691974           29 
 4703000   0.49224726   -5.6071132    1600.9762  0.028367995  0.026912383           71 
 4704000   0.50649513    -5.607453    1600.5157  0.028353807  0.026904982           35 
 4705000   0.50222743   -5.6066383     1597.019  0.028285849  0.026897594           34 
 4706000   0.50132223    -5.632122    1601.7483  0.028363584  0.026890198           34 
 4707000   0.49062825   -5.6176881     1597.258  0.028278061  0.026882809           25 
 4708000   0.49647046    -5.625261    1597.1426  0.028270012  0.026875414          118 
 4709000   0.49295189   -5.6261816    1600.4471  0.028322488  0.026868036           64 
 4710000   0.50687533   -5.6150421    1600.4285  0.028316145  0.026860666           31 
 4711000   0.49794809   -5.6065107    1600.2509  0.028306992  0.026853293           98 
 4712000   0.50271243   -5.6169637    1596.7527  0.028239118  0.026845906           68 
 4713000   0.50306645   -5.6214567    1597.4738  0.028245876  0.026838541           84 
 4714000   0.49755498   -5.6176958    1599.7005  0.028279248  0.026831163           60 
 4715000   0.50169702   -5.6264524    1598.0632  0.028244313  0.026823797           59 
 4716000   0.50610288   -5.6103835    1600.4378  0.028280284  0.026816432           40 
 4717000   0.49784425   -5.6303113    1599.1626   0.02825176  0.026809074           76 
 4718000   0.49334198   -5.6263415    1598.4512  0.028233206  0.026801708           46 
 4719000   0.50464956     -5.61887    1597.6443  0.028212974  0.026794359           77 
 4720000   0.50341016   -5.6227408    1599.6139   0.02824177   0.02678699           50 
 4721000   0.49267164   -5.6476461     1598.804  0.028221492  0.026779603           63 
 4722000   0.50294623   -5.6273125    1598.8743  0.028216756  0.026772242           56 
 4723000   0.49275003   -5.6304371    1599.5856  0.028223332  0.026764896           68 
 4724000   0.48788046   -5.6303826    1597.6497  0.028183208  0.026757531           69 
 4725000   0.50310168    -5.631086    1600.4549  0.028226718  0.026750166          110 
 4726000   0.48862499   -5.6169512    1600.6501  0.028224188  0.026742796           83 
 4727000   0.48817768   -5.6161313    1597.1105  0.028155815  0.026735445           79 
 4728000    0.5009474   -5.6356061     1600.583  0.028211066  0.026728089           28 
 4729000   0.49228555   -5.6333055    1599.1069  0.028179089  0.026720742          137 
 4730000   0.49654202   -5.6003852    1594.1097  0.028085089  0.026713387          147 
 4731000    0.4938539   -5.6320345    1599.9399  0.028181848  0.026706018          148 
 4732000   0.47998334   -5.6304711    1600.2552  0.028181446  0.026698648          172 
 4733000   0.48836689   -5.6274881       1595.4  0.028090007   0.02669129          126 
 4734000   0.49617998   -5.6412141    1594.4352  0.028067089  0.026683921           74 
 4735000   0.49712156    -5.643567    1597.7725  0.028119897  0.026676549          107 
 4736000   0.49879599   -5.6354864    1598.0103  0.028118143  0.026669178          405 
 4737000   0.50145151   -5.6375836    1599.9871  0.028146983  0.026661821          166 
 4738000   0.50418431   -5.6373301    1597.7202  0.028101171  0.026654481          213 
 4739000   0.49897159   -5.6563545    1596.8562  0.028080048  0.026647118          208 
 4740000   0.49422655   -5.6273656    1595.0111  0.028041686  0.026639761           93 
 4741000   0.49152266   -5.6161655    1601.1654  0.028143947  0.026632419          178 
 4742000   0.49937225   -5.6144848    1597.8953  0.028080544   0.02662508          200 
 4743000   0.48863433   -5.6258042    1598.8971  0.028092226  0.026617752          132 
 4744000   0.48844886    -5.610535    1599.3564  0.028094372  0.026610428          283 
 4745000   0.48993897   -5.6445014    1598.3065  0.028070012  0.026603112          171 
 4746000    0.4925868   -5.6362015    1597.1046  0.028042994  0.026595764          298 
 4747000   0.50763317   -5.6268267    1595.5112  0.028009114  0.026588409          149 
 4748000    0.4879756   -5.6279242    1597.3425  0.028035356   0.02658107          135 
 4749000    0.4967887   -5.6494367    1596.4964  0.028014607  0.026573741          224 
 4750000   0.47726618   -5.6440154    1598.0292  0.028035601  0.026566393          305 
 4751000   0.49121959   -5.6544163    1597.3717  0.028018166  0.026559039          305 
 4752000   0.49769259   -5.6465081    1593.7063  0.027947992  0.026551686          168 
 4753000    0.4990395   -5.6476473    1597.2389  0.028004049   0.02654432          213 
 4754000   0.48255768   -5.6309422    1597.8302  0.028008523  0.026536967          120 
 4755000   0.50608477   -5.6426519    1596.1665  0.027973475  0.026529602          196 
 4756000   0.48745005   -5.6508623    1597.9079  0.027998105   0.02652226          247 
 4757000   0.48964381   -5.6311315    1594.5727  0.027933794  0.026514909          239 
 4758000   0.49521802   -5.6470074    1597.4166  0.027977732   0.02650757          210 
 4759000   0.48950408   -5.6335461    1598.2914  0.027987171  0.026500256          242 
 4760000   0.49032719   -5.6157723    1598.7687  0.027989647  0.026492947          169 
 4761000    0.4921509   -5.6055347    1599.3222  0.027993458  0.026485651          217 
 4762000   0.49117042   -5.6426492    1597.9938  0.027964332  0.026478357          231 
 4763000   0.49128063   -5.6449061    1597.2265  0.027945036  0.026471048          197 
 4764000   0.49316849   -5.6485412    1598.6106  0.027963382  0.026463731          190 
 4765000   0.49317035    -5.649028    1598.7994  0.027960814  0.026456421          221 
 4766000   0.48023901   -5.6438151    1594.1809  0.027874195  0.026449107          192 
 4767000   0.49098476   -5.6376428    1597.5518  0.027927275  0.026441795          183 
 4768000   0.48443569   -5.6388957    1595.7034  0.027889112  0.026434488          224 
 4769000   0.48312691    -5.647978    1597.1261  0.027908124  0.026427175          206 
 4770000   0.50060704   -5.6463707    1596.0191  0.027882933  0.026419862          204 
 4771000   0.48726408   -5.6543044    1595.3239  0.027864946   0.02641256          209 
 4772000   0.48932612   -5.6375313    1595.3284  0.027859186  0.026405251          192 
 4773000   0.48790207   -5.6369535    1593.8488  0.027827516  0.026397951          246 
 4774000   0.49288928   -5.6549838    1596.8403  0.027873905  0.026390652          188 
 4775000   0.48523517   -5.6499739    1596.8373  0.027868016  0.026383336          318 
 4776000   0.48728609   -5.6524007    1592.1388    0.0277802  0.026376045          349 
 4777000   0.47846334   -5.6461096    1592.7274  0.027784653   0.02636873          311 
 4778000   0.49735763   -5.6563042    1594.7684  0.027814435  0.026361415          270 
 4779000    0.4848777    -5.647286    1597.6494   0.02785885  0.026354098          240 
 4780000   0.48127677   -5.6509131     1594.486  0.027797873  0.026346763          320 
 4781000   0.47969256   -5.6501702    1595.8258  0.027815411   0.02633944          360 
 4782000   0.49264573   -5.6574144    1594.8108  0.027791907  0.026332123          339 
 4783000   0.48926927   -5.6542782    1592.6412  0.027748296  0.026324816          245 
 4784000   0.48039383   -5.6536603    1596.4767  0.027809307  0.026317511          335 
 4785000   0.48322267   -5.6692083    1594.7413  0.027773272    0.0263102          429 
 4786000   0.48220846   -5.6624111    1597.1059  0.027808642  0.026302902          311 
 4787000   0.48529384   -5.6556508    1596.5455  0.027793077  0.026295598          348 
 4788000   0.48459398   -5.6552554    1597.7797  0.027808753  0.026288289          327 
 4789000   0.48089979   -5.6781971    1594.0934    0.0277388  0.026280986          414 
 4790000   0.48956118   -5.6621687     1598.772  0.027814404  0.026273688          453 
 4791000   0.48584605   -5.6682676    1593.0231  0.027708605  0.026266395          352 
 4792000   0.48836865   -5.6624673    1593.1398  0.027704852  0.026259106          422 
 4793000   0.49032193   -5.6489077    1595.4025  0.027738413  0.026251805          294 
 4794000   0.48968902   -5.6630224    1596.0864  0.027744514  0.026244518          321 
 4795000   0.47835449   -5.6643898    1593.8955  0.027700652  0.026237215          315 
 4796000   0.47982399   -5.6597477    1595.3354  0.027719895  0.026229918          421 
 4797000   0.48377515    -5.663606    1591.0983   0.02764051  0.026222635          196 
 4798000   0.48285017   -5.6582998    1597.1772  0.027740329  0.026215349          232 
 4799000    0.4834971   -5.6674192    1593.6151  0.027672694  0.026208044          183 
 4800000   0.48476386   -5.6577252    1592.5028  0.027647618   0.02620077          302 
 4801000   0.47380121   -5.6558638    1595.0042  0.027685277  0.026193499          168 
 4802000    0.4853975    -5.654315    1594.7004   0.02767424  0.026186241          236 
 4803000   0.47913896   -5.6513206    1595.1792  0.027676786  0.026178984          246 
 4804000   0.48136286   -5.6738822    1596.9587  0.027701892  0.026171723          209 
 4805000   0.49000206   -5.6586979    1592.5035   0.02761886  0.026164475          183 
 4806000   0.48794479   -5.6535763    1593.0991  0.027623442  0.026157221          233 
 4807000   0.48390946   -5.6765664    1595.2732  0.027655384  0.026149965          219 
 4808000   0.48153376   -5.6775855    1592.8183  0.027607084  0.026142701          396 
 4809000   0.48504805   -5.6730647    1592.1782  0.027590251  0.026135424          295 
 4810000   0.47301168   -5.6588844    1596.4034  0.027657717  0.026128148          226 
 4811000   0.47597435   -5.6778186    1593.5427  0.027602416  0.026120874          282 
 4812000   0.48667422   -5.6682554    1592.1885  0.027573229  0.026113607          244 
 4813000   0.47533788    -5.669179    1594.2385  0.027602994  0.026106349          271 
 4814000   0.48260856   -5.6674953    1594.9421   0.02760944  0.026099094          198 
 4815000   0.46776679   -5.6620881     1596.433  0.027629509  0.026091838          212 
 4816000   0.48388613   -5.6608805    1595.7531  0.027612006  0.026084585          332 
 4817000   0.48580213   -5.6702088    1594.0615   0.02757701  0.026077331          347 
 4818000   0.49193242   -5.6747608    1591.7465  0.027531246  0.026070088          345 
 4819000   0.48318324   -5.6558145    1593.9354  0.027563384  0.026062831          360 
 4820000   0.48170158   -5.6757237    1593.9654  0.027558184  0.026055567          404 
 4821000   0.48175935   -5.6809383    1596.5045  0.027596358  0.026048312          295 
 4822000   0.47276142   -5.6736538      1594.18  0.027550463  0.026041064          323 
 4823000   0.47642312   -5.6715215    1592.3665  0.027513417  0.026033802          314 
 4824000    0.4756467   -5.6585602    1593.2782  0.027523463  0.026026552          296 
 4825000   0.49833248   -5.6685555    1594.5469   0.02753967  0.026019315          273 
 4826000   0.47608055    -5.666708    1593.2771  0.027512037   0.02601207          254 
 4827000   0.47780349   -5.6782996    1591.7532  0.027480028  0.026004831          312 
 4828000   0.48647533   -5.6844091    1589.0128  0.027427036  0.025997563          322 
 4829000   0.47353076    -5.684085    1593.0269  0.027490628  0.025990308          373 
 4830000   0.47708655   -5.6775444    1591.8235  0.027464174  0.025983054          423 
 4831000    0.4758377   -5.6749371     1590.808  0.027440972  0.025975814          394 
 4832000   0.48241992   -5.6779182    1589.7525  0.027417089   0.02596857          351 
 4833000     0.471861   -5.6713528     1593.479  0.027475671  0.025961319          334 
 4834000   0.48995708   -5.6685067    1595.4972  0.027504778  0.025954087          359 
 4835000   0.48615338   -5.6712608    1596.1005  0.027509488  0.025946867          340 
 4836000   0.47625924    -5.670177    1596.0432  0.027502812  0.025939649          483 
 4837000    0.4747192   -5.6886367    1590.5524   0.02740253  0.025932423          563 
 4838000   0.48131302   -5.6804881    1592.6456   0.02743292  0.025925186          621 
 4839000   0.48516388   -5.6898679    1589.6213  0.027375169  0.025917945          552 
 4840000   0.47215475   -5.6825927    1592.8403  0.027424937    0.0259107          569 
 4841000   0.48831529   -5.6887093    1594.3736  0.027445665  0.025903456          497 
 4842000   0.47235523   -5.6809996    1592.4382  0.027406688  0.025896219          535 
 4843000   0.47515652   -5.6680764    1591.3544  0.027382379  0.025888978          546 
 4844000   0.47823444   -5.6735842    1591.4654  0.027378637  0.025881747          582 
 4845000   0.48205398   -5.6826654     1592.577  0.027392105  0.025874503          494 
 4846000   0.45842255   -5.6948907    1593.6611  0.027405095  0.025867264          470 
 4847000    0.4758289   -5.6781108    1592.9299   0.02738687  0.025860031          453 
 4848000   0.47983037   -5.6789427    1594.5989   0.02740991  0.025852797          521 
 4849000   0.47366197   -5.6761184     1591.125  0.027344556  0.025845578          494 
 4850000   0.46991957   -5.6818402    1590.3341  0.027325328   0.02583836          505 
 4851000    0.4823981   -5.6836442    1591.5178   0.02734003   0.02583115          468 
 4852000   0.47729819   -5.6831525    1596.4627  0.027419323  0.025823935          517 
 4853000   0.47687866   -5.6890118    1591.2553  0.027324254  0.025816718          532 
 4854000   0.47822544   -5.6748328    1591.9829  0.027331117  0.025809496          376 
 4855000   0.47413718   -5.6891184    1592.3553   0.02733188  0.025802275          456 
 4856000   0.47518866   -5.6910924    1591.5423  0.027312299  0.025795069          517 
 4857000   0.47328055   -5.6777365     1591.165  0.027300203  0.025787873          472 
 4858000    0.4767138   -5.6829888    1594.9635  0.027359742  0.025780683          415 
 4859000   0.47213812   -5.6703472    1592.0913  0.027304852  0.025773488          453 
 4860000   0.47330939   -5.6831325    1590.2286  0.027267295  0.025766282          509 
 4861000    0.4701456   -5.6904259    1593.1249  0.027311337  0.025759062          586 
 4862000   0.47973122   -5.6862175    1595.0759  0.027339159  0.025751839          425 
 4863000   0.48195979   -5.6949703    1590.2715  0.027251207  0.025744627          520 
 4864000   0.47827155   -5.6753418    1590.0383   0.02724161  0.025737406          584 
 4865000   0.47446335   -5.7019079    1590.8988   0.02725075  0.025730202          598 
 4866000   0.47130757   -5.7078851    1591.9703    0.0272635  0.025722998          578 
 4867000   0.47042689   -5.6835089    1590.8034  0.027237918  0.025715779          581 
 4868000   0.47443341   -5.6892685     1592.116  0.027254792  0.025708583          561 
 4869000   0.46763685   -5.6924507     1590.984  0.027229822  0.025701391          515 
 4870000   0.47163299   -5.6974847    1591.2964  0.027229575  0.025694205          589 
 4871000   0.47025424   -5.6880055    1590.0136   0.02720204  0.025687014          501 
 4872000   0.46950523   -5.6857102    1592.0673  0.027231583  0.025679833          586 
 4873000   0.47438882   -5.7013437    1591.0663  0.027208877  0.025672639          568 
 4874000   0.47119233   -5.6975842    1591.3071  0.027207411  0.025665455          505 
 4875000   0.46778696   -5.6869347    1589.4786  0.027170574  0.025658283          640 
 4876000   0.45989545   -5.6965811      1589.78  0.027170152  0.025651086          512 
 4877000   0.47452531   -5.7113806    1593.3524  0.027225624  0.025643898          587 
 4878000    0.4649087   -5.7040324    1590.8627   0.02717751  0.025636701          520 
 4879000    0.4642369   -5.6934117     1591.209  0.027177854  0.025629512          556 
 4880000   0.46875036   -5.7188526      1588.13  0.027119707  0.025622331          591 
 4881000   0.46623725   -5.6927882    1591.7029  0.027175151  0.025615155          573 
 4882000   0.46985518    -5.708914    1591.0593  0.027158598  0.025607978          528 
 4883000    0.4709308   -5.6931471    1593.9433  0.027202255  0.025600807          618 
 4884000    0.4655122   -5.6865882    1592.0867  0.027165007  0.025593635          611 
 4885000   0.47036473   -5.7030347    1591.8691  0.027155733  0.025586465          644 
 4886000   0.47481264   -5.6985784    1589.4409  0.027108762  0.025579281          759 
 4887000   0.46031519    -5.710805    1589.2014  0.027099131  0.025572096          797 
 4888000   0.46056631   -5.7093896    1588.7897  0.027086567  0.025564916          672 
 4889000   0.46674325   -5.7041509     1588.346  0.027073464  0.025557717          836 
 4890000   0.47223539   -5.7068958    1589.0389  0.027079736  0.025550524          811 
 4891000   0.47375511   -5.7199827    1589.0658  0.027074658  0.025543325          895 
 4892000   0.46588191   -5.7018696    1588.7664  0.027064022  0.025536131          823 
 4893000   0.46405629   -5.7125529    1591.1943  0.027099841  0.025528934          874 
 4894000   0.46243103   -5.7068666     1588.127  0.027042075   0.02552174          846 
 4895000   0.45958727   -5.7124779    1588.4031  0.027041252  0.025514554          866 
 4896000   0.47031308   -5.7066203    1589.8349  0.027060098  0.025507374          734 
 4897000   0.46894565   -5.7062158    1588.3291  0.027028948  0.025500197          769 
 4898000   0.46088895   -5.7065731    1590.0471   0.02705266  0.025493009          874 
 4899000   0.47661483   -5.7095107    1588.2474  0.027016524  0.025485842          865 
 4900000   0.47095918   -5.6949879    1585.8386  0.026970044  0.025478678          825 
 4901000   0.47501823   -5.6996298      1589.28  0.027023056  0.025471522          811 
 4902000   0.46593606   -5.7041914    1588.6319  0.027006527  0.025464367          785 
 4903000   0.46603268   -5.6994644    1586.1719  0.026959207  0.025457208          841 
 4904000   0.46888546   -5.7260398    1587.7665  0.026980806  0.025450039          918 
 4905000   0.45942826   -5.7039041    1590.3623  0.027019407   0.02544287          805 
 4906000   0.46637188   -5.7196879    1587.3994  0.026963571  0.025435699          863 
 4907000   0.46537621   -5.7080294    1587.7461  0.026963965   0.02542852          825 
 4908000   0.46472594   -5.7073382    1588.3914  0.026969428  0.025421343          872 
 4909000   0.46184535   -5.7123941    1587.3964  0.026947043  0.025414174          874 
 4910000   0.47472834   -5.7215363     1586.985  0.026934573   0.02540701          971 
 4911000   0.46070161   -5.7301583    1587.4631    0.0269372  0.025399836         1054 
 4912000   0.45900625   -5.7301407     1587.293  0.026928832  0.025392664          964 
 4913000   0.45128026     -5.71941    1587.2222  0.026922149  0.025385487          922 
 4914000   0.45594995   -5.7112184    1586.5008  0.026904437  0.025378314          940 
 4915000   0.46153548   -5.7268214    1586.5433  0.026899683  0.025371148          959 
 4916000    0.4667141    -5.704592    1586.3957  0.026891709  0.025363993          928 
 4917000   0.46230993   -5.7195369    1587.4464  0.026904047  0.025356846          872 
 4918000   0.47130986   -5.7068111    1585.8076  0.026870808  0.025349698          955 
 4919000   0.47678284   -5.7224693    1584.8599  0.026849291  0.025342537          898 
 4920000   0.47034284   -5.7299465    1585.6932  0.026857948  0.025335377          929 
 4921000   0.46972604   -5.7224138    1588.4515  0.026899198   0.02532822          905 
 4922000   0.46897492   -5.7255803    1587.2081  0.026872682  0.025321044          938 
 4923000   0.46923554   -5.7267024    1587.5228  0.026872551  0.025313888          947 
 4924000   0.47144971   -5.7278017    1586.8719  0.026856077  0.025306719         1044 
 4925000    0.4662275   -5.7360985    1585.9705  0.026835372  0.025299548         1070 
 4926000   0.45730163   -5.7374779    1585.2476  0.026817694  0.025292385         1042 
 4927000   0.46462627    -5.741937    1584.3417  0.026796929  0.025285221         1065 
 4928000     0.465771   -5.7416824    1584.9375  0.026801568  0.025278066         1069 
 4929000   0.47177761   -5.7295391    1584.6222    0.0267908  0.025270902         1028 
 4930000   0.46361019   -5.7420573    1586.0299  0.026809159  0.025263749         1105 
 4931000   0.47422292   -5.7362159    1583.8458  0.026766812  0.025256604         1112 
 4932000   0.46394272   -5.7412523    1583.9487  0.026763124  0.025249439         1144 
 4933000   0.46479959   -5.7423861    1585.5206  0.026784253  0.025242289         1107 
 4934000   0.46722563   -5.7511266    1588.6663  0.026831953  0.025235132         1158 
 4935000   0.45802869   -5.7344954    1586.3984   0.02678822  0.025227983         1200 
 4936000   0.46529731   -5.7362474    1585.7129  0.026771219  0.025220825         1217 
 4937000    0.4584762    -5.729874    1584.9018  0.026752106  0.025213675         1179 
 4938000   0.46412659     -5.74022    1587.3563   0.02678811  0.025206516         1198 
 4939000   0.46965914   -5.7352764    1585.4457  0.026750451  0.025199355         1135 
 4940000    0.4654569   -5.7518928    1585.5608  0.026746977  0.025192208         1175 
 4941000   0.45468802   -5.7436133    1582.6496  0.026692465  0.025185048         1252 
 4942000   0.47405726    -5.762784    1585.7109  0.026738684  0.025177882         1232 
 4943000   0.46162658   -5.7628332    1584.9113  0.026719794  0.025170719         1292 
 4944000   0.45333341   -5.7583068     1588.273  0.026771053  0.025163563         1300 
 4945000   0.46335073   -5.7577373    1583.6465  0.026687672  0.025156398         1301 
 4946000   0.47043839   -5.7484984    1584.5057  0.026696753  0.025149239         1258 
 4947000    0.4602328     -5.76199    1582.5297  0.026658071  0.025142076         1263 
 4948000   0.45553544   -5.7486827    1581.8711  0.026641591  0.025134939         1257 
 4949000    0.4606643   -5.7553599    1585.4035  0.026695687   0.02512779         1169 
 4950000   0.45306469   -5.7673735    1583.9757  0.026666258  0.025120641         1324 
 4951000   0.45922101   -5.7548266    1582.8831  0.026642482  0.025113492         1211 
 4952000   0.46500215   -5.7647345      1585.32  0.026678109   0.02510635         1305 
 4953000   0.46235658   -5.7613458    1584.3684  0.026656712  0.025099197         1224 
 4954000   0.45965127   -5.7527131    1580.8902  0.026592824  0.025092045         1330 
 4955000    0.4680047   -5.7472017    1586.8081  0.026686984  0.025084904         1345 
 4956000   0.47101001   -5.7585124    1580.9287   0.02658274  0.025077762         1393 
 4957000   0.45651363   -5.7570506    1582.1261  0.026597507  0.025070621         1289 
 4958000   0.45317285   -5.7627121    1581.5781  0.026582931  0.025063469         1310 
 4959000   0.45214003   -5.7539882    1583.2416  0.026605525  0.025056331         1393 
 4960000   0.46106828   -5.7561255    1582.4815  0.026587391  0.025049181         1451 
 4961000   0.45914105   -5.7596294    1583.0377  0.026591374  0.025042044         1389 
 4962000   0.46305683   -5.7504844    1582.3399  0.026574296  0.025034903         1488 
 4963000   0.46092897   -5.7461157    1586.3626  0.026636487  0.025027783         1401 
 4964000   0.46372853   -5.7689594    1584.9916  0.026608106  0.025020658         1479 
 4965000   0.45363741   -5.7714032    1583.0314  0.026569845  0.025013525         1394 
 4966000   0.46270859   -5.7651646    1581.3689  0.026536597  0.025006397         1432 
 4967000   0.45566819   -5.7590095    1579.9172  0.026506899  0.024999274         1422 
 4968000    0.4706792   -5.7563679    1584.4458  0.026577526  0.024992158         1406 
 4969000   0.45541945   -5.7543977    1581.7143  0.026526369  0.024985032         1514 
 4970000   0.46001868   -5.7610886    1581.4098  0.026515926  0.024977895         1524 
 4971000   0.46640389   -5.7579694    1582.7466  0.026533001  0.024970758         1617 
 4972000    0.4734045   -5.7688286    1580.6644  0.026492767  0.024963618         1523 
 4973000   0.45552141   -5.7576865    1586.3228  0.026582257   0.02495647         1507 
 4974000   0.45027932   -5.7826791    1581.5338   0.02649668  0.024949336         1583 
 4975000   0.45654319   -5.7681382    1578.8155  0.026445822  0.024942193         1622 
 4976000   0.46062908   -5.7649727    1584.3295  0.026532849  0.024935053         1610 
 4977000   0.45208983   -5.7752436    1579.5719  0.026447859  0.024927914         1630 
 4978000   0.45135309   -5.7742884    1578.2787  0.026420897  0.024920778         1648 
 4979000   0.45436486   -5.7758348    1582.4226  0.026484947   0.02491365         1567 
 4980000   0.44757021   -5.7738465    1582.9214  0.026487975  0.024906518         1490 
 4981000   0.46405374   -5.7643071    1581.9124  0.026465777  0.024899392         1611 
 4982000   0.45629506   -5.7716664    1580.8528   0.02644274  0.024892269         1579 
 4983000   0.45588572   -5.7855441    1579.5908  0.026416328   0.02488513         1581 
 4984000   0.46158999   -5.7798728    1579.4499  0.026408673  0.024878003         1548 
 4985000    0.4462731   -5.7938991    1580.7152  0.026424527  0.024870885         1584 
 4986000    0.4716157   -5.7735173    1583.8164  0.026471059  0.024863764         1541 
 4987000   0.45210402   -5.7798837    1580.7775  0.026414971  0.024856639         1578 
 4988000   0.44723429   -5.7750153    1581.4742  0.026421314  0.024849518         1495 
 4989000    0.4549363   -5.7844597    1581.7729  0.026421008  0.024842398         1552 
 4990000   0.44248745   -5.7725055     1580.415  0.026393037  0.024835277         1629 
 4991000   0.44446889   -5.7979101    1580.5186  0.026389478  0.024828145         1678 
 4992000   0.45956512   -5.7841872    1578.6332  0.026352718  0.024821013         1627 
 4993000   0.45287326   -5.7783626    1580.1089  0.026372069   0.02481389         1644 
 4994000   0.45808248   -5.7924752    1579.6516  0.026359158  0.024806761         1622 
 4995000   0.45383015   -5.7840807    1578.4626  0.026334044  0.024799643         1672 
 4996000   0.44899717    -5.797033    1578.4629  0.026328778  0.024792526         1682 
 4997000   0.45437188   -5.7922585    1577.0656  0.026300207  0.024785401         1656 
 4998000   0.45005205   -5.7661229    1577.7026  0.026305566  0.024778284         1648 
 4999000   0.44598239   -5.7682222    1579.8463  0.026336039  0.024771168         1614 
 5000000   0.45175943   -5.7802381    1578.0095  0.026300159  0.024764059         1628 
 5001000   0.45464535   -5.7759695    1579.7749  0.026324317  0.024756965         1710 
 5002000   0.44470858   -5.7903146    1578.3638  0.026295545  0.024749862         1668 
 5003000   0.45375942   -5.7671804     1581.186  0.026337298  0.024742759         1649 
 5004000   0.44616184   -5.7721275    1581.2496  0.026333094  0.024735673         1778 
 5005000   0.45274693   -5.7741877    1579.0757  0.026291637  0.024728581         1706 
 5006000   0.45526606   -5.7846957    1579.2512  0.026289307  0.024721499         1727 
 5007000   0.44935496   -5.7639468    1580.5671  0.026305956  0.024714423         1665 
 5008000   0.45325771   -5.7758679    1578.1509  0.026260498  0.024707336         1706 
 5009000   0.45185313   -5.7768326    1581.5723  0.026312177  0.024700262         1790 
 5010000   0.44393987   -5.7778142    1579.6558  0.026275046  0.024693179         1593 
 5011000   0.44654081   -5.7749196    1576.2072  0.026212452  0.024686089         1717 
 5012000   0.43856366     -5.78316    1577.4139  0.026227287  0.024679016         1618 
Loop time of 12881.7 on 48 procs for 5000000 steps with 4000 atoms

Performance: 67071.980 tau/day, 388.148 timesteps/s
99.4% CPU use with 48 MPI tasks x no OpenMP threads

MPI task timing breakdown:
Section |  min time  |  avg time  |  max time  |%varavg| %total
---------------------------------------------------------------
Pair    | 908.16     | 961.63     | 1026.3     |  92.4 |  7.47
Neigh   | 85.547     | 89.444     | 93.849     |  21.1 |  0.69
Comm    | 823.78     | 876.29     | 935.3      |  90.8 |  6.80
Output  | 14.541     | 14.546     | 14.639     |   0.4 |  0.11
Modify  | 10771      | 10815      | 10863      |  24.9 | 83.95
Other   |            | 125.1      |            |       |  0.97

Nlocal:        83.3333 ave          92 max          79 min
Histogram: 7 8 5 13 5 4 3 2 0 1
Nghost:        2346.73 ave        2366 max        2325 min
Histogram: 3 1 3 6 8 10 8 2 3 4
Neighs:        15994.1 ave       17867 max       14536 min
Histogram: 5 3 5 7 11 5 7 2 0 3
FullNghs:      31988.7 ave       35467 max       30025 min
Histogram: 3 12 8 8 4 6 2 4 0 1

Total # of neighbors = 1535456
Ave neighs/atom = 383.86400
Neighbor list builds = 269141
Dangerous builds = 1

#clear
#
#next RN
#
#jump SELF
Total wall time: 3:34:45
