
units lj                  # Use reduced LJ style units
atom_style atomic         # Uncharged point particles
atom_modify map hash      # Needed for indexing of clusters etc
                          # Used to be able to find where atoms are in relation to each other.

lattice fcc 1.0 spacing 1 1 1
Lattice spacing in x,y,z = 1.5874011 1.5874011 1.5874011
region box block 0 10 0 10 0 10 units lattice
create_box 2 box
Created orthogonal box = (0.0000000 0.0000000 0.0000000) to (15.874011 15.874011 15.874011)
  3 by 4 by 4 MPI processor grid
create_atoms 1 box
Created 4000 atoms
  using lattice units in orthogonal box = (0.0000000 0.0000000 0.0000000) to (15.874011 15.874011 15.874011)
  create_atoms CPU = 0.002 seconds
set type 1 type/fraction 2 0.25 78393
Setting atom values ...
  1031 settings made for type/fraction
mass 1 1.0
mass 2 1.0
pair_style lj/cut  3.5
pair_modify tail  yes
pair_coeff 1  1  1.0  1.0   # Intearaction between 1 and 1 set with epsilon = 1 and sigma = 1
pair_coeff 1  2  1.5  0.8
pair_coeff 2  2  0.5  0.88

write_data data.0
System init for write_data ...
Neighbor list info ...
  update every 1 steps, delay 10 steps, check yes
  max neighbors/atom: 2000, page size: 100000
  master list distance cutoff = 3.8
  ghost atom cutoff = 3.8
  binsize = 1.9, bins = 9 9 9
  1 neighbor lists, perpetual/occasional/extra = 1 0 0
  (1) pair lj/cut, perpetual
      attributes: half, newton on
      pair build: half/bin/atomonly/newton
      stencil: half/bin/3d
      bin: standard
WARNING: Not all mixed pair coeffs generated from mixing. Use write_data with 'pair ij' option to store all pair coeffs. (../write_data.cpp:312)


#############################
#   M E L T   S Y S T E M   #
#############################

velocity all create 2.4 8172548 mom yes dist gaussian # Assign velocities
                                                    # Temperature 2.4, random number seed, zero linear momentum
                                                                                # Gaussian distribution

timestep 0.002   # simulation timestep
thermo 1000       # output thermodynamic data every 1000 steps bf 100

# Define a fix  in this case with index 1 applied to all
# particles in the simulation. This fix is for simulations
# in the anisotropic NPT ensemble. Note that we use the MTK
# correction.
fix 1 all npt temp 2.4 2.4 0.1 iso 5.68 5.68 0.5 mtk yes tchain 5 pchain 5 # Use NPT ensemble
                                                                         # Set temperature and pressure and damping
                                                                         # Numbers of thermostats in chain and in barostat
run 10000          # run for 10000 steps
Per MPI rank memory allocation (min/avg/max) = 3.642 | 3.644 | 3.648 Mbytes
Step Temp E_pair E_mol TotEng Press Volume 
       0          2.4   -6.7340002            0   -3.1349002   -3.8290783         4000 
    1000    2.3869751    -4.950301            0   -1.3707334    5.5265344    4299.8063 
    2000    2.3652664   -4.8847507            0   -1.3377381    5.6682893    4332.6657 
    3000    2.4280829   -4.9172488            0   -1.2760349    5.8776975    4298.6745 
    4000      2.38055   -4.8510161            0   -1.2810838    5.6894973    4343.6075 
    5000    2.3880423   -4.9131026            0   -1.3319347    5.4505886    4336.7886 
    6000    2.4096514   -4.9156901            0   -1.3021167    6.0233029    4281.0016 
    7000    2.3684752   -4.9692701            0   -1.4174455    5.6781947    4283.2616 
    8000    2.3987848   -4.9293275            0   -1.3320498    5.4951891    4320.2329 
    9000    2.3684436   -4.9072606            0   -1.3554834    5.6698796    4307.0896 
   10000    2.3880129   -4.9549754            0   -1.3738515    5.6526842    4289.7899 
Loop time of 2.33044 on 48 procs for 10000 steps with 4000 atoms

Performance: 741490.018 tau/day, 4291.030 timesteps/s
99.6% CPU use with 48 MPI tasks x no OpenMP threads

MPI task timing breakdown:
Section |  min time  |  avg time  |  max time  |%varavg| %total
---------------------------------------------------------------
Pair    | 1.0106     | 1.0752     | 1.1857     |   3.7 | 46.14
Neigh   | 0.19967    | 0.20734    | 0.23198    |   1.2 |  8.90
Comm    | 0.67741    | 0.79921    | 0.87765    |   4.9 | 34.29
Output  | 0.00023761 | 0.00024913 | 0.00038631 |   0.0 |  0.01
Modify  | 0.20433    | 0.23398    | 0.28264    |   4.5 | 10.04
Other   |            | 0.0145     |            |       |  0.62

Nlocal:        83.3333 ave          92 max          72 min
Histogram: 1 1 0 4 11 11 7 2 6 5
Nghost:        1565.23 ave        1592 max        1538 min
Histogram: 2 3 5 3 10 6 9 7 2 1
Neighs:        8887.06 ave       10034 max        7604 min
Histogram: 2 0 4 6 13 8 4 3 5 3

Total # of neighbors = 426579
Ave neighs/atom = 106.64475
Neighbor list builds = 909
Dangerous builds = 225

# Equilibrate just above the melting temperature to avoid step fn in T

fix 1 all npt temp 1.25 1.25 0.1 iso 5.68 5.68 0.5 mtk yes tchain 5 pchain 5
run 2000
Per MPI rank memory allocation (min/avg/max) = 3.643 | 3.645 | 3.649 Mbytes
Step Temp E_pair E_mol TotEng Press Volume 
   10000    2.3880129   -4.9549754            0   -1.3738515    5.6526842    4289.7899 
   11000    1.2446663   -6.7015517            0    -4.835019    5.6632437    3496.1482 
   12000    1.2805364   -6.7465488            0   -4.8262244    5.8169905    3476.1912 
Loop time of 0.539099 on 48 procs for 2000 steps with 4000 atoms

Performance: 641070.166 tau/day, 3709.897 timesteps/s
99.6% CPU use with 48 MPI tasks x no OpenMP threads

MPI task timing breakdown:
Section |  min time  |  avg time  |  max time  |%varavg| %total
---------------------------------------------------------------
Pair    | 0.23268    | 0.25947    | 0.286      |   2.3 | 48.13
Neigh   | 0.035037   | 0.037588   | 0.042058   |   0.7 |  6.97
Comm    | 0.16026    | 0.19042    | 0.22324    |   3.1 | 35.32
Output  | 4.8617e-05 | 4.9613e-05 | 6.3659e-05 |   0.0 |  0.01
Modify  | 0.040845   | 0.047038   | 0.055379   |   1.6 |  8.73
Other   |            | 0.004527   |            |       |  0.84

Nlocal:        83.3333 ave          90 max          73 min
Histogram: 2 2 1 2 7 9 5 11 5 4
Nghost:        1803.73 ave        1823 max        1775 min
Histogram: 2 1 1 2 6 12 7 11 2 4
Neighs:        10997.7 ave       12454 max        8866 min
Histogram: 1 0 3 4 9 7 9 10 1 4

Total # of neighbors = 527890
Ave neighs/atom = 131.97250
Neighbor list builds = 142
Dangerous builds = 14

#############################
# L I N E A R  Q U E N C H  #
#############################

# Define solid atoms. This closely follows ten Wolde  Ruiz-Montero and Frenkel  Faraday Discuss  1996  104  93-110
# Compute components of the per-atom q6 vector
compute q6 all orientorder/atom degrees 1 6 components 6 nnn NULL cutoff 1.3 # compute the Q6 parameter.
                                                                             # Use all neighbours within 1.3 unit cell.

# get number of connections
compute coord_number all coord/atom orientorder q6 0.5

# An atom is solid if it has 8 or more connections (of a possible 14)
variable is_solid atom c_coord_number>=8
group solid dynamic all var is_solid    # Must be dynamic to update
dynamic group solid defined

# do clustering
compute cluster solid cluster/atom 1.3 # Create a cluster where all atoms within are solid and max 1.3 units from another member

# define chunks one chunk per cluster
compute clus_chunks solid chunk/atom c_cluster nchunk every compress yes  # Says which atoms are in which chunk

# count the size of each chunk
compute size_chunks solid property/chunk clus_chunks count


# Find the maximum entry in the vector of chunk sizes
variable max_n equal max(c_size_chunks)


# Thermo style which includes this variable
# thermo_style custom step temp pe vol v_max_n

thermo ${N}  # Print the thermo information every 100 steps
thermo 1000  

# Reset the npt fix at a lower temperature (below freezing)
fix 1  all npt temp  ${temp} ${temp}  0.1  iso  5.68  5.68  0.5  mtk yes tchain  5  pchain  5
fix 1  all npt temp  0.45 ${temp}  0.1  iso  5.68  5.68  0.5  mtk yes tchain  5  pchain  5
fix 1  all npt temp  0.45 0.45  0.1  iso  5.68  5.68  0.5  mtk yes tchain  5  pchain  5

dump dmp2 all dcd ${N} traj.dcd
dump dmp2 all dcd 1000 traj.dcd


compute msd all msd com yes
variable twopoint equal c_msd[4]/6/(step*dt+1.0e-6)
fix 9 all vector 10 c_msd[4]
variable fit equal slope(f_9)/6/(10*dt)
thermo_style custom step temp pe c_msd[4] v_twopoint v_fit v_max_n

fix 1 all npt temp 1.25 ${temp} 0.1 iso 5.68 5.68 0.5 mtk yes tchain 5 pchain 5
fix 1 all npt temp 1.25 0.45 0.1 iso 5.68 5.68 0.5 mtk yes tchain 5 pchain 5
run 2000000 # 5000000  # Run for this many steps
Neighbor list info ...
  update every 1 steps, delay 10 steps, check yes
  max neighbors/atom: 2000, page size: 100000
  master list distance cutoff = 3.8
  ghost atom cutoff = 3.8
  binsize = 1.9, bins = 8 8 8
  4 neighbor lists, perpetual/occasional/extra = 1 3 0
  (1) pair lj/cut, perpetual
      attributes: half, newton on
      pair build: half/bin/atomonly/newton
      stencil: half/bin/3d
      bin: standard
  (2) compute orientorder/atom, occasional
      attributes: full, newton on
      pair build: full/bin/atomonly
      stencil: full/bin/3d
      bin: standard
  (3) compute coord/atom, occasional
      attributes: full, newton on
      pair build: full/bin/atomonly
      stencil: full/bin/3d
      bin: standard
  (4) compute cluster/atom, occasional
      attributes: full, newton on
      pair build: full/bin/atomonly
      stencil: full/bin/3d
      bin: standard
Per MPI rank memory allocation (min/avg/max) = 9.800 | 9.808 | 9.811 Mbytes
Step Temp PotEng c_msd[4] v_twopoint v_fit v_max_n 
   12000    1.2805364   -6.7465488 1.8571758e-30 1.2897054e-32 8.3333333e+20            4 
   13000    1.2365248   -6.7061369   0.53440372 0.0034256647  0.043433098            2 
   14000    1.2191653   -6.7121482    1.0284845 0.0061219316  0.041927028            5 
   15000    1.2448648   -6.7527074     1.513356 0.0084075328  0.041741425            2 
   16000    1.2513526   -6.7308857    2.0463552    0.0106581  0.042016313            3 
   17000    1.2448856     -6.75396    2.4953624  0.012232168  0.041690636            2 
   18000      1.23697   -6.7025005    2.9644762  0.013724426  0.041043312            1 
   19000    1.2652285   -6.7424704    3.4812209  0.015268512  0.040856124            4 
   20000    1.2567469   -6.7344069    3.9318697   0.01638279  0.040738716            1 
   21000     1.226531   -6.7070031    4.4663916  0.017723776  0.040664605            1 
   22000    1.2364162   -6.7181656    5.0616112  0.019172769  0.041061727            1 
   23000    1.2336385   -6.7293819    5.6535874  0.020484012  0.041603288            1 
   24000    1.2020123   -6.7212908     6.139111  0.021316357  0.042035599            2 
   25000    1.2618281   -6.7239814    6.7263598  0.022421199  0.042372606            1 
   26000    1.2457537   -6.7324244    7.1925647  0.023053092  0.042626191            3 
   27000    1.2545671   -6.7372002    7.6506194  0.023613022  0.042739114            1 
   28000    1.2542168    -6.689716     8.161702  0.024290779   0.04279274            2 
   29000    1.2308944   -6.7102704    8.7175949   0.02505056  0.042784665            1 
   30000    1.2266177   -6.7178897    9.1928448   0.02553568  0.042795481            1 
   31000    1.2559908   -6.7312043    9.6653362  0.025982086  0.042800974            1 
   32000    1.2700804   -6.7008926    10.183099  0.026518486  0.042762334            2 
   33000    1.2263346   -6.7426408    10.836661  0.027365306   0.04276957            1 
   34000     1.252127    -6.726119    11.413259  0.027973674  0.042914119            2 
   35000    1.2170418     -6.68323    12.014501  0.028605955  0.043092304            2 
   36000    1.2381309   -6.7651267    12.557129  0.029067429  0.043276001            2 
   37000    1.2494849   -6.7499232    13.003725  0.029287668  0.043366027            1 
   38000    1.2329091   -6.7438354    13.565989  0.029749974  0.043404706            2 
   39000    1.2325339    -6.767744    14.034948  0.029989204  0.043456317            2 
   40000    1.2299561    -6.734494    14.426791  0.030055814  0.043476141            1 
   41000    1.2081926   -6.7674799    14.737439  0.029954144  0.043383468            2 
   42000    1.2199877   -6.7650999    15.289799  0.030336902  0.043261811            1 
   43000    1.2358975   -6.7580183    15.832385  0.030682916   0.04318567            2 
   44000    1.2324839   -6.7363664    16.217224  0.030714439  0.043080613            4 
   45000    1.2200282   -6.7480044    16.766171  0.031048464  0.042957318            3 
   46000    1.2285598   -6.7658094    17.188096  0.031137855  0.042841214            1 
   47000    1.2377356   -6.7806996    17.658915  0.031310132  0.042723461            2 
   48000    1.2040701    -6.711526    18.016187  0.031278102  0.042594204            1 
   49000    1.2282259   -6.7647947    18.431424  0.031345958  0.042456458            2 
   50000    1.2443254    -6.751995    18.972301  0.031620502  0.042320717            1 
   51000    1.2352476    -6.787597     19.41977  0.031731651  0.042180543            1 
   52000    1.2193924   -6.7570555    19.974205  0.032009944  0.042052632            1 
   53000    1.2370526    -6.719966    20.423895  0.032113042  0.041951373            1 
   54000     1.223807   -6.7669264     20.95397  0.032336373  0.041864572            1 
   55000    1.2364222   -6.7611866    21.413403  0.032444549  0.041805359            2 
   56000    1.2122822   -6.7366542    21.833489  0.032490311  0.041721708            1 
   57000    1.2315375   -6.7516029    22.290475  0.032588413  0.041637789            1 
   58000    1.2141815   -6.7515888    22.940622  0.032960664  0.041580443            1 
   59000    1.2467157    -6.785259    23.181048  0.032741593  0.041513559            1 
   60000    1.2236767   -6.7533654    23.594055   0.03276952  0.041432017            1 
   61000    1.1931395   -6.7603042    24.137726  0.032975035  0.041346793            2 
   62000    1.2154764   -6.7686857    24.585009  0.033044366  0.041280012            3 
   63000    1.2074441   -6.7516356    25.043297  0.033126054  0.041193134            2 
   64000    1.2209479   -6.6991218     25.56118  0.033282787  0.041099569            1 
   65000    1.2331868    -6.752337    25.885638  0.033186716  0.041020574            1 
   66000    1.1960293   -6.7583106    26.318882  0.033230911  0.040934552            4 
   67000    1.2218677   -6.7056263    26.782585  0.033311672  0.040848315            1 
   68000    1.2032757   -6.7342905    27.252905  0.033398168  0.040758169            4 
   69000    1.2219179   -6.7621988     27.48826  0.033198382  0.040664162            2 
   70000    1.2366942   -6.7575788    27.865748  0.033173509  0.040547075            2 
   71000    1.2424017   -6.7419811    28.305229  0.033222099  0.040431915            2 
   72000    1.2308566     -6.74647    28.835052  0.033373903  0.040337407            1 
   73000    1.2254093   -6.7763021    29.153154  0.033279856  0.040243029            2 
   74000    1.2299048   -6.7402237    29.815814  0.033576367  0.040157348            2 
   75000    1.2218997   -6.7623462    30.305028  0.033672253  0.040092716            1 
   76000    1.2130454   -6.7791445    30.769591  0.033738586  0.040026795            2 
   77000    1.2148693   -6.8019102    31.123881  0.033683853  0.039966839            1 
   78000    1.1966511    -6.784447    31.656478  0.033821023  0.039903946            1 
   79000    1.2384316   -6.7681019    32.089976  0.033850185  0.039844741            2 
   80000    1.2232999    -6.811015    32.560645  0.033917338  0.039790074            2 
   81000    1.2333055   -6.8151443     33.05579  0.034008015   0.03973799            2 
   82000     1.239407   -6.7865291    33.455527  0.033999519  0.039689121            3 
   83000     1.215517   -6.7637738    33.907386   0.03404356  0.039639232            3 
   84000     1.209798   -6.8145521     34.26645  0.033994494  0.039589451            2 
   85000    1.2360284   -6.7941758    34.788622  0.034106492  0.039543265            2 
   86000    1.2223142   -6.7785023    35.323249  0.034227954  0.039499269            2 
   87000    1.2068624   -6.7960717    36.029837  0.034511338  0.039475503            1 
   88000    1.2307322   -6.8270738    36.642278  0.034699127  0.039468441            1 
   89000    1.2196692    -6.803323    37.122916  0.034759285  0.039457798            2 
   90000    1.2323506   -6.8292941    37.200449   0.03444486  0.039441191            1 
   91000    1.1988429   -6.7554414    37.821475   0.03463505  0.039417583            2 
   92000    1.1954828    -6.786757     37.99737  0.034417907  0.039386052       -1e+20 
   93000    1.2240931   -6.8164859    38.474203  0.034475092  0.039347081            2 
   94000    1.2099815   -6.7964999    39.027438  0.034598792  0.039315799            2 
   95000     1.206541   -6.7867254    39.734658  0.034854963  0.039297814            1 
   96000    1.2473166   -6.7484217    40.099839  0.034808888  0.039282652            1 
   97000    1.2142129    -6.790359    40.450345  0.034751155  0.039261019            2 
   98000    1.2109263    -6.782337    41.031189  0.034890466   0.03923467            2 
   99000    1.1776109   -6.7996794    41.216711  0.034694201  0.039211015            1 
  100000    1.1947558   -6.7959431    41.803132  0.034835943  0.039191017            2 
  101000    1.2029893   -6.7903402    42.466896  0.035038693  0.039177073            1 
  102000    1.2081093   -6.8324446    42.953429  0.035092671  0.039168758            3 
  103000    1.2061601   -6.7822394    43.341008  0.035065541  0.039159319            2 
  104000    1.2566336   -6.8140586    43.869872  0.035152141  0.039153752            2 
  105000    1.2291625    -6.763341    44.484136   0.03530487  0.039143834            5 
  106000     1.197736   -6.8207958    44.837645  0.035249721    0.0391395            1 
  107000    1.2140902   -6.8130665     45.33744  0.035309533  0.039138654            2 
  108000    1.1966321   -6.7799304    46.143105  0.035604247  0.039144578            1 
  109000    1.1993566   -6.8389477    46.560945  0.035597053  0.039157521            4 
  110000    1.2162084   -6.7884687    47.313453  0.035843524  0.039177921            1 
  111000    1.2138601   -6.8366557    47.998629  0.036035006  0.039208909            2 
  112000    1.1936898   -6.8180365    48.350685  0.035975212    0.0392386            1 
  113000    1.1982314   -6.7957806    49.018678  0.036149467  0.039265084            1 
  114000    1.2415875   -6.8556305    48.951132  0.035782991  0.039284466            2 
  115000     1.185233   -6.8015673    49.398537  0.035796041  0.039289145            1 
  116000    1.1895549   -6.7687218    49.954985  0.035887202  0.039292402            2 
  117000    1.2236495   -6.8235754    50.255656  0.035794627  0.039294743            4 
  118000    1.1941306   -6.7861534    50.456358  0.035633021  0.039288194            2 
  119000    1.2017304   -6.7994871    50.894144  0.035640157  0.039280232            1 
  120000    1.2076862   -6.7684394    51.254673  0.035593523  0.039269361            2 
  121000     1.210297   -6.8012983    51.843228  0.035704703   0.03925333            1 
  122000    1.1979377   -6.8095075     52.44859   0.03582554  0.039246198            1 
  123000    1.1836426   -6.7942248    52.926628  0.035858149  0.039245236            1 
  124000    1.1982083   -6.8056692    53.202136  0.035754124  0.039237113            2 
  125000    1.2151012   -6.8470351    53.703165   0.03580211  0.039226865            3 
  126000     1.235533   -6.7978063    54.337637   0.03593759  0.039221151            1 
  127000    1.2082636   -6.7938081    54.668333  0.035871609  0.039211919            1 
  128000    1.2383091    -6.802392     55.05239    0.0358414  0.039201402            2 
  129000     1.170912   -6.8073845    55.589705  0.035910662  0.039195566            1 
  130000    1.2106989   -6.8112868    56.114798  0.035971024  0.039182745            1 
  131000    1.2157209   -6.8397898    56.384187  0.035867804  0.039172531            2 
  132000    1.2362793   -6.8693214    56.957294  0.035957887  0.039162717            1 
  133000    1.2065931   -6.7751835    57.370626  0.035946508  0.039154299            4 
  134000     1.195156   -6.8563891    57.685743  0.035874218  0.039145977            1 
  135000    1.2137738   -6.7898079    58.228479  0.035943505  0.039135306            1 
  136000    1.2041955   -6.8502387    58.515744  0.035855235  0.039120397            3 
  137000    1.2096887   -6.8154564    59.024184  0.035902788  0.039106874            1 
  138000    1.2035585   -6.8260455     59.57864  0.035977439  0.039087634            2 
  139000    1.2091154    -6.858937    59.673791  0.035775654  0.039070406            4 
  140000    1.1941686   -6.8804774    60.179636  0.035821212  0.039049013            1 
  141000    1.1931292    -6.841143    60.385678  0.035688935  0.039030335            2 
  142000    1.1927328    -6.861617    60.975695  0.035783859  0.039009576            2 
  143000    1.2224826    -6.810519    61.643126  0.035922568  0.038988051            2 
  144000    1.2069607   -6.8418746     61.96066  0.035856863  0.038968877            1 
  145000    1.1973206   -6.8302633    62.081781  0.035679184  0.038944178            1 
  146000    1.2121416    -6.791929    62.397349  0.035614925  0.038916458            1 
  147000    1.1832934   -6.8623003    63.094395  0.035767798  0.038890085            1 
  148000    1.2119467   -6.8397693    63.347387  0.035668573   0.03886201            1 
  149000     1.211815   -6.8146494    63.863957  0.035718097  0.038833807            2 
  150000    1.1998751   -6.8897954     63.85084  0.035472688  0.038805139            2 
  151000    1.1859952   -6.8359112    64.344993  0.035510482  0.038771399            1 
  152000    1.1854691   -6.7979167    64.793378  0.035522685  0.038740464            2 
  153000    1.1961746   -6.8757569     65.10449  0.035459962  0.038706668            2 
  154000     1.165841   -6.8317545    65.636035  0.035517335  0.038673255            2 
  155000    1.1994139   -6.8276777    66.007105  0.035487691  0.038639352            1 
  156000    1.1941855   -6.8183619    66.606052  0.035580156   0.03860722            2 
  157000    1.1850257   -6.8312123    66.953549  0.035537977   0.03857957            1 
  158000    1.1718644   -6.8225564    67.188137  0.035436781  0.038548671            3 
  159000    1.1736612    -6.841592    67.795511  0.035532238  0.038516947            2 
  160000    1.1582387    -6.856432    68.055682  0.035445668  0.038485571            3 
  161000    1.1812626   -6.8383411    68.822019  0.035622163  0.038457224            1 
  162000     1.209812   -6.8308555    69.400707  0.035699952  0.038430185            1 
  163000    1.1724424   -6.8388636    69.807583  0.035688948  0.038403852            1 
  164000    1.1795449   -6.8158606    70.424492  0.035784803  0.038382561            1 
  165000    1.2004686   -6.8467023    71.021497  0.035869443  0.038364241            1 
  166000    1.2135331   -6.8274369    71.131219  0.035708443   0.03834672            2 
  167000    1.1740952   -6.8202008    71.980525  0.035918426   0.03833059            2 
  168000    1.2231474   -6.8439996    71.996136  0.035712369  0.038313796            1 
  169000    1.1723716   -6.8319504    72.685055  0.035840757  0.038294954            1 
  170000    1.1851431   -6.8721222    72.654545  0.035614973  0.038273171            2 
  171000    1.1841148   -6.9037078    72.595946  0.035378141   0.03824856            2 
  172000    1.1807626   -6.8436965    73.181555   0.03545618  0.038221973            1 
  173000    1.1901488   -6.8743038    73.676976  0.035489873  0.038195109            2 
  174000    1.1837778   -6.8746643    74.196698  0.035534817  0.038168443            3 
  175000    1.1474137   -6.8237604    74.779568  0.035609318  0.038143116            2 
  176000    1.1717586   -6.8593175    75.025694  0.035523529  0.038118355            2 
  177000    1.2056693   -6.8127928    75.960769  0.035763074  0.038093597            1 
  178000    1.1472938   -6.8945219    75.867909  0.035518684  0.038070768            3 
  179000    1.2015964   -6.8594186    76.603516  0.035662717  0.038049281            1 
  180000    1.2029145   -6.8588707    76.579232  0.035453348  0.038028385            4 
  181000    1.1894651   -6.8653945    77.055972  0.035476967  0.038003611            1 
  182000    1.1937786   -6.8591047    77.470596  0.035471885  0.037978329            1 
  183000    1.1793485    -6.860608    77.869486  0.035459693  0.037952997            3 
  184000    1.1772801   -6.8447577    78.431358  0.035521448  0.037930232            1 
  185000    1.1931108   -6.8373134    78.580459  0.035396603  0.037904773            1 
  186000     1.167213   -6.8920914    78.898287  0.035348695  0.037880825            2 
  187000    1.1748832   -6.8552478    79.617911  0.035480352  0.037856054            1 
  188000    1.1602484   -6.8762475     80.29257  0.035590678  0.037832333            1 
  189000    1.1685314   -6.8345025    80.693345  0.035579076  0.037810508            2 
  190000    1.1747784   -6.8811907     81.03842  0.035543166  0.037789293            4 
  191000     1.191617   -6.8954571    81.268877  0.035457625  0.037768088            1 
  192000    1.1852776   -6.8645003    82.094816   0.03563143  0.037748951            2 
  193000    1.1777958   -6.8914581    82.357683  0.035560312  0.037731696            4 
  194000    1.1679523   -6.8627895    82.451688  0.035417392  0.037713135            1 
  195000    1.1630869   -6.8632576    82.941481  0.035445077  0.037691329            2 
  196000    1.1938874   -6.8831301    83.350252  0.035438032  0.037669319            2 
  197000    1.1710633   -6.9165761    83.666192   0.03539179  0.037647849            1 
  198000    1.1681747   -6.9095663    83.983542  0.035346608  0.037626424            2 
  199000      1.17416   -6.8987682    84.477391  0.035375792  0.037604177            2 
  200000    1.1820235   -6.8746068    85.334901  0.035556209  0.037584604            2 
  201000    1.1553971   -6.8730069    85.677937  0.035521533  0.037564726            2 
  202000    1.1673439   -6.8831449    86.158623  0.035543986  0.037546739            2 
  203000     1.157761   -6.8765488    86.151698   0.03536605  0.037527096            1 
  204000    1.1884655   -6.8928789    86.383716  0.035287466  0.037503144            2 
  205000    1.1836604   -6.8773256    87.152202  0.035427724  0.037479873            1 
  206000    1.1689131   -6.8958149    87.322745  0.035324735    0.0374579            2 
  207000    1.1905679   -6.8861144    87.723674  0.035315488  0.037435756            1 
  208000    1.1702919   -6.8878632    88.307902  0.035379768  0.037414149            2 
  209000     1.157082   -6.8799577    88.255972  0.035189781  0.037391861            3 
  210000    1.1796023   -6.8908037    89.186309  0.035391392  0.037371444            3 
  211000    1.1665334   -6.9020938    89.232597  0.035241942  0.037351723            1 
  212000    1.1596535   -6.8670225    90.248849  0.035475177  0.037332541            1 
  213000    1.1862888    -6.845179     90.70758  0.035488098  0.037314591            2 
  214000    1.1597491    -6.889138    91.199065  0.035513655  0.037297368            1 
  215000    1.1623483   -6.8671882    91.363524  0.035412218  0.037281889            1 
  216000    1.1659932   -6.8916964    91.824507  0.035426121  0.037266727            4 
  217000    1.2041368   -6.9192811    91.853074  0.035273838  0.037247947            1 
  218000    1.1654337   -6.8985623    92.336246   0.03529673  0.037228919            1 
  219000    1.1485627   -6.9059758    92.897303   0.03534905  0.037210423            2 
  220000     1.181344   -6.8865618    93.510049  0.035420473  0.037195624            1 
  221000    1.1718619   -6.8962845    94.224331  0.035529537  0.037181732            2 
  222000    1.1632382   -6.8905993    94.460021  0.035457966  0.037168029            1 
  223000    1.1820471   -6.8723691    94.840504  0.035441145  0.037152237            3 
  224000    1.1584766   -6.8689246    95.504377  0.035529902  0.037138982            2 
  225000    1.1375637   -6.9024852     95.58995  0.035403685  0.037123972            3 
  226000    1.1543136   -6.9007352    96.204636  0.035473686  0.037106669            2 
  227000    1.1816109   -6.9290952    96.282084  0.035345846  0.037091564            1 
  228000    1.1727358   -6.8930444    96.794957  0.035378274  0.037076239            2 
  229000    1.1618431   -6.9277732    97.380364  0.035436814   0.03706155            2 
  230000    1.1574773   -6.8778247     97.92061  0.035478482   0.03704887            1 
  231000     1.168667   -6.8645829    98.669789  0.035595162  0.037036055            2 
  232000    1.1829693   -6.8648166    98.709042  0.035455834  0.037023809            2 
  233000    1.1306657   -6.9374006    98.979173  0.035400277  0.037010918            1 
  234000    1.1465793   -6.9241529    99.369688  0.035388065  0.036999169            2 
  235000    1.1827711   -6.9375049    99.381694  0.035241735  0.036984363            1 
  236000    1.1421875    -6.883754     100.2096  0.035384746  0.036968342            2 
  237000    1.1679935   -6.9227644    100.07549  0.035188289  0.036952364            1 
  238000    1.1458024   -6.9449424    100.43915   0.03516777  0.036934396            4 
  239000    1.1427763   -6.8840944      101.018  0.035222456  0.036916961            2 
  240000     1.140581   -6.8623332    101.25421  0.035157713  0.036899036            2 
  241000    1.1577658   -6.9509927    101.31195  0.035031794  0.036876439            1 
  242000    1.1512115   -6.8793476    102.39157  0.035258804  0.036855896            1 
  243000     1.183838   -6.9176452     102.4583  0.035136591  0.036836008            1 
  244000    1.1712694   -6.9103866    102.61843  0.035047278  0.036815306            2 
  245000    1.1551938   -6.9269188    103.03006  0.035044239  0.036793066            3 
  246000    1.1535631   -6.9462813    103.00379  0.034892882  0.036769793            2 
  247000    1.1453297   -6.8920074    103.69537  0.034984942  0.036747593            5 
  248000    1.1557363   -6.9062738    104.30874   0.03504998  0.036725761            2 
  249000    1.1577905   -6.9168294    103.75493  0.034723871  0.036702191            1 
  250000    1.1581639   -6.9162629    104.33681  0.034778935  0.036677335            3 
  251000     1.154399   -6.9718593    104.26258  0.034615731   0.03665096            1 
  252000    1.1640617   -6.9114567    104.66363  0.034610989  0.036624072            2 
  253000    1.1685332   -6.9171748    105.27458   0.03467542  0.036597829            1 
  254000     1.147165   -6.9081273    105.51463  0.034617661  0.036569746            3 
  255000    1.1517276   -6.9008066    106.09497  0.034671559  0.036540695            1 
  256000    1.1624107    -6.914849    106.19451  0.034568524  0.036513869            2 
  257000    1.1375609   -6.8772856    106.87764  0.034655525  0.036485243            2 
  258000    1.1438418   -6.9687324    106.51899  0.034405357  0.036456006            1 
  259000     1.159102   -6.9552467    106.80598   0.03436486  0.036425869            2 
  260000    1.1367416   -6.9441875    107.54257  0.034468773  0.036396063            2 
  261000    1.1478092   -6.9156152    108.01174  0.034486507  0.036368003            1 
  262000    1.1089134   -6.8921868    108.20961  0.034417816  0.036339478            3 
  263000    1.1625212   -6.8896471    108.74924  0.034457933  0.036310331            1 
  264000    1.1723267   -6.9426224    108.72324  0.034319204  0.036280893            1 
  265000    1.1360622   -6.9744718    108.91361  0.034249561  0.036250246            2 
  266000    1.1383156   -6.9290969    109.44191  0.034286314  0.036219823            1 
  267000     1.167159   -6.9171115     109.6945  0.034236737  0.036189491            3 
  268000    1.1669831   -6.9821461     110.1128  0.034239056   0.03615961            1 
  269000    1.1646628   -6.9198812    110.44941  0.034216049  0.036130125            1 
  270000    1.1456843    -6.936536    110.83838  0.034209377  0.036100319            2 
  271000    1.1646557   -6.9541423    111.06695  0.034153428  0.036070607            3 
  272000    1.1328389   -6.9125655    111.16756  0.034058689   0.03603986            3 
  273000    1.1363876    -6.974783    111.32873  0.033983128  0.036008328            3 
  274000    1.1133339   -6.8951991    112.13687  0.034104889  0.035975246            5 
  275000    1.1690328   -6.9834682    111.98206  0.033933957  0.035941799            1 
  276000    1.1551738    -6.922877    112.42461   0.03394463  0.035907426            2 
  277000     1.121848   -6.9235267    112.91234  0.033968813  0.035875519            1 
  278000    1.1591616   -6.9374258    112.77754  0.033806217  0.035842794            1 
  279000    1.1495417    -6.896625    113.87257  0.034012117  0.035810667            1 
  280000    1.1550866   -6.9566179    113.80538  0.033870649   0.03577759            1 
  281000    1.1289736   -6.9411577    114.36561  0.033916254  0.035744934            2 
  282000    1.1217014   -6.9540819    114.10994  0.033720431  0.035712755            2 
  283000    1.1354759   -6.9855826    114.83255  0.033814061  0.035681036            2 
  284000    1.1462718   -6.9386916    115.07986  0.033767566  0.035650697            1 
  285000    1.1370098   -6.9920564    115.75921  0.033847722   0.03562049            1 
  286000    1.1365277   -6.9550407    116.31271  0.033890649  0.035591215            2 
  287000    1.1498409   -6.9881329    116.98736  0.033968456  0.035563412            2 
  288000     1.142923   -6.9405426    117.14174  0.033895179  0.035534996            1 
  289000    1.1487429   -6.9522621    117.34747  0.033837218  0.035506795            2 
  290000    1.1765961   -6.9300724    118.06401  0.033926438  0.035478623            2 
  291000    1.1226122   -6.9353715    117.93249  0.033772189  0.035450254            1 
  292000    1.1365777   -6.9146052    118.38893  0.033786794   0.03542142       -1e+20 
  293000    1.1349013   -6.9786732    118.98594  0.033841279  0.035393547            1 
  294000    1.1361345   -6.9905021    119.10191  0.033759044  0.035365668            1 
  295000    1.1087273   -6.9666675    119.75941  0.033830342   0.03533863            3 
  296000    1.1621812   -6.9242921    120.10973  0.033814677  0.035311173            3 
  297000    1.1273636     -6.94027     120.3941  0.033780612  0.035283132            2 
  298000     1.143795   -6.9310106    120.82856  0.033788747  0.035255938            3 
  299000    1.1408163   -6.9484186    121.08954  0.033748479  0.035229845            1 
  300000    1.1309405   -6.9629041    121.40517  0.033723658  0.035203915            2 
  301000    1.1450372   -6.9425092    121.86844  0.033739877  0.035179012            2 
  302000    1.1291207   -6.9503309     122.6251  0.033836949  0.035155512            2 
  303000    1.1345408   -6.9780957    122.81573  0.033777704  0.035132068            1 
  304000    1.1449141   -6.9601072    122.78171  0.033657267  0.035107546            2 
  305000    1.1232871   -6.9919513    122.71462  0.033528585  0.035082661            2 
  306000    1.1208113   -6.9939642    123.10269  0.033524697  0.035056405            2 
  307000    1.1445827    -6.978456    123.90391  0.033632982  0.035032081            1 
  308000    1.1330265   -6.9970721    124.34027  0.033641847  0.035007118            1 
  309000    1.1158743   -6.9581112    124.50872  0.033578403  0.034981977            1 
  310000    1.1254878   -6.9780899    124.52343   0.03347404  0.034955983            1 
  311000    1.1153671    -6.969275    125.23552  0.033557214  0.034930179            1 
  312000     1.141805   -6.9327485    126.22688  0.033714445   0.03490588            3 
  313000    1.1321329   -6.9779833    126.41405  0.033656562   0.03488218            2 
  314000     1.128488   -6.9481961    126.98036  0.033699671  0.034858787            1 
  315000     1.148318   -6.9745119    127.03184  0.033606307  0.034836765            2 
  316000     1.107742   -6.9710985    127.73249  0.033684728  0.034814501            1 
  317000    1.1313726   -6.9580195    128.08938  0.033672286  0.034794081            2 
  318000    1.1154258   -6.9913095    128.32297  0.033627613  0.034773269            2 
  319000    1.1025628   -6.9744414     129.0474  0.033711442  0.034753101            3 
  320000    1.1254289   -6.9790066    128.86765  0.033559284  0.034733488            1 
  321000    1.1491298   -6.9310117    129.12202  0.033520773  0.034712262            3 
  322000    1.1220909   -6.9670832    129.92356  0.033624109  0.034691339            2 
  323000    1.1279966   -6.9791321    129.90332  0.033514787  0.034670137            1 
  324000    1.1364952   -6.9744692    130.52875  0.033572209  0.034649217            2 
  325000    1.1146514   -6.9861995    130.35975  0.033425578  0.034627922            1 
  326000    1.1122756   -7.0073471    130.94494  0.033472633  0.034605969            1 
  327000    1.1324416   -6.9918706    131.06701   0.03340138  0.034584783            2 
  328000    1.1172003   -6.9853122    131.32088  0.033364044  0.034563151            1 
  329000    1.1161733   -6.9913214    131.91258  0.033412509  0.034542668            1 
  330000    1.0925568   -7.0215963    132.28723  0.033405867  0.034521413            1 
  331000    1.1241073   -6.9756249    132.82659  0.033440731  0.034499972            1 
  332000    1.0964363   -6.9927945    132.74156  0.033318664  0.034479108            5 
  333000    1.1174113   -7.0297594    133.09889  0.033308029  0.034457282            3 
  334000    1.1451864   -6.9901412    133.39308  0.033281707  0.034436374            2 
  335000    1.1196914   -6.9551708    133.44221   0.03319458  0.034414486            2 
  336000    1.0975416    -6.997516    134.70236  0.033408323  0.034391307            3 
  337000    1.1119995   -6.9928511    134.45685  0.033248478  0.034368577            2 
  338000    1.1309739   -6.9506448    134.48753  0.033157674  0.034347143            1 
  339000    1.1235786   -6.9693797    134.87027  0.033153951  0.034324492            3 
  340000    1.1060162   -7.0055137    135.38765  0.033183246  0.034302444            1 
  341000     1.094305   -7.0020468    135.67365  0.033155828  0.034279437            1 
  342000    1.1095324   -7.0566441    135.68102  0.033060677  0.034256328            2 
  343000    1.1558885   -6.9994603    136.48761  0.033160256  0.034233135            1 
  344000     1.111766   -6.9769701    137.40733   0.03328666  0.034211099            2 
  345000    1.1040552   -7.0466414    136.76507   0.03303504  0.034188408            1 
  346000    1.1343717   -7.0170547     137.2643  0.033059803  0.034167163            1 
  347000    1.1073933   -6.9865205    137.35935  0.032987357  0.034144679            2 
  348000    1.0943208    -6.995099    137.75015  0.032986146  0.034122606            2 
  349000    1.1327256   -6.9940893    138.72727  0.033124945  0.034101282            1 
  350000    1.1128633   -6.9736054     138.3489  0.032940214  0.034080094            3 
  351000    1.0951455   -7.0017427    139.33626  0.033080784  0.034059107            1 
  352000    1.1035896   -7.0035251    139.78909  0.033094007  0.034038948            1 
  353000    1.1588353   -7.0011343    140.29474  0.033119628  0.034018913            3 
  354000    1.1248164   -7.0498908    139.74037  0.032895566  0.033998007            2 
  355000    1.1103727   -7.0323023    140.88621   0.03307188  0.033976605            2 
  356000    1.1163933   -7.0611488    140.14957  0.032806548  0.033954415            2 
  357000    1.1181481    -7.005333    141.46501  0.033021711   0.03393299            3 
  358000    1.1122008   -6.9711682    141.21308  0.032870828  0.033911938            2 
  359000    1.1181545   -6.9728391    142.27488  0.033025739  0.033891344            4 
  360000    1.1013341   -6.9342301    142.91378  0.033081894  0.033871411            1 
  361000    1.1168116   -7.0111657    142.93844  0.032995945  0.033852448            1 
  362000    1.1099666   -7.0002426    143.81441  0.033106447  0.033834376            2 
  363000    1.1267144   -7.0057418    143.73039  0.032995957  0.033816187            3 
  364000    1.1098332   -7.0242723    144.30414  0.033036663  0.033798221            1 
  365000    1.1308528    -6.978929    144.65322  0.033025849  0.033781276            3 
  366000    1.1134653   -6.9995475    144.94633  0.033002352  0.033764845            1 
  367000    1.1020091   -7.0007636    145.32944  0.032999418  0.033747703            6 
  368000    1.0984367   -7.0089432    145.35753  0.032916106  0.033729959            1 
  369000    1.0904673   -6.9741621    145.78149  0.032922649  0.033711577            1 
  370000    1.1174072   -7.0683784    145.93131  0.032867411  0.033693347            1 
  371000    1.1015283   -7.0405298    146.06973  0.032809912  0.033674336            1 
  372000    1.1057423   -7.0111942    146.20118  0.032751159  0.033654696            2 
  373000    1.1008368   -6.9951329     147.1229  0.032869279  0.033635083            6 
  374000    1.1189297   -7.0534703    146.97214  0.032747803  0.033615395            3 
  375000    1.0957728   -7.0054586    147.69791  0.032821758  0.033595939            5 
  376000    1.0864239   -7.0261386     147.5807  0.032708489  0.033576234            1 
  377000     1.106944    -7.036877     147.6783  0.032643303  0.033556854            2 
  378000    1.1060163   -7.0259633    147.90498  0.032606917   0.03353681            1 
  379000    1.1091137   -7.0204828    148.50091  0.032651915  0.033516516            2 
  380000    1.1041237   -7.0149806    148.94228  0.032662781  0.033497073            2 
  381000    1.1033849   -7.0301167    149.54307  0.032708459  0.033478485            1 
  382000    1.1115184   -7.0267174    149.64654  0.032645405  0.033458878            2 
  383000    1.1213087   -7.0356996    150.33952  0.032710948  0.033440714            1 
  384000    1.0916741   -7.0306994    150.79619  0.032724867  0.033423103            3 
  385000    1.0922833   -7.0290998     151.2226  0.032732165  0.033406253            2 
  386000    1.0825901   -7.0289119    150.73734  0.032542605  0.033388401            3 
  387000    1.0891991   -7.0454232    151.49716  0.032622127  0.033369434            4 
  388000     1.101085   -7.0208451    152.25305  0.032700397  0.033351596            1 
  389000    1.0824037   -7.0013605    152.60035  0.032690735  0.033333615            2 
  390000    1.0893719   -7.0411392    152.57993  0.032602548   0.03331676            2 
  391000    1.1020666   -7.0086858     153.2017  0.032651683  0.033300128            2 
  392000    1.0904801   -7.0027051    153.50957  0.032633836  0.033283735            2 
  393000    1.1123773   -7.0323997    153.97905   0.03265035  0.033266652            5 
  394000     1.095069   -7.0079997    154.70143  0.032720268  0.033250152            3 
  395000    1.1200666   -7.0222144    155.15937  0.032734045  0.033234255            3 
  396000    1.1062196   -7.0576876    154.80781  0.032577402  0.033218347            3 
  397000    1.0966282   -7.0501672    155.57378  0.032656125   0.03320239            2 
  398000    1.1304802   -6.9918129    155.49156  0.032556859  0.033186229            1 
  399000    1.1088515   -7.0681295    155.83574  0.032547146  0.033170042            2 
  400000    1.1012258   -7.0074499    156.40698  0.032584788  0.033153859            2 
  401000    1.0896528   -7.0583844     156.3978  0.032501622  0.033137332            1 
  402000    1.1051999   -7.0205177    157.06785   0.03255967  0.033120374            2 
  403000     1.062253   -6.9948453    157.95879  0.032663107  0.033103465            1 
  404000     1.120456   -7.0165169    157.72515  0.032534065  0.033087208            2 
  405000    1.1220056   -7.0728828    158.46531  0.032606031  0.033070613            4 
  406000    1.0879917   -7.0322755    157.88561  0.032406735  0.033054927            4 
  407000    1.0676535   -7.0389643    158.79534  0.032513378   0.03303915            3 
  408000    1.0767278    -7.036848    159.18504  0.032513284  0.033022496            3 
  409000    1.0746975   -7.0917317    158.57754  0.032310012  0.033005531            1 
  410000    1.1042248   -7.0792244    159.10679  0.032338779  0.032987543            3 
  411000    1.0905091   -7.0614149    159.27196  0.032293585  0.032969994            2 
  412000    1.1071904   -7.0146983    159.94059  0.032350442  0.032953663            2 
  413000    1.0902836   -7.0360611    160.36771  0.032358296  0.032936724            2 
  414000     1.105254   -7.0767206    160.47326   0.03230138  0.032919886            1 
  415000    1.0930885   -7.0606158    160.76985  0.032283102  0.032903306            4 
  416000    1.0883647   -7.0479905    161.42705   0.03233715   0.03288616            1 
  417000     1.077027   -7.0655863    161.27469  0.032229154  0.032870032            2 
  418000    1.0818139   -7.0667818    161.87013  0.032270759  0.032853216            3 
  419000    1.0916067   -7.0570062    162.60915  0.032340722  0.032836917            1 
  420000    1.0789487   -7.0376895    162.85467  0.032312434   0.03282114            3 
  421000    1.0880486   -7.0687952    162.94647  0.032253853  0.032805048            2 
  422000    1.0828994   -7.0358992    163.29211  0.032245677  0.032788766            1 
  423000    1.0911762   -7.0778826    163.29058  0.032169145  0.032772246            1 
  424000    1.0721989   -7.0524322    163.99735  0.032232183  0.032755504            2 
  425000    1.1033961   -7.0910002    163.61084  0.032080557  0.032738337            2 
  426000    1.0835218   -7.0738804     164.4789  0.032175058  0.032721021            3 
  427000    1.0561762   -7.0619319    164.37091  0.032078631  0.032702756            2 
  428000    1.0497547   -7.0838543    164.51942  0.032032598  0.032684561            1 
  429000    1.1071775   -7.0632687     164.6065  0.031974845  0.032665928            4 
  430000    1.0740516   -7.0829884    164.88518  0.031954493  0.032647835            5 
  431000    1.0520206    -7.077871    166.07714  0.032110815  0.032629968            2 
  432000    1.0919582   -7.0590368    166.00253  0.032022094  0.032613145            1 
  433000    1.0749255   -7.0313058    166.88191  0.032117381  0.032596879            1 
  434000    1.0764909   -7.0702904    166.59389  0.031988074  0.032580652            2 
  435000     1.091348   -7.0414689    166.87966  0.031969283  0.032564578            2 
  436000    1.0797206   -7.0922057    167.55805  0.032025622   0.03254851            3 
  437000    1.0551959   -7.0859391    167.91331  0.032020081  0.032532169            7 
  438000    1.0902014   -7.0814068    168.60131  0.032077874  0.032516759            3 
  439000    1.0895973   -7.0796973    168.55971  0.031996908  0.032501681            1 
  440000    1.0678472   -7.0760717    169.25159  0.032055225  0.032485984            2 
  441000    1.0703251   -7.0845635    169.69256  0.032065865  0.032469751            1 
  442000    1.0549411   -7.1158294    169.26077   0.03191191  0.032454252            2 
  443000    1.0837834   -7.1387464    169.97671   0.03197455  0.032438532            2 
  444000    1.0850229   -7.0677062       169.89  0.031886261  0.032422043            1 
  445000    1.0743794   -7.0579202    170.27841  0.031887343  0.032405646            1 
  446000    1.0768544   -7.0941136    169.98739  0.031761471  0.032388443            1 
  447000    1.0486253   -7.0755241    170.39762  0.031766894  0.032371021            2 
  448000    1.0887836    -7.096805    170.96486  0.031801498   0.03235373            2 
  449000    1.0813366   -7.0879055      171.285  0.031790088  0.032336886            2 
  450000    1.0694946   -7.0600257    171.72513  0.031800949  0.032319835            2 
  451000    1.0781983   -7.0670164    171.98642  0.031778718  0.032303562            2 
  452000    1.0798473   -7.0617143    172.04626  0.031719444   0.03228699            2 
  453000     1.072258   -7.1211323    172.39053  0.031712753  0.032270614            2 
  454000    1.0674148     -7.08706    172.48519  0.031660277  0.032254213            1 
  455000    1.0759807    -7.074414    173.61405  0.031797445  0.032238017            2 
  456000    1.0604074   -7.0681205    173.20531  0.031653017  0.032222098            1 
  457000    1.0902938   -7.0790892    173.35895   0.03161177  0.032205889            4 
  458000    1.1049254   -7.0522682     174.4305  0.031737718  0.032189641            4 
  459000    1.0963992   -7.1080871    174.39458  0.031662051    0.0321733            1 
  460000    1.0803296   -7.1190073    174.62548   0.03163505  0.032157087            1 
  461000    1.0705626    -7.097754     174.8618  0.031609147  0.032140005            2 
  462000    1.0763658   -7.0629368    175.48729  0.031653552  0.032123125            2 
  463000    1.0922688   -7.0918144    176.05257  0.031686928  0.032106827            2 
  464000    1.0830887   -7.0391093    176.47726   0.03169491  0.032090177            5 
  465000    1.0689692    -7.097966    176.66843  0.031661009  0.032074496            1 
  466000     1.067092   -7.0807847    177.39977  0.031723849  0.032058353            4 
  467000    1.0715161    -7.109117    176.49635  0.031494709  0.032042868            3 
  468000    1.0654764   -7.0843192    177.60324  0.031624508  0.032027939            1 
  469000    1.0637683   -7.0913213    177.95491  0.031619564   0.03201226            1 
  470000    1.0534391   -7.0891998    178.19386  0.031594656  0.031996643            2 
  471000    1.0593373    -7.079272    179.09568  0.031687133  0.031981829            2 
  472000    1.0678102    -7.107278     178.6558  0.031542338  0.031966854            3 
  473000    1.0239889   -7.0812916    179.52264  0.031628372  0.031951469            2 
  474000    1.0826809   -7.0788873    179.42601  0.031544657  0.031936362            1 
  475000    1.0552468    -7.113608    179.43517  0.031479854  0.031920947            3 
  476000    1.0749636   -7.1310588    179.83306  0.031483379   0.03190574            3 
  477000    1.0747395    -7.092093    180.42849  0.031521399  0.031890516            1 
  478000    1.0603601   -7.1211387    180.46837  0.031462408  0.031875333            2 
  479000    1.0647476   -7.0962205    180.92817  0.031476717  0.031859817            1 
  480000    1.0618353   -7.0887694    180.61159  0.031356179  0.031844023            2 
  481000    1.0415433   -7.1315805    181.21266  0.031395124  0.031828471            4 
  482000    1.0901514   -7.0806975    182.09916  0.031483258  0.031812793            2 
  483000     1.059611   -7.1219819    181.59481  0.031331057  0.031797344            2 
  484000     1.065522   -7.1207893      181.687  0.031282198  0.031781163            2 
  485000    1.0447644   -7.1190206    182.20255   0.03130628   0.03176548            3 
  486000    1.0747625   -7.1074958    182.85563  0.031353846  0.031749664            1 
  487000    1.0744049   -7.1278002    183.24665  0.031356375  0.031733638            2 
  488000    1.0568446   -7.1368495    183.03053  0.031255214  0.031717711            4 
  489000     1.052612   -7.0947901    184.04714  0.031364543  0.031701748            2 
  490000      1.07544   -7.1026426    184.16146  0.031319976  0.031686012            1 
  491000    1.0661365   -7.0990437    183.62236   0.03116469  0.031669714            1 
  492000    1.0668166   -7.1196433    183.63397  0.031103315   0.03165296            2 
  493000    1.0629358   -7.0920395    184.79514  0.031236501  0.031636098            1 
  494000    1.0253995   -7.1419362    184.64683  0.031148251  0.031619161            2 
  495000    1.0717941   -7.1184047    184.62707  0.031081998  0.031602094            1 
  496000    1.0434375   -7.1354403    185.06595  0.031093069  0.031584735            3 
  497000    1.0880584   -7.1239381    184.81066  0.030987703  0.031567328            3 
  498000    1.0562375    -7.125242    186.00497   0.03112533  0.031550041            1 
  499000     1.054334   -7.1226639    185.57164  0.030990588   0.03153301            1 
  500000    1.0697513   -7.1184639    185.67992  0.030946653  0.031515308            3 
  501000    1.0555077   -7.1900327     185.2405  0.030811794    0.0314973            2 
  502000    1.0399131   -7.1286256    186.02091  0.030879965  0.031478631            1 
  503000    1.0606703   -7.1510658     186.5239  0.030901906  0.031460189            2 
  504000    1.0619727   -7.1192283    186.73393  0.030875319  0.031442173            2 
  505000    1.0467697   -7.0923658    187.14753  0.030882431  0.031424821            2 
  506000    1.0320871   -7.1410275    187.49824  0.030879158  0.031407318            3 
  507000    1.0433279   -7.1329163    187.24653  0.030776878  0.031389431            3 
  508000    1.0423712   -7.1636997    187.90117  0.030823682  0.031371444            3 
  509000    1.0474548   -7.1283009     188.3164  0.030831106  0.031353752            3 
  510000    1.0507594   -7.1245009    188.96514  0.030876657  0.031335774            4 
  511000    1.0686231   -7.1503144    188.38798  0.030722111  0.031317832            2 
  512000    1.0659918   -7.1623974    189.33413  0.030816102  0.031300024            3 
  513000    1.0483521   -7.0990319    190.55605  0.030954525  0.031283541            2 
  514000    1.0490985     -7.14878     189.9853  0.030801768  0.031267422            1 
  515000    1.0574254   -7.1169402    189.59308  0.030678493  0.031250572            3 
  516000     1.031746   -7.0839028    190.38935  0.030747634  0.031233505            3 
  517000     1.043996   -7.1149875    190.16213  0.030651537  0.031216216            3 
  518000    1.0592384   -7.1370733    191.02573  0.030731295  0.031198246            2 
  519000    1.0691361    -7.149918    190.55293  0.030596168  0.031180291            2 
  520000    1.0109123   -7.1470642     190.7077  0.030562131  0.031161758            5 
  521000    1.0407316   -7.1119024    191.36032  0.030607857  0.031143631            1 
  522000    1.0437557   -7.1473082    191.49796  0.030571194   0.03112551            2 
  523000    1.0450895   -7.1820951    191.47258  0.030508696  0.031107512            2 
  524000    1.0597936   -7.1216509    192.05334  0.030542834  0.031089503            2 
  525000    1.0332678   -7.1341259    192.36612  0.030534304  0.031071269            3 
  526000    1.0433987   -7.1210269    191.99709   0.03041779  0.031053018            3 
  527000    1.0428226   -7.1062294    192.91595  0.030505369  0.031034382            2 
  528000    1.0354121   -7.1615039    193.04126   0.03046737  0.031016524            2 
  529000    1.0304655   -7.1414299    193.39223  0.030465065  0.030998742            4 
  530000    1.0458024   -7.1450847    193.34493  0.030400146  0.030980703            2 
  531000    1.0266654   -7.1460617     193.7667  0.030409087  0.030962565            1 
  532000    1.0304638   -7.1163378    195.04852  0.030552714  0.030945311            1 
  533000    1.0531636    -7.147142     195.3489  0.030542354  0.030928612            4 
  534000    1.0298074    -7.138492     195.5011  0.030508911  0.030912102            4 
  535000    1.0553676   -7.1537563    195.46224  0.030445832   0.03089497            2 
  536000    1.0492528   -7.1685107    195.54147  0.030401348  0.030877662            3 
  537000    1.0668754   -7.1704631    195.85066  0.030392716  0.030860781            2 
  538000    1.0260149   -7.1822831    196.50882  0.030438169  0.030844194            3 
  539000    1.0377752   -7.1606151    196.94893  0.030449742  0.030827606            3 
  540000    1.0113334   -7.1683277    197.11818  0.030419473  0.030811188            3 
  541000    1.0416202   -7.1683565    197.74427  0.030459684   0.03079508            1 
  542000    1.0494277   -7.2088795    197.37443  0.030346622  0.030778906            2 
  543000    1.0574183   -7.1454298    198.15002  0.030409764  0.030762593            3 
  544000    1.0390228   -7.1894662    198.29867  0.030376634  0.030746362            3 
  545000    1.0691335   -7.1955811    198.47406  0.030347715  0.030730057            4 
  546000    1.0435782   -7.1749051     198.5124  0.030297985  0.030713747            1 
  547000    1.0237832   -7.1645258    198.81824  0.030289189  0.030696874            5 
  548000    1.0351547   -7.1988897    198.57316  0.030196649  0.030679847            1 
  549000    1.0189229   -7.1663123    199.48699  0.030280357    0.0306628            1 
  550000    1.0312223   -7.1450006    199.58136    0.0302396  0.030646088            1 
  551000    1.0288567    -7.188544    200.18452   0.03027594  0.030629724            2 
  552000    1.0295765   -7.1718691    199.96211  0.030187517  0.030613576            2 
  553000    1.0527729   -7.1555142    200.67333  0.030240104  0.030597234            2 
  554000    1.0228442   -7.1972025    201.02751  0.030238794  0.030580861            2 
  555000    1.0328441   -7.1458872    201.65641  0.030278741  0.030564618            1 
  556000    1.0139291   -7.1763722     201.6518  0.030223591  0.030548957            2 
  557000     1.019888   -7.1935978    201.48406  0.030144234   0.03053277            3 
  558000    1.0415435   -7.1261767    202.84157  0.030292947  0.030517411            3 
  559000    1.0713219   -7.1824669    202.73093  0.030222262  0.030502438            1 
  560000    1.0330833   -7.1828196    202.36571  0.030113944  0.030486569            3 
  561000    1.0189056   -7.1998115     202.8247  0.030128446  0.030470323            2 
  562000    1.0037097   -7.1244406    203.41186  0.030161901  0.030453787            2 
  563000    1.0142645    -7.179161    203.17377  0.030073086  0.030438046            1 
  564000     1.035979   -7.1683661    203.55639  0.030076299  0.030422664            2 
  565000    1.0381165   -7.1732073     204.6843  0.030189425  0.030407258            3 
  566000    1.0274756   -7.1488309    204.67819  0.030135187   0.03039163            3 
  567000    1.0323638   -7.1948965    204.05305   0.02999016  0.030375983            3 
  568000    1.0041002   -7.1678113    205.08613  0.030088928  0.030360297            3 
  569000    1.0304651   -7.2241279    204.98434  0.030021139  0.030344178            6 
  570000    1.0318566   -7.1744141    205.12996   0.02998976  0.030328451            3 
  571000    1.0374557    -7.204156    205.71179  0.030022152  0.030312192            2 
  572000    1.0186577   -7.1531403     205.8597  0.029991215  0.030295963            3 
  573000    1.0379348   -7.1865574    205.51638  0.029888944  0.030279347            1 
  574000     1.014644    -7.184728    206.16607  0.029931195  0.030262655            2 
  575000    1.0027367   -7.2011515    205.48172   0.02977996  0.030245473            2 
  576000    1.0283866   -7.1822403    205.56475   0.02974027  0.030228114            2 
  577000    1.0201842   -7.1536601    206.51081  0.029825362  0.030210801            2 
  578000      1.01617   -7.1779988    206.65053  0.029793905  0.030193631            4 
  579000    1.0563592   -7.1881365    206.23018  0.029681948  0.030176103            2 
  580000    1.0315401   -7.2062229    206.70974  0.029699676  0.030158496            2 
  581000    1.0177319     -7.18531    207.95452  0.029827097  0.030140974            1 
  582000    1.0225032   -7.1862895    207.72968  0.029743654  0.030124086            3 
  583000    1.0276762   -7.2216728    207.61087  0.029675653  0.030106976            2 
  584000    1.0321522   -7.2341833     207.7565  0.029645619  0.030089603            2 
  585000    1.0258313    -7.181216    208.58208  0.029712547   0.03007263            4 
  586000    1.0204821   -7.1973262    208.68688  0.029676746  0.030055439            5 
  587000    1.0189371   -7.2126678    208.35305  0.029578797  0.030038055            1 
  588000    1.0181357   -7.1955395    209.41868  0.029679518  0.030020717            5 
  589000     1.043307   -7.2169282    209.11423  0.029586054  0.030003492            2 
  590000    1.0084159   -7.2255574    209.15883  0.029542207  0.029986028            1 
  591000    1.0164315   -7.1913064    209.42687  0.029530016  0.029968566            3 
  592000    1.0151462   -7.2222648    209.24059  0.029453911  0.029951011            3 
  593000    1.0465689   -7.2352552     209.2803  0.029409823  0.029932782            3 
  594000    1.0218934   -7.2080558    209.96636  0.029456559  0.029915062            1 
  595000      1.04242   -7.2037379    210.34413  0.029459962  0.029897368            2 
  596000    1.0492008    -7.153903    211.41841   0.02956074  0.029879891            3 
  597000      1.02286   -7.2239008    210.46795  0.029378552  0.029862167            3 
  598000    1.0483896   -7.2230456     211.1759  0.029428079  0.029844209            5 
  599000    1.0133664   -7.2071482    211.01853  0.029357058  0.029826596            2 
  600000    1.0149389    -7.229539    211.38824  0.029359477  0.029808704            4 
  601000    1.0370838   -7.2059393     211.6118  0.029341625   0.02979072            2 
  602000   0.99637975   -7.2787174    210.91332  0.029196196  0.029772225            1 
  603000   0.99280187   -7.2538013    211.64896  0.029249441  0.029753901            2 
  604000    1.0010413   -7.2184339    212.63287  0.029336764  0.029735753            2 
  605000    1.0062766   -7.2187654    212.32436  0.029245779  0.029717742            1 
  606000    1.0126652   -7.1866888     213.0647  0.029299326  0.029699838            2 
  607000    1.0053722    -7.245058    212.93459  0.029233195  0.029681986            5 
  608000    1.0114507   -7.2306309    212.97899  0.029191199  0.029664045            1 
  609000    1.0253076   -7.2424056    213.46787  0.029210163   0.02964647            3 
  610000    1.0202129   -7.2466677    212.56563  0.029039021  0.029628492            2 
  611000     1.015354   -7.2471568    213.92863   0.02917739    0.0296103            1 
  612000    1.0358483   -7.1956365    213.61669   0.02908724  0.029592151            3 
  613000    1.0181959   -7.2356974    213.74563  0.029057317  0.029574251            2 
  614000    1.0204406   -7.2197426     213.9579  0.029038802  0.029556041            2 
  615000   0.99601744   -7.2305414    214.46673  0.029060532  0.029537711            3 
  616000      1.00265   -7.2270304    214.89047  0.029070681  0.029519599            2 
  617000   0.98629703   -7.2229581    215.10028  0.029051901  0.029501384            3 
  618000   0.99760656   -7.2197588    215.06903  0.029000678  0.029483146            3 
  619000     1.031934    -7.254226    215.51027   0.02901323  0.029465293            1 
  620000    1.0166641   -7.2136931    215.69168  0.028990817  0.029446916            3 
  621000    1.0103499   -7.2478756    215.55278  0.028925493  0.029428819            3 
  622000     1.023425   -7.2309731    216.09742  0.028951959  0.029410563            1 
  623000    1.0095878   -7.2255417    215.90128   0.02887925  0.029392177            2 
  624000    1.0216635    -7.201571    216.28137   0.02888373  0.029373961            1 
  625000    1.0258725   -7.2433199    216.05319  0.028807092  0.029355437            3 
  626000    1.0262596   -7.2199187    217.57427  0.028963561  0.029337348            2 
  627000    1.0085281   -7.2723855    216.44447  0.028767208  0.029319062            2 
  628000    1.0056582   -7.2268053     217.2459  0.028827747  0.029300564            2 
  629000   0.99601543   -7.2510386    217.75229  0.028849006  0.029282192            3 
  630000   0.96994086   -7.2349002    217.31974  0.028745997  0.029263899            1 
  631000    1.0015015   -7.2149386    218.32771  0.028833559   0.02924592            3 
  632000     1.001832   -7.2644777    217.92541   0.02873489  0.029227866            2 
  633000   0.99863238   -7.2514195    218.60898  0.028779486  0.029209779            2 
  634000    1.0068465   -7.2444127    218.48884  0.028718302  0.029191764            3 
  635000   0.97117924    -7.228039     219.7637   0.02884038  0.029173861            1 
  636000    1.0078053   -7.2502413    218.97987  0.028692331  0.029156162            2 
  637000   0.99188404   -7.1894036    219.53719  0.028720198  0.029138084            1 
  638000    1.0123477   -7.2302118    219.42011  0.028659889   0.02912021            3 
  639000   0.97388124   -7.2031667    220.94834  0.028814337  0.029102393            2 
  640000    1.0078119   -7.2418468    220.71226  0.028738575  0.029085007            2 
  641000    1.0008193   -7.2327336    220.57867  0.028676374  0.029067494            2 
  642000   0.99601145   -7.2892733    220.64614  0.028640465  0.029049714            1 
  643000    1.0084979   -7.2321393    221.71534  0.028734492  0.029032284            2 
  644000   0.99450117   -7.2266318    221.36817   0.02864495  0.029015033            1 
  645000    0.9851177   -7.2854487    221.26473  0.028587174  0.028997477            7 
  646000   0.98386074    -7.254269    221.69868  0.028598901  0.028979853            3 
  647000   0.98154608   -7.2074311    222.08616  0.028604605  0.028962183            2 
  648000    1.0043473   -7.2836419    222.48943  0.028612324  0.028944334            2 
  649000   0.99220872    -7.288201    221.89421  0.028491809  0.028926598            1 
  650000   0.98853448   -7.2383132    222.40632   0.02851363  0.028908808            4 
  651000    0.9881037   -7.2646449    222.59363  0.028493808  0.028891379            2 
  652000   0.98169395   -7.2919419     223.5782  0.028575945  0.028873884            1 
  653000    1.0008186    -7.250979     223.6702  0.028543925  0.028856357            4 
  654000   0.99822516   -7.2862843    223.15946  0.028435202  0.028838877            1 
  655000   0.98825739   -7.2735474    223.30604  0.028410438  0.028821257            3 
  656000   0.98284952   -7.2726551    223.53646    0.0283964  0.028803628            3 
  657000     1.005005   -7.2692024    223.54191   0.02835387  0.028786224            1 
  658000   0.98702252   -7.2635961    224.38438  0.028417474  0.028768811            2 
  659000   0.98440878   -7.2598659    224.79598  0.028426401  0.028751316            3 
  660000    0.9892052   -7.2575526    224.02676  0.028286207  0.028733569            4 
  661000   0.99396507   -7.2679894    224.90935  0.028354683  0.028715939            2 
  662000   0.98271521   -7.2683654     224.9699  0.028319474   0.02869858            3 
  663000   0.98593931   -7.3086243    225.11281  0.028294722  0.028681237            2 
  664000   0.98169651   -7.2700996    226.05034  0.028369771  0.028663557            2 
  665000    1.0122864   -7.2658068    225.99935   0.02832072  0.028646124            1 
  666000   0.97605391   -7.2682602    226.02455   0.02828135  0.028628761            3 
  667000    1.0012177   -7.2703752    226.49981  0.028298328  0.028611561            2 
  668000   0.97689932   -7.2500871    227.15605  0.028337831  0.028594396            3 
  669000   0.97554984   -7.2998907    226.42708  0.028204669  0.028577038            4 
  670000   0.99669496   -7.2767542    226.71638  0.028198555  0.028559461            1 
  671000   0.97638366   -7.2804507    226.34035   0.02810983  0.028541764            4 
  672000   0.99953314   -7.2776604    226.77676  0.028122119  0.028523774            2 
  673000   0.97935985   -7.3099615    226.47898   0.02804346  0.028505401            1 
  674000   0.98299719   -7.2552211    226.92896  0.028057488  0.028487211            4 
  675000   0.98549032   -7.2728529    227.15039  0.028043258   0.02846921            3 
  676000   0.98298698   -7.2742437    226.99138  0.027982172  0.028450909            1 
  677000   0.97588235   -7.2993464    227.43529  0.027995482  0.028432715            2 
  678000     1.001687   -7.2937097    227.62044  0.027976947   0.02841451            2 
  679000   0.98393162   -7.2862201    227.65249  0.027939677  0.028396067            2 
  680000   0.98822942   -7.2881244    227.66186  0.027899738  0.028377364            1 
  681000   0.99312605   -7.2665712    228.34257  0.027942067  0.028358777            2 
  682000   0.99297187   -7.2934284     228.3472  0.027901662  0.028340318            3 
  683000   0.99224267   -7.2887127    228.56552  0.027887447  0.028321903            3 
  684000    0.9721664   -7.3149258     228.4814  0.027836427  0.028302866            3 
  685000   0.96990119   -7.2947813     228.8481  0.027840401  0.028284183            4 
  686000   0.98464644   -7.2414977    229.71302  0.027904886  0.028265602            1 
  687000    0.9913745   -7.2978092    228.62144  0.027731858   0.02824683            1 
  688000   0.98010455   -7.3073778    228.75154  0.027707309  0.028228127            6 
  689000   0.99415943   -7.2975753    229.62249  0.027772435    0.0282092            2 
  690000   0.97450868   -7.3110723    228.38251  0.027582428  0.028190308            2 
  691000   0.98663136   -7.3023227    229.88614  0.027723847  0.028171181            2 
  692000   0.97265346   -7.2970965    230.01611  0.027699435  0.028152308            2 
  693000   0.98349979    -7.280516    230.55563  0.027724342  0.028133623            1 
  694000   0.97949883   -7.2875852    230.60405  0.027690208   0.02811479            2 
  695000   0.97134817   -7.3088323    229.57004  0.027526383  0.028095569            2 
  696000   0.97999554    -7.296887    229.79162  0.027513364  0.028076024            3 
  697000   0.98307525   -7.3188775    229.84424  0.027480182  0.028056567            4 
  698000    0.9944245   -7.2779266    230.15711  0.027478165  0.028037162            1 
  699000   0.97539832   -7.2920922    231.06548  0.027547149  0.028017904            4 
  700000   0.97230243   -7.3086151    230.86568   0.02748401   0.02799851            2 
  701000   0.97171733   -7.3155774    230.74478   0.02743043   0.02797923            3 
  702000    1.0006824   -7.3100792    231.02676  0.027424829  0.027960151            3 
  703000   0.97569523   -7.3334545    231.06754  0.027390652  0.027940857            4 
  704000   0.96127087   -7.3237113    231.71627  0.027428536  0.027921595            2 
  705000   0.96388823   -7.2924517    232.57724    0.0274914  0.027902674            2 
  706000   0.98495628   -7.3237003    232.11888  0.027398357  0.027883808            3 
  707000   0.96791502   -7.2988025    233.14909  0.027481033  0.027864984            1 
  708000   0.96934448   -7.2908227    232.80139  0.027401294  0.027846331            2 
  709000   0.95326806   -7.3058235    232.97796  0.027383399  0.027827833            1 
  710000   0.96778763   -7.3044806    233.74458  0.027434809  0.027809401            1 
  711000   0.99261891   -7.2756268    234.16328  0.027445298  0.027791362            2 
  712000   0.95859054   -7.3404587    234.06027  0.027394694  0.027773121            1 
  713000    0.9721165   -7.2735276    234.90923  0.027455497   0.02775505            3 
  714000    0.9424738   -7.3206619    234.94285  0.027420968  0.027736917            2 
  715000   0.98141796   -7.3260953    235.35127  0.027430218  0.027718903            1 
  716000   0.94826365   -7.2980003    235.99054   0.02746631  0.027700966            2 
  717000   0.95635562    -7.277266     235.0353  0.027316981  0.027683139            2 
  718000   0.97702396   -7.3071148    235.44292  0.027326245  0.027665222            3 
  719000   0.97073561    -7.311279    235.25866  0.027266883  0.027647242            2 
  720000   0.96260834   -7.3368497    235.51894  0.027259136  0.027629042            3 
  721000   0.96451107   -7.2931117    236.36924  0.027319607  0.027610828            1 
  722000   0.96902807   -7.3283633    235.30592  0.027159039  0.027592477            1 
  723000     0.956224   -7.3063206    236.13286  0.027216789  0.027574225            2 
  724000   0.96843936   -7.3191884    235.77644  0.027138172  0.027555814            2 
  725000   0.97011485   -7.3551195    235.44749   0.02706293  0.027537225            2 
  726000   0.97479158   -7.2943614    236.10896  0.027101579  0.027518557            3 
  727000   0.95185628   -7.3134078    236.13164  0.027066901  0.027500041            1 
  728000   0.97070049   -7.3193418    236.42172  0.027062926  0.027481429            2 
  729000   0.97130459   -7.3598454    235.96621  0.026973732  0.027462558            2 
  730000   0.94705756   -7.3178715    236.83178  0.027035591  0.027443903            2 
  731000   0.96118869   -7.3232829    237.68483  0.027095853  0.027425668            3 
  732000   0.96469674   -7.3261573    237.76067  0.027067472  0.027407324            2 
  733000   0.97002825   -7.3312099    237.20656  0.026967549  0.027388881            3 
  734000   0.95949353   -7.3210557     237.9056  0.027010172  0.027370525            3 
  735000    0.9427374   -7.3421334    237.19992  0.026893415  0.027352236            3 
  736000   0.96541751   -7.3716403    237.14832  0.026851032  0.027333939            3 
  737000   0.96596725   -7.3549065    238.07016  0.026918833  0.027315626            2 
  738000   0.95545381   -7.3384564     238.3521  0.026914194  0.027297549            2 
  739000   0.96985206   -7.3700395    238.33679  0.026876047  0.027279585            3 
  740000   0.94383647   -7.3213843    238.75247  0.026886539  0.027261658            2 
  741000   0.96880736   -7.3386384    240.01239  0.026991946  0.027244024            2 
  742000   0.96849693   -7.3256173    239.32147  0.026877973  0.027226253            2 
  743000   0.97583754   -7.3158713    240.08793  0.026927762  0.027208397            1 
  744000   0.94863532   -7.3158922    240.52265  0.026940261  0.027190866            2 
  745000    0.9661999   -7.3465941     240.8683  0.026942763  0.027173523            3 
  746000   0.95183352   -7.3796346    240.51209  0.026866856  0.027156034            8 
  747000    0.9481294   -7.3395113     240.8916  0.026873227  0.027138558            2 
  748000   0.96159881   -7.3535842    240.71391  0.026817504  0.027120925            1 
  749000   0.94507849   -7.3153651    241.77244   0.02689947  0.027103614            2 
  750000   0.97342377    -7.335308    241.52049  0.026835609  0.027086055            1 
  751000   0.95998448   -7.3382634    241.70995    0.0268209  0.027068347            3 
  752000   0.96880874   -7.3726999    241.33211  0.026743364  0.027050506            2 
  753000   0.96042391    -7.377492      241.632  0.026741036  0.027032685            2 
  754000   0.94888618   -7.4033716    241.12968  0.026650054  0.027014934            2 
  755000   0.94970669   -7.3330611    242.78179  0.026797107   0.02699723            3 
  756000   0.94600458   -7.3691771    241.38407  0.026607592  0.026979607            3 
  757000   0.96512309   -7.3366749    242.88829  0.026738033  0.026961945            2 
  758000   0.96012828   -7.3794532    242.96593  0.026711294  0.026944631            2 
  759000   0.93257914   -7.3761401    242.40143  0.026614123  0.026926981            2 
  760000   0.96590905   -7.3432375    242.50837   0.02659083  0.026909464            2 
  761000   0.94794936   -7.3928927    243.60491  0.026675965    0.0268921            2 
  762000   0.94046343   -7.3858278    243.67502  0.026648624  0.026874618            3 
  763000   0.95587683   -7.3559396    243.38755  0.026582301  0.026857152            3 
  764000   0.93953221   -7.4069925    243.38346  0.026547061  0.026839735            2 
  765000   0.96102101   -7.3862151    243.76171  0.026553563  0.026822274            2 
  766000   0.95335946   -7.3506433    244.35714  0.026583675  0.026804927            2 
  767000   0.94016775    -7.321805    244.52086  0.026566803  0.026787895            2 
  768000   0.95864586   -7.3861834     244.3149  0.026509864  0.026770434            2 
  769000   0.94363624   -7.3991767    244.18909  0.026461757  0.026752704            2 
  770000   0.96768706   -7.3280268    244.90118  0.026504457  0.026735221            3 
  771000    0.9547408   -7.3505857     245.4337  0.026527638  0.026717706            2 
  772000   0.96111326   -7.3545637    244.91476  0.026437258  0.026700396            2 
  773000    0.9601112   -7.3644501    245.36565  0.026451665  0.026683121            3 
  774000   0.96080398   -7.3899054    244.82281  0.026359045  0.026665404            2 
  775000   0.95514399   -7.4343885     244.4525  0.026285215  0.026647723            2 
  776000    0.9593905     -7.39263    245.23092  0.026334936   0.02662992            1 
  777000   0.96130143   -7.3847254    245.28131  0.026306447  0.026612173            3 
  778000   0.95277002   -7.3824517    245.56891  0.026303439  0.026594299            3 
  779000   0.94217383   -7.3589897    246.36799  0.026355155  0.026576702            3 
  780000   0.96379424    -7.353924    245.83481  0.026264403  0.026559152            1 
  781000   0.93119721   -7.3841005    246.72811  0.026326089  0.026541627            2 
  782000   0.91245417   -7.3931553    246.03604  0.026218675  0.026523731            5 
  783000   0.93063642   -7.3635871    246.58746  0.026243877  0.026505902            2 
  784000   0.95497394   -7.3682675    246.57466  0.026209041  0.026488142            3 
  785000   0.93503051   -7.3893146    246.59096  0.026177384  0.026470325            2 
  786000   0.94356489   -7.3594433    246.25256  0.026108202  0.026452297            2 
  787000   0.92970621   -7.3814632    246.55171  0.026106704  0.026434247            6 
  788000   0.92579954   -7.3924998    247.24974  0.026147392  0.026416439            9 
  789000    0.9578951   -7.3596329     247.5879  0.026149969  0.026398712            3 
  790000   0.94167048   -7.3463911    247.52394   0.02611012  0.026381255            2 
  791000   0.94488532   -7.3725194    247.88065  0.026114692  0.026363776            3 
  792000   0.95177877   -7.3653944    248.42796  0.026139306  0.026346008            3 
  793000   0.92860215   -7.3928351    247.95958  0.026057123  0.026328446            2 
  794000   0.93813476   -7.3731996    248.54532  0.026085781   0.02631098            3 
  795000   0.93871113   -7.4028865    248.57933  0.026056533  0.026293228            3 
  796000   0.92774031   -7.4012132    248.36443  0.026001302  0.026275368            3 
  797000     0.961921   -7.4070399    248.45291  0.025977928  0.026257542            2 
  798000    0.9176198   -7.4063976    247.68425  0.025865105  0.026239614            3 
  799000   0.95765572   -7.3875529    248.64718  0.025933165  0.026221845            6 
  800000   0.95205142   -7.3907741    248.70131  0.025906386  0.026204032            2 
  801000   0.93831137   -7.3662617    249.31673   0.02593807  0.026186419            4 
  802000   0.95716164   -7.3655065    249.17561  0.025891066  0.026168597            2 
  803000    0.9483982   -7.3725138     249.1993   0.02586128  0.026150674            2 
  804000   0.93793521     -7.39411    249.79411  0.025890766  0.026132776            4 
  805000   0.93713101   -7.4017678    248.83083  0.025758885  0.026114759            1 
  806000   0.94819732   -7.3994612    249.57584  0.025803953  0.026096617            1 
  807000    0.9577395   -7.3882382    249.61238  0.025775751  0.026078317            2 
  808000   0.92002808     -7.38944    249.79323  0.025762503  0.026060078            2 
  809000   0.93391474   -7.3777627    250.05466  0.025757587  0.026041862            2 
  810000   0.92262016   -7.3982281    249.95399  0.025715431  0.026023678            3 
  811000   0.93060564   -7.3896644    249.24061   0.02561042  0.026005329            4 
  812000   0.91216561   -7.4043265    249.35729  0.025590855  0.025986972            4 
  813000   0.94038173   -7.3804384    249.63768  0.025588118  0.025968475            1 
  814000   0.90905716   -7.3941597    250.97418  0.025693508  0.025950148            3 
  815000   0.91236204   -7.3825422    250.75576  0.025639648  0.025931966            3 
  816000   0.90609971   -7.3998502    251.71356  0.025706042  0.025914004            5 
  817000   0.94104251   -7.3861013    251.71302  0.025674522  0.025896109            3 
  818000   0.92771585    -7.353959    252.05124  0.025677591  0.025878041            3 
  819000   0.94580298   -7.4112238    251.03549  0.025542887  0.025860006            2 
  820000   0.91762885   -7.4253988    251.38949  0.025547712    0.0258421            1 
  821000   0.93139811   -7.4058324    251.17062  0.025494379  0.025824031            4 
  822000   0.90440845   -7.4318805    251.25178  0.025471591  0.025805886            3 
  823000   0.90244577   -7.4191285    251.73442  0.025489511  0.025787747            4 
  824000   0.92617929   -7.3987912    252.71061  0.025557303  0.025769747            3 
  825000   0.91154091   -7.4216479    252.59578  0.025514725  0.025751823            1 
  826000   0.92406999   -7.4043431    252.03466  0.025427226  0.025733859            4 
  827000   0.92664184   -7.4088834    252.61644  0.025455103  0.025715877            3 
  828000   0.91682512    -7.409609    253.32597   0.02549577  0.025698137            3 
  829000   0.91873623   -7.4035969    252.69114    0.0254012  0.025680322            2 
  830000   0.95285489   -7.4101126    251.97557  0.025298752  0.025662431            6 
  831000   0.92744552   -7.4397466    252.77164  0.025348139  0.025644512            2 
  832000    0.9425422   -7.4544656    252.80319  0.025320832  0.025626775            2 
  833000   0.94260059   -7.4156547    253.66345  0.025376495  0.025609134            2 
  834000   0.91838632   -7.4235352     253.5801   0.02533774  0.025591564            2 
  835000   0.93409384   -7.4338537    254.49836  0.025399038   0.02557385            2 
  836000   0.91587961   -7.3985069    255.10958  0.025429583  0.025556339            2 
  837000   0.94707391   -7.3795291    254.19349  0.025307994  0.025538739            1 
  838000   0.92216929   -7.4097231    254.60045  0.025318262  0.025521104            3 
  839000   0.89782532   -7.4602058    253.29902  0.025158822  0.025503118            3 
  840000   0.92248063   -7.4218799    253.95186  0.025193637  0.025484977            2 
  841000   0.90650553   -7.4381072    254.74576  0.025242347  0.025466887            2 
  842000   0.91196873   -7.4093666    254.90872  0.025228495  0.025448814            2 
  843000   0.93081302   -7.4239531    254.72047  0.025179959  0.025430881            1 
  844000   0.93998986   -7.4102289    255.19683  0.025197159  0.025412925            3 
  845000   0.90131345   -7.3969737    255.47693  0.025194963  0.025395123            3 
  846000      0.92491   -7.4410004    255.90459  0.025207308  0.025377456            2 
  847000   0.91343405   -7.4825085    254.73413   0.02506239  0.025359793            2 
  848000   0.90664483   -7.4444661     255.2066  0.025079265  0.025341893            3 
  849000   0.92057794   -7.4299119    255.69737  0.025097897  0.025324087            2 
  850000   0.89587399   -7.4150834    256.11741   0.02510955  0.025306338            1 
  851000   0.91101338   -7.4252419    255.65378  0.025034644  0.025288599            2 
  852000   0.91769329   -7.4231094    255.85717  0.025025154  0.025270709            3 
  853000   0.90836188   -7.4372116    255.87892  0.024997941  0.025252807            1 
  854000    0.9081525   -7.4381096    256.51937  0.025031164  0.025235027            1 
  855000   0.93378168   -7.4701142    256.65211  0.025014826    0.0252172            2 
  856000   0.91086359   -7.4202803    257.46852  0.025065081   0.02519953            2 
  857000   0.91663451   -7.4145672    257.04649  0.024994797  0.025181962            2 
  858000    0.8941031   -7.4463276    256.34901  0.024897923  0.025164428            1 
  859000   0.92153724   -7.4780112     256.7194   0.02490487  0.025146793            3 
  860000   0.92354048   -7.4686099    257.23836  0.024926198  0.025129115            2 
  861000   0.89510002   -7.4452409    257.57852   0.02493017  0.025111567            2 
  862000   0.90020987   -7.4580405    256.62604  0.024809169  0.025093928            3 
  863000   0.89124418   -7.4491097    258.26045  0.024938243  0.025076334            3 
  864000   0.93941256   -7.4645657    256.94845  0.024782836  0.025058745            2 
  865000   0.88237596   -7.4519778    257.09093  0.024767913  0.025040966            2 
  866000   0.92159698   -7.4720873    258.08512  0.024834981  0.025023182            1 
  867000   0.90036505    -7.431825    258.44114  0.024840556   0.02500565            5 
  868000   0.89891549   -7.4300639    258.51812  0.024819328  0.024988273            2 
  869000   0.88404792   -7.4576829    257.76797  0.024718831  0.024970642            2 
  870000   0.89015543   -7.4897184    258.04047   0.02471652  0.024952864            2 
  871000   0.90339061   -7.4754072    257.92618  0.024677208  0.024935165            2 
  872000   0.92701274   -7.4884423    259.06488  0.024757729  0.024917545            3 
  873000   0.89913493   -7.4331645    258.94282  0.024717719   0.02490017            2 
  874000   0.89896653   -7.4565491    258.87072  0.024682563  0.024882721            2 
  875000   0.89594452   -7.4729902    259.48897  0.024713235  0.024865324            2 
  876000   0.91025639   -7.4604439    259.39014  0.024675622  0.024848108            2 
  877000   0.91557219   -7.4497926    259.87117  0.024693193  0.024830676            2 
  878000   0.90039214   -7.5024835    259.29173  0.024610073  0.024813196            3 
  879000   0.91110431   -7.4570361    259.84093  0.024634142  0.024795699            1 
  880000   0.90104849    -7.486163    260.15184  0.024635591  0.024778342            7 
  881000   0.88820484   -7.4520552    259.99218  0.024592526  0.024761068            2 
  882000   0.90715053   -7.4509954    259.86975  0.024553075  0.024743596            2 
  883000   0.89179241   -7.4501186    260.29512  0.024565414  0.024726092            2 
  884000   0.90474836      -7.4851    260.06768  0.024516184  0.024708529            6 
  885000   0.89294434   -7.4809284    260.41922  0.024521584  0.024691188            2 
  886000   0.88990642   -7.4561912    260.28699   0.02448147  0.024673692            2 
  887000   0.90979836   -7.4812219    260.41514  0.024465909  0.024656039            2 
  888000   0.89390398   -7.4820211    260.37548  0.024434635  0.024638483            2 
  889000   0.88618257   -7.4717846    260.57027   0.02442541  0.024620984            3 
  890000   0.90568175    -7.468698    260.66636  0.024406962  0.024603551            1 
  891000   0.88768912   -7.4477201    261.30451  0.024439254  0.024586213            3 
  892000   0.88381688   -7.5075381    261.03182  0.024386381  0.024568728            6 
  893000   0.92548856    -7.456613    261.12119  0.024367412  0.024551106            6 
  894000   0.90399482   -7.4611422    261.60036  0.024384821  0.024533467            3 
  895000    0.9013865    -7.495775    260.82032  0.024284946  0.024515844            2 
  896000   0.90394923   -7.4920749    261.36889  0.024308863  0.024498337            1 
  897000   0.90362702   -7.4938588    262.17542  0.024356691  0.024480736            3 
  898000   0.89541239    -7.470932    262.39681  0.024350112  0.024463277            3 
  899000   0.88691322   -7.4704766    261.04165  0.024197409  0.024445843            2 
  900000   0.90222108   -7.5141172    261.50773  0.024213678  0.024428548            2 
  901000   0.89231387   -7.4645621    262.73924  0.024300707  0.024411233            2 
  902000    0.9266448   -7.4673963    262.11243  0.024215856  0.024394146            3 
  903000   0.88671825   -7.4515597    262.54467  0.024228928  0.024376946            3 
  904000   0.89054871    -7.457524    263.26237  0.024268286  0.024359693            3 
  905000    0.9051269   -7.4789467    262.97095  0.024214636  0.024342654            4 
  906000   0.90738815   -7.4769598    263.20111  0.024209079  0.024325432            8 
  907000   0.90116713   -7.4793556    262.77695  0.024143417   0.02430816            2 
  908000   0.87984137   -7.4731556     263.5224  0.024185242  0.024291041            2 
  909000    0.8800878   -7.5139712    262.98268  0.024109156  0.024273768            2 
  910000   0.88969672   -7.4974292    262.83517  0.024069155  0.024256438            3 
  911000   0.89985103    -7.500365    263.54693  0.024107842  0.024239228            1 
  912000   0.87388997   -7.4595595    263.93701  0.024117051  0.024222043            1 
  913000   0.87470681   -7.4733296    263.90477  0.024087693  0.024205024            2 
  914000   0.89417428   -7.4907775    264.01715  0.024071585  0.024187957            3 
  915000   0.89281454   -7.5177295    264.21931   0.02406369  0.024170705            3 
  916000   0.88885566   -7.4551966    264.76836  0.024087369  0.024153774            3 
  917000   0.90024514   -7.5051776    264.09496  0.023999906  0.024136666            3 
  918000   0.88302753   -7.5034299    264.27018  0.023989668  0.024119652            3 
  919000   0.88624078   -7.4920836    264.69827  0.024002382  0.024102564            4 
  920000   0.89531058   -7.5036839    264.92491  0.023996821  0.024085347            4 
  921000   0.88373557   -7.4620659    265.74546   0.02404501  0.024068304            3 
  922000   0.87603134   -7.4871945    265.30704  0.023979306  0.024051289            3 
  923000   0.87267797   -7.4931103    265.21591  0.023945099  0.024034215            2 
  924000   0.88476735   -7.5122002    264.84021  0.023885301  0.024017056            2 
  925000   0.88057946   -7.5314195    264.07143  0.023790219  0.023999771            3 
  926000   0.87470106   -7.4935131     265.3185  0.023876754  0.023982459            5 
  927000   0.87967848    -7.490896    265.67314  0.023882879  0.023965291            1 
  928000   0.89151627   -7.4845764    265.43794  0.023836022  0.023948162            3 
  929000   0.87571371   -7.5198241    266.10453  0.023870159  0.023931067            2 
  930000   0.86103656   -7.5307323    265.42603  0.023783694  0.023913796            3 
  931000   0.86353741   -7.5242659    265.51538  0.023766146  0.023896604            1 
  932000   0.88373046   -7.4946044    266.43799  0.023823139  0.023879411            2 
  933000    0.8716433   -7.5248619    265.64043  0.023726369  0.023862429            3 
  934000   0.87340567   -7.5007785    266.56201  0.023783191  0.023845375            3 
  935000   0.87636446   -7.5226873    266.31461  0.023735705  0.023828394            3 
  936000   0.88092289   -7.5568706    265.82653  0.023666892  0.023811366            2 
  937000   0.85145834   -7.4978053    266.74662  0.023723463  0.023794293            3 
  938000   0.87971543    -7.508202    267.06327  0.023726303  0.023777253            2 
  939000   0.87371085   -7.5116602    266.48526  0.023649739  0.023760337            5 
  940000   0.88958965   -7.5192506    267.03936  0.023673702   0.02374349            6 
  941000   0.88357795   -7.4890375    267.34753  0.023675835  0.023726688            2 
  942000   0.88768608    -7.504032    267.21004  0.023638539  0.023710024            3 
  943000   0.88501931   -7.4856244    267.59544  0.023647529  0.023693134            2 
  944000   0.88681072   -7.5062885    267.29821  0.023596241  0.023676358            3 
  945000   0.87369807   -7.5054615    267.73741  0.023610001  0.023659558            2 
  946000   0.87272467   -7.5545683      267.761  0.023587121  0.023642639            2 
  947000   0.88440725   -7.5348016    267.61155  0.023549063  0.023625783            2 
  948000    0.8660835   -7.5362225    267.81165  0.023541812  0.023608853            2 
  949000   0.88511081   -7.5210096    267.80569  0.023516482  0.023592051            4 
  950000   0.85470864   -7.5693658    268.06856  0.023514786  0.023575127            7 
  951000   0.87850227   -7.5549228    268.15123  0.023497304  0.023558217            4 
  952000   0.88497007   -7.5645574    268.33745  0.023488923  0.023541276            2 
  953000    0.8861023   -7.5261273    267.87792  0.023424092  0.023524452            2 
  954000   0.87216579    -7.521527    268.54161  0.023457513  0.023507646            4 
  955000   0.87103285   -7.5472435    267.78575  0.023366994  0.023490975            2 
  956000   0.86894099   -7.4945512    269.63792  0.023504003  0.023474415            5 
  957000   0.86225242   -7.5478069     269.4724   0.02346503  0.023457828            1 
  958000    0.8833148   -7.5101798    269.45035  0.023438618  0.023441323            3 
  959000   0.87558547   -7.5373222    269.35889   0.02340623  0.023424845            2 
  960000   0.87842253   -7.5364534    269.57601  0.023400696  0.023408422            3 
  961000   0.84472451   -7.5348238    269.81094  0.023396717  0.023392003            3 
  962000   0.85684372   -7.5314395     270.2713  0.023412275  0.023375602            2 
  963000   0.86006015   -7.5312764    270.20451  0.023382183  0.023359131            2 
  964000   0.88669499   -7.5574458    270.02199   0.02334215  0.023342663            1 
  965000   0.86372046   -7.5536943    270.27503  0.023339813  0.023326177            4 
  966000   0.86892749   -7.5597148    269.71978  0.023267752  0.023309739            2 
  967000   0.87272515   -7.5819211    269.51035  0.023225642  0.023293201            2 
  968000   0.85241878   -7.5365903    270.18379  0.023259624   0.02327662            3 
  969000   0.86563354   -7.5389281     270.3407  0.023249114  0.023260051            3 
  970000   0.86533344   -7.5642784    270.00314  0.023196146  0.023243452            3 
  971000   0.87796503   -7.5560299    270.02366  0.023174019   0.02322674            2 
  972000   0.85616872   -7.5622562    270.02507  0.023150298  0.023210115            2 
  973000   0.87856475   -7.5250804    270.14747  0.023136988  0.023193485            3 
  974000   0.85718953   -7.5549951    269.80915  0.023084288  0.023176787            4 
  975000   0.85713079    -7.522267    271.17845  0.023177645  0.023160301            3 
  976000    0.8602958    -7.551572    270.97471  0.023136502   0.02314379            3 
  977000   0.86689475   -7.5545836    271.67009  0.023172133  0.023127333            2 
  978000   0.87134343    -7.576607    271.37238  0.023123072  0.023110782            1 
  979000   0.87343188   -7.5869516    271.83343  0.023138699  0.023094215            2 
  980000   0.86184725   -7.5484839    271.26229  0.023066521  0.023077733            2 
  981000   0.85471378   -7.5447757     270.8415  0.023007263    0.0230611            2 
  982000   0.85051654   -7.5811494    271.03972  0.023000655  0.023044615            2 
  983000   0.85396671   -7.5590661    271.52992  0.023018813  0.023027921            2 
  984000   0.86725252   -7.5910521    271.71474  0.023011072   0.02301122            2 
  985000   0.86148906   -7.5655277    271.95185  0.023007771  0.022994612            1 
  986000   0.83873967   -7.5834021    271.40812  0.022938482   0.02297808            3 
  987000   0.85333343   -7.5605381    271.62488  0.022933543  0.022961365            3 
  988000   0.85103429   -7.5749913     272.1244  0.022952463  0.022944804            7 
  989000   0.85915479   -7.5744493    271.74933  0.022897652  0.022928238            2 
  990000   0.84974701   -7.5321091    272.62696  0.022948398  0.022911722            1 
  991000   0.86975382   -7.5463232    272.47537  0.022912494  0.022895348            3 
  992000   0.86469348    -7.581456    272.63498  0.022902804  0.022879098            2 
  993000    0.8809141   -7.5794647    272.86511  0.022899053  0.022862717            2 
  994000   0.85841576    -7.561774    273.14398  0.022899395  0.022846477            1 
  995000   0.86198745   -7.5770083      272.642  0.022834339  0.022830094            2 
  996000   0.86303038   -7.5649252    273.53598   0.02288621  0.022813798            7 
  997000   0.84960327   -7.5802112    272.42034  0.022770005  0.022797352            6 
  998000   0.86029422   -7.5727401     273.0364  0.022798631  0.022781002            3 
  999000   0.85299807   -7.6077523    272.17613  0.022704048  0.022764594            2 
 1000000   0.86015621   -7.5649056    273.10253  0.022758544  0.022748143            2 
 1001000   0.85274135   -7.5934741    273.28335  0.022750862  0.022731792            3 
 1002000   0.84767998   -7.5857902    273.09776  0.022712721  0.022715527            3 
 1003000   0.85341033   -7.5672638    273.62302  0.022733717  0.022699177            3 
 1004000   0.83278361   -7.6237949    272.50326  0.022618133  0.022682738            2 
 1005000   0.85849844   -7.5652713    273.97085  0.022717317  0.022666182            5 
 1006000   0.84603958   -7.6051716    273.87902  0.022687129  0.022649773            4 
 1007000    0.8326677   -7.5985641    273.51124  0.022634164  0.022633344            3 
 1008000   0.85131723   -7.6110007    273.37746  0.022600649  0.022616963            5 
 1009000   0.84846417   -7.6007993    273.74862  0.022608905  0.022600616            2 
 1010000   0.85965017   -7.5600734    274.92691  0.022683738  0.022584407            8 
 1011000    0.8378147   -7.5986848    274.54536  0.022629851  0.022568198            2 
 1012000   0.84661121   -7.6123104    274.08171  0.022569311  0.022551977            5 
 1013000   0.85104276    -7.580994    274.55266  0.022585773  0.022535765            2 
 1014000   0.85384367   -7.6429891    274.81549    0.0225851  0.022519551            2 
 1015000   0.84530386   -7.6049741    273.93073  0.022490208  0.022503373            5 
 1016000   0.83291136    -7.602845    275.01352  0.022556883  0.022487301            3 
 1017000    0.8491412   -7.5913749    275.34703  0.022562031  0.022471252            8 
 1018000   0.83715343   -7.6127546    275.93614  0.022588093  0.022455212            2 
 1019000   0.83103319   -7.5802225    275.53868  0.022533421  0.022439239            3 
 1020000   0.85031012    -7.628834    275.73163  0.022527094  0.022423119            3 
 1021000   0.84045565   -7.6366493    275.44988  0.022482034  0.022406995            3 
 1022000   0.85129818   -7.6135189    275.23431  0.022442459  0.022390994            1 
 1023000   0.84728016   -7.6125379    275.23935  0.022420931  0.022375147            3 
 1024000   0.85055676   -7.5378732    276.16129  0.022474063  0.022359422            3 
 1025000   0.85280121   -7.5811484    276.16195  0.022452191  0.022343626            2 
 1026000   0.83411902   -7.5969479    276.91745  0.022491671  0.022327969            4 
 1027000   0.85023278   -7.5606549    277.36671  0.022506225  0.022312282            5 
 1028000   0.83723828   -7.5706012    277.25573  0.022475335  0.022296542            1 
 1029000   0.84146937   -7.5965039    276.73107  0.022411003  0.022280588            3 
 1030000   0.82964986   -7.6207843    276.42066  0.022364131  0.022264708            4 
 1031000   0.81441019   -7.6102077    276.79442  0.022372649   0.02224877            7 
 1032000   0.83002537   -7.6004191    277.00386  0.022367883  0.022233008            2 
 1033000   0.83792946   -7.6013302    276.89358  0.022337333  0.022217217            3 
 1034000   0.85119412    -7.565146    277.59902  0.022372584   0.02220147            1 
 1035000   0.84494743   -7.6061219    277.59602  0.022350726  0.022185775            2 
 1036000   0.83045638    -7.638141    277.54061  0.022324695  0.022170064            2 
 1037000   0.84729751   -7.5907228    277.70221  0.022316153  0.022154298            4 
 1038000   0.84130605   -7.6080327    277.58489  0.022285235  0.022138614            4 
 1039000   0.84964356   -7.6001571    278.97012  0.022374889  0.022122979            6 
 1040000   0.84009082   -7.5881249    278.07621  0.022281748  0.022107449            2 
 1041000   0.83680876   -7.5816772    278.62703  0.022304437     0.022092            3 
 1042000   0.84396858   -7.6359551    277.72679  0.022211036  0.022076398            1 
 1043000   0.82890944   -7.6302625    277.46095    0.0221685  0.022060719            2 
 1044000   0.83134701   -7.6235737    278.57648  0.022236309  0.022045043            2 
 1045000   0.81635379   -7.6319822    278.42062  0.022202601  0.022029534            5 
 1046000   0.83127567   -7.6019889    279.17479  0.022241459  0.022014053            2 
 1047000   0.85214856   -7.5873329    279.19609  0.022221911  0.021998699            3 
 1048000    0.8291112    -7.619496    278.40435   0.02213775   0.02198334            1 
 1049000   0.83584891   -7.6269201    278.50414  0.022124574  0.021967938            1 
 1050000   0.85668791   -7.5858787    279.16343  0.022155828  0.021952603            3 
 1051000   0.84825243   -7.6151561    279.56598  0.022166665  0.021937255            3 
 1052000   0.84107774   -7.5997894    279.11395  0.022109787  0.021921962            4 
 1053000   0.83437093   -7.6226571    279.27783  0.022101759  0.021906597            3 
 1054000   0.85265291   -7.6257513     279.1102  0.022067537  0.021891228            2 
 1055000   0.83318378   -7.6306903    279.26594  0.022058921  0.021875825            2 
 1056000   0.82525957   -7.6381256     278.7963   0.02200097  0.021860435            5 
 1057000   0.83942227   -7.6064004    280.36643  0.022103944  0.021845119            3 
 1058000   0.81419721   -7.6206641    279.67593  0.022028665  0.021829824            4 
 1059000   0.83086061   -7.6406123    280.08426  0.022039996  0.021814613            2 
 1060000   0.82563654   -7.6220458     279.9029  0.022004945  0.021799331            2 
 1061000   0.81487673   -7.6315745    279.86075  0.021980895  0.021784042            2 
 1062000    0.8354007   -7.6116875    280.43158  0.022004989  0.021768851            2 
 1063000   0.82196482   -7.5947327    280.10951   0.02195904  0.021753701            2 
 1064000   0.82870231   -7.6403015    280.68751  0.021983671  0.021738535            2 
 1065000    0.8345109   -7.6320989    279.90317  0.021901656  0.021723329            2 
 1066000   0.81819145   -7.6380905     279.1271  0.021820443  0.021707999            3 
 1067000   0.83744283   -7.6608493    279.85971   0.02185721  0.021692539            2 
 1068000   0.84368122   -7.6622331    280.31866  0.021872555  0.021677221            4 
 1069000   0.82846959   -7.6211391    279.59821  0.021795931  0.021661884            4 
 1070000    0.8130765   -7.6319179    280.44657  0.021841633  0.021646468            3 
 1071000   0.83620805   -7.6430217    279.61219  0.021756318   0.02163105            7 
 1072000    0.8217361   -7.6374978    279.94422  0.021761833  0.021615474            2 
 1073000   0.82083941   -7.6180616    280.68254  0.021798892  0.021600013            4 
 1074000   0.82784075   -7.6256679     281.2686  0.021824069  0.021584618            3 
 1075000   0.83286641   -7.6555365    280.75289   0.02176379  0.021569212            2 
 1076000   0.81789174   -7.6430118    280.11878  0.021694453  0.021553759            2 
 1077000   0.82135908   -7.6456951    280.71919  0.021720767  0.021538371            3 
 1078000   0.83559171   -7.6515509    280.89704  0.021714366  0.021522887            2 
 1079000   0.81974729   -7.6306047     280.7787  0.021685102  0.021507433            5 
 1080000   0.82335224    -7.639511    281.46443  0.021717934   0.02149205            2 
 1081000   0.82458254    -7.645972    281.02281  0.021663799  0.021476723            1 
 1082000   0.82262459   -7.6382752    281.65084  0.021692148   0.02146141            3 
 1083000   0.80933817   -7.6785908    280.79317  0.021606123  0.021446076            3 
 1084000   0.82427139   -7.6449768    281.67285  0.021653817  0.021430814            3 
 1085000   0.84288949   -7.6381815    282.04705  0.021662599  0.021415578            2 
 1086000   0.82951287   -7.6402273    281.99745  0.021638846  0.021400382            2 
 1087000   0.81054413   -7.6691953    281.88819  0.021610563  0.021385168            4 
 1088000   0.83703873    -7.674056    281.66614  0.021573693  0.021369949            3 
 1089000   0.81192275   -7.6880329    282.04097  0.021582566  0.021354858            2 
 1090000    0.8309904   -7.6601324    282.52492  0.021599765  0.021339764            4 
 1091000   0.81773677   -7.6868018    282.02056  0.021541442  0.021324622            4 
 1092000   0.81134623   -7.6327565    282.65169  0.021569878  0.021309543            3 
 1093000   0.80609943   -7.6513746    282.59659  0.021545943  0.021294454            4 
 1094000   0.79830237   -7.6389442    283.02579  0.021558942  0.021279444            2 
 1095000   0.80009858   -7.6757535     282.7118  0.021515358  0.021264396            2 
 1096000   0.79832381     -7.65797    282.57756   0.02148552  0.021249356            1 
 1097000   0.83937959   -7.6416991    282.44454   0.02145583  0.021234469            2 
 1098000   0.80242824   -7.6768226    282.43685  0.021435705  0.021219427            3 
 1099000   0.81139572   -7.6893002    283.47395   0.02149484   0.02120442            1 
 1100000   0.79382238   -7.6708314    283.02173   0.02144104  0.021189491            2 
 1101000   0.80905848   -7.6624079    283.88032  0.021486551  0.021174509            2 
 1102000   0.81181292   -7.6852661    283.80567  0.021461409  0.021159542            2 
 1103000   0.80594442   -7.6830718    283.67487   0.02143207   0.02114476            5 
 1104000   0.81020473   -7.6892459    284.23555  0.021454978  0.021129925            4 
 1105000   0.79265099   -7.6697602    283.79285  0.021402176  0.021114998            2 
 1106000   0.82897774    -7.672949    283.58565  0.021367213  0.021100187            2 
 1107000   0.78484579    -7.672027    284.43365  0.021411747  0.021085452            5 
 1108000   0.81332134   -7.6996655     283.8273  0.021346819  0.021070627            1 
 1109000   0.81674734   -7.6832375     284.2824  0.021361767  0.021055787            3 
 1110000   0.79517205   -7.6903097    283.70657  0.021299292  0.021040888            2 
 1111000   0.78444078   -7.6978199    284.37302   0.02133011  0.021025876            3 
 1112000   0.79160519   -7.6824516    283.88945  0.021274689  0.021010818            2 
 1113000   0.80900317   -7.6623945    284.19558  0.021278495  0.020995821            2 
 1114000   0.80201322   -7.6948111    284.20941  0.021260429   0.02098088            2 
 1115000   0.80993716   -7.6937234     283.7626  0.021207967  0.020965847            4 
 1116000   0.80756202   -7.6922118    284.38393  0.021235359  0.020950879            2 
 1117000   0.80479823   -7.6933412    284.17059  0.021200432  0.020935986            4 
 1118000     0.807526   -7.6756624    283.96728  0.021166315  0.020921049            3 
 1119000   0.81078916   -7.6673666    285.11265  0.021232697  0.020906087            3 
 1120000   0.78716525   -7.6619024    284.63778  0.021178406  0.020891158            3 
 1121000   0.80945171    -7.710335     285.0688  0.021191555  0.020876139            2 
 1122000   0.81263248   -7.6774242    283.80906  0.021079105  0.020861172            3 
 1123000   0.80148198   -7.6931793     284.0735  0.021079957  0.020846175            3 
 1124000     0.806441   -7.7126663    283.76721  0.021038494  0.020831087            4 
 1125000   0.79766651   -7.6681739    283.96167  0.021034198  0.020815959            3 
 1126000    0.7822769   -7.7002197    284.27658  0.021038823  0.020800861            3 
 1127000   0.80142836   -7.7172038    284.35129  0.021025679  0.020785822            4 
 1128000    0.7999142   -7.6775601    285.07656   0.02106062  0.020770815            3 
 1129000   0.80175013    -7.679914    284.17858  0.020975685  0.020755794            1 
 1130000    0.8044979   -7.7139799    284.10041  0.020951357  0.020740728            2 
 1131000   0.80122126   -7.7189224    284.63879  0.020972501  0.020725638            2 
 1132000   0.79924721   -7.7033943    285.27534  0.021000835  0.020710629            4 
 1133000   0.81316064   -7.7035211    285.07258  0.020967386  0.020695625            2 
 1134000   0.80456187   -7.6870022    285.58806  0.020986777  0.020680731            3 
 1135000   0.78231664   -7.6987189    285.41217  0.020955372  0.020665791            2 
 1136000   0.79071214   -7.6888235    285.33797  0.020931483  0.020650861            3 
 1137000   0.80466988   -7.7144114    285.40791  0.020918199  0.020635977            2 
 1138000   0.80756831   -7.7189381    285.02194  0.020871554  0.020620968            2 
 1139000   0.78739313     -7.69516    285.09927  0.020858887  0.020605987            4 
 1140000    0.7723682   -7.7453711    285.74419  0.020887733  0.020591036            4 
 1141000   0.77747655   -7.7055431    284.95136  0.020811522  0.020576023            3 
 1142000   0.80732234   -7.7396021    285.42687  0.020827997  0.020561006            4 
 1143000   0.79281546   -7.7043618    284.63949  0.020752369  0.020545954            2 
 1144000   0.79540911    -7.695411    285.40308  0.020789852  0.020530938            5 
 1145000   0.78849908   -7.6955539    285.24221  0.020759986   0.02051587            2 
 1146000   0.77760916   -7.6994497    285.48277  0.020759364  0.020500869            1 
 1147000    0.8016162   -7.6764196    285.79555   0.02076399  0.020485836            4 
 1148000    0.7938148   -7.7268229    285.00817  0.020688747  0.020470815            4 
 1149000   0.78539084   -7.7107623    285.33129  0.020694176  0.020455724            2 
 1150000   0.78963271   -7.7131668    285.21977    0.0206681  0.020440629            2 
 1151000   0.78633238   -7.7256084     284.7392  0.020615349  0.020425557            3 
 1152000   0.78804923   -7.7405712    285.25971  0.020635106  0.020410364            4 
 1153000   0.79016773   -7.7105541     285.6438   0.02064497  0.020395186            3 
 1154000   0.78003941   -7.7177079    286.21141  0.020668068   0.02037999            5 
 1155000   0.77765778     -7.74059    285.46375   0.02059623  0.020364878            2 
 1156000   0.79459255   -7.7606126    284.84545  0.020533841  0.020349584            3 
 1157000      0.77479    -7.736622    285.18485   0.02054054   0.02033422            2 
 1158000   0.78369184   -7.7590403    285.78822  0.020566222  0.020318885            3 
 1159000   0.80408256     -7.72109     285.4677  0.020525431  0.020303668            1 
 1160000   0.80500543   -7.7083671    285.08094  0.020479953  0.020288427            1 
 1161000   0.79895653   -7.7382633     285.8946  0.020520715  0.020273183            3 
 1162000   0.78920803   -7.7346417     285.4502  0.020471185  0.020258002            3 
 1163000   0.80930652   -7.7226323    285.83961  0.020481485  0.020242805            3 
 1164000   0.79267828   -7.7350775    284.58275  0.020373908  0.020227597            3 
 1165000   0.79282953   -7.7156242    285.88802  0.020449787  0.020212426            2 
 1166000   0.78336866   -7.7617505    285.73104  0.020421029  0.020197393            5 
 1167000   0.80611446   -7.7411736    285.79816  0.020408323  0.020182261            3 
 1168000   0.79881711    -7.720336     285.9415  0.020401077  0.020167217            2 
 1169000   0.78462726   -7.7289628    285.89844  0.020380556  0.020152099            2 
 1170000    0.7796937   -7.7670797    286.06138  0.020374742  0.020136983            1 
 1171000   0.78124461   -7.7512562     286.1635   0.02036461  0.020121853            2 
 1172000   0.79683175   -7.7584523    285.87715  0.020326874  0.020106784            4 
 1173000   0.77429287   -7.7372594    286.46538  0.020351334  0.020091671            2 
 1174000   0.77203949   -7.7238137    286.11747  0.020309303  0.020076603            2 
 1175000   0.78385533   -7.7688103    286.27377  0.020303104  0.020061495            4 
 1176000   0.78117122   -7.7743401    285.81545  0.020253363  0.020046345            4 
 1177000   0.78311037   -7.7620956    285.94379  0.020245241   0.02003125            2 
 1178000   0.76877083   -7.7398631    286.72238  0.020283134  0.020016187           10 
 1179000   0.77949927   -7.7485791     286.6202  0.020258708  0.020001169            7 
 1180000   0.79815632   -7.7645987    286.46837  0.020230817  0.019986186            2 
 1181000   0.79499432    -7.713583    286.39615  0.020208591  0.019971247            4 
 1182000   0.78898457   -7.7488388    286.58673   0.02020493  0.019956293            1 
 1183000   0.79316028   -7.7227774    287.17877  0.020229555  0.019941309            3 
 1184000   0.77635176   -7.7217263     287.3404  0.020223845  0.019926355            2 
 1185000   0.77183689   -7.7735018    286.67047  0.020159667  0.019911333            3 
 1186000   0.77835703   -7.7604915    286.60144  0.020137819  0.019896322            2 
 1187000   0.75707348   -7.7513446    286.61612  0.020121884  0.019881254            4 
 1188000   0.77997882   -7.7452123    286.76969  0.020115719  0.019866182            4 
 1189000     0.780941   -7.7145606     287.1088  0.020122568  0.019851191            4 
 1190000   0.78168253   -7.7279284    286.84731  0.020087347  0.019836162            3 
 1191000   0.77826602   -7.7898271    286.93271  0.020076456  0.019821118            3 
 1192000   0.77584797   -7.7582903    287.08418  0.020070202  0.019806077            3 
 1193000   0.78288899   -7.7628154    286.97257  0.020045583  0.019791031            4 
 1194000   0.77742458   -7.7817995    286.94403  0.020026803  0.019776031            3 
 1195000   0.79033803   -7.7553698    286.93038  0.020009092  0.019761088            3 
 1196000   0.78823631   -7.7473994    287.36088  0.020022358  0.019746182            3 
 1197000   0.80051339     -7.73954    286.65728  0.019956647  0.019731238            2 
 1198000   0.78447167   -7.7469467    287.13075  0.019972924  0.019716363            4 
 1199000   0.77096649   -7.7662805    286.93793  0.019942864  0.019701456            1 
 1200000    0.7740558   -7.7500094    287.29403  0.019950974   0.01968651            3 
 1201000   0.76921665   -7.7865255    286.85113  0.019903631  0.019671511            2 
 1202000   0.80120735   -7.7642707    286.76587  0.019881162  0.019656529            4 
 1203000   0.76879251   -7.7992336    287.12634  0.019889605  0.019641467            3 
 1204000   0.76794566   -7.7355177    288.34005  0.019957091  0.019626532            6 
 1205000   0.76817125   -7.7725401    287.29206  0.019868054  0.019611547            3 
 1206000   0.77833117    -7.770198    287.00645  0.019831844   0.01959658            4 
 1207000   0.76920265    -7.787473    286.90029  0.019808084  0.019581674            3 
 1208000   0.76682135    -7.778746    287.46257  0.019830476  0.019566773            3 
 1209000   0.76922737   -7.7606141    288.07831  0.019856514  0.019551884            3 
 1210000   0.77307231   -7.7469773    287.51274  0.019801153  0.019537012            3 
 1211000   0.77277185     -7.77592    287.55492  0.019787704  0.019522161            3 
 1212000   0.77210419     -7.76575    288.38439  0.019828409  0.019507274            2 
 1213000   0.77026935   -7.7636195    287.93436  0.019781146  0.019492408            2 
 1214000     0.767204   -7.7814799    288.67078  0.019815402  0.019477539            3 
 1215000   0.77623975   -7.7910695    287.48643  0.019717862  0.019462663            4 
 1216000   0.77105908   -7.7701451    288.03358  0.019739144  0.019447818            2 
 1217000    0.7706228   -7.7868635     289.0608  0.019793262  0.019432966            3 
 1218000   0.78534178   -7.8076861    288.17982  0.019716736  0.019418137            3 
 1219000   0.75287519    -7.792805    287.34023  0.019643166  0.019403281            6 
 1220000   0.78499962    -7.802544    288.41083  0.019700193  0.019388459            7 
 1221000    0.7640921   -7.7732934    288.48359  0.019689024  0.019373657            3 
 1222000   0.74980527     -7.78461    287.59353  0.019612215  0.019358905            4 
 1223000   0.77100213   -7.8047282    287.21415  0.019570329  0.019344107            6 
 1224000   0.78444737   -7.7982931    287.94627  0.019604185  0.019329283            2 
 1225000   0.75071644   -7.7953413    287.79884  0.019578152  0.019314492            2 
 1226000    0.7514921   -7.7842575    289.61489  0.019685623   0.01929977            2 
 1227000   0.75563326   -7.7881055    288.45398  0.019590735  0.019285078            1 
 1228000   0.77336831   -7.7921795    287.84026  0.019533134  0.019270401            2 
 1229000   0.74387288    -7.797877    288.58288  0.019567594  0.019255712            2 
 1230000   0.73955571   -7.8136589    288.63556  0.019555255  0.019240916            5 
 1231000   0.78090836   -7.8463091    287.83447  0.019485139  0.019226074            1 
 1232000   0.77366973   -7.8048434    287.93194  0.019475916  0.019211207            6 
 1233000   0.76412563   -7.7868119    288.71968  0.019513361   0.01919639            6 
 1234000   0.75267001   -7.8206618    288.49045  0.019482067  0.019181618            4 
 1235000   0.74201128   -7.7960944    288.79543  0.019486871  0.019166823            4 
 1236000    0.7479648   -7.8114973    288.03894  0.019420101  0.019152087            4 
 1237000    0.7718298   -7.8088466    288.55146  0.019438929  0.019137312            2 
 1238000   0.76717272   -7.8169857    288.32847  0.019408217   0.01912256            3 
 1239000   0.75124148   -7.7925707    288.84524   0.01942731   0.01910782            3 
 1240000   0.77218783   -7.7834906    288.41152  0.019382495  0.019093093            3 
 1241000   0.78421962   -7.7678742    288.76169   0.01939039  0.019078415            3 
 1242000   0.76179825   -7.7935891    289.00883   0.01939136  0.019063805            3 
 1243000   0.75905419   -7.7878959    289.18262  0.019387411  0.019049145            2 
 1244000   0.75445798   -7.7910689    289.65769   0.01940365    0.0190345            5 
 1245000   0.75934231   -7.8057037    288.72163  0.019325411  0.019019845            2 
 1246000   0.74716382   -7.8065244    289.10747  0.019335706   0.01900526            2 
 1247000   0.74667059   -7.8144497    289.42318  0.019341298  0.018990662            2 
 1248000   0.76061381   -7.7828082    289.15632  0.019307981  0.018975991            3 
 1249000   0.75998524   -7.7992319     288.8309   0.01927081  0.018961387            2 
 1250000   0.75694854   -7.8185376    288.48843  0.019232562   0.01894677            3 
 1251000   0.75357764     -7.79577    288.94578  0.019247654  0.018932103            5 
 1252000   0.74637667   -7.7767975     288.9275  0.019231064  0.018917536            2 
 1253000   0.73719191   -7.8176061     288.9256  0.019215589  0.018902932            1 
 1254000   0.74169017   -7.7753147    289.28076  0.019223868  0.018888339            4 
 1255000   0.74669326   -7.8099515    289.45697   0.01922025  0.018873758            4 
 1256000    0.7560615   -7.8224087    289.37815  0.019199718  0.018859218            2 
 1257000   0.73622289   -7.8132772     289.3283  0.019181139  0.018844675            2 
 1258000   0.77260875   -7.8192543    289.37438  0.019168944  0.018830118            3 
 1259000    0.7289018   -7.8559285    289.00496  0.019129267  0.018815541            5 
 1260000    0.7549298   -7.8285693    289.20107  0.019127055  0.018800891            3 
 1261000   0.74666896   -7.8458896     289.5719  0.019136393  0.018786351            4 
 1262000   0.74734401   -7.8286335    289.40057  0.019109916   0.01877179            3 
 1263000   0.75120632   -7.8234282    289.87129  0.019125844   0.01875728            3 
 1264000   0.76516044   -7.8339819    289.74836  0.019102608  0.018742764            2 
 1265000   0.75447795   -7.8014697    289.09236  0.019044293  0.018728253            7 
 1266000    0.7424289   -7.7753278    289.30467  0.019043225  0.018713791            5 
 1267000   0.74525388   -7.8442102    288.68544  0.018987467  0.018699274            2 
 1268000   0.74981094   -7.8225945    289.37765  0.019017984   0.01868472            2 
 1269000    0.7545743   -7.8336943    289.51183  0.019011809  0.018670146            3 
 1270000   0.74220498   -7.8424918    289.08687  0.018968955  0.018655649            2 
 1271000   0.76653951    -7.824805    290.19884  0.019026937  0.018641219            3 
 1272000   0.72505221   -7.8263292    289.11373  0.018940889  0.018626712            2 
 1273000   0.74205109   -7.8232251    289.89001  0.018976827  0.018612225            4 
 1274000   0.75342593   -7.8513566    290.09225   0.01897516  0.018597722            5 
 1275000   0.73797087   -7.8079176    289.84154  0.018943892  0.018583264            4 
 1276000   0.75690348   -7.8576179    289.59261  0.018912788  0.018568796            2 
 1277000   0.74416654   -7.8489081    289.48295  0.018890821  0.018554334            7 
 1278000   0.73862679    -7.839273    289.79237  0.018896216  0.018539828            4 
 1279000   0.74697555   -7.8652915    289.94624  0.018891467  0.018525328            2 
 1280000   0.72566145   -7.8469539     289.7929  0.018866725  0.018510903            6 
 1281000   0.72950685   -7.8561856    290.45582  0.018895122  0.018496434            4 
 1282000   0.73933329   -7.8813903    289.30025  0.018805268  0.018481962            3 
 1283000   0.73585524   -7.8581888    290.01753    0.0188372  0.018467478            2 
 1284000   0.74386361   -7.8760061     289.6715  0.018800071  0.018453016            5 
 1285000   0.72791602    -7.867194     289.7549  0.018790849  0.018438558            5 
 1286000   0.75319859   -7.8667494    289.93857  0.018788139  0.018424088            3 
 1287000    0.7419404   -7.8595372    289.42336  0.018740181  0.018409572            2 
 1288000   0.73773679   -7.8466787    289.67736  0.018742065  0.018395103            7 
 1289000   0.74844123   -7.8317033    289.75199   0.01873235  0.018380686            1 
 1290000   0.74697873   -7.8574899    289.86391  0.018725059  0.018366248            3 
 1291000   0.73555048   -7.8603117    289.93889  0.018715394  0.018351791            2 
 1292000   0.73539516   -7.8683099    289.47435  0.018670946  0.018337275            2 
 1293000   0.72317593   -7.8664536    289.41877  0.018652924  0.018322762            3 
 1294000   0.73174844   -7.8562766     289.7372  0.018659016  0.018308268            6 
 1295000   0.73574536   -7.8448463    289.33692  0.018618849  0.018293833            7 
 1296000   0.74362908   -7.8585466    289.97942  0.018645796  0.018279436            5 
 1297000   0.74448838   -7.8715198    290.08874  0.018638444  0.018265088            7 
 1298000   0.72892138   -7.8519471    290.06687  0.018622681  0.018250746            4 
 1299000   0.73802698   -7.8549102    289.81816  0.018592389  0.018236397            5 
 1300000    0.7300313   -7.8827315    290.17862  0.018601194  0.018222001            4 
 1301000    0.7229737   -7.8563307    290.72673  0.018622004  0.018207692            2 
 1302000    0.7212617   -7.8713624    290.34834  0.018583483  0.018193345            3 
 1303000   0.75455088   -7.8633881    290.04131  0.018549585  0.018178989            4 
 1304000   0.72762456   -7.8770989    289.97909  0.018531383  0.018164688            3 
 1305000   0.72499036   -7.8648719    289.88339  0.018511072  0.018150355            5 
 1306000   0.72320404   -7.8710101    290.30295  0.018523669  0.018136047            4 
 1307000   0.72826052   -7.8828708    290.56084   0.01852594  0.018121724            2 
 1308000   0.73208633   -7.8685702    290.48676  0.018507057  0.018107374            3 
 1309000    0.7464302   -7.8487471    290.48349   0.01849271  0.018093111            2 
 1310000   0.73461523   -7.8529945    291.21871  0.018525363  0.018078906            7 
 1311000   0.73204043   -7.8412584     290.6333  0.018474021  0.018064603            4 
 1312000   0.73078658   -7.8605007    290.37611  0.018443604  0.018050319            9 
 1313000   0.73656068   -7.8417449    290.22752  0.018420127  0.018036019            5 
 1314000   0.73485794   -7.8489276    290.18971  0.018403711  0.018021645            2 
 1315000   0.72350088   -7.8432283    289.71711  0.018359766  0.018007297            3 
 1316000   0.73813612   -7.8620997    290.27291   0.01838101  0.017992926            3 
 1317000   0.74510736   -7.8687244    289.83333  0.018339239  0.017978606            3 
 1318000   0.73304994   -7.8941369    289.26026  0.018289091  0.017964228            2 
 1319000   0.72249875   -7.9350649    289.24754  0.018274421  0.017949851            2 
 1320000   0.71735837   -7.8999485    289.11782  0.018252388  0.017935454            2 
 1321000   0.74008503   -7.8984222    289.92719  0.018289628  0.017921065            4 
 1322000   0.71704283   -7.8593909    290.01635  0.018281414   0.01790675            5 
 1323000   0.72481295   -7.8729023    290.36017  0.018289252  0.017892461            5 
 1324000   0.72262898   -7.8933169    290.29544  0.018271364   0.01787823           11 
 1325000   0.73682388   -7.8663339    290.24969  0.018254697   0.01786394            2 
 1326000   0.72849437   -7.8778978    290.19846  0.018237711  0.017849698            3 
 1327000   0.70805297   -7.8556817    290.62021  0.018250453  0.017835467            2 
 1328000   0.72225251   -7.8795377    290.51258  0.018229956   0.01782125            3 
 1329000   0.73209244   -7.9085675     290.1361  0.018192632  0.017807046            4 
 1330000   0.72426939   -7.8740687    290.85925  0.018224264  0.017792834            3 
 1331000   0.71748826   -7.8855154    290.25772   0.01817291  0.017778632            2 
 1332000   0.70605865   -7.8937742    290.44095   0.01817073   0.01776442            4 
 1333000   0.70410428   -7.8983573    290.14124  0.018138362  0.017750246            4 
 1334000    0.7110909   -7.8807994    290.33352  0.018136776  0.017736091            5 
 1335000    0.7284894   -7.8673258    291.47828  0.018194649   0.01772198            4 
 1336000   0.72761917   -7.9148249    290.57782  0.018124864   0.01770789            6 
 1337000    0.7139367   -7.9049387    290.82808  0.018126906  0.017693797            7 
 1338000   0.71928195   -7.9111957    290.31863  0.018081629  0.017679664            5 
 1339000    0.7338686   -7.9325073    290.04257  0.018050944  0.017665548            3 
 1340000   0.71546177   -7.9088737    290.29722   0.01805331  0.017651397            4 
 1341000   0.71869256   -7.9118379    290.04156  0.018023959  0.017637265            4 
 1342000   0.72533786   -7.9030785    290.88019  0.018062605  0.017623155            3 
 1343000   0.69303268   -7.9010691    290.54807  0.018028547  0.017609034            5 
 1344000   0.72010622   -7.9097187    290.13426  0.017989475  0.017594933            2 
 1345000   0.71299955   -7.9106201    290.60469  0.018005247  0.017580805            2 
 1346000   0.71343362   -7.9288464    290.29458  0.017972671  0.017566649            4 
 1347000   0.70626501   -7.9037268    290.74528  0.017987211  0.017552511            6 
 1348000   0.71767879   -7.9382279    289.79758   0.01791528  0.017538349            4 
 1349000   0.71103328   -7.9502847    289.82505  0.017903697  0.017524211            3 
 1350000   0.70919059   -7.9298623    290.30309  0.017919944  0.017510053            3 
 1351000   0.73270532   -7.9122024    290.22035  0.017901576  0.017495979            3 
 1352000   0.71364913   -7.9089763    290.72029   0.01791915  0.017481899            5 
 1353000   0.71849153   -7.9318888    290.56686  0.017896456  0.017467814            4 
 1354000   0.73162547   -7.9151143    290.56569  0.017883167  0.017453679            6 
 1355000   0.71678023   -7.9256478    291.03351   0.01789874  0.017439582            3 
 1356000   0.69061888   -7.9104812     290.9858  0.017882608  0.017425546            6 
 1357000   0.71622243   -7.8983016    290.34005  0.017829774   0.01741148            3 
 1358000   0.70753761   -7.9357506    289.83825  0.017785852  0.017397437            5 
 1359000   0.70191426   -7.9342313    290.22029  0.017796191  0.017383375            3 
 1360000   0.72756862   -7.9204675    290.93726  0.017827038   0.01736933            2 
 1361000   0.71982975   -7.9377392    290.39377  0.017780662  0.017355279            2 
 1362000   0.70913665   -7.9106442    291.18543  0.017816045  0.017341264            2 
 1363000   0.70085075   -7.9153707    290.34115  0.017751354  0.017327225            2 
 1364000   0.72777936    -7.948493     290.3172  0.017736877   0.01731316            2 
 1365000   0.70900495   -7.9089512    290.32064  0.017724093  0.017299138            4 
 1366000   0.70533346   -7.9457069    290.36535  0.017713845  0.017285082            4 
 1367000   0.69769273   -7.9421058    290.50908  0.017709649   0.01727106            2 
 1368000   0.69534739    -7.944037    290.04414  0.017668381  0.017257066            4 
 1369000   0.71506081    -7.938178    290.72109  0.017696682  0.017243061            2 
 1370000   0.69443555   -7.9580134    290.18222  0.017650986  0.017229063            3 
 1371000   0.70285578   -7.9291781    290.38547  0.017650466  0.017215075            2 
 1372000   0.72203315   -7.9262756    290.56119  0.017648275  0.017201142            3 
 1373000   0.69820093   -7.9622427     290.3649  0.017623507  0.017187188            3 
 1374000   0.71662287   -7.9821556    290.53579  0.017621045  0.017173238            3 
 1375000   0.71032597     -7.94147    290.44721  0.017602861  0.017159325            3 
 1376000   0.69308901    -7.967361    290.25735   0.01757857   0.01714541            2 
 1377000   0.69833204   -7.9583764    290.92044  0.017605933  0.017131593            3 
 1378000   0.69980718   -7.9801537    290.43121  0.017563571  0.017117704            6 
 1379000   0.70558298   -7.9551116    291.01704  0.017586236  0.017103819            2 
 1380000   0.70049735   -7.9684816    291.03844  0.017574785   0.01709001            3 
 1381000   0.69312753   -7.9594132    290.46894  0.017527694  0.017076176            7 
 1382000   0.70383278   -7.9659348    290.46778  0.017514941  0.017062358            3 
 1383000   0.69255769   -7.9597153    290.83516  0.017524413  0.017048525            5 
 1384000   0.70422848   -7.9620262    290.71433  0.017504476  0.017034666            3 
 1385000   0.70248599   -7.9616551    290.80251  0.017497143  0.017020869            3 
 1386000   0.70404957   -7.9488514     291.3419  0.017516949  0.017007086            4 
 1387000   0.70344922   -7.9493973     290.8872  0.017477001   0.01699331            5 
 1388000   0.69966078   -7.9477905    291.20211  0.017483316  0.016979563            5 
 1389000   0.69922805    -7.974822    291.46078  0.017486248  0.016965884            5 
 1390000   0.69442791    -7.939605    291.21641  0.017459017  0.016952187            2 
 1391000      0.70643   -7.9860211    290.99405  0.017433144  0.016938499            6 
 1392000    0.6999919   -7.9431937    290.91208  0.017415714  0.016924819            6 
 1393000   0.70627414   -7.9597161    291.28136  0.017425303  0.016911189            2 
 1394000   0.70089198   -7.9391428     290.7848  0.017383118  0.016897505            2 
 1395000   0.70187745   -7.9581566    291.74108  0.017427782  0.016883849            4 
 1396000   0.69524103   -7.9688058    291.20709  0.017383422  0.016870239            2 
 1397000    0.6952554   -7.9554301    291.27495  0.017375027  0.016856627            4 
 1398000    0.6906486    -7.973423    291.36812  0.017368152  0.016843018            2 
 1399000   0.68545704   -7.9681162    290.93804  0.017330119  0.016829417            2 
 1400000   0.69607484   -7.9617114    291.38066  0.017344087  0.016815865            3 
 1401000   0.69207834   -7.9504119    292.19683  0.017380254  0.016802364            4 
 1402000   0.70654233   -7.9589335     291.3983  0.017320394  0.016788896            3 
 1403000   0.69612847   -7.9813771    291.22954  0.017298024  0.016775373            3 
 1404000   0.69738062   -7.9707321    291.38414   0.01729488  0.016761884            3 
 1405000   0.67023038   -7.9639116    292.03317  0.017321066  0.016748359            2 
 1406000   0.70998785   -7.9825695    291.36074  0.017268891  0.016734851            3 
 1407000   0.69978263   -7.9760301    291.89835  0.017288459  0.016721396            3 
 1408000   0.69050567   -7.9718933    291.72829  0.017266116  0.016707903            3 
 1409000   0.69152335   -7.9673746    291.43249  0.017236367  0.016694441            2 
 1410000   0.69689753   -7.9594703    291.88207  0.017250713  0.016681026            2 
 1411000   0.68797741   -7.9523896    291.41496    0.0172109  0.016667589            4 
 1412000   0.68997202   -7.9657751     292.0675  0.017237223  0.016654162            3 
 1413000   0.67620512   -7.9690824     291.5847   0.01719655  0.016640763           13 
 1414000   0.69533983   -7.9738117    292.01789  0.017209918  0.016627351            2 
 1415000   0.68499702   -7.9748208    291.48711  0.017166497  0.016613879            3 
 1416000   0.69255821    -7.985824    290.96565  0.017123685  0.016600378            3 
 1417000   0.69349373   -7.9730383    291.72201  0.017156082  0.016586917            3 
 1418000   0.68679479   -7.9778568    291.41913  0.017126183  0.016573497            4 
 1419000   0.68359507   -7.9841638    291.35094  0.017110109  0.016560102            3 
 1420000   0.68471322   -7.9861978    291.47841  0.017105541  0.016546686            3 
 1421000   0.69147332   -7.9413498    291.62174  0.017101908  0.016533305            3 
 1422000   0.69210134   -7.9916156    291.44863  0.017079737  0.016519888            4 
 1423000   0.69610363   -7.9986548    291.51175  0.017071431  0.016506444            2 
 1424000   0.68810835   -8.0152147    291.20232  0.017041334   0.01649301            2 
 1425000   0.67829573   -7.9469295    292.02596  0.017077542  0.016479647            3 
 1426000   0.68685116   -7.9972946    291.74787  0.017049315  0.016466295            4 
 1427000    0.6887857   -7.9931783    292.42551   0.01707694  0.016452965            3 
 1428000   0.68826178   -7.9932792    291.43503   0.01700718  0.016439655            3 
 1429000   0.68468091   -7.9893002    291.94563  0.017025054  0.016426332            3 
 1430000   0.67219397   -7.9780182    292.12687   0.01702371   0.01641301            4 
 1431000   0.69006801   -8.0045499    291.57985  0.016979958  0.016399688            5 
 1432000   0.66713082   -7.9913404    291.35162   0.01695482  0.016386392            2 
 1433000   0.68031803   -7.9934202    290.80204  0.016911028  0.016373096            3 
 1434000   0.67648818   -8.0015007    290.79435  0.016898788  0.016359786            3 
 1435000   0.68239738    -7.990105    291.67972  0.016938428  0.016346503            3 
 1436000   0.66880302   -7.9923653    292.06735  0.016949127  0.016333232            3 
 1437000   0.66787343   -8.0013771    291.74877  0.016918857  0.016320018            3 
 1438000   0.68395556   -8.0056983    291.75768  0.016907608   0.01630683            2 
 1439000   0.68759161   -7.9902352    292.37703  0.016931725   0.01629366            3 
 1440000   0.66184187   -7.9971698    291.43755  0.016865599   0.01628045            4 
 1441000   0.66604454   -7.9803492     291.9684  0.016884594  0.016267256            5 
 1442000    0.6651003   -8.0028929    291.71488  0.016858234  0.016254101            7 
 1443000   0.69467798   -8.0127083    291.24374  0.016819343  0.016240912            3 
 1444000   0.66898736   -8.0043287    291.73752  0.016836191  0.016227745            3 
 1445000   0.66862273   -8.0207541    291.88158  0.016832848  0.016214577            3 
 1446000   0.66472256   -8.0049702    291.62284  0.016806296   0.01620141            4 
 1447000    0.6875108   -8.0270588    291.43817  0.016784046  0.016188232            2 
 1448000   0.66836305   -8.0529494     291.8632  0.016796915  0.016175074            3 
 1449000   0.68545102   -7.9823196    291.98217  0.016792166  0.016161906            4 
 1450000   0.66618648   -8.0249878    291.37664  0.016745784  0.016148758            3 
 1451000   0.66759697    -8.030641    291.93518  0.016766321  0.016135617            4 
 1452000   0.66312182     -8.04858     291.1999  0.016712575  0.016122456            4 
 1453000   0.68188388   -8.0322995     291.2764   0.01670546  0.016109315            4 
 1454000   0.67001433   -8.0177302    291.12955  0.016685554  0.016096208            3 
 1455000   0.65372217   -8.0370153    291.25345  0.016681183  0.016083132            3 
 1456000   0.69029681   -8.0353656    292.04246  0.016714884  0.016070075            2 
 1457000   0.66745887   -8.0289554    291.21172  0.016655898  0.016057035            3 
 1458000   0.67862296   -7.9990025    291.71513  0.016673247  0.016043969            4 
 1459000   0.65936817   -8.0170424    292.02414  0.016679469  0.016030918            3 
 1460000   0.68246656   -8.0476994    291.99352  0.016666297  0.016017903            5 
 1461000   0.68116144   -8.0080938    291.53063  0.016628487  0.016004876            5 
 1462000   0.65297276   -8.0245624    291.75297  0.016629786  0.015991851            7 
 1463000   0.66561346   -8.0027211    291.76649  0.016619189  0.015978865            9 
 1464000   0.65625433   -8.0112444    291.60625  0.016598716  0.015965875            6 
 1465000   0.66716432   -8.0101276    291.87653  0.016602761  0.015952876            2 
 1466000   0.67298134   -8.0261049    291.78095  0.016586002  0.015939866            4 
 1467000    0.6855688   -8.0092649    292.09691  0.016592644  0.015926879            4 
 1468000   0.66564387   -8.0220743    291.91812  0.016571192  0.015913886            2 
 1469000   0.66961537    -8.017451    292.11297  0.016570965  0.015900959            3 
 1470000   0.67675824    -7.993879    292.10791  0.016559405  0.015888028            2 
 1471000   0.65795525   -8.0398702    291.67288  0.016523503  0.015875078            2 
 1472000   0.65734659   -8.0182002    291.74332  0.016516266  0.015862143            2 
 1473000   0.66081213   -8.0248712    291.81662    0.0165092  0.015849205            4 
 1474000   0.65416838   -8.0178268    291.76562  0.016495116   0.01583627            3 
 1475000    0.6657802   -8.0351225     291.8678  0.016489706  0.015823386            4 
 1476000   0.65516443   -8.0452182    291.73877   0.01647125  0.015810491            4 
 1477000   0.64362192   -8.0216732    292.38925  0.016496798    0.0157976            3 
 1478000   0.66102256   -8.0301875    292.21993   0.01647609  0.015784747            9 
 1479000   0.65594541   -8.0368323    292.56767  0.016484543  0.015771907            3 
 1480000   0.66206469   -8.0404586    292.24944  0.016455487  0.015759069            2 
 1481000   0.66736917   -8.0294163    292.45771  0.016456095  0.015746228            7 
 1482000   0.66312784   -8.0316564    291.46337  0.016389078  0.015733398            8 
 1483000   0.67247464   -8.0505447     292.1687  0.016417661  0.015720571            4 
 1484000   0.67105553   -8.0682602    291.25698  0.016355401  0.015707749            6 
 1485000   0.65447904   -8.0601695    291.52587  0.016359477  0.015694931            3 
 1486000   0.65966247   -8.0388931    291.59419  0.016352298  0.015682141            3 
 1487000   0.67254698   -8.0632669    291.63028  0.016343324  0.015669363            2 
 1488000   0.65845016   -8.0491329    292.00138  0.016353124  0.015656582            3 
 1489000   0.66730386   -8.0502533    291.70303  0.016325444   0.01564384            4 
 1490000   0.65803152   -8.0254465    292.26439  0.016345883  0.015631098            4 
 1491000   0.64846766   -8.0321563    291.58632  0.016297022  0.015618338            3 
 1492000   0.65860814     -8.04221    292.06918  0.016313069  0.015605588            3 
 1493000   0.66644227   -8.0528635    292.00878  0.016298771  0.015592843            5 
 1494000   0.65798217   -8.0663949    291.97709  0.016286094  0.015580078            3 
 1495000   0.65017885   -8.0599093    292.12338  0.016283354  0.015567347            5 
 1496000   0.64933297     -8.02365    291.93815  0.016262152  0.015554622            3 
 1497000   0.64122268   -8.0726561    292.15742  0.016263495  0.015541919            5 
 1498000   0.64793175    -8.054966    291.91116  0.016238938  0.015529198            5 
 1499000    0.6555458   -8.0676172    291.78358  0.016221013  0.015516527            4 
 1500000   0.65923429   -8.0601071    292.04853  0.016224918  0.015503867            5 
 1501000   0.65817605   -8.0586301     292.0177  0.016212397    0.0154912            2 
 1502000    0.6682515   -8.0964745    291.83489  0.016191461  0.015478559            7 
 1503000   0.65069686   -8.0810784    291.92863  0.016185885  0.015465906            8 
 1504000   0.66055923   -8.0630212    291.44389  0.016148265  0.015453251            5 
 1505000   0.64188599   -8.0717174    291.37516   0.01613373  0.015440594            6 
 1506000   0.66787614    -8.065429    291.68818  0.016140337  0.015427978            2 
 1507000   0.64984392   -8.0629674    291.41843  0.016114711  0.015415379            4 
 1508000   0.65590305   -8.0487471    292.28762  0.016152057  0.015402832            3 
 1509000   0.64089326   -8.0837803    292.19794  0.016136401  0.015390273            3 
 1510000   0.65697899   -8.0506091    292.27774  0.016130118  0.015377732            5 
 1511000   0.65351431   -8.0511103    292.11871  0.016110672  0.015365208            4 
 1512000   0.64630118   -8.0825352    292.15388  0.016101956    0.0153527            3 
 1513000   0.65360873   -8.0811142    291.50854  0.016055769  0.015340207            4 
 1514000   0.64567564    -8.057671    292.12596  0.016079148  0.015327684            3 
 1515000   0.63496985   -8.0474976    292.57276  0.016093111   0.01531515            4 
 1516000   0.64718454    -8.079823    291.68562   0.01603373   0.01530267            3 
 1517000   0.63974229   -8.0628186    292.24766  0.016054035  0.015290179            2 
 1518000    0.6580441   -8.0714117    292.11672  0.016036271  0.015277697            2 
 1519000   0.65710343   -8.0874974    291.62464  0.015998719  0.015265231            6 
 1520000   0.63286874   -8.0881501    291.80559  0.015998114  0.015252772            2 
 1521000   0.67511587   -8.0887509    291.48604  0.015970088  0.015240294            4 
 1522000   0.64576093   -8.0923113    291.75188   0.01597415  0.015227834            4 
 1523000   0.63986913   -8.0953608    292.50968  0.016005126  0.015215393            5 
 1524000     0.653732   -8.0832127    292.03925    0.0159689  0.015202944            6 
 1525000   0.63755477   -8.0947764    291.24956  0.015915277  0.015190524            3 
 1526000   0.65191072   -8.0857886    292.14185  0.015953574  0.015178095            4 
 1527000   0.64908049   -8.0761534    291.70247  0.015919148  0.015165702            6 
 1528000   0.64882231   -8.0864704    291.13486  0.015877774  0.015153271            3 
 1529000   0.64804662   -8.1112935    292.03881  0.015916656  0.015140858            3 
 1530000   0.64975551   -8.0820467     292.1667  0.015913219  0.015128464            5 
 1531000   0.64962974   -8.0725341    291.63124   0.01587368  0.015116106            3 
 1532000   0.64914466   -8.1000017    292.41474  0.015905937  0.015103772            4 
 1533000   0.63426768   -8.0938632    292.01668  0.015873923  0.015091431            3 
 1534000   0.64804977   -8.0973697    291.95573  0.015860263  0.015079095            3 
 1535000   0.64932744    -8.099689    292.59748  0.015884771  0.015066751            3 
 1536000   0.63629661   -8.0955904    292.21189  0.015853509  0.015054447            4 
 1537000   0.63536041   -8.1061912    291.93055  0.015827941   0.01504214            9 
 1538000   0.64841759   -8.1015789    291.84759  0.015813155  0.015029845            3 
 1539000   0.65936579    -8.112514    291.66913  0.015793217  0.015017564            8 
 1540000   0.63524624   -8.0928494    291.69598  0.015784414  0.015005278            4 
 1541000    0.6373741   -8.0774698    291.83351  0.015781609  0.014993006            4 
 1542000   0.63342267   -8.1056871    292.20934  0.015791685  0.014980725            5 
 1543000   0.65170768   -8.1163484    291.99787   0.01577003  0.014968453            9 
 1544000    0.6319474   -8.1111178     291.6858  0.015742973  0.014956176            5 
 1545000   0.63998054   -8.1167429    292.10115  0.015755186  0.014943924            5 
 1546000   0.63340743   -8.0977172    291.94414  0.015736532  0.014931699            8 
 1547000   0.63524115   -8.0984877    292.17867  0.015738993  0.014919493            4 
 1548000   0.63659194   -8.1076395    292.01267   0.01571989  0.014907267            3 
 1549000    0.6380883   -8.1217134     291.7715  0.015696767  0.014895048            3 
 1550000   0.63036791   -8.1244303    291.65751  0.015680511  0.014882851           10 
 1551000   0.64075925   -8.1105851    291.82769  0.015679545  0.014870651           10 
 1552000   0.65394324   -8.1452801    291.45611  0.015649491   0.01485846            3 
 1553000   0.64382094   -8.1287651     291.5286  0.015643303  0.014846295            6 
 1554000   0.62508498   -8.1195495    292.01341  0.015659235  0.014834119            4 
 1555000   0.63591341   -8.1218276    291.21764  0.015606519  0.014821982            3 
 1556000   0.63242689   -8.1219184    292.56989   0.01566891  0.014809834            5 
 1557000   0.62298912   -8.0934941    291.70039  0.015612309  0.014797679            2 
 1558000      0.62192   -8.1251158    291.64984  0.015599585  0.014785561            4 
 1559000   0.63604363   -8.1319234    291.79876  0.015597539  0.014773476            4 
 1560000   0.63941305   -8.1090688    292.55389  0.015627879  0.014761399            5 
 1561000   0.62763898   -8.1294717     292.0067  0.015588656  0.014749355            4 
 1562000   0.62818547   -8.1030947    292.09747  0.015583518  0.014737295            3 
 1563000   0.64352505   -8.1345628    291.69905  0.015552306  0.014725249            2 
 1564000   0.61102897   -8.1306226    292.20246  0.015569185  0.014713198            2 
 1565000   0.62657344    -8.090792    292.02183  0.015549618  0.014701163            2 
 1566000   0.62816229   -8.1433316    292.43933  0.015561905  0.014689176            3 
 1567000   0.64077459   -8.1205241    292.70585  0.015566148    0.0146772            5 
 1568000   0.62389724   -8.1322794    292.22469  0.015530649  0.014665225            3 
 1569000   0.62961417   -8.1301018    292.03277  0.015510557   0.01465323            5 
 1570000   0.61624588   -8.1373403    291.53533  0.015474274  0.014641264            6 
 1571000   0.62238235   -8.1317908    292.29081  0.015504499  0.014629276            4 
 1572000   0.62551845   -8.1127659    292.56746  0.015509301  0.014617337            3 
 1573000   0.62503791   -8.1278405    291.67114  0.015451957  0.014605382            2 
 1574000   0.61167065   -8.1518106    291.12715  0.015413339  0.014593413            2 
 1575000   0.62570687    -8.149282    291.69538  0.015433618  0.014581426            3 
 1576000   0.63152155   -8.1360447    291.51947  0.015414523  0.014569462            3 
 1577000   0.63610521   -8.1428274    291.56166  0.015406979  0.014557518            3 
 1578000   0.62328527   -8.1499827    292.10473  0.015425894  0.014545536            3 
 1579000   0.62178303   -8.1360638    291.40923  0.015379419  0.014533574            4 
 1580000   0.62022274   -8.1321266    291.90289  0.015395722  0.014521619            2 
 1581000    0.6245482   -8.1304517    291.56079  0.015367952  0.014509661            5 
 1582000   0.62343694   -8.1487381    291.69336  0.015365221  0.014497696            3 
 1583000    0.6253924   -8.1451662    291.90111  0.015366451  0.014485735            2 
 1584000   0.62302504    -8.151137    291.45934  0.015333509  0.014473786            5 
 1585000   0.62185063   -8.1738052    291.34651  0.015317903  0.014461869            7 
 1586000   0.62243234   -8.1625592    291.94319  0.015339596  0.014449973            5 
 1587000   0.62301973   -8.1465284    291.49974  0.015306644  0.014438088            3 
 1588000   0.61046441   -8.1308248    291.77346   0.01531137    0.0144262            3 
 1589000   0.63212094   -8.1478665    291.56418  0.015290758  0.014414347            4 
 1590000   0.61405375   -8.1541884    291.72532  0.015289587  0.014402474            4 
 1591000    0.6247399   -8.1759339    291.63309  0.015275146   0.01439062            3 
 1592000   0.61017901   -8.1472626     292.0246  0.015286045  0.014378765            4 
 1593000   0.61031188   -8.1593325    291.02936  0.015224386  0.014366902            2 
 1594000   0.60262971   -8.1901052    290.94283  0.015210311  0.014355034           11 
 1595000    0.6081605   -8.1396187    291.56803  0.015233439  0.014343181            3 
 1596000   0.62577999   -8.1623806    291.99683  0.015246284  0.014331343            3 
 1597000   0.61143676   -8.1693869    291.14465  0.015192269  0.014319504            3 
 1598000   0.61245648   -8.1533151    291.01147  0.015175817  0.014307654            2 
 1599000   0.61158745    -8.177639    291.35106  0.015184024  0.014295832            3 
 1600000   0.61357685   -8.1739781    290.85199  0.015148541  0.014284024            5 
 1601000    0.6172587   -8.1711893    291.40594  0.015167913  0.014272236            3 
 1602000   0.62371185   -8.1623796    291.52773   0.01516478  0.014260439            4 
 1603000   0.61537926   -8.1861336    290.96333  0.015125979  0.014248656            1 
 1604000    0.6042983   -8.1686155    291.29657  0.015133862  0.014236879            5 
 1605000   0.61438122    -8.157637     291.4806  0.015133987  0.014225128            3 
 1606000   0.61868408   -8.1643213    291.22194  0.015111143  0.014213371            2 
 1607000    0.6129068    -8.184469    291.03075  0.015091825  0.014201631            6 
 1608000   0.59547947   -8.1677115    291.16802  0.015089553  0.014189914            4 
 1609000   0.61505331   -8.1717624    291.01882  0.015072448  0.014178194            8 
 1610000   0.61498462   -8.1569131    291.75846   0.01510137  0.014166494            3 
 1611000   0.60654212    -8.159749    291.88694  0.015098641  0.014154814            2 
 1612000   0.61460399   -8.1899612    291.37638  0.015062882  0.014143127            4 
 1613000   0.61914474   -8.1773527    291.22659  0.015045805  0.014131452            3 
 1614000   0.61530997   -8.1573479    291.39995  0.015045433  0.014119789            3 
 1615000   0.59842999    -8.176573    291.10002  0.015020641  0.014108131            6 
 1616000   0.60119852   -8.1694665    291.00321  0.015006354   0.01409649            3 
 1617000   0.60467383   -8.1539114    291.50345  0.015022854  0.014084868            3 
 1618000   0.61169184    -8.165928    291.36129  0.015006247  0.014073244            3 
 1619000   0.60333674   -8.1740549    291.05158  0.014981037  0.014061647            5 
 1620000   0.61451334     -8.17692      290.893  0.014963632  0.014050051            4 
 1621000   0.60857588   -8.1774541    291.25719  0.014973123  0.014038448            4 
 1622000   0.62482758   -8.1729102    290.92541  0.014946846   0.01402688            3 
 1623000   0.62313892   -8.1842845    291.59668  0.014972103  0.014015319            4 
 1624000   0.61072161   -8.1832354    291.34301  0.014949867  0.014003749            2 
 1625000   0.60208227   -8.1809511    291.12765  0.014929623  0.013992213            4 
 1626000   0.60110306   -8.1664903    291.35137  0.014931907  0.013980687            4 
 1627000   0.59886717   -8.1798099    290.97494  0.014903449  0.013969182            3 
 1628000   0.60756284   -8.1993545    290.88024  0.014889447  0.013957663            4 
 1629000    0.5926483   -8.1791822    291.44945  0.014909426  0.013946152            5 
 1630000   0.59287258   -8.2205174    291.04587  0.014879646  0.013934643            4 
 1631000   0.59194687   -8.1931416    291.20809  0.014878811  0.013923148            2 
 1632000   0.60869479   -8.1968261    291.17993  0.014868256  0.013911679            3 
 1633000   0.59978162   -8.1782878    291.24249  0.014862344   0.01390022            4 
 1634000   0.60627929   -8.1951746    290.91795  0.014836697  0.013888724            4 
 1635000   0.59825506   -8.1915328    290.54269  0.014808496  0.013877234            3 
 1636000   0.59967379   -8.1878177    290.96037   0.01482072  0.013865759            3 
 1637000   0.59437903    -8.187071    290.46519  0.014786458  0.013854309            3 
 1638000   0.61027036   -8.1856718    290.90544  0.014799829  0.013842844            3 
 1639000   0.59801134   -8.1898987    291.21361  0.014806468  0.013831375            4 
 1640000   0.61546425   -8.1884322    291.07001  0.014790143  0.013819915            3 
 1641000   0.59833306   -8.2092507    290.77579  0.014766189  0.013808463            5 
 1642000   0.60050107   -8.1854586    290.86509  0.014761728  0.013797013            3 
 1643000   0.60089695   -8.2216893    291.09915  0.014764615  0.013785561            4 
 1644000   0.60159083   -8.2096063    291.05439  0.014753365  0.013774151            3 
 1645000   0.57634886   -8.2122189    291.17774  0.014750645  0.013762712            3 
 1646000   0.59462419   -8.2335656    290.80577  0.014722852  0.013751279            4 
 1647000   0.59165311   -8.1832906    290.97698  0.014722575  0.013739867            5 
 1648000   0.59259669    -8.200397    290.60528  0.014694846  0.013728474            4 
 1649000   0.60647056   -8.2050627    290.65833  0.014688616  0.013717081            6 
 1650000   0.58378938   -8.2084373    290.95936  0.014694917   0.01370568            5 
 1651000   0.61196554   -8.2153338     290.9266  0.014684363  0.013694284            5 
 1652000   0.57977353   -8.2295161    290.98622  0.014678482  0.013682911            4 
 1653000   0.59857129    -8.203819    290.87499  0.014663994  0.013671559            4 
 1654000   0.60332981   -8.2019495    290.52571  0.014637531  0.013660205            1 
 1655000   0.59443766   -8.2292805    290.52099  0.014628448  0.013648878            4 
 1656000    0.5734526   -8.2019954    291.01801  0.014644626  0.013637547            4 
 1657000   0.59556981    -8.221321     290.8332  0.014626494  0.013626223            5 
 1658000   0.59236572    -8.222404    290.32982  0.014592371  0.013614912            3 
 1659000   0.60453215   -8.2197171    290.51302  0.014592778  0.013603605            4 
 1660000   0.59658389   -8.2087033    291.01068   0.01460897  0.013592303            4 
 1661000   0.59522588      -8.2445    290.56722  0.014577926  0.013581021            4 
 1662000   0.58189611   -8.1890187    290.56074   0.01456883  0.013569757            2 
 1663000   0.58543604   -8.2132188    290.40885  0.014552458  0.013558507            3 
 1664000   0.59897953   -8.2226635    290.84842  0.014565726  0.013547275            4 
 1665000   0.60118934   -8.2288889     290.8485  0.014556982  0.013536052            3 
 1666000   0.58217608   -8.2142889    290.67797  0.014539715  0.013524837            5 
 1667000   0.59172847   -8.2253249    290.59996  0.014527092  0.013513614            3 
 1668000   0.58802272   -8.2230392    291.08958  0.014542845  0.013502406            3 
 1669000   0.57009379   -8.2246558    290.56195  0.014507786  0.013491182            5 
 1670000   0.59221032   -8.2317926    290.59749  0.014500873  0.013479986            4 
 1671000   0.57923717   -8.2183675    290.93828   0.01450919  0.013468779            4 
 1672000    0.5952523   -8.2426999    290.34427  0.014470906    0.0134576            3 
 1673000   0.57542516   -8.2009417    290.58837  0.014474416  0.013446433            3 
 1674000   0.59796952   -8.2488552    290.24149  0.014448501   0.01343527            4 
 1675000   0.57802648   -8.2280403    290.45478  0.014450487  0.013424106            3 
 1676000   0.57860705   -8.2405604    290.26842  0.014432598  0.013412946            6 
 1677000   0.58305732   -8.2501787    290.37073  0.014429076  0.013401791            4 
 1678000   0.57984697   -8.2569073    290.00763  0.014402445  0.013390668            4 
 1679000    0.5795983   -8.2444923     290.3387  0.014410299  0.013379545            4 
 1680000   0.58798812   -8.2408252    289.89906  0.014379914  0.013368439            5 
 1681000   0.57618924    -8.227978     290.8577  0.014418883  0.013357315            4 
 1682000   0.58242748   -8.2341534    290.64251  0.014399649  0.013346216            5 
 1683000   0.59088371   -8.2427075     290.3673  0.014377466  0.013335122            3 
 1684000   0.57895279   -8.2462979    290.25295  0.014363269  0.013324027            4 
 1685000   0.57838125   -8.2494514    290.16367   0.01435033  0.013312945            2 
 1686000   0.57890363   -8.2368698    290.16031  0.014341652  0.013301877            3 
 1687000   0.56647053   -8.2600504    290.09199  0.014329776  0.013290811            3 
 1688000   0.57747473    -8.248914    289.87971  0.014310807   0.01327977            4 
 1689000     0.585401   -8.2567433    290.28359  0.014322261  0.013268737            3 
 1690000    0.5782618   -8.2493132    290.51592  0.014325243  0.013257726            2 
 1691000   0.57947841   -8.2499556    290.39041  0.014310586  0.013246712            2 
 1692000   0.58044809   -8.2626322    289.52106  0.014259311  0.013235708            4 
 1693000   0.58212287   -8.2399681    290.32041  0.014290235  0.013224722            3 
 1694000   0.58101664   -8.2440307    290.47748  0.014289526  0.013213741            5 
 1695000   0.59234986   -8.2726817      290.217  0.014268289  0.013202777            3 
 1696000   0.56580008   -8.2558786    289.76421  0.014237628  0.013191812            4 
 1697000   0.58587159    -8.251947    290.47708  0.014264245  0.013180866            3 
 1698000   0.57253986   -8.2510561    290.00389  0.014232621  0.013169915            4 
 1699000   0.56711899   -8.2536252    290.69138  0.014257964  0.013158985            2 
 1700000    0.5847071   -8.2451354    290.08135  0.014219674  0.013148057            3 
 1701000   0.56936097   -8.2579875    289.98623  0.014206654  0.013137142            6 
 1702000   0.56390093    -8.235465    290.05451   0.01420165  0.013126231            2 
 1703000   0.56786241    -8.249496    289.79044  0.014180389  0.013115344            4 
 1704000   0.57160481    -8.261392    289.80896  0.014172973  0.013104451            5 
 1705000   0.57285543   -8.2662474     290.5929  0.014202977  0.013093585            2 
 1706000   0.57198888   -8.2221892    290.52655   0.01419141  0.013082738            5 
 1707000   0.57588647   -8.2471234    290.19879  0.014167096  0.013071899            6 
 1708000   0.56309895   -8.2432711    290.35597   0.01416647  0.013061087            4 
 1709000   0.56807183   -8.2521499    289.94797  0.014138286  0.013050263            5 
 1710000   0.57593463   -8.2363884    290.68034  0.014165709  0.013039455            3 
 1711000   0.56828384    -8.247457    289.79104  0.014114117  0.013028624            5 
 1712000   0.57967241   -8.2638836    289.97485   0.01411482  0.013017808            4 
 1713000   0.55919021   -8.2604244    289.79846  0.014097999  0.013007006            2 
 1714000   0.57529541   -8.2450003    290.22221  0.014110376  0.012996224            3 
 1715000   0.55781382   -8.2476818     289.9779  0.014090277  0.012985451            3 
 1716000   0.56016266   -8.2532138    289.95005  0.014080714  0.012974701            7 
 1717000   0.56605241   -8.2560834     289.6658  0.014058717   0.01296394            5 
 1718000   0.56973763   -8.2628257    289.46212  0.014040654   0.01295319            3 
 1719000   0.58142104   -8.2523903    289.92255  0.014054807  0.012942442            3 
 1720000   0.57901868   -8.2657999    290.16864  0.014058558  0.012931719            4 
 1721000   0.57632256   -8.2678455    289.66932  0.014026211  0.012920994            3 
 1722000   0.56943947   -8.2837871    289.62774  0.014016054  0.012910267            4 
 1723000   0.55736622   -8.2723905    290.10559  0.014031031  0.012899567            4 
 1724000   0.57275777   -8.2494956    290.49547  0.014041738  0.012888875            3 
 1725000   0.56270674   -8.2807014    290.20742  0.014019682   0.01287819            8 
 1726000   0.56208017   -8.2463937    290.07441  0.014005138  0.012867511            6 
 1727000   0.55873373   -8.2543811    289.85581   0.01398648  0.012856853            5 
 1728000   0.57201482   -8.2495624    290.09579  0.013989959  0.012846206            2 
 1729000   0.55591152   -8.2816924    289.94684  0.013974689  0.012835558            6 
 1730000   0.56922817   -8.2775504    289.74904  0.013957083  0.012824911            3 
 1731000   0.56628743    -8.263807    289.74294  0.013948726  0.012814275            5 
 1732000   0.57112916   -8.2635001    289.75433   0.01394122  0.012803658            4 
 1733000   0.55951462    -8.276278    290.12798  0.013951143   0.01279305            2 
 1734000   0.56467279   -8.2630387    290.34627  0.013953589  0.012782453            3 
 1735000   0.55928904   -8.2791486    290.34675  0.013945569  0.012771875            2 
 1736000   0.55008246   -8.2777273    289.62469  0.013902875  0.012761316            2 
 1737000   0.55438759   -8.2570484      289.584  0.013892919  0.012750776            3 
 1738000   0.55795258   -8.2836359    290.33307  0.013920841  0.012740233            4 
 1739000   0.55925801    -8.262529    289.79947  0.013887266  0.012729695            2 
 1740000   0.56456856   -8.2785635    289.57767  0.013868662  0.012719166            4 
 1741000   0.55516156   -8.2853323    289.60752  0.013862125  0.012708643            4 
 1742000   0.54998332   -8.2866142    290.17798  0.013881457  0.012698153            2 
 1743000   0.55930773    -8.274395    289.89726  0.013860072  0.012687656            3 
 1744000   0.56769878   -8.2835908    290.06677  0.013860224  0.012677179            2 
 1745000   0.55989173   -8.2688906    289.19156  0.013810485  0.012666703            2 
 1746000   0.54847647   -8.2762503    290.06046  0.013844046  0.012656239            5 
 1747000    0.5630663   -8.2731973    289.84924  0.013826047   0.01264578            2 
 1748000   0.55374414    -8.297539    289.47774  0.013800426  0.012635334            2 
 1749000   0.56024976   -8.2879072    289.70408   0.01380332  0.012624893            6 
 1750000   0.55816447   -8.2771856    289.80815  0.013800388  0.012614458            2 
 1751000     0.552786   -8.2576449     289.7575  0.013790096  0.012604052            4 
 1752000   0.55527914   -8.2843719    289.63933  0.013776605  0.012593652            3 
 1753000   0.56019743   -8.2786849     289.3285  0.013753969  0.012583249            4 
 1754000   0.56115581   -8.2870997    290.11568  0.013783527  0.012572877            3 
 1755000   0.56101182    -8.270096    290.21405  0.013780344  0.012562511            2 
 1756000   0.55897883   -8.2686433    290.12965  0.013768491  0.012552155            2 
 1757000   0.55151248   -8.2973536    290.11751  0.013760079  0.012541809            2 
 1758000   0.55202542   -8.2855019     289.8349  0.013738856  0.012531465            4 
 1759000   0.55475515   -8.2852025    290.19173   0.01374795   0.01252112            5 
 1760000   0.54280814   -8.2860966    289.79556   0.01372138  0.012510792            2 
 1761000   0.55579471   -8.2998846    289.42928  0.013696256  0.012500455            4 
 1762000   0.55874322   -8.2945193    289.71398  0.013701948  0.012490145            8 
 1763000   0.54974724   -8.3064481     289.8471  0.013700468  0.012479827            5 
 1764000   0.54556806   -8.2883294    289.88085  0.013694296  0.012469525           10 
 1765000   0.54561643   -8.2887241    289.68738  0.013677402  0.012459236            3 
 1766000   0.54465595   -8.2942509    289.15677  0.013644619  0.012448954            5 
 1767000   0.55175782   -8.2925813    289.74517  0.013664647  0.012438689            4 
 1768000   0.55738434   -8.2818035    289.33388  0.013637532  0.012428438            7 
 1769000   0.53737386   -8.2868133    289.55395   0.01364019  0.012418212            4 
 1770000   0.55106599   -8.2820653    289.43711  0.013626982  0.012407972            2 
 1771000   0.55187559   -8.3098005    289.24763  0.013610372  0.012397737            3 
 1772000   0.54403981   -8.2919489     289.5058  0.013614833  0.012387516            3 
 1773000   0.54906145    -8.294759    289.66327  0.013614555  0.012377306            3 
 1774000   0.54730162   -8.3133646    289.57305  0.013602642  0.012367108            2 
 1775000   0.54078819    -8.323169     289.6324  0.013597765  0.012356917            4 
 1776000   0.55047462   -8.3084535    289.82653  0.013599218  0.012346718            4 
 1777000   0.54661756   -8.3028733    289.88622  0.013594364  0.012336543            5 
 1778000   0.56332173   -8.3196939    289.52606  0.013569838  0.012326365            4 
 1779000   0.52981155   -8.3252975     289.4227  0.013557369  0.012316201            4 
 1780000   0.55221583   -8.3248936    289.84474   0.01356951  0.012306056            5 
 1781000   0.53709236   -8.3125857    289.64883  0.013552725  0.012295922            5 
 1782000   0.53208539   -8.3143056    289.79075  0.013551756  0.012285801            2 
 1783000   0.54523938   -8.3054185    289.60969  0.013535693  0.012275696            3 
 1784000   0.53860192   -8.3014148    289.68648  0.013531693  0.012265601            4 
 1785000   0.52734749    -8.313423    289.43045  0.013512159  0.012255522            3 
 1786000   0.52982464   -8.3108181    290.12751  0.013537118  0.012245445            5 
 1787000   0.54331151   -8.3178952    289.74095  0.013511516  0.012235395            5 
 1788000   0.54697558   -8.3105291    289.84852  0.013508973  0.012225344            4 
 1789000   0.54651866   -8.3153785    289.45591  0.013483133    0.0122153            6 
 1790000   0.53492552   -8.3072896     289.2406  0.013465577  0.012205263            5 
 1791000    0.5465268    -8.348834    289.72594  0.013480641  0.012195224            4 
 1792000   0.54031472   -8.3301309    289.52145  0.013463609  0.012185202            2 
 1793000    0.5479433   -8.3051587    289.33631  0.013447495  0.012175187            2 
 1794000   0.53875065   -8.3180626    289.77111  0.013460197  0.012165195            5 
 1795000   0.52808775   -8.3219733    289.57291  0.013443496  0.012155199            4 
 1796000   0.52728985   -8.3244019    289.28909  0.013422842  0.012145196            4 
 1797000   0.53741144    -8.328617    289.86837  0.013442236  0.012135218            7 
 1798000    0.5373826   -8.3180404    289.10596  0.013399423  0.012125245            3 
 1799000   0.53087676   -8.3248949    289.77109  0.013422785  0.012115296            4 
 1800000   0.53014239   -8.3194314    289.60572  0.013407672  0.012105346            3 
 1801000    0.5432728   -8.3117728    289.03794  0.013373956    0.0120954            4 
 1802000   0.52679171   -8.3113094    289.68969  0.013396674  0.012085472            5 
 1803000   0.53647917   -8.3316981    289.60444  0.013385304  0.012075547            8 
 1804000    0.5412168   -8.3226873    289.15568  0.013357155  0.012065628            4 
 1805000   0.52849692   -8.3340957    289.35443   0.01335893  0.012055718            4 
 1806000   0.54839953   -8.3316113    289.28014  0.013348106  0.012045819            5 
 1807000   0.51748117   -8.3255751    289.44821   0.01334847  0.012035931            5 
 1808000   0.53986752   -8.3332637    289.51586  0.013344205  0.012026045            6 
 1809000   0.52950301   -8.3385678    289.42221  0.013332514  0.012016182            7 
 1810000    0.5356948   -8.3169175    289.22584  0.013316107  0.012006316            4 
 1811000   0.52705843   -8.3214971    289.12532  0.013304129  0.011996451            4 
 1812000     0.527567   -8.3468564     289.2454  0.013302308  0.011986609            8 
 1813000   0.53816371   -8.3249839    289.47306  0.013305436  0.011976766            2 
 1814000   0.53980577    -8.345772    289.18451  0.013284845  0.011966938            4 
 1815000   0.52996909   -8.3214724     289.3837  0.013286671  0.011957121            4 
 1816000   0.53393503   -8.3356673    289.24028  0.013272774  0.011947312            8 
 1817000   0.51599553   -8.3346821    289.31846  0.013269054   0.01193751            5 
 1818000   0.51888527   -8.3439444    289.64126  0.013276552  0.011927718            5 
 1819000   0.53098382   -8.3417776    289.34949  0.013255886  0.011917937            4 
 1820000   0.51429554   -8.3434726    289.19507  0.013241532   0.01190817            6 
 1821000   0.51602267   -8.3184225    289.33905   0.01324085    0.0118984            4 
 1822000   0.52306998   -8.3553561     288.9586  0.013216182  0.011888649            3 
 1823000   0.52531551   -8.3438479    289.23123  0.013221395  0.011878907            5 
 1824000   0.52719952   -8.3324867    289.38952  0.013221378  0.011869172            4 
 1825000   0.53094735    -8.343283    289.35907  0.013212743  0.011859463            4 
 1826000   0.53382478   -8.3528923    288.82543  0.013181153  0.011849746            5 
 1827000   0.52677834   -8.3525024    289.24868  0.013193244  0.011840032            3 
 1828000   0.52815209   -8.3647578    289.10906  0.013179662  0.011830337            3 
 1829000   0.52215637    -8.346146    289.38318  0.013184945  0.011820661            5 
 1830000   0.52947689   -8.3566429    289.09056  0.013164415  0.011810993            5 
 1831000   0.51725901   -8.3395836    288.97162  0.013151812  0.011801333            4 
 1832000   0.52007746   -8.3409396    288.81365  0.013137448  0.011791678            3 
 1833000   0.53071933   -8.3329259     289.2536  0.013150282  0.011782031            4 
 1834000   0.50679275   -8.3456915    289.48417  0.013153588  0.011772401            5 
 1835000   0.52455243   -8.3532781    289.43974  0.013144402  0.011762772            7 
 1836000   0.50802003   -8.3431201    289.09558  0.013121622  0.011753151            4 
 1837000   0.52309848    -8.330725     288.8194   0.01310195  0.011743534            3 
 1838000   0.52587457   -8.3506048    288.42897   0.01307712  0.011733927            8 
 1839000   0.51980481   -8.3562146    288.90808   0.01309172  0.011724336            5 
 1840000   0.51557631   -8.3535686     289.2904   0.01310192  0.011714744            6 
 1841000   0.51847084   -8.3481964    289.13124  0.013087599   0.01170517            2 
 1842000   0.51834188   -8.3295753    288.83746  0.013067203  0.011695601            4 
 1843000   0.51485618   -8.3495392    289.32831  0.013082308  0.011686052            2 
 1844000   0.51697726   -8.3357995    289.25865  0.013072065  0.011676494            3 
 1845000   0.53603292   -8.3531245    288.78335  0.013043512   0.01166696            3 
 1846000   0.50833899   -8.3536039    289.02762  0.013047473  0.011657441            5 
 1847000   0.51077519   -8.3524185    288.79228  0.013029791  0.011647925            5 
 1848000   0.51663648   -8.3589448    289.04629  0.013034194  0.011638403            4 
 1849000   0.52555962   -8.3561601    288.85196  0.013018386  0.011628899            5 
 1850000   0.52517828   -8.3631492    288.61403  0.013000632  0.011619396            5 
 1851000   0.51363625   -8.3455056    288.66486  0.012995897  0.011609904            5 
 1852000   0.53705895   -8.3388897    288.54727  0.012983588  0.011600416            4 
 1853000   0.51152639   -8.3491169    289.32874  0.013011726  0.011590942            5 
 1854000   0.50866172    -8.345696    288.70173  0.012976525  0.011581471            4 
 1855000   0.50791156   -8.3649575    288.83548  0.012975538  0.011572014            5 
 1856000   0.51062866   -8.3598277    289.04228  0.012977832  0.011562569            6 
 1857000   0.49947948   -8.3523023    288.70111  0.012955534  0.011553125            4 
 1858000   0.51164475   -8.3656107     288.7568  0.012951059  0.011543691            2 
 1859000   0.51908938   -8.3665169    289.18937  0.012963483  0.011534265            5 
 1860000   0.50743101   -8.3440502    288.86971  0.012942191  0.011524845            2 
 1861000   0.51631979   -8.3680217    288.50787  0.012919034   0.01151545            7 
 1862000   0.50006445   -8.3610939      288.763  0.012923514  0.011506057            3 
 1863000   0.52019219    -8.363268    289.14636  0.012933725  0.011496674            2 
 1864000   0.50964394   -8.3514678    288.92322   0.01291681  0.011487298            5 
 1865000   0.49848039   -8.3714493     288.6355  0.012897029  0.011477917            3 
 1866000   0.50876882   -8.3482858    288.97487  0.012905273  0.011468557            4 
 1867000   0.50684383   -8.3574156    288.67581  0.012885012   0.01145921            7 
 1868000    0.5062912   -8.3478332    288.63617  0.012876346  0.011449863            4 
 1869000   0.50520938   -8.3612965    288.33675  0.012856106  0.011440526            4 
 1870000   0.51560656   -8.3748934    289.02867  0.012880066  0.011431189            4 
 1871000   0.51199055   -8.3731541    289.09945  0.012876334  0.011421872            4 
 1872000   0.50676869   -8.3755017    288.72401  0.012852743  0.011412558            5 
 1873000   0.49986416   -8.3684875    288.83721  0.012850917  0.011403259            5 
 1874000   0.51813623   -8.3794619    288.38803  0.012824085  0.011393971            2 
 1875000   0.50845261   -8.3705404    288.31376  0.012813945  0.011384685            4 
 1876000   0.51385948    -8.368921     289.0018  0.012837678  0.011375411            3 
 1877000   0.50138046   -8.3632438    289.05003   0.01283298  0.011366141            5 
 1878000   0.50184482   -8.3585657    288.48524  0.012801085  0.011356884            3 
 1879000   0.50968862   -8.3847794    288.50893  0.012795323  0.011347633            4 
 1880000   0.50423392   -8.3811177    288.64429  0.012794516  0.011338385            3 
 1881000   0.50736949    -8.372784    288.60763   0.01278609  0.011329161            2 
 1882000   0.50306174   -8.3703785    288.74075  0.012785191   0.01131995            5 
 1883000   0.50234587   -8.3826508    288.66091  0.012774868   0.01131075            2 
 1884000   0.50857837   -8.3803275    288.53354  0.012762453  0.011301547            4 
 1885000   0.49854693   -8.3564811    288.58991  0.012758174  0.011292366            5 
 1886000   0.48924694   -8.3735524    288.29562  0.012738407  0.011283177            5 
 1887000   0.49419245   -8.3723471    288.65147  0.012747371  0.011274012            3 
 1888000   0.48828473   -8.3797167    288.78985  0.012746727  0.011264836            6 
 1889000   0.50588348   -8.3658862    288.33179  0.012719772  0.011255675            5 
 1890000    0.5073331   -8.3792582    288.29334  0.012711346  0.011246514            6 
 1891000   0.49602775    -8.380821    288.27695  0.012703902  0.011237363            7 
 1892000   0.48959972   -8.3825668    288.90495  0.012724848  0.011228226            4 
 1893000   0.48588074   -8.3760379    288.65869  0.012707285  0.011219093            4 
 1894000   0.50028032   -8.3587644    288.34322  0.012686696  0.011209975            6 
 1895000   0.48275384   -8.3783351    288.74809  0.012697805  0.011200863            4 
 1896000   0.50234644   -8.3872786    288.58169  0.012683794  0.011191763            4 
 1897000   0.49451633   -8.3828418    288.52593  0.012674659  0.011182669            3 
 1898000   0.50224476   -8.3940898     288.3642   0.01266088  0.011173581            5 
 1899000   0.48054422   -8.3926919    288.20592  0.012647267  0.011164497            2 
 1900000   0.49601888     -8.37769    288.85085  0.012668897   0.01115543            4 
 1901000    0.4903918   -8.3935361    288.59066  0.012650827  0.011146363            5 
 1902000   0.48945113   -8.3994365    288.13934  0.012624402    0.0111373            9 
 1903000   0.49365596   -8.3811293    288.78101  0.012645866  0.011128264            4 
 1904000   0.47733644    -8.390999    288.85825  0.012642605  0.011119231            2 
 1905000   0.49996006   -8.3830767    288.66701  0.012627603  0.011110202            3 
 1906000   0.47754738   -8.3991131    288.29114  0.012604544  0.011101185            3 
 1907000   0.48749513   -8.3815954    288.20657  0.012594239  0.011092176            3 
 1908000   0.48807655   -8.4006487    288.15952  0.012585583  0.011083169            3 
 1909000   0.50028372   -8.3938367    288.07137  0.012575143  0.011074174            4 
 1910000   0.49270962   -8.3858026    288.22915  0.012575443  0.011065191            6 
 1911000   0.49770585   -8.3798894    288.04124  0.012560668  0.011056217            6 
 1912000   0.48860549   -8.3957202    288.58671  0.012577873  0.011047258            5 
 1913000   0.49361927   -8.4050114    287.96778  0.012544336  0.011038312            4 
 1914000   0.48922838   -8.3788619    288.50719  0.012561267  0.011029368            3 
 1915000   0.48772108    -8.401324    287.73777  0.012521226  0.011020445            5 
 1916000   0.48999529   -8.3993473     288.4486  0.012545607   0.01101152            2 
 1917000   0.48775979   -8.3784631    288.10772  0.012524244  0.011002608            6 
 1918000   0.47838558   -8.4038831    288.97622  0.012555449  0.010993691            5 
 1919000   0.49003831   -8.3970988    288.38612  0.012523281  0.010984785            5 
 1920000    0.4895885   -8.4007465     288.4661   0.01252023  0.010975882            7 
 1921000   0.48479944   -8.3777646     288.3686  0.012509483  0.010966999            6 
 1922000   0.48257127   -8.3987423    288.36381  0.012502767  0.010958122            4 
 1923000   0.48918775   -8.4022913    287.76383  0.012470265  0.010949251            5 
 1924000   0.48429157     -8.39676    288.38262  0.012490585  0.010940379            3 
 1925000   0.48736045   -8.3975659    288.36767  0.012483449  0.010931519            3 
 1926000   0.48824935   -8.3934916    288.37993  0.012477498  0.010922673            4 
 1927000   0.47296619   -8.4038693    288.39983  0.012471883  0.010913837            4 
 1928000    0.4823149    -8.400218    287.99832   0.01244806  0.010905003            5 
 1929000   0.49586703   -8.4065149     288.5114  0.012463772  0.010896175            9 
 1930000   0.48459556   -8.3922492    287.90436  0.012431104  0.010887355            7 
 1931000   0.47451927   -8.4027692    288.09804  0.012433024  0.010878557           12 
 1932000   0.49070172   -8.4001682    288.55892  0.012446468  0.010869763           13 
 1933000   0.47662336   -8.4054279    287.93682   0.01241321  0.010860981            6 
 1934000   0.47598603    -8.423986    288.46307  0.012429467  0.010852207            6 
 1935000   0.47767352   -8.4032868     288.0537  0.012405414  0.010843441            3 
 1936000   0.49186012   -8.4135502    288.27246  0.012408422   0.01083468            2 
 1937000   0.48327045   -8.4089958    288.05518  0.012392668  0.010825929            2 
 1938000   0.47466823   -8.4015882    288.02491  0.012384972  0.010817188            7 
 1939000   0.47755261   -8.4031608    288.31227  0.012390935  0.010808451            3 
 1940000   0.48219659   -8.4120693    288.61308  0.012397469   0.01079973            5 
 1941000   0.48126254   -8.4098879    287.82776  0.012357365  0.010791011            3 
 1942000   0.47646828   -8.3978474    287.87308  0.012352947  0.010782308           10 
 1943000   0.47846534   -8.4221304    287.98929  0.012351574  0.010773613            6 
 1944000   0.48114946    -8.411175    288.10717  0.012350273  0.010764918            2 
 1945000    0.4802957   -8.4211575    287.65193  0.012324418  0.010756232            2 
 1946000   0.47613825   -8.3906675    288.15721  0.012339723  0.010747558            7 
 1947000   0.48060959   -8.4261271    288.09976  0.012330926  0.010738893            5 
 1948000   0.47174403   -8.4052666    287.75583  0.012309883  0.010730235            2 
 1949000   0.47480574   -8.4225033    287.56971  0.012295609  0.010721584            2 
 1950000   0.48063269    -8.422994    288.07248   0.01231079  0.010712949            4 
 1951000    0.4771632   -8.4228576    287.90057  0.012297137  0.010704317            3 
 1952000   0.46260417   -8.4304872    288.32805  0.012309087   0.01069569            4 
 1953000    0.4795981     -8.40686    287.98435  0.012288119  0.010687072            6 
 1954000   0.47583458   -8.4219724    287.82431  0.012275005  0.010678451            8 
 1955000   0.47131922    -8.421952    287.74363  0.012265287  0.010669841            7 
 1956000   0.46808369   -8.4210289    287.85847  0.012263909  0.010661251            2 
 1957000   0.46894965    -8.429576    287.63952  0.012248319  0.010652669            3 
 1958000   0.46456454   -8.4406925    287.94713  0.012255155  0.010644084            4 
 1959000     0.469182   -8.4127719    287.73666  0.012239946  0.010635511            4 
 1960000   0.46762977    -8.430804    287.76383  0.012234857  0.010626951            3 
 1961000   0.47242015   -8.4287559    287.38747  0.012212624  0.010618393            5 
 1962000   0.47413722   -8.4359037    287.50892  0.012211558   0.01060985            2 
 1963000   0.46986482   -8.4294171    287.84398  0.012219561   0.01060132            3 
 1964000    0.4730215    -8.432627    287.69721  0.012207112  0.010592792            2 
 1965000   0.47994979   -8.4077676    287.34081  0.012185785  0.010584276            4 
 1966000   0.46144813   -8.4266431    287.77341  0.012197923  0.010575775            6 
 1967000   0.46138727   -8.4341149    287.54846  0.012182192  0.010567263            4 
 1968000   0.47042501   -8.4210257    287.81683  0.012187366  0.010558771            2 
 1969000   0.46955649   -8.4139207    287.95034  0.012186827  0.010550288            3 
 1970000   0.48040987   -8.4387179    287.94294  0.012180327  0.010541815            4 
 1971000   0.47306396   -8.4357026    287.89599  0.012172162  0.010533348            4 
 1972000   0.45894909   -8.4323321    287.71041  0.012158148  0.010524888            3 
 1973000   0.45993171   -8.4504699    287.92459  0.012161032  0.010516432            6 
 1974000   0.46396346   -8.4341003    287.68292  0.012144669  0.010507985            2 
 1975000   0.46986123   -8.4288968    287.84737  0.012145459  0.010499554            6 
 1976000    0.4715546   -8.4236578    287.68685  0.012132543  0.010491129            3 
 1977000   0.46605852   -8.4357843    287.65377  0.012125012  0.010482712            3 
 1978000   0.46821922   -8.4117084    287.29158  0.012103622  0.010474302            3 
 1979000   0.47244632    -8.440447    287.93261  0.012124499  0.010465902            4 
 1980000   0.46174343   -8.4332786    287.89172  0.012116655  0.010457508            5 
 1981000   0.46780181   -8.4255931    287.70199  0.012102557  0.010449129            5 
 1982000   0.46224894   -8.4408352    287.73752  0.012097945  0.010440756            2 
 1983000   0.45519309   -8.4430443    288.05654  0.012105251  0.010432395            4 
 1984000   0.45475334    -8.428317    287.56084  0.012078328  0.010424045            3 
 1985000   0.46728434   -8.4458547    288.07106  0.012093663  0.010415697            2 
 1986000   0.45556167   -8.4393886    287.86498  0.012078927  0.010407361            3 
 1987000   0.45044349   -8.4319886    287.76894   0.01206882  0.010399023            2 
 1988000   0.45809388   -8.4438721     287.7824  0.012063313  0.010390695            3 
 1989000   0.45968461   -8.4525899    287.87551  0.012061149  0.010382384            4 
 1990000   0.46560097   -8.4604057    287.54342  0.012041182  0.010374073            4 
 1991000   0.45482762   -8.4429483    287.60719  0.012037803   0.01036577            4 
 1992000   0.46564566   -8.4410236    287.79653  0.012039681  0.010357481            3 
 1993000   0.46034339    -8.439483    287.21526  0.012009335  0.010349195            3 
 1994000   0.45436002    -8.458274    287.71639  0.012024256  0.010340922            4 
 1995000   0.44902648   -8.4473854    287.62298  0.012014327  0.010332656            1 
 1996000   0.45635402   -8.4414437     287.1693  0.011989366  0.010324394            2 
 1997000    0.4502373   -8.4500035     287.3109  0.011989272  0.010316137            2 
 1998000   0.46281901   -8.4415172    287.41974   0.01198781  0.010307884            3 
 1999000   0.45155237   -8.4544416    287.58715  0.011988792  0.010299645            3 
 2000000   0.44793114   -8.4551788    287.58956  0.011982898  0.010291415            3 
 2001000   0.46327709   -8.4495265    287.33509  0.011966312    0.0102832            2 
 2002000    0.4620663    -8.445592    287.48495  0.011966573  0.010274986            3 
 2003000   0.45351725   -8.4650163    287.59868   0.01196533  0.010266785            4 
 2004000    0.4499051   -8.4510611    287.34466  0.011948797   0.01025859            3 
 2005000   0.44877203   -8.4312133    287.24122  0.011938538  0.010250406            4 
 2006000    0.4580087   -8.4511125    287.40108  0.011939227  0.010242226            3 
 2007000   0.44543094   -8.4339279    287.54175  0.011939119  0.010234056            3 
 2008000    0.4592776    -8.460546    287.43849  0.011928888  0.010225888            4 
 2009000   0.45428082   -8.4629321     287.4007  0.011921383  0.010217731            4 
 2010000    0.4526071   -8.4652588    287.31275  0.011911806   0.01020958            5 
 2011000   0.44907071   -8.4623852    287.58658  0.011917229  0.010201446            2 
 2012000   0.44143675   -8.4541879    287.44183  0.011905311  0.010193307            2 
Loop time of 4677.06 on 48 procs for 2000000 steps with 4000 atoms

Performance: 73892.636 tau/day, 427.619 timesteps/s
99.4% CPU use with 48 MPI tasks x no OpenMP threads

MPI task timing breakdown:
Section |  min time  |  avg time  |  max time  |%varavg| %total
---------------------------------------------------------------
Pair    | 292.66     | 314.29     | 336.3      |  48.4 |  6.72
Neigh   | 30.809     | 32.005     | 33.317     |  12.5 |  0.68
Comm    | 291.54     | 317.05     | 341.42     |  57.7 |  6.78
Output  | 4.5797     | 4.5818     | 4.6128     |   0.2 |  0.10
Modify  | 3957.3     | 3966.6     | 3977       |   7.8 | 84.81
Other   |            | 42.56      |            |       |  0.91

Nlocal:        83.3333 ave          90 max          75 min
Histogram: 2 4 2 0 11 5 8 4 10 2
Nghost:        1990.15 ave        2021 max        1977 min
Histogram: 7 6 16 8 5 5 0 0 0 1
Neighs:        12781.4 ave       14459 max       10813 min
Histogram: 2 2 4 1 11 9 9 4 5 1
FullNghs:      25563.0 ave       27921 max       22617 min
Histogram: 2 4 0 2 12 7 3 11 6 1

Total # of neighbors = 1227023
Ave neighs/atom = 306.75575
Neighbor list builds = 107326
Dangerous builds = 0

#clear
#
#next RN
#
#jump SELF
Total wall time: 1:18:00
