
units lj                  # Use reduced LJ style units
atom_style atomic         # Uncharged point particles
atom_modify map hash      # Needed for indexing of clusters etc
                          # Used to be able to find where atoms are in relation to each other.

lattice fcc 1.0 spacing 1 1 1
Lattice spacing in x,y,z = 1.5874011 1.5874011 1.5874011
region box block 0 10 0 10 0 10 units lattice
create_box 2 box
Created orthogonal box = (0.0000000 0.0000000 0.0000000) to (15.874011 15.874011 15.874011)
  3 by 4 by 4 MPI processor grid
create_atoms 1 box
Created 4000 atoms
  using lattice units in orthogonal box = (0.0000000 0.0000000 0.0000000) to (15.874011 15.874011 15.874011)
  create_atoms CPU = 0.002 seconds
set type 1 type/fraction 2 0.08 78393
Setting atom values ...
  344 settings made for type/fraction
mass 1 1.0
mass 2 1.0
pair_style lj/cut  3.5
pair_modify tail  yes
pair_coeff 1  1  1.0  1.0   # Intearaction between 1 and 1 set with epsilon = 1 and sigma = 1
pair_coeff 1  2  1.5  0.8
pair_coeff 2  2  0.5  0.88

write_data data.0
System init for write_data ...
Neighbor list info ...
  update every 1 steps, delay 10 steps, check yes
  max neighbors/atom: 2000, page size: 100000
  master list distance cutoff = 3.8
  ghost atom cutoff = 3.8
  binsize = 1.9, bins = 9 9 9
  1 neighbor lists, perpetual/occasional/extra = 1 0 0
  (1) pair lj/cut, perpetual
      attributes: half, newton on
      pair build: half/bin/atomonly/newton
      stencil: half/bin/3d
      bin: standard
WARNING: Not all mixed pair coeffs generated from mixing. Use write_data with 'pair ij' option to store all pair coeffs. (../write_data.cpp:312)


#############################
#   M E L T   S Y S T E M   #
#############################

velocity all create 2.4 1741580 mom yes dist gaussian # Assign velocities
                                                    # Temperature 2.4, random number seed, zero linear momentum
                                                                                # Gaussian distribution

timestep 0.002   # simulation timestep
thermo 1000       # output thermodynamic data every 1000 steps bf 100

# Define a fix  in this case with index 1 applied to all
# particles in the simulation. This fix is for simulations
# in the anisotropic NPT ensemble. Note that we use the MTK
# correction.
fix 1 all npt temp 2.4 2.4 0.1 iso 5.68 5.68 0.5 mtk yes tchain 5 pchain 5 # Use NPT ensemble
                                                                         # Set temperature and pressure and damping
                                                                         # Numbers of thermostats in chain and in barostat
run 10000          # run for 10000 steps
Per MPI rank memory allocation (min/avg/max) = 3.642 | 3.644 | 3.648 Mbytes
Step Temp E_pair E_mol TotEng Press Volume 
       0          2.4   -7.8205278            0   -4.2214278   -2.8943486         4000 
    1000    2.4154024   -4.5620556            0   -0.9398578    5.7710781    4894.2304 
    2000    2.3946302   -4.5570164            0  -0.96596909    5.6569501    4917.9655 
    3000    2.3885764   -4.5583784            0  -0.97640953    5.7470625    4906.0913 
    4000    2.4413935   -4.5822409            0  -0.92106615    5.7103683    4902.3981 
    5000    2.4169411    -4.536667            0  -0.91216171    5.7162898    4921.3784 
    6000    2.4062719   -4.6081798            0  -0.99967427    5.5222055    4901.9193 
    7000      2.40789   -4.5692739            0  -0.95834187    5.7687072     4899.996 
    8000    2.4105877   -4.6368363            0   -1.0218587    5.6238589    4876.1959 
    9000    2.4034095      -4.5784            0  -0.97418705    5.7011099    4897.1715 
   10000    2.3967696   -4.6071607            0   -1.0129052     5.305846    4944.5786 
Loop time of 2.13896 on 48 procs for 10000 steps with 4000 atoms

Performance: 807870.736 tau/day, 4675.178 timesteps/s
99.6% CPU use with 48 MPI tasks x no OpenMP threads

MPI task timing breakdown:
Section |  min time  |  avg time  |  max time  |%varavg| %total
---------------------------------------------------------------
Pair    | 0.90189    | 0.9428     | 1.0043     |   2.5 | 44.08
Neigh   | 0.18666    | 0.19487    | 0.20218    |   0.7 |  9.11
Comm    | 0.65748    | 0.72569    | 0.78288    |   2.9 | 33.93
Output  | 0.000237   | 0.00024303 | 0.00030524 |   0.0 |  0.01
Modify  | 0.24154    | 0.26104    | 0.28365    |   2.0 | 12.20
Other   |            | 0.01431    |            |       |  0.67

Nlocal:        83.3333 ave          90 max          76 min
Histogram: 4 4 4 3 4 7 4 10 5 3
Nghost:        1431.17 ave        1463 max        1398 min
Histogram: 2 1 3 9 8 6 11 4 3 1
Neighs:        7702.81 ave        8560 max        6774 min
Histogram: 3 3 5 3 7 7 9 6 3 2

Total # of neighbors = 369735
Ave neighs/atom = 92.433750
Neighbor list builds = 902
Dangerous builds = 184

# Equilibrate just above the melting temperature to avoid step fn in T

fix 1 all npt temp 1.25 1.25 0.1 iso 5.68 5.68 0.5 mtk yes tchain 5 pchain 5
run 2000
Per MPI rank memory allocation (min/avg/max) = 3.642 | 3.644 | 3.648 Mbytes
Step Temp E_pair E_mol TotEng Press Volume 
   10000    2.3967696   -4.6071607            0   -1.0129052     5.305846    4944.5786 
   11000    1.2517827   -6.0916869            0   -4.2144823    5.8922801    4050.6484 
   12000    1.2656105   -6.1112979            0   -4.2133569    5.8133308    4054.1489 
Loop time of 0.466476 on 48 procs for 2000 steps with 4000 atoms

Performance: 740873.969 tau/day, 4287.465 timesteps/s
99.6% CPU use with 48 MPI tasks x no OpenMP threads

MPI task timing breakdown:
Section |  min time  |  avg time  |  max time  |%varavg| %total
---------------------------------------------------------------
Pair    | 0.20098    | 0.21979    | 0.25186    |   1.9 | 47.12
Neigh   | 0.030515   | 0.032623   | 0.034489   |   0.5 |  6.99
Comm    | 0.13506    | 0.16007    | 0.17925    |   2.2 | 34.31
Output  | 5.3204e-05 | 5.4703e-05 | 6.7954e-05 |   0.0 |  0.01
Modify  | 0.042065   | 0.049641   | 0.055017   |   1.6 | 10.64
Other   |            | 0.004299   |            |       |  0.92

Nlocal:        83.3333 ave          95 max          73 min
Histogram: 3 1 4 6 11 12 6 3 1 1
Nghost:        1632.19 ave        1665 max        1606 min
Histogram: 2 0 10 9 10 5 6 4 1 1
Neighs:        9403.71 ave       10715 max        7924 min
Histogram: 1 2 5 5 6 14 6 1 6 2

Total # of neighbors = 451378
Ave neighs/atom = 112.84450
Neighbor list builds = 142
Dangerous builds = 11

#############################
# L I N E A R  Q U E N C H  #
#############################

# Define solid atoms. This closely follows ten Wolde  Ruiz-Montero and Frenkel  Faraday Discuss  1996  104  93-110
# Compute components of the per-atom q6 vector
compute q6 all orientorder/atom degrees 1 6 components 6 nnn NULL cutoff 1.3 # compute the Q6 parameter.
                                                                             # Use all neighbours within 1.3 unit cell.

# get number of connections
compute coord_number all coord/atom orientorder q6 0.5

# An atom is solid if it has 8 or more connections (of a possible 14)
variable is_solid atom c_coord_number>=8
group solid dynamic all var is_solid    # Must be dynamic to update
dynamic group solid defined

# do clustering
compute cluster solid cluster/atom 1.3 # Create a cluster where all atoms within are solid and max 1.3 units from another member

# define chunks one chunk per cluster
compute clus_chunks solid chunk/atom c_cluster nchunk every compress yes  # Says which atoms are in which chunk

# count the size of each chunk
compute size_chunks solid property/chunk clus_chunks count


# Find the maximum entry in the vector of chunk sizes
variable max_n equal max(c_size_chunks)


# Thermo style which includes this variable
# thermo_style custom step temp pe vol v_max_n

thermo ${N}  # Print the thermo information every 100 steps
thermo 1000  

# Reset the npt fix at a lower temperature (below freezing)
fix 1  all npt temp  ${temp} ${temp}  0.1  iso  5.68  5.68  0.5  mtk yes tchain  5  pchain  5
fix 1  all npt temp  0.45 ${temp}  0.1  iso  5.68  5.68  0.5  mtk yes tchain  5  pchain  5
fix 1  all npt temp  0.45 0.45  0.1  iso  5.68  5.68  0.5  mtk yes tchain  5  pchain  5

dump dmp2 all dcd ${N} traj.dcd
dump dmp2 all dcd 1000 traj.dcd


compute msd all msd com yes
variable twopoint equal c_msd[4]/6/(step*dt+1.0e-6)
fix 9 all vector 10 c_msd[4]
variable fit equal slope(f_9)/6/(10*dt)
thermo_style custom step temp pe c_msd[4] v_twopoint v_fit v_max_n

fix 1 all npt temp 1.25 ${temp} 0.1 iso 5.68 5.68 0.5 mtk yes tchain 5 pchain 5
fix 1 all npt temp 1.25 0.45 0.1 iso 5.68 5.68 0.5 mtk yes tchain 5 pchain 5
run 500000 # 5000000  # Run for this many steps
Neighbor list info ...
  update every 1 steps, delay 10 steps, check yes
  max neighbors/atom: 2000, page size: 100000
  master list distance cutoff = 3.8
  ghost atom cutoff = 3.8
  binsize = 1.9, bins = 9 9 9
  4 neighbor lists, perpetual/occasional/extra = 1 3 0
  (1) pair lj/cut, perpetual
      attributes: half, newton on
      pair build: half/bin/atomonly/newton
      stencil: half/bin/3d
      bin: standard
  (2) compute orientorder/atom, occasional
      attributes: full, newton on
      pair build: full/bin/atomonly
      stencil: full/bin/3d
      bin: standard
  (3) compute coord/atom, occasional
      attributes: full, newton on
      pair build: full/bin/atomonly
      stencil: full/bin/3d
      bin: standard
  (4) compute cluster/atom, occasional
      attributes: full, newton on
      pair build: full/bin/atomonly
      stencil: full/bin/3d
      bin: standard
Per MPI rank memory allocation (min/avg/max) = 9.747 | 9.753 | 9.761 Mbytes
Step Temp PotEng c_msd[4] v_twopoint v_fit v_max_n 
   12000    1.2656105   -6.1112979 1.8711781e-30 1.2994292e-32 8.3333333e+20            4 
   13000    1.2485246   -6.1339895   0.55912562 0.0035841384   0.04574203            2 
   14000     1.230795   -6.1611327     1.068283 0.0063588271    0.0442607            3 
   15000    1.2425937   -6.1561402    1.6141852 0.0089676952   0.04431263            2 
   16000    1.2698224   -6.1194574     2.176672  0.011336833   0.04492484            2 
   17000    1.2594399   -6.1388183    2.6367661  0.012925324  0.044698917            2 
   18000    1.2577305   -6.1672636    3.1211347  0.014449697   0.04365719            3 
   19000    1.2117989   -6.1557973    3.7312616  0.016365182  0.043443199            5 
   20000    1.2656364   -6.1675068    4.2856858  0.017857024  0.043719937            4 
   21000    1.2048118   -6.1876226    4.8788736  0.019360609  0.044381314            2 
   22000    1.2320173   -6.1255422    5.4169228  0.020518646  0.044676593            2 
   23000    1.2379057     -6.12105    5.8592156  0.021229042  0.044742821            2 
   24000    1.2342173   -6.1355473      6.37899  0.022149271  0.044552259            2 
   25000    1.2388907   -6.1814133    6.9069306  0.023023102  0.044421168            3 
   26000    1.2428466   -6.1821187    7.3434759  0.023536781  0.044198963            2 
   27000    1.2007795   -6.2123458    7.8362676  0.024186011  0.043911524            3 
   28000    1.2190098   -6.1779792    8.4402863  0.025119899  0.043836546            2 
   29000    1.2017088   -6.1911714    8.9926472   0.02584094  0.043838009            2 
   30000    1.2316045   -6.1820976    9.4748609  0.026319057  0.043814608            2 
   31000    1.2211553   -6.1788182     9.955956  0.026763322  0.043704375            3 
   32000    1.2232291   -6.2012916    10.433088  0.027169499  0.043553871            4 
   33000    1.2105186   -6.1900708    10.855366   0.02741254  0.043394446            2 
   34000    1.2076032   -6.2266965    11.314206  0.027730897   0.04324468            2 
   35000    1.2269993   -6.2158709    11.802595  0.028101415  0.043092389            4 
   36000    1.1925212   -6.2320224    12.330427  0.028542656   0.04291728            3 
   37000    1.2213478   -6.2176212    12.728093  0.028666876  0.042786205            1 
   38000    1.2186772   -6.2003147    13.251812  0.029060991  0.042622247            3 
   39000    1.2093064   -6.2411066    13.799014  0.029485072  0.042520343            3 
   40000    1.2005068   -6.2038871    14.385001  0.029968751  0.042441012            3 
   41000    1.1833258   -6.2137773    14.887172   0.03025848  0.042420168            3 
   42000    1.1955188   -6.1971251    15.384335  0.030524474  0.042378637            3 
   43000    1.1989814   -6.2606526    15.828981  0.030676319  0.042352553            2 
   44000    1.2058969   -6.1903106    16.348152  0.030962408  0.042296134            5 
   45000     1.196075   -6.1921465    16.834272  0.031174578  0.042261697            3 
   46000    1.2132986    -6.204264    17.149941  0.031068734  0.042167357            2 
   47000    1.1974479   -6.2465736    17.603444  0.031211781  0.042044147            4 
   48000    1.1923456   -6.2228965    18.117019  0.031453158  0.041924478            3 
   49000    1.2130283   -6.2431459    18.530206  0.031513955  0.041799363            2 
   50000    1.2008346   -6.2451835    18.994405  0.031657341  0.041677396            2 
   51000    1.1812663   -6.2142631     19.54804  0.031941241  0.041584187            6 
   52000    1.1857349   -6.2783976    19.999305  0.032050167  0.041512485            2 
   53000    1.1799997    -6.271911     20.47051  0.032186336  0.041440636            3 
   54000     1.183646   -6.2236347    20.970553  0.032361964  0.041370991            5 
   55000    1.1797648    -6.275627    21.398552  0.032422048  0.041294095            2 
   56000    1.1831254   -6.2554287    21.954028  0.032669684  0.041234263            3 
   57000    1.1592647   -6.2635251    22.442795  0.032811103  0.041187729            2 
   58000    1.1767594   -6.2743482    22.914371  0.032922946  0.041149617            3 
   59000    1.1970329   -6.2955842    23.453033  0.033125752  0.041122774            7 
   60000    1.1512832   -6.2877334    23.843815  0.033116409  0.041100671            2 
   61000    1.1602638   -6.3283014    24.322959  0.033228085   0.04105815            2 
   62000    1.1697866   -6.2250997    24.853363  0.033405058  0.041019252            3 
   63000    1.1514877   -6.2863171    25.123791  0.033232528  0.040960951            1 
   64000    1.1486906   -6.2911514    25.540752  0.033256187  0.040898495            2 
   65000    1.1365139   -6.2426705     25.95211  0.033271936  0.040817513            3 
   66000    1.1415216   -6.2665358    26.437229   0.03338034  0.040740295            2 
   67000    1.1800371   -6.3342261    26.652106  0.033149386  0.040639823            3 
   68000    1.1774445   -6.3227078     27.05411  0.033154546  0.040536732            5 
   69000    1.1344613   -6.3163768    27.539858  0.033260698   0.04043086            5 
   70000     1.140178   -6.2786864    28.036648  0.033376962  0.040334619            1 
   71000     1.156229    -6.322619    28.493424  0.033442985   0.04025956            4 
   72000    1.1654625   -6.2983302    28.903063  0.033452619  0.040185147            3 
   73000     1.125142   -6.3130337    29.260081  0.033401918  0.040112298            4 
   74000    1.1573343    -6.309174    29.880928  0.033649693  0.040034477            2 
   75000       1.1274    -6.322948    30.187064  0.033541182   0.03995956            3 
   76000    1.1488073   -6.2911137    30.658208  0.033616456   0.03988195            4 
   77000     1.144105   -6.3203344    31.026462  0.033578422  0.039803522            2 
   78000    1.1420976   -6.3063855     31.42342   0.03357203   0.03972161            2 
   79000    1.1543656    -6.303635     31.75501  0.033496846  0.039632634            1 
   80000    1.1532124   -6.3233532    32.150232  0.033489824  0.039544422            4 
   81000    1.1646132   -6.3385416    32.309526  0.033240253  0.039435108            3 
   82000    1.1208578   -6.3649569    32.461575  0.032989405  0.039311293            3 
   83000    1.1442372   -6.3615461    32.993487  0.033125991  0.039174158            5 
   84000    1.1219951   -6.3437157    33.457935  0.033192395  0.039051995            4 
   85000    1.1117932   -6.3693148     33.91641  0.033251382   0.03894446            2 
   86000    1.1430013    -6.332698    34.217454  0.033156447  0.038835887            2 
   87000    1.1394625   -6.3919094    34.515107  0.033060447  0.038721488            2 
   88000    1.1102309   -6.3197975     35.08542  0.033224829  0.038611931            1 
   89000    1.1076986   -6.3553064    35.538081  0.033275357  0.038514969            2 
   90000    1.1224428    -6.341409    36.143379  0.033466091  0.038434667            4 
   91000     1.112774   -6.3794617    36.537395  0.033459153   0.03836053            2 
   92000    1.1281617   -6.3358925    36.768273  0.033304595  0.038287365            5 
   93000    1.1251068   -6.3764788    37.084493  0.033229832  0.038196263            2 
   94000    1.1082143   -6.3728484    37.507322  0.033251171  0.038106369            2 
   95000    1.1212745   -6.3539167    37.594514  0.032977644  0.038004954            3 
   96000    1.1260894   -6.3859045    38.210617  0.033168938  0.037915059            3 
   97000     1.103383    -6.403978    38.531677  0.033102815  0.037827079            2 
   98000     1.108462   -6.3912975    38.844772  0.033031268  0.037739493            5 
   99000    1.1224419   -6.3810521    39.372701  0.033142004  0.037649994            2 
  100000    1.1184452   -6.4124655    39.816704  0.033180586  0.037567443            6 
  101000    1.0899136   -6.3886848    40.148252   0.03312562  0.037485611            2 
  102000    1.1083857   -6.3619077    40.577303  0.033151391  0.037406307            5 
  103000     1.096713   -6.3905423    40.804911  0.033013682  0.037328285            3 
  104000    1.0979425   -6.3996089    41.176894  0.032994306  0.037247651            8 
  105000    1.1014582   -6.4315554     41.42394  0.032876143  0.037158561            2 
  106000    1.0967322   -6.3580134    41.734456  0.032810107  0.037064934            4 
  107000    1.0711962   -6.4193795      42.0164  0.032723053  0.036970129            2 
  108000    1.0696403   -6.3835462     42.38863  0.032707276   0.03688252            4 
  109000    1.0935928   -6.4309221    42.852975  0.032762213  0.036788692            3 
  110000    1.0926625     -6.43507    43.009519  0.032582969  0.036698835            2 
  111000    1.0856944    -6.381644    43.515541  0.032669325  0.036613423            3 
  112000    1.0805189   -6.4298611    43.932832  0.032688119  0.036531165            5 
  113000     1.101481   -6.4143679    44.337545  0.032697305  0.036450609            5 
  114000    1.0704091   -6.4690947    44.571121  0.032581229  0.036367465            3 
  115000    1.1072925   -6.4552935    44.940748  0.032565759  0.036281101            4 
  116000    1.0725317   -6.4240077    44.978636  0.032312238  0.036193653            3 
  117000    1.0735554   -6.4341168    45.401092   0.03233696  0.036098116            3 
  118000    1.0738629   -6.4690394    45.482625  0.032120498  0.036002131            4 
  119000      1.05712   -6.4221245    45.992514  0.032207643  0.035910223            5 
  120000    1.0707894   -6.4394358    46.528555  0.032311497  0.035821175            4 
  121000    1.0663791   -6.4723053    46.726411  0.032180724  0.035735713            3 
  122000    1.0795274   -6.4314947    47.126122  0.032189974  0.035654617            4 
  123000    1.0773663   -6.4480793    47.421163  0.032128159  0.035570978            3 
  124000     1.068082    -6.464539    48.105724  0.032329115    0.0354962            4 
  125000    1.0758333   -6.4715422    48.243213  0.032162142   0.03542033            6 
  126000    1.0643773   -6.4577641      48.6607  0.032183003  0.035347045            8 
  127000    1.0598904   -6.4865613    48.996236  0.032149761  0.035272758            6 
  128000    1.0748415   -6.4252925    49.277018  0.032081392  0.035197663            6 
  129000    1.0622369   -6.4672644    49.446712   0.03194232  0.035119224            4 
  130000     1.056599   -6.4941991    49.738073   0.03188338  0.035037974            6 
  131000    1.0461681   -6.4208221     50.13986  0.031895585  0.034958568            1 
  132000    1.0316429   -6.4853725    50.441868  0.031844614  0.034881082            4 
  133000     1.065978   -6.4821626    50.651789   0.03173671  0.034801137            4 
  134000     1.053674   -6.4900555    51.132109  0.031798575   0.03472078            2 
  135000    1.0625142   -6.4986801     51.42062  0.031741124  0.034641367            3 
  136000    1.0574944   -6.4613041    51.839409  0.031764344  0.034564526            2 
  137000    1.0509265   -6.4528181    51.999419  0.031629817  0.034487592            7 
  138000    1.0410611    -6.486245    52.410592  0.031648908  0.034414915            4 
  139000    1.0375095    -6.521791    52.714959  0.031603692  0.034342182            4 
  140000    1.0385723   -6.5031447    53.194154  0.031663187  0.034268846            3 
  141000    1.0631778    -6.514622    53.149008  0.031411943   0.03419515            4 
  142000    1.0451417   -6.5134052    53.562211  0.031433222  0.034119298            3 
  143000    1.0417866   -6.5090067    53.737252  0.031315415  0.034042777            5 
  144000    1.0340245   -6.5320385     54.03563  0.031270619  0.033963659            5 
  145000    1.0316253   -6.5287705    54.115631  0.031100937  0.033882655            6 
  146000    1.0159209   -6.5366771    54.569014  0.031146697  0.033802029            7 
  147000    1.0202168   -6.5065383    55.027317  0.031194624  0.033724726            5 
  148000    1.0374393   -6.5196616     55.21965  0.031092145  0.033647118            9 
  149000    1.0260918   -6.5313828    55.478149  0.031028047  0.033572137            3 
  150000    1.0461992   -6.5347948    55.655475  0.030919708  0.033495802            9 
  151000    1.0235775   -6.5089839    55.995999  0.030902869  0.033417729            4 
  152000    1.0124648   -6.5386552    56.148214  0.030783012  0.033338597            5 
  153000    1.0065542   -6.5449753    56.196533  0.030608133  0.033257802            3 
  154000    1.0290721   -6.5612993    56.459306  0.030551573  0.033174794            5 
  155000    1.0243273   -6.5565325    56.926673  0.030605738   0.03309266            5 
  156000    1.0304968   -6.5530864    57.141159  0.030524123  0.033012259            6 
  157000    1.0351533    -6.568829    57.499058   0.03051967  0.032935503            4 
  158000    1.0186701   -6.5480771    57.826402  0.030499157  0.032857779            9 
  159000    1.0448735   -6.5506833    58.153948  0.030479008  0.032781355            4 
  160000    1.0010012   -6.5330332     58.47166  0.030453989  0.032705844            4 
  161000    1.0087959   -6.5481278    58.670529  0.030367769  0.032630909            5 
  162000    1.0141303   -6.5414386    58.828883  0.030261771  0.032553485            3 
  163000   0.99084567     -6.56238    59.146486  0.030238489  0.032475114            8 
  164000    1.0123223   -6.5467143    59.278062  0.030120966  0.032395531            3 
  165000   0.98954452   -6.5504763    59.589054  0.030095482  0.032317399            5 
  166000    1.0015522   -6.5822984    59.913226  0.030076921  0.032241614            9 
  167000    1.0010037   -6.5892626    60.280941   0.03008031  0.032165593            3 
  168000   0.99912477   -6.5831162    60.525645  0.030022641  0.032090725            7 
  169000    1.0040645   -6.5633701    60.747742  0.029954508  0.032017303            6 
  170000   0.99998036    -6.593967    60.955178  0.029879989  0.031943839            3 
  171000    1.0007035   -6.5845896     61.28677  0.029866847  0.031871259            2 
  172000    1.0104256   -6.5693419    61.662949  0.029875459  0.031798233            2 
  173000   0.99520933   -6.6300929    61.796051  0.029766884   0.03172769            5 
  174000   0.97181247   -6.6233173     62.22682  0.029802117  0.031658896            3 
  175000   0.97846469   -6.5903846    62.581842  0.029800877  0.031591312            4 
  176000   0.98625688   -6.6004231    62.826763   0.02974752  0.031525318            5 
  177000   0.97692631   -6.6440861    63.044277  0.029681863   0.03145804           12 
  178000   0.97549125   -6.6120744    63.228748  0.029601474  0.031388424            3 
  179000   0.95545745   -6.6156873     63.38131  0.029507127   0.03131909            4 
  180000   0.96298721   -6.6522783    63.494121  0.029395426  0.031249501            6 
  181000   0.99780026   -6.6142722    63.882402  0.029411787  0.031178276            7 
  182000   0.97804232   -6.6090891    64.015036  0.029310914  0.031107117            4 
  183000   0.96277671   -6.6651729    64.240672  0.029253493  0.031037153            3 
  184000   0.94581781   -6.6318536     64.60149  0.029257921  0.030968279            6 
  185000   0.99370479   -6.6830635    64.743579  0.029163774  0.030898875            7 
  186000   0.98861103    -6.630582    64.875512   0.02906609  0.030828538            4 
  187000   0.95403025   -6.6772221    65.257094  0.029080701  0.030758984            7 
  188000   0.96520407   -6.6479635     65.47335  0.029021875  0.030690134            9 
  189000   0.94944464   -6.6447077    65.921828  0.029066062  0.030622219            9 
  190000   0.95902391   -6.6801465    65.986942  0.028941641  0.030554044            7 
  191000   0.95582332   -6.6298315     66.03677  0.028811854   0.03048527            5 
  192000   0.95645959   -6.6608062    66.265843  0.028761216  0.030414738            2 
  193000   0.94741853   -6.6630828    66.351765  0.028649294  0.030344312            5 
  194000   0.96606271   -6.6400272    66.642589  0.028626542   0.03027329            4 
  195000   0.95755435   -6.6711606    66.966999  0.028618376  0.030202942            6 
  196000   0.97777593   -6.6641643    67.209995  0.028575678  0.030132328            5 
  197000   0.94434952   -6.6508238    67.414405  0.028517092  0.030063279            5 
  198000   0.96038711   -6.7038636    67.465829  0.028394709   0.02999269           10 
  199000   0.94150541   -6.6740561    67.534509  0.028280782  0.029922158            4 
  200000   0.95299134   -6.6934397    67.689619  0.028204008  0.029848393            3 
  201000   0.94073505    -6.704117    67.775885  0.028099455  0.029773113            5 
  202000   0.95162265   -6.7106647    67.934607  0.028025828  0.029698517            7 
  203000   0.93407983   -6.6883114    68.141694  0.027972781  0.029624107            6 
  204000    0.9401698   -6.6634684    68.420868  0.027949701  0.029549273            4 
  205000   0.95436936   -6.6913774    68.589187  0.027881783   0.02947584            4 
  206000   0.94481643   -6.7445828    68.797664   0.02783077  0.029401146            5 
  207000   0.94362243   -6.7084117      69.0721  0.027806803  0.029327383            8 
  208000   0.94174102   -6.7065079    69.374885  0.027794425  0.029255362            4 
  209000   0.90985179     -6.71408    69.282831  0.027624733  0.029184106           14 
  210000   0.91468877   -6.6883773    69.942987  0.027755154  0.029111489            6 
  211000   0.93186413   -6.7365079    69.839546  0.027582759  0.029039886            5 
  212000    0.9083238   -6.7184684    70.266258  0.027620384   0.02896931            5 
  213000   0.92376562   -6.7141488    70.253687  0.027485793  0.028899098            6 
  214000   0.92229351     -6.74038    70.224974  0.027346174  0.028827601            9 
  215000   0.92421163   -6.7329577    70.487208  0.027320623  0.028754639            6 
  216000   0.92398841   -6.7338615    70.639488  0.027252889  0.028681757            6 
  217000   0.91749409   -6.7669106    70.787641  0.027184194  0.028609271            4 
  218000    0.9219532    -6.735295    71.053182  0.027161002  0.028536956           11 
  219000   0.91165262   -6.7280961    71.340449   0.02714629  0.028467001            3 
  220000    0.9075431   -6.7731372    71.498737  0.027082855  0.028397845            9 
  221000   0.92910421    -6.747722    71.763379  0.027060098  0.028328537            3 
  222000   0.89903092   -6.7388979    71.808294  0.026955065  0.028259903            3 
  223000   0.90496732   -6.7516636    71.994201  0.026903662  0.028191229            3 
  224000   0.92385483   -6.7562996    72.253769  0.026880122   0.02812231            3 
  225000   0.91623474   -6.7841377    72.506814  0.026854375  0.028053526            5 
  226000   0.90018977   -6.7807796    72.560013  0.026755167  0.027985559           11 
  227000   0.90614809   -6.7819531    72.580272   0.02664474  0.027915317           10 
  228000   0.90184662   -6.7999534    72.425704  0.026471383  0.027843836            8 
  229000   0.89035384   -6.7856668    72.611806   0.02642351  0.027771878            5 
  230000   0.91636819    -6.791486    72.790958  0.026373536  0.027699976           10 
  231000   0.89397266   -6.7497831    73.001106  0.026335175  0.027627367            7 
  232000   0.90193255    -6.760012    73.096556  0.026255947  0.027554389            8 
  233000   0.91473382   -6.8001402    73.354363  0.026235466  0.027481448            8 
  234000   0.90812727   -6.7747506    73.619314  0.026217704  0.027410377           11 
  235000   0.90486217   -6.7753888     73.55294  0.026082603  0.027339012            5 
  236000   0.88065227   -6.8072943    73.746917  0.026040578  0.027266531            5 
  237000   0.91595497   -6.8232589    73.852492  0.025967824  0.027194628            6 
  238000   0.88526491   -6.7985775    73.721165  0.025812733   0.02712258            9 
  239000   0.86852152   -6.8011629    73.998553  0.025801448  0.027050808            4 
  240000   0.87627809   -6.8027512    74.137012  0.025742018  0.026978546            7 
  241000   0.88642738   -6.8324421    74.186469  0.025652306  0.026906927            8 
  242000    0.8808822   -6.8650901    74.404973  0.025621547   0.02683502            3 
  243000   0.86786312   -6.8318673    74.669839  0.025606941  0.026762029            5 
  244000   0.88904823   -6.8334446    74.835447  0.025558554  0.026690004            6 
  245000   0.87734417   -6.8276915    75.257147  0.025597669  0.026619523            5 
  246000   0.86965892   -6.8385737    75.494096  0.025573881  0.026550936            5 
  247000   0.88850671   -6.8590926    75.365729  0.025427034  0.026481639            5 
  248000   0.88152465   -6.8593895    75.535242  0.025381466   0.02641189           15 
  249000   0.85391034   -6.8752415    75.495662  0.025266286  0.026341984            6 
  250000   0.87253806   -6.8490021    75.566171  0.025188724  0.026271631            4 
  251000   0.84531368   -6.8489021    75.716218  0.025138187  0.026202603           12 
  252000   0.86956834   -6.8273874    76.057743   0.02515137  0.026133522           10 
  253000   0.86906843   -6.8452966    76.244689  0.025113534  0.026064675           13 
  254000   0.86356338   -6.8522522    76.329428  0.025042463  0.025996853            3 
  255000   0.85205594   -6.8875203    76.551326  0.025016773  0.025929561            6 
  256000    0.8737676   -6.8708211    76.763171  0.024988011  0.025861763           10 
  257000   0.85933439   -6.8651188    76.851733  0.024919498  0.025794367            7 
  258000   0.85227114   -6.8536075    76.999058  0.024870497   0.02572809            8 
  259000   0.85639872   -6.8879839     77.16571  0.024828092  0.025662072           17 
  260000   0.85155003   -6.8887077    77.201026  0.024743918  0.025595185            5 
  261000    0.8605688   -6.8723137    77.354865  0.024698233  0.025528683            8 
  262000   0.83958502   -6.9097333    77.468657  0.024640158  0.025462698            8 
  263000   0.83540054   -6.8722709    77.917535  0.024688699  0.025397603            9 
  264000   0.82615423   -6.8882142    77.783689  0.024552932  0.025332188            6 
  265000   0.84864043   -6.8752669    77.885581  0.024492321  0.025267572           12 
  266000   0.84204915   -6.9253377    78.191949  0.024496225  0.025201867            7 
  267000   0.83722065   -6.9059066    77.943042  0.024326792  0.025135991            6 
  268000   0.81894038   -6.9133144    78.321181  0.024353601  0.025069641            8 
  269000   0.83936923   -6.8917626    78.611138  0.024352893  0.025004651           18 
  270000   0.82873481   -6.9028804     78.52219  0.024235244  0.024940305            7 
  271000   0.83037048   -6.9259779    78.524688  0.024146583  0.024875064           11 
  272000   0.83062936   -6.9561434    78.517239  0.024055527  0.024809028            7 
  273000   0.82343963   -6.9254441    78.640775   0.02400512  0.024743668           12 
  274000   0.81128258    -6.910165    78.907419  0.023998607  0.024677926            7 
  275000     0.820568   -6.9528236    78.910731  0.023912343   0.02461178            5 
  276000     0.835759   -6.9407405    79.125585  0.023890575  0.024547011           10 
  277000   0.81849315   -6.9410767    79.205304   0.02382831   0.02448319            7 
  278000   0.82187628   -6.9402166    79.310784  0.023774216  0.024419695           21 
  279000    0.8111986    -6.941239    79.319168  0.023691508  0.024355682            8 
  280000    0.8088326   -6.9466894    79.241499  0.023583779  0.024290904            9 
  281000   0.81557093   -6.9492193    79.300582  0.023517373  0.024225395            9 
  282000   0.81139574   -6.9317986     79.42763  0.023471522  0.024160036            8 
  283000   0.83009913   -6.9618185    79.478891  0.023403678  0.024094547           13 
  284000   0.82571871   -6.9527115    79.315758  0.023273403   0.02402815            8 
  285000   0.82437809   -6.9746553    79.707316  0.023306233  0.023961926            5 
  286000   0.82918087   -6.9574586     79.76819  0.023242479  0.023896174           16 
  287000   0.81074497   -6.9416475    80.051128  0.023243649  0.023830689           12 
  288000   0.80670261   -6.9758729    79.865508  0.023109233   0.02376538            5 
  289000    0.8039717   -6.9891157    79.945227  0.023052257  0.023699874            7 
  290000   0.81275189   -6.9856982    79.999921  0.022988483  0.023634781            8 
  291000   0.79325406   -6.9724551    80.338886  0.023006554  0.023570233           15 
  292000   0.80714494   -6.9867572    80.364097  0.022934959  0.023506141           10 
  293000     0.811264   -6.9866523    80.411805  0.022870252  0.023442445            9 
  294000   0.79951069   -6.9862354    80.488382  0.022814167  0.023378719            7 
  295000   0.79705568   -6.9846352    80.580682  0.022762904  0.023314996           10 
  296000   0.78691275   -7.0052225    80.696172  0.022718517  0.023250536           11 
  297000   0.77383028   -7.0046544    80.710698  0.022646099  0.023186331            8 
  298000   0.77938033   -7.0011008    80.807802   0.02259726   0.02312215            6 
  299000   0.79776169   -7.0185007    80.963635  0.022565116  0.023058462           12 
  300000    0.7861659   -7.0234233    80.904676  0.022473521  0.022994978           10 
  301000   0.77086967   -7.0326493     80.87764  0.022391373  0.022930339           14 
  302000    0.7984972   -7.0131628    80.899587  0.022323286  0.022866114            8 
  303000    0.7982161   -7.0404559    80.917183  0.022254451   0.02280155            6 
  304000   0.78790823   -7.0292986    80.766736  0.022140004  0.022736227           13 
  305000   0.77745624   -7.0191924    80.776245  0.022070012  0.022670648           14 
  306000   0.76652542   -7.0410047    80.859725  0.022020622  0.022604875           20 
  307000   0.78515013   -7.0350546     81.15677  0.022029525  0.022539453            6 
  308000   0.77019923   -7.0344967     81.14436  0.021954643  0.022474465            5 
  309000   0.76533375   -7.0566104    81.107555  0.021873666  0.022409782           11 
  310000   0.77452836   -7.0493808    81.324865  0.021861523  0.022344699           11 
  311000   0.77052901   -7.0388387    81.139764   0.02174163  0.022279702           18 
  312000   0.77052016   -7.0658631    81.383968  0.021737171  0.022215076           13 
  313000   0.76342861   -7.0442342    81.312432  0.021648677  0.022150162            9 
  314000   0.76283786   -7.0481807    81.505413  0.021630948  0.022085682            8 
  315000   0.76695509   -7.0890036     81.45759  0.021549627  0.022021935            5 
  316000   0.77489509    -7.058152    81.546259  0.021504815  0.021958424            9 
  317000   0.77413843   -7.0649437    81.666468  0.021468577  0.021894922           10 
  318000   0.74683311   -7.0748288    81.908448  0.021464478  0.021831659            4 
  319000   0.76040721   -7.0513548    81.706682  0.021344483  0.021768818            7 
  320000   0.74061403   -7.0572165    82.023776  0.021360358   0.02170631           12 
  321000   0.75631103   -7.0782886    82.133553  0.021322314  0.021644194           18 
  322000   0.76203812   -7.0714175    82.209509  0.021275753  0.021582387           11 
  323000   0.76314635   -7.0702646    82.227785  0.021214599  0.021521068           15 
  324000   0.74031263   -7.0885693    82.262738  0.021158112  0.021459782            6 
  325000   0.74529641   -7.0706196    82.281362  0.021097785  0.021398673            5 
  326000   0.73907121   -7.0847181    82.401523  0.021063784  0.021337893            9 
  327000   0.74151648   -7.0715995    82.555052  0.021038494  0.021277425           15 
  328000   0.74285838    -7.074104    82.584819  0.020981915  0.021217314           13 
  329000   0.72557606   -7.1168417    82.767905  0.020964515  0.021157258           22 
  330000   0.73653407   -7.1219035    82.788336  0.020906145  0.021097665           23 
  331000   0.73809735   -7.0973269    82.631069  0.020803391  0.021037882           16 
  332000   0.75525795   -7.1139094    82.969945  0.020825789  0.020978189           16 
  333000   0.74104558    -7.110523    82.773652  0.020714127  0.020918923           21 
  334000   0.73060837    -7.100816    83.230377  0.020766062   0.02086015           22 
  335000    0.7192449   -7.1337361    83.154451  0.020685187  0.020801533           14 
  336000   0.71989051   -7.1050549    83.312073  0.020662717  0.020743243           14 
  337000   0.74533504   -7.1208873    83.385115  0.020619465  0.020685211            8 
  338000   0.72787237    -7.132363    83.157681  0.020502387  0.020627289           10 
  339000   0.73083277   -7.1472537    83.186374  0.020448961  0.020569069            8 
  340000   0.72059643   -7.1658444    83.299578  0.020416563   0.02051064           12 
  341000   0.72440715   -7.1367706    83.611981  0.020433035  0.020452719            8 
  342000   0.73879273   -7.1561308    83.565495  0.020361963  0.020395247           15 
  343000   0.72406829   -7.1646047    83.664667  0.020326693  0.020337979           14 
  344000   0.72439351   -7.1691587    83.526171  0.020234053   0.02028124           12 
  345000   0.70529537   -7.1547541    83.552093  0.020181665  0.020224024           17 
  346000   0.70051697   -7.1586142    83.831817  0.020190707  0.020166757           28 
  347000   0.71023771   -7.1659989    83.667826  0.020093138  0.020109595           33 
  348000   0.71439223   -7.1820263    83.678511  0.020037958  0.020052512           33 
  349000   0.70266969   -7.1613843    83.613244  0.019964958  0.019995408           23 
  350000   0.72593215   -7.1676863    83.944392   0.01998676  0.019938904           37 
  351000   0.69838641    -7.206221    83.681736  0.019867459  0.019882362           12 
  352000   0.71909996   -7.1806686    83.807128  0.019840703  0.019825659           12 
  353000   0.71822326   -7.1837725    83.879992  0.019801698  0.019769526           16 
  354000   0.72688705   -7.1794483    84.103314  0.019798332   0.01971387           21 
  355000   0.70894872   -7.1708648    84.006272  0.019719782  0.019658014           28 
  356000   0.69320617   -7.1623801    84.011118  0.019665524  0.019601946           12 
  357000   0.68759641   -7.2019886    84.017909  0.019612024  0.019546167           24 
  358000   0.68217028   -7.2101839    84.192523  0.019597887  0.019490449           26 
  359000   0.68662628   -7.1814689    84.238342  0.019553933  0.019435081           41 
  360000   0.71003969   -7.2108555    84.026457  0.019450569  0.019379641           21 
  361000    0.6910985   -7.2305374    84.108181  0.019415554  0.019323893           22 
  362000   0.70189255    -7.225293    84.110625  0.019362483  0.019268361           27 
  363000   0.68776447   -7.2276818    84.332787  0.019360144  0.019212728           23 
  364000   0.68893448    -7.226739    84.017361  0.019234744  0.019157099           14 
  365000   0.68072706   -7.2286739    84.037546  0.019186654  0.019101468           69 
  366000    0.6870968   -7.2020526    84.085105   0.01914506   0.01904613           19 
  367000   0.68402463   -7.2365015    84.097105  0.019095619  0.018990768           19 
  368000   0.67750308   -7.2269467    84.219259   0.01907139  0.018935599           19 
  369000   0.67399902    -7.226218    84.224856   0.01902097  0.018880602           25 
  370000   0.68357427   -7.2227261    84.269233  0.018979557  0.018826063           13 
  371000   0.67865549    -7.254665    84.544534  0.018990237  0.018771553           30 
  372000   0.66107484   -7.2297354    84.444213  0.018916714  0.018717207           35 
  373000   0.66328146   -7.2237072    84.371292  0.018849708  0.018662917           41 
  374000   0.67008882   -7.2533767    84.389002  0.018803253  0.018608659           42 
  375000   0.67583546   -7.2517189    84.229238  0.018717608  0.018554573           49 
  376000   0.66480185   -7.2738136    84.292298  0.018681804  0.018500379           17 
  377000   0.67274986    -7.258876    84.439569  0.018664803  0.018446364           28 
  378000   0.66551742   -7.2558813    84.543278  0.018638289  0.018392431           33 
  379000   0.65743661   -7.2803253    84.170361  0.018507116  0.018338683           51 
  380000   0.68004118   -7.2654359    84.356783  0.018499294  0.018284824           50 
  381000   0.66440665   -7.2710196    84.353453  0.018450012  0.018231113           33 
  382000   0.65214364   -7.2883343    84.448309  0.018422406  0.018177576           23 
  383000    0.6626133     -7.30049    84.427627  0.018369806  0.018124071           42 
  384000   0.65076862    -7.292933    84.271393  0.018288063  0.018070549           33 
  385000   0.64918752   -7.2725646    84.328069  0.018252829  0.018017483           31 
  386000   0.63439406   -7.2879581    84.500716  0.018242814  0.017964357           32 
  387000   0.66173093   -7.2875706    84.575033  0.018211678  0.017911533           32 
  388000   0.63936979   -7.2981167    84.450557  0.018138006  0.017858867           32 
  389000   0.64810541   -7.3256545    84.431918  0.018087386  0.017806302           34 
  390000   0.63391262   -7.3044571     84.57451  0.018071476  0.017753899           34 
  391000   0.64295087   -7.3031502    84.537367  0.018017342  0.017701678           44 
  392000   0.64857498   -7.3052104    84.619075  0.017988749  0.017649879           58 
  393000    0.6380219   -7.3118838    84.652515  0.017950067  0.017598149           36 
  394000   0.63693129    -7.327759    84.719723  0.017918723  0.017546273           89 
  395000   0.63631055   -7.3303849    84.656172  0.017859952  0.017494377          105 
  396000   0.64073411   -7.3396124    84.574765   0.01779772  0.017442555           97 
  397000   0.63272459   -7.3166605    84.776931  0.017795326  0.017390939           95 
  398000   0.62946211   -7.3221108    84.521565  0.017697145  0.017339392           75 
  399000   0.64976176   -7.3381938    84.413556  0.017630233  0.017287883           70 
  400000   0.63076075   -7.2900184    84.427439   0.01758905  0.017236506           84 
  401000   0.61703575   -7.3375757    84.745465  0.017611277  0.017185251           40 
  402000     0.634024   -7.3637739    84.652946  0.017548289  0.017134255           36 
  403000   0.62233167   -7.3289697    84.705358  0.017515583   0.01708326           53 
  404000   0.61159719   -7.3533309    84.650533  0.017460919  0.017032423           77 
  405000   0.61547704   -7.3423598    84.594176  0.017406209  0.016981604           75 
  406000   0.61941596   -7.3388817    84.465316  0.017336887  0.016930917           42 
  407000   0.62158406    -7.378506    84.527301  0.017306982  0.016880145          149 
  408000   0.61312902   -7.3609162    84.669808   0.01729367  0.016829699           72 
  409000   0.61431737   -7.3809704    84.484198  0.017213569  0.016779158           89 
  410000   0.60037873   -7.3577841    84.549111  0.017184779    0.0167288           89 
  411000   0.61741817   -7.3646398    84.532372  0.017139573  0.016678657           99 
  412000   0.60270625   -7.3856985    84.367928   0.01706471  0.016628488           80 
  413000   0.60584358   -7.3480817    84.689952  0.017088368  0.016578502           95 
  414000    0.6126946   -7.3715569      84.4978  0.017008414  0.016528629          100 
  415000   0.59934871   -7.3760111    84.601379  0.016988229  0.016479015          101 
  416000   0.60771821   -7.4160638    84.499363  0.016926956  0.016429497           93 
  417000   0.61806543   -7.3715689    84.520347  0.016890557  0.016380143           71 
  418000   0.59186385   -7.3899715    84.636933  0.016873392  0.016330948           73 
  419000   0.59720222   -7.3904784    84.581941  0.016822184   0.01628204           98 
  420000   0.59042962   -7.4108871    84.696589  0.016804879  0.016233374           58 
  421000   0.58830492   -7.4039552    84.616165  0.016749043  0.016184861          132 
  422000   0.58998607   -7.3897648    84.693629   0.01672465  0.016136573          142 
  423000   0.57464412   -7.4105402    84.794909  0.016705065  0.016088388          160 
  424000   0.59808296   -7.4138681    84.590307  0.016625453  0.016040261           98 
  425000   0.57878218   -7.4334589    84.731427  0.016614005  0.015992213           82 
  426000   0.58210887    -7.423993    84.525646  0.016534751  0.015944254           65 
  427000   0.58872085   -7.4285071    84.695515  0.016529179  0.015896568           68 
  428000   0.58161589   -7.4143157    84.624151  0.016476665  0.015848844           71 
  429000   0.58741853    -7.439186    84.368515    0.0163886  0.015801109           77 
  430000   0.56853751   -7.4442544    84.467832  0.016369735  0.015753431           99 
  431000   0.58237516   -7.4486734    84.440076  0.016326387  0.015705821           79 
  432000   0.57474422   -7.4370884    84.459051  0.016292255  0.015658353          116 
  433000    0.5689313   -7.4668355    84.485822  0.016259781  0.015610985          165 
  434000   0.57500567   -7.4566034    84.346678  0.016195599   0.01556365           97 
  435000   0.58091949   -7.4491316    84.553309  0.016197952  0.015516384          130 
  436000   0.56813173   -7.4482109     84.45208  0.016141453  0.015469411          157 
  437000   0.56743552    -7.467676    84.403344  0.016095222  0.015422501          214 
  438000   0.56890022   -7.4636573    84.667782  0.016108787  0.015375727          206 
  439000   0.56299199   -7.4421779    84.355983  0.016012905  0.015329259          162 
  440000   0.56776737   -7.4918589    84.418903  0.015988429  0.015282783          125 
  441000   0.56225777   -7.4827971    84.468606  0.015961566  0.015236499          155 
  442000   0.56730352   -7.4950591    84.481208   0.01592783  0.015190417          145 
  443000   0.55617149   -7.4968055    84.338534  0.015865036  0.015144417          123 
  444000   0.55934587   -7.4794646    84.474229  0.015854773  0.015098685          184 
  445000   0.56458828   -7.4990251    84.528743  0.015829353  0.015053077          246 
  446000   0.55020345   -7.4963705    84.547665  0.015797396  0.015007696          156 
  447000   0.56016866   -7.5078876    84.512683  0.015755534  0.014962326          195 
  448000    0.5534912   -7.4955269      84.3472  0.015689583  0.014917114          296 
  449000   0.55073869   -7.4953521    84.419212  0.015668005  0.014872035          304 
  450000   0.55208986   -7.5189754    84.496275  0.015647458   0.01482709          218 
  451000   0.54811698   -7.5053918    84.534257  0.015619781  0.014782306          240 
  452000   0.54668897   -7.4959424    84.501351  0.015579158  0.014737442          171 
  453000   0.54048979   -7.5155728    84.565684  0.015556601  0.014692786          202 
  454000   0.53200318   -7.5283211     84.38165  0.015488555  0.014648235          208 
  455000   0.54457317   -7.5272793    84.301303  0.015439799   0.01460387          192 
  456000   0.54317562   -7.5208025    84.274061  0.015400961  0.014559662          217 
  457000   0.54026055   -7.5195645    84.395617  0.015389427  0.014515626          218 
  458000   0.53008303   -7.5086407    84.210862  0.015322209  0.014471669          243 
  459000   0.52478926   -7.5303291    84.365995  0.015316993  0.014427926          325 
  460000   0.54172119   -7.5477257    84.395805  0.015289095  0.014384302          220 
  461000    0.5395428   -7.5370964    84.302143  0.015238999  0.014340758          266 
  462000   0.53061987   -7.5513136     84.41843   0.01522699  0.014297392          315 
  463000   0.51904747   -7.5279855     84.33886   0.01517978   0.01425411          305 
  464000   0.53366127    -7.550376    84.465875  0.015169877   0.01421096          327 
  465000   0.53198652   -7.5677336    84.380438  0.015121942  0.014167937          269 
  466000   0.52068943   -7.5304848    84.359042  0.015085666  0.014125075          142 
  467000   0.52418798   -7.5685585    84.272188  0.015037864  0.014082227          321 
  468000   0.51065393   -7.5502462    84.063521  0.014968576  0.014039445          363 
  469000   0.52343262   -7.5515628    84.142054  0.014950614  0.013996816          290 
  470000   0.51146489   -7.5520642    84.136038  0.014917737  0.013954321          307 
  471000   0.50165608   -7.5576769    84.236984  0.014903925  0.013911987          293 
  472000   0.51446187   -7.5792282     84.18585  0.014863321  0.013869863          276 
  473000   0.52030728   -7.5674555    84.110434  0.014818611  0.013827752          366 
  474000   0.51144717   -7.5517457     84.24097  0.014810297  0.013785818          391 
  475000   0.51415987   -7.5454348    84.200608  0.014772036  0.013744056          267 
  476000   0.50454226   -7.5766484    84.130187  0.014728674  0.013702413          292 
  477000   0.50199319   -7.5720249    84.082372  0.014689443  0.013660814          350 
  478000   0.50133882   -7.5870666    84.213892  0.014681641  0.013619332          359 
  479000    0.4980415    -7.597306    84.060321  0.014624273   0.01357797          274 
  480000   0.50051206   -7.6007075    84.033435  0.014589138  0.013536753          342 
  481000   0.49194139   -7.5848819    84.096564  0.014569744  0.013495685          424 
  482000   0.50090955   -7.5899143    84.133778   0.01454595  0.013454836          525 
  483000   0.49953757    -7.583185    84.091074  0.014508467  0.013414148          323 
  484000   0.49581189   -7.6121311    84.198989  0.014497071  0.013373562          276 
  485000   0.49035123   -7.5958069    84.050852  0.014441727  0.013333124          463 
  486000   0.48954249   -7.6076316    84.164463  0.014431492   0.01329283          325 
  487000   0.47751711   -7.6014685    84.032375  0.014379256  0.013252704          376 
  488000   0.49025863   -7.5966855    84.065359  0.014355423  0.013212655          315 
  489000   0.49246799   -7.6118456    84.162124  0.014342557  0.013172738          381 
  490000   0.48455701   -7.6144931    84.034948  0.014291658  0.013133006          448 
  491000   0.48161171   -7.6200381    84.137761      0.01428  0.013093401          426 
  492000   0.47988031   -7.6127819    83.955668  0.014220133  0.013053908          313 
  493000   0.47311251   -7.6145956     83.99389   0.01419775  0.013014598          434 
  494000   0.47897929   -7.6136382    84.067799  0.014181478  0.012975452          387 
  495000   0.48182457   -7.6431474    84.142668  0.014165432  0.012936443          353 
  496000   0.47799658   -7.6231251    83.968643  0.014107635  0.012897544          358 
  497000   0.47436502   -7.6293837    83.997909  0.014084156  0.012858796          389 
  498000   0.47966937   -7.6296603    83.968451  0.014050946  0.012820202          410 
  499000     0.463012   -7.6290189     83.87808  0.014007695  0.012781732          560 
  500000   0.47138949   -7.6299642    84.054055  0.014009009  0.012743389          483 
  501000   0.46092691   -7.6318958    83.955252  0.013964613   0.01270519          574 
  502000   0.46286336   -7.6448816    84.006896  0.013945368  0.012667055          524 
  503000   0.46290731   -7.6424277    84.031211  0.013921672  0.012629108          608 
  504000   0.46011296   -7.6359603    83.892924  0.013871185  0.012591251          514 
  505000   0.46097582   -7.6481896    83.926876  0.013849319  0.012553547          549 
  506000   0.46628096   -7.6539202    84.015331  0.013836517  0.012515968          520 
  507000   0.45489631   -7.6575903     83.90278  0.013790726   0.01247852          421 
  508000   0.45518471   -7.6664895    83.888548  0.013761245  0.012441121          518 
  509000   0.45505392   -7.6630193    83.914755    0.0137385  0.012403844          492 
  510000    0.4623377   -7.6680427    83.940877   0.01371583  0.012366779          414 
  511000   0.44721403   -7.6710287    83.888743  0.013680487  0.012329805          586 
  512000   0.44654974   -7.6689502    83.906051  0.013656584  0.012292957          607 
Loop time of 1079.19 on 48 procs for 500000 steps with 4000 atoms

Performance: 80060.088 tau/day, 463.311 timesteps/s
99.4% CPU use with 48 MPI tasks x no OpenMP threads

MPI task timing breakdown:
Section |  min time  |  avg time  |  max time  |%varavg| %total
---------------------------------------------------------------
Pair    | 68.486     | 71.81      | 80.635     |  34.9 |  6.65
Neigh   | 6.7294     | 6.8451     | 6.98       |   2.4 |  0.63
Comm    | 55.223     | 62.694     | 66.887     |  35.5 |  5.81
Output  | 0.8284     | 0.82899    | 0.83781    |   0.1 |  0.08
Modify  | 920.05     | 924.85     | 930.08     |   7.7 | 85.70
Other   |            | 12.17      |            |       |  1.13

Nlocal:        83.3333 ave          90 max          76 min
Histogram: 1 1 6 9 4 9 6 9 1 2
Nghost:        1787.54 ave        1804 max        1770 min
Histogram: 1 6 6 2 4 11 6 6 4 2
Neighs:        10944.4 ave       12019 max        9820 min
Histogram: 1 2 4 9 9 6 7 4 4 2
FullNghs:      21888.8 ave       23921 max       19821 min
Histogram: 1 2 5 9 6 10 6 5 2 2

Total # of neighbors = 1050663
Ave neighs/atom = 262.66575
Neighbor list builds = 26960
Dangerous builds = 0

#clear
#
#next RN
#
#jump SELF
Total wall time: 0:18:01
