
units lj                  # Use reduced LJ style units
atom_style atomic         # Uncharged point particles
atom_modify map hash      # Needed for indexing of clusters etc
                          # Used to be able to find where atoms are in relation to each other.

lattice fcc 1.0 spacing 1 1 1
Lattice spacing in x,y,z = 1.5874011 1.5874011 1.5874011
region box block 0 10 0 10 0 10 units lattice
create_box 2 box
Created orthogonal box = (0.0000000 0.0000000 0.0000000) to (15.874011 15.874011 15.874011)
  3 by 4 by 4 MPI processor grid
create_atoms 1 box
Created 4000 atoms
  using lattice units in orthogonal box = (0.0000000 0.0000000 0.0000000) to (15.874011 15.874011 15.874011)
  create_atoms CPU = 0.026 seconds
set type 1 type/fraction 2 0.95 78393
Setting atom values ...
  3802 settings made for type/fraction
mass 1 1.0
mass 2 1.0
pair_style lj/cut  3.5
pair_modify tail  yes
pair_coeff 1  1  1.0  1.0   # Intearaction between 1 and 1 set with epsilon = 1 and sigma = 1
pair_coeff 1  2  1.5  0.8
pair_coeff 2  2  0.5  0.88

write_data data.0
System init for write_data ...
Neighbor list info ...
  update every 1 steps, delay 10 steps, check yes
  max neighbors/atom: 2000, page size: 100000
  master list distance cutoff = 3.8
  ghost atom cutoff = 3.8
  binsize = 1.9, bins = 9 9 9
  1 neighbor lists, perpetual/occasional/extra = 1 0 0
  (1) pair lj/cut, perpetual
      attributes: half, newton on
      pair build: half/bin/atomonly/newton
      stencil: half/bin/3d
      bin: standard
WARNING: Not all mixed pair coeffs generated from mixing. Use write_data with 'pair ij' option to store all pair coeffs. (../write_data.cpp:312)


#############################
#   M E L T   S Y S T E M   #
#############################

velocity all create 2.4 5300450 mom yes dist gaussian # Assign velocities
                                                    # Temperature 2.4, random number seed, zero linear momentum
                                                                                # Gaussian distribution

timestep 0.002   # simulation timestep
thermo 1000       # output thermodynamic data every 1000 steps bf 100

# Define a fix  in this case with index 1 applied to all
# particles in the simulation. This fix is for simulations
# in the anisotropic NPT ensemble. Note that we use the MTK
# correction.
fix 1 all npt temp 2.4 2.4 0.1 iso 5.68 5.68 0.5 mtk yes tchain 5 pchain 5 # Use NPT ensemble
                                                                         # Set temperature and pressure and damping
                                                                         # Numbers of thermostats in chain and in barostat
run 10000          # run for 10000 steps
Per MPI rank memory allocation (min/avg/max) = 3.642 | 3.644 | 3.648 Mbytes
Step Temp E_pair E_mol TotEng Press Volume 
       0          2.4   -2.9371918            0   0.66190816   -2.1469233         4000 
    1000    2.3884307   -1.8199357            0    1.7618148    5.7711012    4111.6854 
    2000    2.4456624   -1.8123337            0    1.8552429    5.8332862    4122.0091 
    3000    2.4196978   -1.8136408            0    1.8149985    5.7071626    4139.9024 
    4000    2.4307552   -1.8505303            0    1.7946909    5.7865675     4096.516 
    5000    2.3862129   -1.7690595            0     1.809365    5.8831621    4136.0734 
    6000    2.4301199   -1.8282616            0    1.8160069    5.6853192    4121.2259 
    7000    2.4921192   -1.8253598            0    1.9118845    5.9275055    4107.0698 
    8000    2.4315485   -1.7923439            0     1.854067    5.8995397    4121.4105 
    9000    2.4155581   -1.7919536            0    1.8304778    5.7547283    4148.1281 
   10000    2.3617374    -1.814545            0    1.7271754    5.4205314    4184.5131 
Loop time of 2.51532 on 48 procs for 10000 steps with 4000 atoms

Performance: 686991.326 tau/day, 3975.644 timesteps/s
99.6% CPU use with 48 MPI tasks x no OpenMP threads

MPI task timing breakdown:
Section |  min time  |  avg time  |  max time  |%varavg| %total
---------------------------------------------------------------
Pair    | 1.0565     | 1.125      | 1.2327     |   3.3 | 44.72
Neigh   | 0.20324    | 0.21317    | 0.22951    |   1.0 |  8.47
Comm    | 0.71889    | 0.84659    | 0.94529    |   4.5 | 33.66
Output  | 0.00024858 | 0.00025324 | 0.00032767 |   0.0 |  0.01
Modify  | 0.27782    | 0.31078    | 0.35301    |   4.0 | 12.36
Other   |            | 0.01956    |            |       |  0.78

Nlocal:        83.3333 ave          94 max          76 min
Histogram: 5 2 6 12 6 9 4 2 1 1
Nghost:        1595.81 ave        1637 max        1573 min
Histogram: 7 8 5 8 6 8 3 0 2 1
Neighs:        9109.58 ave       10470 max        7967 min
Histogram: 2 3 7 9 9 6 5 4 1 2

Total # of neighbors = 437260
Ave neighs/atom = 109.31500
Neighbor list builds = 905
Dangerous builds = 183

# Equilibrate just above the melting temperature to avoid step fn in T

fix 1 all npt temp 1.25 1.25 0.1 iso 5.68 5.68 0.5 mtk yes tchain 5 pchain 5
run 2000
Per MPI rank memory allocation (min/avg/max) = 3.643 | 3.645 | 3.649 Mbytes
Step Temp E_pair E_mol TotEng Press Volume 
   10000    2.3617374    -1.814545            0    1.7271754    5.4205314    4184.5131 
   11000    1.2384163   -2.7405058            0  -0.88334576    5.6867104    3227.9144 
   12000    1.2212482   -2.7740614            0  -0.94264706    5.6225401    3209.1758 
Loop time of 0.602894 on 48 procs for 2000 steps with 4000 atoms

Performance: 573234.927 tau/day, 3317.332 timesteps/s
99.7% CPU use with 48 MPI tasks x no OpenMP threads

MPI task timing breakdown:
Section |  min time  |  avg time  |  max time  |%varavg| %total
---------------------------------------------------------------
Pair    | 0.26117    | 0.2869     | 0.32909    |   2.4 | 47.59
Neigh   | 0.038715   | 0.041138   | 0.048229   |   0.9 |  6.82
Comm    | 0.17972    | 0.22149    | 0.25506    |   3.3 | 36.74
Output  | 5.4255e-05 | 5.5295e-05 | 7.318e-05  |   0.0 |  0.01
Modify  | 0.039628   | 0.048454   | 0.056631   |   2.3 |  8.04
Other   |            | 0.004857   |            |       |  0.81

Nlocal:        83.3333 ave          91 max          75 min
Histogram: 1 3 4 9 6 5 10 1 6 3
Nghost:        1905.29 ave        1924 max        1881 min
Histogram: 1 0 2 5 10 9 10 5 4 2
Neighs:        11884.0 ave       13559 max       10158 min
Histogram: 1 2 5 10 7 8 4 5 4 2

Total # of neighbors = 570433
Ave neighs/atom = 142.60825
Neighbor list builds = 142
Dangerous builds = 14

#############################
# L I N E A R  Q U E N C H  #
#############################

# Define solid atoms. This closely follows ten Wolde  Ruiz-Montero and Frenkel  Faraday Discuss  1996  104  93-110
# Compute components of the per-atom q6 vector
compute q6 all orientorder/atom degrees 1 6 components 6 nnn NULL cutoff 1.3 # compute the Q6 parameter.
                                                                             # Use all neighbours within 1.3 unit cell.

# get number of connections
compute coord_number all coord/atom orientorder q6 0.5

# An atom is solid if it has 8 or more connections (of a possible 14)
variable is_solid atom c_coord_number>=8
group solid dynamic all var is_solid    # Must be dynamic to update
dynamic group solid defined

# do clustering
compute cluster solid cluster/atom 1.3 # Create a cluster where all atoms within are solid and max 1.3 units from another member

# define chunks one chunk per cluster
compute clus_chunks solid chunk/atom c_cluster nchunk every compress yes  # Says which atoms are in which chunk

# count the size of each chunk
compute size_chunks solid property/chunk clus_chunks count


# Find the maximum entry in the vector of chunk sizes
variable max_n equal max(c_size_chunks)


# Thermo style which includes this variable
# thermo_style custom step temp pe vol v_max_n

thermo ${N}  # Print the thermo information every 100 steps
thermo 1000  

# Reset the npt fix at a lower temperature (below freezing)
fix 1  all npt temp  ${temp} ${temp}  0.1  iso  5.68  5.68  0.5  mtk yes tchain  5  pchain  5
fix 1  all npt temp  0.45 ${temp}  0.1  iso  5.68  5.68  0.5  mtk yes tchain  5  pchain  5
fix 1  all npt temp  0.45 0.45  0.1  iso  5.68  5.68  0.5  mtk yes tchain  5  pchain  5

dump dmp2 all dcd ${N} traj.dcd
dump dmp2 all dcd 1000 traj.dcd


compute msd all msd com yes
variable twopoint equal c_msd[4]/6/(step*dt+1.0e-6)
fix 9 all vector 10 c_msd[4]
variable fit equal slope(f_9)/6/(10*dt)
thermo_style custom step temp pe c_msd[4] v_twopoint v_fit v_max_n

fix 1 all npt temp 1.25 ${temp} 0.1 iso 5.68 5.68 0.5 mtk yes tchain 5 pchain 5
fix 1 all npt temp 1.25 0.45 0.1 iso 5.68 5.68 0.5 mtk yes tchain 5 pchain 5
run 500000 # 5000000  # Run for this many steps
Neighbor list info ...
  update every 1 steps, delay 10 steps, check yes
  max neighbors/atom: 2000, page size: 100000
  master list distance cutoff = 3.8
  ghost atom cutoff = 3.8
  binsize = 1.9, bins = 8 8 8
  4 neighbor lists, perpetual/occasional/extra = 1 3 0
  (1) pair lj/cut, perpetual
      attributes: half, newton on
      pair build: half/bin/atomonly/newton
      stencil: half/bin/3d
      bin: standard
  (2) compute orientorder/atom, occasional
      attributes: full, newton on
      pair build: full/bin/atomonly
      stencil: full/bin/3d
      bin: standard
  (3) compute coord/atom, occasional
      attributes: full, newton on
      pair build: full/bin/atomonly
      stencil: full/bin/3d
      bin: standard
  (4) compute cluster/atom, occasional
      attributes: full, newton on
      pair build: full/bin/atomonly
      stencil: full/bin/3d
      bin: standard
Per MPI rank memory allocation (min/avg/max) = 9.815 | 9.823 | 9.829 Mbytes
Step Temp PotEng c_msd[4] v_twopoint v_fit v_max_n 
   12000    1.2212482   -2.7740614 1.6808654e-30 1.1672676e-32 8.3333333e+20            1 
   13000    1.2473663   -2.7520124    1.1293818 0.0072396269  0.097147386            1 
   14000    1.2642392   -2.7434418    2.3728807   0.01412429   0.10110484            1 
   15000    1.2309146   -2.7616277     3.638147  0.020211927   0.10233849            1 
   16000    1.2774841   -2.7683701    4.9245943  0.025648928   0.10427804            1 
   17000    1.2146918   -2.7748583    6.1288878  0.030043567   0.10396405            2 
   18000    1.2317381   -2.7815712    7.2906292  0.033752912   0.10304601            1 
   19000     1.253372   -2.7543055    8.5105912  0.037327154   0.10254559            2 
   20000    1.2338623   -2.7482855    9.6592562    0.0402469   0.10202702            4 
   21000    1.2246174    -2.773807    10.647577   0.04225229   0.10116225            1 
   22000    1.2415337   -2.7712351    11.720961  0.044397577   0.09978146            1 
   23000    1.2365686   -2.7962147    12.968588  0.046987638   0.09874066            2 
   24000    1.2333382   -2.7967512    14.189198  0.049268048  0.098283521            2 
   25000    1.2187377    -2.769544    15.431055  0.051436848  0.098137399            4 
   26000     1.230287   -2.7529274    16.792181  0.053821093  0.098305595            2 
   27000     1.223172   -2.8001556     17.87326   0.05516438  0.098554176            2 
   28000    1.2320362   -2.7525917    18.994896  0.056532428  0.098557078            3 
   29000    1.2239967   -2.8175829    20.024122  0.057540579  0.098416837            1 
   30000    1.2465696   -2.8127888    21.015529  0.058376469   0.09807384            3 
   31000    1.2300422    -2.776988    22.251865  0.059816841  0.097840556            2 
   32000    1.1921535    -2.802699    23.517773    0.0612442  0.097799557            2 
   33000    1.2037501   -2.7816616    24.909999  0.062904037  0.097795717            2 
   34000    1.2215597   -2.7921622    25.993954  0.063710671  0.097804516            3 
   35000    1.2106726   -2.7908521    27.056801  0.064420954   0.09778234            1 
   36000    1.2098577   -2.7969884     28.27622  0.065454211  0.097665465            2 
   37000    1.2400548   -2.7775219    29.419699  0.066260583  0.097586892            1 
   38000    1.2003126   -2.8186368      30.5497  0.066994954  0.097565921            2 
   39000    1.2218828   -2.7976159    31.639926  0.067606678  0.097515854            2 
   40000    1.1883987    -2.790983     32.84034  0.068417375   0.09744435            2 
   41000    1.2048499   -2.8000833    34.265692  0.069645715  0.097473739            2 
   42000    1.1755314     -2.78428    35.473112  0.070383158  0.097546334            1 
   43000    1.1669942   -2.8074641    36.944919  0.071598679  0.097681916            2 
   44000    1.1981842   -2.8227059    37.986986  0.071945048  0.097842516            1 
   45000    1.1860977   -2.8388771    38.811428  0.071873015  0.097855033            1 
   46000    1.2012194   -2.8340911    39.774492  0.072055238  0.097757804            1 
   47000    1.1642217   -2.8567954    40.981827  0.072662812  0.097701162            3 
   48000    1.1915841   -2.7807969    41.979408  0.072880917  0.097584012            1 
   49000     1.174649   -2.8126262    43.189773  0.073451994  0.097474058            2 
   50000    1.1645052   -2.8178523    44.340556  0.073900926  0.097368195            2 
   51000    1.1885634   -2.8098793    45.464472  0.074288352  0.097305993            3 
   52000    1.1567739    -2.818515    46.584966  0.074655394  0.097224192            1 
   53000    1.1913329   -2.8341114    47.416585  0.074554379  0.097073236            2 
   54000    1.2152806   -2.8312739    48.144846  0.074297601  0.096843456            8 
   55000    1.1770723   -2.8070668    49.296076  0.074691023  0.096589115            2 
   56000    1.2090331   -2.8403629    50.452007   0.07507739  0.096359451            1 
   57000    1.1601809   -2.8377425    51.593542  0.075429154  0.096190725            2 
   58000    1.1712762   -2.8502032    52.550396  0.075503441  0.096004813            1 
   59000    1.1678373   -2.8389683    53.620611  0.075735326  0.095806749            1 
   60000    1.1791347    -2.850627     54.41208  0.075572333  0.095622079            1 
   61000    1.1525042   -2.8285068    55.921632  0.076395672  0.095411485            1 
   62000    1.1853006   -2.8075597    56.950614  0.076546524  0.095228781            2 
   63000    1.1625554   -2.8643578    57.973739  0.076684839  0.095052721            2 
   64000    1.1886752   -2.8219273     59.12655  0.076987695   0.09490923            1 
   65000    1.1782252   -2.8483341    60.216639  0.077200819  0.094806684            1 
   66000    1.1575775   -2.8533242    61.551048  0.077715969  0.094706623            1 
   67000    1.1754153   -2.8608801    62.376244  0.077582392  0.094587889            1 
   68000    1.1271959   -2.8567494    63.542202  0.077870345  0.094481538            2 
   69000    1.1457269    -2.849673    64.796421  0.078256546  0.094392179            2 
   70000    1.1685838    -2.829544    65.809856  0.078345066  0.094295798            3 
   71000    1.1345956   -2.8365386     66.52289  0.078078509  0.094169967            1 
   72000    1.1679568   -2.8476025    67.382149  0.077988598  0.094005976            4 
   73000    1.1392818     -2.83869    68.529606  0.078230143  0.093834516            2 
   74000    1.1695418   -2.8476326    69.363272  0.078111793  0.093677585            1 
   75000    1.1511232   -2.8604054    70.556476  0.078396084  0.093522857            2 
   76000    1.1561388   -2.8482261     71.70496  0.078623859  0.093370739            1 
   77000    1.1425036   -2.8423823    72.569858  0.078538806    0.0932502            3 
   78000     1.106984   -2.8837163    73.728546  0.078769813  0.093112122            1 
   79000    1.1328671   -2.9043463    74.920614  0.079030183  0.092986262            1 
   80000    1.1273434   -2.8705805     76.25528  0.079432583  0.092881918            1 
   81000    1.1328908   -2.8763661    77.046489  0.079265935  0.092800443            2 
   82000    1.1475303    -2.904358    77.957073  0.079224667  0.092697244            3 
   83000    1.1398478   -2.8664615    79.444854  0.079763909  0.092601214            2 
   84000    1.1267455   -2.8889375    80.658336   0.08001819  0.092533308            2 
   85000    1.1381358    -2.883607    81.550926  0.079951888  0.092471113            2 
   86000    1.1401082   -2.9214572    82.177651  0.079629506  0.092390793            2 
   87000    1.1386249   -2.9277984    82.968082  0.079471342  0.092296904            1 
   88000    1.1037141   -2.8771554    84.127461  0.079666155  0.092196198            1 
   89000    1.1171849   -2.9066339    85.070081  0.079653634  0.092080162            2 
   90000    1.1063194   -2.8604902    86.136211  0.079755751   0.09197661            2 
   91000    1.1326872   -2.8847341    86.286573  0.079017008  0.091843095            3 
   92000    1.1477938   -2.8882728    87.752737  0.079486174  0.091707112            3 
   93000    1.1437085   -2.9328297    88.462382  0.079267367  0.091558995            2 
   94000    1.1235248    -2.909626    89.446081   0.07929617   0.09140632            3 
   95000     1.116609   -2.9048435    90.183607  0.079108427  0.091262938            1 
   96000    1.1263045   -2.9302088    91.352046  0.079298651  0.091111523            2 
   97000    1.1210506   -2.9044727    92.457242   0.07943062  0.090952891            6 
   98000    1.1213129     -2.90413    93.480339  0.079490084   0.09081285            2 
   99000    1.0970961   -2.9107585    94.621723  0.079647915  0.090684769            3 
  100000    1.1056297   -2.9103694    95.310269  0.079425224   0.09054171            2 
  101000    1.0890207   -2.8985907    96.060712  0.079258013  0.090397131            1 
  102000    1.1003216   -2.8925539    97.040464  0.079281425  0.090252259            1 
  103000    1.1171249    -2.933265    98.205045  0.079453919  0.090105176            1 
  104000    1.0976446   -2.9209917    98.773711  0.079145601  0.089959474            2 
  105000    1.1021686   -2.9143382    100.30554  0.079607569  0.089822369            1 
  106000    1.1077787   -2.9418017     100.6774  0.079148895  0.089670915            2 
  107000    1.0946896     -2.91143    101.83824  0.079313271  0.089520885            2 
  108000    1.1012123   -2.9321257     102.3366  0.078963427  0.089362543            2 
  109000     1.082331   -2.9248796    103.47485  0.079109214  0.089201518            3 
  110000    1.0981317   -2.9407022    104.86473  0.079442977  0.089064126            2 
  111000    1.0890059   -2.9132544    105.88442  0.079492808  0.088934553            3 
  112000    1.0627335   -2.9304696    105.88706  0.078785017  0.088798605            2 
  113000    1.0835607   -2.9486568    107.67082  0.079403258  0.088668418            2 
  114000    1.0921077   -2.9401748    108.46539  0.079287569  0.088539454            2 
  115000    1.0998483   -2.9710467    109.16898  0.079107953  0.088403396            3 
  116000    1.0660773    -2.952299    110.01821  0.079036073  0.088279871            1 
  117000    1.0753727   -2.9464112    111.27097  0.079252826  0.088148462            2 
  118000    1.0962597   -2.9381245    111.74152  0.078913506     0.088005            2 
  119000    1.0904883   -2.9638256    112.80304  0.078993729  0.087862248            1 
  120000    1.0792898   -2.9765161    113.14104  0.078570168  0.087736882            3 
  121000    1.0615748    -2.961306    114.27137  0.078699288  0.087607075            3 
  122000    1.0954074   -2.9484787    115.98168  0.079222456  0.087476938            2 
  123000    1.0750803   -2.9541112    116.08154   0.07864603  0.087347615            3 
  124000    1.0401012   -2.9841928    116.97586  0.078612808  0.087202818            2 
  125000    1.0703554   -2.9427869    117.80436  0.078536238  0.087060463            3 
  126000     1.107116   -2.9955386     118.0078  0.078047485   0.08691098            2 
  127000    1.0728739   -2.9518897    119.29149  0.078275255  0.086756916            1 
  128000    1.0972299      -2.9579    120.19844  0.078254193  0.086605256            1 
  129000    1.0762719   -2.9351512    121.14171  0.078256916  0.086462606            2 
  130000    1.0653387   -2.9751055    121.84342  0.078104758   0.08632512            2 
  131000     1.062304   -2.9848364    122.63228  0.078010356  0.086189141            4 
  132000    1.0629999   -2.9676404     124.1501  0.078377588  0.086055177            4 
  133000    1.0460485   -2.9921922    124.43054     0.077964  0.085918501            5 
  134000     1.036248   -2.9744236    125.20064  0.077861094  0.085784673            2 
  135000    1.0740587    -2.999398     126.3769  0.078010433  0.085652538            3 
  136000    1.0750572   -2.9655141    127.38426  0.078054083  0.085529414            2 
  137000    1.0464314   -2.9952402    127.79719  0.077735516  0.085400731            2 
  138000    1.0235489   -2.9994046    128.77282  0.077761363  0.085272419            3 
  139000    1.0657109   -3.0053453    129.30912  0.077523456  0.085136149            2 
  140000     1.059936   -2.9699782    130.15706  0.077474442  0.085003968            2 
  141000    1.0661212   -2.9905962    131.24912  0.077570404  0.084866495            1 
  142000    1.0380259   -3.0082683    132.14299  0.077548702  0.084729009            2 
  143000    1.0483364   -3.0132397    133.06144  0.077541633  0.084598674            1 
  144000     1.060309   -2.9760482    133.47551  0.077242774  0.084475543            4 
  145000    1.0363013   -2.9986835    134.39025  0.077235777   0.08435493            2 
  146000    1.0332051   -3.0291732    135.34405  0.077251169  0.084222192            4 
  147000    1.0635667   -2.9883798    136.37267  0.077308767  0.084089452            1 
  148000    1.0201406   -3.0206871    137.22707  0.077267493   0.08396812            5 
  149000    1.0326955   -2.9929835    137.11517  0.076686337  0.083840895            4 
  150000    1.0509333   -3.0074028    138.16383  0.076757683  0.083714884            4 
  151000    1.0362696   -3.0076072    139.09072  0.076760881  0.083588655            2 
  152000     1.035299   -2.9996831    140.28853  0.076912572  0.083450727            2 
  153000    1.0364504   -3.0108733    141.38351   0.07700627  0.083323242            4 
  154000    1.0167255   -3.0166125    141.66029  0.076655999  0.083193994            3 
  155000    1.0129969   -3.0165192    142.65115  0.076694167  0.083072835            1 
  156000    1.0091075   -3.0080355    143.91193  0.076876031  0.082947959            2 
  157000    1.0203097   -3.0589489    144.27853   0.07658096   0.08283038            2 
  158000    1.0262255   -3.0160226    146.05889  0.077035279  0.082718916            2 
  159000    1.0357247   -3.0322122    146.80423  0.076941422  0.082612205            2 
  160000    1.0279034   -3.0342731      148.004  0.077085418  0.082512233            5 
  161000    1.0049063   -3.0469077    149.59462  0.077429925  0.082419519            2 
  162000    1.0225267   -3.0179922    149.83173  0.077073937  0.082326708            4 
  163000    1.0048561   -3.0365911    149.86377  0.076617471  0.082227068            3 
  164000     1.009395   -3.0376397    150.75044  0.076600833  0.082122481            3 
  165000    1.0016465   -3.0777836    150.90634  0.076215324  0.082011346            2 
  166000    1.0160886   -3.0713652     151.4452  0.076026708   0.08189196            2 
  167000    1.0055981   -3.0554645    152.29195  0.075993986  0.081770806            3 
  168000    1.0213138   -3.0499025    152.82182  0.075804474  0.081650551            2 
  169000   0.98271007   -3.0590453    154.13882  0.076005337   0.08152165            2 
  170000   0.98909183   -3.0419541     154.7162  0.075841272  0.081394153            1 
  171000    1.0014753   -3.0461981     154.4271  0.075256872  0.081260617            2 
  172000    1.0107439   -3.0796375    154.75918  0.074980221  0.081124906            3 
  173000    0.9778263   -3.0555956    156.20022  0.075240956   0.08098423            5 
  174000   0.98275557    -3.069324    156.09968  0.074760384  0.080843379            2 
  175000   0.99792831   -3.0349737    156.81762  0.074675059  0.080702605            2 
  176000   0.96576624   -3.1018976    157.14415  0.074405374  0.080557572            2 
  177000    1.0014682   -3.0664347    157.74523  0.074267998  0.080410514            3 
  178000   0.97678383   -3.0725983    158.42327  0.074168199  0.080261083            1 
  179000   0.97804187   -3.0520163    159.79639  0.074393106  0.080109483            2 
  180000    1.0053688    -3.082486     159.3633  0.073779307  0.079960479            3 
  181000   0.96677089    -3.072253    161.27914  0.074253749  0.079815019            7 
  182000   0.97272075   -3.1039105    161.44221  0.073920424  0.079670485            3 
  183000     0.974262   -3.1084819    162.42717  0.073965012  0.079530045            3 
  184000   0.98387009   -3.1088884    162.73884  0.073704184    0.0793898            3 
  185000   0.97129144   -3.0829187    163.84103  0.073802265  0.079248146            2 
  186000   0.96223686   -3.0782286    164.44324  0.073675287  0.079108398            3 
  187000   0.97224658   -3.1172428    164.79647  0.073438712  0.078961353            4 
  188000   0.94211418   -3.0685661    165.02131  0.073147744  0.078814249            1 
  189000   0.95585294   -3.0977474    165.65941  0.073042067  0.078663885            3 
  190000   0.97725998   -3.1212273    166.23357  0.072909461  0.078508766            3 
  191000   0.98010153   -3.0873016    165.98335  0.072418565  0.078350215            5 
  192000   0.94723696   -3.1113672     167.2152  0.072576042  0.078190261            2 
  193000   0.95607422   -3.1176021     168.0174  0.072546372  0.078031018            3 
  194000   0.98057712   -3.0820202    168.58028   0.07241421  0.077871149            2 
  195000   0.96359962   -3.1183915    168.42188  0.071975163  0.077713352            3 
  196000   0.97768244   -3.1130391    169.45086  0.072045435  0.077555428            4 
  197000   0.93786722   -3.0920799    170.48384  0.072116685  0.077399685            3 
  198000   0.96323027   -3.0880763    170.80284  0.071886718  0.077240619            2 
  199000   0.96540857   -3.1093798    171.28655  0.071728034  0.077080283            3 
  200000   0.93259925   -3.1411536    171.54492  0.071477052  0.076922343            4 
  201000   0.94201949   -3.1138912     172.1969  0.071391748  0.076760439            4 
  202000   0.95341666   -3.1284673    173.57041  0.071604954  0.076604038            5 
  203000   0.95046716   -3.0983082    174.14469  0.071487969  0.076448216            6 
  204000   0.93672438   -3.1375102     174.6437  0.071341381  0.076297513            2 
  205000   0.93897069    -3.106307    175.45558  0.071323405  0.076148418            4 
  206000   0.96973785   -3.1294744    175.59327  0.071032875  0.076003161            3 
  207000   0.96586165    -3.126072    177.13993  0.071312372  0.075860758            4 
  208000   0.93236895   -3.1343668    177.92526  0.071284159  0.075718859            1 
  209000   0.94893457   -3.1427029     178.5664  0.071198724  0.075578454            3 
  210000   0.92964169    -3.138027    178.75062  0.070932785  0.075440755            1 
  211000   0.93581353   -3.1335073    179.73966  0.070987228  0.075300394            1 
  212000    0.9441502   -3.1383593    180.64858  0.071009661  0.075164974            1 
  213000   0.92931774   -3.1411363    180.66264  0.070681786  0.075030247            6 
  214000   0.93834904   -3.1112813    182.10243   0.07091216  0.074898668            2 
  215000   0.93863045   -3.1599702    182.33101  0.070670935  0.074766512            5 
  216000   0.91833747    -3.151702    183.00444  0.070603565  0.074632775            4 
  217000   0.91255291   -3.1636356    183.35387  0.070412394  0.074496235            2 
  218000   0.91318767   -3.1665182    182.90315  0.069917107  0.074358841            4 
  219000   0.90218192   -3.1720136    184.56298  0.070229444  0.074219729            2 
  220000   0.90970109   -3.1822571    184.60092  0.069924592  0.074085301            2 
  221000   0.91919671   -3.1517688    185.66595  0.070009783   0.07394917            2 
  222000   0.92605242   -3.1318487    185.53554  0.069645474  0.073813357            4 
  223000   0.91428912   -3.1687503    186.03354  0.069519259  0.073676731            2 
  224000   0.91957057   -3.1880761     186.6192  0.069426787  0.073539599            4 
  225000   0.89920507   -3.1721019    187.43403  0.069420011  0.073403774            2 
  226000   0.88494622   -3.1551654    187.41305  0.069105106  0.073267782            2 
  227000   0.89893632   -3.1709268    188.44192  0.069178385  0.073133193            3 
  228000   0.91697219   -3.1437797    189.19356  0.069149691  0.073000448            3 
  229000   0.92809925   -3.1638359    190.10724  0.069180218  0.072864575            2 
  230000   0.89231377   -3.2053212    190.22948  0.068923723  0.072727341            4 
  231000   0.90232487   -3.1747893    190.28821  0.068646539  0.072589522            3 
  232000   0.88475299   -3.1810024    190.90256  0.068571323  0.072450442            3 
  233000   0.91793611   -3.1856914    192.01787   0.06867592  0.072316192            5 
  234000   0.88631007   -3.1865285    192.34175  0.068497774  0.072181368            4 
  235000   0.88977989   -3.1869947    193.09162  0.068472204  0.072047853            2 
  236000   0.89178828   -3.1987358    193.10521  0.068186867  0.071913167            4 
  237000   0.89162613   -3.1945052      193.735  0.068120604  0.071779029            4 
  238000   0.91049544   -3.2092199    194.10524  0.067964021  0.071642557            8 
  239000   0.88320009   -3.1842042    193.88482  0.067602798  0.071503568            3 
  240000   0.88275039   -3.1950984    194.70504  0.067605917   0.07136522            4 
  241000   0.88833427   -3.2130629    194.49738   0.06725359  0.071224702            2 
  242000   0.86775686    -3.204214    194.92079  0.067121485  0.071080332            4 
  243000   0.87196669   -3.2157805    196.37662  0.067344518  0.070938485            5 
  244000   0.89555856   -3.2469131    196.11623  0.066979588  0.070795528            8 
  245000   0.86844641   -3.2298974    197.10381  0.067042112  0.070655457            2 
  246000   0.86105595   -3.2448246     197.6678  0.066960637  0.070514625            3 
  247000   0.87027984   -3.2166327    198.43543  0.066948527  0.070376333            3 
  248000   0.88196748   -3.2045283    198.79059  0.066797912  0.070240088            6 
  249000   0.87713454   -3.2466157    199.34615  0.066715579  0.070104491            3 
  250000    0.8690087   -3.2356832    199.50765  0.066502548  0.069970808            6 
  251000   0.87595556   -3.2252275    201.77819  0.066991432  0.069840137            3 
  252000   0.88110367   -3.2193111    201.18569   0.06652966  0.069710351            2 
  253000   0.85589422   -3.2461536    201.64539  0.066418114  0.069580073            3 
  254000   0.86595054   -3.2673024    202.51767  0.066442806  0.069446526            4 
  255000   0.84697981   -3.2326899    202.92463  0.066315239  0.069316885            3 
  256000   0.85720063   -3.2521003    203.04766  0.066096243  0.069187935            4 
  257000   0.85995404   -3.2212339    204.59203  0.066339829  0.069062191            4 
  258000   0.86171566   -3.2322206    204.68295  0.066112065  0.068935091            4 
  259000   0.86763838   -3.2610535    205.16931  0.066013291  0.068806722            2 
  260000   0.84852149   -3.2700594    205.93531  0.066004906  0.068678843            3 
  261000    0.8499656    -3.264597    206.58085  0.065958127  0.068554775            5 
  262000   0.84634638   -3.2467804    207.05813  0.065858185  0.068431843            4 
  263000   0.86223246   -3.2541273    208.56064  0.066083852  0.068311437            4 
  264000   0.83528674   -3.2734015    207.97294  0.065648023   0.06819398            4 
  265000    0.8549704   -3.2508082    208.84047  0.065673103  0.068073263            2 
  266000   0.86143037   -3.2570352    208.94688  0.065459548   0.06795445            5 
  267000   0.83476536   -3.3118274    208.54604  0.065089276  0.067832886            4 
  268000    0.8346489    -3.269092     210.5598  0.065472575  0.067712199            3 
  269000    0.8352117   -3.2730761    210.02524   0.06506358  0.067595051            4 
  270000   0.84126796   -3.2732687    211.37801  0.065240126  0.067476123            3 
  271000   0.82214657   -3.2948201    211.85191  0.065145115  0.067360659            5 
  272000   0.84309656   -3.3065832    212.35309  0.065059157  0.067245422            4 
  273000   0.82175927   -3.2796139    212.28843  0.064801106  0.067132279            4 
  274000    0.8418618   -3.2920459    213.10426   0.06481273  0.067015658            4 
  275000   0.81702653   -3.2885597     213.7073  0.064759789  0.066898606            4 
  276000   0.82853451   -3.2955135    214.25226  0.064689692  0.066783219            2 
  277000   0.84264653   -3.2747148    213.78959  0.064316965  0.066668213            3 
  278000   0.81646749   -3.2939299     215.0302  0.064457494  0.066552671            6 
  279000   0.83313886   -3.2735573    216.67364  0.064717334  0.066442062            2 
  280000   0.81900199   -3.2851667    216.98568  0.064579072  0.066332716            2 
  281000   0.82576472   -3.2870423     216.2424  0.064128825  0.066221117            2 
  282000   0.82100593    -3.292832    217.61932  0.064308308  0.066111055            3 
  283000   0.81066834    -3.296939    217.56991  0.064066522  0.066002914            5 
  284000   0.81625068   -3.3144105     218.1859  0.064021685  0.065890177            6 
  285000   0.81611573   -3.2951503    219.04949  0.064049557  0.065780575            6 
  286000   0.83777382   -3.3270085    218.76033  0.063741354   0.06566881            8 
  287000   0.80834649   -3.3139321    218.79681  0.063529851  0.065555494            3 
  288000   0.79663531   -3.3230451    219.19644  0.063424895  0.065441269            3 
  289000   0.80491176   -3.2997923    219.92927  0.063416743  0.065327376            2 
  290000   0.80219647   -3.3297306    220.54027  0.063373639  0.065214652            5 
  291000   0.80551869   -3.3385467    220.44609  0.063128892  0.065102111            6 
  292000   0.80602034   -3.3266507    221.39101  0.063182367  0.064990529            6 
  293000   0.79235311   -3.3459628    221.22889  0.062920616  0.064875423            4 
  294000   0.79698091   -3.3393658    222.00906  0.062927739  0.064761755            2 
  295000   0.78380435   -3.3120894    222.86019  0.062954856  0.064648118            3 
  296000   0.77834434   -3.3572641    222.50373  0.062641817  0.064534366            3 
  297000    0.7990686   -3.3058076    222.82048  0.062519774  0.064419752            4 
  298000    0.8030787   -3.3397933    223.40568  0.062473624  0.064306118            4 
  299000   0.77554257   -3.3758853    223.06441  0.062169569  0.064191496            4 
  300000   0.78866805   -3.3817201    223.73292  0.062148034  0.064075692            4 
  301000    0.7661411   -3.3317327    224.53202  0.062162797  0.063961496            7 
  302000   0.79436282   -3.3421291    224.75855  0.062019467  0.063845344            3 
  303000   0.78404058   -3.3285565    224.26718  0.061679642  0.063728336            8 
  304000   0.78271258   -3.3721803    224.72735  0.061602891  0.063611636            4 
  305000    0.7751431   -3.3490924    225.12575  0.061509767  0.063494816            9 
  306000   0.78495071   -3.3562559    225.41914  0.061388655  0.063377269            4 
  307000   0.77878002   -3.3823491    226.14728   0.06138634  0.063259086            6 
  308000   0.75609916   -3.3460327    226.67696  0.061330346  0.063141022            4 
  309000   0.79709364   -3.3638429    226.44527  0.061069382  0.063023902            8 
  310000   0.76062732   -3.3397796    226.70835  0.060943105  0.062905792            5 
  311000   0.77509156   -3.3592638    227.64456  0.060998006  0.062788663            5 
  312000   0.77256936   -3.3529476    227.47923  0.060758342  0.062672112            7 
  313000   0.76542393   -3.3814291    226.74507  0.060368762  0.062552764            4 
  314000   0.76119258     -3.37149    228.73525  0.060704683  0.062435828            5 
  315000   0.74715692   -3.3967692    228.49406  0.060448165  0.062318931            5 
  316000   0.75414656   -3.3741475    229.18655  0.060439491  0.062202657            2 
  317000   0.75282258    -3.380641    228.94305  0.060184817  0.062084787            9 
  318000   0.76263448    -3.373568    230.14278  0.060309952    0.0619685            6 
  319000   0.75424756   -3.4085037     229.3284  0.059908149  0.061851172            4 
  320000   0.75143888   -3.4041373    230.07069  0.059914241  0.061733187            4 
  321000   0.79024061   -3.3774026    230.60938  0.059867441    0.0616159            4 
  322000   0.75818408   -3.3996424    230.68259  0.059700463  0.061498871            5 
  323000   0.74010459   -3.4087356    230.71757  0.059524656  0.061380047            5 
  324000   0.74745234   -3.3866204    231.08677  0.059435898  0.061262378            4 
  325000   0.74845062   -3.4092004    232.04952  0.059499876   0.06114567            4 
  326000   0.75198864   -3.4288697    232.33412  0.059390113  0.061026928            4 
  327000   0.75633281   -3.4068658     231.9573   0.05911246  0.060909724            3 
  328000    0.7319481   -3.4196324    232.57291  0.059088645  0.060792178            4 
  329000   0.72842334   -3.4026469    234.02119  0.059275884  0.060675963           13 
  330000   0.73761834   -3.4243478    232.99848     0.058838  0.060560742            4 
  331000    0.7347617    -3.426514    233.49015  0.058784027  0.060445173            4 
  332000   0.71911156   -3.4070807     234.1714  0.058777962  0.060329996            4 
  333000   0.72903231   -3.4119437    234.84037  0.058768862  0.060216224            2 
  334000   0.73600089   -3.4387727    234.53404  0.058516478  0.060101389            7 
  335000    0.7319484    -3.446221    234.98169  0.058453157  0.059986132            5 
  336000   0.72653302   -3.4383338     235.2237  0.058339211  0.059871436            6 
  337000   0.70794801   -3.4484279    234.66602  0.058028195  0.059755943            6 
  338000    0.7400597   -3.4495032    235.31312  0.058016056  0.059639118            7 
  339000   0.74854927   -3.4144226    235.27079  0.057834511  0.059522182            4 
  340000   0.71725432   -3.4543167    234.82497  0.057555139  0.059403014            5 
  341000   0.72061774   -3.4539238    235.17092    0.0574709  0.059284806            4 
  342000   0.71317119   -3.4771262    236.21587  0.057557473   0.05916572            8 
  343000   0.72416295    -3.454588    236.39312  0.057432731   0.05904903            3 
  344000   0.71874712   -3.4586245    236.33944   0.05725277  0.058929942            4 
  345000   0.71692529   -3.4381662     237.5948  0.057390049  0.058813363            3 
  346000   0.70983162   -3.4617851    238.02418  0.057327596     0.058696            7 
  347000   0.72961723   -3.4744406    237.44841  0.057024113  0.058578599            7 
  348000   0.70117579   -3.4677224     236.6139  0.056660416  0.058461491            5 
  349000   0.72625541   -3.4661299    238.17728  0.056871366  0.058344343            5 
  350000   0.69770551   -3.4930955    238.64567  0.056820397  0.058227324            5 
  351000   0.70166303   -3.4876491    238.65427  0.056660557  0.058110698            5 
  352000   0.71812171    -3.479511    239.03574    0.0565899  0.057993926           10 
  353000   0.69916217   -3.4626395    239.40864  0.056517621  0.057877724            7 
  354000   0.70831185   -3.4910146    239.59285  0.056401329   0.05776261            5 
  355000   0.69714221   -3.4648049    240.42812  0.056438525  0.057648965           19 
  356000   0.70784352   -3.4642446    240.64871  0.056331626  0.057534197            8 
  357000   0.70799971   -3.5072493    240.03397  0.056030339   0.05741925            7 
  358000   0.68726705   -3.5030995    241.34866  0.056179855  0.057304126            5 
  359000   0.67803941   -3.5118859    240.55813  0.055839862  0.057189647           10 
  360000   0.69948914   -3.5013548     240.5883  0.055691735  0.057074509            4 
  361000   0.70705529   -3.5155609    241.23805  0.055687453  0.056960338            4 
  362000    0.6897215   -3.5098418     241.6513  0.055628752  0.056846593           10 
  363000   0.69360327   -3.4887237    242.14325  0.055588442   0.05673301           10 
  364000   0.68490616   -3.5042254    243.10806  0.055656607  0.056620027            8 
  365000   0.68976007   -3.5140643    242.21583  0.055300417  0.056506112            4 
  366000   0.69784373    -3.511033    242.67328  0.055253478  0.056391706            6 
  367000   0.66177078   -3.5529503     242.2438  0.055005403  0.056277257           13 
  368000   0.68289174   -3.5359995    242.50508  0.054915099  0.056162257            5 
  369000   0.68487244   -3.5160137     242.9144  0.054858717  0.056048717            5 
  370000   0.67250188   -3.5328822    243.27894  0.054792554   0.05593549            4 
  371000   0.67950614   -3.5273305    243.05973  0.054595626  0.055821739           11 
  372000   0.65402767   -3.5374201    243.22777  0.054486508  0.055707823            3 
  373000   0.67350074   -3.5557584      243.719  0.054450178  0.055594238            5 
  374000   0.67928735   -3.5469721    244.10032  0.054389554  0.055481754           14 
  375000   0.66191568   -3.5482507    244.52065  0.054337922  0.055370202            7 
  376000    0.6745585   -3.5331089    245.05994  0.054312929  0.055257445            6 
  377000   0.66703807   -3.5335883    245.31141   0.05422445  0.055144574            3 
  378000   0.67525787   -3.5283072    244.59238  0.053922483  0.055030662            5 
  379000    0.6813963   -3.5444565     244.9765  0.053864666  0.054917127           16 
  380000   0.66977122    -3.552036    244.17646  0.053547469  0.054802702           21 
  381000   0.65820756   -3.5675461    243.77034  0.053318097  0.054686451            9 
  382000    0.6432058   -3.5724676    244.30209  0.053294522  0.054570505            4 
  383000   0.64696281   -3.5438301    244.55525  0.053210454  0.054454435            8 
  384000   0.66107633   -3.5459304    244.66229  0.053095116  0.054339129            4 
  385000   0.65670379   -3.5874872    244.44962  0.052911173  0.054223616            5 
  386000    0.6526188   -3.5792473    245.52933  0.053007195  0.054107847           10 
  387000    0.6575629    -3.568188    245.41003  0.052844537  0.053992661            6 
  388000   0.65035903   -3.5782455    245.26954  0.052678165   0.05387702           16 
  389000   0.65054905   -3.5693727    245.26834  0.052542489  0.053761782            4 
  390000   0.63292143   -3.5815522     245.1208  0.052376238  0.053644861            7 
  391000   0.64125485   -3.5928513    245.72862  0.052371829  0.053528891           19 
  392000   0.63284676   -3.5684868    246.34442  0.052369136  0.053413738            3 
  393000    0.6438449   -3.5796887    246.79779  0.052332017  0.053298808            5 
  394000   0.64450178   -3.6029821    246.86985  0.052214435   0.05318414            4 
  395000   0.62973297   -3.5812913    247.14187  0.052139635  0.053068586           10 
  396000   0.63377461   -3.5856255    246.49713  0.051872291  0.052953086            4 
  397000   0.63317305   -3.6144993    245.95303  0.051627421  0.052837201            7 
  398000   0.64498153   -3.6128264    245.06672  0.051312128   0.05272026            6 
  399000   0.62758459   -3.5976555    247.31421  0.051652927  0.052603216            7 
  400000   0.62121092   -3.6135072    246.83122  0.051423171  0.052487549            4 
  401000   0.62722104   -3.6088854    247.09056  0.051348828  0.052371983            6 
  402000   0.61647539   -3.6090195    247.31528  0.051267679  0.052257228            3 
  403000   0.63403374   -3.6118167    246.58572  0.050989603  0.052141667            7 
  404000   0.62038847    -3.604372    247.21642  0.050993486  0.052025768            8 
  405000   0.62614594   -3.6254259    246.60044  0.050740831  0.051910576            5 
  406000   0.61739873   -3.6306247    247.37471  0.050774776  0.051795823            8 
  407000   0.61260271   -3.6338224    247.63061  0.050702419  0.051681618            6 
  408000   0.61547223   -3.6286785    248.65939  0.050788274  0.051567612           13 
  409000   0.61316915   -3.6176188    248.39865  0.050610973  0.051453718            9 
  410000   0.62124676   -3.6198999    248.11947  0.050430787  0.051340254           10 
  411000   0.60879274   -3.6281983    249.22095  0.050531417   0.05122725            5 
  412000   0.61150558   -3.6272142    248.93179  0.050350281  0.051114219           16 
  413000   0.59852654    -3.629838    248.67246  0.050176041  0.051001945           15 
  414000   0.60284614   -3.6602883    248.93602  0.050107894   0.05089038            6 
  415000   0.61022208   -3.6458297    248.41923  0.049883379   0.05077805            8 
  416000   0.59053186   -3.6426748    249.19508  0.049918887  0.050666486           10 
  417000   0.61225907   -3.6514826    249.08029  0.049776237  0.050554534            7 
  418000   0.60411771   -3.6476095    249.42651  0.049726178  0.050442481            8 
  419000   0.58888816    -3.669826    248.40997  0.049405323  0.050329655            6 
  420000   0.59336687   -3.6653809    248.93759  0.049392378  0.050216361           28 
  421000   0.59973797   -3.6419289    249.59753  0.049405687  0.050103857           12 
  422000    0.5963519   -3.6653321    249.44002  0.049257509  0.049991062           11 
  423000   0.59501824   -3.6558452    249.08448  0.049071017  0.049878111            8 
  424000   0.58949219   -3.6680599     249.8733  0.049110319  0.049766109            6 
  425000   0.59988791    -3.700412    248.99706  0.048822953  0.049653625           11 
  426000    0.5838223   -3.6831521    250.22221  0.048948006  0.049540734           12 
  427000   0.59194682   -3.6948392    249.92411  0.048775197   0.04942902            7 
  428000   0.58591275   -3.6883651    250.61932  0.048796597  0.049317604            7 
  429000   0.58787276   -3.6732794    250.69492  0.048697537  0.049206951           14 
  430000    0.5912835   -3.6799736    249.84097  0.048418792  0.049096158           10 
  431000   0.57903818   -3.7069038      250.414  0.048417246  0.048985741            6 
  432000   0.57005766   -3.6994183    250.60402  0.048341824  0.048875968            6 
  433000   0.56794215   -3.7038589    249.26666  0.047972799  0.048765011            9 
  434000   0.58139889   -3.7204481    250.96571    0.0481885  0.048654444            8 
  435000   0.56502604   -3.7105125    250.94207  0.048073194  0.048544434           12 
  436000   0.56589774   -3.7173502    250.79065  0.047933992  0.048434219            9 
  437000    0.5581198   -3.7108708    251.06429  0.047876485  0.048325178            9 
  438000   0.56979465   -3.7111531    250.95835  0.047747022  0.048216185            7 
  439000   0.55940574   -3.7142568    250.92705  0.047632318  0.048107564           11 
  440000    0.5598153   -3.7092336    251.89805  0.047707964  0.047999894           13 
  441000   0.55538714   -3.7295388    251.66538  0.047555817   0.04789171           16 
  442000   0.55301283   -3.7356233    251.73961   0.04746222  0.047783838           11 
  443000   0.55857591   -3.7217892    251.83471   0.04737297  0.047676105           14 
  444000   0.55499764   -3.7340547    251.61563  0.047225156  0.047568139           15 
  445000   0.55368655   -3.7334509    251.64156  0.047123887  0.047460877           11 
  446000   0.54836801   -3.7304414    252.40074  0.047160078  0.047353067           12 
  447000   0.54524273   -3.7485147     251.1716  0.046825428  0.047245035           18 
  448000   0.56230355   -3.7428147    251.77703  0.046833525  0.047137348           10 
  449000   0.55309218   -3.7372148    251.98952  0.046768655  0.047030009            5 
  450000   0.53823117   -3.7656347    252.51042  0.046761188  0.046923514            9 
  451000   0.53572118   -3.7495609    252.34262    0.0466265  0.046817323           15 
  452000   0.55430215   -3.7495997    252.05257  0.046469868  0.046711052           10 
  453000   0.55795448   -3.7651447    251.67958  0.046298672  0.046604268           10 
  454000   0.54631392   -3.7782378     252.2453  0.046300532  0.046497699           12 
  455000   0.54288817   -3.7608985    252.77238  0.046295308  0.046391695           19 
  456000   0.53646227   -3.7542059    252.18049  0.046085616  0.046285499           17 
  457000   0.53376404   -3.7602101    252.03697    0.0459586  0.046179359           16 
  458000   0.52942565   -3.7828224    251.51948  0.045764098  0.046073071           25 
  459000   0.54088975   -3.7562173    252.35531  0.045816142  0.045967194           12 
  460000   0.51938376   -3.7539238      252.436  0.045731159  0.045861731           23 
  461000   0.53414925   -3.7651398    252.79126  0.045696178  0.045756851           18 
  462000   0.53578973   -3.7881073    252.59944  0.045562669  0.045652164            7 
  463000   0.52635619   -3.7760462     253.0342  0.045542512  0.045547149           24 
  464000    0.5310628   -3.7767236    252.64645  0.045374722  0.045442151           45 
  465000   0.53101609   -3.7902211    253.23737  0.045383041  0.045337097           29 
  466000   0.51938217   -3.7832428    253.30457   0.04529767   0.04523313           24 
  467000   0.51527045   -3.7850323    253.57275  0.045248528  0.045129103           22 
  468000   0.51330529   -3.7863611    252.65725  0.044988826  0.045025498           17 
  469000   0.52257989   -3.8078246     252.7218  0.044904371  0.044921886           15 
  470000   0.51202807    -3.798508    252.31977  0.044737548  0.044818333            8 
  471000   0.51447603    -3.810729     252.7358  0.044716171  0.044714298            8 
  472000   0.52407823   -3.8271896    253.00068  0.044668199  0.044610477           28 
  473000   0.49575185   -3.7987933    253.87571  0.044727926   0.04450737           12 
  474000   0.52703386    -3.820322    253.14129  0.044504446  0.044404324            8 
  475000   0.50567729   -3.8167821    253.03512  0.044392126  0.044301403            7 
  476000   0.50883575   -3.8199175    253.33433  0.044351249  0.044198803           17 
  477000    0.5084525    -3.830276    252.87669  0.044178318  0.044096039            7 
  478000   0.49566397   -3.8337101    253.53638  0.044200904  0.043992931           21 
  479000    0.4980163   -3.8457767    253.52618   0.04410685  0.043890106           20 
  480000    0.4934504   -3.8510611    252.86484  0.043900146  0.043787306           17 
  481000   0.51057396   -3.8432352    252.65929  0.043773266  0.043684087           61 
  482000   0.49485402   -3.8409103    252.82549  0.043711184  0.043581691           24 
  483000   0.49615625    -3.860793    252.96241  0.043644307  0.043479012           18 
  484000   0.49716939   -3.8517052     252.9025  0.043543819  0.043376605           13 
  485000   0.49841542   -3.8453454     252.3841  0.043364965  0.043274622           12 
  486000   0.48262143   -3.8566581    252.72814  0.043334728  0.043172683           20 
  487000     0.491512   -3.8556008    253.27998  0.043340175  0.043070885           13 
  488000    0.4814608   -3.8730227    252.83482  0.043175345  0.042969197           31 
  489000    0.4802269   -3.8559943     252.9853  0.043112696  0.042867324           30 
  490000   0.49304628   -3.8688136    252.87274  0.043005569  0.042765348           27 
  491000   0.48988803   -3.8777733    252.71279  0.042890834   0.04266359           25 
  492000   0.48020018   -3.8572744    252.60559  0.042785499  0.042562173           18 
  493000   0.48219677   -3.8862138    252.75111  0.042723311  0.042461109           16 
  494000   0.47483862   -3.8896674     253.8396  0.042820445  0.042360351           35 
  495000    0.4697419   -3.8864683    253.34374  0.042650461  0.042259822           25 
  496000   0.47271855   -3.8919432     253.4426  0.042581081  0.042159859           25 
  497000   0.47111916   -3.8906382    253.26936  0.042466358  0.042059701           23 
  498000   0.47301698   -3.8901374    253.18368  0.042366747  0.041959849           21 
  499000    0.4726494   -3.9048374    253.02874  0.042255969  0.041860067           14 
  500000   0.46910023   -3.8996956    253.21911  0.042203185  0.041760375           24 
  501000   0.46309553   -3.8963121    252.92742  0.042070429  0.041660798           18 
  502000   0.46317749   -3.9131122    253.33877  0.042054909  0.041561367           24 
  503000   0.45761395   -3.9184549    253.24866  0.041956372  0.041462059           12 
  504000   0.45623502   -3.9094254     253.1612  0.041858664  0.041362933           22 
  505000   0.45650941   -3.9262082    253.12681  0.041770101  0.041264266           23 
  506000   0.45852308   -3.9164731    253.68884  0.041780111  0.041165881           82 
  507000   0.44943381   -3.9387054     253.4158  0.041652827  0.041067478           59 
  508000   0.46597476   -3.9163405    253.40289  0.041568716  0.040969464          114 
  509000    0.4559589   -3.9029379    253.30341  0.041470761  0.040871656           50 
  510000   0.44755458   -3.9147077    253.03936    0.0413463   0.04077392           60 
  511000    0.4533959   -3.9305966    253.19179  0.041290246  0.040676155           37 
  512000   0.44922731   -3.9208347     252.7127  0.041131625  0.040578816           68 
Loop time of 1224.15 on 48 procs for 500000 steps with 4000 atoms

Performance: 70579.409 tau/day, 408.446 timesteps/s
99.4% CPU use with 48 MPI tasks x no OpenMP threads

MPI task timing breakdown:
Section |  min time  |  avg time  |  max time  |%varavg| %total
---------------------------------------------------------------
Pair    | 78.715     | 84.579     | 90.478     |  27.5 |  6.91
Neigh   | 8.1721     | 8.5258     | 8.8855     |   6.6 |  0.70
Comm    | 78.18      | 84.597     | 91.909     |  32.7 |  6.91
Output  | 0.94335    | 0.94422    | 0.97288    |   0.4 |  0.08
Modify  | 1030.1     | 1034       | 1037.1     |   5.7 | 84.47
Other   |            | 11.51      |            |       |  0.94

Nlocal:        83.3333 ave          89 max          76 min
Histogram: 2 1 1 8 4 10 14 3 2 3
Nghost:        2203.96 ave        2216 max        2191 min
Histogram: 3 2 5 6 7 5 7 4 4 5
Neighs:        14697.6 ave       15991 max       13342 min
Histogram: 3 1 5 5 11 5 8 4 4 2
FullNghs:      29394.3 ave       31821 max       26751 min
Histogram: 2 1 2 10 8 8 9 5 0 3

Total # of neighbors = 1410928
Ave neighs/atom = 352.73200
Neighbor list builds = 27087
Dangerous builds = 0

#clear
#
#next RN
#
#jump SELF
Total wall time: 0:20:27
